patch_n	x	y	stress_yy
0	 0.000000000000000e+000	 0.000000000000000e+000	 2.431241100407282e-001
0	 0.000000000000000e+000	 6.666714722864756e-002	 6.345482740082983e-002
0	 0.000000000000000e+000	 1.333351778131789e-001	-6.290057555150351e-002
0	 0.000000000000000e+000	 2.000039750814772e-001	-1.403571391588519e-001
0	 0.000000000000000e+000	 2.666734223614256e-001	-1.733294858830242e-001
0	 0.000000000000000e+000	 3.333434029809069e-001	-1.662318203587069e-001
0	 0.000000000000000e+000	 4.000138002678044e-001	-1.234779294361418e-001
0	 0.000000000000000e+000	 4.666844975500011e-001	-4.948118221283413e-002
0	 0.000000000000000e+000	 5.333553781553803e-001	 5.134546994570452e-002
0	 0.000000000000000e+000	 6.000263254118248e-001	 1.745894933961811e-001
0	 0.000000000000000e+000	 6.666972226472175e-001	 3.158387722187097e-001
0	 6.666714722864756e-002	 0.000000000000000e+000	 2.583958012443850e-001
0	 6.666714722864756e-002	 6.666714722864756e-002	 9.532418094226600e-002
0	 6.666714722864754e-002	 1.333351778131789e-001	-2.195634895136013e-002
0	 6.666714722864754e-002	 2.000039750814772e-001	-9.693549224626204e-002
0	 6.666714722864757e-002	 2.666734223614254e-001	-1.331025868509296e-001
0	 6.666714722864760e-002	 3.333434029809069e-001	-1.339466048196332e-001
0	 6.666714722864757e-002	 4.000138002678046e-001	-1.029561523898771e-001
0	 6.666714722864756e-002	 4.666844975500011e-001	-4.361947001024837e-002
0	 6.666714722864754e-002	 5.333553781553803e-001	 4.057556764133666e-002
0	 6.666714722864757e-002	 6.000263254118247e-001	 1.461414516489884e-001
0	 6.666714722864757e-002	 6.666972226472178e-001	 2.695910388598006e-001
0	 1.333351778131789e-001	 0.000000000000000e+000	 2.386085215745525e-001
0	 1.333351778131789e-001	 6.666714722864753e-002	 1.016764460378660e-001
0	 1.333351778131789e-001	 1.333351778131789e-001	 1.660481116042140e-003
0	 1.333351778131789e-001	 2.000039750814772e-001	-6.409917730891344e-002
0	 1.333351778131789e-001	 2.666734223614256e-001	-9.826203602281995e-002
0	 1.333351778131790e-001	 3.333434029809069e-001	-1.034873045175680e-001
0	 1.333351778131789e-001	 4.000138002678044e-001	-8.243389502156001e-002
0	 1.333351778131790e-001	 4.666844975500011e-001	-3.776042252234640e-002
0	 1.333351778131789e-001	 5.333553781553803e-001	 2.787479521854168e-002
0	 1.333351778131789e-001	 6.000263254118246e-001	 1.118137376585620e-001
0	 1.333351778131790e-001	 6.666972226472178e-001	 2.113986814749326e-001
0	 2.000039750814772e-001	 0.000000000000000e+000	 1.925504372070706e-001
0	 2.000039750814772e-001	 6.666714722864756e-002	 8.829141892942123e-002
0	 2.000039750814772e-001	 1.333351778131789e-001	 1.131253072787514e-002
0	 2.000039750814772e-001	 2.000039750814772e-001	-4.031159540145948e-002
0	 2.000039750814772e-001	 2.666734223614255e-001	-6.850610908006985e-002
0	 2.000039750814773e-001	 3.333434029809069e-001	-7.519594157507578e-002
0	 2.000039750814773e-001	 4.000138002678044e-001	-6.230580582153327e-002
0	 2.000039750814772e-001	 4.666844975500011e-001	-3.176019643900584e-002
0	 2.000039750814772e-001	 5.333553781553803e-001	 1.451661025759511e-002
0	 2.000039750814773e-001	 6.000263254118247e-001	 7.460055625290105e-002
0	 2.000039750814773e-001	 6.666972226472178e-001	 1.465678018317072e-001
0	 2.666734223614256e-001	 0.000000000000000e+000	 1.290096123714975e-001
0	 2.666734223614255e-001	 6.666714722864758e-002	 6.094880816659328e-002
0	 2.666734223614256e-001	 1.333351778131790e-001	 1.036234491235764e-002
0	 2.666734223614256e-001	 2.000039750814772e-001	-2.403620059865236e-002
0	 2.666734223614255e-001	 2.666734223614256e-001	-4.353311631296861e-002
0	 2.666734223614256e-001	 3.333434029809070e-001	-4.941455493346986e-002
0	 2.666734223614255e-001	 4.000138002678043e-001	-4.296653393308881e-002
0	 2.666734223614256e-001	 4.666844975500010e-001	-2.547493556496824e-002
0	 2.666734223614256e-001	 5.333553781553803e-001	 1.774493130932019e-003
0	 2.666734223614256e-001	 6.000263254118247e-001	 3.749614032477825e-002
0	 2.666734223614255e-001	 6.666972226472174e-001	 8.040452939735455e-002
0	 3.333434029809069e-001	 0.000000000000000e+000	 5.677400936434829e-002
0	 3.333434029809069e-001	 6.666714722864757e-002	 2.542823461843518e-002
0	 3.333434029809069e-001	 1.333351778131790e-001	 2.172397658112230e-003
0	 3.333434029809069e-001	 2.000039750814773e-001	-1.373649998842513e-002
0	 3.333434029809070e-001	 2.666734223614256e-001	-2.304140261634184e-002
0	 3.333434029809070e-001	 3.333434029809070e-001	-2.648520035090004e-002
0	 3.333434029809069e-001	 4.000138002678044e-001	-2.481072915277372e-002
0	 3.333434029809069e-001	 4.666844975500011e-001	-1.876077082194116e-002
0	 3.333434029809070e-001	 5.333553781553805e-001	-9.078053000155760e-003
0	 3.333434029809069e-001	 6.000263254118248e-001	 3.494750828005237e-003
0	 3.333434029809069e-001	 6.666972226472177e-001	 1.821502133551297e-002
0	 4.000138002678044e-001	 0.000000000000000e+000	-1.536851144034417e-002
0	 4.000138002678045e-001	 6.666714722864756e-002	-1.249076851738911e-002
0	 4.000138002678044e-001	 1.333351778131789e-001	-9.894908078343239e-003
0	 4.000138002678044e-001	 2.000039750814773e-001	-7.876053666366040e-003
0	 4.000138002678042e-001	 2.666734223614255e-001	-6.729347486081946e-003
0	 4.000138002678042e-001	 3.333434029809068e-001	-6.749950400881595e-003
0	 4.000138002678044e-001	 4.000138002678044e-001	-8.233041930712894e-003
0	 4.000138002678044e-001	 4.666844975500011e-001	-1.147382025036203e-002
0	 4.000138002678043e-001	 5.333553781553800e-001	-1.676750218822429e-002
0	 4.000138002678045e-001	 6.000263254118249e-001	-2.440932322556416e-002
0	 4.000138002678044e-001	 6.666972226472177e-001	-3.469453749626579e-002
0	 4.666844975500011e-001	 0.000000000000000e+000	-7.863019158314363e-002
0	 4.666844975500011e-001	 6.666714722864756e-002	-4.702875570768698e-002
0	 4.666844975500012e-001	 1.333351778131790e-001	-2.247724036696896e-002
0	 4.666844975500012e-001	 2.000039750814773e-001	-4.918474731584461e-003
0	 4.666844975500011e-001	 2.666734223614255e-001	 5.704634983413079e-003
0	 4.666844975500011e-001	 3.333434029809069e-001	 9.449105528733884e-003
0	 4.666844975500011e-001	 4.000138002678044e-001	 6.371876629050774e-003
0	 4.666844975500012e-001	 4.666844975500012e-001	-3.470189010823956e-003
0	 4.666844975500011e-001	 5.333553781553804e-001	-2.002030570178369e-002
0	 4.666844975500012e-001	 6.000263254118249e-001	-4.322176476829433e-002
0	 4.666844975500012e-001	 6.666972226472175e-001	-7.301793454828280e-002
0	 5.333553781553803e-001	 0.000000000000000e+000	-1.242233745140002e-001
0	 5.333553781553805e-001	 6.666714722864757e-002	-7.240636907912124e-002
0	 5.333553781553803e-001	 1.333351778131789e-001	-3.221233830044110e-002
0	 5.333553781553804e-001	 2.000039750814772e-001	-3.327429283968336e-003
0	 5.333553781553800e-001	 2.666734223614255e-001	 1.456209610089268e-002
0	 5.333553781553805e-001	 3.333434029809070e-001	 2.176986123634668e-002
0	 5.333553781553801e-001	 4.000138002678044e-001	 1.860937476819935e-002
0	 5.333553781553804e-001	 4.666844975500011e-001	 5.394030614836892e-003
0	 5.333553781553803e-001	 5.333553781553803e-001	-1.756289202680641e-002
0	 5.333553781553803e-001	 6.000263254118248e-001	-4.994822867829198e-002
0	 5.333553781553801e-001	 6.666972226472177e-001	-9.144892957973230e-002
0	 6.000263254118248e-001	 0.000000000000000e+000	-1.433605055897157e-001
0	 6.000263254118247e-001	 6.666714722864756e-002	-8.284433841589509e-002
0	 6.000263254118247e-001	 1.333351778131789e-001	-3.573801199225456e-002
0	 6.000263254118248e-001	 2.000039750814773e-001	-1.566636422832904e-003
0	 6.000263254118248e-001	 2.666734223614256e-001	 2.014455257899833e-002
0	 6.000263254118247e-001	 3.333434029809070e-001	 2.987019370675547e-002
0	 6.000263254118248e-001	 4.000138002678045e-001	 2.808480007376550e-002
0	 6.000263254118248e-001	 4.666844975500011e-001	 1.526275922279175e-002
0	 6.000263254118247e-001	 5.333553781553800e-001	-8.121666867636946e-003
0	 6.000263254118247e-001	 6.000263254118247e-001	-4.159434178019329e-002
0	 6.000263254118247e-001	 6.666972226472175e-001	-8.468125465901412e-002
0	 6.666972226472175e-001	 0.000000000000000e+000	-1.272541320740841e-001
0	 6.666972226472178e-001	 6.666714722864757e-002	-7.256348115973810e-002
0	 6.666972226472178e-001	 1.333351778131789e-001	-2.969214257668923e-002
0	 6.666972226472178e-001	 2.000039750814772e-001	 1.900131753039330e-003
0	 6.666972226472178e-001	 2.666734223614256e-001	 2.275348653410011e-002
0	 6.666972226472177e-001	 3.333434029809069e-001	 3.340796311086265e-002
0	 6.666972226472179e-001	 4.000138002678045e-001	 3.440349947774106e-002
0	 6.666972226472175e-001	 4.666844975500010e-001	 2.627993028680796e-002
0	 6.666972226472177e-001	 5.333553781553801e-001	 9.576986852695700e-003
0	 6.666972226472178e-001	 6.000263254118248e-001	-1.516570284521530e-002
0	 6.666972226472177e-001	 6.666972226472177e-001	-4.740861416332039e-002
0	 0.000000000000000e+000	 6.666972226472175e-001	 3.158387722187097e-001
0	 0.000000000000000e+000	 7.333579753122049e-001	 3.759831984563339e-001
0	 0.000000000000000e+000	 8.000185779984417e-001	 2.850823314542452e-001
0	 0.000000000000000e+000	 8.666790473703454e-001	 8.241210594432893e-002
0	 0.000000000000000e+000	 9.333394000923322e-001	-1.927512971509764e-001
0	 0.000000000000000e+000	 9.999996528288191e-001	-5.011314507144650e-001
0	 0.000000000000000e+000	 1.066659822244222e+000	-8.034516814308664e-001
0	 0.000000000000000e+000	 1.133319925002959e+000	-1.060435069784480e+000
0	 0.000000000000000e+000	 1.199979977769445e+000	-1.232804450057718e+000
0	 0.000000000000000e+000	 1.266639997208098e+000	-1.281282410330594e+000
0	 0.000000000000000e+000	 1.333299999983334e+000	-1.166591292481111e+000
0	 6.666714722864757e-002	 6.666972226472178e-001	 2.695910388598006e-001
0	 6.666714722864757e-002	 7.333579753122048e-001	 3.198785421019158e-001
0	 6.666714722864754e-002	 8.000185779984415e-001	 2.312239810731328e-001
0	 6.666714722864754e-002	 8.666790473703453e-001	 3.798031904388083e-002
0	 6.666714722864754e-002	 9.333394000923321e-001	-2.254992514372202e-001
0	 6.666714722864757e-002	 9.999996528288190e-001	-5.248613085394555e-001
0	 6.666714722864756e-002	 1.066659822244222e+000	-8.257522011469662e-001
0	 6.666714722864756e-002	 1.133319925002959e+000	-1.093818048856569e+000
0	 6.666714722864757e-002	 1.199979977769445e+000	-1.294704741976427e+000
0	 6.666714722864756e-002	 1.266639997208098e+000	-1.394057941525582e+000
0	 6.666714722864757e-002	 1.333299999983334e+000	-1.357523079234363e+000
0	 1.333351778131790e-001	 6.666972226472178e-001	 2.113986814749326e-001
0	 1.333351778131790e-001	 7.333579753122046e-001	 2.486796747837153e-001
0	 1.333351778131790e-001	 8.000185779984417e-001	 1.673231026562120e-001
0	 1.333351778131790e-001	 8.666790473703454e-001	-2.951812771302597e-003
0	 1.333351778131789e-001	 9.333394000923321e-001	-2.324256498122141e-001
0	 1.333351778131789e-001	 9.999996528288191e-001	-4.913787872261908e-001
0	 1.333351778131789e-001	 1.066659822244222e+000	-7.500914042165496e-001
0	 1.333351778131790e-001	 1.133319925002959e+000	-9.788434804283782e-001
0	 1.333351778131790e-001	 1.199979977769445e+000	-1.147914795947388e+000
0	 1.333351778131789e-001	 1.266639997208097e+000	-1.227584931299544e+000
0	 1.333351778131789e-001	 1.333299999983334e+000	-1.188133267451413e+000
0	 2.000039750814773e-001	 6.666972226472178e-001	 1.465678018317072e-001
0	 2.000039750814772e-001	 7.333579753122048e-001	 1.694369200984315e-001
0	 2.000039750814773e-001	 8.000185779984419e-001	 1.004484776613795e-001
0	 2.000039750814772e-001	 8.666790473703453e-001	-3.502286022884130e-002
0	 2.000039750814772e-001	 9.333394000923322e-001	-2.116022687261339e-001
0	 2.000039750814773e-001	 9.999996528288189e-001	-4.039147633862270e-001
0	 2.000039750814772e-001	 1.066659822244222e+000	-5.865852001645820e-001
0	 2.000039750814772e-001	 1.133319925002958e+000	-7.342382754149107e-001
0	 2.000039750814772e-001	 1.199979977769445e+000	-8.214985258882720e-001
0	 2.000039750814772e-001	 1.266639997208098e+000	-8.229903287327892e-001
0	 2.000039750814772e-001	 1.333299999983334e+000	-7.133379014939490e-001
0	 2.666734223614255e-001	 6.666972226472174e-001	 8.040452939735455e-002
0	 2.666734223614256e-001	 7.333579753122047e-001	 8.920062301116338e-002
0	 2.666734223614255e-001	 8.000185779984416e-001	 3.766889898223265e-002
0	 2.666734223614256e-001	 8.666790473703452e-001	-5.287139311718890e-002
0	 2.666734223614257e-001	 9.333394000923323e-001	-1.611008917127158e-001
0	 2.666734223614255e-001	 9.999996528288188e-001	-2.657001232259543e-001
0	 2.666734223614256e-001	 1.066659822244222e+000	-3.453495020730478e-001
0	 2.666734223614256e-001	 1.133319925002959e+000	-3.787293306636472e-001
0	 2.666734223614256e-001	 1.199979977769445e+000	-3.445197994003036e-001
0	 2.666734223614255e-001	 1.266639997208098e+000	-2.214009866782647e-001
0	 2.666734223614254e-001	 1.333299999983334e+000	 1.194714111429730e-002
0	 3.333434029809069e-001	 6.666972226472177e-001	 1.821502133551297e-002
0	 3.333434029809069e-001	 7.333579753122046e-001	 1.502114985367061e-002
0	 3.333434029809069e-001	 8.000185779984415e-001	-1.394682905179549e-002
0	 3.333434029809068e-001	 8.666790473703451e-001	-5.113598028394623e-002
0	 3.333434029809070e-001	 9.333394000923321e-001	-7.899330938706441e-002
0	 3.333434029809069e-001	 9.999996528288191e-001	-7.996576254567429e-002
0	 3.333434029809068e-001	 1.066659822244222e+000	-3.650022658378813e-002
0	 3.333434029809069e-001	 1.133319925002959e+000	 6.895647103563886e-002
0	 3.333434029809069e-001	 1.199979977769445e+000	 2.539575622110050e-001
0	 3.333434029809068e-001	 1.266639997208097e+000	 5.360563382021675e-001
0	 3.333434029809069e-001	 1.333299999983334e+000	 9.328061496302996e-001
0	 4.000138002678044e-001	 6.666972226472177e-001	-3.469453749626579e-002
0	 4.000138002678044e-001	 7.333579753122048e-001	-4.605111167680575e-002
0	 4.000138002678044e-001	 8.000185779984415e-001	-4.732989067499973e-002
0	 4.000138002678044e-001	 8.666790473703453e-001	-2.445518963415033e-002
0	 4.000138002678043e-001	 9.333394000923319e-001	 3.664868055634733e-002
0	 4.000138002678044e-001	 9.999996528288191e-001	 1.500574132610616e-001
0	 4.000138002678044e-001	 1.066659822244222e+000	 3.298467060985635e-001
0	 4.000138002678044e-001	 1.133319925002958e+000	 5.900922609414531e-001
0	 4.000138002678044e-001	 1.199979977769445e+000	 9.448697839163660e-001
0	 4.000138002678043e-001	 1.266639997208098e+000	 1.408254985403960e+000
0	 4.000138002678044e-001	 1.333299999983334e+000	 1.994323580038912e+000
0	 4.666844975500012e-001	 6.666972226472175e-001	-7.301793454828282e-002
0	 4.666844975500011e-001	 7.333579753122047e-001	-8.696575251816177e-002
0	 4.666844975500012e-001	 8.000185779984417e-001	-5.541145868466555e-002
0	 4.666844975500010e-001	 8.666790473703451e-001	 3.253241187146259e-002
0	 4.666844975500011e-001	 9.333394000923321e-001	 1.877532733454980e-001
0	 4.666844975500012e-001	 9.999996528288191e-001	 4.211384892078823e-001
0	 4.666844975500012e-001	 1.066659822244222e+000	 7.435753722035587e-001
0	 4.666844975500012e-001	 1.133319925002959e+000	 1.165951184351497e+000
0	 4.666844975500012e-001	 1.199979977769445e+000	 1.699153136944412e+000
0	 4.666844975500011e-001	 1.266639997208098e+000	 2.354068390548668e+000
0	 4.666844975500012e-001	 1.333299999983334e+000	 3.141584055004385e+000
0	 5.333553781553801e-001	 6.666972226472177e-001	-9.144892957973230e-002
0	 5.333553781553801e-001	 7.333579753122047e-001	-1.006723422434881e-001
0	 5.333553781553803e-001	 8.000185779984418e-001	-3.112269444003220e-002
0	 5.333553781553803e-001	 8.666790473703456e-001	 1.251882582182159e-001
0	 5.333553781553803e-001	 9.333394000923324e-001	 3.762486571324460e-001
0	 5.333553781553803e-001	 9.999996528288188e-001	 7.300465407157529e-001
0	 5.333553781553801e-001	 1.066659822244222e+000	 1.194569844391816e+000
0	 5.333553781553804e-001	 1.133319925002959e+000	 1.777806400593967e+000
0	 5.333553781553803e-001	 1.199979977769445e+000	 2.487743938764642e+000
0	 5.333553781553803e-001	 1.266639997208098e+000	 3.332370085355223e+000
0	 5.333553781553803e-001	 1.333299999983334e+000	 4.319672363826269e+000
0	 6.000263254118247e-001	 6.666972226472175e-001	-8.468125465901412e-002
0	 6.000263254118247e-001	 7.333579753122048e-001	-8.012042906056670e-002
0	 6.000263254118247e-001	 8.000185779984417e-001	 3.260525213904393e-002
0	 6.000263254118247e-001	 8.666790473703451e-001	 2.588737843392802e-001
0	 6.000263254118247e-001	 9.333394000923321e-001	 6.040630129947777e-001
0	 6.000263254118246e-001	 9.999996528288189e-001	 1.073550633612893e+000
0	 6.000263254118248e-001	 1.066659822244222e+000	 1.672714191751811e+000
0	 6.000263254118249e-001	 1.133319925002959e+000	 2.406931083019224e+000
0	 6.000263254118246e-001	 1.199979977769445e+000	 3.281578553071558e+000
0	 6.000263254118248e-001	 1.266639997208098e+000	 4.302033697613773e+000
0	 6.000263254118247e-001	 1.333299999983334e+000	 5.473673462399733e+000
0	 6.666972226472177e-001	 6.666972226472177e-001	-4.740861416332039e-002
0	 6.666972226472175e-001	 7.333579753122045e-001	-1.825953981080678e-002
0	 6.666972226472177e-001	 8.000185779984415e-001	 1.428412425737266e-001
0	 6.666972226472177e-001	 8.666790473703451e-001	 4.389504261174821e-001
0	 6.666972226472177e-001	 9.333394000923322e-001	 8.731245149368652e-001
0	 6.666972226472177e-001	 9.999996528288189e-001	 1.448419824134437e+000
0	 6.666972226472174e-001	 1.066659822244222e+000	 2.167892479796572e+000
0	 6.666972226472178e-001	 1.133319925002959e+000	 3.034598418991826e+000
0	 6.666972226472177e-001	 1.199979977769445e+000	 4.051593389770017e+000
0	 6.666972226472175e-001	 1.266639997208098e+000	 5.221932951162002e+000
0	 6.666972226472175e-001	 1.333299999983334e+000	 6.548672473180184e+000
0	 0.000000000000000e+000	 1.333299999983334e+000	-1.166591292481111e+000
0	 0.000000000000000e+000	 1.399969999982150e+000	-8.155319654471825e-001
0	 0.000000000000000e+000	 1.466639999981866e+000	-2.047190933454695e-001
0	 0.000000000000000e+000	 1.533309999982383e+000	 6.304986989727607e-001
0	 0.000000000000000e+000	 1.599979999983599e+000	 1.654772786655597e+000
0	 0.000000000000000e+000	 1.666649999985416e+000	 2.832754544850492e+000
0	 0.000000000000000e+000	 1.733319999987733e+000	 4.129095348704241e+000
0	 0.000000000000000e+000	 1.799989999990450e+000	 5.508446573362988e+000
0	 0.000000000000000e+000	 1.866659999993466e+000	 6.935459593972256e+000
0	 0.000000000000000e+000	 1.933329999996683e+000	 8.374785785676899e+000
0	 0.000000000000000e+000	 2.000000000000000e+000	 9.791076523621159e+000
0	 6.666714722864757e-002	 1.333299999983334e+000	-1.357523079234363e+000
0	 6.666714722864754e-002	 1.399969999982149e+000	-1.047369441025117e+000
0	 6.666714722864754e-002	 1.466639999981867e+000	-3.702377182512829e-001
0	 6.666714722864756e-002	 1.533309999982382e+000	 6.417218951070176e-001
0	 6.666714722864754e-002	 1.599979999983599e+000	 1.956359205070326e+000
0	 6.666714722864756e-002	 1.666649999985416e+000	 3.541524017659875e+000
0	 6.666714722864756e-002	 1.733319999987733e+000	 5.365066138897563e+000
0	 6.666714722864756e-002	 1.799989999990450e+000	 7.394835374806010e+000
0	 6.666714722864756e-002	 1.866659999993467e+000	 9.598681531408454e+000
0	 6.666714722864756e-002	 1.933329999996682e+000	 1.194445441472894e+001
0	 6.666714722864756e-002	 2.000000000000000e+000	 1.440000383079202e+001
0	 1.333351778131789e-001	 1.333299999983334e+000	-1.188133267451412e+000
0	 1.333351778131790e-001	 1.399969999982150e+000	-8.535579580144943e-001
0	 1.333351778131789e-001	 1.466639999981867e+000	-8.707157498094276e-002
0	 1.333351778131790e-001	 1.533309999982383e+000	 1.082274041452573e+000
0	 1.333351778131789e-001	 1.599979999983599e+000	 2.625427051091029e+000
0	 1.333351778131790e-001	 1.666649999985416e+000	 4.513335613740967e+000
0	 1.333351778131789e-001	 1.733319999987733e+000	 6.716947889210576e+000
0	 1.333351778131789e-001	 1.799989999990450e+000	 9.207212037309640e+000
0	 1.333351778131789e-001	 1.866659999993466e+000	 1.195507621784954e+001
0	 1.333351778131789e-001	 1.933329999996683e+000	 1.493148859064330e+001
0	 1.333351778131789e-001	 2.000000000000000e+000	 1.810739731550554e+001
0	 2.000039750814772e-001	 1.333299999983334e+000	-7.133379014939490e-001
0	 2.000039750814773e-001	 1.399969999982150e+000	-3.008513630680283e-001
0	 2.000039750814773e-001	 1.466639999981867e+000	 5.718207603668397e-001
0	 2.000039750814773e-001	 1.533309999982383e+000	 1.878624925291404e+000
0	 2.000039750814772e-001	 1.599979999983599e+000	 3.593507588188622e+000
0	 2.000039750814773e-001	 1.666649999985417e+000	 5.690415205543626e+000
0	 2.000039750814772e-001	 1.733319999987733e+000	 8.143294233843722e+000
0	 2.000039750814772e-001	 1.799989999990449e+000	 1.092609112957843e+001
0	 2.000039750814772e-001	 1.866659999993466e+000	 1.401275234923942e+001
0	 2.000039750814773e-001	 1.933329999996683e+000	 1.737722434932062e+001
0	 2.000039750814773e-001	 2.000000000000000e+000	 2.099345358631812e+001
0	 2.666734223614254e-001	 1.333299999983334e+000	 1.194714111429671e-002
0	 2.666734223614255e-001	 1.399969999982150e+000	 5.439967576816928e-001
0	 2.666734223614255e-001	 1.466639999981867e+000	 1.533481088588606e+000
0	 2.666734223614256e-001	 1.533309999982383e+000	 2.957244848817181e+000
0	 2.666734223614256e-001	 1.599979999983599e+000	 4.792132753352068e+000
0	 2.666734223614256e-001	 1.666649999985416e+000	 7.014989517180371e+000
0	 2.666734223614254e-001	 1.733319999987733e+000	 9.602659855291625e+000
0	 2.666734223614255e-001	 1.799989999990449e+000	 1.253198848267789e+001
0	 2.666734223614256e-001	 1.866659999993467e+000	 1.577982011433365e+001
0	 2.666734223614256e-001	 1.933329999996683e+000	 1.932299946525589e+001
0	 2.666734223614255e-001	 2.000000000000000e+000	 2.313837125044406e+001
0	 3.333434029809069e-001	 1.333299999983334e+000	 9.328061496303000e-001
0	 3.333434029809069e-001	 1.399969999982150e+000	 1.614233078538149e+000
0	 3.333434029809069e-001	 1.466639999981866e+000	 2.724951587259461e+000
0	 3.333434029809068e-001	 1.533309999982383e+000	 4.244604628980728e+000
0	 3.333434029809069e-001	 1.599979999983599e+000	 6.152835156890963e+000
0	 3.333434029809069e-001	 1.666649999985416e+000	 8.429286124181630e+000
0	 3.333434029809069e-001	 1.733319999987733e+000	 1.105360048404675e+001
0	 3.333434029809069e-001	 1.799989999990450e+000	 1.400542118968280e+001
0	 3.333434029809069e-001	 1.866659999993467e+000	 1.726439119428877e+001
0	 3.333434029809068e-001	 1.933329999996683e+000	 2.081015345106619e+001
0	 3.333434029809069e-001	 2.000000000000000e+000	 2.462235091321904e+001
0	 4.000138002678044e-001	 1.333299999983334e+000	 1.994323580038912e+000
0	 4.000138002678045e-001	 1.399969999982150e+000	 2.843104534163622e+000
0	 4.000138002678044e-001	 1.466639999981866e+000	 4.073274810626330e+000
0	 4.000138002678043e-001	 1.533309999982383e+000	 5.667175597348948e+000
0	 4.000138002678044e-001	 1.599979999983599e+000	 7.607148082255741e+000
0	 4.000138002678043e-001	 1.666649999985415e+000	 9.875533453273269e+000
0	 4.000138002678042e-001	 1.733319999987733e+000	 1.245467289833047e+001
0	 4.000138002678044e-001	 1.799989999990450e+000	 1.532690760535858e+001
0	 4.000138002678043e-001	 1.866659999993466e+000	 1.847457876229118e+001
0	 4.000138002678044e-001	 1.933329999996683e+000	 2.188002755706421e+001
0	 4.000138002678044e-001	 2.000000000000000e+000	 2.552559517761593e+001
0	 4.666844975500012e-001	 1.333299999983334e+000	 3.141584055004385e+000
0	 4.666844975500012e-001	 1.399969999982150e+000	 4.163858319508778e+000
0	 4.666844975500011e-001	 1.466639999981866e+000	 5.505493689511034e+000
0	 4.666844975500012e-001	 1.533309999982383e+000	 7.151429599977278e+000
0	 4.666844975500011e-001	 1.599979999983599e+000	 9.086605485875689e+000
0	 4.666844975500012e-001	 1.666649999985416e+000	 1.129596078217642e+001
0	 4.666844975500011e-001	 1.733319999987733e+000	 1.376443492385172e+001
0	 4.666844975500011e-001	 1.799989999990450e+000	 1.647696734587577e+001
0	 4.666844975500012e-001	 1.866659999993466e+000	 1.941849748322483e+001
0	 4.666844975500010e-001	 1.933329999996683e+000	 2.257396477087718e+001
0	 4.666844975500011e-001	 2.000000000000000e+000	 2.592830864381313e+001
0	 5.333553781553803e-001	 1.333299999983334e+000	 4.319672363826269e+000
0	 5.333553781553803e-001	 1.399969999982150e+000	 5.509741889749099e+000
0	 5.333553781553801e-001	 1.466639999981867e+000	 6.948651531223311e+000
0	 5.333553781553803e-001	 1.533309999982383e+000	 8.623838997295657e+000
0	 5.333553781553803e-001	 1.599979999983599e+000	 1.052274199701451e+001
0	 5.333553781553801e-001	 1.666649999985417e+000	 1.263279823942982e+001
0	 5.333553781553803e-001	 1.733319999987733e+000	 1.494144543359318e+001
0	 5.333553781553803e-001	 1.799989999990450e+000	 1.743612128855779e+001
0	 5.333553781553803e-001	 1.866659999993466e+000	 2.010426351337847e+001
0	 5.333553781553800e-001	 1.933329999996683e+000	 2.293330981711162e+001
0	 5.333553781553803e-001	 2.000000000000000e+000	 2.591069790881534e+001
0	 6.000263254118247e-001	 1.333299999983334e+000	 5.473673462399734e+000
0	 6.000263254118247e-001	 1.399969999982150e+000	 6.814002960228124e+000
0	 6.000263254118249e-001	 1.466639999981866e+000	 8.329792019483731e+000
0	 6.000263254118246e-001	 1.533309999982383e+000	 1.001087666400800e+001
0	 6.000263254118247e-001	 1.599979999983600e+000	 1.184709291764357e+001
0	 6.000263254118249e-001	 1.666649999985417e+000	 1.382827680423420e+001
0	 6.000263254118248e-001	 1.733319999987733e+000	 1.594426434762485e+001
0	 6.000263254118246e-001	 1.799989999990450e+000	 1.818489157166157e+001
0	 6.000263254118247e-001	 1.866659999993466e+000	 2.053999450019165e+001
0	 6.000263254118247e-001	 1.933329999996683e+000	 2.299940915706355e+001
0	 6.000263254118247e-001	 2.000000000000000e+000	 2.555297156612679e+001
0	 6.666972226472175e-001	 1.333299999983334e+000	 6.548672473180184e+000
0	 6.666972226472177e-001	 1.399969999982150e+000	 8.009889506407568e+000
0	 6.666972226472177e-001	 1.466639999981867e+000	 9.575959214356441e+000
0	 6.666972226472178e-001	 1.533309999982383e+000	 1.123901598900518e+001
0	 6.666972226472177e-001	 1.599979999983600e+000	 1.299119422233289e+001
0	 6.666972226472177e-001	 1.666649999985416e+000	 1.482462830631939e+001
0	 6.666972226472177e-001	 1.733319999987733e+000	 1.673145263294519e+001
0	 6.666972226472177e-001	 1.799989999990450e+000	 1.870380159419152e+001
0	 6.666972226472178e-001	 1.866659999993466e+000	 2.073380958204033e+001
0	 6.666972226472175e-001	 1.933329999996683e+000	 2.281361098847430e+001
0	 6.666972226472177e-001	 2.000000000000000e+000	 2.493534020547680e+001
0	 0.000000000000000e+000	 2.000000000000000e+000	 9.791076523621159e+000
0	 0.000000000000000e+000	 2.066670000003316e+000	 1.213367259020620e+001
0	 0.000000000000000e+000	 2.133340000006534e+000	 1.633440517174731e+001
0	 0.000000000000000e+000	 2.200010000009550e+000	 2.233166124927242e+001
0	 0.000000000000000e+000	 2.266680000012268e+000	 3.006382780382660e+001
0	 0.000000000000000e+000	 2.333350000014584e+000	 3.946929181647205e+001
0	 0.000000000000000e+000	 2.400020000016401e+000	 5.048644026828816e+001
0	 0.000000000000000e+000	 2.466690000017617e+000	 6.305366014037146e+001
0	 0.000000000000000e+000	 2.533360000018134e+000	 7.710933841383556e+001
0	 0.000000000000000e+000	 2.600030000017850e+000	 9.259186206981151e+001
0	 0.000000000000000e+000	 2.666700000016666e+000	 1.094396180894471e+002
0	 6.666714722864756e-002	 2.000000000000000e+000	 1.440000383079202e+001
0	 6.666714722864756e-002	 2.066670000003317e+000	 1.757619321121917e+001
0	 6.666714722864754e-002	 2.133340000006534e+000	 2.206993188633345e+001
0	 6.666714722864757e-002	 2.200010000009551e+000	 2.782813851022188e+001
0	 6.666714722864756e-002	 2.266680000012268e+000	 3.479773173698381e+001
0	 6.666714722864756e-002	 2.333350000014584e+000	 4.292563022073086e+001
0	 6.666714722864756e-002	 2.400020000016402e+000	 5.215875261558698e+001
0	 6.666714722864757e-002	 2.466690000017617e+000	 6.244401757568847e+001
0	 6.666714722864754e-002	 2.533360000018134e+000	 7.372834375518386e+001
0	 6.666714722864757e-002	 2.600030000017850e+000	 8.595864980823420e+001
0	 6.666714722864756e-002	 2.666700000016667e+000	 9.908185438901258e+001
0	 1.333351778131789e-001	 2.000000000000000e+000	 1.810739731550554e+001
0	 1.333351778131789e-001	 2.066670000003317e+000	 2.182616622506205e+001
0	 1.333351778131789e-001	 2.133340000006535e+000	 2.642050386502561e+001
0	 1.333351778131789e-001	 2.200010000009550e+000	 3.184537546484878e+001
0	 1.333351778131790e-001	 2.266680000012268e+000	 3.805574625399252e+001
0	 1.333351778131790e-001	 2.333350000014585e+000	 4.500658146192617e+001
0	 1.333351778131790e-001	 2.400020000016402e+000	 5.265284631812734e+001
0	 1.333351778131789e-001	 2.466690000017618e+000	 6.094950605208211e+001
0	 1.333351778131790e-001	 2.533360000018134e+000	 6.985152589328482e+001
0	 1.333351778131790e-001	 2.600030000017851e+000	 7.931387107123835e+001
0	 1.333351778131789e-001	 2.666700000016666e+000	 8.929150681545363e+001
0	 2.000039750814773e-001	 2.000000000000000e+000	 2.099345358631812e+001
0	 2.000039750814773e-001	 2.066670000003318e+000	 2.500052527566842e+001
0	 2.000039750814773e-001	 2.133340000006534e+000	 2.952991150672615e+001
0	 2.000039750814773e-001	 2.200010000009550e+000	 3.454413904686992e+001
0	 2.000039750814773e-001	 2.266680000012268e+000	 4.000573466348360e+001
0	 2.000039750814773e-001	 2.333350000014585e+000	 4.587722512395625e+001
0	 2.000039750814772e-001	 2.400020000016401e+000	 5.212113719568207e+001
0	 2.000039750814773e-001	 2.466690000017618e+000	 5.869999764606056e+001
0	 2.000039750814772e-001	 2.533360000018133e+000	 6.557633324249626e+001
0	 2.000039750814772e-001	 2.600030000017851e+000	 7.271267075239911e+001
0	 2.000039750814772e-001	 2.666700000016666e+000	 8.007153694318404e+001
0	 2.666734223614255e-001	 2.000000000000000e+000	 2.313837125044406e+001
0	 2.666734223614255e-001	 2.066670000003317e+000	 2.721620627824852e+001
0	 2.666734223614256e-001	 2.133340000006534e+000	 3.154194776236647e+001
0	 2.666734223614256e-001	 2.200010000009550e+000	 3.608519902582137e+001
0	 2.666734223614256e-001	 2.266680000012267e+000	 4.081556339163960e+001
0	 2.666734223614256e-001	 2.333350000014583e+000	 4.570264418285007e+001
0	 2.666734223614256e-001	 2.400020000016402e+000	 5.071604472248455e+001
0	 2.666734223614255e-001	 2.466690000017618e+000	 5.582536833357745e+001
0	 2.666734223614255e-001	 2.533360000018133e+000	 6.100021833916603e+001
0	 2.666734223614255e-001	 2.600030000017850e+000	 6.621019806229019e+001
0	 2.666734223614256e-001	 2.666700000016667e+000	 7.142491082599257e+001
0	 3.333434029809069e-001	 2.000000000000000e+000	 2.462235091321904e+001
0	 3.333434029809069e-001	 2.066670000003317e+000	 2.859014741868623e+001
0	 3.333434029809069e-001	 2.133340000006534e+000	 3.260040813423642e+001
0	 3.333434029809069e-001	 2.200010000009550e+000	 3.662932800632073e+001
0	 3.333434029809069e-001	 2.266680000012267e+000	 4.065310198139120e+001
0	 3.333434029809069e-001	 2.333350000014584e+000	 4.464792500590064e+001
0	 3.333434029809068e-001	 2.400020000016401e+000	 4.858999202630287e+001
0	 3.333434029809068e-001	 2.466690000017617e+000	 5.245549798905251e+001
0	 3.333434029809069e-001	 2.533360000018134e+000	 5.622063784060510e+001
0	 3.333434029809070e-001	 2.600030000017851e+000	 5.986160652741708e+001
0	 3.333434029809069e-001	 2.666700000016666e+000	 6.335459899594568e+001
0	 4.000138002678044e-001	 2.000000000000000e+000	 2.552559517761593e+001
0	 4.000138002678045e-001	 2.066670000003317e+000	 2.923928915299565e+001
0	 4.000138002678044e-001	 2.133340000006534e+000	 3.284909067538094e+001
0	 4.000138002678044e-001	 2.200010000009551e+000	 3.633730142740373e+001
0	 4.000138002678043e-001	 2.266680000012267e+000	 3.968622309169561e+001
0	 4.000138002678044e-001	 2.333350000014584e+000	 4.287815735088765e+001
0	 4.000138002678044e-001	 2.400020000016401e+000	 4.589540588761047e+001
0	 4.000138002678044e-001	 2.466690000017617e+000	 4.872027038449429e+001
0	 4.000138002678044e-001	 2.533360000018134e+000	 5.133505252416889e+001
0	 4.000138002678045e-001	 2.600030000017851e+000	 5.372205398926359e+001
0	 4.000138002678044e-001	 2.666700000016665e+000	 5.586357646240724e+001
0	 4.666844975500011e-001	 2.000000000000000e+000	 2.592830864381313e+001
0	 4.666844975500009e-001	 2.066670000003316e+000	 2.928057420683728e+001
0	 4.666844975500012e-001	 2.133340000006534e+000	 3.243179598906331e+001
0	 4.666844975500011e-001	 2.200010000009550e+000	 3.536989756193551e+001
0	 4.666844975500011e-001	 2.266680000012267e+000	 3.808280249689688e+001
0	 4.666844975500012e-001	 2.333350000014585e+000	 4.055843436538903e+001
0	 4.666844975500011e-001	 2.400020000016400e+000	 4.278471673885233e+001
0	 4.666844975500012e-001	 2.466690000017617e+000	 4.474957318872568e+001
0	 4.666844975500011e-001	 2.533360000018134e+000	 4.644092728644679e+001
0	 4.666844975500012e-001	 2.600030000017851e+000	 4.784670260345193e+001
0	 4.666844975500012e-001	 2.666700000016666e+000	 4.895482271117611e+001
0	 5.333553781553803e-001	 2.000000000000000e+000	 2.591069790881534e+001
0	 5.333553781553804e-001	 2.066670000003317e+000	 2.883094757509379e+001
0	 5.333553781553803e-001	 2.133340000006534e+000	 3.149232722829580e+001
0	 5.333553781553804e-001	 2.200010000009550e+000	 3.388789751609615e+001
0	 5.333553781553801e-001	 2.266680000012267e+000	 3.601071908616778e+001
0	 5.333553781553804e-001	 2.333350000014584e+000	 3.785385258618172e+001
0	 5.333553781553804e-001	 2.400020000016401e+000	 3.941035866380715e+001
0	 5.333553781553801e-001	 2.466690000017616e+000	 4.067329796671134e+001
0	 5.333553781553803e-001	 2.533360000018133e+000	 4.163573114255971e+001
0	 5.333553781553803e-001	 2.600030000017851e+000	 4.229071883901581e+001
0	 5.333553781553803e-001	 2.666700000016666e+000	 4.263132170374131e+001
0	 6.000263254118247e-001	 2.000000000000000e+000	 2.555297156612679e+001
0	 6.000263254118248e-001	 2.066670000003317e+000	 2.800735652150537e+001
0	 6.000263254118247e-001	 2.133340000006534e+000	 3.017449009543692e+001
0	 6.000263254118247e-001	 2.200010000009550e+000	 3.205208522894066e+001
0	 6.000263254118247e-001	 2.266680000012267e+000	 3.363785486303373e+001
0	 6.000263254118246e-001	 2.333350000014584e+000	 3.492951193873111e+001
0	 6.000263254118247e-001	 2.400020000016400e+000	 3.592476939704555e+001
0	 6.000263254118248e-001	 2.466690000017617e+000	 3.662134017898773e+001
0	 6.000263254118247e-001	 2.533360000018134e+000	 3.701693722556609e+001
0	 6.000263254118247e-001	 2.600030000017850e+000	 3.710927347778696e+001
0	 6.000263254118247e-001	 2.666700000016666e+000	 3.689606187665452e+001
0	 6.666972226472177e-001	 2.000000000000000e+000	 2.493534020547680e+001
0	 6.666972226472177e-001	 2.066670000003317e+000	 2.692675057836472e+001
0	 6.666972226472178e-001	 2.133340000006534e+000	 2.862209284185577e+001
0	 6.666972226472177e-001	 2.200010000009550e+000	 3.002324747203325e+001
0	 6.666972226472177e-001	 2.266680000012268e+000	 3.113209494497828e+001
0	 6.666972226472175e-001	 2.333350000014584e+000	 3.195051573676965e+001
0	 6.666972226472175e-001	 2.400020000016400e+000	 3.248039032348387e+001
0	 6.666972226472178e-001	 2.466690000017616e+000	 3.272359918119519e+001
0	 6.666972226472178e-001	 2.533360000018134e+000	 3.268202278597558e+001
0	 6.666972226472177e-001	 2.600030000017850e+000	 3.235754161389477e+001
0	 6.666972226472177e-001	 2.666700000016667e+000	 3.175203614102014e+001
0	 0.000000000000000e+000	 2.666700000016666e+000	 1.094396180894471e+002
0	 0.000000000000000e+000	 2.733360000014533e+000	 1.251511190470570e+002
0	 0.000000000000000e+000	 2.800020000011600e+000	 1.372958462419833e+002
0	 0.000000000000000e+000	 2.866680000008067e+000	 1.459107607113828e+002
0	 0.000000000000000e+000	 2.933340000004133e+000	 1.510328234924665e+002
0	 0.000000000000000e+000	 3.000000000000000e+000	 1.526989956224991e+002
0	 0.000000000000000e+000	 3.066659999995867e+000	 1.509462381387993e+002
0	 0.000000000000000e+000	 3.133319999991933e+000	 1.458115120787402e+002
0	 0.000000000000000e+000	 3.199979999988401e+000	 1.373317784797487e+002
0	 0.000000000000000e+000	 3.266639999985467e+000	 1.255439983793055e+002
0	 0.000000000000000e+000	 3.333299999983334e+000	 1.104851328149456e+002
0	 6.666714722864756e-002	 2.666700000016667e+000	 9.908185438901258e+001
0	 6.666714722864754e-002	 2.733360000014533e+000	 1.111961708451119e+002
0	 6.666714722864756e-002	 2.800020000011599e+000	 1.204619389798603e+002
0	 6.666714722864754e-002	 2.866680000008067e+000	 1.269131690539506e+002
0	 6.666714722864758e-002	 2.933340000004133e+000	 1.305838713281184e+002
0	 6.666714722864757e-002	 3.000000000000000e+000	 1.315080560631410e+002
0	 6.666714722864757e-002	 3.066659999995867e+000	 1.297197335198385e+002
0	 6.666714722864756e-002	 3.133319999991933e+000	 1.252529139590736e+002
0	 6.666714722864756e-002	 3.199979999988400e+000	 1.181416076417507e+002
0	 6.666714722864756e-002	 3.266639999985467e+000	 1.084198248288170e+002
0	 6.666714722864756e-002	 3.333299999983333e+000	 9.612157578126194e+001
0	 1.333351778131789e-001	 2.666700000016666e+000	 8.929150681545362e+001
0	 1.333351778131790e-001	 2.733360000014533e+000	 9.838103061041697e+001
0	 1.333351778131789e-001	 2.800020000011600e+000	 1.052327975750712e+002
0	 1.333351778131789e-001	 2.866680000008067e+000	 1.098778104993415e+002
0	 1.333351778131789e-001	 2.933340000004134e+000	 1.123470721731856e+002
0	 1.333351778131789e-001	 3.000000000000000e+000	 1.126715853865938e+002
0	 1.333351778131789e-001	 3.066659999995868e+000	 1.108823529295888e+002
0	 1.333351778131790e-001	 3.133319999991934e+000	 1.070103775922262e+002
0	 1.333351778131790e-001	 3.199979999988401e+000	 1.010866621645939e+002
0	 1.333351778131789e-001	 3.266639999985468e+000	 9.314220943681245e+001
0	 1.333351778131789e-001	 3.333299999983334e+000	 8.320802219903501e+001
0	 2.000039750814772e-001	 2.666700000016666e+000	 8.007153694318404e+001
0	 2.000039750814772e-001	 2.733360000014533e+000	 8.665640467648169e+001
0	 2.000039750814773e-001	 2.800020000011600e+000	 9.151659188972118e+001
0	 2.000039750814773e-001	 2.866680000008066e+000	 9.468003719407190e+001
0	 2.000039750814773e-001	 2.933340000004133e+000	 9.617467920072764e+001
0	 2.000039750814773e-001	 3.000000000000000e+000	 9.602845652090689e+001
0	 2.000039750814772e-001	 3.066659999995867e+000	 9.426930776585240e+001
0	 2.000039750814772e-001	 3.133319999991933e+000	 9.092517154683161e+001
0	 2.000039750814772e-001	 3.199979999988401e+000	 8.602398647513623e+001
0	 2.000039750814772e-001	 3.266639999985467e+000	 7.959369116208255e+001
0	 2.000039750814772e-001	 3.333299999983334e+000	 7.166222421901149e+001
0	 2.666734223614256e-001	 2.666700000016667e+000	 7.142491082599257e+001
0	 2.666734223614256e-001	 2.733360000014533e+000	 7.597300398157432e+001
0	 2.666734223614255e-001	 2.800020000011599e+000	 7.922149647774636e+001
0	 2.666734223614255e-001	 2.866680000008067e+000	 8.119520602465569e+001
0	 2.666734223614256e-001	 2.933340000004134e+000	 8.191895033246723e+001
0	 2.666734223614255e-001	 2.999999999999999e+000	 8.141754711136390e+001
0	 2.666734223614254e-001	 3.066659999995866e+000	 7.971581407154639e+001
0	 2.666734223614255e-001	 3.133319999991933e+000	 7.683856892323347e+001
0	 2.666734223614256e-001	 3.199979999988401e+000	 7.281062937666160e+001
0	 2.666734223614255e-001	 3.266639999985467e+000	 6.765681314208534e+001
0	 2.666734223614255e-001	 3.333299999983333e+000	 6.140193792977721e+001
0	 3.333434029809069e-001	 2.666700000016666e+000	 6.335459899594569e+001
0	 3.333434029809069e-001	 2.733360000014533e+000	 6.628154406760284e+001
0	 3.333434029809069e-001	 2.800020000011600e+000	 6.825569058378393e+001
0	 3.333434029809069e-001	 2.866680000008067e+000	 6.929867861647324e+001
0	 3.333434029809069e-001	 2.933340000004133e+000	 6.943214823766768e+001
0	 3.333434029809070e-001	 3.000000000000000e+000	 6.867773951937689e+001
0	 3.333434029809069e-001	 3.066659999995867e+000	 6.705709253362312e+001
0	 3.333434029809069e-001	 3.133319999991934e+000	 6.459184735244149e+001
0	 3.333434029809069e-001	 3.199979999988400e+000	 6.130364404787952e+001
0	 3.333434029809069e-001	 3.266639999985467e+000	 5.721412269199769e+001
0	 3.333434029809069e-001	 3.333299999983334e+000	 5.234492335686900e+001
0	 4.000138002678044e-001	 2.666700000016665e+000	 5.586357646240724e+001
0	 4.000138002678044e-001	 2.733360000014533e+000	 5.753274507911734e+001
0	 4.000138002678044e-001	 2.800020000011600e+000	 5.852735814216569e+001
0	 4.000138002678043e-001	 2.866680000008066e+000	 5.886582133276440e+001
0	 4.000138002678044e-001	 2.933340000004134e+000	 5.856654033213417e+001
0	 4.000138002678044e-001	 3.000000000000000e+000	 5.764792082150429e+001
0	 4.000138002678043e-001	 3.066659999995866e+000	 5.612836848211270e+001
0	 4.000138002678044e-001	 3.133319999991934e+000	 5.402628899520597e+001
0	 4.000138002678044e-001	 3.199979999988400e+000	 5.136008804203926e+001
0	 4.000138002678044e-001	 3.266639999985467e+000	 4.814817130387640e+001
0	 4.000138002678044e-001	 3.333299999983334e+000	 4.440894446198980e+001
0	 4.666844975500012e-001	 2.666700000016666e+000	 4.895482271117611e+001
0	 4.666844975500011e-001	 2.733360000014533e+000	 4.967733176243294e+001
0	 4.666844975500012e-001	 2.800020000011600e+000	 4.994468777603428e+001
0	 4.666844975500011e-001	 2.866680000008067e+000	 4.977200527374612e+001
0	 4.666844975500011e-001	 2.933340000004133e+000	 4.917439877733994e+001
0	 4.666844975500010e-001	 3.000000000000000e+000	 4.816698280859273e+001
0	 4.666844975500011e-001	 3.066659999995867e+000	 4.676487188928712e+001
0	 4.666844975500011e-001	 3.133319999991933e+000	 4.498318054121121e+001
0	 4.666844975500012e-001	 3.199979999988400e+000	 4.283702328615876e+001
0	 4.666844975500011e-001	 3.266639999985468e+000	 4.034151464592897e+001
0	 4.666844975500011e-001	 3.333299999983334e+000	 3.751176914232671e+001
0	 5.333553781553803e-001	 2.666700000016666e+000	 4.263132170374131e+001
0	 5.333553781553801e-001	 2.733360000014532e+000	 4.266603346487398e+001
0	 5.333553781553803e-001	 2.800020000011600e+000	 4.241587279658323e+001
0	 5.333553781553803e-001	 2.866680000008067e+000	 4.189260627585463e+001
0	 5.333553781553801e-001	 2.933340000004133e+000	 4.110800047967697e+001
0	 5.333553781553803e-001	 3.000000000000000e+000	 4.007382198504248e+001
0	 5.333553781553803e-001	 3.066659999995867e+000	 3.880183736894649e+001
0	 5.333553781553801e-001	 3.133319999991934e+000	 3.730381320838787e+001
0	 5.333553781553801e-001	 3.199979999988401e+000	 3.559151608036867e+001
0	 5.333553781553801e-001	 3.266639999985467e+000	 3.367671256189423e+001
0	 5.333553781553803e-001	 3.333299999983335e+000	 3.157116922997321e+001
0	 6.000263254118247e-001	 2.666700000016666e+000	 3.689606187665452e+001
0	 6.000263254118247e-001	 2.733360000014532e+000	 3.644958413413855e+001
0	 6.000263254118247e-001	 2.800020000011599e+000	 3.584911120241937e+001
0	 6.000263254118247e-001	 2.866680000008067e+000	 3.510300491111158e+001
0	 6.000263254118248e-001	 2.933340000004133e+000	 3.421962708983138e+001
0	 6.000263254118248e-001	 3.000000000000000e+000	 3.320733956819674e+001
0	 6.000263254118246e-001	 3.066659999995866e+000	 3.207450417582727e+001
0	 6.000263254118249e-001	 3.133319999991934e+000	 3.082948274234436e+001
0	 6.000263254118247e-001	 3.199979999988401e+000	 2.948063709737105e+001
0	 6.000263254118248e-001	 3.266639999985468e+000	 2.803632907053207e+001
0	 6.000263254118246e-001	 3.333299999983333e+000	 2.650492049145389e+001
0	 6.666972226472177e-001	 2.666700000016667e+000	 3.175203614102014e+001
0	 6.666972226472175e-001	 2.733360000014533e+000	 3.097872231778396e+001
0	 6.666972226472178e-001	 2.800020000011599e+000	 3.015260567904879e+001
0	 6.666972226472177e-001	 2.866680000008067e+000	 2.927858648661490e+001
0	 6.666972226472178e-001	 2.933340000004133e+000	 2.836156500228309e+001
0	 6.666972226472175e-001	 3.000000000000000e+000	 2.740644148785476e+001
0	 6.666972226472178e-001	 3.066659999995867e+000	 2.641811620513183e+001
0	 6.666972226472175e-001	 3.133319999991933e+000	 2.540148941591683e+001
0	 6.666972226472178e-001	 3.199979999988400e+000	 2.436146138201284e+001
0	 6.666972226472177e-001	 3.266639999985467e+000	 2.330293236522347e+001
0	 6.666972226472175e-001	 3.333299999983334e+000	 2.223080262735291e+001
0	 0.000000000000000e+000	 3.333299999983334e+000	 1.104851328149456e+002
0	 0.000000000000000e+000	 3.399969999982150e+000	 9.437657689776437e+001
0	 0.000000000000000e+000	 3.466639999981866e+000	 7.946698864901238e+001
0	 0.000000000000000e+000	 3.533309999982383e+000	 6.582671578116097e+001
0	 0.000000000000000e+000	 3.599979999983600e+000	 5.352610600669311e+001
0	 0.000000000000000e+000	 3.666649999985416e+000	 4.263550703810461e+001
0	 0.000000000000000e+000	 3.733319999987733e+000	 3.322526658790307e+001
0	 0.000000000000000e+000	 3.799989999990449e+000	 2.536573236860853e+001
0	 0.000000000000000e+000	 3.866659999993467e+000	 1.912725209275340e+001
0	 0.000000000000000e+000	 3.933329999996684e+000	 1.458017347288213e+001
0	 0.000000000000000e+000	 4.000000000000000e+000	 1.179484422155161e+001
0	 6.666714722864756e-002	 3.333299999983333e+000	 9.612157578126194e+001
0	 6.666714722864756e-002	 3.399969999982149e+000	 8.298384300785979e+001
0	 6.666714722864754e-002	 3.466639999981866e+000	 7.076450238754185e+001
0	 6.666714722864756e-002	 3.533309999982382e+000	 5.952279481019522e+001
0	 6.666714722864754e-002	 3.599979999983600e+000	 4.931796116571590e+001
0	 6.666714722864756e-002	 3.666649999985416e+000	 4.020924234400977e+001
0	 6.666714722864756e-002	 3.733319999987732e+000	 3.225587923499192e+001
0	 6.666714722864754e-002	 3.799989999990449e+000	 2.551711272858679e+001
0	 6.666714722864756e-002	 3.866659999993467e+000	 2.005218371472856e+001
0	 6.666714722864756e-002	 3.933329999996683e+000	 1.592033308336051e+001
0	 6.666714722864757e-002	 4.000000000000001e+000	 1.318080172443559e+001
0	 1.333351778131789e-001	 3.333299999983334e+000	 8.320802219903501e+001
0	 1.333351778131789e-001	 3.399969999982150e+000	 7.261553118805460e+001
0	 1.333351778131789e-001	 3.466639999981866e+000	 6.271144818868940e+001
0	 1.333351778131789e-001	 3.533309999982381e+000	 5.354478364766614e+001
0	 1.333351778131789e-001	 3.599979999983600e+000	 4.516454801171818e+001
0	 1.333351778131790e-001	 3.666649999985417e+000	 3.761975172758636e+001
0	 1.333351778131790e-001	 3.733319999987733e+000	 3.095940524201827e+001
0	 1.333351778131789e-001	 3.799989999990449e+000	 2.523251900176875e+001
0	 1.333351778131789e-001	 3.866659999993466e+000	 2.048810345359987e+001
0	 1.333351778131789e-001	 3.933329999996684e+000	 1.677516904428052e+001
0	 1.333351778131789e-001	 4.000000000000000e+000	 1.414272622058693e+001
0	 2.000039750814772e-001	 3.333299999983334e+000	 7.166222421901149e+001
0	 2.000039750814772e-001	 3.399969999982150e+000	 6.322681010844398e+001
0	 2.000039750814773e-001	 3.466639999981866e+000	 5.529508716532996e+001
0	 2.000039750814772e-001	 3.533309999982382e+000	 4.790671168641429e+001
0	 2.000039750814772e-001	 3.599979999983600e+000	 4.110133996844686e+001
0	 2.000039750814773e-001	 3.666649999985417e+000	 3.491862830818290e+001
0	 2.000039750814773e-001	 3.733319999987733e+000	 2.939823300238273e+001
0	 2.000039750814773e-001	 3.799989999990450e+000	 2.457981034781182e+001
0	 2.000039750814772e-001	 3.866659999993467e+000	 2.050301664124100e+001
0	 2.000039750814773e-001	 3.933329999996684e+000	 1.720750817944612e+001
0	 2.000039750814773e-001	 4.000000000000000e+000	 1.473294125920833e+001
0	 2.666734223614255e-001	 3.333299999983333e+000	 6.140193792977720e+001
0	 2.666734223614255e-001	 3.399969999982149e+000	 5.477285209405743e+001
0	 2.666734223614256e-001	 3.466639999981866e+000	 4.850268376789533e+001
0	 2.666734223614256e-001	 3.533309999982383e+000	 4.262261131419266e+001
0	 2.666734223614256e-001	 3.599979999983600e+000	 3.716381309585466e+001
0	 2.666734223614256e-001	 3.666649999985417e+000	 3.215746747579039e+001
0	 2.666734223614255e-001	 3.733319999987733e+000	 2.763475281691249e+001
0	 2.666734223614256e-001	 3.799989999990450e+000	 2.362684748213728e+001
0	 2.666734223614256e-001	 3.866659999993466e+000	 2.016492983438489e+001
0	 2.666734223614255e-001	 3.933329999996683e+000	 1.728017823657892e+001
0	 2.666734223614255e-001	 4.000000000000001e+000	 1.500377105164685e+001
0	 3.333434029809069e-001	 3.333299999983334e+000	 5.234492335686900e+001
0	 3.333434029809069e-001	 3.399969999982149e+000	 4.720883312403831e+001
0	 3.333434029809069e-001	 3.466639999981867e+000	 4.232150578362820e+001
0	 3.333434029809069e-001	 3.533309999982384e+000	 3.770651791299893e+001
0	 3.333434029809068e-001	 3.599979999983599e+000	 3.338744608951320e+001
0	 3.333434029809069e-001	 3.666649999985416e+000	 2.938786689053620e+001
0	 3.333434029809069e-001	 3.733319999987733e+000	 2.573135689343565e+001
0	 3.333434029809068e-001	 3.799989999990450e+000	 2.244149267558176e+001
0	 3.333434029809069e-001	 3.866659999993467e+000	 1.954185081434725e+001
0	 3.333434029809069e-001	 3.933329999996685e+000	 1.705600788710733e+001
0	 3.333434029809069e-001	 4.000000000000000e+000	 1.500754047123981e+001
0	 4.000138002678044e-001	 3.333299999983334e+000	 4.440894446198980e+001
0	 4.000138002678045e-001	 3.399969999982150e+000	 4.048993283091946e+001
0	 4.000138002678044e-001	 3.466639999981866e+000	 3.673882433592311e+001
0	 4.000138002678043e-001	 3.533309999982383e+000	 3.317246985848600e+001
0	 4.000138002678045e-001	 3.599979999983599e+000	 2.980772028009479e+001
0	 4.000138002678043e-001	 3.666649999985415e+000	 2.666142648223796e+001
0	 4.000138002678043e-001	 3.733319999987732e+000	 2.375043934640555e+001
0	 4.000138002678043e-001	 3.799989999990449e+000	 2.109160975408916e+001
0	 4.000138002678043e-001	 3.866659999993466e+000	 1.870178858678216e+001
0	 4.000138002678043e-001	 3.933329999996683e+000	 1.659782672597941e+001
0	 4.000138002678044e-001	 4.000000000000000e+000	 1.479657505317751e+001
0	 4.666844975500011e-001	 3.333299999983334e+000	 3.751176914232671e+001
0	 4.666844975500011e-001	 3.399969999982150e+000	 3.457133449999471e+001
0	 4.666844975500011e-001	 3.466639999981867e+000	 3.174191388375567e+001
0	 4.666844975500012e-001	 3.533309999982384e+000	 2.903450851945122e+001
0	 4.666844975500011e-001	 3.599979999983599e+000	 2.646011963292379e+001
0	 4.666844975500012e-001	 3.666649999985417e+000	 2.402974845001694e+001
0	 4.666844975500011e-001	 3.733319999987733e+000	 2.175439619657518e+001
0	 4.666844975500011e-001	 3.799989999990451e+000	 1.964506409844396e+001
0	 4.666844975500011e-001	 3.866659999993466e+000	 1.771275338146984e+001
0	 4.666844975500010e-001	 3.933329999996683e+000	 1.596846527150028e+001
0	 4.666844975500010e-001	 3.999999999999999e+000	 1.442320099438378e+001
0	 5.333553781553803e-001	 3.333299999983335e+000	 3.157116922997321e+001
0	 5.333553781553803e-001	 3.399969999982150e+000	 2.940822506878629e+001
0	 5.333553781553801e-001	 3.466639999981867e+000	 2.731805222119886e+001
0	 5.333553781553803e-001	 3.533309999982383e+000	 2.530667825740437e+001
0	 5.333553781553800e-001	 3.599979999983599e+000	 2.338013074759689e+001
0	 5.333553781553803e-001	 3.666649999985416e+000	 2.154443726197092e+001
0	 5.333553781553801e-001	 3.733319999987733e+000	 1.980562537072168e+001
0	 5.333553781553803e-001	 3.799989999990450e+000	 1.816972264404480e+001
0	 5.333553781553803e-001	 3.866659999993466e+000	 1.664275665213656e+001
0	 5.333553781553803e-001	 3.933329999996683e+000	 1.523075496519371e+001
0	 5.333553781553803e-001	 4.000000000000000e+000	 1.393974515341370e+001
0	 6.000263254118246e-001	 3.333299999983333e+000	 2.650492049145389e+001
0	 6.000263254118247e-001	 3.399969999982150e+000	 2.495579512660822e+001
0	 6.000263254118248e-001	 3.466639999981867e+000	 2.345452047702714e+001
0	 6.000263254118246e-001	 3.533309999982382e+000	 2.200302642621407e+001
0	 6.000263254118248e-001	 3.599979999983600e+000	 2.060324285767269e+001
0	 6.000263254118247e-001	 3.666649999985416e+000	 1.925709965490690e+001
0	 6.000263254118249e-001	 3.733319999987733e+000	 1.796652670142094e+001
0	 6.000263254118247e-001	 3.799989999990450e+000	 1.673345388071927e+001
0	 6.000263254118247e-001	 3.866659999993467e+000	 1.555981107630661e+001
0	 6.000263254118247e-001	 3.933329999996683e+000	 1.444752817168801e+001
0	 6.000263254118247e-001	 4.000000000000000e+000	 1.339853505036874e+001
0	 6.666972226472175e-001	 3.333299999983334e+000	 2.223080262735291e+001
0	 6.666972226472177e-001	 3.399969999982150e+000	 2.116923891422534e+001
0	 6.666972226472177e-001	 3.466639999981867e+000	 2.013860311440809e+001
0	 6.666972226472177e-001	 3.533309999982382e+000	 1.913760337183261e+001
0	 6.666972226472177e-001	 3.599979999983599e+000	 1.816494783043036e+001
0	 6.666972226472175e-001	 3.666649999985416e+000	 1.721934463413297e+001
0	 6.666972226472175e-001	 3.733319999987733e+000	 1.629950192687202e+001
0	 6.666972226472175e-001	 3.799989999990450e+000	 1.540412785257931e+001
0	 6.666972226472177e-001	 3.866659999993467e+000	 1.453193055518665e+001
0	 6.666972226472175e-001	 3.933329999996683e+000	 1.368161817862594e+001
0	 6.666972226472175e-001	 4.000000000000001e+000	 1.285189886682925e+001
0	 0.000000000000000e+000	 4.000000000000000e+000	 1.179484422155161e+001
0	 0.000000000000000e+000	 4.066670000003317e+000	 1.013142862604875e+001
0	 0.000000000000000e+000	 4.133340000006535e+000	 8.872246739806860e+000
0	 0.000000000000000e+000	 4.200010000009550e+000	 7.970879924611327e+000
0	 0.000000000000000e+000	 4.266680000012268e+000	 7.380909542247355e+000
0	 0.000000000000000e+000	 4.333350000014584e+000	 7.055916954499961e+000
0	 0.000000000000000e+000	 4.400020000016401e+000	 6.949483523154002e+000
0	 0.000000000000000e+000	 4.466690000017617e+000	 7.015190609994143e+000
0	 0.000000000000000e+000	 4.533360000018134e+000	 7.206619576804888e+000
0	 0.000000000000000e+000	 4.600030000017850e+000	 7.477351785370553e+000
0	 0.000000000000000e+000	 4.666700000016666e+000	 7.780968597475289e+000
0	 6.666714722864757e-002	 4.000000000000001e+000	 1.318080172443559e+001
0	 6.666714722864756e-002	 4.066670000003317e+000	 1.136618639335488e+001
0	 6.666714722864757e-002	 4.133340000006534e+000	 9.943038695026791e+000
0	 6.666714722864756e-002	 4.200010000009550e+000	 8.871531793672419e+000
0	 6.666714722864756e-002	 4.266680000012267e+000	 8.111838853513072e+000
0	 6.666714722864757e-002	 4.333350000014583e+000	 7.624133038770347e+000
0	 6.666714722864754e-002	 4.400020000016402e+000	 7.368587513666054e+000
0	 6.666714722864756e-002	 4.466690000017618e+000	 7.305375442422277e+000
0	 6.666714722864754e-002	 4.533360000018135e+000	 7.394669989261341e+000
0	 6.666714722864756e-002	 4.600030000017849e+000	 7.596644318405838e+000
0	 6.666714722864756e-002	 4.666700000016666e+000	 7.871471594078575e+000
0	 1.333351778131789e-001	 4.000000000000000e+000	 1.414272622058694e+001
0	 1.333351778131789e-001	 4.066670000003315e+000	 1.226341785987387e+001
0	 1.333351778131789e-001	 4.133340000006534e+000	 1.075475644341278e+001
0	 1.333351778131789e-001	 4.200010000009550e+000	 9.583056823860584e+000
0	 1.333351778131790e-001	 4.266680000012268e+000	 8.714633853874689e+000
0	 1.333351778131789e-001	 4.333350000014582e+000	 8.115802386113129e+000
0	 1.333351778131790e-001	 4.400020000016403e+000	 7.752877273234462e+000
0	 1.333351778131789e-001	 4.466690000017618e+000	 7.592173367897832e+000
0	 1.333351778131790e-001	 4.533360000018134e+000	 7.600005522762950e+000
0	 1.333351778131789e-001	 4.600030000017852e+000	 7.742688590490101e+000
0	 1.333351778131790e-001	 4.666700000016667e+000	 7.986537423740112e+000
0	 2.000039750814773e-001	 4.000000000000000e+000	 1.473294125920833e+001
0	 2.000039750814773e-001	 4.066670000003317e+000	 1.286301656406233e+001
0	 2.000039750814772e-001	 4.133340000006534e+000	 1.133633489705055e+001
0	 2.000039750814772e-001	 4.200010000009551e+000	 1.012490273422018e+001
0	 2.000039750814773e-001	 4.266680000012268e+000	 9.200726551619159e+000
0	 2.000039750814773e-001	 4.333350000014583e+000	 8.535812825296238e+000
0	 2.000039750814772e-001	 4.400020000016401e+000	 8.102168031300934e+000
0	 2.000039750814773e-001	 4.466690000017619e+000	 7.871798645683577e+000
0	 2.000039750814773e-001	 4.533360000018134e+000	 7.816711144495280e+000
0	 2.000039750814772e-001	 4.600030000017852e+000	 7.908912003787921e+000
0	 2.000039750814772e-001	 4.666700000016667e+000	 8.120407699614185e+000
0	 2.666734223614255e-001	 4.000000000000001e+000	 1.500377105164685e+001
0	 2.666734223614255e-001	 4.066670000003317e+000	 1.320487649079908e+001
0	 2.666734223614256e-001	 4.133340000006534e+000	 1.171670924237103e+001
0	 2.666734223614255e-001	 4.200010000009550e+000	 1.051651738498117e+001
0	 2.666734223614255e-001	 4.266680000012268e+000	 9.581548997248811e+000
0	 2.666734223614255e-001	 4.333350000014584e+000	 8.889052157794247e+000
0	 2.666734223614256e-001	 4.400020000016402e+000	 8.416274945238657e+000
0	 2.666734223614256e-001	 4.466690000017617e+000	 8.140465438204165e+000
0	 2.666734223614256e-001	 4.533360000018133e+000	 8.038871715313816e+000
0	 2.666734223614256e-001	 4.600030000017850e+000	 8.088741855191568e+000
0	 2.666734223614255e-001	 4.666700000016667e+000	 8.267323936462322e+000
0	 3.333434029809069e-001	 4.000000000000000e+000	 1.500754047123981e+001
0	 3.333434029809069e-001	 4.066670000003318e+000	 1.332889207127762e+001
0	 3.333434029809069e-001	 4.133340000006533e+000	 1.192481494008032e+001
0	 3.333434029809069e-001	 4.200010000009550e+000	 1.077734877751809e+001
0	 3.333434029809069e-001	 4.266680000012268e+000	 9.868533283462076e+000
0	 3.333434029809069e-001	 4.333350000014583e+000	 9.180408157784456e+000
0	 3.333434029809069e-001	 4.400020000016400e+000	 8.695013100358382e+000
0	 3.333434029809069e-001	 4.466690000017617e+000	 8.394387811057985e+000
0	 3.333434029809069e-001	 4.533360000018134e+000	 8.260571989758407e+000
0	 3.333434029809070e-001	 4.600030000017851e+000	 8.275605336335763e+000
0	 3.333434029809069e-001	 4.666700000016667e+000	 8.421527550667173e+000
0	 4.000138002678044e-001	 4.000000000000000e+000	 1.479657505317751e+001
0	 4.000138002678044e-001	 4.066670000003318e+000	 1.327495818291032e+001
0	 4.000138002678045e-001	 4.133340000006535e+000	 1.198958772509672e+001
0	 4.000138002678043e-001	 4.200010000009550e+000	 1.092684505431268e+001
0	 4.000138002678043e-001	 4.266680000012268e+000	 1.007311154513518e+001
0	 4.000138002678044e-001	 4.333350000014584e+000	 9.414768572142178e+000
0	 4.000138002678044e-001	 4.400020000016402e+000	 8.938197509912659e+000
0	 4.000138002678044e-001	 4.466690000017617e+000	 8.629779733026597e+000
0	 4.000138002678044e-001	 4.533360000018134e+000	 8.475896616064958e+000
0	 4.000138002678044e-001	 4.600030000017851e+000	 8.462929533609724e+000
0	 4.000138002678044e-001	 4.666700000016665e+000	 8.577259860243878e+000
0	 4.666844975500010e-001	 3.999999999999999e+000	 1.442320099438378e+001
0	 4.666844975500010e-001	 4.066670000003317e+000	 1.308297014924426e+001
0	 4.666844975500011e-001	 4.133340000006535e+000	 1.193996360649506e+001
0	 4.666844975500011e-001	 4.200010000009551e+000	 1.098445449892029e+001
0	 4.666844975500011e-001	 4.266680000012267e+000	 1.020671595930504e+001
0	 4.666844975500011e-001	 4.333350000014584e+000	 9.597021120435327e+000
0	 4.666844975500011e-001	 4.400020000016402e+000	 9.145643115098149e+000
0	 4.666844975500012e-001	 4.466690000017619e+000	 8.842855076081497e+000
0	 4.666844975500011e-001	 4.533360000018135e+000	 8.678930136174285e+000
0	 4.666844975500011e-001	 4.600030000017849e+000	 8.644141428166433e+000
0	 4.666844975500011e-001	 4.666700000016666e+000	 8.728762084848796e+000
0	 5.333553781553803e-001	 4.000000000000000e+000	 1.393974515341370e+001
0	 5.333553781553803e-001	 4.066670000003318e+000	 1.279282373988888e+001
0	 5.333553781553804e-001	 4.133340000006535e+000	 1.180487886745819e+001
0	 5.333553781553803e-001	 4.200010000009550e+000	 1.096962553593995e+001
0	 5.333553781553801e-001	 4.266680000012268e+000	 1.028077874515331e+001
0	 5.333553781553803e-001	 4.333350000014583e+000	 9.732053494918368e+000
0	 5.333553781553803e-001	 4.400020000016401e+000	 9.317164785056134e+000
0	 5.333553781553804e-001	 4.466690000017618e+000	 9.029827615388495e+000
0	 5.333553781553804e-001	 4.533360000018134e+000	 8.863756985738254e+000
0	 5.333553781553804e-001	 4.600030000017851e+000	 8.812667895929105e+000
0	 5.333553781553803e-001	 4.666700000016666e+000	 8.870275345785659e+000
0	 6.000263254118247e-001	 4.000000000000000e+000	 1.339853505036875e+001
0	 6.000263254118247e-001	 4.066670000003318e+000	 1.244441517045535e+001
0	 6.000263254118248e-001	 4.133340000006535e+000	 1.161327006523572e+001
0	 6.000263254118246e-001	 4.200010000009550e+000	 1.090180673098804e+001
0	 6.000263254118247e-001	 4.266680000012267e+000	 1.030673216399134e+001
0	 6.000263254118248e-001	 4.333350000014584e+000	 9.824753360525426e+000
0	 6.000263254118246e-001	 4.400020000016401e+000	 9.452577316870944e+000
0	 6.000263254118247e-001	 4.466690000017618e+000	 9.186911029309378e+000
0	 6.000263254118248e-001	 4.533360000018133e+000	 9.024461494123026e+000
0	 6.000263254118247e-001	 4.600030000017850e+000	 8.961935707594980e+000
0	 6.000263254118248e-001	 4.666700000016667e+000	 8.996040666009192e+000
0	 6.666972226472175e-001	 4.000000000000001e+000	 1.285189886682925e+001
0	 6.666972226472178e-001	 4.066670000003317e+000	 1.207764110250752e+001
0	 6.666972226472177e-001	 4.133340000006535e+000	 1.139407403110980e+001
0	 6.666972226472177e-001	 4.200010000009550e+000	 1.080044679067595e+001
0	 6.666972226472177e-001	 4.266680000012267e+000	 1.029600851924651e+001
0	 6.666972226472175e-001	 4.333350000014583e+000	 9.880008354862769e+000
0	 6.666972226472175e-001	 4.400020000016400e+000	 9.551695435566744e+000
0	 6.666972226472175e-001	 4.466690000017618e+000	 9.310318899401198e+000
0	 6.666972226472177e-001	 4.533360000018134e+000	 9.155127884409636e+000
0	 6.666972226472177e-001	 4.600030000017851e+000	 9.085371528636271e+000
0	 6.666972226472178e-001	 4.666700000016666e+000	 9.100298970126078e+000
0	 0.000000000000000e+000	 4.666700000016666e+000	 7.780968597475289e+000
0	 0.000000000000000e+000	 4.733360000014534e+000	 8.072722087585321e+000
0	 0.000000000000000e+000	 4.800020000011600e+000	 8.338290574842496e+000
0	 0.000000000000000e+000	 4.866680000008066e+000	 8.576757731091977e+000
0	 0.000000000000000e+000	 4.933340000004134e+000	 8.787207228179494e+000
0	 0.000000000000000e+000	 5.000000000000000e+000	 8.968722737951376e+000
0	 0.000000000000000e+000	 5.066659999995866e+000	 9.120387932254475e+000
0	 0.000000000000000e+000	 5.133319999991934e+000	 9.241286482936218e+000
0	 0.000000000000000e+000	 5.199979999988400e+000	 9.330502061844600e+000
0	 0.000000000000000e+000	 5.266639999985467e+000	 9.387118340828188e+000
0	 0.000000000000000e+000	 5.333299999983334e+000	 9.410218991736111e+000
0	 6.666714722864756e-002	 4.666700000016666e+000	 7.871471594078576e+000
0	 6.666714722864754e-002	 4.733360000014533e+000	 8.156209380372914e+000
0	 6.666714722864757e-002	 4.800020000011601e+000	 8.414074280711484e+000
0	 6.666714722864756e-002	 4.866680000008067e+000	 8.644343934854140e+000
0	 6.666714722864756e-002	 4.933340000004133e+000	 8.846295982561339e+000
0	 6.666714722864756e-002	 5.000000000000001e+000	 9.019208063594046e+000
0	 6.666714722864757e-002	 5.066659999995869e+000	 9.162357817713845e+000
0	 6.666714722864756e-002	 5.133319999991934e+000	 9.275022884682871e+000
0	 6.666714722864756e-002	 5.199979999988400e+000	 9.356480904263794e+000
0	 6.666714722864756e-002	 5.266639999985467e+000	 9.406009516219880e+000
0	 6.666714722864757e-002	 5.333299999983336e+000	 9.422886360314953e+000
0	 1.333351778131790e-001	 4.666700000016667e+000	 7.986537423740111e+000
0	 1.333351778131790e-001	 4.733360000014534e+000	 8.256670785151494e+000
0	 1.333351778131789e-001	 4.800020000011599e+000	 8.500379110839061e+000
0	 1.333351778131790e-001	 4.866680000008067e+000	 8.717107328550704e+000
0	 1.333351778131789e-001	 4.933340000004133e+000	 8.906300366034854e+000
0	 1.333351778131789e-001	 5.000000000000001e+000	 9.067403151040454e+000
0	 1.333351778131789e-001	 5.066659999995866e+000	 9.199860611317027e+000
0	 1.333351778131789e-001	 5.133319999991935e+000	 9.303117674614603e+000
0	 1.333351778131790e-001	 5.199979999988402e+000	 9.376619268683822e+000
0	 1.333351778131789e-001	 5.266639999985468e+000	 9.419810321275817e+000
0	 1.333351778131789e-001	 5.333299999983333e+000	 9.432135760142270e+000
0	 2.000039750814772e-001	 4.666700000016667e+000	 8.120407699614187e+000
0	 2.000039750814772e-001	 4.733360000014534e+000	 8.369806735962909e+000
0	 2.000039750814772e-001	 4.800020000011601e+000	 8.594182197560604e+000
0	 2.000039750814773e-001	 4.866680000008068e+000	 8.793119622085195e+000
0	 2.000039750814772e-001	 4.933340000004133e+000	 8.966204547215103e+000
0	 2.000039750814773e-001	 4.999999999999999e+000	 9.113022510629266e+000
0	 2.000039750814772e-001	 5.066659999995867e+000	 9.233159050007151e+000
0	 2.000039750814772e-001	 5.133319999991935e+000	 9.326199703028705e+000
0	 2.000039750814773e-001	 5.199979999988400e+000	 9.391730007374402e+000
0	 2.000039750814772e-001	 5.266639999985467e+000	 9.429335500725239e+000
0	 2.000039750814772e-001	 5.333299999983335e+000	 9.438601720762717e+000
0	 2.666734223614255e-001	 4.666700000016667e+000	 8.267323936462322e+000
0	 2.666734223614256e-001	 4.733360000014533e+000	 8.491317577169598e+000
0	 2.666734223614255e-001	 4.800020000011599e+000	 8.692460593058627e+000
0	 2.666734223614255e-001	 4.866680000008066e+000	 8.870452455267952e+000
0	 2.666734223614256e-001	 4.933340000004134e+000	 9.024992634936561e+000
0	 2.666734223614256e-001	 5.000000000000000e+000	 9.155780603203899e+000
0	 2.666734223614255e-001	 5.066659999995866e+000	 9.262515831209917e+000
0	 2.666734223614255e-001	 5.133319999991935e+000	 9.344897790094979e+000
0	 2.666734223614256e-001	 5.199979999988402e+000	 9.402625950999955e+000
0	 2.666734223614254e-001	 5.266639999985468e+000	 9.435399785066153e+000
0	 2.666734223614254e-001	 5.333299999983333e+000	 9.442918763435358e+000
0	 3.333434029809069e-001	 4.666700000016667e+000	 8.421527550667175e+000
0	 3.333434029809069e-001	 4.733360000014533e+000	 8.616903563467165e+000
0	 3.333434029809068e-001	 4.800020000011599e+000	 8.792191269374104e+000
0	 3.333434029809069e-001	 4.866680000008066e+000	 8.947177397826069e+000
0	 3.333434029809069e-001	 4.933340000004134e+000	 9.081648678261532e+000
0	 3.333434029809070e-001	 5.000000000000000e+000	 9.195391840119404e+000
0	 3.333434029809069e-001	 5.066659999995866e+000	 9.288193612838972e+000
0	 3.333434029809069e-001	 5.133319999991934e+000	 9.359840725859941e+000
0	 3.333434029809069e-001	 5.199979999988400e+000	 9.410119908622438e+000
0	 3.333434029809069e-001	 5.266639999985467e+000	 9.438817890566989e+000
0	 3.333434029809069e-001	 5.333299999983335e+000	 9.445721401134531e+000
0	 4.000138002678044e-001	 4.666700000016665e+000	 8.577259860243878e+000
0	 4.000138002678044e-001	 4.733360000014533e+000	 8.742264859894782e+000
0	 4.000138002678044e-001	 4.800020000011599e+000	 8.890351118415714e+000
0	 4.000138002678045e-001	 4.866680000008067e+000	 9.021365949411417e+000
0	 4.000138002678044e-001	 4.933340000004134e+000	 9.135156666487058e+000
0	 4.000138002678044e-001	 5.000000000000000e+000	 9.231570583248098e+000
0	 4.000138002678044e-001	 5.066659999995868e+000	 9.310455013300382e+000
0	 4.000138002678045e-001	 5.133319999991935e+000	 9.371657270250067e+000
0	 4.000138002678044e-001	 5.199979999988400e+000	 9.415024667703678e+000
0	 4.000138002678044e-001	 5.266639999985467e+000	 9.440404519268073e+000
0	 4.000138002678044e-001	 5.333299999983333e+000	 9.447644138550480e+000
0	 4.666844975500011e-001	 4.666700000016666e+000	 8.728762084848798e+000
0	 4.666844975500011e-001	 4.733360000014533e+000	 8.863101541843200e+000
0	 4.666844975500011e-001	 4.800020000011597e+000	 8.983916951966979e+000
0	 4.666844975500012e-001	 4.866680000008068e+000	 9.091089539606923e+000
0	 4.666844975500011e-001	 4.933340000004134e+000	 9.184500529150114e+000
0	 4.666844975500011e-001	 5.000000000000000e+000	 9.264031144983944e+000
0	 4.666844975500011e-001	 5.066659999995867e+000	 9.329562611496019e+000
0	 4.666844975500012e-001	 5.133319999991935e+000	 9.380976153074309e+000
0	 4.666844975500011e-001	 5.199979999988399e+000	 9.418152994106999e+000
0	 4.666844975500012e-001	 5.266639999985468e+000	 9.440974358982590e+000
0	 4.666844975500012e-001	 5.333299999983334e+000	 9.449321472089858e+000
0	 5.333553781553803e-001	 4.666700000016666e+000	 8.870275345785659e+000
0	 5.333553781553800e-001	 4.733360000014533e+000	 8.975113595060305e+000
0	 5.333553781553804e-001	 4.800020000011601e+000	 9.069865501691329e+000
0	 5.333553781553803e-001	 4.866680000008067e+000	 9.154419527930894e+000
0	 5.333553781553803e-001	 4.933340000004133e+000	 9.228664136031409e+000
0	 5.333553781553803e-001	 5.000000000000000e+000	 9.292487788245479e+000
0	 5.333553781553804e-001	 5.066659999995867e+000	 9.345778946825934e+000
0	 5.333553781553805e-001	 5.133319999991935e+000	 9.388426074025828e+000
0	 5.333553781553803e-001	 5.199979999988401e+000	 9.420317632098424e+000
0	 5.333553781553801e-001	 5.266639999985467e+000	 9.441342083297215e+000
0	 5.333553781553803e-001	 5.333299999983334e+000	 9.451387889875896e+000
0	 6.000263254118248e-001	 4.666700000016667e+000	 8.996040666009192e+000
0	 6.000263254118247e-001	 4.733360000014531e+000	 9.074000915654493e+000
0	 6.000263254118247e-001	 4.800020000011600e+000	 9.145173419135011e+000
0	 6.000263254118248e-001	 4.866680000008066e+000	 9.209427203839638e+000
0	 6.000263254118248e-001	 4.933340000004134e+000	 9.266631297157446e+000
0	 6.000263254118247e-001	 5.000000000000000e+000	 9.316654726477655e+000
0	 6.000263254118246e-001	 5.066659999995867e+000	 9.359366519189642e+000
0	 6.000263254118247e-001	 5.133319999991935e+000	 9.394635702682939e+000
0	 6.000263254118247e-001	 5.199979999988401e+000	 9.422331304347237e+000
0	 6.000263254118247e-001	 5.266639999985467e+000	 9.442322351572399e+000
0	 6.000263254118248e-001	 5.333299999983335e+000	 9.454477871748429e+000
0	 6.666972226472178e-001	 4.666700000016666e+000	 9.100298970126080e+000
0	 6.666972226472177e-001	 4.733360000014533e+000	 9.155463310095529e+000
0	 6.666972226472177e-001	 4.800020000011600e+000	 9.206817275727904e+000
0	 6.666972226472178e-001	 4.866680000008067e+000	 9.254183786728106e+000
0	 6.666972226472175e-001	 4.933340000004133e+000	 9.297385762801170e+000
0	 6.666972226472174e-001	 4.999999999999999e+000	 9.336246123652193e+000
0	 6.666972226472178e-001	 5.066659999995868e+000	 9.370587788986434e+000
0	 6.666972226472177e-001	 5.133319999991935e+000	 9.400233678509212e+000
0	 6.666972226472178e-001	 5.199979999988400e+000	 9.425006711925958e+000
0	 6.666972226472177e-001	 5.266639999985468e+000	 9.444729808942229e+000
0	 6.666972226472175e-001	 5.333299999983334e+000	 9.459225889263678e+000
0	 0.000000000000000e+000	 5.333299999983334e+000	 9.410218991736111e+000
0	 0.000000000000000e+000	 5.399969999982149e+000	 9.416311038139380e+000
0	 0.000000000000000e+000	 5.466639999981866e+000	 9.422770011575542e+000
0	 0.000000000000000e+000	 5.533309999982383e+000	 9.429985062943084e+000
0	 0.000000000000000e+000	 5.599979999983600e+000	 9.438345343140442e+000
0	 0.000000000000000e+000	 5.666649999985417e+000	 9.448240003066184e+000
0	 0.000000000000000e+000	 5.733319999987733e+000	 9.460058193618798e+000
0	 0.000000000000000e+000	 5.799989999990450e+000	 9.474189065696884e+000
0	 0.000000000000000e+000	 5.866659999993467e+000	 9.491021770199014e+000
0	 0.000000000000000e+000	 5.933329999996683e+000	 9.510945458023839e+000
0	 0.000000000000000e+000	 6.000000000000000e+000	 9.534349280069966e+000
0	 6.666714722864757e-002	 5.333299999983336e+000	 9.422886360314953e+000
0	 6.666714722864756e-002	 5.399969999982148e+000	 9.423895175054538e+000
0	 6.666714722864756e-002	 5.466639999981866e+000	 9.426470139659447e+000
0	 6.666714722864756e-002	 5.533309999982381e+000	 9.430864694558899e+000
0	 6.666714722864753e-002	 5.599979999983598e+000	 9.437332280182133e+000
0	 6.666714722864757e-002	 5.666649999985415e+000	 9.446126336958415e+000
0	 6.666714722864756e-002	 5.733319999987733e+000	 9.457500305317044e+000
0	 6.666714722864757e-002	 5.799989999990449e+000	 9.471707625687342e+000
0	 6.666714722864756e-002	 5.866659999993468e+000	 9.489001738498692e+000
0	 6.666714722864757e-002	 5.933329999996683e+000	 9.509636084180464e+000
0	 6.666714722864756e-002	 6.000000000000000e+000	 9.533864103162099e+000
0	 1.333351778131789e-001	 5.333299999983333e+000	 9.432135760142268e+000
0	 1.333351778131789e-001	 5.399969999982151e+000	 9.429999814448566e+000
0	 1.333351778131789e-001	 5.466639999981865e+000	 9.430270224476505e+000
0	 1.333351778131789e-001	 5.533309999982383e+000	 9.433085702928192e+000
0	 1.333351778131790e-001	 5.599979999983600e+000	 9.438584962505821e+000
0	 1.333351778131790e-001	 5.666649999985418e+000	 9.446906715911561e+000
0	 1.333351778131789e-001	 5.733319999987733e+000	 9.458189675847656e+000
0	 1.333351778131789e-001	 5.799989999990448e+000	 9.472572555016360e+000
0	 1.333351778131789e-001	 5.866659999993466e+000	 9.490194066119953e+000
0	 1.333351778131789e-001	 5.933329999996686e+000	 9.511192921860763e+000
0	 1.333351778131789e-001	 6.000000000000000e+000	 9.535707834941125e+000
0	 2.000039750814772e-001	 5.333299999983335e+000	 9.438601720762717e+000
0	 2.000039750814772e-001	 5.399969999982151e+000	 9.435005997002044e+000
0	 2.000039750814772e-001	 5.466639999981867e+000	 9.434333457350265e+000
0	 2.000039750814772e-001	 5.533309999982384e+000	 9.436629068143317e+000
0	 2.000039750814772e-001	 5.599979999983600e+000	 9.441937795717152e+000
0	 2.000039750814772e-001	 5.666649999985415e+000	 9.450304606407748e+000
0	 2.000039750814772e-001	 5.733319999987732e+000	 9.461774466551134e+000
0	 2.000039750814773e-001	 5.799989999990449e+000	 9.476392342483340e+000
0	 2.000039750814772e-001	 5.866659999993465e+000	 9.494203200540442e+000
0	 2.000039750814773e-001	 5.933329999996684e+000	 9.515252007058555e+000
0	 2.000039750814772e-001	 5.999999999999999e+000	 9.539583728373790e+000
0	 2.666734223614254e-001	 5.333299999983333e+000	 9.442918763435356e+000
0	 2.666734223614254e-001	 5.399969999982147e+000	 9.439294759431016e+000
0	 2.666734223614255e-001	 5.466639999981866e+000	 9.438823028472195e+000
0	 2.666734223614256e-001	 5.533309999982383e+000	 9.441475770728593e+000
0	 2.666734223614255e-001	 5.599979999983599e+000	 9.447225186369847e+000
0	 2.666734223614255e-001	 5.666649999985415e+000	 9.456043475565688e+000
0	 2.666734223614255e-001	 5.733319999987732e+000	 9.467902838485857e+000
0	 2.666734223614255e-001	 5.799989999990449e+000	 9.482775475300091e+000
0	 2.666734223614255e-001	 5.866659999993464e+000	 9.500633586178179e+000
0	 2.666734223614255e-001	 5.933329999996683e+000	 9.521449371289950e+000
0	 2.666734223614256e-001	 6.000000000000001e+000	 9.545195030805218e+000
0	 3.333434029809069e-001	 5.333299999983335e+000	 9.445721401134529e+000
0	 3.333434029809069e-001	 5.399969999982149e+000	 9.443247134487210e+000
0	 3.333434029809069e-001	 5.466639999981866e+000	 9.443902126901399e+000
0	 3.333434029809068e-001	 5.533309999982383e+000	 9.447606791639812e+000
0	 3.333434029809069e-001	 5.599979999983598e+000	 9.454281541965175e+000
0	 3.333434029809069e-001	 5.666649999985415e+000	 9.463846791140249e+000
0	 3.333434029809070e-001	 5.733319999987733e+000	 9.476222952427822e+000
0	 3.333434029809068e-001	 5.799989999990449e+000	 9.491330439090687e+000
0	 3.333434029809068e-001	 5.866659999993468e+000	 9.509089664391674e+000
0	 3.333434029809068e-001	 5.933329999996682e+000	 9.529421041593649e+000
0	 3.333434029809069e-001	 6.000000000000000e+000	 9.552244983959458e+000
0	 4.000138002678044e-001	 5.333299999983333e+000	 9.447644138550480e+000
0	 4.000138002678045e-001	 5.399969999982150e+000	 9.447244150958246e+000
0	 4.000138002678044e-001	 5.466639999981865e+000	 9.449733940564462e+000
0	 4.000138002678043e-001	 5.533309999982383e+000	 9.455003112263910e+000
0	 4.000138002678045e-001	 5.599979999983599e+000	 9.462941270951461e+000
0	 4.000138002678043e-001	 5.666649999985415e+000	 9.473438021521954e+000
0	 4.000138002678043e-001	 5.733319999987731e+000	 9.486382968870267e+000
0	 4.000138002678044e-001	 5.799989999990450e+000	 9.501665717891282e+000
0	 4.000138002678043e-001	 5.866659999993467e+000	 9.519175873479918e+000
0	 4.000138002678044e-001	 5.933329999996684e+000	 9.538803040531111e+000
0	 4.000138002678044e-001	 6.000000000000001e+000	 9.560436823939783e+000
0	 4.666844975500012e-001	 5.333299999983334e+000	 9.449321472089858e+000
0	 4.666844975500011e-001	 5.399969999982149e+000	 9.451666833667584e+000
0	 4.666844975500011e-001	 5.466639999981864e+000	 9.456481656255155e+000
0	 4.666844975500012e-001	 5.533309999982383e+000	 9.463645714418515e+000
0	 4.666844975500011e-001	 5.599979999983600e+000	 9.473038782723682e+000
0	 4.666844975500012e-001	 5.666649999985417e+000	 9.484540635736629e+000
0	 4.666844975500012e-001	 5.733319999987733e+000	 9.498031048023361e+000
0	 4.666844975500011e-001	 5.799989999990449e+000	 9.513389794149918e+000
0	 4.666844975500012e-001	 5.866659999993467e+000	 9.530496648682327e+000
0	 4.666844975500012e-001	 5.933329999996683e+000	 9.549231386186634e+000
0	 4.666844975500011e-001	 5.999999999999999e+000	 9.569473781228904e+000
0	 5.333553781553803e-001	 5.333299999983334e+000	 9.451387889875896e+000
0	 5.333553781553804e-001	 5.399969999982151e+000	 9.456896203474468e+000
0	 5.333553781553801e-001	 5.466639999981866e+000	 9.464308459634216e+000
0	 5.333553781553801e-001	 5.533309999982382e+000	 9.473515580351586e+000
0	 5.333553781553801e-001	 5.599979999983598e+000	 9.484408487623005e+000
0	 5.333553781553803e-001	 5.666649999985417e+000	 9.496878103444953e+000
0	 5.333553781553803e-001	 5.733319999987733e+000	 9.510815349813869e+000
0	 5.333553781553803e-001	 5.799989999990449e+000	 9.526111148726246e+000
0	 5.333553781553801e-001	 5.866659999993465e+000	 9.542656422178560e+000
0	 5.333553781553804e-001	 5.933329999996683e+000	 9.560342092167314e+000
0	 5.333553781553801e-001	 5.999999999999998e+000	 9.579059080688998e+000
0	 6.000263254118248e-001	 5.333299999983335e+000	 9.454477871748429e+000
0	 6.000263254118247e-001	 5.399969999982149e+000	 9.463313277273754e+000
0	 6.000263254118247e-001	 5.466639999981865e+000	 9.473377535229023e+000
0	 6.000263254118246e-001	 5.533309999982383e+000	 9.484593692740983e+000
0	 6.000263254118247e-001	 5.599979999983601e+000	 9.496884796936389e+000
0	 6.000263254118247e-001	 5.666649999985416e+000	 9.510173894942064e+000
0	 6.000263254118248e-001	 5.733319999987733e+000	 9.524384033884749e+000
0	 6.000263254118248e-001	 5.799989999990451e+000	 9.539438260891256e+000
0	 6.000263254118247e-001	 5.866659999993466e+000	 9.555259623088366e+000
0	 6.000263254118246e-001	 5.933329999996682e+000	 9.571771167602869e+000
0	 6.000263254118248e-001	 6.000000000000001e+000	 9.588895941561582e+000
0	 6.666972226472175e-001	 5.333299999983334e+000	 9.459225889263674e+000
0	 6.666972226472177e-001	 5.399969999982150e+000	 9.471299067995645e+000
0	 6.666972226472175e-001	 5.466639999981865e+000	 9.483852066433222e+000
0	 6.666972226472177e-001	 5.533309999982382e+000	 9.496861034694170e+000
0	 6.666972226472177e-001	 5.599979999983599e+000	 9.510302122896244e+000
0	 6.666972226472174e-001	 5.666649999985414e+000	 9.524151481157215e+000
0	 6.666972226472177e-001	 5.733319999987732e+000	 9.538385259594858e+000
0	 6.666972226472177e-001	 5.799989999990449e+000	 9.552979608326913e+000
0	 6.666972226472178e-001	 5.866659999993467e+000	 9.567910677471165e+000
0	 6.666972226472177e-001	 5.933329999996684e+000	 9.583154617145366e+000
0	 6.666972226472177e-001	 6.000000000000000e+000	 9.598687577467301e+000
0	 0.000000000000000e+000	 6.000000000000000e+000	 9.534349280069966e+000
0	 0.000000000000000e+000	 6.066670000003317e+000	 9.558940140568119e+000
0	 0.000000000000000e+000	 6.133340000006534e+000	 9.582112126636217e+000
0	 0.000000000000000e+000	 6.200010000009551e+000	 9.603785163503874e+000
0	 0.000000000000000e+000	 6.266680000012268e+000	 9.623879176400630e+000
0	 0.000000000000000e+000	 6.333350000014584e+000	 9.642314090556047e+000
0	 0.000000000000000e+000	 6.400020000016401e+000	 9.659009831199633e+000
0	 0.000000000000000e+000	 6.466690000017618e+000	 9.673886323560883e+000
0	 0.000000000000000e+000	 6.533360000018134e+000	 9.686863492869316e+000
0	 0.000000000000000e+000	 6.600030000017850e+000	 9.697861264354369e+000
0	 0.000000000000000e+000	 6.666700000016666e+000	 9.706799563245504e+000
0	 6.666714722864756e-002	 6.000000000000000e+000	 9.533864103162099e+000
0	 6.666714722864754e-002	 6.066670000003317e+000	 9.559156605926665e+000
0	 6.666714722864756e-002	 6.133340000006531e+000	 9.582786837547880e+000
0	 6.666714722864756e-002	 6.200010000009550e+000	 9.604711890341109e+000
0	 6.666714722864756e-002	 6.266680000012269e+000	 9.624888856621702e+000
0	 6.666714722864756e-002	 6.333350000014582e+000	 9.643274828704957e+000
0	 6.666714722864754e-002	 6.400020000016401e+000	 9.659826898906182e+000
0	 6.666714722864757e-002	 6.466690000017620e+000	 9.674502159540666e+000
0	 6.666714722864756e-002	 6.533360000018132e+000	 9.687257702923656e+000
0	 6.666714722864756e-002	 6.600030000017848e+000	 9.698050621370395e+000
0	 6.666714722864757e-002	 6.666700000016668e+000	 9.706838007196122e+000
0	 1.333351778131789e-001	 6.000000000000000e+000	 9.535707834941125e+000
0	 1.333351778131789e-001	 6.066670000003318e+000	 9.561128528203586e+000
0	 1.333351778131790e-001	 6.133340000006535e+000	 9.584743955831291e+000
0	 1.333351778131789e-001	 6.200010000009550e+000	 9.606541677537487e+000
0	 1.333351778131789e-001	 6.266680000012267e+000	 9.626509253035426e+000
0	 1.333351778131790e-001	 6.333350000014583e+000	 9.644634242038295e+000
0	 1.333351778131789e-001	 6.400020000016401e+000	 9.660904204259293e+000
0	 1.333351778131789e-001	 6.466690000017617e+000	 9.675306699411625e+000
0	 1.333351778131790e-001	 6.533360000018136e+000	 9.687829287208423e+000
0	 1.333351778131790e-001	 6.600030000017853e+000	 9.698459527362850e+000
0	 1.333351778131789e-001	 6.666700000016666e+000	 9.707184979588002e+000
0	 2.000039750814772e-001	 5.999999999999999e+000	 9.539583728373790e+000
0	 2.000039750814773e-001	 6.066670000003318e+000	 9.564639050668353e+000
0	 2.000039750814772e-001	 6.133340000006531e+000	 9.587836234455009e+000
0	 2.000039750814773e-001	 6.200010000009552e+000	 9.609186607565672e+000
0	 2.000039750814772e-001	 6.266680000012267e+000	 9.628701497832296e+000
0	 2.000039750814773e-001	 6.333350000014584e+000	 9.646392233086768e+000
0	 2.000039750814772e-001	 6.400020000016400e+000	 9.662270141160983e+000
0	 2.000039750814773e-001	 6.466690000017618e+000	 9.676346549886828e+000
0	 2.000039750814772e-001	 6.533360000018134e+000	 9.688632787096143e+000
0	 2.000039750814773e-001	 6.600030000017851e+000	 9.699140180620761e+000
0	 2.000039750814772e-001	 6.666700000016666e+000	 9.707880058292512e+000
0	 2.666734223614256e-001	 6.000000000000001e+000	 9.545195030805218e+000
0	 2.666734223614255e-001	 6.066670000003315e+000	 9.569471310271162e+000
0	 2.666734223614256e-001	 6.133340000006533e+000	 9.591916419794890e+000
0	 2.666734223614254e-001	 6.200010000009550e+000	 9.612558756386134e+000
0	 2.666734223614255e-001	 6.266680000012266e+000	 9.631426717054657e+000
0	 2.666734223614256e-001	 6.333350000014583e+000	 9.648548698810149e+000
0	 2.666734223614255e-001	 6.400020000016399e+000	 9.663953098662310e+000
0	 2.666734223614255e-001	 6.466690000017617e+000	 9.677668313620842e+000
0	 2.666734223614256e-001	 6.533360000018133e+000	 9.689722740695391e+000
0	 2.666734223614255e-001	 6.600030000017849e+000	 9.700144776895625e+000
0	 2.666734223614256e-001	 6.666700000016667e+000	 9.708962819231164e+000
0	 3.333434029809069e-001	 6.000000000000000e+000	 9.552244983959458e+000
0	 3.333434029809069e-001	 6.066670000003317e+000	 9.575408437643526e+000
0	 3.333434029809069e-001	 6.133340000006532e+000	 9.596837251634767e+000
0	 3.333434029809069e-001	 6.200010000009552e+000	 9.616570193447810e+000
0	 3.333434029809070e-001	 6.266680000012269e+000	 9.634646030597267e+000
0	 3.333434029809069e-001	 6.333350000014584e+000	 9.651103530597752e+000
0	 3.333434029809069e-001	 6.400020000016399e+000	 9.665981460963854e+000
0	 3.333434029809069e-001	 6.466690000017618e+000	 9.679318589210141e+000
0	 3.333434029809069e-001	 6.533360000018135e+000	 9.691153682851191e+000
0	 3.333434029809070e-001	 6.600030000017851e+000	 9.701525509401513e+000
0	 3.333434029809068e-001	 6.666700000016665e+000	 9.710472836375656e+000
0	 4.000138002678044e-001	 6.000000000000001e+000	 9.560436823939783e+000
0	 4.000138002678044e-001	 6.066670000003316e+000	 9.582233557098732e+000
0	 4.000138002678044e-001	 6.133340000006533e+000	 9.602451463166917e+000
0	 4.000138002678045e-001	 6.200010000009552e+000	 9.621132981688534e+000
0	 4.000138002678044e-001	 6.266680000012268e+000	 9.638320552207823e+000
0	 4.000138002678044e-001	 6.333350000014584e+000	 9.654056614268944e+000
0	 4.000138002678044e-001	 6.400020000016401e+000	 9.668383607416075e+000
0	 4.000138002678044e-001	 6.466690000017616e+000	 9.681343971193414e+000
0	 4.000138002678043e-001	 6.533360000018133e+000	 9.692980145145087e+000
0	 4.000138002678044e-001	 6.600030000017851e+000	 9.703334568815233e+000
0	 4.000138002678044e-001	 6.666700000016665e+000	 9.712449681747984e+000
0	 4.666844975500011e-001	 5.999999999999999e+000	 9.569473781228904e+000
0	 4.666844975500010e-001	 6.066670000003315e+000	 9.589729786632116e+000
0	 4.666844975500012e-001	 6.133340000006535e+000	 9.608611780992376e+000
0	 4.666844975500011e-001	 6.200010000009551e+000	 9.626159177535484e+000
0	 4.666844975500011e-001	 6.266680000012268e+000	 9.642411389487204e+000
0	 4.666844975500012e-001	 6.333350000014587e+000	 9.657407830073291e+000
0	 4.666844975500011e-001	 6.400020000016400e+000	 9.671187912519530e+000
0	 4.666844975500011e-001	 6.466690000017615e+000	 9.683791050051632e+000
0	 4.666844975500011e-001	 6.533360000018134e+000	 9.695256655895351e+000
0	 4.666844975500012e-001	 6.600030000017849e+000	 9.705624143276378e+000
0	 4.666844975500011e-001	 6.666700000016666e+000	 9.714932925420438e+000
0	 5.333553781553801e-001	 5.999999999999998e+000	 9.579059080688998e+000
0	 5.333553781553803e-001	 6.066670000003319e+000	 9.597680237921125e+000
0	 5.333553781553803e-001	 6.133340000006533e+000	 9.615170925121088e+000
0	 5.333553781553804e-001	 6.200010000009550e+000	 9.631560830905173e+000
0	 5.333553781553801e-001	 6.266680000012267e+000	 9.646879643889665e+000
0	 5.333553781553804e-001	 6.333350000014582e+000	 9.661157052690825e+000
0	 5.333553781553801e-001	 6.400020000016399e+000	 9.674422745924922e+000
0	 5.333553781553804e-001	 6.466690000017618e+000	 9.686706412208215e+000
0	 5.333553781553801e-001	 6.533360000018132e+000	 9.698037740156925e+000
0	 5.333553781553801e-001	 6.600030000017849e+000	 9.708446418387304e+000
0	 5.333553781553803e-001	 6.666700000016667e+000	 9.717962135515570e+000
0	 6.000263254118248e-001	 6.000000000000001e+000	 9.588895941561582e+000
0	 6.000263254118247e-001	 6.066670000003315e+000	 9.605868016325283e+000
0	 6.000263254118248e-001	 6.133340000006534e+000	 9.621981608971833e+000
0	 6.000263254118248e-001	 6.200010000009551e+000	 9.637249985203555e+000
0	 6.000263254118248e-001	 6.266680000012269e+000	 9.651686410722803e+000
0	 6.000263254118246e-001	 6.333350000014585e+000	 9.665304151231883e+000
0	 6.000263254118247e-001	 6.400020000016399e+000	 9.678116472433150e+000
0	 6.000263254118248e-001	 6.466690000017618e+000	 9.690136640028907e+000
0	 6.000263254118247e-001	 6.533360000018133e+000	 9.701377919721447e+000
0	 6.000263254118248e-001	 6.600030000017851e+000	 9.711853577213079e+000
0	 6.000263254118246e-001	 6.666700000016665e+000	 9.721576878206097e+000
0	 6.666972226472177e-001	 6.000000000000000e+000	 9.598687577467301e+000
0	 6.666972226472178e-001	 6.066670000003318e+000	 9.614076220885961e+000
0	 6.666972226472178e-001	 6.133340000006534e+000	 9.628896539372036e+000
0	 6.666972226472177e-001	 6.200010000009551e+000	 9.643138677325750e+000
0	 6.666972226472178e-001	 6.266680000012268e+000	 9.656792779147340e+000
0	 6.666972226472175e-001	 6.333350000014583e+000	 9.669848989237044e+000
0	 6.666972226472175e-001	 6.400020000016400e+000	 9.682297451995080e+000
0	 6.666972226472177e-001	 6.466690000017618e+000	 9.694128311821661e+000
0	 6.666972226472174e-001	 6.533360000018134e+000	 9.705331713117012e+000
0	 6.666972226472178e-001	 6.600030000017851e+000	 9.715897800281308e+000
0	 6.666972226472178e-001	 6.666700000016667e+000	 9.725816717714768e+000
0	 0.000000000000000e+000	 6.666700000016666e+000	 9.706799563245506e+000
0	 0.000000000000000e+000	 6.733360000014533e+000	 9.714798567984705e+000
0	 0.000000000000000e+000	 6.800020000011600e+000	 9.723045014792970e+000
0	 0.000000000000000e+000	 6.866680000008066e+000	 9.731555118903620e+000
0	 0.000000000000000e+000	 6.933340000004133e+000	 9.740345095549985e+000
0	 0.000000000000000e+000	 7.000000000000000e+000	 9.749431159965353e+000
0	 0.000000000000000e+000	 7.066659999995865e+000	 9.758829527383055e+000
0	 0.000000000000000e+000	 7.133319999991934e+000	 9.768556413036396e+000
0	 0.000000000000000e+000	 7.199979999988400e+000	 9.778628032158643e+000
0	 0.000000000000000e+000	 7.266639999985467e+000	 9.789060599983145e+000
0	 0.000000000000000e+000	 7.333299999983335e+000	 9.799870331743177e+000
0	 6.666714722864757e-002	 6.666700000016668e+000	 9.706838007196124e+000
0	 6.666714722864754e-002	 6.733360000014533e+000	 9.714760038691960e+000
0	 6.666714722864757e-002	 6.800020000011601e+000	 9.722989472251681e+000
0	 6.666714722864756e-002	 6.866680000008067e+000	 9.731528770876647e+000
0	 6.666714722864757e-002	 6.933340000004135e+000	 9.740380397568218e+000
0	 6.666714722864757e-002	 7.000000000000002e+000	 9.749546815327749e+000
0	 6.666714722864758e-002	 7.066659999995868e+000	 9.759030487156581e+000
0	 6.666714722864756e-002	 7.133319999991934e+000	 9.768833876056078e+000
0	 6.666714722864757e-002	 7.199979999988400e+000	 9.778959445027564e+000
0	 6.666714722864754e-002	 7.266639999985467e+000	 9.789409657072406e+000
0	 6.666714722864756e-002	 7.333299999983333e+000	 9.800186975191911e+000
0	 1.333351778131789e-001	 6.666700000016666e+000	 9.707184979588003e+000
0	 1.333351778131789e-001	 6.733360000014533e+000	 9.715125936914106e+000
0	 1.333351778131789e-001	 6.800020000011598e+000	 9.723407683648103e+000
0	 1.333351778131789e-001	 6.866680000008065e+000	 9.732021770582799e+000
0	 1.333351778131789e-001	 6.933340000004130e+000	 9.740959748511010e+000
0	 1.333351778131789e-001	 7.000000000000000e+000	 9.750213168225541e+000
0	 1.333351778131789e-001	 7.066659999995866e+000	 9.759773580519193e+000
0	 1.333351778131790e-001	 7.133319999991935e+000	 9.769632536184796e+000
0	 1.333351778131790e-001	 7.199979999988401e+000	 9.779781586015096e+000
0	 1.333351778131790e-001	 7.266639999985467e+000	 9.790212280802926e+000
0	 1.333351778131789e-001	 7.333299999983334e+000	 9.800916171341072e+000
0	 2.000039750814772e-001	 6.666700000016666e+000	 9.707880058292513e+000
0	 2.000039750814772e-001	 6.733360000014534e+000	 9.715919153628649e+000
0	 2.000039750814773e-001	 6.800020000011600e+000	 9.724307991739320e+000
0	 2.000039750814773e-001	 6.866680000008068e+000	 9.733030051069489e+000
0	 2.000039750814772e-001	 6.933340000004133e+000	 9.742068810064087e+000
0	 2.000039750814773e-001	 7.000000000000001e+000	 9.751407747168083e+000
0	 2.000039750814772e-001	 7.066659999995867e+000	 9.761030340826418e+000
0	 2.000039750814772e-001	 7.133319999991936e+000	 9.770920069484031e+000
0	 2.000039750814773e-001	 7.199979999988401e+000	 9.781060411585861e+000
0	 2.000039750814773e-001	 7.266639999985467e+000	 9.791434845576843e+000
0	 2.000039750814772e-001	 7.333299999983335e+000	 9.802026849901916e+000
0	 2.666734223614256e-001	 6.666700000016667e+000	 9.708962819231164e+000
0	 2.666734223614254e-001	 6.733360000014532e+000	 9.717162578258556e+000
0	 2.666734223614255e-001	 6.800020000011598e+000	 9.725698737944144e+000
0	 2.666734223614255e-001	 6.866680000008067e+000	 9.734549544112808e+000
0	 2.666734223614256e-001	 6.933340000004135e+000	 9.743693242589416e+000
0	 2.666734223614256e-001	 6.999999999999999e+000	 9.753108079198860e+000
0	 2.666734223614256e-001	 7.066659999995866e+000	 9.762772299766001e+000
0	 2.666734223614255e-001	 7.133319999991935e+000	 9.772664150115718e+000
0	 2.666734223614256e-001	 7.199979999988401e+000	 9.782761876072895e+000
0	 2.666734223614256e-001	 7.266639999985467e+000	 9.793043723462391e+000
0	 2.666734223614256e-001	 7.333299999983333e+000	 9.803487938109079e+000
0	 3.333434029809068e-001	 6.666700000016665e+000	 9.710472836375656e+000
0	 3.333434029809069e-001	 6.733360000014531e+000	 9.718879098672336e+000
0	 3.333434029809069e-001	 6.800020000011599e+000	 9.727588262343145e+000
0	 3.333434029809070e-001	 6.866680000008065e+000	 9.736576180217602e+000
0	 3.333434029809069e-001	 6.933340000004132e+000	 9.745818705125229e+000
0	 3.333434029809070e-001	 7.000000000000001e+000	 9.755291689895556e+000
0	 3.333434029809069e-001	 7.066659999995866e+000	 9.764970987358081e+000
0	 3.333434029809069e-001	 7.133319999991934e+000	 9.774832450342348e+000
0	 3.333434029809069e-001	 7.199979999988399e+000	 9.784851931677855e+000
0	 3.333434029809069e-001	 7.266639999985466e+000	 9.795005284194140e+000
0	 3.333434029809069e-001	 7.333299999983336e+000	 9.805268360720710e+000
0	 4.000138002678044e-001	 6.666700000016665e+000	 9.712449681747987e+000
0	 4.000138002678042e-001	 6.733360000014530e+000	 9.721091601184025e+000
0	 4.000138002678044e-001	 6.800020000011601e+000	 9.729984903678641e+000
0	 4.000138002678043e-001	 6.866680000008066e+000	 9.739105888617441e+000
0	 4.000138002678043e-001	 6.933340000004133e+000	 9.748430855386060e+000
0	 4.000138002678044e-001	 7.000000000000001e+000	 9.757936103370113e+000
0	 4.000138002678044e-001	 7.066659999995867e+000	 9.767597931955221e+000
0	 4.000138002678044e-001	 7.133319999991936e+000	 9.777392640527001e+000
0	 4.000138002678044e-001	 7.199979999988400e+000	 9.787296528471099e+000
0	 4.000138002678045e-001	 7.266639999985468e+000	 9.797285895173104e+000
0	 4.000138002678045e-001	 7.333299999983335e+000	 9.807337040018666e+000
0	 4.666844975500011e-001	 6.666700000016666e+000	 9.714932925420438e+000
0	 4.666844975500012e-001	 6.733360000014534e+000	 9.723822970553211e+000
0	 4.666844975500012e-001	 6.800020000011600e+000	 9.732896999354679e+000
0	 4.666844975500010e-001	 6.866680000008067e+000	 9.742134597274601e+000
0	 4.666844975500011e-001	 6.933340000004133e+000	 9.751515349762705e+000
0	 4.666844975500011e-001	 6.999999999999999e+000	 9.761018842268738e+000
0	 4.666844975500011e-001	 7.066659999995867e+000	 9.770624660242422e+000
0	 4.666844975500011e-001	 7.133319999991935e+000	 9.780312389133510e+000
0	 4.666844975500012e-001	 7.199979999988400e+000	 9.790061614391743e+000
0	 4.666844975500012e-001	 7.266639999985467e+000	 9.799851921466871e+000
0	 4.666844975500011e-001	 7.333299999983333e+000	 9.809662895808620e+000
0	 5.333553781553803e-001	 6.666700000016667e+000	 9.717962135515570e+000
0	 5.333553781553803e-001	 6.733360000014532e+000	 9.727096089984945e+000
0	 5.333553781553803e-001	 6.800020000011601e+000	 9.736332885437017e+000
0	 5.333553781553803e-001	 6.866680000008066e+000	 9.745658232880015e+000
0	 5.333553781553803e-001	 6.933340000004135e+000	 9.755057843322197e+000
0	 5.333553781553803e-001	 7.000000000000000e+000	 9.764517427771814e+000
0	 5.333553781553803e-001	 7.066659999995868e+000	 9.774022697237111e+000
0	 5.333553781553803e-001	 7.133319999991937e+000	 9.783559362726317e+000
0	 5.333553781553803e-001	 7.199979999988400e+000	 9.793113135247719e+000
0	 5.333553781553804e-001	 7.266639999985468e+000	 9.802669725809555e+000
0	 5.333553781553803e-001	 7.333299999983335e+000	 9.812214845420078e+000
0	 6.000263254118246e-001	 6.666700000016665e+000	 9.721576878206097e+000
0	 6.000263254118248e-001	 6.733360000014534e+000	 9.730933841129707e+000
0	 6.000263254118247e-001	 6.800020000011600e+000	 9.740300896652958e+000
0	 6.000263254118248e-001	 6.866680000008067e+000	 9.749672720853178e+000
0	 6.000263254118249e-001	 6.933340000004134e+000	 9.759043989807706e+000
0	 6.000263254118247e-001	 7.000000000000000e+000	 9.768409379593868e+000
0	 6.000263254118249e-001	 7.066659999995869e+000	 9.777763566289014e+000
0	 6.000263254118248e-001	 7.133319999991934e+000	 9.787101225970490e+000
0	 6.000263254118248e-001	 7.199979999988401e+000	 9.796417034715644e+000
0	 6.000263254118248e-001	 7.266639999985467e+000	 9.805705668601780e+000
0	 6.000263254118248e-001	 7.333299999983334e+000	 9.814961803706305e+000
0	 6.666972226472178e-001	 6.666700000016667e+000	 9.725816717714768e+000
0	 6.666972226472175e-001	 6.733360000014532e+000	 9.735359104083200e+000
0	 6.666972226472177e-001	 6.800020000011597e+000	 9.744809366391268e+000
0	 6.666972226472177e-001	 6.866680000008066e+000	 9.754173985341989e+000
0	 6.666972226472177e-001	 6.933340000004131e+000	 9.763459441638378e+000
0	 6.666972226472175e-001	 6.999999999999999e+000	 9.772672215983434e+000
0	 6.666972226472178e-001	 7.066659999995868e+000	 9.781818789080173e+000
0	 6.666972226472177e-001	 7.133319999991935e+000	 9.790905641631600e+000
0	 6.666972226472177e-001	 7.199979999988400e+000	 9.799939254340758e+000
0	 6.666972226472175e-001	 7.266639999985466e+000	 9.808926107910647e+000
0	 6.666972226472177e-001	 7.333299999983333e+000	 9.817872683044323e+000
0	 0.000000000000000e+000	 7.333299999983335e+000	 9.799870331743177e+000
0	 0.000000000000000e+000	 7.399969999982150e+000	 9.810638317739267e+000
0	 0.000000000000000e+000	 7.466639999981865e+000	 9.820930684889067e+000
0	 0.000000000000000e+000	 7.533309999982385e+000	 9.830746155520101e+000
0	 0.000000000000000e+000	 7.599979999983599e+000	 9.840083451959947e+000
0	 0.000000000000000e+000	 7.666649999985417e+000	 9.848941296536166e+000
0	 0.000000000000000e+000	 7.733319999987733e+000	 9.857318411576266e+000
0	 0.000000000000000e+000	 7.799989999990449e+000	 9.865213519407815e+000
0	 0.000000000000000e+000	 7.866659999993465e+000	 9.872625342358349e+000
0	 0.000000000000000e+000	 7.933329999996683e+000	 9.879552602755373e+000
0	 0.000000000000000e+000	 8.000000000000000e+000	 9.885994022926440e+000
0	 6.666714722864756e-002	 7.333299999983333e+000	 9.800186975191911e+000
0	 6.666714722864756e-002	 7.399969999982149e+000	 9.810886367729509e+000
0	 6.666714722864756e-002	 7.466639999981865e+000	 9.821100927305666e+000
0	 6.666714722864757e-002	 7.533309999982386e+000	 9.830835227591239e+000
0	 6.666714722864754e-002	 7.599979999983599e+000	 9.840093842257069e+000
0	 6.666714722864756e-002	 7.666649999985415e+000	 9.848881344973982e+000
0	 6.666714722864756e-002	 7.733319999987732e+000	 9.857202309412832e+000
0	 6.666714722864756e-002	 7.799989999990451e+000	 9.865061309244423e+000
0	 6.666714722864756e-002	 7.866659999993467e+000	 9.872462918139549e+000
0	 6.666714722864756e-002	 7.933329999996682e+000	 9.879411709769085e+000
0	 6.666714722864756e-002	 8.000000000000002e+000	 9.885912257803797e+000
0	 1.333351778131789e-001	 7.333299999983334e+000	 9.800916171341070e+000
0	 1.333351778131789e-001	 7.399969999982150e+000	 9.811508815703482e+000
0	 1.333351778131789e-001	 7.466639999981865e+000	 9.821614248315131e+000
0	 1.333351778131789e-001	 7.533309999982381e+000	 9.831241611935457e+000
0	 1.333351778131789e-001	 7.599979999983598e+000	 9.840400049323902e+000
0	 1.333351778131790e-001	 7.666649999985415e+000	 9.849098703239866e+000
0	 1.333351778131789e-001	 7.733319999987733e+000	 9.857346716442772e+000
0	 1.333351778131789e-001	 7.799989999990448e+000	 9.865153231692069e+000
0	 1.333351778131790e-001	 7.866659999993467e+000	 9.872527391747132e+000
0	 1.333351778131789e-001	 7.933329999996682e+000	 9.879478339367395e+000
0	 1.333351778131789e-001	 7.999999999999999e+000	 9.886015217312242e+000
0	 2.000039750814772e-001	 7.333299999983335e+000	 9.802026849901916e+000
0	 2.000039750814772e-001	 7.399969999982151e+000	 9.812478158703172e+000
0	 2.000039750814772e-001	 7.466639999981868e+000	 9.822446598030433e+000
0	 2.000039750814773e-001	 7.533309999982383e+000	 9.831944597548619e+000
0	 2.000039750814772e-001	 7.599979999983599e+000	 9.840984586922652e+000
0	 2.000039750814773e-001	 7.666649999985417e+000	 9.849578995817439e+000
0	 2.000039750814772e-001	 7.733319999987731e+000	 9.857740253897894e+000
0	 2.000039750814773e-001	 7.799989999990449e+000	 9.865480790828936e+000
0	 2.000039750814772e-001	 7.866659999993469e+000	 9.872813036275456e+000
0	 2.000039750814773e-001	 7.933329999996684e+000	 9.879749419902336e+000
0	 2.000039750814773e-001	 8.000000000000002e+000	 9.886302371374480e+000
0	 2.666734223614256e-001	 7.333299999983333e+000	 9.803487938109077e+000
0	 2.666734223614255e-001	 7.399969999982150e+000	 9.813766891233192e+000
0	 2.666734223614256e-001	 7.466639999981866e+000	 9.823573924042380e+000
0	 2.666734223614256e-001	 7.533309999982385e+000	 9.832923470982054e+000
0	 2.666734223614256e-001	 7.599979999983598e+000	 9.841829966497663e+000
0	 2.666734223614256e-001	 7.666649999985416e+000	 9.850307845034614e+000
0	 2.666734223614254e-001	 7.733319999987733e+000	 9.858371541038341e+000
0	 2.666734223614254e-001	 7.799989999990450e+000	 9.866035488954244e+000
0	 2.666734223614256e-001	 7.866659999993468e+000	 9.873314123227749e+000
0	 2.666734223614256e-001	 7.933329999996682e+000	 9.880221878304228e+000
0	 2.666734223614255e-001	 8.000000000000002e+000	 9.886773188629126e+000
0	 3.333434029809069e-001	 7.333299999983336e+000	 9.805268360720710e+000
0	 3.333434029809069e-001	 7.399969999982151e+000	 9.815347505261064e+000
0	 3.333434029809069e-001	 7.466639999981866e+000	 9.824972171419907e+000
0	 3.333434029809069e-001	 7.533309999982384e+000	 9.834157516342900e+000
0	 3.333434029809068e-001	 7.599979999983598e+000	 9.842918697175632e+000
0	 3.333434029809069e-001	 7.666649999985418e+000	 9.851270871063738e+000
0	 3.333434029809070e-001	 7.733319999987734e+000	 9.859229195152800e+000
0	 3.333434029809068e-001	 7.799989999990449e+000	 9.866808826588446e+000
0	 3.333434029809069e-001	 7.866659999993466e+000	 9.874024922516263e+000
0	 3.333434029809069e-001	 7.933329999996684e+000	 9.880892640081868e+000
0	 3.333434029809069e-001	 7.999999999999999e+000	 9.887427136430825e+000
0	 4.000138002678045e-001	 7.333299999983335e+000	 9.807337040018666e+000
0	 4.000138002678045e-001	 7.399969999982150e+000	 9.817192490217305e+000
0	 4.000138002678043e-001	 7.466639999981865e+000	 9.826617282710231e+000
0	 4.000138002678043e-001	 7.533309999982381e+000	 9.835626015294144e+000
0	 4.000138002678045e-001	 7.599979999983600e+000	 9.844233285765737e+000
0	 4.000138002678044e-001	 7.666649999985416e+000	 9.852453691921683e+000
0	 4.000138002678044e-001	 7.733319999987733e+000	 9.860301831558648e+000
0	 4.000138002678045e-001	 7.799989999990448e+000	 9.867792302473333e+000
0	 4.000138002678043e-001	 7.866659999993465e+000	 9.874939702462385e+000
0	 4.000138002678044e-001	 7.933329999996683e+000	 9.881758629322482e+000
0	 4.000138002678044e-001	 8.000000000000000e+000	 9.888263680850288e+000
0	 4.666844975500011e-001	 7.333299999983333e+000	 9.809662895808620e+000
0	 4.666844975500010e-001	 7.399969999982147e+000	 9.819274332995649e+000
0	 4.666844975500011e-001	 7.466639999981866e+000	 9.828485197938925e+000
0	 4.666844975500012e-001	 7.533309999982382e+000	 9.837308247054828e+000
0	 4.666844975500011e-001	 7.599979999983599e+000	 9.845756236759739e+000
0	 4.666844975500012e-001	 7.666649999985417e+000	 9.853841923470016e+000
0	 4.666844975500011e-001	 7.733319999987733e+000	 9.861578063602019e+000
0	 4.666844975500011e-001	 7.799989999990450e+000	 9.868977413572104e+000
0	 4.666844975500012e-001	 7.866659999993467e+000	 9.876052729796635e+000
0	 4.666844975500010e-001	 7.933329999996682e+000	 9.882816768691942e+000
0	 4.666844975500011e-001	 8.000000000000000e+000	 9.889282286674382e+000
0	 5.333553781553803e-001	 7.333299999983335e+000	 9.812214845420078e+000
0	 5.333553781553803e-001	 7.399969999982151e+000	 9.821565517952976e+000
0	 5.333553781553801e-001	 7.466639999981864e+000	 9.830551854609965e+000
0	 5.333553781553801e-001	 7.533309999982384e+000	 9.839183488400018e+000
0	 5.333553781553800e-001	 7.599979999983598e+000	 9.847470052332040e+000
0	 5.333553781553803e-001	 7.666649999985416e+000	 9.855421179414991e+000
0	 5.333553781553801e-001	 7.733319999987733e+000	 9.863046502657804e+000
0	 5.333553781553804e-001	 7.799989999990451e+000	 9.870355655069391e+000
0	 5.333553781553801e-001	 7.866659999993466e+000	 9.877358269658689e+000
0	 5.333553781553803e-001	 7.933329999996682e+000	 9.884063979434629e+000
0	 5.333553781553804e-001	 8.000000000000000e+000	 9.890482417406082e+000
0	 6.000263254118248e-001	 7.333299999983334e+000	 9.814961803706305e+000
0	 6.000263254118247e-001	 7.399969999982150e+000	 9.824038526909334e+000
0	 6.000263254118246e-001	 7.466639999981863e+000	 9.832793187705763e+000
0	 6.000263254118246e-001	 7.533309999982382e+000	 9.841231013660790e+000
0	 6.000263254118248e-001	 7.599979999983600e+000	 9.849357232339658e+000
0	 6.000263254118248e-001	 7.666649999985419e+000	 9.857177071307554e+000
0	 6.000263254118248e-001	 7.733319999987734e+000	 9.864695758129669e+000
0	 6.000263254118248e-001	 7.799989999990450e+000	 9.871918520371224e+000
0	 6.000263254118247e-001	 7.866659999993466e+000	 9.878850585597403e+000
0	 6.000263254118247e-001	 7.933329999996684e+000	 9.885497181373404e+000
0	 6.000263254118246e-001	 7.999999999999999e+000	 9.891863535264411e+000
0	 6.666972226472177e-001	 7.333299999983333e+000	 9.817872683044323e+000
0	 6.666972226472178e-001	 7.399969999982152e+000	 9.826665839147864e+000
0	 6.666972226472177e-001	 7.466639999981865e+000	 9.835185129686986e+000
0	 6.666972226472175e-001	 7.533309999982382e+000	 9.843430094724225e+000
0	 6.666972226472175e-001	 7.599979999983599e+000	 9.851400274322119e+000
0	 6.666972226472177e-001	 7.666649999985417e+000	 9.859095208543176e+000
0	 6.666972226472175e-001	 7.733319999987731e+000	 9.866514437449949e+000
0	 6.666972226472177e-001	 7.799989999990449e+000	 9.873657501104951e+000
0	 6.666972226472177e-001	 7.866659999993466e+000	 9.880523939570686e+000
0	 6.666972226472177e-001	 7.933329999996682e+000	 9.887113292909682e+000
0	 6.666972226472177e-001	 8.000000000000000e+000	 9.893425101184453e+000
0	 0.000000000000000e+000	 8.000000000000000e+000	 9.885994022926440e+000
0	 0.000000000000000e+000	 8.066670000003317e+000	 9.892147978363555e+000
0	 0.000000000000000e+000	 8.133340000006534e+000	 9.898216103945305e+000
0	 0.000000000000000e+000	 8.200010000009550e+000	 9.904202011079002e+000
0	 0.000000000000000e+000	 8.266680000012267e+000	 9.910109311171931e+000
0	 0.000000000000000e+000	 8.333350000014583e+000	 9.915941615631416e+000
0	 0.000000000000000e+000	 8.400020000016401e+000	 9.921702535864723e+000
0	 0.000000000000000e+000	 8.466690000017616e+000	 9.927395683279196e+000
0	 0.000000000000000e+000	 8.533360000018133e+000	 9.933024669282087e+000
0	 0.000000000000000e+000	 8.600030000017851e+000	 9.938593105280724e+000
0	 0.000000000000000e+000	 8.666700000016666e+000	 9.944104602682359e+000
0	 6.666714722864756e-002	 8.000000000000002e+000	 9.885912257803797e+000
0	 6.666714722864753e-002	 8.066670000003313e+000	 9.892143975497239e+000
0	 6.666714722864754e-002	 8.133340000006532e+000	 9.898283992273132e+000
0	 6.666714722864756e-002	 8.200010000009552e+000	 9.904333456057570e+000
0	 6.666714722864754e-002	 8.266680000012265e+000	 9.910293514776660e+000
0	 6.666714722864756e-002	 8.333350000014582e+000	 9.916165316356484e+000
0	 6.666714722864754e-002	 8.400020000016403e+000	 9.921950008723115e+000
0	 6.666714722864756e-002	 8.466690000017618e+000	 9.927648739802642e+000
0	 6.666714722864754e-002	 8.533360000018135e+000	 9.933262657521137e+000
0	 6.666714722864757e-002	 8.600030000017849e+000	 9.938792909804700e+000
0	 6.666714722864757e-002	 8.666700000016668e+000	 9.944240644579391e+000
0	 1.333351778131789e-001	 7.999999999999999e+000	 9.886015217312242e+000
0	 1.333351778131789e-001	 8.066670000003317e+000	 9.892300222342085e+000
0	 1.333351778131790e-001	 8.133340000006534e+000	 9.898488970810762e+000
0	 1.333351778131789e-001	 8.200010000009552e+000	 9.904580734867828e+000
0	 1.333351778131789e-001	 8.266680000012270e+000	 9.910574786662821e+000
0	 1.333351778131790e-001	 8.333350000014583e+000	 9.916470398345295e+000
0	 1.333351778131789e-001	 8.400020000016401e+000	 9.922266842064781e+000
0	 1.333351778131789e-001	 8.466690000017618e+000	 9.927963389970826e+000
0	 1.333351778131790e-001	 8.533360000018133e+000	 9.933559314212957e+000
0	 1.333351778131789e-001	 8.600030000017851e+000	 9.939053886940707e+000
0	 1.333351778131789e-001	 8.666700000016666e+000	 9.944446380303626e+000
0	 2.000039750814773e-001	 8.000000000000002e+000	 9.886302371374480e+000
0	 2.000039750814773e-001	 8.066670000003317e+000	 9.892618412164833e+000
0	 2.000039750814772e-001	 8.133340000006530e+000	 9.898834433333773e+000
0	 2.000039750814773e-001	 8.200010000009552e+000	 9.904948418927306e+000
0	 2.000039750814772e-001	 8.266680000012267e+000	 9.910958352991461e+000
0	 2.000039750814772e-001	 8.333350000014583e+000	 9.916862219572188e+000
0	 2.000039750814772e-001	 8.400020000016403e+000	 9.922658002715535e+000
0	 2.000039750814772e-001	 8.466690000017618e+000	 9.928343686467478e+000
0	 2.000039750814772e-001	 8.533360000018135e+000	 9.933917254874020e+000
0	 2.000039750814772e-001	 8.600030000017851e+000	 9.939376691981144e+000
0	 2.000039750814772e-001	 8.666700000016666e+000	 9.944719981834835e+000
0	 2.666734223614255e-001	 8.000000000000002e+000	 9.886773188629126e+000
0	 2.666734223614255e-001	 8.066670000003315e+000	 9.893100237043702e+000
0	 2.666734223614256e-001	 8.133340000006532e+000	 9.899323772485682e+000
0	 2.666734223614255e-001	 8.200010000009550e+000	 9.905441078545042e+000
0	 2.666734223614256e-001	 8.266680000012267e+000	 9.911449438811745e+000
0	 2.666734223614256e-001	 8.333350000014582e+000	 9.917346136875759e+000
0	 2.666734223614255e-001	 8.400020000016399e+000	 9.923128456327053e+000
0	 2.666734223614256e-001	 8.466690000017618e+000	 9.928793680755607e+000
0	 2.666734223614255e-001	 8.533360000018133e+000	 9.934339093751364e+000
0	 2.666734223614256e-001	 8.600030000017849e+000	 9.939761978904283e+000
0	 2.666734223614255e-001	 8.666700000016668e+000	 9.945059619804328e+000
0	 3.333434029809069e-001	 7.999999999999999e+000	 9.887427136430825e+000
0	 3.333434029809069e-001	 8.066670000003319e+000	 9.893747387868515e+000
0	 3.333434029809068e-001	 8.133340000006532e+000	 9.899960379778046e+000
0	 3.333434029809069e-001	 8.200010000009549e+000	 9.906063282921533e+000
0	 3.333434029809069e-001	 8.266680000012267e+000	 9.912053268061120e+000
0	 3.333434029809069e-001	 8.333350000014582e+000	 9.917927505958900e+000
0	 3.333434029809069e-001	 8.400020000016399e+000	 9.923683167377023e+000
0	 3.333434029809068e-001	 8.466690000017618e+000	 9.929317423077592e+000
0	 3.333434029809069e-001	 8.533360000018137e+000	 9.934827443822714e+000
0	 3.333434029809070e-001	 8.600030000017853e+000	 9.940210400374514e+000
0	 3.333434029809069e-001	 8.666700000016665e+000	 9.945463463495100e+000
0	 4.000138002678044e-001	 8.000000000000000e+000	 9.888263680850288e+000
0	 4.000138002678044e-001	 8.066670000003317e+000	 9.894561554340722e+000
0	 4.000138002678044e-001	 8.133340000006534e+000	 9.900747645590490e+000
0	 4.000138002678044e-001	 8.200010000009550e+000	 9.906819600148896e+000
0	 4.000138002678043e-001	 8.266680000012268e+000	 9.912775063565270e+000
0	 4.000138002678044e-001	 8.333350000014585e+000	 9.918611681388931e+000
0	 4.000138002678044e-001	 8.400020000016399e+000	 9.924327099169171e+000
0	 4.000138002678044e-001	 8.466690000017620e+000	 9.929918962455282e+000
0	 4.000138002678044e-001	 8.533360000018133e+000	 9.935384916796592e+000
0	 4.000138002678044e-001	 8.600030000017851e+000	 9.940722607742385e+000
0	 4.000138002678044e-001	 8.666700000016668e+000	 9.945929680841964e+000
0	 4.666844975500011e-001	 8.000000000000000e+000	 9.889282286674382e+000
0	 4.666844975500010e-001	 8.066670000003317e+000	 9.895544424973442e+000
0	 4.666844975500012e-001	 8.133340000006536e+000	 9.901688959170729e+000
0	 4.666844975500012e-001	 8.200010000009552e+000	 9.907714597210816e+000
0	 4.666844975500011e-001	 8.266680000012268e+000	 9.913620047038251e+000
0	 4.666844975500012e-001	 8.333350000014585e+000	 9.919404016597561e+000
0	 4.666844975500011e-001	 8.400020000016399e+000	 9.925065213833323e+000
0	 4.666844975500011e-001	 8.466690000017618e+000	 9.930602346690053e+000
0	 4.666844975500011e-001	 8.533360000018133e+000	 9.936014123112308e+000
0	 4.666844975500012e-001	 8.600030000017851e+000	 9.941299251044622e+000
0	 4.666844975500011e-001	 8.666700000016665e+000	 9.946456438431543e+000
0	 5.333553781553804e-001	 8.000000000000000e+000	 9.890482417406082e+000
0	 5.333553781553803e-001	 8.066670000003319e+000	 9.896697687091484e+000
0	 5.333553781553803e-001	 8.133340000006536e+000	 9.902787708634644e+000
0	 5.333553781553803e-001	 8.200010000009550e+000	 9.908752839982581e+000
0	 5.333553781553801e-001	 8.266680000012268e+000	 9.914593439082342e+000
0	 5.333553781553803e-001	 8.333350000014585e+000	 9.920309863880938e+000
0	 5.333553781553801e-001	 8.400020000016399e+000	 9.925902472325401e+000
0	 5.333553781553804e-001	 8.466690000017620e+000	 9.931371622362747e+000
0	 5.333553781553804e-001	 8.533360000018135e+000	 9.936717671940013e+000
0	 5.333553781553803e-001	 8.600030000017849e+000	 9.941940979004167e+000
0	 5.333553781553803e-001	 8.666700000016666e+000	 9.947041901502278e+000
0	 6.000263254118246e-001	 7.999999999999999e+000	 9.891863535264411e+000
0	 6.000263254118246e-001	 8.066670000003315e+000	 9.898023026831263e+000
0	 6.000263254118248e-001	 8.133340000006534e+000	 9.904047280966106e+000
0	 6.000263254118248e-001	 8.200010000009550e+000	 9.909938893231029e+000
0	 6.000263254118248e-001	 8.266680000012267e+000	 9.915700459188166e+000
0	 6.000263254118248e-001	 8.333350000014583e+000	 9.921334574399566e+000
0	 6.000263254118248e-001	 8.400020000016401e+000	 9.926843834427384e+000
0	 6.000263254118249e-001	 8.466690000017620e+000	 9.932230834833691e+000
0	 6.000263254118248e-001	 8.533360000018135e+000	 9.937498171180581e+000
0	 6.000263254118247e-001	 8.600030000017849e+000	 9.942648439030130e+000
0	 6.000263254118247e-001	 8.666700000016668e+000	 9.947684233944449e+000
0	 6.666972226472177e-001	 8.000000000000000e+000	 9.893425101184453e+000
0	 6.666972226472178e-001	 8.066670000003317e+000	 9.899522129140783e+000
0	 6.666972226472177e-001	 8.133340000006532e+000	 9.905471062017034e+000
0	 6.666972226472175e-001	 8.200010000009550e+000	 9.911277320614504e+000
0	 6.666972226472178e-001	 8.266680000012267e+000	 9.916946325734495e+000
0	 6.666972226472177e-001	 8.333350000014583e+000	 9.922483498178309e+000
0	 6.666972226472177e-001	 8.400020000016401e+000	 9.927894258747250e+000
0	 6.666972226472177e-001	 8.466690000017616e+000	 9.933184028242605e+000
0	 6.666972226472173e-001	 8.533360000018133e+000	 9.938358227465665e+000
0	 6.666972226472178e-001	 8.600030000017851e+000	 9.943422277217733e+000
0	 6.666972226472177e-001	 8.666700000016666e+000	 9.948381598300093e+000
0	 0.000000000000000e+000	 8.666700000016666e+000	 9.944104602682357e+000
0	 0.000000000000000e+000	 8.733360002791903e+000	 9.949432382602321e+000
0	 0.000000000000000e+000	 8.800020022230555e+000	 9.954455342700967e+000
0	 0.000000000000000e+000	 8.866680074997042e+000	 9.959183142002090e+000
0	 0.000000000000000e+000	 8.933340177755779e+000	 9.963625440302486e+000
0	 0.000000000000000e+000	 9.000000347171183e+000	 9.967791898171949e+000
0	 0.000000000000000e+000	 9.066660599907667e+000	 9.971692176953306e+000
0	 0.000000000000000e+000	 9.133320952629655e+000	 9.975335938762340e+000
0	 0.000000000000000e+000	 9.199981422001557e+000	 9.978732846487839e+000
0	 0.000000000000000e+000	 9.266642024687796e+000	 9.981892563791618e+000
0	 0.000000000000000e+000	 9.333302777352781e+000	 9.984824755108356e+000
0	 6.666714722864757e-002	 8.666700000016668e+000	 9.944240644579391e+000
0	 6.666714722864754e-002	 8.733360002791905e+000	 9.949495603259859e+000
0	 6.666714722864758e-002	 8.800020022230559e+000	 9.954455567157920e+000
0	 6.666714722864754e-002	 8.866680074997040e+000	 9.959131311642063e+000
0	 6.666714722864758e-002	 8.933340177755779e+000	 9.963533612829345e+000
0	 6.666714722864756e-002	 9.000000347171183e+000	 9.967673247585340e+000
0	 6.666714722864757e-002	 9.066660599907671e+000	 9.971560993524264e+000
0	 6.666714722864756e-002	 9.133320952629656e+000	 9.975207629008807e+000
0	 6.666714722864754e-002	 9.199981422001560e+000	 9.978623933150200e+000
0	 6.666714722864754e-002	 9.266642024687792e+000	 9.981820685808243e+000
0	 6.666714722864757e-002	 9.333302777352785e+000	 9.984808667591155e+000
0	 1.333351778131789e-001	 8.666700000016666e+000	 9.944446380303626e+000
0	 1.333351778131789e-001	 8.733360002791903e+000	 9.949639111548622e+000
0	 1.333351778131789e-001	 8.800020022230553e+000	 9.954544215595467e+000
0	 1.333351778131790e-001	 8.866680074997039e+000	 9.959173288225330e+000
0	 1.333351778131790e-001	 8.933340177755779e+000	 9.963537925949167e+000
0	 1.333351778131789e-001	 9.000000347171183e+000	 9.967649726007547e+000
0	 1.333351778131789e-001	 9.066660599907666e+000	 9.971520286370781e+000
0	 1.333351778131790e-001	 9.133320952629656e+000	 9.975161205738850e+000
0	 1.333351778131790e-001	 9.199981422001562e+000	 9.978584083541394e+000
0	 1.333351778131789e-001	 9.266642024687798e+000	 9.981800519937700e+000
0	 1.333351778131789e-001	 9.333302777352783e+000	 9.984822115816698e+000
0	 2.000039750814772e-001	 8.666700000016666e+000	 9.944719981834835e+000
0	 2.000039750814772e-001	 8.733360002791903e+000	 9.949858616568134e+000
0	 2.000039750814773e-001	 8.800020022230557e+000	 9.954715097394974e+000
0	 2.000039750814772e-001	 8.866680074997040e+000	 9.959301544593389e+000
0	 2.000039750814773e-001	 8.933340177755779e+000	 9.963630079157019e+000
0	 2.000039750814773e-001	 9.000000347171184e+000	 9.967712822795010e+000
0	 2.000039750814772e-001	 9.066660599907669e+000	 9.971561897932110e+000
0	 2.000039750814772e-001	 9.133320952629655e+000	 9.975189427708648e+000
0	 2.000039750814773e-001	 9.199981422001558e+000	 9.978607535980444e+000
0	 2.000039750814773e-001	 9.266642024687794e+000	 9.981828347318871e+000
0	 2.000039750814772e-001	 9.333302777352783e+000	 9.984863987010815e+000
0	 2.666734223614255e-001	 8.666700000016668e+000	 9.945059619804328e+000
0	 2.666734223614254e-001	 8.733360002791899e+000	 9.950149826049957e+000
0	 2.666734223614256e-001	 8.800020022230552e+000	 9.954962020563764e+000
0	 2.666734223614256e-001	 8.866680074997042e+000	 9.959508552217667e+000
0	 2.666734223614254e-001	 8.933340177755778e+000	 9.963801770588960e+000
0	 2.666734223614256e-001	 9.000000347171181e+000	 9.967854025960282e+000
0	 2.666734223614255e-001	 9.066660599907669e+000	 9.971677669319561e+000
0	 2.666734223614256e-001	 9.133320952629655e+000	 9.975285052360109e+000
0	 2.666734223614255e-001	 9.199981422001558e+000	 9.978688527480504e+000
0	 2.666734223614255e-001	 9.266642024687796e+000	 9.981900447784685e+000
0	 2.666734223614256e-001	 9.333302777352781e+000	 9.984933167081826e+000
0	 3.333434029809069e-001	 8.666700000016665e+000	 9.945463463495097e+000
0	 3.333434029809069e-001	 8.733360002791903e+000	 9.950508446357867e+000
0	 3.333434029809068e-001	 8.800020022230553e+000	 9.955278791735079e+000
0	 3.333434029809069e-001	 8.866680074997040e+000	 9.959786781199533e+000
0	 3.333434029809069e-001	 8.933340177755776e+000	 9.964044697022159e+000
0	 3.333434029809069e-001	 9.000000347171179e+000	 9.968064822172073e+000
0	 3.333434029809069e-001	 9.066660599907667e+000	 9.971859440316552e+000
0	 3.333434029809069e-001	 9.133320952629655e+000	 9.975440835820994e+000
0	 3.333434029809070e-001	 9.199981422001560e+000	 9.978821293749007e+000
0	 3.333434029809070e-001	 9.266642024687798e+000	 9.982013099862272e+000
0	 3.333434029809070e-001	 9.333302777352783e+000	 9.985028540620576e+000
0	 4.000138002678044e-001	 8.666700000016668e+000	 9.945929680841966e+000
0	 4.000138002678044e-001	 8.733360002791903e+000	 9.950930182487928e+000
0	 4.000138002678044e-001	 8.800020022230557e+000	 9.955659216168339e+000
0	 4.000138002678045e-001	 8.866680074997040e+000	 9.960128700270495e+000
0	 4.000138002678044e-001	 8.933340177755779e+000	 9.964350553874928e+000
0	 4.000138002678045e-001	 9.000000347171184e+000	 9.968336696755349e+000
0	 4.000138002678045e-001	 9.066660599907666e+000	 9.972099049378688e+000
0	 4.000138002678044e-001	 9.133320952629656e+000	 9.975649532905033e+000
0	 4.000138002678044e-001	 9.199981422001560e+000	 9.979000069187675e+000
0	 4.000138002678044e-001	 9.266642024687798e+000	 9.982162580772986e+000
0	 4.000138002678044e-001	 9.333302777352781e+000	 9.985148990900616e+000
0	 4.666844975500011e-001	 8.666700000016665e+000	 9.946456438431540e+000
0	 4.666844975500012e-001	 8.733360002791903e+000	 9.951410738068550e+000
0	 4.666844975500012e-001	 8.800020022230561e+000	 9.956097097749025e+000
0	 4.666844975500012e-001	 8.866680074997040e+000	 9.960526776792175e+000
0	 4.666844975500011e-001	 8.933340177755778e+000	 9.964711035206832e+000
0	 4.666844975500011e-001	 9.000000347171181e+000	 9.968661133691406e+000
0	 4.666844975500010e-001	 9.066660599907666e+000	 9.972388333633901e+000
0	 4.666844975500012e-001	 9.133320952629656e+000	 9.975903897111902e+000
0	 4.666844975500011e-001	 9.199981422001558e+000	 9.979219086892547e+000
0	 4.666844975500012e-001	 9.266642024687798e+000	 9.982345166432555e+000
0	 4.666844975500012e-001	 9.333302777352783e+000	 9.985293399878113e+000
0	 5.333553781553803e-001	 8.666700000016666e+000	 9.947041901502280e+000
0	 5.333553781553801e-001	 8.733360002791901e+000	 9.951945815360439e+000
0	 5.333553781553801e-001	 8.800020022230555e+000	 9.956586238988782e+000
0	 5.333553781553801e-001	 8.866680074997039e+000	 9.960973476756351e+000
0	 5.333553781553801e-001	 8.933340177755778e+000	 9.965117833718677e+000
0	 5.333553781553800e-001	 9.000000347171181e+000	 9.969029615617819e+000
0	 5.333553781553803e-001	 9.066660599907667e+000	 9.972719128882332e+000
0	 5.333553781553803e-001	 9.133320952629656e+000	 9.976196680627261e+000
0	 5.333553781553803e-001	 9.199981422001560e+000	 9.979472578654104e+000
0	 5.333553781553804e-001	 9.266642024687796e+000	 9.982557131450873e+000
0	 5.333553781553800e-001	 9.333302777352779e+000	 9.985460648191973e+000
0	 6.000263254118247e-001	 8.666700000016668e+000	 9.947684233944449e+000
0	 6.000263254118248e-001	 8.733360002791901e+000	 9.952531115256649e+000
0	 6.000263254118248e-001	 8.800020022230557e+000	 9.957120441025404e+000
0	 6.000263254118247e-001	 8.866680074997042e+000	 9.961461264784914e+000
0	 6.000263254118247e-001	 8.933340177755779e+000	 9.965562640752488e+000
0	 6.000263254118249e-001	 9.000000347171184e+000	 9.969433623828481e+000
0	 6.000263254118247e-001	 9.066660599907667e+000	 9.973083269596378e+000
0	 6.000263254118247e-001	 9.133320952629656e+000	 9.976520634322725e+000
0	 6.000263254118248e-001	 9.199981422001558e+000	 9.979754774957124e+000
0	 6.000263254118248e-001	 9.266642024687798e+000	 9.982794749132218e+000
0	 6.000263254118248e-001	 9.333302777352785e+000	 9.985649615163739e+000
0	 6.666972226472177e-001	 8.666700000016666e+000	 9.948381598300095e+000
0	 6.666972226472175e-001	 8.733360002791901e+000	 9.953162337282480e+000
0	 6.666972226472177e-001	 8.800020022230555e+000	 9.957693503622734e+000
0	 6.666972226472177e-001	 8.866680074997042e+000	 9.961982604129867e+000
0	 6.666972226472178e-001	 8.933340177755779e+000	 9.966037146291431e+000
0	 6.666972226472177e-001	 9.000000347171181e+000	 9.969864638273485e+000
0	 6.666972226472178e-001	 9.066660599907667e+000	 9.973472588920608e+000
0	 6.666972226472175e-001	 9.133320952629656e+000	 9.976868507755812e+000
0	 6.666972226472179e-001	 9.199981422001560e+000	 9.980059904980637e+000
0	 6.666972226472177e-001	 9.266642024687796e+000	 9.983054291475058e+000
0	 6.666972226472177e-001	 9.333302777352785e+000	 9.985859178797519e+000
0	 0.000000000000000e+000	 9.333302777352781e+000	 9.984824755108356e+000
0	 0.000000000000000e+000	 9.399973674588175e+000	 9.987505440417474e+000
0	 0.000000000000000e+000	 9.466644621844621e+000	 9.989911741900768e+000
0	 0.000000000000000e+000	 9.533315502450000e+000	 9.992056243142292e+000
0	 0.000000000000000e+000	 9.599986199732198e+000	 9.993951521587883e+000
0	 0.000000000000000e+000	 9.666656597019093e+000	 9.995610148544715e+000
0	 0.000000000000000e+000	 9.733326577638575e+000	 9.997044689180488e+000
0	 0.000000000000000e+000	 9.799996024918523e+000	 9.998267702522474e+000
0	 0.000000000000000e+000	 9.866664822186824e+000	 9.999291741456599e+000
0	 0.000000000000000e+000	 9.933332852771354e+000	 1.000012935272580e+001
0	 0.000000000000000e+000	 1.000000000000000e+001	 1.000079307692924e+001
0	 6.666714722864757e-002	 9.333302777352785e+000	 9.984808667591159e+000
0	 6.666714722864754e-002	 9.399973674588171e+000	 9.987547102753203e+000
0	 6.666714722864756e-002	 9.466644621844621e+000	 9.989995055297891e+000
0	 6.666714722864756e-002	 9.533315502450000e+000	 9.992164360631955e+000
0	 6.666714722864756e-002	 9.599986199732193e+000	 9.994066847825287e+000
0	 6.666714722864758e-002	 9.666656597019101e+000	 9.995714339610435e+000
0	 6.666714722864757e-002	 9.733326577638577e+000	 9.997118652381763e+000
0	 6.666714722864757e-002	 9.799996024918523e+000	 9.998291596194573e+000
0	 6.666714722864756e-002	 9.866664822186820e+000	 9.999244974764073e+000
0	 6.666714722864757e-002	 9.933332852771352e+000	 9.999990585463889e+000
0	 6.666714722864756e-002	 1.000000000000000e+001	 1.000054021932493e+001
0	 1.333351778131789e-001	 9.333302777352783e+000	 9.984822115816698e+000
0	 1.333351778131789e-001	 9.399973674588175e+000	 9.987596333505882e+000
0	 1.333351778131789e-001	 9.466644621844619e+000	 9.990069540912479e+000
0	 1.333351778131790e-001	 9.533315502450002e+000	 9.992253010745419e+000
0	 1.333351778131789e-001	 9.599986199732193e+000	 9.994158009249311e+000
0	 1.333351778131790e-001	 9.666656597019093e+000	 9.995795796204073e+000
0	 1.333351778131789e-001	 9.733326577638577e+000	 9.997177624923806e+000
0	 1.333351778131789e-001	 9.799996024918523e+000	 9.998314742256236e+000
0	 1.333351778131789e-001	 9.866664822186818e+000	 9.999218388581417e+000
0	 1.333351778131789e-001	 9.933332852771352e+000	 9.999899797810432e+000
0	 1.333351778131789e-001	 9.999999999999998e+000	 1.000037019738414e+001
0	 2.000039750814772e-001	 9.333302777352783e+000	 9.984863987010813e+000
0	 2.000039750814772e-001	 9.399973674588173e+000	 9.987654505582931e+000
0	 2.000039750814773e-001	 9.466644621844623e+000	 9.990138252386156e+000
0	 2.000039750814772e-001	 9.533315502449998e+000	 9.992326122909791e+000
0	 2.000039750814773e-001	 9.599986199732200e+000	 9.994229006114173e+000
0	 2.000039750814773e-001	 9.666656597019092e+000	 9.995857784430074e+000
0	 2.000039750814772e-001	 9.733326577638573e+000	 9.997223333758026e+000
0	 2.000039750814772e-001	 9.799996024918523e+000	 9.998336523467339e+000
0	 2.000039750814772e-001	 9.866664822186822e+000	 9.999208216394893e+000
0	 2.000039750814772e-001	 9.933332852771354e+000	 9.999849268844043e+000
0	 2.000039750814772e-001	 1.000000000000000e+001	 1.000027053058307e+001
0	 2.666734223614256e-001	 9.333302777352781e+000	 9.984933167081826e+000
0	 2.666734223614256e-001	 9.399973674588173e+000	 9.987722990548809e+000
0	 2.666734223614256e-001	 9.466644621844623e+000	 9.990204241979450e+000
0	 2.666734223614256e-001	 9.533315502450003e+000	 9.992387625122206e+000
0	 2.666734223614256e-001	 9.599986199732198e+000	 9.994283837186162e+000
0	 2.666734223614255e-001	 9.666656597019093e+000	 9.995903568840614e+000
0	 2.666734223614254e-001	 9.733326577638573e+000	 9.997257504214021e+000
0	 2.666734223614256e-001	 9.799996024918526e+000	 9.998356320893359e+000
0	 2.666734223614256e-001	 9.866664822186824e+000	 9.999210689922769e+000
0	 2.666734223614256e-001	 9.933332852771352e+000	 9.999831275802526e+000
0	 2.666734223614256e-001	 1.000000000000000e+001	 1.000022873648735e+001
0	 3.333434029809070e-001	 9.333302777352783e+000	 9.985028540620574e+000
0	 3.333434029809068e-001	 9.399973674588173e+000	 9.987803158625102e+000
0	 3.333434029809068e-001	 9.466644621844619e+000	 9.990270560571824e+000
0	 3.333434029809069e-001	 9.533315502450002e+000	 9.992441443949749e+000
0	 3.333434029809069e-001	 9.599986199732195e+000	 9.994326499744036e+000
0	 3.333434029809069e-001	 9.666656597019092e+000	 9.995936412435414e+000
0	 3.333434029809069e-001	 9.733326577638573e+000	 9.997281859999392e+000
0	 3.333434029809068e-001	 9.799996024918523e+000	 9.998373513905353e+000
0	 3.333434029809068e-001	 9.866664822186822e+000	 9.999222039115425e+000
0	 3.333434029809069e-001	 9.933332852771354e+000	 9.999838094083287e+000
0	 3.333434029809069e-001	 1.000000000000000e+001	 1.000023233075248e+001
0	 4.000138002678044e-001	 9.333302777352781e+000	 9.985148990900614e+000
0	 4.000138002678045e-001	 9.399973674588177e+000	 9.987896378690587e+000
0	 4.000138002678044e-001	 9.466644621844621e+000	 9.990340257661778e+000
0	 4.000138002678043e-001	 9.533315502449998e+000	 9.992491504529680e+000
0	 4.000138002678044e-001	 9.599986199732197e+000	 9.994360989578775e+000
0	 4.000138002678044e-001	 9.666656597019092e+000	 9.995959576662035e+000
0	 4.000138002678043e-001	 9.733326577638575e+000	 9.997298123200034e+000
0	 4.000138002678044e-001	 9.799996024918523e+000	 9.998387480180176e+000
0	 4.000138002678044e-001	 9.866664822186820e+000	 9.999238492155392e+000
0	 4.000138002678045e-001	 9.933332852771352e+000	 9.999861997243128e+000
0	 4.000138002678044e-001	 1.000000000000000e+001	 1.000026882712381e+001
0	 4.666844975500012e-001	 9.333302777352783e+000	 9.985293399878112e+000
0	 4.666844975500012e-001	 9.399973674588175e+000	 9.988004018281284e+000
0	 4.666844975500012e-001	 9.466644621844619e+000	 9.990416381366957e+000
0	 4.666844975500011e-001	 9.533315502450000e+000	 9.992541730569432e+000
0	 4.666844975500011e-001	 9.599986199732197e+000	 9.994391300993918e+000
0	 4.666844975500011e-001	 9.666656597019092e+000	 9.995976321415862e+000
0	 4.666844975500012e-001	 9.733326577638575e+000	 9.997308014280158e+000
0	 4.666844975500012e-001	 9.799996024918524e+000	 9.998397595700375e+000
0	 4.666844975500010e-001	 9.866664822186822e+000	 9.999256275457515e+000
0	 4.666844975500012e-001	 9.933332852771352e+000	 9.999895256998800e+000
0	 4.666844975500011e-001	 1.000000000000000e+001	 1.000032573743644e+001
0	 5.333553781553800e-001	 9.333302777352779e+000	 9.985460648191971e+000
0	 5.333553781553801e-001	 9.399973674588175e+000	 9.988127443590471e+000
0	 5.333553781553803e-001	 9.466644621844619e+000	 9.990501978424014e+000
0	 5.333553781553803e-001	 9.533315502450002e+000	 9.992596044346627e+000
0	 5.333553781553804e-001	 9.599986199732197e+000	 9.994421426805399e+000
0	 5.333553781553804e-001	 9.666656597019095e+000	 9.995989905040094e+000
0	 5.333553781553801e-001	 9.733326577638575e+000	 9.997313252082298e+000
0	 5.333553781553801e-001	 9.799996024918524e+000	 9.998403234754424e+000
0	 5.333553781553801e-001	 9.866664822186822e+000	 9.999271613668814e+000
0	 5.333553781553803e-001	 9.933332852771356e+000	 9.999930143226379e+000
0	 5.333553781553803e-001	 1.000000000000000e+001	 1.000039057161537e+001
0	 6.000263254118248e-001	 9.333302777352785e+000	 9.985649615163741e+000
0	 6.000263254118247e-001	 9.399973674588178e+000	 9.988268019468652e+000
0	 6.000263254118248e-001	 9.466644621844621e+000	 9.990600094188805e+000
0	 6.000263254118246e-001	 9.533315502450002e+000	 9.992658366709005e+000
0	 6.000263254118248e-001	 9.599986199732195e+000	 9.994455358341595e+000
0	 6.000263254118249e-001	 9.666656597019095e+000	 9.996003584325822e+000
0	 6.000263254118247e-001	 9.733326577638575e+000	 9.997315553827157e+000
0	 6.000263254118246e-001	 9.799996024918523e+000	 9.998403769936409e+000
0	 6.000263254118247e-001	 9.866664822186820e+000	 9.999280729668630e+000
0	 6.000263254118247e-001	 9.933332852771351e+000	 9.999958923961811e+000
0	 6.000263254118248e-001	 1.000000000000000e+001	 1.000045083767575e+001
0	 6.666972226472177e-001	 9.333302777352785e+000	 9.985859178797517e+000
0	 6.666972226472175e-001	 9.399973674588177e+000	 9.988427109423450e+000
0	 6.666972226472177e-001	 9.466644621844619e+000	 9.990713772636061e+000
0	 6.666972226472178e-001	 9.533315502450000e+000	 9.992732617074459e+000
0	 6.666972226472177e-001	 9.599986199732195e+000	 9.994497085443159e+000
0	 6.666972226472175e-001	 9.666656597019095e+000	 9.996020614511686e+000
0	 6.666972226472178e-001	 9.733326577638577e+000	 9.997316635113750e+000
0	 6.666972226472177e-001	 9.799996024918521e+000	 9.998398572146261e+000
0	 6.666972226472177e-001	 9.866664822186822e+000	 9.999279844568438e+000
0	 6.666972226472177e-001	 9.933332852771352e+000	 9.999973865400422e+000
0	 6.666972226472175e-001	 1.000000000000000e+001	 1.000049404172218e+001
0	 6.666972226472175e-001	 0.000000000000000e+000	-1.272541320740840e-001
0	 6.666972226472178e-001	 6.666714722864757e-002	-7.256348115973811e-002
0	 6.666972226472178e-001	 1.333351778131789e-001	-2.969214257668923e-002
0	 6.666972226472178e-001	 2.000039750814772e-001	 1.900131753039322e-003
0	 6.666972226472178e-001	 2.666734223614256e-001	 2.275348653410011e-002
0	 6.666972226472177e-001	 3.333434029809069e-001	 3.340796311086265e-002
0	 6.666972226472179e-001	 4.000138002678045e-001	 3.440349947774106e-002
0	 6.666972226472175e-001	 4.666844975500010e-001	 2.627993028680796e-002
0	 6.666972226472177e-001	 5.333553781553801e-001	 9.576986852695700e-003
0	 6.666972226472178e-001	 6.000263254118248e-001	-1.516570284521529e-002
0	 6.666972226472177e-001	 6.666972226472177e-001	-4.740861416332039e-002
0	 7.333579753122049e-001	 0.000000000000000e+000	-5.653385168109908e-002
0	 7.333579753122049e-001	 6.666714722864756e-002	-2.417340166931211e-002
0	 7.333579753122048e-001	 1.333351778131790e-001	 5.618376293456014e-004
0	 7.333579753122048e-001	 2.000039750814772e-001	 1.839315264475821e-002
0	 7.333579753122046e-001	 2.666734223614255e-001	 3.004178514802781e-002
0	 7.333579753122047e-001	 3.333434029809069e-001	 3.622893225656053e-002
0	 7.333579753122048e-001	 4.000138002678045e-001	 3.767574643797961e-002
0	 7.333579753122048e-001	 4.666844975500012e-001	 3.510333551286613e-002
0	 7.333579753122046e-001	 5.333553781553801e-001	 2.923276265632810e-002
0	 7.333579753122050e-001	 6.000263254118248e-001	 2.078504639839738e-002
0	 7.333579753122046e-001	 6.666972226472175e-001	 1.048116062325442e-002
0	 8.000185779984418e-001	 0.000000000000000e+000	 4.306537908701967e-002
0	 8.000185779984416e-001	 6.666714722864754e-002	 4.310746054959041e-002
0	 8.000185779984417e-001	 1.333351778131790e-001	 4.048269295929233e-002
0	 8.000185779984420e-001	 2.000039750814773e-001	 3.642052543010482e-002
0	 8.000185779984416e-001	 2.666734223614255e-001	 3.215044981780196e-002
0	 8.000185779984417e-001	 3.333434029809069e-001	 2.890200071369664e-002
0	 8.000185779984419e-001	 4.000138002678044e-001	 2.790475543950692e-002
0	 8.000185779984418e-001	 4.666844975500011e-001	 3.038833404334473e-002
0	 8.000185779984419e-001	 5.333553781553804e-001	 3.758239929682593e-002
0	 8.000185779984420e-001	 6.000263254118249e-001	 5.071665669330183e-002
0	 8.000185779984416e-001	 6.666972226472175e-001	 7.102085444721284e-002
0	 8.666790473703455e-001	 0.000000000000000e+000	 1.126563651160574e-001
0	 8.666790473703454e-001	 6.666714722864754e-002	 8.013477776290140e-002
0	 8.666790473703455e-001	 1.333351778131789e-001	 4.966037152804457e-002
0	 8.666790473703456e-001	 2.000039750814772e-001	 2.329796754506343e-002
0	 8.666790473703454e-001	 2.666734223614256e-001	 3.112535182868206e-003
0	 8.666790473703452e-001	 3.333434029809069e-001	-8.830807973444592e-003
0	 8.666790473703454e-001	 4.000138002678044e-001	-1.046679613784734e-002
0	 8.666790473703455e-001	 4.666844975500011e-001	 2.699846652536349e-004
0	 8.666790473703454e-001	 5.333553781553801e-001	 2.544509659354474e-002
0	 8.666790473703453e-001	 6.000263254118247e-001	 6.712424998322006e-002
0	 8.666790473703452e-001	 6.666972226472177e-001	 1.273733033492871e-001
0	 9.333394000923323e-001	 0.000000000000000e+000	 9.335186022682443e-002
0	 9.333394000923324e-001	 6.666714722864756e-002	 3.776417244133366e-002
0	 9.333394000923321e-001	 1.333351778131789e-001	-1.231522412422135e-002
0	 9.333394000923321e-001	 2.000039750814772e-001	-5.365884246871141e-002
0	 9.333394000923324e-001	 2.666734223614256e-001	-8.303893436224219e-002
0	 9.333394000923324e-001	 3.333434029809070e-001	-9.722749037790780e-002
0	 9.333394000923322e-001	 4.000138002678044e-001	-9.299623991668744e-002
0	 9.333394000923321e-001	 4.666844975500011e-001	-6.711665122548302e-002
0	 9.333394000923324e-001	 5.333553781553803e-001	-1.635993140830425e-002
0	 9.333394000923323e-001	 6.000263254118248e-001	 6.250297356940526e-002
0	 9.333394000923322e-001	 6.666972226472175e-001	 1.727013788832932e-001
0	 9.999996528288190e-001	 0.000000000000000e+000	-7.373543282572836e-002
0	 9.999996528288194e-001	 6.666714722864756e-002	-1.331487827404685e-001
0	 9.999996528288192e-001	 1.333351778131789e-001	-1.858542370328167e-001
0	 9.999996528288191e-001	 2.000039750814772e-001	-2.271342649645477e-001
0	 9.999996528288191e-001	 2.666734223614255e-001	-2.522709646684166e-001
0	 9.999996528288190e-001	 3.333434029809069e-001	-2.565460631904015e-001
0	 9.999996528288192e-001	 4.000138002678044e-001	-2.352409165221998e-001
0	 9.999996528288191e-001	 4.666844975500012e-001	-1.836365096239842e-001
0	 9.999996528288192e-001	 5.333553781553803e-001	-9.701345643741974e-002
0	 9.999996528288190e-001	 6.000263254118247e-001	 2.934800011106034e-002
0	 9.999996528288192e-001	 6.666972226472177e-001	 2.001679881167170e-001
0	 1.066659822244222e+000	 0.000000000000000e+000	-4.474928623532040e-001
0	 1.066659822244222e+000	 6.666714722864757e-002	-4.817485649045940e-001
0	 1.066659822244223e+000	 1.333351778131789e-001	-5.113668558091400e-001
0	 1.066659822244223e+000	 2.000039750814772e-001	-5.298126991912611e-001
0	 1.066659822244222e+000	 2.666734223614254e-001	-5.305505918323515e-001
0	 1.066659822244222e+000	 3.333434029809069e-001	-5.070445632195556e-001
0	 1.066659822244223e+000	 4.000138002678044e-001	-4.527581755822691e-001
0	 1.066659822244223e+000	 4.666844975500011e-001	-3.611545239163777e-001
0	 1.066659822244222e+000	 5.333553781553801e-001	-2.256962359962287e-001
0	 1.066659822244223e+000	 6.000263254118248e-001	-3.984547237433762e-002
0	 1.066659822244223e+000	 6.666972226472177e-001	 2.029360736311680e-001
0	 1.133319925002959e+000	 0.000000000000000e+000	-1.086807827734260e+000
0	 1.133319925002959e+000	 6.666714722864757e-002	-1.057179700970341e+000
0	 1.133319925002959e+000	 1.333351778131790e-001	-1.029263314641105e+000
0	 1.133319925002959e+000	 2.000039750814772e-001	-9.943785832935179e-001
0	 1.133319925002959e+000	 2.666734223614256e-001	-9.438448821968334e-001
0	 1.133319925002959e+000	 3.333434029809069e-001	-8.689810473921074e-001
0	 1.133319925002959e+000	 4.000138002678045e-001	-7.611053757275604e-001
0	 1.133319925002959e+000	 4.666844975500011e-001	-6.115356248797776e-001
0	 1.133319925002959e+000	 5.333553781553804e-001	-4.115890133607574e-001
0	 1.133319925002959e+000	 6.000263254118248e-001	-1.525822205108115e-001
0	 1.133319925002959e+000	 6.666972226472178e-001	 1.741686135226987e-001
0	 1.199979977769445e+000	 0.000000000000000e+000	-2.050567779414921e+000
0	 1.199979977769445e+000	 6.666714722864757e-002	-1.908586767654506e+000
0	 1.199979977769445e+000	 1.333351778131789e-001	-1.779953893293399e+000
0	 1.199979977769445e+000	 2.000039750814772e-001	-1.653516394312051e+000
0	 1.199979977769445e+000	 2.666734223614256e-001	-1.518120932350897e+000
0	 1.199979977769445e+000	 3.333434029809070e-001	-1.362613592753004e+000
0	 1.199979977769445e+000	 4.000138002678043e-001	-1.175839884591565e+000
0	 1.199979977769445e+000	 4.666844975500011e-001	-9.466447406822697e-001
0	 1.199979977769445e+000	 5.333553781553801e-001	-6.638725175805602e-001
0	 1.199979977769445e+000	 6.000263254118248e-001	-3.163669955637481e-001
0	 1.199979977769445e+000	 6.666972226472177e-001	 1.070286214019933e-001
0	 1.266639997208098e+000	 0.000000000000000e+000	-3.397660218908693e+000
0	 1.266639997208098e+000	 6.666714722864756e-002	-3.085114391471489e+000
0	 1.266639997208098e+000	 1.333351778131789e-001	-2.803848917107568e+000
0	 1.266639997208098e+000	 2.000039750814773e-001	-2.539910648183718e+000
0	 1.266639997208098e+000	 2.666734223614256e-001	-2.279345869129881e+000
0	 1.266639997208098e+000	 3.333434029809069e-001	-2.008200296465443e+000
0	 1.266639997208098e+000	 4.000138002678044e-001	-1.712519078810617e+000
0	 1.266639997208098e+000	 4.666844975500012e-001	-1.378346796882910e+000
0	 1.266639997208098e+000	 5.333553781553803e-001	-9.917274634786912e-001
0	 1.266639997208098e+000	 6.000263254118247e-001	-5.387045234398606e-001
0	 1.266639997208098e+000	 6.666972226472177e-001	-5.320853605585851e-003
0	 1.333299999983334e+000	 0.000000000000000e+000	-5.186972698796498e+000
0	 1.333299999983334e+000	 6.666714722864758e-002	-4.635907248733204e+000
0	 1.333299999983334e+000	 1.333351778131789e-001	-4.141358757001928e+000
0	 1.333299999983334e+000	 2.000039750814772e-001	-3.686245899741440e+000
0	 1.333299999983334e+000	 2.666734223614255e-001	-3.253486849615364e+000
0	 1.333299999983334e+000	 3.333434029809069e-001	-2.825999275810822e+000
0	 1.333299999983334e+000	 4.000138002678044e-001	-2.386700344023874e+000
0	 1.333299999983334e+000	 4.666844975500012e-001	-1.918506716431724e+000
0	 1.333299999983334e+000	 5.333553781553803e-001	-1.404334551651745e+000
0	 1.333299999983334e+000	 6.000263254118247e-001	-8.270995046872472e-001
0	 1.333299999983334e+000	 6.666972226472174e-001	-1.697167268600613e-001
0	 6.666972226472177e-001	 6.666972226472177e-001	-4.740861416332039e-002
0	 6.666972226472175e-001	 7.333579753122045e-001	-1.825953981080678e-002
0	 6.666972226472177e-001	 8.000185779984415e-001	 1.428412425737266e-001
0	 6.666972226472177e-001	 8.666790473703451e-001	 4.389504261174821e-001
0	 6.666972226472177e-001	 9.333394000923322e-001	 8.731245149368651e-001
0	 6.666972226472177e-001	 9.999996528288189e-001	 1.448419824134437e+000
0	 6.666972226472174e-001	 1.066659822244222e+000	 2.167892479796572e+000
0	 6.666972226472178e-001	 1.133319925002959e+000	 3.034598418991826e+000
0	 6.666972226472177e-001	 1.199979977769445e+000	 4.051593389770017e+000
0	 6.666972226472175e-001	 1.266639997208098e+000	 5.221932951162002e+000
0	 6.666972226472175e-001	 1.333299999983334e+000	 6.548672473180184e+000
0	 7.333579753122046e-001	 6.666972226472175e-001	 1.048116062325442e-002
0	 7.333579753122049e-001	 7.333579753122049e-001	 7.392624412357791e-002
0	 7.333579753122049e-001	 8.000185779984419e-001	 2.868674607409336e-001
0	 7.333579753122049e-001	 8.666790473703454e-001	 6.502435708363191e-001
0	 7.333579753122048e-001	 9.333394000923321e-001	 1.164993116621474e+000
0	 7.333579753122048e-001	 9.999996528288190e-001	 1.832054422155419e+000
0	 7.333579753122049e-001	 1.066659822244222e+000	 2.652365593341814e+000
0	 7.333579753122050e-001	 1.133319925002959e+000	 3.626864517927131e+000
0	 7.333579753122048e-001	 1.199979977769445e+000	 4.756488865499651e+000
0	 7.333579753122049e-001	 1.266639997208098e+000	 6.042176087489269e+000
0	 7.333579753122049e-001	 1.333299999983334e+000	 7.484863417168128e+000
0	 8.000185779984416e-001	 6.666972226472175e-001	 7.102085444721284e-002
0	 8.000185779984418e-001	 7.333579753122048e-001	 1.764963863652440e-001
0	 8.000185779984416e-001	 8.000185779984416e-001	 4.436241910080364e-001
0	 8.000185779984419e-001	 8.666790473703455e-001	 8.713422535460552e-001
0	 8.000185779984418e-001	 9.333394000923323e-001	 1.458588321586230e+000
0	 8.000185779984416e-001	 9.999996528288186e-001	 2.204299905168263e+000
0	 8.000185779984420e-001	 1.066659822244222e+000	 3.107414276761832e+000
0	 8.000185779984418e-001	 1.133319925002959e+000	 4.166868471264688e+000
0	 8.000185779984420e-001	 1.199979977769445e+000	 5.381599286001624e+000
0	 8.000185779984419e-001	 1.266639997208098e+000	 6.750543280724361e+000
0	 8.000185779984420e-001	 1.333299999983334e+000	 8.272636777612307e+000
0	 8.666790473703452e-001	 6.666972226472177e-001	 1.273733033492871e-001
0	 8.666790473703455e-001	 7.333579753122048e-001	 2.830285392112114e-001
0	 8.666790473703453e-001	 8.000185779984416e-001	 6.076063649463676e-001
0	 8.666790473703455e-001	 8.666790473703453e-001	 1.098161152873101e+000
0	 8.666790473703456e-001	 9.333394000923325e-001	 1.751747027302485e+000
0	 8.666790473703456e-001	 9.999996528288190e-001	 2.565417864534581e+000
0	 8.666790473703455e-001	 1.066659822244222e+000	 3.536227292855608e+000
0	 8.666790473703455e-001	 1.133319925002959e+000	 4.661228692536080e+000
0	 8.666790473703454e-001	 1.199979977769445e+000	 5.937475195829832e+000
0	 8.666790473703454e-001	 1.266639997208098e+000	 7.362019686973993e+000
0	 8.666790473703456e-001	 1.333299999983334e+000	 8.931914802189908e+000
0	 9.333394000923322e-001	 6.666972226472175e-001	 1.727013788832932e-001
0	 9.333394000923324e-001	 7.333579753122048e-001	 3.871003992114598e-001
0	 9.333394000923323e-001	 8.000185779984417e-001	 7.733089654777701e-001
0	 9.333394000923325e-001	 8.666790473703453e-001	 1.326615004073814e+000
0	 9.333394000923324e-001	 9.333394000923323e-001	 2.042306191157081e+000
0	 9.333394000923322e-001	 9.999996528288189e-001	 2.915669952647325e+000
0	 9.333394000923323e-001	 1.066659822244223e+000	 3.941993464223855e+000
0	 9.333394000923323e-001	 1.133319925002959e+000	 5.116563651323779e+000
0	 9.333394000923324e-001	 1.199979977769445e+000	 6.434667189141170e+000
0	 9.333394000923325e-001	 1.266639997208098e+000	 7.891590502627168e+000
0	 9.333394000923323e-001	 1.333299999983334e+000	 9.482619766491064e+000
0	 9.999996528288192e-001	 6.666972226472177e-001	 2.001679881167171e-001
0	 9.999996528288195e-001	 7.333579753122050e-001	 4.822897071696611e-001
0	 9.999996528288193e-001	 8.000185779984418e-001	 9.352270268754445e-001
0	 9.999996528288192e-001	 8.666790473703453e-001	 1.552618599035424e+000
0	 9.999996528288192e-001	 9.333394000923323e-001	 2.328102830453304e+000
0	 9.999996528288191e-001	 9.999996528288190e-001	 3.255317882931744e+000
0	 9.999996528288193e-001	 1.066659822244222e+000	 4.327901673269897e+000
0	 9.999996528288192e-001	 1.133319925002959e+000	 5.539491873261861e+000
0	 9.999996528288191e-001	 1.199979977769445e+000	 6.883725909696031e+000
0	 9.999996528288194e-001	 1.266639997208098e+000	 8.354240964355396e+000
0	 9.999996528288190e-001	 1.333299999983334e+000	 9.944673974018745e+000
0	 1.066659822244223e+000	 6.666972226472177e-001	 2.029360736311680e-001
0	 1.066659822244222e+000	 7.333579753122046e-001	 5.621742481437423e-001
0	 1.066659822244223e+000	 8.000185779984418e-001	 1.087855634764596e+000
0	 1.066659822244223e+000	 8.666790473703454e-001	 1.772086786276742e+000
0	 1.066659822244222e+000	 9.333394000923321e-001	 2.606974022411614e+000
0	 1.066659822244222e+000	 9.999996528288189e-001	 3.584623429846078e+000
0	 1.066659822244223e+000	 1.066659822244222e+000	 4.697140862200310e+000
0	 1.066659822244223e+000	 1.133319925002959e+000	 5.936631940036527e+000
0	 1.066659822244222e+000	 1.199979977769445e+000	 7.295202050858653e+000
0	 1.066659822244223e+000	 1.266639997208098e+000	 8.764956349112755e+000
0	 1.066659822244223e+000	 1.333299999983334e+000	 1.033799975618848e+001
0	 1.133319925002959e+000	 6.666972226472178e-001	 1.741686135226987e-001
0	 1.133319925002959e+000	 7.333579753122049e-001	 6.203318514462883e-001
0	 1.133319925002959e+000	 8.000185779984417e-001	 1.225689926122902e+000
0	 1.133319925002959e+000	 8.666790473703453e-001	 1.980934470948654e+000
0	 1.133319925002959e+000	 9.333394000923322e-001	 2.876756904170159e+000
0	 1.133319925002959e+000	 9.999996528288191e-001	 3.903848428882053e+000
0	 1.133319925002959e+000	 1.066659822244222e+000	 5.052900033025316e+000
0	 1.133319925002959e+000	 1.133319925002959e+000	 6.314602489386418e+000
0	 1.133319925002959e+000	 1.199979977769445e+000	 7.679646355597242e+000
0	 1.133319925002959e+000	 1.266639997208098e+000	 9.138721974135841e+000
0	 1.133319925002959e+000	 1.333299999983334e+000	 1.068251947232799e+001
0	 1.199979977769445e+000	 6.666972226472177e-001	 1.070286214019931e-001
0	 1.199979977769445e+000	 7.333579753122046e-001	 6.503403906447710e-001
0	 1.199979977769445e+000	 8.000185779984419e-001	 1.343225089280774e+000
0	 1.199979977769445e+000	 8.666790473703453e-001	 2.175076614834416e+000
0	 1.199979977769445e+000	 9.333394000923322e-001	 3.135288672785049e+000
0	 1.199979977769445e+000	 9.999996528288190e-001	 4.213254776565116e+000
0	 1.199979977769445e+000	 1.066659822244222e+000	 5.398368247559009e+000
0	 1.199979977769446e+000	 1.133319925002959e+000	 6.680022215102686e+000
0	 1.199979977769445e+000	 1.199979977769445e+000	 8.047609616483959e+000
0	 1.199979977769445e+000	 1.266639997208098e+000	 9.490523196943519e+000
0	 1.199979977769445e+000	 1.333299999983334e+000	 1.099815550967673e+001
0	 1.266639997208098e+000	 6.666972226472177e-001	-5.320853605585704e-003
0	 1.266639997208098e+000	 7.333579753122048e-001	 6.457777835616162e-001
0	 1.266639997208098e+000	 8.000185779984419e-001	 1.434956363921433e+000
0	 1.266639997208098e+000	 8.666790473703452e-001	 2.350428236349718e+000
0	 1.266639997208098e+000	 9.333394000923321e-001	 3.380406585230420e+000
0	 1.266639997208098e+000	 9.999996528288190e-001	 4.513104430454477e+000
0	 1.266639997208098e+000	 1.066659822244222e+000	 5.736734627419294e+000
0	 1.266639997208098e+000	 1.133319925002959e+000	 7.039509867028894e+000
0	 1.266639997208098e+000	 1.199979977769445e+000	 8.409642675694640e+000
0	 1.266639997208098e+000	 1.266639997208098e+000	 9.835345415336558e+000
0	 1.266639997208098e+000	 1.333299999983334e+000	 1.130483028338537e+001
0	 1.333299999983334e+000	 6.666972226472174e-001	-1.697167268600614e-001
0	 1.333299999983334e+000	 7.333579753122047e-001	 6.002219922741103e-001
0	 1.333299999983334e+000	 8.000185779984418e-001	 1.495379041080795e+000
0	 1.333299999983334e+000	 8.666790473703454e-001	 2.502904410542548e+000
0	 1.333299999983334e+000	 9.333394000923321e-001	 3.609947958398264e+000
0	 1.333299999983334e+000	 9.999996528288189e-001	 4.803659409142893e+000
0	 1.333299999983334e+000	 1.066659822244222e+000	 6.071188354027642e+000
0	 1.333299999983334e+000	 1.133319925002959e+000	 7.399684251060694e+000
0	 1.333299999983334e+000	 1.199979977769445e+000	 8.776296425008431e+000
0	 1.333299999983334e+000	 1.266639997208098e+000	 1.018817406739710e+001
0	 1.333299999983334e+000	 1.333299999983334e+000	 1.162246623651508e+001
0	 6.666972226472175e-001	 1.333299999983334e+000	 6.548672473180184e+000
0	 6.666972226472177e-001	 1.399969999982150e+000	 8.009889506407568e+000
0	 6.666972226472177e-001	 1.466639999981867e+000	 9.575959214356441e+000
0	 6.666972226472178e-001	 1.533309999982383e+000	 1.123901598900518e+001
0	 6.666972226472177e-001	 1.599979999983600e+000	 1.299119422233289e+001
0	 6.666972226472177e-001	 1.666649999985416e+000	 1.482462830631939e+001
0	 6.666972226472177e-001	 1.733319999987733e+000	 1.673145263294519e+001
0	 6.666972226472177e-001	 1.799989999990450e+000	 1.870380159419152e+001
0	 6.666972226472178e-001	 1.866659999993466e+000	 2.073380958204033e+001
0	 6.666972226472175e-001	 1.933329999996683e+000	 2.281361098847430e+001
0	 6.666972226472177e-001	 2.000000000000000e+000	 2.493534020547680e+001
0	 7.333579753122049e-001	 1.333299999983334e+000	 7.484863417168128e+000
0	 7.333579753122047e-001	 1.399969999982150e+000	 9.029271082405195e+000
0	 7.333579753122046e-001	 1.466639999981867e+000	 1.061524073066600e+001
0	 7.333579753122048e-001	 1.533309999982383e+000	 1.223707630435760e+001
0	 7.333579753122049e-001	 1.599979999983599e+000	 1.388908174588739e+001
0	 7.333579753122046e-001	 1.666649999985416e+000	 1.556556099766306e+001
0	 7.333579753122048e-001	 1.733319999987733e+000	 1.726081800209263e+001
0	 7.333579753122049e-001	 1.799989999990450e+000	 1.896915670158443e+001
0	 7.333579753122047e-001	 1.866659999993466e+000	 2.068488103854706e+001
0	 7.333579753122046e-001	 1.933329999996684e+000	 2.240229495538948e+001
0	 7.333579753122047e-001	 2.000000000000000e+000	 2.411570239452098e+001
0	 8.000185779984420e-001	 1.333299999983334e+000	 8.272636777612307e+000
0	 8.000185779984420e-001	 1.399969999982150e+000	 9.865438331926494e+000
0	 8.000185779984417e-001	 1.466639999981866e+000	 1.144428050680269e+001
0	 8.000185779984417e-001	 1.533309999982383e+000	 1.300547977111856e+001
0	 8.000185779984418e-001	 1.599979999983600e+000	 1.454535259375175e+001
0	 8.000185779984419e-001	 1.666649999985416e+000	 1.606021544357986e+001
0	 8.000185779984416e-001	 1.733319999987733e+000	 1.754638478948047e+001
0	 8.000185779984418e-001	 1.799989999990449e+000	 1.900017710033106e+001
0	 8.000185779984417e-001	 1.866659999993466e+000	 2.041790884500914e+001
0	 8.000185779984418e-001	 1.933329999996683e+000	 2.179589649239221e+001
0	 8.000185779984419e-001	 2.000000000000000e+000	 2.313045651135766e+001
0	 8.666790473703456e-001	 1.333299999983334e+000	 8.931914802189910e+000
0	 8.666790473703454e-001	 1.399969999982150e+000	 1.054326734244902e+001
0	 8.666790473703453e-001	 1.466639999981866e+000	 1.209243792887685e+001
0	 8.666790473703456e-001	 1.533309999982383e+000	 1.357759853035326e+001
0	 8.666790473703454e-001	 1.599979999983599e+000	 1.499692111575786e+001
0	 8.666790473703456e-001	 1.666649999985416e+000	 1.634857765396987e+001
0	 8.666790473703456e-001	 1.733319999987733e+000	 1.763074011386820e+001
0	 8.666790473703453e-001	 1.799989999990449e+000	 1.884158046433143e+001
0	 8.666790473703452e-001	 1.866659999993466e+000	 1.997927067423775e+001
0	 8.666790473703454e-001	 1.933329999996682e+000	 2.104198271246511e+001
0	 8.666790473703455e-001	 2.000000000000000e+000	 2.202788854789100e+001
0	 9.333394000923323e-001	 1.333299999983334e+000	 9.482619766491066e+000
0	 9.333394000923319e-001	 1.399969999982150e+000	 1.108763421383559e+001
0	 9.333394000923323e-001	 1.466639999981866e+000	 1.258907237686642e+001
0	 9.333394000923321e-001	 1.533309999982383e+000	 1.398680469572258e+001
0	 9.333394000923323e-001	 1.599979999983599e+000	 1.528070161054252e+001
0	 9.333394000923322e-001	 1.666649999985416e+000	 1.647063356146407e+001
0	 9.333394000923320e-001	 1.733319999987733e+000	 1.755647098862448e+001
0	 9.333394000923321e-001	 1.799989999990449e+000	 1.853808433216040e+001
0	 9.333394000923321e-001	 1.866659999993466e+000	 1.941534403220788e+001
0	 9.333394000923323e-001	 1.933329999996683e+000	 2.018812052890242e+001
0	 9.333394000923323e-001	 2.000000000000000e+000	 2.085628426237884e+001
0	 9.999996528288190e-001	 1.333299999983334e+000	 9.944673974018748e+000
0	 9.999996528288189e-001	 1.399969999982150e+000	 1.152341505833357e+001
0	 9.999996528288191e-001	 1.466639999981866e+000	 1.296354322461586e+001
0	 9.999996528288189e-001	 1.533309999982383e+000	 1.426647035348137e+001
0	 9.999996528288189e-001	 1.599979999983600e+000	 1.543360832554509e+001
0	 9.999996528288190e-001	 1.666649999985416e+000	 1.646636902142116e+001
0	 9.999996528288191e-001	 1.733319999987733e+000	 1.736616432172291e+001
0	 9.999996528288191e-001	 1.799989999990450e+000	 1.813440610706288e+001
0	 9.999996528288191e-001	 1.866659999993466e+000	 1.877250625805277e+001
0	 9.999996528288192e-001	 1.933329999996683e+000	 1.928187665530350e+001
0	 9.999996528288191e-001	 2.000000000000000e+000	 1.966392917942513e+001
0	 1.066659822244223e+000	 1.333299999983334e+000	 1.033799975618848e+001
0	 1.066659822244223e+000	 1.399969999982150e+000	 1.187548600057435e+001
0	 1.066659822244222e+000	 1.466639999981866e+000	 1.324520983983495e+001
0	 1.066659822244222e+000	 1.533309999982383e+000	 1.444996756247672e+001
0	 1.066659822244222e+000	 1.599979999983599e+000	 1.549255545700512e+001
0	 1.066659822244222e+000	 1.666649999985416e+000	 1.637576981192457e+001
0	 1.066659822244222e+000	 1.733319999987733e+000	 1.710240691573851e+001
0	 1.066659822244222e+000	 1.799989999990450e+000	 1.767526305694938e+001
0	 1.066659822244222e+000	 1.866659999993466e+000	 1.809713452405868e+001
0	 1.066659822244222e+000	 1.933329999996683e+000	 1.837081760556681e+001
0	 1.066659822244223e+000	 2.000000000000000e+000	 1.849910858997328e+001
0	 1.133319925002959e+000	 1.333299999983334e+000	 1.068251947232799e+001
0	 1.133319925002959e+000	 1.399969999982150e+000	 1.216872317757252e+001
0	 1.133319925002959e+000	 1.466639999981866e+000	 1.346343158409775e+001
0	 1.133319925002959e+000	 1.533309999982383e+000	 1.457066835414646e+001
0	 1.133319925002959e+000	 1.599979999983600e+000	 1.549445714996035e+001
0	 1.133319925002959e+000	 1.666649999985416e+000	 1.623882163377988e+001
0	 1.133319925002959e+000	 1.733319999987733e+000	 1.680778546784446e+001
0	 1.133319925002959e+000	 1.799989999990449e+000	 1.720537231439228e+001
0	 1.133319925002959e+000	 1.866659999993466e+000	 1.743560583566041e+001
0	 1.133319925002959e+000	 1.933329999996683e+000	 1.750250969388480e+001
0	 1.133319925002959e+000	 2.000000000000000e+000	 1.741010755130019e+001
0	 1.199979977769445e+000	 1.333299999983334e+000	 1.099815550967673e+001
0	 1.199979977769445e+000	 1.399969999982150e+000	 1.242800273872522e+001
0	 1.199979977769445e+000	 1.466639999981866e+000	 1.364756781284144e+001
0	 1.199979977769445e+000	 1.533309999982383e+000	 1.466194473251760e+001
0	 1.199979977769445e+000	 1.599979999983599e+000	 1.547622749824472e+001
0	 1.199979977769445e+000	 1.666649999985416e+000	 1.609551011051246e+001
0	 1.199979977769445e+000	 1.733319999987733e+000	 1.652488656980928e+001
0	 1.199979977769445e+000	 1.799989999990450e+000	 1.676945087662233e+001
0	 1.199979977769446e+000	 1.866659999993466e+000	 1.683429703143750e+001
0	 1.199979977769445e+000	 1.933329999996684e+000	 1.672451903473941e+001
0	 1.199979977769445e+000	 2.000000000000000e+000	 1.644521088701139e+001
0	 1.266639997208098e+000	 1.333299999983334e+000	 1.130483028338538e+001
0	 1.266639997208098e+000	 1.399969999982150e+000	 1.267820084581131e+001
0	 1.266639997208098e+000	 1.466639999981867e+000	 1.382697787536532e+001
0	 1.266639997208098e+000	 1.533309999982383e+000	 1.475716867420503e+001
0	 1.266639997208098e+000	 1.599979999983600e+000	 1.547478054448676e+001
0	 1.266639997208098e+000	 1.666649999985416e+000	 1.598582078836536e+001
0	 1.266639997208098e+000	 1.733319999987733e+000	 1.629629670799439e+001
0	 1.266639997208098e+000	 1.799989999990450e+000	 1.641221560552597e+001
0	 1.266639997208098e+000	 1.866659999993466e+000	 1.633958478311089e+001
0	 1.266639997208098e+000	 1.933329999996683e+000	 1.608441154289852e+001
0	 1.266639997208098e+000	 2.000000000000000e+000	 1.565270318703691e+001
0	 1.333299999983334e+000	 1.333299999983334e+000	 1.162246623651508e+001
0	 1.333299999983334e+000	 1.399969999982150e+000	 1.294419367299047e+001
0	 1.333299999983334e+000	 1.466639999981867e+000	 1.403102111482972e+001
0	 1.333299999983334e+000	 1.533309999982383e+000	 1.488971212841025e+001
0	 1.333299999983334e+000	 1.599979999983599e+000	 1.552703028010803e+001
0	 1.333299999983334e+000	 1.666649999985416e+000	 1.594973913629761e+001
0	 1.333299999983334e+000	 1.733319999987733e+000	 1.616460226335202e+001
0	 1.333299999983334e+000	 1.799989999990449e+000	 1.617838322764287e+001
0	 1.333299999983334e+000	 1.866659999993466e+000	 1.599784559554029e+001
0	 1.333299999983334e+000	 1.933329999996683e+000	 1.562975293341294e+001
0	 1.333299999983334e+000	 2.000000000000000e+000	 1.508086880762806e+001
0	 6.666972226472177e-001	 2.000000000000000e+000	 2.493534020547680e+001
0	 6.666972226472177e-001	 2.066670000003317e+000	 2.692675057836472e+001
0	 6.666972226472178e-001	 2.133340000006534e+000	 2.862209284185577e+001
0	 6.666972226472177e-001	 2.200010000009550e+000	 3.002324747203325e+001
0	 6.666972226472177e-001	 2.266680000012268e+000	 3.113209494497828e+001
0	 6.666972226472175e-001	 2.333350000014584e+000	 3.195051573676965e+001
0	 6.666972226472175e-001	 2.400020000016400e+000	 3.248039032348387e+001
0	 6.666972226472178e-001	 2.466690000017616e+000	 3.272359918119519e+001
0	 6.666972226472178e-001	 2.533360000018134e+000	 3.268202278597558e+001
0	 6.666972226472177e-001	 2.600030000017850e+000	 3.235754161389477e+001
0	 6.666972226472177e-001	 2.666700000016667e+000	 3.175203614102014e+001
0	 7.333579753122047e-001	 2.000000000000000e+000	 2.411570239452098e+001
0	 7.333579753122047e-001	 2.066670000003317e+000	 2.567629971904664e+001
0	 7.333579753122048e-001	 2.133340000006534e+000	 2.694278745796813e+001
0	 7.333579753122048e-001	 2.200010000009550e+000	 2.792072580253785e+001
0	 7.333579753122047e-001	 2.266680000012267e+000	 2.861567494400599e+001
0	 7.333579753122047e-001	 2.333350000014584e+000	 2.903319507362044e+001
0	 7.333579753122050e-001	 2.400020000016402e+000	 2.917884638262673e+001
0	 7.333579753122049e-001	 2.466690000017618e+000	 2.905818906226818e+001
0	 7.333579753122047e-001	 2.533360000018133e+000	 2.867678330378576e+001
0	 7.333579753122049e-001	 2.600030000017851e+000	 2.804018929841813e+001
0	 7.333579753122047e-001	 2.666700000016666e+000	 2.715396723740172e+001
0	 8.000185779984419e-001	 2.000000000000000e+000	 2.313045651135766e+001
0	 8.000185779984416e-001	 2.066670000003316e+000	 2.429694275752745e+001
0	 8.000185779984416e-001	 2.133340000006534e+000	 2.517899823027300e+001
0	 8.000185779984418e-001	 2.200010000009550e+000	 2.578537311409418e+001
0	 8.000185779984417e-001	 2.266680000012266e+000	 2.612481759348855e+001
0	 8.000185779984419e-001	 2.333350000014585e+000	 2.620608185295156e+001
0	 8.000185779984418e-001	 2.400020000016401e+000	 2.603791607697627e+001
0	 8.000185779984418e-001	 2.466690000017617e+000	 2.562907045005357e+001
0	 8.000185779984418e-001	 2.533360000018134e+000	 2.498829515667204e+001
0	 8.000185779984420e-001	 2.600030000017851e+000	 2.412434038131810e+001
0	 8.000185779984420e-001	 2.666700000016666e+000	 2.304595630847581e+001
0	 8.666790473703455e-001	 2.000000000000000e+000	 2.202788854789100e+001
0	 8.666790473703454e-001	 2.066670000003316e+000	 2.283681051898805e+001
0	 8.666790473703452e-001	 2.133340000006534e+000	 2.337742328518591e+001
0	 8.666790473703455e-001	 2.200010000009550e+000	 2.366117729679591e+001
0	 8.666790473703454e-001	 2.266680000012267e+000	 2.369952300412723e+001
0	 8.666790473703454e-001	 2.333350000014584e+000	 2.350391085748686e+001
0	 8.666790473703452e-001	 2.400020000016400e+000	 2.308579130717966e+001
0	 8.666790473703456e-001	 2.466690000017618e+000	 2.245661480350841e+001
0	 8.666790473703454e-001	 2.533360000018134e+000	 2.162783179677366e+001
0	 8.666790473703453e-001	 2.600030000017850e+000	 2.061089273727383e+001
0	 8.666790473703455e-001	 2.666700000016666e+000	 1.941724807530525e+001
0	 9.333394000923323e-001	 2.000000000000000e+000	 2.085628426237884e+001
0	 9.333394000923324e-001	 2.066670000003317e+000	 2.134403356021802e+001
0	 9.333394000923322e-001	 2.133340000006534e+000	 2.158476044585028e+001
0	 9.333394000923323e-001	 2.200010000009550e+000	 2.159212590318267e+001
0	 9.333394000923322e-001	 2.266680000012267e+000	 2.137979091612032e+001
0	 9.333394000923324e-001	 2.333350000014584e+000	 2.096141646856632e+001
0	 9.333394000923320e-001	 2.400020000016400e+000	 2.035066354442177e+001
0	 9.333394000923324e-001	 2.466690000017617e+000	 1.956119312758572e+001
0	 9.333394000923321e-001	 2.533360000018133e+000	 1.860666620195533e+001
0	 9.333394000923323e-001	 2.600030000017851e+000	 1.750074375142567e+001
0	 9.333394000923324e-001	 2.666700000016666e+000	 1.625708675988987e+001
0	 9.999996528288191e-001	 2.000000000000000e+000	 1.966392917942513e+001
0	 9.999996528288192e-001	 2.066670000003317e+000	 1.986674216960703e+001
0	 9.999996528288192e-001	 2.133340000006534e+000	 1.984770723212777e+001
0	 9.999996528288193e-001	 2.200010000009550e+000	 1.962220614822937e+001
0	 9.999996528288192e-001	 2.266680000012268e+000	 1.920562069915201e+001
0	 9.999996528288190e-001	 2.333350000014584e+000	 1.861333266613406e+001
0	 9.999996528288191e-001	 2.400020000016401e+000	 1.786072383041211e+001
0	 9.999996528288190e-001	 2.466690000017617e+000	 1.696317597322089e+001
0	 9.999996528288192e-001	 2.533360000018134e+000	 1.593607087579336e+001
0	 9.999996528288190e-001	 2.600030000017850e+000	 1.479479031936061e+001
0	 9.999996528288191e-001	 2.666700000016666e+000	 1.355471608515199e+001
0	 1.066659822244223e+000	 2.000000000000000e+000	 1.849910858997328e+001
0	 1.066659822244222e+000	 2.066670000003317e+000	 1.845306636713732e+001
0	 1.066659822244223e+000	 2.133340000006533e+000	 1.821296086059015e+001
0	 1.066659822244222e+000	 2.200010000009550e+000	 1.779540490933720e+001
0	 1.066659822244222e+000	 2.266680000012267e+000	 1.721701135238231e+001
0	 1.066659822244223e+000	 2.333350000014584e+000	 1.649439302872768e+001
0	 1.066659822244223e+000	 2.400020000016401e+000	 1.564416277737395e+001
0	 1.066659822244223e+000	 2.466690000017617e+000	 1.468293343732009e+001
0	 1.066659822244223e+000	 2.533360000018134e+000	 1.362731784756352e+001
0	 1.066659822244223e+000	 2.600030000017851e+000	 1.249392884710004e+001
0	 1.066659822244223e+000	 2.666700000016667e+000	 1.129937927492381e+001
0	 1.133319925002959e+000	 2.000000000000000e+000	 1.741010755130019e+001
0	 1.133319925002959e+000	 2.066670000003318e+000	 1.715113590437717e+001
0	 1.133319925002959e+000	 2.133340000006534e+000	 1.672721824451195e+001
0	 1.133319925002959e+000	 2.200010000009551e+000	 1.615570872632587e+001
0	 1.133319925002959e+000	 2.266680000012267e+000	 1.545396150443879e+001
0	 1.133319925002959e+000	 2.333350000014585e+000	 1.463933073346929e+001
0	 1.133319925002959e+000	 2.400020000016401e+000	 1.372917056803452e+001
0	 1.133319925002959e+000	 2.466690000017617e+000	 1.274083516275019e+001
0	 1.133319925002959e+000	 2.533360000018134e+000	 1.169167867223069e+001
0	 1.133319925002959e+000	 2.600030000017850e+000	 1.059905525108897e+001
0	 1.133319925002959e+000	 2.666700000016666e+000	 9.480319053936643e+000
0	 1.199979977769445e+000	 2.000000000000000e+000	 1.644521088701139e+001
0	 1.199979977769445e+000	 2.066670000003316e+000	 1.600908026447538e+001
0	 1.199979977769445e+000	 2.133340000006533e+000	 1.543717599386448e+001
0	 1.199979977769445e+000	 2.200010000009551e+000	 1.474710380142681e+001
0	 1.199979977769445e+000	 2.266680000012267e+000	 1.395646941340938e+001
0	 1.199979977769445e+000	 2.333350000014584e+000	 1.308287855605795e+001
0	 1.199979977769445e+000	 2.400020000016401e+000	 1.214393695561716e+001
0	 1.199979977769445e+000	 2.466690000017617e+000	 1.115725033833049e+001
0	 1.199979977769445e+000	 2.533360000018134e+000	 1.014042443044020e+001
0	 1.199979977769445e+000	 2.600030000017850e+000	 9.111064958187408e+000
0	 1.199979977769445e+000	 2.666700000016666e+000	 8.086777647812069e+000
0	 1.266639997208098e+000	 2.000000000000000e+000	 1.565270318703691e+001
0	 1.266639997208098e+000	 2.066670000003317e+000	 1.507502866215681e+001
0	 1.266639997208098e+000	 2.133340000006534e+000	 1.438953041531087e+001
0	 1.266639997208098e+000	 2.200010000009550e+000	 1.361357599927811e+001
0	 1.266639997208098e+000	 2.266680000012267e+000	 1.276453296683665e+001
0	 1.266639997208098e+000	 2.333350000014584e+000	 1.185976887076357e+001
0	 1.266639997208098e+000	 2.400020000016400e+000	 1.091665126383500e+001
0	 1.266639997208098e+000	 2.466690000017617e+000	 9.952547698826118e+000
0	 1.266639997208098e+000	 2.533360000018133e+000	 8.984825728511162e+000
0	 1.266639997208098e+000	 2.600030000017851e+000	 8.030852905663309e+000
0	 1.266639997208098e+000	 2.666700000016666e+000	 7.107996783054881e+000
0	 1.333299999983334e+000	 2.000000000000000e+000	 1.508086880762806e+001
0	 1.333299999983334e+000	 2.066670000003317e+000	 1.439711004371875e+001
0	 1.333299999983334e+000	 2.133340000006534e+000	 1.363097751220224e+001
0	 1.333299999983334e+000	 2.200010000009550e+000	 1.279911084692023e+001
0	 1.333299999983334e+000	 2.266680000012267e+000	 1.191814968171359e+001
0	 1.333299999983334e+000	 2.333350000014584e+000	 1.100473365042245e+001
0	 1.333299999983334e+000	 2.400020000016401e+000	 1.007550238688612e+001
0	 1.333299999983334e+000	 2.466690000017617e+000	 9.147095524943163e+000
0	 1.333299999983334e+000	 2.533360000018134e+000	 8.236152698431305e+000
0	 1.333299999983334e+000	 2.600030000017851e+000	 7.359313541187509e+000
0	 1.333299999983334e+000	 2.666700000016666e+000	 6.533217687047973e+000
0	 6.666972226472177e-001	 2.666700000016667e+000	 3.175203614102014e+001
0	 6.666972226472175e-001	 2.733360000014533e+000	 3.097872231778396e+001
0	 6.666972226472178e-001	 2.800020000011599e+000	 3.015260567904879e+001
0	 6.666972226472177e-001	 2.866680000008067e+000	 2.927858648661489e+001
0	 6.666972226472178e-001	 2.933340000004133e+000	 2.836156500228309e+001
0	 6.666972226472175e-001	 3.000000000000000e+000	 2.740644148785476e+001
0	 6.666972226472178e-001	 3.066659999995867e+000	 2.641811620513183e+001
0	 6.666972226472175e-001	 3.133319999991933e+000	 2.540148941591683e+001
0	 6.666972226472178e-001	 3.199979999988400e+000	 2.436146138201284e+001
0	 6.666972226472177e-001	 3.266639999985467e+000	 2.330293236522347e+001
0	 6.666972226472175e-001	 3.333299999983334e+000	 2.223080262735291e+001
0	 7.333579753122047e-001	 2.666700000016666e+000	 2.715396723740173e+001
0	 7.333579753122049e-001	 2.733360000014534e+000	 2.615788953884979e+001
0	 7.333579753122047e-001	 2.800020000011599e+000	 2.518878310581762e+001
0	 7.333579753122050e-001	 2.866680000008067e+000	 2.424824396645841e+001
0	 7.333579753122048e-001	 2.933340000004133e+000	 2.333786814892505e+001
0	 7.333579753122049e-001	 3.000000000000000e+000	 2.245925168137030e+001
0	 7.333579753122047e-001	 3.066659999995868e+000	 2.161399059194660e+001
0	 7.333579753122048e-001	 3.133319999991934e+000	 2.080368090880604e+001
0	 7.333579753122047e-001	 3.199979999988400e+000	 2.002991866010057e+001
0	 7.333579753122049e-001	 3.266639999985468e+000	 1.929429987398190e+001
0	 7.333579753122049e-001	 3.333299999983334e+000	 1.859842057860136e+001
0	 8.000185779984420e-001	 2.666700000016666e+000	 2.304595630847581e+001
0	 8.000185779984419e-001	 2.733360000014533e+000	 2.190812728315331e+001
0	 8.000185779984418e-001	 2.800020000011599e+000	 2.085875757508567e+001
0	 8.000185779984419e-001	 2.866680000008066e+000	 1.989650943613306e+001
0	 8.000185779984418e-001	 2.933340000004134e+000	 1.902004511815492e+001
0	 8.000185779984419e-001	 3.000000000000000e+000	 1.822802687300986e+001
0	 8.000185779984419e-001	 3.066659999995868e+000	 1.751911695255562e+001
0	 8.000185779984420e-001	 3.133319999991934e+000	 1.689197760864911e+001
0	 8.000185779984418e-001	 3.199979999988400e+000	 1.634527109314655e+001
0	 8.000185779984419e-001	 3.266639999985467e+000	 1.587765965790322e+001
0	 8.000185779984420e-001	 3.333299999983334e+000	 1.548780555477356e+001
0	 8.666790473703455e-001	 2.666700000016666e+000	 1.941724807530525e+001
0	 8.666790473703455e-001	 2.733360000014534e+000	 1.820737851958566e+001
0	 8.666790473703452e-001	 2.800020000011599e+000	 1.713114700193698e+001
0	 8.666790473703454e-001	 2.866680000008067e+000	 1.618465245984247e+001
0	 8.666790473703455e-001	 2.933340000004133e+000	 1.536399383078425e+001
0	 8.666790473703453e-001	 3.000000000000000e+000	 1.466527005224330e+001
0	 8.666790473703453e-001	 3.066659999995866e+000	 1.408458006169937e+001
0	 8.666790473703455e-001	 3.133319999991934e+000	 1.361802279663111e+001
0	 8.666790473703455e-001	 3.199979999988401e+000	 1.326169719451599e+001
0	 8.666790473703454e-001	 3.266639999985467e+000	 1.301170219283038e+001
0	 8.666790473703454e-001	 3.333299999983333e+000	 1.286413672904938e+001
0	 9.333394000923324e-001	 2.666700000016666e+000	 1.625708675988987e+001
0	 9.333394000923323e-001	 2.733360000014533e+000	 1.503358571471078e+001
0	 9.333394000923322e-001	 2.800020000011600e+000	 1.397456880178166e+001
0	 9.333394000923322e-001	 2.866680000008067e+000	 1.307394211013113e+001
0	 9.333394000923324e-001	 2.933340000004133e+000	 1.232561172878653e+001
0	 9.333394000923324e-001	 3.000000000000000e+000	 1.172348374677387e+001
0	 9.333394000923324e-001	 3.066659999995867e+000	 1.126146425311782e+001
0	 9.333394000923321e-001	 3.133319999991933e+000	 1.093345933684186e+001
0	 9.333394000923322e-001	 3.199979999988401e+000	 1.073337508696802e+001
0	 9.333394000923324e-001	 3.266639999985467e+000	 1.065511759251708e+001
0	 9.333394000923324e-001	 3.333299999983334e+000	 1.069259294250853e+001
0	 9.999996528288191e-001	 2.666700000016666e+000	 1.355471608515199e+001
0	 9.999996528288191e-001	 2.733360000014533e+000	 1.236469083275094e+001
0	 9.999996528288192e-001	 2.800020000011600e+000	 1.135763989034138e+001
0	 9.999996528288192e-001	 2.866680000008067e+000	 1.052564696787027e+001
0	 9.999996528288193e-001	 2.933340000004133e+000	 9.860795775283332e+000
0	 9.999996528288189e-001	 2.999999999999999e+000	 9.355170022524876e+000
0	 9.999996528288193e-001	 3.066659999995867e+000	 9.000853419537972e+000
0	 9.999996528288191e-001	 3.133319999991934e+000	 8.789929676264405e+000
0	 9.999996528288192e-001	 3.199979999988401e+000	 8.714482502644540e+000
0	 9.999996528288191e-001	 3.266639999985467e+000	 8.766595608617525e+000
0	 9.999996528288191e-001	 3.333299999983334e+000	 8.938352704121229e+000
0	 1.066659822244223e+000	 2.666700000016667e+000	 1.129937927492381e+001
0	 1.066659822244223e+000	 2.733360000014533e+000	 1.017863533557403e+001
0	 1.066659822244223e+000	 2.800020000011600e+000	 9.248976683636869e+000
0	 1.066659822244222e+000	 2.866680000008066e+000	 8.501035122245655e+000
0	 1.066659822244223e+000	 2.933340000004133e+000	 7.925442454532466e+000
0	 1.066659822244222e+000	 2.999999999999999e+000	 7.512830483628236e+000
0	 1.066659822244222e+000	 3.066659999995865e+000	 7.253831012662680e+000
0	 1.066659822244223e+000	 3.133319999991933e+000	 7.139075844764325e+000
0	 1.066659822244223e+000	 3.199979999988401e+000	 7.159196783060471e+000
0	 1.066659822244222e+000	 3.266639999985466e+000	 7.304825630677336e+000
0	 1.066659822244222e+000	 3.333299999983333e+000	 7.566594190739779e+000
0	 1.133319925002959e+000	 2.666700000016666e+000	 9.480319053936649e+000
0	 1.133319925002959e+000	 2.733360000014532e+000	 8.453360182682815e+000
0	 1.133319925002959e+000	 2.800020000011601e+000	 7.617195097977294e+000
0	 1.133319925002959e+000	 2.866680000008066e+000	 6.961374170746959e+000
0	 1.133319925002959e+000	 2.933340000004133e+000	 6.475447771917761e+000
0	 1.133319925002959e+000	 3.000000000000000e+000	 6.148966272414620e+000
0	 1.133319925002959e+000	 3.066659999995867e+000	 5.971480043161449e+000
0	 1.133319925002959e+000	 3.133319999991934e+000	 5.932539455081117e+000
0	 1.133319925002959e+000	 3.199979999988400e+000	 6.021694879095617e+000
0	 1.133319925002959e+000	 3.266639999985467e+000	 6.228496686125841e+000
0	 1.133319925002959e+000	 3.333299999983334e+000	 6.542495247091709e+000
0	 1.199979977769445e+000	 2.666700000016666e+000	 8.086777647812074e+000
0	 1.199979977769445e+000	 2.733360000014534e+000	 7.166805831206083e+000
0	 1.199979977769445e+000	 2.800020000011600e+000	 6.430910549951348e+000
0	 1.199979977769446e+000	 2.866680000008067e+000	 5.867931219159313e+000
0	 1.199979977769445e+000	 2.933340000004133e+000	 5.466707253940683e+000
0	 1.199979977769445e+000	 3.000000000000000e+000	 5.216078069405403e+000
0	 1.199979977769445e+000	 3.066659999995865e+000	 5.104883080662638e+000
0	 1.199979977769445e+000	 3.133319999991933e+000	 5.121961702820840e+000
0	 1.199979977769445e+000	 3.199979999988401e+000	 5.256153350987637e+000
0	 1.199979977769445e+000	 3.266639999985467e+000	 5.496297440269975e+000
0	 1.199979977769445e+000	 3.333299999983334e+000	 5.831233385773953e+000
0	 1.266639997208098e+000	 2.666700000016666e+000	 7.107996783054881e+000
0	 1.266639997208098e+000	 2.733360000014533e+000	 6.296912235891588e+000
0	 1.266639997208098e+000	 2.800020000011600e+000	 5.658737956420458e+000
0	 1.266639997208098e+000	 2.866680000008066e+000	 5.181972881556399e+000
0	 1.266639997208098e+000	 2.933340000004134e+000	 4.855115948213770e+000
0	 1.266639997208098e+000	 3.000000000000000e+000	 4.666666093306426e+000
0	 1.266639997208098e+000	 3.066659999995867e+000	 4.605122253747710e+000
0	 1.266639997208098e+000	 3.133319999991934e+000	 4.658983366450441e+000
0	 1.266639997208098e+000	 3.199979999988401e+000	 4.816748368326997e+000
0	 1.266639997208098e+000	 3.266639999985467e+000	 5.066916196289143e+000
0	 1.266639997208098e+000	 3.333299999983334e+000	 5.397985787248183e+000
0	 1.333299999983334e+000	 2.666700000016666e+000	 6.533217687047973e+000
0	 1.333299999983334e+000	 2.733360000014532e+000	 5.821618849100921e+000
0	 1.333299999983334e+000	 2.800020000011599e+000	 5.269291734513662e+000
0	 1.333299999983334e+000	 2.866680000008067e+000	 4.864765280295594e+000
0	 1.333299999983334e+000	 2.933340000004133e+000	 4.596568423455860e+000
0	 1.333299999983334e+000	 3.000000000000000e+000	 4.453230101003299e+000
0	 1.333299999983334e+000	 3.066659999995867e+000	 4.423279249946499e+000
0	 1.333299999983334e+000	 3.133319999991934e+000	 4.495244807293695e+000
0	 1.333299999983334e+000	 3.199979999988401e+000	 4.657655710052898e+000
0	 1.333299999983334e+000	 3.266639999985467e+000	 4.899040895231758e+000
0	 1.333299999983334e+000	 3.333299999983334e+000	 5.207929299837708e+000
0	 6.666972226472175e-001	 3.333299999983334e+000	 2.223080262735291e+001
0	 6.666972226472177e-001	 3.399969999982150e+000	 2.116923891422534e+001
0	 6.666972226472177e-001	 3.466639999981867e+000	 2.013860311440809e+001
0	 6.666972226472177e-001	 3.533309999982382e+000	 1.913760337183261e+001
0	 6.666972226472177e-001	 3.599979999983599e+000	 1.816494783043036e+001
0	 6.666972226472175e-001	 3.666649999985416e+000	 1.721934463413297e+001
0	 6.666972226472175e-001	 3.733319999987733e+000	 1.629950192687202e+001
0	 6.666972226472175e-001	 3.799989999990450e+000	 1.540412785257931e+001
0	 6.666972226472177e-001	 3.866659999993467e+000	 1.453193055518665e+001
0	 6.666972226472175e-001	 3.933329999996683e+000	 1.368161817862594e+001
0	 6.666972226472175e-001	 4.000000000000001e+000	 1.285189886682925e+001
0	 7.333579753122049e-001	 3.333299999983334e+000	 1.859842057860136e+001
0	 7.333579753122048e-001	 3.399969999982150e+000	 1.793361555221147e+001
0	 7.333579753122047e-001	 3.466639999981868e+000	 1.728774205067581e+001
0	 7.333579753122048e-001	 3.533309999982382e+000	 1.665687582326957e+001
0	 7.333579753122049e-001	 3.599979999983600e+000	 1.603709261926776e+001
0	 7.333579753122046e-001	 3.666649999985416e+000	 1.542446818794552e+001
0	 7.333579753122047e-001	 3.733319999987733e+000	 1.481507827857781e+001
0	 7.333579753122048e-001	 3.799989999990450e+000	 1.420499864043960e+001
0	 7.333579753122048e-001	 3.866659999993467e+000	 1.359030502280592e+001
0	 7.333579753122047e-001	 3.933329999996684e+000	 1.296707317495158e+001
0	 7.333579753122048e-001	 4.000000000000002e+000	 1.233137884615149e+001
0	 8.000185779984420e-001	 3.333299999983334e+000	 1.548780555477356e+001
0	 8.000185779984421e-001	 3.399969999982151e+000	 1.514434112646885e+001
0	 8.000185779984418e-001	 3.466639999981866e+000	 1.481272616799974e+001
0	 8.000185779984418e-001	 3.533309999982383e+000	 1.448670595424492e+001
0	 8.000185779984419e-001	 3.599979999983600e+000	 1.416002576008303e+001
0	 8.000185779984420e-001	 3.666649999985417e+000	 1.382643086039250e+001
0	 8.000185779984417e-001	 3.733319999987733e+000	 1.347966653005170e+001
0	 8.000185779984418e-001	 3.799989999990451e+000	 1.311347804393884e+001
0	 8.000185779984416e-001	 3.866659999993466e+000	 1.272161067693209e+001
0	 8.000185779984418e-001	 3.933329999996683e+000	 1.229780970390938e+001
0	 8.000185779984418e-001	 4.000000000000001e+000	 1.183582039974865e+001
0	 8.666790473703454e-001	 3.333299999983333e+000	 1.286413672904938e+001
0	 8.666790473703452e-001	 3.399969999982150e+000	 1.277370860943413e+001
0	 8.666790473703453e-001	 3.466639999981866e+000	 1.269223346311710e+001
0	 8.666790473703455e-001	 3.533309999982383e+000	 1.261142801451288e+001
0	 8.666790473703453e-001	 3.599979999983600e+000	 1.252300898803595e+001
0	 8.666790473703453e-001	 3.666649999985416e+000	 1.241869310810054e+001
0	 8.666790473703456e-001	 3.733319999987733e+000	 1.229019709912082e+001
0	 8.666790473703456e-001	 3.799989999990451e+000	 1.212923768551076e+001
0	 8.666790473703452e-001	 3.866659999993467e+000	 1.192753159168418e+001
0	 8.666790473703453e-001	 3.933329999996683e+000	 1.167679554205477e+001
0	 8.666790473703455e-001	 4.000000000000001e+000	 1.136874626103603e+001
0	 9.333394000923324e-001	 3.333299999983334e+000	 1.069259294250853e+001
0	 9.333394000923320e-001	 3.399969999982149e+000	 1.079401067237154e+001
0	 9.333394000923324e-001	 3.466639999981867e+000	 1.090494166298446e+001
0	 9.333394000923322e-001	 3.533309999982383e+000	 1.101537601544978e+001
0	 9.333394000923324e-001	 3.599979999983600e+000	 1.111530383086981e+001
0	 9.333394000923322e-001	 3.666649999985416e+000	 1.119471521034668e+001
0	 9.333394000923323e-001	 3.733319999987733e+000	 1.124360025498240e+001
0	 9.333394000923319e-001	 3.799989999990449e+000	 1.125194906587878e+001
0	 9.333394000923324e-001	 3.866659999993468e+000	 1.120975174413752e+001
0	 9.333394000923323e-001	 3.933329999996683e+000	 1.110699839086014e+001
0	 9.333394000923324e-001	 4.000000000000000e+000	 1.093367910714799e+001
0	 9.999996528288191e-001	 3.333299999983334e+000	 8.938352704121225e+000
0	 9.999996528288189e-001	 3.399969999982150e+000	 9.177539685364245e+000
0	 9.999996528288191e-001	 3.466639999981867e+000	 9.429528224769932e+000
0	 9.999996528288190e-001	 3.533309999982383e+000	 9.682883730047420e+000
0	 9.999996528288191e-001	 3.599979999983600e+000	 9.926171608905603e+000
0	 9.999996528288190e-001	 3.666649999985416e+000	 1.014795726905338e+001
0	 9.999996528288191e-001	 3.733319999987733e+000	 1.033680611819946e+001
0	 9.999996528288192e-001	 3.799989999990450e+000	 1.048128356405240e+001
0	 9.999996528288191e-001	 3.866659999993466e+000	 1.056995501432067e+001
0	 9.999996528288193e-001	 3.933329999996685e+000	 1.059138587671253e+001
0	 9.999996528288191e-001	 4.000000000000000e+000	 1.053414155893620e+001
0	 1.066659822244222e+000	 3.333299999983333e+000	 7.566594190739776e+000
0	 1.066659822244222e+000	 3.399969999982150e+000	 7.896587717306867e+000
0	 1.066659822244222e+000	 3.466639999981866e+000	 8.244670335846436e+000
0	 1.066659822244222e+000	 3.533309999982383e+000	 8.598284692906905e+000
0	 1.066659822244222e+000	 3.599979999983600e+000	 8.944873435036634e+000
0	 1.066659822244222e+000	 3.666649999985416e+000	 9.271879208783945e+000
0	 1.066659822244222e+000	 3.733319999987733e+000	 9.566744660697054e+000
0	 1.066659822244223e+000	 3.799989999990450e+000	 9.816912437324046e+000
0	 1.066659822244222e+000	 3.866659999993466e+000	 1.000982518521295e+001
0	 1.066659822244223e+000	 3.933329999996684e+000	 1.013292555091169e+001
0	 1.066659822244223e+000	 4.000000000000000e+000	 1.017365618096817e+001
0	 1.133319925002959e+000	 3.333299999983334e+000	 6.542495247091706e+000
0	 1.133319925002959e+000	 3.399969999982149e+000	 6.923446535899112e+000
0	 1.133319925002959e+000	 3.466639999981866e+000	 7.329044913785936e+000
0	 1.133319925002959e+000	 3.533309999982382e+000	 7.745912200233760e+000
0	 1.133319925002959e+000	 3.599979999983600e+000	 8.160670214724195e+000
0	 1.133319925002959e+000	 3.666649999985416e+000	 8.559940776738747e+000
0	 1.133319925002959e+000	 3.733319999987733e+000	 8.930345705759001e+000
0	 1.133319925002959e+000	 3.799989999990450e+000	 9.258506821266385e+000
0	 1.133319925002959e+000	 3.866659999993466e+000	 9.531045942742397e+000
0	 1.133319925002959e+000	 3.933329999996684e+000	 9.734584889668465e+000
0	 1.133319925002959e+000	 4.000000000000000e+000	 9.855745481526007e+000
0	 1.199979977769445e+000	 3.333299999983334e+000	 5.831233385773951e+000
0	 1.199979977769446e+000	 3.399969999982150e+000	 6.230407607640465e+000
0	 1.199979977769445e+000	 3.466639999981866e+000	 6.661328606354829e+000
0	 1.199979977769445e+000	 3.533309999982383e+000	 7.110099309833716e+000
0	 1.199979977769445e+000	 3.599979999983599e+000	 7.562822645993866e+000
0	 1.199979977769445e+000	 3.666649999985416e+000	 8.005601542752130e+000
0	 1.199979977769445e+000	 3.733319999987733e+000	 8.424538928025299e+000
0	 1.199979977769445e+000	 3.799989999990450e+000	 8.805737729730268e+000
0	 1.199979977769445e+000	 3.866659999993466e+000	 9.135300875783939e+000
0	 1.199979977769445e+000	 3.933329999996684e+000	 9.399331294103277e+000
0	 1.199979977769445e+000	 4.000000000000000e+000	 9.583931912605246e+000
0	 1.266639997208098e+000	 3.333299999983334e+000	 5.397985787248183e+000
0	 1.266639997208098e+000	 3.399969999982151e+000	 5.789762097826200e+000
0	 1.266639997208098e+000	 3.466639999981867e+000	 6.220197791510201e+000
0	 1.266639997208098e+000	 3.533309999982383e+000	 6.675178841109311e+000
0	 1.266639997208098e+000	 3.599979999983599e+000	 7.140591219432763e+000
0	 1.266639997208098e+000	 3.666649999985415e+000	 7.602320899289853e+000
0	 1.266639997208098e+000	 3.733319999987732e+000	 8.046253853490054e+000
0	 1.266639997208098e+000	 3.799989999990451e+000	 8.458276054842889e+000
0	 1.266639997208098e+000	 3.866659999993466e+000	 8.824273476157956e+000
0	 1.266639997208098e+000	 3.933329999996684e+000	 9.130132090245082e+000
0	 1.266639997208098e+000	 4.000000000000001e+000	 9.361737869914075e+000
0	 1.333299999983334e+000	 3.333299999983334e+000	 5.207929299837710e+000
0	 1.333299999983334e+000	 3.399969999982149e+000	 5.573800870544198e+000
0	 1.333299999983334e+000	 3.466639999981867e+000	 5.984328577397116e+000
0	 1.333299999983334e+000	 3.533309999982383e+000	 6.425483375057692e+000
0	 1.333299999983334e+000	 3.599979999983599e+000	 6.883236218187253e+000
0	 1.333299999983334e+000	 3.666649999985416e+000	 7.343558061447411e+000
0	 1.333299999983334e+000	 3.733319999987733e+000	 7.792419859499844e+000
0	 1.333299999983334e+000	 3.799989999990450e+000	 8.215792567006453e+000
0	 1.333299999983334e+000	 3.866659999993467e+000	 8.599647138629269e+000
0	 1.333299999983334e+000	 3.933329999996683e+000	 8.929954529030544e+000
0	 1.333299999983334e+000	 4.000000000000000e+000	 9.192685692872628e+000
0	 6.666972226472175e-001	 4.000000000000001e+000	 1.285189886682925e+001
0	 6.666972226472178e-001	 4.066670000003317e+000	 1.207764110250752e+001
0	 6.666972226472177e-001	 4.133340000006535e+000	 1.139407403110980e+001
0	 6.666972226472177e-001	 4.200010000009550e+000	 1.080044679067595e+001
0	 6.666972226472177e-001	 4.266680000012267e+000	 1.029600851924651e+001
0	 6.666972226472175e-001	 4.333350000014583e+000	 9.880008354862769e+000
0	 6.666972226472175e-001	 4.400020000016400e+000	 9.551695435566744e+000
0	 6.666972226472175e-001	 4.466690000017618e+000	 9.310318899401198e+000
0	 6.666972226472177e-001	 4.533360000018134e+000	 9.155127884409636e+000
0	 6.666972226472177e-001	 4.600030000017851e+000	 9.085371528636271e+000
0	 6.666972226472178e-001	 4.666700000016666e+000	 9.100298970126078e+000
0	 7.333579753122048e-001	 4.000000000000002e+000	 1.233137884615149e+001
0	 7.333579753122047e-001	 4.066670000003317e+000	 1.171883750090486e+001
0	 7.333579753122047e-001	 4.133340000006533e+000	 1.116864033960274e+001
0	 7.333579753122049e-001	 4.200010000009551e+000	 1.068222671535823e+001
0	 7.333579753122048e-001	 4.266680000012269e+000	 1.026103598128511e+001
0	 7.333579753122047e-001	 4.333350000014584e+000	 9.906507490497781e+000
0	 7.333579753122049e-001	 4.400020000016401e+000	 9.620080596111308e+000
0	 7.333579753122048e-001	 4.466690000017619e+000	 9.403194651241444e+000
0	 7.333579753122048e-001	 4.533360000018134e+000	 9.257289009004571e+000
0	 7.333579753122048e-001	 4.600030000017851e+000	 9.183803022517735e+000
0	 7.333579753122047e-001	 4.666700000016665e+000	 9.184176044898631e+000
0	 8.000185779984418e-001	 4.000000000000001e+000	 1.183582039974865e+001
0	 8.000185779984417e-001	 4.066670000003316e+000	 1.137008551363411e+001
0	 8.000185779984416e-001	 4.133340000006532e+000	 1.094146844761882e+001
0	 8.000185779984419e-001	 4.200010000009551e+000	 1.055334545588434e+001
0	 8.000185779984417e-001	 4.266680000012266e+000	 1.020909279261283e+001
0	 8.000185779984419e-001	 4.333350000014585e+000	 9.912086711986982e+000
0	 8.000185779984417e-001	 4.400020000016400e+000	 9.665703468190143e+000
0	 8.000185779984417e-001	 4.466690000017619e+000	 9.473319315406220e+000
0	 8.000185779984417e-001	 4.533360000018134e+000	 9.338310507819696e+000
0	 8.000185779984419e-001	 4.600030000017849e+000	 9.264053299615647e+000
0	 8.000185779984419e-001	 4.666700000016666e+000	 9.253923944979761e+000
0	 8.666790473703455e-001	 4.000000000000001e+000	 1.136874626103603e+001
0	 8.666790473703453e-001	 4.066670000003318e+000	 1.103506306853716e+001
0	 8.666790473703454e-001	 4.133340000006533e+000	 1.071632069364333e+001
0	 8.666790473703454e-001	 4.200010000009550e+000	 1.041757897453227e+001
0	 8.666790473703454e-001	 4.266680000012267e+000	 1.014389774938229e+001
0	 8.666790473703457e-001	 4.333350000014586e+000	 9.900336856372196e+000
0	 8.666790473703452e-001	 4.400020000016400e+000	 9.691956133681320e+000
0	 8.666790473703454e-001	 4.466690000017617e+000	 9.523815419489528e+000
0	 8.666790473703456e-001	 4.533360000018134e+000	 9.400974551977214e+000
0	 8.666790473703452e-001	 4.600030000017849e+000	 9.328493369325296e+000
0	 8.666790473703454e-001	 4.666700000016665e+000	 9.311431709715217e+000
0	 9.333394000923324e-001	 4.000000000000000e+000	 1.093367910714799e+001
0	 9.333394000923323e-001	 4.066670000003316e+000	 1.071744805250445e+001
0	 9.333394000923321e-001	 4.133340000006535e+000	 1.049695938730795e+001
0	 9.333394000923322e-001	 4.200010000009551e+000	 1.027870321397274e+001
0	 9.333394000923320e-001	 4.266680000012266e+000	 1.006916963491352e+001
0	 9.333394000923321e-001	 4.333350000014583e+000	 9.874848752545493e+000
0	 9.333394000923320e-001	 4.400020000016400e+000	 9.702230669284297e+000
0	 9.333394000923323e-001	 4.466690000017618e+000	 9.557805487546059e+000
0	 9.333394000923325e-001	 4.533360000018133e+000	 9.448063309747388e+000
0	 9.333394000923320e-001	 4.600030000017850e+000	 9.379494238305352e+000
0	 9.333394000923324e-001	 4.666700000016667e+000	 9.358588375637485e+000
0	 9.999996528288191e-001	 4.000000000000000e+000	 1.053414155893620e+001
0	 9.999996528288191e-001	 4.066670000003318e+000	 1.042091831147355e+001
0	 9.999996528288190e-001	 4.133340000006534e+000	 1.028714680938982e+001
0	 9.999996528288192e-001	 4.200010000009551e+000	 1.014049409726848e+001
0	 9.999996528288191e-001	 4.266680000012268e+000	 9.988627219693411e+000
0	 9.999996528288192e-001	 4.333350000014583e+000	 9.839213221248929e+000
0	 9.999996528288192e-001	 4.400020000016402e+000	 9.699919146519763e+000
0	 9.999996528288190e-001	 4.466690000017617e+000	 9.578412040091056e+000
0	 9.999996528288191e-001	 4.533360000018134e+000	 9.482358946548406e+000
0	 9.999996528288189e-001	 4.600030000017849e+000	 9.419426910477800e+000
0	 9.999996528288191e-001	 4.666700000016665e+000	 9.397282976465689e+000
0	 1.066659822244223e+000	 4.000000000000000e+000	 1.017365618096817e+001
0	 1.066659822244223e+000	 4.066670000003318e+000	 1.014915165042819e+001
0	 1.066659822244223e+000	 4.133340000006535e+000	 1.009064521181078e+001
0	 1.066659822244222e+000	 4.200010000009551e+000	 1.000672752787379e+001
0	 1.066659822244222e+000	 4.266680000012267e+000	 9.905989261375426e+000
0	 1.066659822244223e+000	 4.333350000014584e+000	 9.797021075074317e+000
0	 1.066659822244222e+000	 4.400020000016401e+000	 9.688413631729429e+000
0	 1.066659822244223e+000	 4.466690000017619e+000	 9.588757594100160e+000
0	 1.066659822244223e+000	 4.533360000018134e+000	 9.506643624946250e+000
0	 1.066659822244223e+000	 4.600030000017851e+000	 9.450662387027851e+000
0	 1.066659822244223e+000	 4.666700000016665e+000	 9.429404543105486e+000
0	 1.133319925002959e+000	 4.000000000000000e+000	 9.855745481526007e+000
0	 1.133319925002959e+000	 4.066670000003318e+000	 9.905825833397271e+000
0	 1.133319925002959e+000	 4.133340000006535e+000	 9.911216817636651e+000
0	 1.133319925002959e+000	 4.200010000009551e+000	 9.881179389633905e+000
0	 1.133319925002959e+000	 4.266680000012268e+000	 9.824974504779151e+000
0	 1.133319925002959e+000	 4.333350000014584e+000	 9.751863118462859e+000
0	 1.133319925002959e+000	 4.400020000016400e+000	 9.671106186075841e+000
0	 1.133319925002959e+000	 4.466690000017617e+000	 9.591964663009255e+000
0	 1.133319925002959e+000	 4.533360000018133e+000	 9.523699504654623e+000
0	 1.133319925002959e+000	 4.600030000017849e+000	 9.475571666403797e+000
0	 1.133319925002959e+000	 4.666700000016667e+000	 9.456842103648970e+000
0	 1.199979977769445e+000	 4.000000000000000e+000	 9.583931912605248e+000
0	 1.199979977769445e+000	 4.066670000003318e+000	 9.694618583454004e+000
0	 1.199979977769445e+000	 4.133340000006533e+000	 9.752623821076611e+000
0	 1.199979977769445e+000	 4.200010000009551e+000	 9.767625546784656e+000
0	 1.199979977769445e+000	 4.266680000012268e+000	 9.749301681890071e+000
0	 1.199979977769445e+000	 4.333350000014583e+000	 9.707330147705076e+000
0	 1.199979977769445e+000	 4.400020000016402e+000	 9.651388865542245e+000
0	 1.199979977769446e+000	 4.466690000017618e+000	 9.591155756714437e+000
0	 1.199979977769445e+000	 4.533360000018133e+000	 9.536308742534862e+000
0	 1.199979977769445e+000	 4.600030000017851e+000	 9.496525744316990e+000
0	 1.199979977769445e+000	 4.666700000016665e+000	 9.481484683374667e+000
0	 1.266639997208098e+000	 4.000000000000001e+000	 9.361737869914077e+000
0	 1.266639997208098e+000	 4.066670000003318e+000	 9.519207582715287e+000
0	 1.266639997208098e+000	 4.133340000006534e+000	 9.618628387482739e+000
0	 1.266639997208098e+000	 4.200010000009551e+000	 9.669841843952069e+000
0	 1.266639997208098e+000	 4.266680000012267e+000	 9.682689511859257e+000
0	 1.266639997208098e+000	 4.333350000014585e+000	 9.667012950940546e+000
0	 1.266639997208098e+000	 4.400020000016401e+000	 9.632653720932458e+000
0	 1.266639997208098e+000	 4.466690000017618e+000	 9.589453381571845e+000
0	 1.266639997208098e+000	 4.533360000018133e+000	 9.547253492595804e+000
0	 1.266639997208098e+000	 4.600030000017850e+000	 9.515895613741748e+000
0	 1.266639997208098e+000	 4.666700000016666e+000	 9.505221304747369e+000
0	 1.333299999983334e+000	 4.000000000000000e+000	 9.192685692872630e+000
0	 1.333299999983334e+000	 4.066670000003317e+000	 9.383270472341197e+000
0	 1.333299999983334e+000	 4.133340000006535e+000	 9.512992653349592e+000
0	 1.333299999983334e+000	 4.200010000009550e+000	 9.591604106152088e+000
0	 1.333299999983334e+000	 4.266680000012268e+000	 9.628856701003199e+000
0	 1.333299999983334e+000	 4.333350000014584e+000	 9.634502308157746e+000
0	 1.333299999983334e+000	 4.400020000016402e+000	 9.618292797870756e+000
0	 1.333299999983334e+000	 4.466690000017619e+000	 9.589980040397569e+000
0	 1.333299999983334e+000	 4.533360000018134e+000	 9.559315905993795e+000
0	 1.333299999983334e+000	 4.600030000017851e+000	 9.536052264915282e+000
0	 1.333299999983334e+000	 4.666700000016667e+000	 9.529940987418168e+000
0	 6.666972226472178e-001	 4.666700000016666e+000	 9.100298970126080e+000
0	 6.666972226472177e-001	 4.733360000014533e+000	 9.155463310095529e+000
0	 6.666972226472177e-001	 4.800020000011600e+000	 9.206817275727904e+000
0	 6.666972226472178e-001	 4.866680000008067e+000	 9.254183786728106e+000
0	 6.666972226472175e-001	 4.933340000004133e+000	 9.297385762801170e+000
0	 6.666972226472174e-001	 4.999999999999999e+000	 9.336246123652193e+000
0	 6.666972226472178e-001	 5.066659999995868e+000	 9.370587788986434e+000
0	 6.666972226472177e-001	 5.133319999991935e+000	 9.400233678509212e+000
0	 6.666972226472178e-001	 5.199979999988400e+000	 9.425006711925958e+000
0	 6.666972226472177e-001	 5.266639999985468e+000	 9.444729808942229e+000
0	 6.666972226472175e-001	 5.333299999983334e+000	 9.459225889263678e+000
0	 7.333579753122047e-001	 4.666700000016665e+000	 9.184176044898633e+000
0	 7.333579753122049e-001	 4.733360000014534e+000	 9.221334535933444e+000
0	 7.333579753122046e-001	 4.800020000011598e+000	 9.257106045629064e+000
0	 7.333579753122049e-001	 4.866680000008067e+000	 9.291264561244871e+000
0	 7.333579753122049e-001	 4.933340000004135e+000	 9.323584070040297e+000
0	 7.333579753122050e-001	 5.000000000000000e+000	 9.353838559274829e+000
0	 7.333579753122047e-001	 5.066659999995867e+000	 9.381802016208033e+000
0	 7.333579753122048e-001	 5.133319999991935e+000	 9.407248428099511e+000
0	 7.333579753122048e-001	 5.199979999988400e+000	 9.429951782208944e+000
0	 7.333579753122052e-001	 5.266639999985467e+000	 9.449686065796076e+000
0	 7.333579753122048e-001	 5.333299999983334e+000	 9.466225266120700e+000
0	 8.000185779984419e-001	 4.666700000016666e+000	 9.253923944979761e+000
0	 8.000185779984421e-001	 4.733360000014534e+000	 9.277271388996736e+000
0	 8.000185779984419e-001	 4.800020000011602e+000	 9.301031365344690e+000
0	 8.000185779984418e-001	 4.866680000008066e+000	 9.324949934623092e+000
0	 8.000185779984419e-001	 4.933340000004133e+000	 9.348773157431440e+000
0	 8.000185779984418e-001	 5.000000000000000e+000	 9.372247094369248e+000
0	 8.000185779984419e-001	 5.066659999995867e+000	 9.395117806036064e+000
0	 8.000185779984420e-001	 5.133319999991934e+000	 9.417131353031483e+000
0	 8.000185779984418e-001	 5.199979999988401e+000	 9.438033795955080e+000
0	 8.000185779984418e-001	 5.266639999985467e+000	 9.457571195406509e+000
0	 8.000185779984419e-001	 5.333299999983336e+000	 9.475489611985418e+000
0	 8.666790473703454e-001	 4.666700000016665e+000	 9.311431709715217e+000
0	 8.666790473703455e-001	 4.733360000014535e+000	 9.324676073040022e+000
0	 8.666790473703452e-001	 4.800020000011600e+000	 9.339569527220933e+000
0	 8.666790473703454e-001	 4.866680000008067e+000	 9.355851212138031e+000
0	 8.666790473703455e-001	 4.933340000004133e+000	 9.373260267671370e+000
0	 8.666790473703455e-001	 5.000000000000000e+000	 9.391535833701001e+000
0	 8.666790473703454e-001	 5.066659999995865e+000	 9.410417050106993e+000
0	 8.666790473703455e-001	 5.133319999991934e+000	 9.429643056769425e+000
0	 8.666790473703455e-001	 5.199979999988401e+000	 9.448952993568348e+000
0	 8.666790473703455e-001	 5.266639999985467e+000	 9.468086000383833e+000
0	 8.666790473703454e-001	 5.333299999983334e+000	 9.486781217095961e+000
0	 9.333394000923324e-001	 4.666700000016667e+000	 9.358588375637487e+000
0	 9.333394000923324e-001	 4.733360000014534e+000	 9.364950789047249e+000
0	 9.333394000923323e-001	 4.800020000011600e+000	 9.373696821032256e+000
0	 9.333394000923324e-001	 4.866680000008067e+000	 9.384579696817022e+000
0	 9.333394000923324e-001	 4.933340000004133e+000	 9.397352641625995e+000
0	 9.333394000923323e-001	 5.000000000000000e+000	 9.411768880683663e+000
0	 9.333394000923324e-001	 5.066659999995867e+000	 9.427581639214456e+000
0	 9.333394000923325e-001	 5.133319999991934e+000	 9.444544142442807e+000
0	 9.333394000923323e-001	 5.199979999988401e+000	 9.462409615593149e+000
0	 9.333394000923325e-001	 5.266639999985470e+000	 9.480931283889850e+000
0	 9.333394000923324e-001	 5.333299999983335e+000	 9.499862372557301e+000
0	 9.999996528288191e-001	 4.666700000016665e+000	 9.397282976465689e+000
0	 9.999996528288191e-001	 4.733360000014534e+000	 9.399497735231636e+000
0	 9.999996528288190e-001	 4.800020000011599e+000	 9.404389533981323e+000
0	 9.999996528288191e-001	 4.866680000008067e+000	 9.411746689439344e+000
0	 9.999996528288193e-001	 4.933340000004134e+000	 9.421357518330311e+000
0	 9.999996528288190e-001	 4.999999999999999e+000	 9.433010337378764e+000
0	 9.999996528288192e-001	 5.066659999995866e+000	 9.446493463309265e+000
0	 9.999996528288191e-001	 5.133319999991935e+000	 9.461595212846286e+000
0	 9.999996528288192e-001	 5.199979999988400e+000	 9.478103902714326e+000
0	 9.999996528288192e-001	 5.266639999985466e+000	 9.495807849637830e+000
0	 9.999996528288190e-001	 5.333299999983333e+000	 9.514495370341184e+000
0	 1.066659822244223e+000	 4.666700000016665e+000	 9.429404543105488e+000
0	 1.066659822244223e+000	 4.733360000014534e+000	 9.429719107035572e+000
0	 1.066659822244223e+000	 4.800020000011601e+000	 9.432623950698904e+000
0	 1.066659822244222e+000	 4.866680000008065e+000	 9.437963488536230e+000
0	 1.066659822244223e+000	 4.933340000004134e+000	 9.445582134988294e+000
0	 1.066659822244223e+000	 5.000000000000001e+000	 9.455324304495777e+000
0	 1.066659822244223e+000	 5.066659999995867e+000	 9.467034411499338e+000
0	 1.066659822244223e+000	 5.133319999991935e+000	 9.480556870439607e+000
0	 1.066659822244222e+000	 5.199979999988401e+000	 9.495736095757140e+000
0	 1.066659822244223e+000	 5.266639999985467e+000	 9.512416501892508e+000
0	 1.066659822244222e+000	 5.333299999983333e+000	 9.530442503286219e+000
0	 1.133319925002959e+000	 4.666700000016667e+000	 9.456842103648970e+000
0	 1.133319925002959e+000	 4.733360000014533e+000	 9.457017097130523e+000
0	 1.133319925002959e+000	 4.800020000011601e+000	 9.459376353243863e+000
0	 1.133319925002959e+000	 4.866680000008065e+000	 9.463841390390755e+000
0	 1.133319925002959e+000	 4.933340000004135e+000	 9.470333726972916e+000
0	 1.133319925002959e+000	 5.000000000000000e+000	 9.478774881392026e+000
0	 1.133319925002959e+000	 5.066659999995867e+000	 9.489086372049730e+000
0	 1.133319925002959e+000	 5.133319999991935e+000	 9.501189717347609e+000
0	 1.133319925002959e+000	 5.199979999988400e+000	 9.515006435687242e+000
0	 1.133319925002959e+000	 5.266639999985467e+000	 9.530458045470128e+000
0	 1.133319925002959e+000	 5.333299999983335e+000	 9.547466065097755e+000
0	 1.199979977769445e+000	 4.666700000016665e+000	 9.481484683374669e+000
0	 1.199979977769445e+000	 4.733360000014533e+000	 9.482793895416977e+000
0	 1.199979977769445e+000	 4.800020000011599e+000	 9.485623021103031e+000
0	 1.199979977769446e+000	 4.866680000008067e+000	 9.489991689037758e+000
0	 1.199979977769445e+000	 4.933340000004133e+000	 9.495919527826029e+000
0	 1.199979977769445e+000	 4.999999999999999e+000	 9.503426166072675e+000
0	 1.199979977769445e+000	 5.066659999995866e+000	 9.512531232382493e+000
0	 1.199979977769445e+000	 5.133319999991933e+000	 9.523254355360239e+000
0	 1.199979977769445e+000	 5.199979999988399e+000	 9.535615163610625e+000
0	 1.199979977769445e+000	 5.266639999985467e+000	 9.549633285738320e+000
0	 1.199979977769445e+000	 5.333299999983335e+000	 9.565328350347961e+000
0	 1.266639997208098e+000	 4.666700000016666e+000	 9.505221304747369e+000
0	 1.266639997208098e+000	 4.733360000014533e+000	 9.508451689024406e+000
0	 1.266639997208098e+000	 4.800020000011601e+000	 9.512340231191217e+000
0	 1.266639997208098e+000	 4.866680000008067e+000	 9.517025676263872e+000
0	 1.266639997208098e+000	 4.933340000004135e+000	 9.522646769258365e+000
0	 1.266639997208098e+000	 4.999999999999999e+000	 9.529342255190679e+000
0	 1.266639997208098e+000	 5.066659999995866e+000	 9.537250879076755e+000
0	 1.266639997208098e+000	 5.133319999991934e+000	 9.546511385932458e+000
0	 1.266639997208098e+000	 5.199979999988400e+000	 9.557262520773667e+000
0	 1.266639997208098e+000	 5.266639999985467e+000	 9.569643028616202e+000
0	 1.266639997208098e+000	 5.333299999983331e+000	 9.583791654475805e+000
0	 1.333299999983334e+000	 4.666700000016667e+000	 9.529940987418170e+000
0	 1.333299999983334e+000	 4.733360000014533e+000	 9.535392662311185e+000
0	 1.333299999983334e+000	 4.800020000011600e+000	 9.540504257851119e+000
0	 1.333299999983334e+000	 4.866680000008067e+000	 9.545554641607419e+000
0	 1.333299999983334e+000	 4.933340000004134e+000	 9.550822681149509e+000
0	 1.333299999983334e+000	 5.000000000000000e+000	 9.556587244046803e+000
0	 1.333299999983334e+000	 5.066659999995867e+000	 9.563127197868633e+000
0	 1.333299999983334e+000	 5.133319999991934e+000	 9.570721410184307e+000
0	 1.333299999983334e+000	 5.199979999988400e+000	 9.579648748563121e+000
0	 1.333299999983334e+000	 5.266639999985467e+000	 9.590188080574272e+000
0	 1.333299999983334e+000	 5.333299999983335e+000	 9.602618273787002e+000
0	 6.666972226472175e-001	 5.333299999983334e+000	 9.459225889263674e+000
0	 6.666972226472177e-001	 5.399969999982150e+000	 9.471299067995643e+000
0	 6.666972226472175e-001	 5.466639999981865e+000	 9.483852066433222e+000
0	 6.666972226472177e-001	 5.533309999982382e+000	 9.496861034694170e+000
0	 6.666972226472177e-001	 5.599979999983599e+000	 9.510302122896244e+000
0	 6.666972226472174e-001	 5.666649999985414e+000	 9.524151481157215e+000
0	 6.666972226472177e-001	 5.733319999987732e+000	 9.538385259594858e+000
0	 6.666972226472177e-001	 5.799989999990449e+000	 9.552979608326913e+000
0	 6.666972226472178e-001	 5.866659999993467e+000	 9.567910677471163e+000
0	 6.666972226472177e-001	 5.933329999996684e+000	 9.583154617145366e+000
0	 6.666972226472177e-001	 6.000000000000000e+000	 9.598687577467301e+000
0	 7.333579753122048e-001	 5.333299999983334e+000	 9.466225266120702e+000
0	 7.333579753122048e-001	 5.399969999982151e+000	 9.480978471386244e+000
0	 7.333579753122047e-001	 5.466639999981865e+000	 9.495523436113894e+000
0	 7.333579753122048e-001	 5.533309999982381e+000	 9.509893837553742e+000
0	 7.333579753122049e-001	 5.599979999983600e+000	 9.524123352955877e+000
0	 7.333579753122046e-001	 5.666649999985414e+000	 9.538245659570373e+000
0	 7.333579753122048e-001	 5.733319999987733e+000	 9.552294434647317e+000
0	 7.333579753122049e-001	 5.799989999990450e+000	 9.566303355436784e+000
0	 7.333579753122047e-001	 5.866659999993466e+000	 9.580306099188860e+000
0	 7.333579753122047e-001	 5.933329999996683e+000	 9.594336343153596e+000
0	 7.333579753122048e-001	 6.000000000000002e+000	 9.608427764581085e+000
0	 8.000185779984419e-001	 5.333299999983336e+000	 9.475489611985417e+000
0	 8.000185779984421e-001	 5.399969999982150e+000	 9.492123672987640e+000
0	 8.000185779984415e-001	 5.466639999981865e+000	 9.508024919901827e+000
0	 8.000185779984418e-001	 5.533309999982385e+000	 9.523272446308468e+000
0	 8.000185779984419e-001	 5.599979999983599e+000	 9.537945345788012e+000
0	 8.000185779984419e-001	 5.666649999985417e+000	 9.552122711920916e+000
0	 8.000185779984418e-001	 5.733319999987733e+000	 9.565883638287664e+000
0	 8.000185779984419e-001	 5.799989999990450e+000	 9.579307218468699e+000
0	 8.000185779984416e-001	 5.866659999993466e+000	 9.592472546044478e+000
0	 8.000185779984419e-001	 5.933329999996683e+000	 9.605458714595432e+000
0	 8.000185779984420e-001	 6.000000000000001e+000	 9.618344817702022e+000
0	 8.666790473703454e-001	 5.333299999983334e+000	 9.486781217095961e+000
0	 8.666790473703452e-001	 5.399969999982148e+000	 9.504582614729168e+000
0	 8.666790473703453e-001	 5.466639999981866e+000	 9.521277486357402e+000
0	 8.666790473703455e-001	 5.533309999982383e+000	 9.536978230978329e+000
0	 8.666790473703454e-001	 5.599979999983598e+000	 9.551797247589597e+000
0	 8.666790473703456e-001	 5.666649999985415e+000	 9.565846935188842e+000
0	 8.666790473703454e-001	 5.733319999987732e+000	 9.579239692773733e+000
0	 8.666790473703453e-001	 5.799989999990449e+000	 9.592087919341880e+000
0	 8.666790473703452e-001	 5.866659999993465e+000	 9.604504013890914e+000
0	 8.666790473703455e-001	 5.933329999996685e+000	 9.616600375418470e+000
0	 8.666790473703456e-001	 6.000000000000002e+000	 9.628489402922169e+000
0	 9.333394000923324e-001	 5.333299999983335e+000	 9.499862372557299e+000
0	 9.333394000923320e-001	 5.399969999982149e+000	 9.518203239603338e+000
0	 9.333394000923324e-001	 5.466639999981867e+000	 9.535202105191443e+000
0	 9.333394000923321e-001	 5.533309999982382e+000	 9.550992562730141e+000
0	 9.333394000923323e-001	 5.599979999983601e+000	 9.565708205627981e+000
0	 9.333394000923322e-001	 5.666649999985417e+000	 9.579482627293492e+000
0	 9.333394000923321e-001	 5.733319999987733e+000	 9.592449421135200e+000
0	 9.333394000923323e-001	 5.799989999990450e+000	 9.604742180561615e+000
0	 9.333394000923324e-001	 5.866659999993468e+000	 9.616494498981272e+000
0	 9.333394000923324e-001	 5.933329999996683e+000	 9.627839969802665e+000
0	 9.333394000923322e-001	 5.999999999999998e+000	 9.638912186434283e+000
0	 9.999996528288190e-001	 5.333299999983333e+000	 9.514495370341187e+000
0	 9.999996528288190e-001	 5.399969999982149e+000	 9.532833491665867e+000
0	 9.999996528288192e-001	 5.466639999981866e+000	 9.549719747265240e+000
0	 9.999996528288191e-001	 5.533309999982384e+000	 9.565296813877517e+000
0	 9.999996528288190e-001	 5.599979999983600e+000	 9.579707368240870e+000
0	 9.999996528288191e-001	 5.666649999985416e+000	 9.593094087093499e+000
0	 9.999996528288192e-001	 5.733319999987734e+000	 9.605599647173575e+000
0	 9.999996528288192e-001	 5.799989999990449e+000	 9.617366725219281e+000
0	 9.999996528288192e-001	 5.866659999993467e+000	 9.628537997968781e+000
0	 9.999996528288192e-001	 5.933329999996683e+000	 9.639256142160237e+000
0	 9.999996528288192e-001	 6.000000000000000e+000	 9.649663834531800e+000
0	 1.066659822244222e+000	 5.333299999983333e+000	 9.530442503286217e+000
0	 1.066659822244222e+000	 5.399969999982149e+000	 9.548321316035676e+000
0	 1.066659822244222e+000	 5.466639999981865e+000	 9.564751384590615e+000
0	 1.066659822244223e+000	 5.533309999982383e+000	 9.579872357880900e+000
0	 1.066659822244223e+000	 5.599979999983600e+000	 9.593823884836361e+000
0	 1.066659822244222e+000	 5.666649999985417e+000	 9.606745614386851e+000
0	 1.066659822244223e+000	 5.733319999987733e+000	 9.618777195462217e+000
0	 1.066659822244223e+000	 5.799989999990450e+000	 9.630058276992273e+000
0	 1.066659822244222e+000	 5.866659999993467e+000	 9.640728507906859e+000
0	 1.066659822244223e+000	 5.933329999996684e+000	 9.650927537135775e+000
0	 1.066659822244223e+000	 6.000000000000000e+000	 9.660795013608841e+000
0	 1.133319925002959e+000	 5.333299999983335e+000	 9.547466065097757e+000
0	 1.133319925002959e+000	 5.399969999982148e+000	 9.564514658894877e+000
0	 1.133319925002959e+000	 5.466639999981866e+000	 9.580217990329839e+000
0	 1.133319925002959e+000	 5.533309999982384e+000	 9.594700569347573e+000
0	 1.133319925002959e+000	 5.599979999983599e+000	 9.608086905892950e+000
0	 1.133319925002959e+000	 5.666649999985415e+000	 9.620501509910904e+000
0	 1.133319925002959e+000	 5.733319999987733e+000	 9.632068891346309e+000
0	 1.133319925002959e+000	 5.799989999990451e+000	 9.642913560144057e+000
0	 1.133319925002959e+000	 5.866659999993467e+000	 9.653160026249035e+000
0	 1.133319925002959e+000	 5.933329999996683e+000	 9.662932799606114e+000
0	 1.133319925002959e+000	 6.000000000000000e+000	 9.672356390160157e+000
0	 1.199979977769445e+000	 5.333299999983335e+000	 9.565328350347960e+000
0	 1.199979977769445e+000	 5.399969999982148e+000	 9.581261467488778e+000
0	 1.199979977769445e+000	 5.466639999981866e+000	 9.596040538795684e+000
0	 1.199979977769445e+000	 5.533309999982383e+000	 9.609762824031622e+000
0	 1.199979977769445e+000	 5.599979999983600e+000	 9.622525582959518e+000
0	 1.199979977769445e+000	 5.666649999985417e+000	 9.634426075342288e+000
0	 1.199979977769445e+000	 5.733319999987733e+000	 9.645561560942859e+000
0	 1.199979977769445e+000	 5.799989999990449e+000	 9.656029299524125e+000
0	 1.199979977769445e+000	 5.866659999993467e+000	 9.665926550849006e+000
0	 1.199979977769445e+000	 5.933329999996683e+000	 9.675350574680390e+000
0	 1.199979977769445e+000	 6.000000000000000e+000	 9.684398630781177e+000
0	 1.266639997208098e+000	 5.333299999983331e+000	 9.583791654475803e+000
0	 1.266639997208098e+000	 5.399969999982151e+000	 9.598409690125880e+000
0	 1.266639997208098e+000	 5.466639999981866e+000	 9.612140005451401e+000
0	 1.266639997208098e+000	 5.533309999982383e+000	 9.625040498834000e+000
0	 1.266639997208098e+000	 5.599979999983598e+000	 9.637169068655327e+000
0	 1.266639997208098e+000	 5.666649999985416e+000	 9.648583613297014e+000
0	 1.266639997208098e+000	 5.733319999987733e+000	 9.659342031140712e+000
0	 1.266639997208098e+000	 5.799989999990449e+000	 9.669502220568042e+000
0	 1.266639997208098e+000	 5.866659999993467e+000	 9.679122079960601e+000
0	 1.266639997208098e+000	 5.933329999996684e+000	 9.688259507700048e+000
0	 1.266639997208098e+000	 5.999999999999999e+000	 9.696972402167962e+000
0	 1.333299999983334e+000	 5.333299999983335e+000	 9.602618273786998e+000
0	 1.333299999983334e+000	 5.399969999982149e+000	 9.615807276177865e+000
0	 1.333299999983334e+000	 5.466639999981867e+000	 9.628437366910681e+000
0	 1.333299999983334e+000	 5.533309999982383e+000	 9.640514971802420e+000
0	 1.333299999983334e+000	 5.599979999983599e+000	 9.652046516669996e+000
0	 1.333299999983334e+000	 5.666649999985414e+000	 9.663038427330388e+000
0	 1.333299999983334e+000	 5.733319999987733e+000	 9.673497129600531e+000
0	 1.333299999983334e+000	 5.799989999990448e+000	 9.683429049297345e+000
0	 1.333299999983334e+000	 5.866659999993467e+000	 9.692840612237788e+000
0	 1.333299999983334e+000	 5.933329999996684e+000	 9.701738244238769e+000
0	 1.333299999983334e+000	 6.000000000000000e+000	 9.710128371117200e+000
0	 6.666972226472177e-001	 6.000000000000000e+000	 9.598687577467301e+000
0	 6.666972226472178e-001	 6.066670000003318e+000	 9.614076220885961e+000
0	 6.666972226472178e-001	 6.133340000006534e+000	 9.628896539372036e+000
0	 6.666972226472177e-001	 6.200010000009551e+000	 9.643138677325750e+000
0	 6.666972226472178e-001	 6.266680000012268e+000	 9.656792779147340e+000
0	 6.666972226472175e-001	 6.333350000014583e+000	 9.669848989237044e+000
0	 6.666972226472175e-001	 6.400020000016400e+000	 9.682297451995080e+000
0	 6.666972226472177e-001	 6.466690000017618e+000	 9.694128311821661e+000
0	 6.666972226472174e-001	 6.533360000018134e+000	 9.705331713117012e+000
0	 6.666972226472178e-001	 6.600030000017851e+000	 9.715897800281308e+000
0	 6.666972226472178e-001	 6.666700000016667e+000	 9.725816717714768e+000
0	 7.333579753122048e-001	 6.000000000000002e+000	 9.608427764581085e+000
0	 7.333579753122047e-001	 6.066670000003317e+000	 9.622420483449886e+000
0	 7.333579753122047e-001	 6.133340000006530e+000	 9.636109728894001e+000
0	 7.333579753122049e-001	 6.200010000009551e+000	 9.649461841896663e+000
0	 7.333579753122048e-001	 6.266680000012270e+000	 9.662443163441061e+000
0	 7.333579753122047e-001	 6.333350000014585e+000	 9.675020034510419e+000
0	 7.333579753122048e-001	 6.400020000016402e+000	 9.687158796087953e+000
0	 7.333579753122049e-001	 6.466690000017619e+000	 9.698825789156834e+000
0	 7.333579753122047e-001	 6.533360000018132e+000	 9.709987354700271e+000
0	 7.333579753122048e-001	 6.600030000017850e+000	 9.720609833701440e+000
0	 7.333579753122049e-001	 6.666700000016668e+000	 9.730659567143530e+000
0	 8.000185779984420e-001	 6.000000000000001e+000	 9.618344817702022e+000
0	 8.000185779984419e-001	 6.066670000003318e+000	 9.631175975793809e+000
0	 8.000185779984416e-001	 6.133340000006532e+000	 9.643909822853770e+000
0	 8.000185779984418e-001	 6.200010000009551e+000	 9.656494222792528e+000
0	 8.000185779984418e-001	 6.266680000012267e+000	 9.668877039520638e+000
0	 8.000185779984419e-001	 6.333350000014585e+000	 9.681006136948714e+000
0	 8.000185779984418e-001	 6.400020000016401e+000	 9.692829378987309e+000
0	 8.000185779984418e-001	 6.466690000017617e+000	 9.704294629547020e+000
0	 8.000185779984418e-001	 6.533360000018135e+000	 9.715349752538385e+000
0	 8.000185779984420e-001	 6.600030000017851e+000	 9.725942611871993e+000
0	 8.000185779984418e-001	 6.666700000016666e+000	 9.736021071458401e+000
0	 8.666790473703456e-001	 6.000000000000002e+000	 9.628489402922169e+000
0	 8.666790473703456e-001	 6.066670000003319e+000	 9.640361436560760e+000
0	 8.666790473703452e-001	 6.133340000006531e+000	 9.652288359314722e+000
0	 8.666790473703453e-001	 6.200010000009550e+000	 9.664204884414220e+000
0	 8.666790473703455e-001	 6.266680000012268e+000	 9.676045725089443e+000
0	 8.666790473703453e-001	 6.333350000014582e+000	 9.687745594570524e+000
0	 8.666790473703453e-001	 6.400020000016399e+000	 9.699239206087635e+000
0	 8.666790473703456e-001	 6.466690000017619e+000	 9.710461272870937e+000
0	 8.666790473703454e-001	 6.533360000018134e+000	 9.721346508150601e+000
0	 8.666790473703452e-001	 6.600030000017849e+000	 9.731829625156735e+000
0	 8.666790473703456e-001	 6.666700000016668e+000	 9.741845337119505e+000
0	 9.333394000923322e-001	 5.999999999999998e+000	 9.638912186434283e+000
0	 9.333394000923323e-001	 6.066670000003318e+000	 9.649995604412890e+000
0	 9.333394000923321e-001	 6.133340000006531e+000	 9.661236876324105e+000
0	 9.333394000923323e-001	 6.200010000009551e+000	 9.672562891149680e+000
0	 9.333394000923323e-001	 6.266680000012268e+000	 9.683900537871422e+000
0	 9.333394000923324e-001	 6.333350000014584e+000	 9.695176705471098e+000
0	 9.333394000923324e-001	 6.400020000016402e+000	 9.706318282930486e+000
0	 9.333394000923322e-001	 6.466690000017617e+000	 9.717252159231336e+000
0	 9.333394000923323e-001	 6.533360000018134e+000	 9.727905223355430e+000
0	 9.333394000923321e-001	 6.600030000017849e+000	 9.738204364284513e+000
0	 9.333394000923324e-001	 6.666700000016668e+000	 9.748076471000367e+000
0	 9.999996528288192e-001	 6.000000000000000e+000	 9.649663834531800e+000
0	 9.999996528288192e-001	 6.066670000003318e+000	 9.660097218031394e+000
0	 9.999996528288191e-001	 6.133340000006532e+000	 9.670746911912982e+000
0	 9.999996528288191e-001	 6.200010000009550e+000	 9.681537307373837e+000
0	 9.999996528288193e-001	 6.266680000012268e+000	 9.692392795611202e+000
0	 9.999996528288189e-001	 6.333350000014584e+000	 9.703237767822328e+000
0	 9.999996528288189e-001	 6.400020000016401e+000	 9.713996615204458e+000
0	 9.999996528288191e-001	 6.466690000017617e+000	 9.724593728954842e+000
0	 9.999996528288192e-001	 6.533360000018134e+000	 9.734953500270704e+000
0	 9.999996528288191e-001	 6.600030000017850e+000	 9.745000320349307e+000
0	 9.999996528288190e-001	 6.666700000016665e+000	 9.754658580387867e+000
0	 1.066659822244223e+000	 6.000000000000000e+000	 9.660795013608841e+000
0	 1.066659822244223e+000	 6.066670000003317e+000	 9.670685016116495e+000
0	 1.066659822244223e+000	 6.133340000006535e+000	 9.680810004096285e+000
0	 1.066659822244223e+000	 6.200010000009552e+000	 9.691097197448602e+000
0	 1.066659822244222e+000	 6.266680000012267e+000	 9.701473816073925e+000
0	 1.066659822244222e+000	 6.333350000014584e+000	 9.711867079872652e+000
0	 1.066659822244222e+000	 6.400020000016401e+000	 9.722204208745216e+000
0	 1.066659822244223e+000	 6.466690000017617e+000	 9.732412422592045e+000
0	 1.066659822244223e+000	 6.533360000018135e+000	 9.742418941313551e+000
0	 1.066659822244223e+000	 6.600030000017850e+000	 9.752150984810156e+000
0	 1.066659822244222e+000	 6.666700000016665e+000	 9.761535772982272e+000
0	 1.133319925002959e+000	 6.000000000000000e+000	 9.672356390160157e+000
0	 1.133319925002959e+000	 6.066670000003318e+000	 9.681777737387511e+000
0	 1.133319925002959e+000	 6.133340000006534e+000	 9.691417690872719e+000
0	 1.133319925002959e+000	 6.200010000009550e+000	 9.701211625722950e+000
0	 1.133319925002959e+000	 6.266680000012268e+000	 9.711094917045385e+000
0	 1.133319925002959e+000	 6.333350000014582e+000	 9.721002939947164e+000
0	 1.133319925002959e+000	 6.400020000016401e+000	 9.730871069535471e+000
0	 1.133319925002959e+000	 6.466690000017617e+000	 9.740634680917484e+000
0	 1.133319925002959e+000	 6.533360000018135e+000	 9.750229149200333e+000
0	 1.133319925002959e+000	 6.600030000017851e+000	 9.759589849491201e+000
0	 1.133319925002959e+000	 6.666700000016667e+000	 9.768652156897238e+000
0	 1.199979977769445e+000	 6.000000000000000e+000	 9.684398630781177e+000
0	 1.199979977769445e+000	 6.066670000003318e+000	 9.693394120582761e+000
0	 1.199979977769445e+000	 6.133340000006534e+000	 9.702561510224845e+000
0	 1.199979977769445e+000	 6.200010000009551e+000	 9.711849656532774e+000
0	 1.199979977769445e+000	 6.266680000012268e+000	 9.721207416331895e+000
0	 1.199979977769445e+000	 6.333350000014584e+000	 9.730583646447505e+000
0	 1.199979977769445e+000	 6.400020000016401e+000	 9.739927203704964e+000
0	 1.199979977769445e+000	 6.466690000017616e+000	 9.749186944929596e+000
0	 1.199979977769445e+000	 6.533360000018132e+000	 9.758311726946715e+000
0	 1.199979977769445e+000	 6.600030000017849e+000	 9.767250406581686e+000
0	 1.199979977769445e+000	 6.666700000016666e+000	 9.775951840659790e+000
0	 1.266639997208098e+000	 5.999999999999999e+000	 9.696972402167962e+000
0	 1.266639997208098e+000	 6.066670000003318e+000	 9.705552904459600e+000
0	 1.266639997208098e+000	 6.133340000006534e+000	 9.714233000119018e+000
0	 1.266639997208098e+000	 6.200010000009550e+000	 9.722980354201010e+000
0	 1.266639997208098e+000	 6.266680000012267e+000	 9.731762631760388e+000
0	 1.266639997208098e+000	 6.333350000014583e+000	 9.740547497851944e+000
0	 1.266639997208098e+000	 6.400020000016400e+000	 9.749302617530473e+000
0	 1.266639997208098e+000	 6.466690000017618e+000	 9.757995655850776e+000
0	 1.266639997208098e+000	 6.533360000018132e+000	 9.766594277867664e+000
0	 1.266639997208098e+000	 6.600030000017851e+000	 9.775066148635920e+000
0	 1.266639997208098e+000	 6.666700000016667e+000	 9.783378933210344e+000
0	 1.333299999983334e+000	 6.000000000000000e+000	 9.710128371117200e+000
0	 1.333299999983334e+000	 6.066670000003319e+000	 9.718272827794403e+000
0	 1.333299999983334e+000	 6.133340000006530e+000	 9.726423698505341e+000
0	 1.333299999983334e+000	 6.200010000009551e+000	 9.734572783037500e+000
0	 1.333299999983334e+000	 6.266680000012268e+000	 9.742711881178323e+000
0	 1.333299999983334e+000	 6.333350000014583e+000	 9.750832792715263e+000
0	 1.333299999983334e+000	 6.400020000016402e+000	 9.758927317435777e+000
0	 1.333299999983334e+000	 6.466690000017617e+000	 9.766987255127322e+000
0	 1.333299999983334e+000	 6.533360000018134e+000	 9.775004405577361e+000
0	 1.333299999983334e+000	 6.600030000017851e+000	 9.782970568573321e+000
0	 1.333299999983334e+000	 6.666700000016665e+000	 9.790877543902676e+000
0	 6.666972226472178e-001	 6.666700000016667e+000	 9.725816717714768e+000
0	 6.666972226472175e-001	 6.733360000014532e+000	 9.735359104083200e+000
0	 6.666972226472177e-001	 6.800020000011597e+000	 9.744809366391268e+000
0	 6.666972226472177e-001	 6.866680000008066e+000	 9.754173985341989e+000
0	 6.666972226472177e-001	 6.933340000004131e+000	 9.763459441638378e+000
0	 6.666972226472175e-001	 6.999999999999999e+000	 9.772672215983434e+000
0	 6.666972226472178e-001	 7.066659999995868e+000	 9.781818789080171e+000
0	 6.666972226472177e-001	 7.133319999991935e+000	 9.790905641631600e+000
0	 6.666972226472177e-001	 7.199979999988400e+000	 9.799939254340758e+000
0	 6.666972226472175e-001	 7.266639999985466e+000	 9.808926107910647e+000
0	 6.666972226472177e-001	 7.333299999983333e+000	 9.817872683044323e+000
0	 7.333579753122049e-001	 6.666700000016668e+000	 9.730659567143530e+000
0	 7.333579753122050e-001	 6.733360000014534e+000	 9.740310836835100e+000
0	 7.333579753122046e-001	 6.800020000011598e+000	 9.749775577639857e+000
0	 7.333579753122050e-001	 6.866680000008069e+000	 9.759072221879604e+000
0	 7.333579753122049e-001	 6.933340000004136e+000	 9.768219201876159e+000
0	 7.333579753122050e-001	 7.000000000000000e+000	 9.777234949951348e+000
0	 7.333579753122049e-001	 7.066659999995869e+000	 9.786137898426993e+000
0	 7.333579753122048e-001	 7.133319999991936e+000	 9.794946479624937e+000
0	 7.333579753122047e-001	 7.199979999988400e+000	 9.803679125867001e+000
0	 7.333579753122048e-001	 7.266639999985467e+000	 9.812354269475032e+000
0	 7.333579753122048e-001	 7.333299999983334e+000	 9.820990342770859e+000
0	 8.000185779984418e-001	 6.666700000016666e+000	 9.736021071458401e+000
0	 8.000185779984419e-001	 6.733360000014533e+000	 9.745685007732529e+000
0	 8.000185779984419e-001	 6.800020000011601e+000	 9.755090557055819e+000
0	 8.000185779984418e-001	 6.866680000008067e+000	 9.764265561702736e+000
0	 8.000185779984419e-001	 6.933340000004136e+000	 9.773237863947761e+000
0	 8.000185779984420e-001	 7.000000000000001e+000	 9.782035306065334e+000
0	 8.000185779984417e-001	 7.066659999995866e+000	 9.790685730329940e+000
0	 8.000185779984419e-001	 7.133319999991935e+000	 9.799216979016064e+000
0	 8.000185779984420e-001	 7.199979999988401e+000	 9.807656894398171e+000
0	 8.000185779984420e-001	 7.266639999985467e+000	 9.816033318750741e+000
0	 8.000185779984419e-001	 7.333299999983335e+000	 9.824374094348258e+000
0	 8.666790473703456e-001	 6.666700000016668e+000	 9.741845337119509e+000
0	 8.666790473703455e-001	 6.733360000014534e+000	 9.751437884685769e+000
0	 8.666790473703452e-001	 6.800020000011600e+000	 9.760721101301799e+000
0	 8.666790473703453e-001	 6.866680000008065e+000	 9.769729697505257e+000
0	 8.666790473703455e-001	 6.933340000004133e+000	 9.778498383833863e+000
0	 8.666790473703453e-001	 6.999999999999998e+000	 9.787061870825260e+000
0	 8.666790473703452e-001	 7.066659999995864e+000	 9.795454869017176e+000
0	 8.666790473703455e-001	 7.133319999991935e+000	 9.803712088947288e+000
0	 8.666790473703452e-001	 7.199979999988401e+000	 9.811868241153276e+000
0	 8.666790473703453e-001	 7.266639999985466e+000	 9.819958036172865e+000
0	 8.666790473703453e-001	 7.333299999983334e+000	 9.828016184543763e+000
0	 9.333394000923324e-001	 6.666700000016668e+000	 9.748076471000370e+000
0	 9.333394000923325e-001	 6.733360000014534e+000	 9.757525736043256e+000
0	 9.333394000923323e-001	 6.800020000011601e+000	 9.766634007481562e+000
0	 9.333394000923325e-001	 6.866680000008069e+000	 9.775440322407329e+000
0	 9.333394000923325e-001	 6.933340000004134e+000	 9.783983717912562e+000
0	 9.333394000923325e-001	 7.000000000000001e+000	 9.792303231089285e+000
0	 9.333394000923325e-001	 7.066659999995868e+000	 9.800437899029548e+000
0	 9.333394000923326e-001	 7.133319999991935e+000	 9.808426758825371e+000
0	 9.333394000923323e-001	 7.199979999988400e+000	 9.816308847568813e+000
0	 9.333394000923324e-001	 7.266639999985466e+000	 9.824123202351911e+000
0	 9.333394000923324e-001	 7.333299999983335e+000	 9.831908860266696e+000
0	 9.999996528288190e-001	 6.666700000016665e+000	 9.754658580387865e+000
0	 9.999996528288192e-001	 6.733360000014532e+000	 9.763904830591541e+000
0	 9.999996528288191e-001	 6.800020000011600e+000	 9.772796073140118e+000
0	 9.999996528288192e-001	 6.866680000008067e+000	 9.781373129955451e+000
0	 9.999996528288193e-001	 6.933340000004134e+000	 9.789676822959402e+000
0	 9.999996528288190e-001	 7.000000000000000e+000	 9.797747974073813e+000
0	 9.999996528288193e-001	 7.066659999995867e+000	 9.805627405220571e+000
0	 9.999996528288190e-001	 7.133319999991936e+000	 9.813355938321561e+000
0	 9.999996528288192e-001	 7.199979999988400e+000	 9.820974395298626e+000
0	 9.999996528288193e-001	 7.266639999985468e+000	 9.828523598073664e+000
0	 9.999996528288190e-001	 7.333299999983335e+000	 9.836044368568551e+000
0	 1.066659822244222e+000	 6.666700000016665e+000	 9.761535772982272e+000
0	 1.066659822244222e+000	 6.733360000014532e+000	 9.770531437555288e+000
0	 1.066659822244223e+000	 6.800020000011600e+000	 9.779174096263569e+000
0	 1.066659822244222e+000	 6.866680000008065e+000	 9.787503814122456e+000
0	 1.066659822244223e+000	 6.933340000004135e+000	 9.795560656147343e+000
0	 1.066659822244223e+000	 7.000000000000000e+000	 9.803384687353573e+000
0	 1.066659822244222e+000	 7.066659999995867e+000	 9.811015972756508e+000
0	 1.066659822244222e+000	 7.133319999991934e+000	 9.818494577371538e+000
0	 1.066659822244222e+000	 7.199979999988400e+000	 9.825860566214004e+000
0	 1.066659822244222e+000	 7.266639999985466e+000	 9.833154004299322e+000
0	 1.066659822244223e+000	 7.333299999983334e+000	 9.840414956642849e+000
0	 1.133319925002959e+000	 6.666700000016667e+000	 9.768652156897236e+000
0	 1.133319925002959e+000	 6.733360000014532e+000	 9.777361826597289e+000
0	 1.133319925002959e+000	 6.800020000011600e+000	 9.785734875279239e+000
0	 1.133319925002959e+000	 6.866680000008067e+000	 9.793808069307589e+000
0	 1.133319925002959e+000	 6.933340000004134e+000	 9.801618175046853e+000
0	 1.133319925002959e+000	 6.999999999999999e+000	 9.809201958861555e+000
0	 1.133319925002959e+000	 7.066659999995867e+000	 9.816596187116241e+000
0	 1.133319925002959e+000	 7.133319999991935e+000	 9.823837626175413e+000
0	 1.133319925002959e+000	 7.199979999988401e+000	 9.830963042403612e+000
0	 1.133319925002959e+000	 7.266639999985467e+000	 9.838009202165399e+000
0	 1.133319925002959e+000	 7.333299999983335e+000	 9.845012871825308e+000
0	 1.199979977769445e+000	 6.666700000016666e+000	 9.775951840659790e+000
0	 1.199979977769445e+000	 6.733360000014533e+000	 9.784352267818470e+000
0	 1.199979977769445e+000	 6.800020000011598e+000	 9.792445209055591e+000
0	 1.199979977769445e+000	 6.866680000008068e+000	 9.800261590336312e+000
0	 1.199979977769445e+000	 6.933340000004135e+000	 9.807832337625742e+000
0	 1.199979977769445e+000	 7.000000000000000e+000	 9.815188376889040e+000
0	 1.199979977769445e+000	 7.066659999995867e+000	 9.822360634091341e+000
0	 1.199979977769445e+000	 7.133319999991934e+000	 9.829380035197795e+000
0	 1.199979977769445e+000	 7.199979999988400e+000	 9.836277506173561e+000
0	 1.199979977769445e+000	 7.266639999985467e+000	 9.843083972983798e+000
0	 1.199979977769445e+000	 7.333299999983334e+000	 9.849830361593662e+000
0	 1.266639997208098e+000	 6.666700000016667e+000	 9.783378933210345e+000
0	 1.266639997208098e+000	 6.733360000014533e+000	 9.791459031757848e+000
0	 1.266639997208098e+000	 6.800020000011600e+000	 9.799271896902287e+000
0	 1.266639997208098e+000	 6.866680000008067e+000	 9.806840072460510e+000
0	 1.266639997208098e+000	 6.933340000004133e+000	 9.814186102249321e+000
0	 1.266639997208098e+000	 7.000000000000000e+000	 9.821332530085575e+000
0	 1.266639997208098e+000	 7.066659999995868e+000	 9.828301899786089e+000
0	 1.266639997208098e+000	 7.133319999991935e+000	 9.835116755167737e+000
0	 1.266639997208098e+000	 7.199979999988400e+000	 9.841799640047327e+000
0	 1.266639997208098e+000	 7.266639999985467e+000	 9.848373098241725e+000
0	 1.266639997208098e+000	 7.333299999983334e+000	 9.854859673567789e+000
0	 1.333299999983334e+000	 6.666700000016665e+000	 9.790877543902679e+000
0	 1.333299999983334e+000	 6.733360000014534e+000	 9.798638389392561e+000
0	 1.333299999983334e+000	 6.800020000011599e+000	 9.806181738570110e+000
0	 1.333299999983334e+000	 6.866680000008066e+000	 9.813519211358347e+000
0	 1.333299999983334e+000	 6.933340000004134e+000	 9.820662427680299e+000
0	 1.333299999983334e+000	 6.999999999999999e+000	 9.827623007458978e+000
0	 1.333299999983334e+000	 7.066659999995867e+000	 9.834412570617435e+000
0	 1.333299999983334e+000	 7.133319999991935e+000	 9.841042737078679e+000
0	 1.333299999983334e+000	 7.199979999988400e+000	 9.847525126765778e+000
0	 1.333299999983334e+000	 7.266639999985467e+000	 9.853871359601758e+000
0	 1.333299999983334e+000	 7.333299999983336e+000	 9.860093055509669e+000
0	 6.666972226472177e-001	 7.333299999983333e+000	 9.817872683044323e+000
0	 6.666972226472178e-001	 7.399969999982152e+000	 9.826665839147864e+000
0	 6.666972226472177e-001	 7.466639999981865e+000	 9.835185129686986e+000
0	 6.666972226472175e-001	 7.533309999982382e+000	 9.843430094724225e+000
0	 6.666972226472175e-001	 7.599979999983599e+000	 9.851400274322119e+000
0	 6.666972226472177e-001	 7.666649999985417e+000	 9.859095208543176e+000
0	 6.666972226472175e-001	 7.733319999987731e+000	 9.866514437449949e+000
0	 6.666972226472177e-001	 7.799989999990449e+000	 9.873657501104951e+000
0	 6.666972226472177e-001	 7.866659999993466e+000	 9.880523939570686e+000
0	 6.666972226472177e-001	 7.933329999996682e+000	 9.887113292909682e+000
0	 6.666972226472177e-001	 8.000000000000000e+000	 9.893425101184453e+000
0	 7.333579753122048e-001	 7.333299999983334e+000	 9.820990342770857e+000
0	 7.333579753122048e-001	 7.399969999982150e+000	 9.829502892844459e+000
0	 7.333579753122046e-001	 7.466639999981865e+000	 9.837788470741625e+000
0	 7.333579753122047e-001	 7.533309999982383e+000	 9.845840895313067e+000
0	 7.333579753122050e-001	 7.599979999983603e+000	 9.853653985409464e+000
0	 7.333579753122045e-001	 7.666649999985414e+000	 9.861221559881484e+000
0	 7.333579753122047e-001	 7.733319999987733e+000	 9.868537437579827e+000
0	 7.333579753122050e-001	 7.799989999990451e+000	 9.875595437355138e+000
0	 7.333579753122048e-001	 7.866659999993465e+000	 9.882389378058102e+000
0	 7.333579753122046e-001	 7.933329999996684e+000	 9.888913078539400e+000
0	 7.333579753122048e-001	 8.000000000000000e+000	 9.895160357649665e+000
0	 8.000185779984419e-001	 7.333299999983335e+000	 9.824374094348258e+000
0	 8.000185779984419e-001	 7.399969999982151e+000	 9.832617059474105e+000
0	 8.000185779984416e-001	 7.466639999981866e+000	 9.840671864583118e+000
0	 8.000185779984418e-001	 7.533309999982384e+000	 9.848527820086453e+000
0	 8.000185779984419e-001	 7.599979999983601e+000	 9.856174236395200e+000
0	 8.000185779984420e-001	 7.666649999985416e+000	 9.863600423920502e+000
0	 8.000185779984418e-001	 7.733319999987733e+000	 9.870795693073482e+000
0	 8.000185779984419e-001	 7.799989999990449e+000	 9.877749354265212e+000
0	 8.000185779984416e-001	 7.866659999993466e+000	 9.884450717906843e+000
0	 8.000185779984417e-001	 7.933329999996681e+000	 9.890889094409452e+000
0	 8.000185779984418e-001	 8.000000000000000e+000	 9.897053794184169e+000
0	 8.666790473703453e-001	 7.333299999983334e+000	 9.828016184543763e+000
0	 8.666790473703453e-001	 7.399969999982150e+000	 9.835997503636468e+000
0	 8.666790473703454e-001	 7.466639999981866e+000	 9.843821930556144e+000
0	 8.666790473703456e-001	 7.533309999982384e+000	 9.851475480057752e+000
0	 8.666790473703453e-001	 7.599979999983600e+000	 9.858944166896258e+000
0	 8.666790473703455e-001	 7.666649999985417e+000	 9.866214005826599e+000
0	 8.666790473703455e-001	 7.733319999987733e+000	 9.873271011603757e+000
0	 8.666790473703453e-001	 7.799989999990448e+000	 9.880101198982658e+000
0	 8.666790473703453e-001	 7.866659999993467e+000	 9.886690582718247e+000
0	 8.666790473703456e-001	 7.933329999996683e+000	 9.893025177565477e+000
0	 8.666790473703455e-001	 8.000000000000002e+000	 9.899090998279295e+000
0	 9.333394000923324e-001	 7.333299999983335e+000	 9.831908860266696e+000
0	 9.333394000923321e-001	 7.399969999982149e+000	 9.839633390051761e+000
0	 9.333394000923323e-001	 7.466639999981867e+000	 9.847225288115153e+000
0	 9.333394000923322e-001	 7.533309999982382e+000	 9.854668486348366e+000
0	 9.333394000923323e-001	 7.599979999983601e+000	 9.861946916642896e+000
0	 9.333394000923323e-001	 7.666649999985417e+000	 9.869044510890227e+000
0	 9.333394000923321e-001	 7.733319999987733e+000	 9.875945200981862e+000
0	 9.333394000923321e-001	 7.799989999990448e+000	 9.882632918809239e+000
0	 9.333394000923323e-001	 7.866659999993468e+000	 9.889091596263850e+000
0	 9.333394000923323e-001	 7.933329999996683e+000	 9.895305165237183e+000
0	 9.333394000923323e-001	 7.999999999999999e+000	 9.901257557620689e+000
0	 9.999996528288190e-001	 7.333299999983335e+000	 9.836044368568548e+000
0	 9.999996528288190e-001	 7.399969999982150e+000	 9.843513883560707e+000
0	 9.999996528288192e-001	 7.466639999981867e+000	 9.850868556824368e+000
0	 9.999996528288191e-001	 7.533309999982383e+000	 9.858091450187658e+000
0	 9.999996528288192e-001	 7.599979999983600e+000	 9.865165625478813e+000
0	 9.999996528288190e-001	 7.666649999985415e+000	 9.872074144525977e+000
0	 9.999996528288190e-001	 7.733319999987733e+000	 9.878800069157350e+000
0	 9.999996528288191e-001	 7.799989999990450e+000	 9.885326461201093e+000
0	 9.999996528288192e-001	 7.866659999993467e+000	 9.891636382485380e+000
0	 9.999996528288191e-001	 7.933329999996683e+000	 9.897712894838376e+000
0	 9.999996528288192e-001	 8.000000000000000e+000	 9.903539060088260e+000
0	 1.066659822244223e+000	 7.333299999983334e+000	 9.840414956642853e+000
0	 1.066659822244222e+000	 7.399969999982150e+000	 9.847628149124640e+000
0	 1.066659822244222e+000	 7.466639999981867e+000	 9.854738356357798e+000
0	 1.066659822244223e+000	 7.533309999982382e+000	 9.861728982913027e+000
0	 1.066659822244222e+000	 7.599979999983601e+000	 9.868583433361039e+000
0	 1.066659822244222e+000	 7.666649999985417e+000	 9.875285112272515e+000
0	 1.066659822244222e+000	 7.733319999987732e+000	 9.881817424218166e+000
0	 1.066659822244223e+000	 7.799989999990450e+000	 9.888163773768675e+000
0	 1.066659822244222e+000	 7.866659999993468e+000	 9.894307565494723e+000
0	 1.066659822244223e+000	 7.933329999996684e+000	 9.900232203967015e+000
0	 1.066659822244222e+000	 7.999999999999999e+000	 9.905921093756218e+000
0	 1.133319925002959e+000	 7.333299999983335e+000	 9.845012871825306e+000
0	 1.133319925002959e+000	 7.399969999982150e+000	 9.851965351825344e+000
0	 1.133319925002959e+000	 7.466639999981867e+000	 9.858821306499225e+000
0	 1.133319925002959e+000	 7.533309999982384e+000	 9.865565695969815e+000
0	 1.133319925002959e+000	 7.599979999983599e+000	 9.872183480359999e+000
0	 1.133319925002959e+000	 7.666649999985417e+000	 9.878659619792630e+000
0	 1.133319925002959e+000	 7.733319999987733e+000	 9.884979074390602e+000
0	 1.133319925002959e+000	 7.799989999990447e+000	 9.891126804276768e+000
0	 1.133319925002959e+000	 7.866659999993467e+000	 9.897087769573989e+000
0	 1.133319925002959e+000	 7.933329999996683e+000	 9.902846930405124e+000
0	 1.133319925002959e+000	 8.000000000000000e+000	 9.908389246893034e+000
0	 1.199979977769445e+000	 7.333299999983334e+000	 9.849830361593659e+000
0	 1.199979977769445e+000	 7.399969999982150e+000	 9.856514656865187e+000
0	 1.199979977769445e+000	 7.466639999981867e+000	 9.863104027142178e+000
0	 1.199979977769445e+000	 7.533309999982383e+000	 9.869586200911375e+000
0	 1.199979977769445e+000	 7.599979999983599e+000	 9.875948906659479e+000
0	 1.199979977769445e+000	 7.666649999985416e+000	 9.882179872873218e+000
0	 1.199979977769445e+000	 7.733319999987733e+000	 9.888266828039322e+000
0	 1.199979977769446e+000	 7.799989999990450e+000	 9.894197500644475e+000
0	 1.199979977769445e+000	 7.866659999993466e+000	 9.899959619175426e+000
0	 1.199979977769445e+000	 7.933329999996684e+000	 9.905540912118848e+000
0	 1.199979977769445e+000	 8.000000000000000e+000	 9.910929107961463e+000
0	 1.266639997208098e+000	 7.333299999983334e+000	 9.854859673567789e+000
0	 1.266639997208098e+000	 7.399969999982150e+000	 9.861265229567044e+000
0	 1.266639997208098e+000	 7.466639999981867e+000	 9.867573138289975e+000
0	 1.266639997208098e+000	 7.533309999982384e+000	 9.873775109399023e+000
0	 1.266639997208098e+000	 7.599979999983599e+000	 9.879862852556640e+000
0	 1.266639997208098e+000	 7.666649999985416e+000	 9.885828077425254e+000
0	 1.266639997208098e+000	 7.733319999987733e+000	 9.891662493667322e+000
0	 1.266639997208098e+000	 7.799989999990449e+000	 9.897357810945245e+000
0	 1.266639997208098e+000	 7.866659999993467e+000	 9.902905738921465e+000
0	 1.266639997208098e+000	 7.933329999996682e+000	 9.908297987258418e+000
0	 1.266639997208098e+000	 8.000000000000000e+000	 9.913526265618543e+000
0	 1.333299999983334e+000	 7.333299999983336e+000	 9.860093055509667e+000
0	 1.333299999983334e+000	 7.399969999982149e+000	 9.866206235374335e+000
0	 1.333299999983334e+000	 7.466639999981866e+000	 9.872215260055670e+000
0	 1.333299999983334e+000	 7.533309999982384e+000	 9.878117033202091e+000
0	 1.333299999983334e+000	 7.599979999983600e+000	 9.883908458462006e+000
0	 1.333299999983334e+000	 7.666649999985415e+000	 9.889586439483827e+000
0	 1.333299999983334e+000	 7.733319999987733e+000	 9.895147879915960e+000
0	 1.333299999983334e+000	 7.799989999990449e+000	 9.900589683406800e+000
0	 1.333299999983334e+000	 7.866659999993466e+000	 9.905908753604747e+000
0	 1.333299999983334e+000	 7.933329999996683e+000	 9.911101994158212e+000
0	 1.333299999983334e+000	 8.000000000000000e+000	 9.916166308715580e+000
0	 6.666972226472177e-001	 8.000000000000000e+000	 9.893425101184453e+000
0	 6.666972226472178e-001	 8.066670000003317e+000	 9.899522129140783e+000
0	 6.666972226472177e-001	 8.133340000006532e+000	 9.905471062017034e+000
0	 6.666972226472175e-001	 8.200010000009550e+000	 9.911277320614504e+000
0	 6.666972226472178e-001	 8.266680000012267e+000	 9.916946325734495e+000
0	 6.666972226472177e-001	 8.333350000014583e+000	 9.922483498178309e+000
0	 6.666972226472177e-001	 8.400020000016401e+000	 9.927894258747250e+000
0	 6.666972226472177e-001	 8.466690000017616e+000	 9.933184028242605e+000
0	 6.666972226472173e-001	 8.533360000018133e+000	 9.938358227465665e+000
0	 6.666972226472178e-001	 8.600030000017851e+000	 9.943422277217733e+000
0	 6.666972226472177e-001	 8.666700000016666e+000	 9.948381598300093e+000
0	 7.333579753122048e-001	 8.000000000000000e+000	 9.895160357649665e+000
0	 7.333579753122047e-001	 8.066670000003317e+000	 9.901184186414170e+000
0	 7.333579753122047e-001	 8.133340000006532e+000	 9.907047157309716e+000
0	 7.333579753122048e-001	 8.200010000009550e+000	 9.912757521364259e+000
0	 7.333579753122048e-001	 8.266680000012268e+000	 9.918323529605770e+000
0	 7.333579753122047e-001	 8.333350000014583e+000	 9.923753433062204e+000
0	 7.333579753122049e-001	 8.400020000016403e+000	 9.929055482761537e+000
0	 7.333579753122047e-001	 8.466690000017616e+000	 9.934237929731705e+000
0	 7.333579753122047e-001	 8.533360000018133e+000	 9.939309025000670e+000
0	 7.333579753122049e-001	 8.600030000017853e+000	 9.944277019596392e+000
0	 7.333579753122048e-001	 8.666700000016665e+000	 9.949150164546801e+000
0	 8.000185779984418e-001	 8.000000000000000e+000	 9.897053794184169e+000
0	 8.000185779984418e-001	 8.066670000003319e+000	 9.902989414859549e+000
0	 8.000185779984417e-001	 8.133340000006530e+000	 9.908754683474388e+000
0	 8.000185779984418e-001	 8.200010000009552e+000	 9.914360104554991e+000
0	 8.000185779984417e-001	 8.266680000012265e+000	 9.919816182627645e+000
0	 8.000185779984419e-001	 8.333350000014585e+000	 9.925133422218703e+000
0	 8.000185779984417e-001	 8.400020000016399e+000	 9.930322327854423e+000
0	 8.000185779984417e-001	 8.466690000017618e+000	 9.935393404061152e+000
0	 8.000185779984416e-001	 8.533360000018133e+000	 9.940357155365177e+000
0	 8.000185779984417e-001	 8.600030000017847e+000	 9.945224086292813e+000
0	 8.000185779984420e-001	 8.666700000016666e+000	 9.950004701370322e+000
0	 8.666790473703455e-001	 8.000000000000002e+000	 9.899090998279295e+000
0	 8.666790473703453e-001	 8.066670000003317e+000	 9.904925320494520e+000
0	 8.666790473703453e-001	 8.133340000006532e+000	 9.910582864203365e+000
0	 8.666790473703454e-001	 8.200010000009547e+000	 9.916075810696816e+000
0	 8.666790473703455e-001	 8.266680000012265e+000	 9.921416341265859e+000
0	 8.666790473703455e-001	 8.333350000014585e+000	 9.926616637201459e+000
0	 8.666790473703453e-001	 8.400020000016401e+000	 9.931688879794621e+000
0	 8.666790473703455e-001	 8.466690000017618e+000	 9.936645250336291e+000
0	 8.666790473703455e-001	 8.533360000018133e+000	 9.941497930117476e+000
0	 8.666790473703452e-001	 8.600030000017847e+000	 9.946259100429115e+000
0	 8.666790473703455e-001	 8.666700000016665e+000	 9.950940942562205e+000
0	 9.333394000923323e-001	 7.999999999999999e+000	 9.901257557620689e+000
0	 9.333394000923323e-001	 8.066670000003317e+000	 9.906979409535961e+000
0	 9.333394000923321e-001	 8.133340000006534e+000	 9.912520923388584e+000
0	 9.333394000923323e-001	 8.200010000009550e+000	 9.917895380496049e+000
0	 9.333394000923323e-001	 8.266680000012267e+000	 9.923116062175811e+000
0	 9.333394000923323e-001	 8.333350000014587e+000	 9.928196249745348e+000
0	 9.333394000923321e-001	 8.400020000016399e+000	 9.933149224522133e+000
0	 9.333394000923322e-001	 8.466690000017616e+000	 9.937988267823640e+000
0	 9.333394000923323e-001	 8.533360000018131e+000	 9.942726660967315e+000
0	 9.333394000923321e-001	 8.600030000017849e+000	 9.947377685270620e+000
0	 9.333394000923324e-001	 8.666700000016668e+000	 9.951954622051034e+000
0	 9.999996528288192e-001	 8.000000000000000e+000	 9.903539060088260e+000
0	 9.999996528288194e-001	 8.066670000003319e+000	 9.909139188400120e+000
0	 9.999996528288192e-001	 8.133340000006532e+000	 9.914558085121721e+000
0	 9.999996528288192e-001	 8.200010000009552e+000	 9.919809554855199e+000
0	 9.999996528288192e-001	 8.266680000012267e+000	 9.924907402202699e+000
0	 9.999996528288191e-001	 8.333350000014582e+000	 9.929865431766379e+000
0	 9.999996528288192e-001	 8.400020000016401e+000	 9.934697448148379e+000
0	 9.999996528288189e-001	 8.466690000017616e+000	 9.939417255950847e+000
0	 9.999996528288192e-001	 8.533360000018133e+000	 9.944038659775890e+000
0	 9.999996528288189e-001	 8.600030000017846e+000	 9.948575464225691e+000
0	 9.999996528288188e-001	 8.666700000016665e+000	 9.953041473902360e+000
0	 1.066659822244222e+000	 7.999999999999999e+000	 9.905921093756218e+000
0	 1.066659822244222e+000	 8.066670000003319e+000	 9.911392163702587e+000
0	 1.066659822244223e+000	 8.133340000006534e+000	 9.916683573694098e+000
0	 1.066659822244222e+000	 8.200010000009552e+000	 9.921809074872970e+000
0	 1.066659822244222e+000	 8.266680000012267e+000	 9.926782418381434e+000
0	 1.066659822244222e+000	 8.333350000014585e+000	 9.931617355361730e+000
0	 1.066659822244222e+000	 8.400020000016401e+000	 9.936327636956106e+000
0	 1.066659822244222e+000	 8.466690000017618e+000	 9.940927014306757e+000
0	 1.066659822244223e+000	 8.533360000018133e+000	 9.945429238555922e+000
0	 1.066659822244223e+000	 8.600030000017851e+000	 9.949848060845820e+000
0	 1.066659822244223e+000	 8.666700000016663e+000	 9.954197232318682e+000
0	 1.133319925002959e+000	 8.000000000000000e+000	 9.908389246893034e+000
0	 1.133319925002959e+000	 8.066670000003319e+000	 9.913725842258282e+000
0	 1.133319925002959e+000	 8.133340000006532e+000	 9.918886613596754e+000
0	 1.133319925002959e+000	 8.200010000009552e+000	 9.923884681844275e+000
0	 1.133319925002959e+000	 8.266680000012268e+000	 9.928733167936679e+000
0	 1.133319925002959e+000	 8.333350000014585e+000	 9.933445192809787e+000
0	 1.133319925002959e+000	 8.400020000016403e+000	 9.938033877399414e+000
0	 1.133319925002959e+000	 8.466690000017618e+000	 9.942512342641376e+000
0	 1.133319925002959e+000	 8.533360000018137e+000	 9.946893709471516e+000
0	 1.133319925002959e+000	 8.600030000017849e+000	 9.951191098825621e+000
0	 1.133319925002959e+000	 8.666700000016668e+000	 9.955417631639522e+000
0	 1.199979977769445e+000	 8.000000000000000e+000	 9.910929107961463e+000
0	 1.199979977769445e+000	 8.066670000003317e+000	 9.916127731081435e+000
0	 1.199979977769445e+000	 8.133340000006532e+000	 9.921156429520405e+000
0	 1.199979977769445e+000	 8.200010000009550e+000	 9.926027117260238e+000
0	 1.199979977769445e+000	 8.266680000012267e+000	 9.930751708282831e+000
0	 1.199979977769445e+000	 8.333350000014585e+000	 9.935342116570036e+000
0	 1.199979977769445e+000	 8.400020000016399e+000	 9.939810256103780e+000
0	 1.199979977769446e+000	 8.466690000017618e+000	 9.944168040865904e+000
0	 1.199979977769445e+000	 8.533360000018133e+000	 9.948427384838285e+000
0	 1.199979977769445e+000	 8.600030000017851e+000	 9.952600202002824e+000
0	 1.199979977769445e+000	 8.666700000016666e+000	 9.956698406341353e+000
0	 1.266639997208098e+000	 8.000000000000000e+000	 9.913526265618543e+000
0	 1.266639997208098e+000	 8.066670000003319e+000	 9.918585337385656e+000
0	 1.266639997208098e+000	 8.133340000006534e+000	 9.923482246355421e+000
0	 1.266639997208098e+000	 8.200010000009550e+000	 9.928227122808135e+000
0	 1.266639997208098e+000	 8.266680000012268e+000	 9.932830097023976e+000
0	 1.266639997208098e+000	 8.333350000014583e+000	 9.937301299283197e+000
0	 1.266639997208098e+000	 8.400020000016399e+000	 9.941650859866021e+000
0	 1.266639997208098e+000	 8.466690000017618e+000	 9.945888909052634e+000
0	 1.266639997208098e+000	 8.533360000018135e+000	 9.950025577123313e+000
0	 1.266639997208098e+000	 8.600030000017853e+000	 9.954070994358231e+000
0	 1.266639997208098e+000	 8.666700000016668e+000	 9.958035291037628e+000
0	 1.333299999983334e+000	 8.000000000000000e+000	 9.916166308715580e+000
0	 1.333299999983334e+000	 8.066670000003317e+000	 9.921086168583811e+000
0	 1.333299999983334e+000	 8.133340000006532e+000	 9.925853289191918e+000
0	 1.333299999983334e+000	 8.200010000009550e+000	 9.930475440371465e+000
0	 1.333299999983334e+000	 8.266680000012268e+000	 9.934960391954025e+000
0	 1.333299999983334e+000	 8.333350000014587e+000	 9.939315913771102e+000
0	 1.333299999983334e+000	 8.400020000016399e+000	 9.943549775654285e+000
0	 1.333299999983334e+000	 8.466690000017618e+000	 9.947669747435104e+000
0	 1.333299999983334e+000	 8.533360000018135e+000	 9.951683598945090e+000
0	 1.333299999983334e+000	 8.600030000017851e+000	 9.955599100015812e+000
0	 1.333299999983334e+000	 8.666700000016666e+000	 9.959424020478778e+000
0	 6.666972226472177e-001	 8.666700000016666e+000	 9.948381598300095e+000
0	 6.666972226472175e-001	 8.733360002791901e+000	 9.953162337282480e+000
0	 6.666972226472177e-001	 8.800020022230555e+000	 9.957693503622734e+000
0	 6.666972226472177e-001	 8.866680074997042e+000	 9.961982604129867e+000
0	 6.666972226472178e-001	 8.933340177755779e+000	 9.966037146291431e+000
0	 6.666972226472177e-001	 9.000000347171181e+000	 9.969864638273485e+000
0	 6.666972226472178e-001	 9.066660599907667e+000	 9.973472588920608e+000
0	 6.666972226472175e-001	 9.133320952629656e+000	 9.976868507755812e+000
0	 6.666972226472179e-001	 9.199981422001560e+000	 9.980059904980637e+000
0	 6.666972226472177e-001	 9.266642024687796e+000	 9.983054291475058e+000
0	 6.666972226472177e-001	 9.333302777352785e+000	 9.985859178797519e+000
0	 7.333579753122048e-001	 8.666700000016665e+000	 9.949150164546799e+000
0	 7.333579753122047e-001	 8.733360002791901e+000	 9.953855629955706e+000
0	 7.333579753122047e-001	 8.800020022230552e+000	 9.958320501048878e+000
0	 7.333579753122052e-001	 8.866680074997042e+000	 9.962550729338219e+000
0	 7.333579753122048e-001	 8.933340177755776e+000	 9.966552267007693e+000
0	 7.333579753122049e-001	 9.000000347171183e+000	 9.970331066913257e+000
0	 7.333579753122047e-001	 9.066660599907669e+000	 9.973893082582976e+000
0	 7.333579753122048e-001	 9.133320952629655e+000	 9.977244268216891e+000
0	 7.333579753122049e-001	 9.199981422001557e+000	 9.980390578687089e+000
0	 7.333579753122048e-001	 9.266642024687794e+000	 9.983337969537597e+000
0	 7.333579753122046e-001	 9.333302777352783e+000	 9.986092396984514e+000
0	 8.000185779984420e-001	 8.666700000016666e+000	 9.950004701370320e+000
0	 8.000185779984418e-001	 8.733360002791903e+000	 9.954627369684763e+000
0	 8.000185779984419e-001	 8.800020022230555e+000	 9.959017995497103e+000
0	 8.000185779984417e-001	 8.866680074997040e+000	 9.963181253267401e+000
0	 8.000185779984420e-001	 8.933340177755779e+000	 9.967121818119304e+000
0	 8.000185779984418e-001	 9.000000347171183e+000	 9.970844365839980e+000
0	 8.000185779984417e-001	 9.066660599907667e+000	 9.974353572880233e+000
0	 8.000185779984416e-001	 9.133320952629653e+000	 9.977654116354289e+000
0	 8.000185779984418e-001	 9.199981422001558e+000	 9.980750674039982e+000
0	 8.000185779984418e-001	 9.266642024687796e+000	 9.983647924378671e+000
0	 8.000185779984417e-001	 9.333302777352781e+000	 9.986350546475132e+000
0	 8.666790473703455e-001	 8.666700000016665e+000	 9.950940942562205e+000
0	 8.666790473703456e-001	 8.733360002791905e+000	 9.955473303182997e+000
0	 8.666790473703456e-001	 8.800020022230555e+000	 9.959781752009985e+000
0	 8.666790473703454e-001	 8.866680074997042e+000	 9.963869964699457e+000
0	 8.666790473703454e-001	 8.933340177755779e+000	 9.967741617560730e+000
0	 8.666790473703455e-001	 9.000000347171183e+000	 9.971400387556173e+000
0	 8.666790473703454e-001	 9.066660599907667e+000	 9.974849952301193e+000
0	 8.666790473703455e-001	 9.133320952629655e+000	 9.978093990064201e+000
0	 8.666790473703455e-001	 9.199981422001557e+000	 9.981136179766585e+000
0	 8.666790473703454e-001	 9.266642024687794e+000	 9.983980200982819e+000
0	 8.666790473703451e-001	 9.333302777352781e+000	 9.986629733940259e+000
0	 9.333394000923324e-001	 8.666700000016668e+000	 9.951954622051034e+000
0	 9.333394000923324e-001	 8.733360002791905e+000	 9.956389177297423e+000
0	 9.333394000923323e-001	 8.800020022230557e+000	 9.960607535763208e+000
0	 9.333394000923323e-001	 8.866680074997044e+000	 9.964612652551205e+000
0	 9.333394000923321e-001	 8.933340177755776e+000	 9.968407483404693e+000
0	 9.333394000923322e-001	 9.000000347171181e+000	 9.971994984707479e+000
0	 9.333394000923322e-001	 9.066660599907667e+000	 9.975378113483762e+000
0	 9.333394000923325e-001	 9.133320952629655e+000	 9.978559827398273e+000
0	 9.333394000923322e-001	 9.199981422001558e+000	 9.981543084756181e+000
0	 9.333394000923324e-001	 9.266642024687796e+000	 9.984330844503047e+000
0	 9.333394000923323e-001	 9.333302777352783e+000	 9.986926066224861e+000
0	 9.999996528288188e-001	 8.666700000016665e+000	 9.953041473902360e+000
0	 9.999996528288193e-001	 8.733360002791901e+000	 9.957370739008798e+000
0	 9.999996528288191e-001	 8.800020022230557e+000	 9.961491112065556e+000
0	 9.999996528288191e-001	 8.866680074997042e+000	 9.965405105874210e+000
0	 9.999996528288191e-001	 8.933340177755776e+000	 9.969115233862119e+000
0	 9.999996528288189e-001	 9.000000347171181e+000	 9.972624010082612e+000
0	 9.999996528288190e-001	 9.066660599907667e+000	 9.975933949214792e+000
0	 9.999996528288191e-001	 9.133320952629656e+000	 9.979047566563686e+000
0	 9.999996528288193e-001	 9.199981422001560e+000	 9.981967378060142e+000
0	 9.999996528288192e-001	 9.266642024687796e+000	 9.984695900260805e+000
0	 9.999996528288191e-001	 9.333302777352783e+000	 9.987235650348135e+000
0	 1.066659822244223e+000	 8.666700000016663e+000	 9.954197232318679e+000
0	 1.066659822244223e+000	 8.733360002791901e+000	 9.958413735431581e+000
0	 1.066659822244223e+000	 8.800020022230557e+000	 9.962428246358984e+000
0	 1.066659822244222e+000	 8.866680074997042e+000	 9.966243113854796e+000
0	 1.066659822244223e+000	 8.933340177755781e+000	 9.969860687282177e+000
0	 1.066659822244223e+000	 9.000000347171181e+000	 9.973283316613449e+000
0	 1.066659822244222e+000	 9.066660599907667e+000	 9.976513352430159e+000
0	 1.066659822244223e+000	 9.133320952629658e+000	 9.979553145923019e+000
0	 1.066659822244222e+000	 9.199981422001558e+000	 9.982405048891927e+000
0	 1.066659822244222e+000	 9.266642024687794e+000	 9.985071413745981e+000
0	 1.066659822244222e+000	 9.333302777352781e+000	 9.987554593503338e+000
0	 1.133319925002959e+000	 8.666700000016668e+000	 9.955417631639522e+000
0	 1.133319925002959e+000	 8.733360002791903e+000	 9.959513913813973e+000
0	 1.133319925002959e+000	 8.800020022230557e+000	 9.963414704218490e+000
0	 1.133319925002959e+000	 8.866680074997040e+000	 9.967122465814089e+000
0	 1.133319925002959e+000	 8.933340177755778e+000	 9.970639662152266e+000
0	 1.133319925002959e+000	 9.000000347171183e+000	 9.973968757375005e+000
0	 1.133319925002959e+000	 9.066660599907669e+000	 9.977112216214715e+000
0	 1.133319925002959e+000	 9.133320952629656e+000	 9.980072503994308e+000
0	 1.133319925002959e+000	 9.199981422001557e+000	 9.982852086627105e+000
0	 1.133319925002959e+000	 9.266642024687798e+000	 9.985453430616873e+000
0	 1.133319925002959e+000	 9.333302777352781e+000	 9.987879003057822e+000
0	 1.199979977769445e+000	 8.666700000016666e+000	 9.956698406341355e+000
0	 1.199979977769445e+000	 8.733360002791903e+000	 9.960667021537836e+000
0	 1.199979977769445e+000	 8.800020022230557e+000	 9.964446251352209e+000
0	 1.199979977769445e+000	 8.866680074997040e+000	 9.968038951207912e+000
0	 1.199979977769445e+000	 8.933340177755781e+000	 9.971447977098041e+000
0	 1.199979977769446e+000	 9.000000347171183e+000	 9.974676185585384e+000
0	 1.199979977769445e+000	 9.066660599907666e+000	 9.977726433802371e+000
0	 1.199979977769445e+000	 9.133320952629653e+000	 9.980601579451085e+000
0	 1.199979977769445e+000	 9.199981422001560e+000	 9.983304480803277e+000
0	 1.199979977769446e+000	 9.266642024687794e+000	 9.985837996700319e+000
0	 1.199979977769445e+000	 9.333302777352785e+000	 9.988204986553155e+000
0	 1.266639997208098e+000	 8.666700000016668e+000	 9.958035291037628e+000
0	 1.266639997208098e+000	 8.733360002791903e+000	 9.961868806118780e+000
0	 1.266639997208098e+000	 8.800020022230557e+000	 9.965518653601404e+000
0	 1.266639997208098e+000	 8.866680074997042e+000	 9.968988359626858e+000
0	 1.266639997208098e+000	 8.933340177755776e+000	 9.972281450883353e+000
0	 1.266639997208098e+000	 9.000000347171183e+000	 9.975401454605791e+000
0	 1.266639997208098e+000	 9.066660599907666e+000	 9.978351898575944e+000
0	 1.266639997208098e+000	 9.133320952629656e+000	 9.981136311122302e+000
0	 1.266639997208098e+000	 9.199981422001558e+000	 9.983758221120139e+000
0	 1.266639997208098e+000	 9.266642024687796e+000	 9.986221157991444e+000
0	 1.266639997208098e+000	 9.333302777352781e+000	 9.988528651704968e+000
0	 1.333299999983334e+000	 8.666700000016666e+000	 9.959424020478778e+000
0	 1.333299999983334e+000	 8.733360002791903e+000	 9.963115015206110e+000
0	 1.333299999983334e+000	 8.800020022230553e+000	 9.966627676940417e+000
0	 1.333299999983334e+000	 8.866680074997040e+000	 9.969966480796309e+000
0	 1.333299999983334e+000	 8.933340177755781e+000	 9.973135902410272e+000
0	 1.333299999983334e+000	 9.000000347171181e+000	 9.976140417940595e+000
0	 1.333299999983334e+000	 9.066660599907669e+000	 9.978984504067350e+000
0	 1.333299999983334e+000	 9.133320952629656e+000	 9.981672637992419e+000
0	 1.333299999983334e+000	 9.199981422001560e+000	 9.984209297439472e+000
0	 1.333299999983334e+000	 9.266642024687796e+000	 9.986598960653920e+000
0	 1.333299999983334e+000	 9.333302777352785e+000	 9.988846106403004e+000
0	 6.666972226472177e-001	 9.333302777352785e+000	 9.985859178797517e+000
0	 6.666972226472175e-001	 9.399973674588177e+000	 9.988427109423450e+000
0	 6.666972226472177e-001	 9.466644621844619e+000	 9.990713772636063e+000
0	 6.666972226472178e-001	 9.533315502450000e+000	 9.992732617074459e+000
0	 6.666972226472177e-001	 9.599986199732195e+000	 9.994497085443159e+000
0	 6.666972226472175e-001	 9.666656597019095e+000	 9.996020614511686e+000
0	 6.666972226472178e-001	 9.733326577638577e+000	 9.997316635113750e+000
0	 6.666972226472177e-001	 9.799996024918521e+000	 9.998398572146261e+000
0	 6.666972226472177e-001	 9.866664822186822e+000	 9.999279844568438e+000
0	 6.666972226472177e-001	 9.933332852771352e+000	 9.999973865400422e+000
0	 6.666972226472175e-001	 1.000000000000000e+001	 1.000049404172218e+001
0	 7.333579753122046e-001	 9.333302777352783e+000	 9.986092396984512e+000
0	 7.333579753122048e-001	 9.399973674588171e+000	 9.988609498675325e+000
0	 7.333579753122045e-001	 9.466644621844619e+000	 9.990849707342127e+000
0	 7.333579753122048e-001	 9.533315502450000e+000	 9.992827365070784e+000
0	 7.333579753122049e-001	 9.599986199732198e+000	 9.994556808147276e+000
0	 7.333579753122047e-001	 9.666656597019093e+000	 9.996052367056922e+000
0	 7.333579753122049e-001	 9.733326577638579e+000	 9.997328366483860e+000
0	 7.333579753122048e-001	 9.799996024918523e+000	 9.998399125309916e+000
0	 7.333579753122047e-001	 9.866664822186820e+000	 9.999278956613843e+000
0	 7.333579753122048e-001	 9.933332852771354e+000	 9.999982167669847e+000
0	 7.333579753122049e-001	 1.000000000000000e+001	 1.000052305994660e+001
0	 8.000185779984417e-001	 9.333302777352781e+000	 9.986350546475132e+000
0	 8.000185779984417e-001	 9.399973674588173e+000	 9.988816568485683e+000
0	 8.000185779984416e-001	 9.466644621844619e+000	 9.991010115986709e+000
0	 8.000185779984419e-001	 9.533315502450002e+000	 9.992946183666348e+000
0	 8.000185779984417e-001	 9.599986199732195e+000	 9.994639760542611e+000
0	 8.000185779984416e-001	 9.666656597019090e+000	 9.996105829962815e+000
0	 8.000185779984417e-001	 9.733326577638577e+000	 9.997359369602842e+000
0	 8.000185779984419e-001	 9.799996024918524e+000	 9.998415351466365e+000
0	 8.000185779984416e-001	 9.866664822186820e+000	 9.999288741883600e+000
0	 8.000185779984415e-001	 9.933332852771351e+000	 9.999994501510441e+000
0	 8.000185779984418e-001	 1.000000000000000e+001	 1.000054758532694e+001
0	 8.666790473703451e-001	 9.333302777352781e+000	 9.986629733940257e+000
0	 8.666790473703452e-001	 9.399973674588178e+000	 9.989044499593751e+000
0	 8.666790473703455e-001	 9.466644621844619e+000	 9.991191272690449e+000
0	 8.666790473703456e-001	 9.533315502450003e+000	 9.993085459674500e+000
0	 8.666790473703454e-001	 9.599986199732195e+000	 9.994742461445442e+000
0	 8.666790473703454e-001	 9.666656597019093e+000	 9.996177673357449e+000
0	 8.666790473703452e-001	 9.733326577638573e+000	 9.997406485218797e+000
0	 8.666790473703456e-001	 9.799996024918523e+000	 9.998444281290821e+000
0	 8.666790473703454e-001	 9.866664822186824e+000	 9.999306440287045e+000
0	 8.666790473703453e-001	 9.933332852771354e+000	 1.000000833537201e+001
0	 8.666790473703455e-001	 1.000000000000000e+001	 1.000056533415984e+001
0	 9.333394000923323e-001	 9.333302777352783e+000	 9.986926066224863e+000
0	 9.333394000923324e-001	 9.399973674588177e+000	 9.989289472917706e+000
0	 9.333394000923323e-001	 9.466644621844619e+000	 9.991389451756811e+000
0	 9.333394000923323e-001	 9.533315502450003e+000	 9.993241580095129e+000
0	 9.333394000923320e-001	 9.599986199732195e+000	 9.994861429862079e+000
0	 9.333394000923324e-001	 9.666656597019095e+000	 9.996264567562985e+000
0	 9.333394000923323e-001	 9.733326577638575e+000	 9.997466554278381e+000
0	 9.333394000923322e-001	 9.799996024918523e+000	 9.998482945663007e+000
0	 9.333394000923321e-001	 9.866664822186822e+000	 9.999329291945195e+000
0	 9.333394000923324e-001	 9.933332852771354e+000	 1.000002113792515e+001
0	 9.333394000923323e-001	 1.000000000000000e+001	 1.000057402297425e+001
0	 9.999996528288191e-001	 9.333302777352783e+000	 9.987235650348133e+000
0	 9.999996528288192e-001	 9.399973674588178e+000	 9.989547669554503e+000
0	 9.999996528288191e-001	 9.466644621844619e+000	 9.991600927672108e+000
0	 9.999996528288193e-001	 9.533315502450002e+000	 9.993410932114530e+000
0	 9.999996528288191e-001	 9.599986199732198e+000	 9.994993184988942e+000
0	 9.999996528288189e-001	 9.666656597019090e+000	 9.996363183095625e+000
0	 9.999996528288190e-001	 9.733326577638575e+000	 9.997536417927059e+000
0	 9.999996528288193e-001	 9.799996024918523e+000	 9.998528375667251e+000
0	 9.999996528288191e-001	 9.866664822186824e+000	 9.999354537190632e+000
0	 9.999996528288192e-001	 9.933332852771354e+000	 1.000003037806111e+001
0	 9.999996528288190e-001	 1.000000000000000e+001	 1.000057136853060e+001
0	 1.066659822244222e+000	 9.333302777352781e+000	 9.987554593503337e+000
0	 1.066659822244222e+000	 9.399973674588175e+000	 9.989815270779989e+000
0	 1.066659822244222e+000	 9.466644621844619e+000	 9.991821975105465e+000
0	 1.066659822244222e+000	 9.533315502450000e+000	 9.993589903105471e+000
0	 1.066659822244222e+000	 9.599986199732197e+000	 9.995134246212574e+000
0	 1.066659822244222e+000	 9.666656597019092e+000	 9.996470190665635e+000
0	 1.066659822244223e+000	 9.733326577638575e+000	 9.997612917509072e+000
0	 1.066659822244223e+000	 9.799996024918524e+000	 9.998577602592116e+000
0	 1.066659822244222e+000	 9.866664822186822e+000	 9.999379416567807e+000
0	 1.066659822244223e+000	 9.933332852771352e+000	 1.000003352489176e+001
0	 1.066659822244222e+000	 9.999999999999998e+000	 1.000055508782131e+001
0	 1.133319925002959e+000	 9.333302777352781e+000	 9.987879003057820e+000
0	 1.133319925002959e+000	 9.399973674588175e+000	 9.990088458048833e+000
0	 1.133319925002958e+000	 9.466644621844619e+000	 9.992048868908933e+000
0	 1.133319925002959e+000	 9.533315502450000e+000	 9.993774880627299e+000
0	 1.133319925002959e+000	 9.599986199732197e+000	 9.995281133109549e+000
0	 1.133319925002959e+000	 9.666656597019095e+000	 9.996582261177267e+000
0	 1.133319925002959e+000	 9.733326577638579e+000	 9.997692894567301e+000
0	 1.133319925002959e+000	 9.799996024918523e+000	 9.998627657930841e+000
0	 1.133319925002959e+000	 9.866664822186822e+000	 9.999401170832707e+000
0	 1.133319925002959e+000	 9.933332852771356e+000	 1.000002804774982e+001
0	 1.133319925002959e+000	 1.000000000000000e+001	 1.000052289807044e+001
0	 1.199979977769445e+000	 9.333302777352785e+000	 9.988204986553155e+000
0	 1.199979977769445e+000	 9.399973674588178e+000	 9.990363412994610e+000
0	 1.199979977769445e+000	 9.466644621844619e+000	 9.992277884117344e+000
0	 1.199979977769445e+000	 9.533315502450002e+000	 9.993962252425678e+000
0	 1.199979977769446e+000	 9.599986199732195e+000	 9.995430365446529e+000
0	 1.199979977769445e+000	 9.666656597019093e+000	 9.996696065728949e+000
0	 1.199979977769445e+000	 9.733326577638575e+000	 9.997773190843477e+000
0	 1.199979977769445e+000	 9.799996024918523e+000	 9.998675573381208e+000
0	 1.199979977769446e+000	 9.866664822186822e+000	 9.999417040953054e+000
0	 1.199979977769445e+000	 9.933332852771354e+000	 1.000001141618841e+001
0	 1.199979977769445e+000	 1.000000000000000e+001	 1.000047251673407e+001
0	 1.266639997208098e+000	 9.333302777352781e+000	 9.988528651704970e+000
0	 1.266639997208098e+000	 9.399973674588178e+000	 9.990636317429640e+000
0	 1.266639997208098e+000	 9.466644621844617e+000	 9.992505295948398e+000
0	 1.266639997208098e+000	 9.533315502449998e+000	 9.994148406432863e+000
0	 1.266639997208098e+000	 9.599986199732198e+000	 9.995578463180287e+000
0	 1.266639997208098e+000	 9.666656597019095e+000	 9.996808275613061e+000
0	 1.266639997208098e+000	 9.733326577638577e+000	 9.997850648277922e+000
0	 1.266639997208098e+000	 9.799996024918524e+000	 9.998718380845308e+000
0	 1.266639997208098e+000	 9.866664822186822e+000	 9.999424268108252e+000
0	 1.266639997208098e+000	 9.933332852771354e+000	 9.999981099981479e+000
0	 1.266639997208098e+000	 1.000000000000000e+001	 1.000040166150002e+001
0	 1.333299999983334e+000	 9.333302777352785e+000	 9.988846106403008e+000
0	 1.333299999983334e+000	 9.399973674588177e+000	 9.990903353345225e+000
0	 1.333299999983334e+000	 9.466644621844619e+000	 9.992727379802616e+000
0	 1.333299999983334e+000	 9.533315502450002e+000	 9.994329730767452e+000
0	 1.333299999983334e+000	 9.599986199732198e+000	 9.995721946457646e+000
0	 1.333299999983334e+000	 9.666656597019093e+000	 9.996915562315996e+000
0	 1.333299999983334e+000	 9.733326577638575e+000	 9.997922109009798e+000
0	 1.333299999983334e+000	 9.799996024918523e+000	 9.998753112429803e+000
0	 1.333299999983334e+000	 9.866664822186824e+000	 9.999420093689395e+000
0	 1.333299999983334e+000	 9.933332852771356e+000	 9.999934569123646e+000
0	 1.333299999983334e+000	 1.000000000000000e+001	 1.000030805028794e+001
0	 1.333299999983334e+000	 0.000000000000000e+000	-5.186972698796498e+000
0	 1.333299999983334e+000	 6.666714722864758e-002	-4.635907248733204e+000
0	 1.333299999983334e+000	 1.333351778131789e-001	-4.141358757001928e+000
0	 1.333299999983334e+000	 2.000039750814772e-001	-3.686245899741440e+000
0	 1.333299999983334e+000	 2.666734223614255e-001	-3.253486849615364e+000
0	 1.333299999983334e+000	 3.333434029809069e-001	-2.825999275810822e+000
0	 1.333299999983334e+000	 4.000138002678044e-001	-2.386700344023874e+000
0	 1.333299999983334e+000	 4.666844975500012e-001	-1.918506716431724e+000
0	 1.333299999983334e+000	 5.333553781553803e-001	-1.404334551651745e+000
0	 1.333299999983334e+000	 6.000263254118247e-001	-8.270995046872472e-001
0	 1.333299999983334e+000	 6.666972226472174e-001	-1.697167268600613e-001
0	 1.399969999982150e+000	 0.000000000000000e+000	-7.450897544935820e+000
0	 1.399969999982150e+000	 6.666714722864754e-002	-6.607056142545726e+000
0	 1.399969999982150e+000	 1.333351778131789e-001	-5.846201884422104e+000
0	 1.399969999982150e+000	 2.000039750814772e-001	-5.148679453780193e+000
0	 1.399969999982150e+000	 2.666734223614255e-001	-4.494833158655741e+000
0	 1.399969999982150e+000	 3.333434029809069e-001	-3.865006931863441e+000
0	 1.399969999982150e+000	 4.000138002678045e-001	-3.239544330945468e+000
0	 1.399969999982150e+000	 4.666844975500012e-001	-2.598788538110174e+000
0	 1.399969999982150e+000	 5.333553781553803e-001	-1.923082360160943e+000
0	 1.399969999982150e+000	 6.000263254118247e-001	-1.192768228415186e+000
0	 1.399969999982150e+000	 6.666972226472177e-001	-3.881881986134878e-001
0	 1.466639999981866e+000	 0.000000000000000e+000	-1.014302556068330e+001
0	 1.466639999981866e+000	 6.666714722864756e-002	-8.977561392948871e+000
0	 1.466639999981866e+000	 1.333351778131789e-001	-7.915626221236177e+000
0	 1.466639999981866e+000	 2.000039750814773e-001	-6.936427974937160e+000
0	 1.466639999981866e+000	 2.666734223614254e-001	-6.019174396772637e+000
0	 1.466639999981867e+000	 3.333434029809070e-001	-5.143073042698535e+000
0	 1.466639999981866e+000	 4.000138002678044e-001	-4.287331281807306e+000
0	 1.466639999981867e+000	 4.666844975500011e-001	-3.431156296224408e+000
0	 1.466639999981867e+000	 5.333553781553803e-001	-2.553755080999890e+000
0	 1.466639999981866e+000	 6.000263254118248e-001	-1.634334443995059e+000
0	 1.466639999981867e+000	 6.666972226472175e-001	-6.521010057642765e-001
0	 1.533309999982383e+000	 0.000000000000000e+000	-1.320495566779385e+001
0	 1.533309999982383e+000	 6.666714722864754e-002	-1.169672150612525e+001
0	 1.533309999982383e+000	 1.333351778131789e-001	-1.030601492035829e+001
0	 1.533309999982383e+000	 2.000039750814772e-001	-9.012344385185912e+000
0	 1.533309999982383e+000	 2.666734223614256e-001	-7.795218430891839e+000
0	 1.533309999982383e+000	 3.333434029809069e-001	-6.634145643194182e+000
0	 1.533309999982383e+000	 4.000138002678044e-001	-5.508634663090525e+000
0	 1.533309999982383e+000	 4.666844975500011e-001	-4.398194186704428e+000
0	 1.533309999982383e+000	 5.333553781553803e-001	-3.282332965133398e+000
0	 1.533309999982383e+000	 6.000263254118248e-001	-2.140559804298358e+000
0	 1.533309999982383e+000	 6.666972226472177e-001	-9.523835647944713e-001
0	 1.599979999983600e+000	 0.000000000000000e+000	-1.657828678802195e+001
0	 1.599979999983599e+000	 6.666714722864754e-002	-1.471383498825740e+001
0	 1.599979999983600e+000	 1.333351778131790e-001	-1.297375113470284e+001
0	 1.599979999983600e+000	 2.000039750814772e-001	-1.133928160650041e+001
0	 1.599979999983600e+000	 2.666734223614256e-001	-9.791673127939619e+000
0	 1.599979999983600e+000	 3.333434029809069e-001	-8.312172768228999e+000
0	 1.599979999983600e+000	 4.000138002678044e-001	-6.882027941276786e+000
0	 1.599979999983599e+000	 4.666844975500011e-001	-5.482486405480687e+000
0	 1.599979999983600e+000	 5.333553781553801e-001	-4.094796263526682e+000
0	 1.599979999983600e+000	 6.000263254118248e-001	-2.700205962196850e+000
0	 1.599979999983600e+000	 6.666972226472177e-001	-1.279964292186283e+000
0	 1.666649999985417e+000	 0.000000000000000e+000	-2.020461784312164e+001
0	 1.666649999985416e+000	 6.666714722864757e-002	-1.797820034552779e+001
0	 1.666649999985417e+000	 1.333351778131790e-001	-1.587521801718443e+001
0	 1.666649999985416e+000	 2.000039750814773e-001	-1.388009256085503e+001
0	 1.666649999985416e+000	 2.666734223614256e-001	-1.197724635484277e+001
0	 1.666649999985416e+000	 3.333434029809069e-001	-1.015110245268213e+001
0	 1.666649999985416e+000	 4.000138002678043e-001	-8.386084582848259e+000
0	 1.666649999985417e+000	 4.666844975500012e-001	-6.666617148484119e+000
0	 1.666649999985416e+000	 5.333553781553800e-001	-4.977125227145298e+000
0	 1.666649999985416e+000	 6.000263254118247e-001	-3.302034570562566e+000
0	 1.666649999985416e+000	 6.666972226472175e-001	-1.625771604422110e+000
0	 1.733319999987733e+000	 0.000000000000000e+000	-2.402554775484650e+001
0	 1.733319999987733e+000	 6.666714722864756e-002	-2.143911608411886e+001
0	 1.733319999987733e+000	 1.333351778131789e-001	-1.896679872071783e+001
0	 1.733319999987733e+000	 2.000039750814772e-001	-1.659763017022451e+001
0	 1.733319999987734e+000	 2.666734223614256e-001	-1.432064597852855e+001
0	 1.733319999987733e+000	 3.333434029809068e-001	-1.212488273143324e+001
0	 1.733319999987733e+000	 4.000138002678043e-001	-9.999378054287631e+000
0	 1.733319999987733e+000	 4.666844975500011e-001	-7.933170611646088e+000
0	 1.733319999987733e+000	 5.333553781553801e-001	-5.915300106955202e+000
0	 1.733319999987733e+000	 6.000263254118248e-001	-3.934807282267822e+000
0	 1.733319999987733e+000	 6.666972226472177e-001	-1.980733917984493e+000
0	 1.799989999990450e+000	 0.000000000000000e+000	-2.798267544494970e+001
0	 1.799989999990450e+000	 6.666714722864754e-002	-2.504588071021295e+001
0	 1.799989999990450e+000	 1.333351778131789e-001	-2.220487639821810e+001
0	 1.799989999990450e+000	 2.000039750814773e-001	-1.945474735658399e+001
0	 1.799989999990450e+000	 2.666734223614256e-001	-1.679057986592474e+001
0	 1.799989999990450e+000	 3.333434029809069e-001	-1.420746163936256e+001
0	 1.799989999990450e+000	 4.000138002678043e-001	-1.170048182207809e+001
0	 1.799989999990450e+000	 4.666844975500012e-001	-9.264730990898446e+000
0	 1.799989999990450e+000	 5.333553781553804e-001	-6.895301153922703e+000
0	 1.799989999990450e+000	 6.000263254118247e-001	-4.587285750185208e+000
0	 1.799989999990450e+000	 6.666972226472177e-001	-2.335779649356187e+000
0	 1.866659999993467e+000	 0.000000000000000e+000	-3.201759983518397e+001
0	 1.866659999993467e+000	 6.666714722864756e-002	-2.874779272999237e+001
0	 1.866659999993467e+000	 1.333351778131790e-001	-2.554583420260047e+001
0	 1.866659999993467e+000	 2.000039750814772e-001	-2.241429704190903e+001
0	 1.866659999993467e+000	 2.666734223614254e-001	-1.935575588395960e+001
0	 1.866659999993467e+000	 3.333434029809069e-001	-1.637278721135082e+001
0	 1.866659999993466e+000	 4.000138002678043e-001	-1.346796935270339e+001
0	 1.866659999993467e+000	 4.666844975500012e-001	-1.064388248217346e+001
0	 1.866659999993466e+000	 5.333553781553801e-001	-7.903108619014497e+000
0	 1.866659999993467e+000	 6.000263254118247e-001	-5.248231627187570e+000
0	 1.866659999993467e+000	 6.666972226472177e-001	-2.681837215020087e+000
0	 1.933329999996684e+000	 0.000000000000000e+000	-3.607191984730157e+001
0	 1.933329999996684e+000	 6.666714722864757e-002	-3.249415064963935e+001
0	 1.933329999996684e+000	 1.333351778131789e-001	-2.894605528678036e+001
0	 1.933329999996684e+000	 2.000039750814773e-001	-2.543913214817557e+001
0	 1.933329999996684e+000	 2.666734223614255e-001	-2.198488189956189e+001
0	 1.933329999996683e+000	 3.333434029809069e-001	-1.859480748227929e+001
0	 1.933329999996684e+000	 4.000138002678044e-001	-1.528041411264772e+001
0	 1.933329999996684e+000	 4.666844975500011e-001	-1.205320928140391e+001
0	 1.933329999996684e+000	 5.333553781553804e-001	-8.924702753197650e+000
0	 1.933329999996683e+000	 6.000263254118246e-001	-5.906406566148056e+000
0	 1.933329999996683e+000	 6.666972226472177e-001	-3.009835031459283e+000
0	 2.000000000000000e+000	 0.000000000000000e+000	-4.008723440305434e+001
0	 2.000000000000000e+000	 6.666714722864757e-002	-3.623425297533605e+001
0	 2.000000000000000e+000	 1.333351778131789e-001	-3.236192280367342e+001
0	 2.000000000000000e+000	 2.000039750814773e-001	-2.849210559735991e+001
0	 2.000000000000000e+000	 2.666734223614256e-001	-2.464666577966086e+001
0	 2.000000000000000e+000	 3.333434029809069e-001	-2.084747048702977e+001
0	 2.000000000000000e+000	 4.000138002678043e-001	-1.711638956839586e+001
0	 2.000000000000000e+000	 4.666844975500010e-001	-1.347529558452297e+001
0	 2.000000000000000e+000	 5.333553781553803e-001	-9.946063807439588e+000
0	 2.000000000000000e+000	 6.000263254118246e-001	-6.550572219940069e+000
0	 2.000000000000000e+000	 6.666972226472177e-001	-3.310701515157029e+000
0	 1.333299999983334e+000	 6.666972226472174e-001	-1.697167268600614e-001
0	 1.333299999983334e+000	 7.333579753122047e-001	 6.002219922741103e-001
0	 1.333299999983334e+000	 8.000185779984418e-001	 1.495379041080794e+000
0	 1.333299999983334e+000	 8.666790473703454e-001	 2.502904410542548e+000
0	 1.333299999983334e+000	 9.333394000923321e-001	 3.609947958398264e+000
0	 1.333299999983334e+000	 9.999996528288189e-001	 4.803659409142893e+000
0	 1.333299999983334e+000	 1.066659822244222e+000	 6.071188354027641e+000
0	 1.333299999983334e+000	 1.133319925002959e+000	 7.399684251060694e+000
0	 1.333299999983334e+000	 1.199979977769445e+000	 8.776296425008429e+000
0	 1.333299999983334e+000	 1.266639997208098e+000	 1.018817406739710e+001
0	 1.333299999983334e+000	 1.333299999983334e+000	 1.162246623651508e+001
0	 1.399969999982150e+000	 6.666972226472177e-001	-3.881881986134878e-001
0	 1.399969999982150e+000	 7.333579753122047e-001	 5.197003103688173e-001
0	 1.399969999982150e+000	 8.000185779984417e-001	 1.537899995485387e+000
0	 1.399969999982150e+000	 8.666790473703450e-001	 2.652627481774672e+000
0	 1.399969999982150e+000	 9.333394000923321e-001	 3.850099295319151e+000
0	 1.399969999982150e+000	 9.999996528288191e-001	 5.116531863245936e+000
0	 1.399969999982150e+000	 1.066659822244222e+000	 6.438141513727763e+000
0	 1.399969999982150e+000	 1.133319925002959e+000	 7.801144475984377e+000
0	 1.399969999982150e+000	 1.199979977769445e+000	 9.191756880284235e+000
0	 1.399969999982150e+000	 1.266639997208098e+000	 1.059619475794663e+001
0	 1.399969999982150e+000	 1.333299999983334e+000	 1.200067404134414e+001
0	 1.466639999981867e+000	 6.666972226472175e-001	-6.521010057642764e-001
0	 1.466639999981867e+000	 7.333579753122048e-001	 4.193940899696700e-001
0	 1.466639999981866e+000	 8.000185779984416e-001	 1.583327774989865e+000
0	 1.466639999981866e+000	 8.666790473703453e-001	 2.825126402116888e+000
0	 1.466639999981866e+000	 9.333394000923321e-001	 4.130216262247411e+000
0	 1.466639999981866e+000	 9.999996528288190e-001	 5.484023584355838e+000
0	 1.466639999981867e+000	 1.066659822244222e+000	 6.871974535496111e+000
0	 1.466639999981867e+000	 1.133319925002959e+000	 8.279495220803812e+000
0	 1.466639999981866e+000	 1.199979977769445e+000	 9.692011683498405e+000
0	 1.466639999981866e+000	 1.266639997208097e+000	 1.109494990488581e+001
0	 1.466639999981866e+000	 1.333299999983334e+000	 1.247373580436114e+001
0	 1.533309999982383e+000	 6.666972226472177e-001	-9.523835647944714e-001
0	 1.533309999982383e+000	 7.333579753122047e-001	 3.065817242087119e-001
0	 1.533309999982383e+000	 8.000185779984417e-001	 1.637279540838637e+000
0	 1.533309999982383e+000	 8.666790473703455e-001	 3.024489061511259e+000
0	 1.533309999982383e+000	 9.333394000923321e-001	 4.452989440297248e+000
0	 1.533309999982383e+000	 9.999996528288192e-001	 5.907559808924628e+000
0	 1.533309999982383e+000	 1.066659822244222e+000	 7.372979276781525e+000
0	 1.533309999982383e+000	 1.133319925002958e+000	 8.834026930918959e+000
0	 1.533309999982383e+000	 1.199979977769445e+000	 1.027548183605377e+001
0	 1.533309999982383e+000	 1.266639997208098e+000	 1.168212303457159e+001
0	 1.533309999982383e+000	 1.333299999983334e+000	 1.303872954652991e+001
0	 1.599979999983600e+000	 6.666972226472177e-001	-1.279964292186283e+000
0	 1.599979999983600e+000	 7.333579753122049e-001	 1.885416062179131e-001
0	 1.599979999983600e+000	 8.000185779984417e-001	 1.705372454276092e+000
0	 1.599979999983599e+000	 8.666790473703451e-001	 3.254803349899935e+000
0	 1.599979999983600e+000	 9.333394000923322e-001	 4.821109410583016e+000
0	 1.599979999983600e+000	 9.999996528288191e-001	 6.388565773404540e+000
0	 1.599979999983600e+000	 1.066659822244222e+000	 7.941447595033068e+000
0	 1.599979999983599e+000	 1.133319925002958e+000	 9.464030051730067e+000
0	 1.599979999983600e+000	 1.199979977769445e+000	 1.094058833935352e+001
0	 1.599979999983600e+000	 1.266639997208098e+000	 1.235539767336131e+001
0	 1.599979999983600e+000	 1.333299999983334e+000	 1.369273328881468e+001
0	 1.666649999985416e+000	 6.666972226472175e-001	-1.625771604422110e+000
0	 1.666649999985416e+000	 7.333579753122048e-001	 7.255212912914343e-002
0	 1.666649999985417e+000	 8.000185779984420e-001	 1.793223676546614e+000
0	 1.666649999985416e+000	 8.666790473703451e-001	 3.520157157225114e+000
0	 1.666649999985416e+000	 9.333394000923321e-001	 5.237266754219177e+000
0	 1.666649999985417e+000	 9.999996528288191e-001	 6.928466714247984e+000
0	 1.666649999985416e+000	 1.066659822244222e+000	 8.577671347700067e+000
0	 1.666649999985417e+000	 1.133319925002959e+000	 1.016879502863770e+001
0	 1.666649999985416e+000	 1.199979977769445e+000	 1.168575219480117e+001
0	 1.666649999985416e+000	 1.266639997208098e+000	 1.311245734761269e+001
0	 1.666649999985417e+000	 1.333299999983334e+000	 1.443282505218013e+001
0	 1.733319999987733e+000	 6.666972226472177e-001	-1.980733917984493e+000
0	 1.733319999987733e+000	 7.333579753122046e-001	-3.410831392579112e-002
0	 1.733319999987733e+000	 8.000185779984415e-001	 1.906450368894609e+000
0	 1.733319999987733e+000	 8.666790473703454e-001	 3.824638373429095e+000
0	 1.733319999987733e+000	 9.333394000923320e-001	 5.704152052320362e+000
0	 1.733319999987733e+000	 9.999996528288189e-001	 7.528687867907580e+000
0	 1.733319999987733e+000	 1.066659822244222e+000	 9.281942392232084e+000
0	 1.733319999987733e+000	 1.133319925002959e+000	 1.094761230704270e+001
0	 1.733319999987733e+000	 1.199979977769445e+000	 1.250939440380060e+001
0	 1.733319999987733e+000	 1.266639997208098e+000	 1.395098558368383e+001
0	 1.733319999987733e+000	 1.333299999983334e+000	 1.525608285759137e+001
0	 1.799989999990450e+000	 6.666972226472177e-001	-2.335779649356187e+000
0	 1.799989999990450e+000	 7.333579753122047e-001	-1.241613298151686e-001
0	 1.799989999990450e+000	 8.000185779984418e-001	 2.050669692564454e+000
0	 1.799989999990450e+000	 8.666790473703450e-001	 4.172334888454208e+000
0	 1.799989999990450e+000	 9.333394000923322e-001	 6.224455886001309e+000
0	 1.799989999990450e+000	 9.999996528288190e-001	 8.190654470836131e+000
0	 1.799989999990450e+000	 1.066659822244222e+000	 1.005455258607896e+001
0	 1.799989999990450e+000	 1.133319925002959e+000	 1.179977233234621e+001
0	 1.799989999990450e+000	 1.199979977769445e+000	 1.340993596775600e+001
0	 1.799989999990450e+000	 1.266639997208098e+000	 1.486866590793323e+001
0	 1.799989999990450e+000	 1.333299999983334e+000	 1.615958472601395e+001
0	 1.866659999993467e+000	 6.666972226472177e-001	-2.681837215020087e+000
0	 1.866659999993467e+000	 7.333579753122049e-001	-1.903285254073723e-001
0	 1.866659999993467e+000	 8.000185779984415e-001	 2.231498808800559e+000
0	 1.866659999993467e+000	 8.666790473703453e-001	 4.567334592242895e+000
0	 1.866659999993467e+000	 9.333394000923321e-001	 6.800868836376915e+000
0	 1.866659999993467e+000	 9.999996528288186e-001	 8.915791759486636e+000
0	 1.866659999993467e+000	 1.066659822244222e+000	 1.089579378669074e+001
0	 1.866659999993467e+000	 1.133319925002958e+000	 1.272456554994966e+001
0	 1.866659999993467e+000	 1.199979977769445e+000	 1.438579788807195e+001
0	 1.866659999993467e+000	 1.266639997208098e+000	 1.586318184671979e+001
0	 1.866659999993467e+000	 1.333299999983334e+000	 1.714040867841384e+001
0	 1.933329999996683e+000	 6.666972226472177e-001	-3.009835031459283e+000
0	 1.933329999996684e+000	 7.333579753122047e-001	-2.253315075708317e-001
0	 1.933329999996683e+000	 8.000185779984416e-001	 2.454554878847299e+000
0	 1.933329999996683e+000	 8.666790473703453e-001	 5.013725374737651e+000
0	 1.933329999996684e+000	 9.333394000923321e-001	 7.436081484562187e+000
0	 1.933329999996683e+000	 9.999996528288188e-001	 9.705524970312279e+000
0	 1.933329999996683e+000	 1.066659822244222e+000	 1.180595785151773e+001
0	 1.933329999996684e+000	 1.133319925002958e+000	 1.372128240525480e+001
0	 1.933329999996684e+000	 1.199979977769445e+000	 1.543540116615333e+001
0	 1.933329999996684e+000	 1.266639997208098e+000	 1.693221692640278e+001
0	 1.933329999996684e+000	 1.333299999983334e+000	 1.819563273575747e+001
0	 2.000000000000000e+000	 6.666972226472177e-001	-3.310701515157029e+000
0	 2.000000000000000e+000	 7.333579753122048e-001	-2.218918831740896e-001
0	 2.000000000000000e+000	 8.000185779984418e-001	 2.725455063949059e+000
0	 2.000000000000000e+000	 8.666790473703454e-001	 5.515595125881032e+000
0	 2.000000000000000e+000	 9.333394000923323e-001	 8.132784411672290e+000
0	 2.000000000000000e+000	 9.999996528288190e-001	 1.056127933976646e+001
0	 2.000000000000000e+000	 1.066659822244222e+000	 1.278533663801048e+001
0	 2.000000000000000e+000	 1.133319925002958e+000	 1.478921334366366e+001
0	 2.000000000000000e+000	 1.199979977769445e+000	 1.655716680340536e+001
0	 2.000000000000000e+000	 1.266639997208097e+000	 1.807345467334185e+001
0	 2.000000000000000e+000	 1.333299999983334e+000	 1.932233491901166e+001
0	 1.333299999983334e+000	 1.333299999983334e+000	 1.162246623651508e+001
0	 1.333299999983334e+000	 1.399969999982150e+000	 1.294419367299047e+001
0	 1.333299999983334e+000	 1.466639999981867e+000	 1.403102111482972e+001
0	 1.333299999983334e+000	 1.533309999982383e+000	 1.488971212841025e+001
0	 1.333299999983334e+000	 1.599979999983599e+000	 1.552703028010803e+001
0	 1.333299999983334e+000	 1.666649999985416e+000	 1.594973913629761e+001
0	 1.333299999983334e+000	 1.733319999987733e+000	 1.616460226335202e+001
0	 1.333299999983334e+000	 1.799989999990449e+000	 1.617838322764287e+001
0	 1.333299999983334e+000	 1.866659999993466e+000	 1.599784559554029e+001
0	 1.333299999983334e+000	 1.933329999996683e+000	 1.562975293341294e+001
0	 1.333299999983334e+000	 2.000000000000000e+000	 1.508086880762806e+001
0	 1.399969999982150e+000	 1.333299999983334e+000	 1.200067404134414e+001
0	 1.399969999982150e+000	 1.399969999982150e+000	 1.327703526825570e+001
0	 1.399969999982150e+000	 1.466639999981866e+000	 1.431082952965107e+001
0	 1.399969999982150e+000	 1.533309999982383e+000	 1.510946853385425e+001
0	 1.399969999982150e+000	 1.599979999983599e+000	 1.568036398918760e+001
0	 1.399969999982150e+000	 1.666649999985416e+000	 1.603092760397206e+001
0	 1.399969999982150e+000	 1.733319999987733e+000	 1.616857108652697e+001
0	 1.399969999982150e+000	 1.799989999990450e+000	 1.610070614517016e+001
0	 1.399969999982150e+000	 1.866659999993466e+000	 1.583474448821792e+001
0	 1.399969999982150e+000	 1.933329999996683e+000	 1.537809782398500e+001
0	 1.399969999982150e+000	 2.000000000000000e+000	 1.473817786078463e+001
0	 1.466639999981866e+000	 1.333299999983334e+000	 1.247373580436114e+001
0	 1.466639999981866e+000	 1.399969999982150e+000	 1.370875919357209e+001
0	 1.466639999981867e+000	 1.466639999981866e+000	 1.469505099934423e+001
0	 1.466639999981867e+000	 1.533309999982383e+000	 1.544061166195978e+001
0	 1.466639999981866e+000	 1.599979999983599e+000	 1.595344162169936e+001
0	 1.466639999981867e+000	 1.666649999985416e+000	 1.624154131884200e+001
0	 1.466639999981867e+000	 1.733319999987733e+000	 1.631291119366514e+001
0	 1.466639999981867e+000	 1.799989999990450e+000	 1.617555168644466e+001
0	 1.466639999981866e+000	 1.866659999993466e+000	 1.583746323745479e+001
0	 1.466639999981867e+000	 1.933329999996683e+000	 1.530664628696820e+001
0	 1.466639999981866e+000	 2.000000000000000e+000	 1.459110127525601e+001
0	 1.533309999982383e+000	 1.333299999983334e+000	 1.303872954652992e+001
0	 1.533309999982383e+000	 1.399969999982150e+000	 1.423583789805438e+001
0	 1.533309999982383e+000	 1.466639999981866e+000	 1.517942046011370e+001
0	 1.533309999982383e+000	 1.533309999982383e+000	 1.587800699496008e+001
0	 1.533309999982383e+000	 1.599979999983600e+000	 1.634012726484415e+001
0	 1.533309999982383e+000	 1.666649999985416e+000	 1.657431103201485e+001
0	 1.533309999982383e+000	 1.733319999987733e+000	 1.658908805871948e+001
0	 1.533309999982383e+000	 1.799989999990450e+000	 1.639298810720373e+001
0	 1.533309999982383e+000	 1.866659999993466e+000	 1.599454093971164e+001
0	 1.533309999982383e+000	 1.933329999996683e+000	 1.540227631848562e+001
0	 1.533309999982383e+000	 2.000000000000000e+000	 1.462472400576643e+001
0	 1.599979999983600e+000	 1.333299999983334e+000	 1.369273328881468e+001
0	 1.599979999983600e+000	 1.399969999982150e+000	 1.485474383081775e+001
0	 1.599979999983600e+000	 1.466639999981866e+000	 1.575967284816452e+001
0	 1.599979999983600e+000	 1.533309999982383e+000	 1.641652001508900e+001
0	 1.599979999983600e+000	 1.599979999983599e+000	 1.683428500582352e+001
0	 1.599979999983599e+000	 1.666649999985416e+000	 1.702196749459875e+001
0	 1.599979999983600e+000	 1.733319999987733e+000	 1.698856715564363e+001
0	 1.599979999983600e+000	 1.799989999990450e+000	 1.674308366318552e+001
0	 1.599979999983600e+000	 1.866659999993467e+000	 1.629451669145002e+001
0	 1.599979999983600e+000	 1.933329999996683e+000	 1.565186591466110e+001
0	 1.599979999983600e+000	 2.000000000000000e+000	 1.482413100704103e+001
0	 1.666649999985417e+000	 1.333299999983334e+000	 1.443282505218014e+001
0	 1.666649999985416e+000	 1.399969999982150e+000	 1.556194944097787e+001
0	 1.666649999985416e+000	 1.466639999981866e+000	 1.643154309970229e+001
0	 1.666649999985417e+000	 1.533309999982383e+000	 1.705101620458090e+001
0	 1.666649999985416e+000	 1.599979999983599e+000	 1.742977893183960e+001
0	 1.666649999985416e+000	 1.666649999985416e+000	 1.757724145770250e+001
0	 1.666649999985417e+000	 1.733319999987733e+000	 1.750281395839203e+001
0	 1.666649999985416e+000	 1.799989999990449e+000	 1.721590661012893e+001
0	 1.666649999985416e+000	 1.866659999993466e+000	 1.672592958913227e+001
0	 1.666649999985417e+000	 1.933329999996683e+000	 1.604229307161935e+001
0	 1.666649999985416e+000	 2.000000000000000e+000	 1.517440723380580e+001
0	 1.733319999987733e+000	 1.333299999983334e+000	 1.525608285759138e+001
0	 1.733319999987733e+000	 1.399969999982150e+000	 1.635392717765090e+001
0	 1.733319999987733e+000	 1.466639999981866e+000	 1.719076615093309e+001
0	 1.733319999987733e+000	 1.533309999982383e+000	 1.777636104567079e+001
0	 1.733319999987733e+000	 1.599979999983599e+000	 1.812047313009514e+001
0	 1.733319999987733e+000	 1.666649999985416e+000	 1.823286367243557e+001
0	 1.733319999987733e+000	 1.733319999987733e+000	 1.812329394091975e+001
0	 1.733319999987733e+000	 1.799989999990449e+000	 1.780152520377363e+001
0	 1.733319999987733e+000	 1.866659999993466e+000	 1.727731872922151e+001
0	 1.733319999987733e+000	 1.933329999996683e+000	 1.656043578548590e+001
0	 1.733319999987733e+000	 2.000000000000000e+000	 1.566063764078761e+001
0	 1.799989999990450e+000	 1.333299999983334e+000	 1.615958472601395e+001
0	 1.799989999990450e+000	 1.399969999982150e+000	 1.722714948995348e+001
0	 1.799989999990450e+000	 1.466639999981867e+000	 1.803307693806357e+001
0	 1.799989999990450e+000	 1.533309999982383e+000	 1.858742002059420e+001
0	 1.799989999990450e+000	 1.599979999983599e+000	 1.890023168779356e+001
0	 1.799989999990450e+000	 1.666649999985417e+000	 1.898156488990809e+001
0	 1.799989999990450e+000	 1.733319999987733e+000	 1.884147257718260e+001
0	 1.799989999990450e+000	 1.799989999990450e+000	 1.849000769986006e+001
0	 1.799989999990450e+000	 1.866659999993466e+000	 1.793722320818174e+001
0	 1.799989999990450e+000	 1.933329999996683e+000	 1.719317205238717e+001
0	 1.799989999990450e+000	 2.000000000000000e+000	 1.626790718271419e+001
0	 1.866659999993467e+000	 1.333299999983334e+000	 1.714040867841385e+001
0	 1.866659999993467e+000	 1.399969999982150e+000	 1.817808882700270e+001
0	 1.866659999993467e+000	 1.466639999981866e+000	 1.895421039730089e+001
0	 1.866659999993467e+000	 1.533309999982383e+000	 1.947905861158725e+001
0	 1.866659999993466e+000	 1.599979999983599e+000	 1.976291869213884e+001
0	 1.866659999993467e+000	 1.666649999985416e+000	 1.981607586123094e+001
0	 1.866659999993467e+000	 1.733319999987733e+000	 1.964881534113719e+001
0	 1.866659999993467e+000	 1.799989999990449e+000	 1.927142235412938e+001
0	 1.866659999993467e+000	 1.866659999993467e+000	 1.869418212247767e+001
0	 1.866659999993467e+000	 1.933329999996683e+000	 1.792737986845040e+001
0	 1.866659999993466e+000	 2.000000000000000e+000	 1.698130081431420e+001
0	 1.933329999996684e+000	 1.333299999983334e+000	 1.819563273575747e+001
0	 1.933329999996684e+000	 1.399969999982150e+000	 1.920321763791618e+001
0	 1.933329999996684e+000	 1.466639999981866e+000	 1.994990146485276e+001
0	 1.933329999996684e+000	 1.533309999982383e+000	 2.044614230088666e+001
0	 1.933329999996683e+000	 1.599979999983599e+000	 2.070239823033560e+001
0	 1.933329999996683e+000	 1.666649999985416e+000	 2.072912733751555e+001
0	 1.933329999996684e+000	 1.733319999987733e+000	 2.053678770674071e+001
0	 1.933329999996683e+000	 1.799989999990449e+000	 2.013583742232357e+001
0	 1.933329999996684e+000	 1.866659999993466e+000	 1.953673456857489e+001
0	 1.933329999996684e+000	 1.933329999996684e+000	 1.874993722980365e+001
0	 1.933329999996684e+000	 2.000000000000000e+000	 1.778590349031711e+001
0	 2.000000000000000e+000	 1.333299999983334e+000	 1.932233491901167e+001
0	 2.000000000000000e+000	 1.399969999982150e+000	 2.029900837181199e+001
0	 2.000000000000000e+000	 1.466639999981866e+000	 2.101588507692737e+001
0	 2.000000000000000e+000	 1.533309999982383e+000	 2.148353657072972e+001
0	 2.000000000000000e+000	 1.599979999983599e+000	 2.171253438958914e+001
0	 2.000000000000000e+000	 1.666649999985416e+000	 2.171345006987407e+001
0	 2.000000000000000e+000	 1.733319999987733e+000	 2.149685514795115e+001
0	 2.000000000000000e+000	 1.799989999990450e+000	 2.107332116018530e+001
0	 2.000000000000000e+000	 1.866659999993467e+000	 2.045341964293973e+001
0	 2.000000000000000e+000	 1.933329999996683e+000	 1.964772213257581e+001
0	 2.000000000000000e+000	 2.000000000000000e+000	 1.866680016545330e+001
0	 1.333299999983334e+000	 2.000000000000000e+000	 1.508086880762806e+001
0	 1.333299999983334e+000	 2.066670000003317e+000	 1.439711004371875e+001
0	 1.333299999983334e+000	 2.133340000006534e+000	 1.363097751220224e+001
0	 1.333299999983334e+000	 2.200010000009550e+000	 1.279911084692023e+001
0	 1.333299999983334e+000	 2.266680000012267e+000	 1.191814968171359e+001
0	 1.333299999983334e+000	 2.333350000014584e+000	 1.100473365042245e+001
0	 1.333299999983334e+000	 2.400020000016401e+000	 1.007550238688612e+001
0	 1.333299999983334e+000	 2.466690000017617e+000	 9.147095524943161e+000
0	 1.333299999983334e+000	 2.533360000018134e+000	 8.236152698431305e+000
0	 1.333299999983334e+000	 2.600030000017851e+000	 7.359313541187508e+000
0	 1.333299999983334e+000	 2.666700000016666e+000	 6.533217687047971e+000
0	 1.399969999982150e+000	 2.000000000000000e+000	 1.473817786078463e+001
0	 1.399969999982150e+000	 2.066670000003317e+000	 1.397353119812096e+001
0	 1.399969999982150e+000	 2.133340000006534e+000	 1.314820273126720e+001
0	 1.399969999982150e+000	 2.200010000009551e+000	 1.227785161218864e+001
0	 1.399969999982150e+000	 2.266680000012268e+000	 1.137813699284986e+001
0	 1.399969999982150e+000	 2.333350000014584e+000	 1.046471802521485e+001
0	 1.399969999982150e+000	 2.400020000016400e+000	 9.553253861246935e+000
0	 1.399969999982150e+000	 2.466690000017617e+000	 8.659403652908857e+000
0	 1.399969999982150e+000	 2.533360000018133e+000	 7.798826552162651e+000
0	 1.399969999982150e+000	 2.600030000017851e+000	 6.987181710969744e+000
0	 1.399969999982150e+000	 2.666700000016667e+000	 6.240128281290959e+000
0	 1.466639999981866e+000	 2.000000000000000e+000	 1.459110127525601e+001
0	 1.466639999981866e+000	 2.066670000003317e+000	 1.375954495962894e+001
0	 1.466639999981866e+000	 2.133340000006534e+000	 1.288513619150250e+001
0	 1.466639999981866e+000	 2.200010000009550e+000	 1.198253855230314e+001
0	 1.466639999981867e+000	 2.266680000012266e+000	 1.106641562345691e+001
0	 1.466639999981866e+000	 2.333350000014585e+000	 1.015143098638923e+001
0	 1.466639999981866e+000	 2.400020000016400e+000	 9.252248222525124e+000
0	 1.466639999981866e+000	 2.466690000017618e+000	 8.383530913288958e+000
0	 1.466639999981867e+000	 2.533360000018134e+000	 7.559942640104704e+000
0	 1.466639999981866e+000	 2.600030000017850e+000	 6.796146984395742e+000
0	 1.466639999981867e+000	 2.666700000016667e+000	 6.106807527584977e+000
0	 1.533309999982383e+000	 2.000000000000000e+000	 1.462472400576643e+001
0	 1.533309999982383e+000	 2.066670000003316e+000	 1.373860890300822e+001
0	 1.533309999982383e+000	 2.133340000006534e+000	 1.282407135165594e+001
0	 1.533309999982383e+000	 2.200010000009551e+000	 1.189476427393506e+001
0	 1.533309999982383e+000	 2.266680000012267e+000	 1.096434059207061e+001
0	 1.533309999982383e+000	 2.333350000014584e+000	 1.004645322828719e+001
0	 1.533309999982383e+000	 2.400020000016400e+000	 9.154755104808958e+000
0	 1.533309999982383e+000	 2.466690000017617e+000	 8.302899143859717e+000
0	 1.533309999982383e+000	 2.533360000018134e+000	 7.504538267662775e+000
0	 1.533309999982383e+000	 2.600030000017850e+000	 6.773325398440994e+000
0	 1.533309999982383e+000	 2.666700000016667e+000	 6.122913458416936e+000
0	 1.599979999983600e+000	 2.000000000000000e+000	 1.482413100704103e+001
0	 1.599979999983599e+000	 2.066670000003317e+000	 1.389418060302516e+001
0	 1.599979999983600e+000	 2.133340000006534e+000	 1.294730167047634e+001
0	 1.599979999983600e+000	 2.200010000009550e+000	 1.199612138375664e+001
0	 1.599979999983600e+000	 2.266680000012267e+000	 1.105326691722782e+001
0	 1.599979999983600e+000	 2.333350000014584e+000	 1.013136544525121e+001
0	 1.599979999983600e+000	 2.400020000016400e+000	 9.243044142187841e+000
0	 1.599979999983600e+000	 2.466690000017617e+000	 8.400930182398390e+000
0	 1.599979999983600e+000	 2.533360000018133e+000	 7.617650740243140e+000
0	 1.599979999983600e+000	 2.600030000017851e+000	 6.905832990082067e+000
0	 1.599979999983599e+000	 2.666700000016666e+000	 6.278104106274752e+000
0	 1.666649999985416e+000	 2.000000000000000e+000	 1.517440723380580e+001
0	 1.666649999985417e+000	 2.066670000003317e+000	 1.420971763444706e+001
0	 1.666649999985416e+000	 2.133340000006534e+000	 1.323712060671338e+001
0	 1.666649999985416e+000	 2.200010000009550e+000	 1.226820248844109e+001
0	 1.666649999985417e+000	 2.266680000012267e+000	 1.131454961746633e+001
0	 1.666649999985416e+000	 2.333350000014584e+000	 1.038774833162483e+001
0	 1.666649999985417e+000	 2.400020000016401e+000	 9.499384968752050e+000
0	 1.666649999985417e+000	 2.466690000017617e+000	 8.661045866683210e+000
0	 1.666649999985416e+000	 2.533360000018133e+000	 7.884317363253154e+000
0	 1.666649999985416e+000	 2.600030000017850e+000	 7.180785796296415e+000
0	 1.666649999985417e+000	 2.666700000016666e+000	 6.562037503647271e+000
0	 1.733319999987733e+000	 2.000000000000000e+000	 1.566063764078761e+001
0	 1.733319999987734e+000	 2.066670000003317e+000	 1.466867757204213e+001
0	 1.733319999987733e+000	 2.133340000006533e+000	 1.367582161911767e+001
0	 1.733319999987733e+000	 2.200010000009550e+000	 1.269260019466259e+001
0	 1.733319999987733e+000	 2.266680000012267e+000	 1.172954371132493e+001
0	 1.733319999987733e+000	 2.333350000014583e+000	 1.079718258175253e+001
0	 1.733319999987733e+000	 2.400020000016401e+000	 9.906047218592942e+000
0	 1.733319999987733e+000	 2.466690000017618e+000	 9.066668034493461e+000
0	 1.733319999987733e+000	 2.533360000018134e+000	 8.289575442101084e+000
0	 1.733319999987733e+000	 2.600030000017851e+000	 7.585299854062590e+000
0	 1.733319999987733e+000	 2.666700000016666e+000	 6.964371683024458e+000
0	 1.799989999990450e+000	 2.000000000000000e+000	 1.626790718271419e+001
0	 1.799989999990450e+000	 2.066670000003318e+000	 1.525451799057948e+001
0	 1.799989999990450e+000	 2.133340000006533e+000	 1.424569816644085e+001
0	 1.799989999990450e+000	 2.200010000009550e+000	 1.325090710909626e+001
0	 1.799989999990450e+000	 2.266680000012268e+000	 1.227960421734341e+001
0	 1.799989999990450e+000	 2.333350000014584e+000	 1.134124888997985e+001
0	 1.799989999990450e+000	 2.400020000016400e+000	 1.044530052580284e+001
0	 1.799989999990450e+000	 2.466690000017617e+000	 9.601218523609385e+000
0	 1.799989999990450e+000	 2.533360000018134e+000	 8.818462282196293e+000
0	 1.799989999990450e+000	 2.600030000017851e+000	 8.106491200360059e+000
0	 1.799989999990450e+000	 2.666700000016667e+000	 7.474764676897112e+000
0	 1.866659999993466e+000	 2.000000000000000e+000	 1.698130081431420e+001
0	 1.866659999993467e+000	 2.066670000003317e+000	 1.595069646482912e+001
0	 1.866659999993467e+000	 2.133340000006534e+000	 1.492904370743537e+001
0	 1.866659999993467e+000	 2.200010000009550e+000	 1.392471583841815e+001
0	 1.866659999993466e+000	 2.266680000012266e+000	 1.294608615406249e+001
0	 1.866659999993467e+000	 2.333350000014583e+000	 1.200152795065326e+001
0	 1.866659999993467e+000	 2.400020000016401e+000	 1.109941452447504e+001
0	 1.866659999993467e+000	 2.466690000017618e+000	 1.024811917181224e+001
0	 1.866659999993467e+000	 2.533360000018134e+000	 9.456015188949042e+000
0	 1.866659999993467e+000	 2.600030000017850e+000	 8.731475872169394e+000
0	 1.866659999993467e+000	 2.666700000016666e+000	 8.082874517757093e+000
0	 1.933329999996684e+000	 2.000000000000000e+000	 1.778590349031711e+001
0	 1.933329999996684e+000	 2.066670000003317e+000	 1.674067056956202e+001
0	 1.933329999996684e+000	 2.133340000006534e+000	 1.570815170085470e+001
0	 1.933329999996684e+000	 2.200010000009550e+000	 1.469561898930534e+001
0	 1.933329999996684e+000	 2.266680000012268e+000	 1.371034454002393e+001
0	 1.933329999996684e+000	 2.333350000014584e+000	 1.275960045812025e+001
0	 1.933329999996684e+000	 2.400020000016401e+000	 1.185065884870390e+001
0	 1.933329999996684e+000	 2.466690000017617e+000	 1.099079181688432e+001
0	 1.933329999996684e+000	 2.533360000018134e+000	 1.018727146777069e+001
0	 1.933329999996683e+000	 2.600030000017850e+000	 9.447369906472058e+000
0	 1.933329999996684e+000	 2.666700000016667e+000	 8.778359238097254e+000
0	 2.000000000000000e+000	 2.000000000000000e+000	 1.866680016545330e+001
0	 2.000000000000000e+000	 2.066670000003317e+000	 1.760789787954994e+001
0	 2.000000000000000e+000	 2.133340000006534e+000	 1.656531560545320e+001
0	 2.000000000000000e+000	 2.200010000009551e+000	 1.554520916843582e+001
0	 2.000000000000000e+000	 2.266680000012268e+000	 1.455373439377036e+001
0	 2.000000000000000e+000	 2.333350000014584e+000	 1.359704710672924e+001
0	 2.000000000000000e+000	 2.400020000016401e+000	 1.268130313258471e+001
0	 2.000000000000000e+000	 2.466690000017618e+000	 1.181265829660886e+001
0	 2.000000000000000e+000	 2.533360000018133e+000	 1.099726842407354e+001
0	 2.000000000000000e+000	 2.600030000017851e+000	 1.024128934025054e+001
0	 2.000000000000000e+000	 2.666700000016667e+000	 9.550876870411416e+000
0	 1.333299999983334e+000	 2.666700000016666e+000	 6.533217687047971e+000
0	 1.333299999983334e+000	 2.733360000014532e+000	 5.821618849100923e+000
0	 1.333299999983334e+000	 2.800020000011599e+000	 5.269291734513660e+000
0	 1.333299999983334e+000	 2.866680000008067e+000	 4.864765280295594e+000
0	 1.333299999983334e+000	 2.933340000004133e+000	 4.596568423455858e+000
0	 1.333299999983334e+000	 3.000000000000000e+000	 4.453230101003299e+000
0	 1.333299999983334e+000	 3.066659999995867e+000	 4.423279249946499e+000
0	 1.333299999983334e+000	 3.133319999991934e+000	 4.495244807293695e+000
0	 1.333299999983334e+000	 3.199979999988401e+000	 4.657655710052897e+000
0	 1.333299999983334e+000	 3.266639999985467e+000	 4.899040895231756e+000
0	 1.333299999983334e+000	 3.333299999983334e+000	 5.207929299837706e+000
0	 1.399969999982150e+000	 2.666700000016667e+000	 6.240128281290963e+000
0	 1.399969999982150e+000	 2.733360000014533e+000	 5.607663906005758e+000
0	 1.399969999982150e+000	 2.800020000011600e+000	 5.121644006288623e+000
0	 1.399969999982150e+000	 2.866680000008067e+000	 4.770833677681218e+000
0	 1.399969999982150e+000	 2.933340000004134e+000	 4.543998015725156e+000
0	 1.399969999982150e+000	 3.000000000000000e+000	 4.429902115961947e+000
0	 1.399969999982150e+000	 3.066659999995866e+000	 4.417311073932941e+000
0	 1.399969999982150e+000	 3.133319999991934e+000	 4.494989985179402e+000
0	 1.399969999982150e+000	 3.199979999988400e+000	 4.651703945242433e+000
0	 1.399969999982150e+000	 3.266639999985468e+000	 4.876218049663042e+000
0	 1.399969999982150e+000	 3.333299999983334e+000	 5.157297393982103e+000
0	 1.466639999981867e+000	 2.666700000016667e+000	 6.106807527584973e+000
0	 1.466639999981866e+000	 2.733360000014534e+000	 5.531413625274556e+000
0	 1.466639999981866e+000	 2.800020000011599e+000	 5.092180106717022e+000
0	 1.466639999981866e+000	 2.866680000008066e+000	 4.778149999822198e+000
0	 1.466639999981866e+000	 2.933340000004133e+000	 4.578366332499946e+000
0	 1.466639999981866e+000	 2.999999999999999e+000	 4.481872132660048e+000
0	 1.466639999981866e+000	 3.066659999995866e+000	 4.477710428212332e+000
0	 1.466639999981866e+000	 3.133319999991933e+000	 4.554924247066597e+000
0	 1.466639999981866e+000	 3.199979999988400e+000	 4.702556617132639e+000
0	 1.466639999981866e+000	 3.266639999985467e+000	 4.909650566320242e+000
0	 1.466639999981867e+000	 3.333299999983334e+000	 5.165249122539135e+000
0	 1.533309999982383e+000	 2.666700000016667e+000	 6.122913458416936e+000
0	 1.533309999982383e+000	 2.733360000014533e+000	 5.585120638765265e+000
0	 1.533309999982383e+000	 2.800020000011600e+000	 5.175390042852813e+000
0	 1.533309999982383e+000	 2.866680000008067e+000	 4.883084404793259e+000
0	 1.533309999982383e+000	 2.933340000004134e+000	 4.697566458700431e+000
0	 1.533309999982383e+000	 3.000000000000000e+000	 4.608198938688093e+000
0	 1.533309999982383e+000	 3.066659999995867e+000	 4.604344578870157e+000
0	 1.533309999982383e+000	 3.133319999991934e+000	 4.675366113360551e+000
0	 1.533309999982383e+000	 3.199979999988400e+000	 4.810626276273214e+000
0	 1.533309999982383e+000	 3.266639999985467e+000	 4.999487801722244e+000
0	 1.533309999982383e+000	 3.333299999983335e+000	 5.231313423821700e+000
0	 1.599979999983599e+000	 2.666700000016666e+000	 6.278104106274752e+000
0	 1.599979999983600e+000	 2.733360000014533e+000	 5.761037578336896e+000
0	 1.599979999983600e+000	 2.800020000011600e+000	 5.365763821750909e+000
0	 1.599979999983599e+000	 2.866680000008066e+000	 5.082007050670024e+000
0	 1.599979999983600e+000	 2.933340000004134e+000	 4.899491479247703e+000
0	 1.599979999983600e+000	 3.000000000000000e+000	 4.807941321637415e+000
0	 1.599979999983600e+000	 3.066659999995867e+000	 4.797080791992729e+000
0	 1.599979999983599e+000	 3.133319999991933e+000	 4.856634104467247e+000
0	 1.599979999983600e+000	 3.199979999988400e+000	 4.976325473214661e+000
0	 1.599979999983600e+000	 3.266639999985468e+000	 5.145879112388768e+000
0	 1.599979999983600e+000	 3.333299999983334e+000	 5.355019236143414e+000
0	 1.666649999985417e+000	 2.666700000016666e+000	 6.562037503647271e+000
0	 1.666649999985416e+000	 2.733360000014533e+000	 6.051417075849464e+000
0	 1.666649999985417e+000	 2.800020000011601e+000	 5.657791450467158e+000
0	 1.666649999985416e+000	 2.866680000008067e+000	 5.371288095529010e+000
0	 1.666649999985416e+000	 2.933340000004133e+000	 5.182034479063804e+000
0	 1.666649999985416e+000	 3.000000000000000e+000	 5.080158069100223e+000
0	 1.666649999985417e+000	 3.066659999995867e+000	 5.055786333667172e+000
0	 1.666649999985416e+000	 3.133319999991934e+000	 5.099046740793494e+000
0	 1.666649999985417e+000	 3.199979999988400e+000	 5.200066758508164e+000
0	 1.666649999985416e+000	 3.266639999985466e+000	 5.348973854840153e+000
0	 1.666649999985417e+000	 3.333299999983334e+000	 5.535895497818525e+000
0	 1.733319999987733e+000	 2.666700000016666e+000	 6.964371683024463e+000
0	 1.733319999987733e+000	 2.733360000014533e+000	 6.448511763163848e+000
0	 1.733319999987733e+000	 2.800020000011600e+000	 6.045962936058371e+000
0	 1.733319999987733e+000	 2.866680000008067e+000	 5.747297697447742e+000
0	 1.733319999987733e+000	 2.933340000004133e+000	 5.543088543071578e+000
0	 1.733319999987733e+000	 3.000000000000000e+000	 5.423907968669588e+000
0	 1.733319999987733e+000	 3.066659999995867e+000	 5.380328469981472e+000
0	 1.733319999987733e+000	 3.133319999991933e+000	 5.402922542746938e+000
0	 1.733319999987733e+000	 3.199979999988401e+000	 5.482262682705661e+000
0	 1.733319999987733e+000	 3.266639999985467e+000	 5.608921385597413e+000
0	 1.733319999987733e+000	 3.333299999983334e+000	 5.773471147161878e+000
0	 1.799989999990450e+000	 2.666700000016667e+000	 7.474764676897108e+000
0	 1.799989999990450e+000	 2.733360000014534e+000	 6.944574272141984e+000
0	 1.799989999990450e+000	 2.800020000011600e+000	 6.524768285582347e+000
0	 1.799989999990449e+000	 2.866680000008066e+000	 6.206406014504537e+000
0	 1.799989999990450e+000	 2.933340000004133e+000	 5.980546756194823e+000
0	 1.799989999990450e+000	 3.000000000000000e+000	 5.838249807939412e+000
0	 1.799989999990450e+000	 3.066659999995868e+000	 5.770574467024396e+000
0	 1.799989999990450e+000	 3.133319999991933e+000	 5.768580030735876e+000
0	 1.799989999990450e+000	 3.199979999988400e+000	 5.823325796359854e+000
0	 1.799989999990450e+000	 3.266639999985468e+000	 5.925871061182273e+000
0	 1.799989999990450e+000	 3.333299999983335e+000	 6.067275122489046e+000
0	 1.866659999993467e+000	 2.666700000016666e+000	 8.082874517757093e+000
0	 1.866659999993467e+000	 2.733360000014533e+000	 7.531857234646714e+000
0	 1.866659999993467e+000	 2.800020000011600e+000	 7.088697506097746e+000
0	 1.866659999993467e+000	 2.866680000008067e+000	 6.744983204778785e+000
0	 1.866659999993467e+000	 2.933340000004134e+000	 6.492302203358269e+000
0	 1.866659999993467e+000	 2.999999999999999e+000	 6.322242374504471e+000
0	 1.866659999993467e+000	 3.066659999995866e+000	 6.226391590885546e+000
0	 1.866659999993467e+000	 3.133319999991933e+000	 6.196337725169491e+000
0	 1.866659999993466e+000	 3.199979999988400e+000	 6.223668650024143e+000
0	 1.866659999993467e+000	 3.266639999985467e+000	 6.299972238117188e+000
0	 1.866659999993467e+000	 3.333299999983334e+000	 6.416836362116195e+000
0	 1.933329999996684e+000	 2.666700000016667e+000	 8.778359238097254e+000
0	 1.933329999996684e+000	 2.733360000014532e+000	 8.202613282541938e+000
0	 1.933329999996684e+000	 2.800020000011600e+000	 7.732240604664263e+000
0	 1.933329999996683e+000	 2.866680000008066e+000	 7.359399426350710e+000
0	 1.933329999996684e+000	 2.933340000004133e+000	 7.076247969487428e+000
0	 1.933329999996684e+000	 3.000000000000000e+000	 6.874944455960417e+000
0	 1.933329999996684e+000	 3.066659999995866e+000	 6.747647107655369e+000
0	 1.933329999996684e+000	 3.133319999991934e+000	 6.686514146457744e+000
0	 1.933329999996684e+000	 3.199979999988401e+000	 6.683703794252727e+000
0	 1.933329999996684e+000	 3.266639999985467e+000	 6.731374272925299e+000
0	 1.933329999996684e+000	 3.333299999983334e+000	 6.821683804360173e+000
0	 2.000000000000000e+000	 2.666700000016667e+000	 9.550876870411422e+000
0	 2.000000000000000e+000	 2.733360000014533e+000	 8.949095047692431e+000
0	 2.000000000000000e+000	 2.800020000011600e+000	 8.449887588342488e+000
0	 2.000000000000000e+000	 2.866680000008067e+000	 8.046024837301442e+000
0	 2.000000000000000e+000	 2.933340000004133e+000	 7.730277139508821e+000
0	 2.000000000000000e+000	 3.000000000000000e+000	 7.495414839903780e+000
0	 2.000000000000000e+000	 3.066659999995867e+000	 7.334208283425133e+000
0	 2.000000000000000e+000	 3.133319999991934e+000	 7.239427815011323e+000
0	 2.000000000000000e+000	 3.199979999988400e+000	 7.203843779600497e+000
0	 2.000000000000000e+000	 3.266639999985468e+000	 7.220226522130407e+000
0	 2.000000000000000e+000	 3.333299999983334e+000	 7.281346387538458e+000
0	 1.333299999983334e+000	 3.333299999983334e+000	 5.207929299837708e+000
0	 1.333299999983334e+000	 3.399969999982149e+000	 5.573800870544200e+000
0	 1.333299999983334e+000	 3.466639999981867e+000	 5.984328577397116e+000
0	 1.333299999983334e+000	 3.533309999982383e+000	 6.425483375057692e+000
0	 1.333299999983334e+000	 3.599979999983599e+000	 6.883236218187253e+000
0	 1.333299999983334e+000	 3.666649999985416e+000	 7.343558061447411e+000
0	 1.333299999983334e+000	 3.733319999987733e+000	 7.792419859499843e+000
0	 1.333299999983334e+000	 3.799989999990450e+000	 8.215792567006453e+000
0	 1.333299999983334e+000	 3.866659999993467e+000	 8.599647138629269e+000
0	 1.333299999983334e+000	 3.933329999996683e+000	 8.929954529030542e+000
0	 1.333299999983334e+000	 4.000000000000000e+000	 9.192685692872626e+000
0	 1.399969999982150e+000	 3.333299999983334e+000	 5.157297393982103e+000
0	 1.399969999982150e+000	 3.399969999982151e+000	 5.492172070953223e+000
0	 1.399969999982150e+000	 3.466639999981866e+000	 5.876296093814505e+000
0	 1.399969999982150e+000	 3.533309999982383e+000	 6.295907980236001e+000
0	 1.399969999982150e+000	 3.599979999983601e+000	 6.737246247888126e+000
0	 1.399969999982150e+000	 3.666649999985416e+000	 7.186549414441366e+000
0	 1.399969999982150e+000	 3.733319999987733e+000	 7.630055997566473e+000
0	 1.399969999982150e+000	 3.799989999990450e+000	 8.054004514934460e+000
0	 1.399969999982150e+000	 3.866659999993467e+000	 8.444633484216524e+000
0	 1.399969999982150e+000	 3.933329999996683e+000	 8.788181423084110e+000
0	 1.399969999982150e+000	 4.000000000000000e+000	 9.070886849208804e+000
0	 1.466639999981867e+000	 3.333299999983334e+000	 5.165249122539137e+000
0	 1.466639999981866e+000	 3.399969999982150e+000	 5.472223971367417e+000
0	 1.466639999981867e+000	 3.466639999981867e+000	 5.831714735350437e+000
0	 1.466639999981866e+000	 3.533309999982383e+000	 6.230290649620445e+000
0	 1.466639999981866e+000	 3.599979999983600e+000	 6.654520949309833e+000
0	 1.466639999981866e+000	 3.666649999985417e+000	 7.090974869551349e+000
0	 1.466639999981867e+000	 3.733319999987733e+000	 7.526221645477977e+000
0	 1.466639999981866e+000	 3.799989999990451e+000	 7.946830512222931e+000
0	 1.466639999981866e+000	 3.866659999993467e+000	 8.339370704919682e+000
0	 1.466639999981866e+000	 3.933329999996683e+000	 8.690411458702032e+000
0	 1.466639999981867e+000	 4.000000000000002e+000	 8.986522008703968e+000
0	 1.533309999982383e+000	 3.333299999983335e+000	 5.231313423821700e+000
0	 1.533309999982383e+000	 3.399969999982150e+000	 5.512746610629500e+000
0	 1.533309999982383e+000	 3.466639999981866e+000	 5.848756142757551e+000
0	 1.533309999982383e+000	 3.533309999982383e+000	 6.226305127253283e+000
0	 1.533309999982383e+000	 3.599979999983599e+000	 6.632356671164489e+000
0	 1.533309999982383e+000	 3.666649999985415e+000	 7.053873881539198e+000
0	 1.533309999982383e+000	 3.733319999987733e+000	 7.477819865425733e+000
0	 1.533309999982383e+000	 3.799989999990450e+000	 7.891157729872751e+000
0	 1.533309999982383e+000	 3.866659999993466e+000	 8.280850581929199e+000
0	 1.533309999982383e+000	 3.933329999996684e+000	 8.633861528644241e+000
0	 1.533309999982383e+000	 4.000000000000002e+000	 8.937153677067411e+000
0	 1.599979999983600e+000	 3.333299999983334e+000	 5.355019236143416e+000
0	 1.599979999983600e+000	 3.399969999982150e+000	 5.612530027582896e+000
0	 1.599979999983600e+000	 3.466639999981867e+000	 5.925591956788920e+000
0	 1.599979999983599e+000	 3.533309999982383e+000	 6.281625157177393e+000
0	 1.599979999983600e+000	 3.599979999983600e+000	 6.668049762164568e+000
0	 1.599979999983599e+000	 3.666649999985416e+000	 7.072285905166980e+000
0	 1.599979999983600e+000	 3.733319999987733e+000	 7.481753719601479e+000
0	 1.599979999983600e+000	 3.799989999990449e+000	 7.883873338885248e+000
0	 1.599979999983600e+000	 3.866659999993467e+000	 8.266064896435779e+000
0	 1.599979999983600e+000	 3.933329999996683e+000	 8.615748525670846e+000
0	 1.599979999983599e+000	 4.000000000000000e+000	 8.920344360008592e+000
0	 1.666649999985417e+000	 3.333299999983334e+000	 5.535895497818525e+000
0	 1.666649999985416e+000	 3.399969999982150e+000	 5.770364261071553e+000
0	 1.666649999985417e+000	 3.466639999981867e+000	 6.060393818198222e+000
0	 1.666649999985416e+000	 3.533309999982383e+000	 6.393924483436118e+000
0	 1.666649999985417e+000	 3.599979999983600e+000	 6.758896571023078e+000
0	 1.666649999985416e+000	 3.666649999985417e+000	 7.143250395197273e+000
0	 1.666649999985417e+000	 3.733319999987733e+000	 7.534926270197289e+000
0	 1.666649999985416e+000	 3.799989999990450e+000	 7.921864510261949e+000
0	 1.666649999985416e+000	 3.866659999993467e+000	 8.292005429630429e+000
0	 1.666649999985417e+000	 3.933329999996684e+000	 8.633289342542227e+000
0	 1.666649999985417e+000	 4.000000000000000e+000	 8.933656563237191e+000
0	 1.733319999987733e+000	 3.333299999983334e+000	 5.773471147161876e+000
0	 1.733319999987733e+000	 3.399969999982150e+000	 5.985039349940012e+000
0	 1.733319999987733e+000	 3.466639999981866e+000	 6.251333367739732e+000
0	 1.733319999987733e+000	 3.533309999982383e+000	 6.560876850073311e+000
0	 1.733319999987733e+000	 3.599979999983599e+000	 6.902193446453429e+000
0	 1.733319999987733e+000	 3.666649999985417e+000	 7.263806806393086e+000
0	 1.733319999987733e+000	 3.733319999987733e+000	 7.634240579405645e+000
0	 1.733319999987733e+000	 3.799989999990450e+000	 8.002018415004724e+000
0	 1.733319999987733e+000	 3.866659999993466e+000	 8.355663962704389e+000
0	 1.733319999987733e+000	 3.933329999996684e+000	 8.683700872018941e+000
0	 1.733319999987733e+000	 4.000000000000000e+000	 8.974652792463058e+000
0	 1.799989999990450e+000	 3.333299999983335e+000	 6.067275122489049e+000
0	 1.799989999990450e+000	 3.399969999982150e+000	 6.255345333033525e+000
0	 1.799989999990450e+000	 3.466639999981866e+000	 6.496582246168186e+000
0	 1.799989999990450e+000	 3.533309999982383e+000	 6.780156001133317e+000
0	 1.799989999990450e+000	 3.599979999983600e+000	 7.095236737169521e+000
0	 1.799989999990450e+000	 3.666649999985416e+000	 7.430994593517759e+000
0	 1.799989999990450e+000	 3.733319999987733e+000	 7.776599709419309e+000
0	 1.799989999990450e+000	 3.799989999990450e+000	 8.121222224115797e+000
0	 1.799989999990450e+000	 3.866659999993466e+000	 8.454032276849196e+000
0	 1.799989999990450e+000	 3.933329999996684e+000	 8.764200006861801e+000
0	 1.799989999990450e+000	 4.000000000000000e+000	 9.040895553396235e+000
0	 1.866659999993467e+000	 3.333299999983334e+000	 6.416836362116192e+000
0	 1.866659999993466e+000	 3.399969999982150e+000	 6.580072249197776e+000
0	 1.866659999993467e+000	 3.466639999981866e+000	 6.794312094238909e+000
0	 1.866659999993467e+000	 3.533309999982383e+000	 7.049435680660965e+000
0	 1.866659999993466e+000	 3.599979999983599e+000	 7.335322791885663e+000
0	 1.866659999993467e+000	 3.666649999985416e+000	 7.641853211335021e+000
0	 1.866659999993467e+000	 3.733319999987733e+000	 7.958906722431443e+000
0	 1.866659999993466e+000	 3.799989999990449e+000	 8.276363108597629e+000
0	 1.866659999993467e+000	 3.866659999993466e+000	 8.584102153256630e+000
0	 1.866659999993467e+000	 3.933329999996685e+000	 8.872003639831837e+000
0	 1.866659999993467e+000	 4.000000000000000e+000	 9.129947351746958e+000
0	 1.933329999996684e+000	 3.333299999983334e+000	 6.821683804360175e+000
0	 1.933329999996684e+000	 3.399969999982150e+000	 6.958010137279204e+000
0	 1.933329999996684e+000	 3.466639999981867e+000	 7.142694552707826e+000
0	 1.933329999996684e+000	 3.533309999982382e+000	 7.366389632701647e+000
0	 1.933329999996684e+000	 3.599979999983600e+000	 7.619747959316659e+000
0	 1.933329999996684e+000	 3.666649999985416e+000	 7.893422114609071e+000
0	 1.933329999996684e+000	 3.733319999987733e+000	 8.178064680635558e+000
0	 1.933329999996684e+000	 3.799989999990449e+000	 8.464328239453016e+000
0	 1.933329999996684e+000	 3.866659999993467e+000	 8.742865373118720e+000
0	 1.933329999996684e+000	 3.933329999996684e+000	 9.004328663690290e+000
0	 1.933329999996684e+000	 4.000000000000000e+000	 9.239370693225622e+000
0	 2.000000000000000e+000	 3.333299999983334e+000	 7.281346387538456e+000
0	 2.000000000000000e+000	 3.399969999982150e+000	 7.387949036124748e+000
0	 2.000000000000000e+000	 3.466639999981867e+000	 7.539901262331337e+000
0	 2.000000000000000e+000	 3.533309999982383e+000	 7.728691601301207e+000
0	 2.000000000000000e+000	 3.599979999983600e+000	 7.945808588177713e+000
0	 2.000000000000000e+000	 3.666649999985416e+000	 8.182740758104492e+000
0	 2.000000000000000e+000	 3.733319999987733e+000	 8.430976646225513e+000
0	 2.000000000000000e+000	 3.799989999990449e+000	 8.682004787685074e+000
0	 2.000000000000000e+000	 3.866659999993466e+000	 8.927313717627804e+000
0	 2.000000000000000e+000	 3.933329999996683e+000	 9.158391971198638e+000
0	 2.000000000000000e+000	 4.000000000000001e+000	 9.366728083542835e+000
0	 1.333299999983334e+000	 4.000000000000000e+000	 9.192685692872630e+000
0	 1.333299999983334e+000	 4.066670000003317e+000	 9.383270472341197e+000
0	 1.333299999983334e+000	 4.133340000006535e+000	 9.512992653349590e+000
0	 1.333299999983334e+000	 4.200010000009550e+000	 9.591604106152088e+000
0	 1.333299999983334e+000	 4.266680000012268e+000	 9.628856701003199e+000
0	 1.333299999983334e+000	 4.333350000014584e+000	 9.634502308157746e+000
0	 1.333299999983334e+000	 4.400020000016402e+000	 9.618292797870756e+000
0	 1.333299999983334e+000	 4.466690000017619e+000	 9.589980040397569e+000
0	 1.333299999983334e+000	 4.533360000018134e+000	 9.559315905993795e+000
0	 1.333299999983334e+000	 4.600030000017851e+000	 9.536052264915282e+000
0	 1.333299999983334e+000	 4.666700000016667e+000	 9.529940987418168e+000
0	 1.399969999982150e+000	 4.000000000000000e+000	 9.070886849208804e+000
0	 1.399969999982150e+000	 4.066670000003317e+000	 9.284384955861079e+000
0	 1.399969999982150e+000	 4.133340000006534e+000	 9.435833879896849e+000
0	 1.399969999982150e+000	 4.200010000009550e+000	 9.534756554366314e+000
0	 1.399969999982150e+000	 4.266680000012268e+000	 9.590675912320013e+000
0	 1.399969999982150e+000	 4.333350000014584e+000	 9.613114886808662e+000
0	 1.399969999982150e+000	 4.400020000016401e+000	 9.611596410883248e+000
0	 1.399969999982150e+000	 4.466690000017615e+000	 9.595643417594992e+000
0	 1.399969999982150e+000	 4.533360000018132e+000	 9.574778839995389e+000
0	 1.399969999982150e+000	 4.600030000017851e+000	 9.558525611136162e+000
0	 1.399969999982150e+000	 4.666700000016665e+000	 9.556406664069268e+000
0	 1.466639999981867e+000	 4.000000000000002e+000	 8.986522008703970e+000
0	 1.466639999981866e+000	 4.066670000003318e+000	 9.216345035160559e+000
0	 1.466639999981866e+000	 4.133340000006533e+000	 9.383656323751113e+000
0	 1.466639999981866e+000	 4.200010000009550e+000	 9.497724767776457e+000
0	 1.466639999981867e+000	 4.266680000012267e+000	 9.567819260537616e+000
0	 1.466639999981866e+000	 4.333350000014583e+000	 9.603208695335878e+000
0	 1.466639999981866e+000	 4.400020000016402e+000	 9.613161965472738e+000
0	 1.466639999981866e+000	 4.466690000017617e+000	 9.606947964249926e+000
0	 1.466639999981867e+000	 4.533360000018134e+000	 9.593835584969414e+000
0	 1.466639999981866e+000	 4.600030000017851e+000	 9.583093720933366e+000
0	 1.466639999981867e+000	 4.666700000016667e+000	 9.583991265444228e+000
0	 1.533309999982383e+000	 4.000000000000002e+000	 8.937153677067412e+000
0	 1.533309999982383e+000	 4.066670000003317e+000	 9.177101024609170e+000
0	 1.533309999982383e+000	 4.133340000006534e+000	 9.354761997984078e+000
0	 1.533309999982383e+000	 4.200010000009553e+000	 9.479126348198072e+000
0	 1.533309999982383e+000	 4.266680000012266e+000	 9.559183826257353e+000
0	 1.533309999982383e+000	 4.333350000014584e+000	 9.603924183168322e+000
0	 1.533309999982383e+000	 4.400020000016401e+000	 9.622337169937582e+000
0	 1.533309999982383e+000	 4.466690000017617e+000	 9.623412537571971e+000
0	 1.533309999982383e+000	 4.533360000018135e+000	 9.616140037078530e+000
0	 1.533309999982383e+000	 4.600030000017851e+000	 9.609509419464503e+000
0	 1.533309999982383e+000	 4.666700000016666e+000	 9.612510435737372e+000
0	 1.599979999983599e+000	 4.000000000000000e+000	 8.920344360008592e+000
0	 1.599979999983600e+000	 4.066670000003317e+000	 9.164603238576646e+000
0	 1.599979999983600e+000	 4.133340000006533e+000	 9.347452915667510e+000
0	 1.599979999983600e+000	 4.200010000009550e+000	 9.477578897446866e+000
0	 1.599979999983600e+000	 4.266680000012268e+000	 9.563666690080650e+000
0	 1.599979999983599e+000	 4.333350000014583e+000	 9.614401799734983e+000
0	 1.599979999983600e+000	 4.400020000016401e+000	 9.638469732576178e+000
0	 1.599979999983600e+000	 4.466690000017618e+000	 9.644555994770750e+000
0	 1.599979999983600e+000	 4.533360000018133e+000	 9.641346092485438e+000
0	 1.599979999983600e+000	 4.600030000017851e+000	 9.637525531887157e+000
0	 1.599979999983599e+000	 4.666700000016665e+000	 9.641779819143032e+000
0	 1.666649999985417e+000	 4.000000000000000e+000	 8.933656563237193e+000
0	 1.666649999985417e+000	 4.066670000003319e+000	 9.176801991432861e+000
0	 1.666649999985416e+000	 4.133340000006533e+000	 9.360031089873315e+000
0	 1.666649999985416e+000	 4.200010000009550e+000	 9.491700017338619e+000
0	 1.666649999985417e+000	 4.266680000012268e+000	 9.580164932608991e+000
0	 1.666649999985416e+000	 4.333350000014583e+000	 9.633781994464892e+000
0	 1.666649999985417e+000	 4.400020000016402e+000	 9.660907361686935e+000
0	 1.666649999985416e+000	 4.466690000017618e+000	 9.669897193055913e+000
0	 1.666649999985416e+000	 4.533360000018133e+000	 9.669107647352858e+000
0	 1.666649999985416e+000	 4.600030000017851e+000	 9.666894883358941e+000
0	 1.666649999985416e+000	 4.666700000016667e+000	 9.671615059855544e+000
0	 1.733319999987733e+000	 4.000000000000000e+000	 8.974652792463058e+000
0	 1.733319999987733e+000	 4.066670000003318e+000	 9.211647597547813e+000
0	 1.733319999987733e+000	 4.133340000006534e+000	 9.390798533673520e+000
0	 1.733319999987733e+000	 4.200010000009550e+000	 9.520107309689195e+000
0	 1.733319999987733e+000	 4.266680000012268e+000	 9.607575634443951e+000
0	 1.733319999987733e+000	 4.333350000014584e+000	 9.661205216787167e+000
0	 1.733319999987733e+000	 4.400020000016402e+000	 9.688997765568328e+000
0	 1.733319999987733e+000	 4.466690000017617e+000	 9.698954989637150e+000
0	 1.733319999987733e+000	 4.533360000018133e+000	 9.699078597843510e+000
0	 1.733319999987733e+000	 4.600030000017850e+000	 9.697370299037457e+000
0	 1.733319999987733e+000	 4.666700000016665e+000	 9.701831802069236e+000
0	 1.799989999990450e+000	 4.000000000000000e+000	 9.040895553396235e+000
0	 1.799989999990450e+000	 4.066670000003317e+000	 9.267090371291692e+000
0	 1.799989999990450e+000	 4.133340000006535e+000	 9.438057260140312e+000
0	 1.799989999990450e+000	 4.200010000009550e+000	 9.561418376314576e+000
0	 1.799989999990450e+000	 4.266680000012267e+000	 9.644795876187178e+000
0	 1.799989999990450e+000	 4.333350000014583e+000	 9.695811916130952e+000
0	 1.799989999990450e+000	 4.400020000016400e+000	 9.722088652518885e+000
0	 1.799989999990450e+000	 4.466690000017618e+000	 9.731248241724169e+000
0	 1.799989999990450e+000	 4.533360000018134e+000	 9.730912840120158e+000
0	 1.799989999990450e+000	 4.600030000017851e+000	 9.728704604080356e+000
0	 1.799989999990449e+000	 4.666700000016665e+000	 9.732245689978459e+000
0	 1.866659999993467e+000	 4.000000000000000e+000	 9.129947351746958e+000
0	 1.866659999993467e+000	 4.066670000003316e+000	 9.341080627034822e+000
0	 1.866659999993467e+000	 4.133340000006534e+000	 9.500109282345917e+000
0	 1.866659999993467e+000	 4.200010000009551e+000	 9.614250819030849e+000
0	 1.866659999993467e+000	 4.266680000012268e+000	 9.690722738440391e+000
0	 1.866659999993467e+000	 4.333350000014583e+000	 9.736742541925462e+000
0	 1.866659999993467e+000	 4.400020000016400e+000	 9.759527730837151e+000
0	 1.866659999993467e+000	 4.466690000017617e+000	 9.766295806526710e+000
0	 1.866659999993467e+000	 4.533360000018134e+000	 9.764264270345549e+000
0	 1.866659999993466e+000	 4.600030000017848e+000	 9.760650623645251e+000
0	 1.866659999993467e+000	 4.666700000016665e+000	 9.762672367777549e+000
0	 1.933329999996684e+000	 4.000000000000000e+000	 9.239370693225622e+000
0	 1.933329999996684e+000	 4.066670000003317e+000	 9.431568679147684e+000
0	 1.933329999996684e+000	 4.133340000006534e+000	 9.575256613362772e+000
0	 1.933329999996683e+000	 4.200010000009551e+000	 9.677222239654192e+000
0	 1.933329999996684e+000	 4.266680000012267e+000	 9.744253301805392e+000
0	 1.933329999996684e+000	 4.333350000014584e+000	 9.783137543599981e+000
0	 1.933329999996684e+000	 4.400020000016401e+000	 9.800662708821713e+000
0	 1.933329999996684e+000	 4.466690000017616e+000	 9.803616541254527e+000
0	 1.933329999996684e+000	 4.533360000018133e+000	 9.798786784682475e+000
0	 1.933329999996684e+000	 4.600030000017850e+000	 9.792961182889791e+000
0	 1.933329999996684e+000	 4.666700000016666e+000	 9.792927479660857e+000
0	 2.000000000000000e+000	 4.000000000000001e+000	 9.366728083542837e+000
0	 2.000000000000000e+000	 4.066670000003318e+000	 9.536504842000916e+000
0	 2.000000000000000e+000	 4.133340000006533e+000	 9.661801266263405e+000
0	 2.000000000000000e+000	 4.200010000009550e+000	 9.748950240000864e+000
0	 2.000000000000000e+000	 4.266680000012268e+000	 9.804284646884053e+000
0	 2.000000000000000e+000	 4.333350000014584e+000	 9.834137370583822e+000
0	 2.000000000000000e+000	 4.400020000016401e+000	 9.844841294771229e+000
0	 2.000000000000000e+000	 4.466690000017617e+000	 9.842729303117423e+000
0	 2.000000000000000e+000	 4.533360000018134e+000	 9.834134279293737e+000
0	 2.000000000000000e+000	 4.600030000017851e+000	 9.825389106971633e+000
0	 2.000000000000000e+000	 4.666700000016665e+000	 9.822826669822712e+000
0	 1.333299999983334e+000	 4.666700000016667e+000	 9.529940987418170e+000
0	 1.333299999983334e+000	 4.733360000014533e+000	 9.535392662311185e+000
0	 1.333299999983334e+000	 4.800020000011600e+000	 9.540504257851119e+000
0	 1.333299999983334e+000	 4.866680000008067e+000	 9.545554641607419e+000
0	 1.333299999983334e+000	 4.933340000004134e+000	 9.550822681149509e+000
0	 1.333299999983334e+000	 5.000000000000000e+000	 9.556587244046803e+000
0	 1.333299999983334e+000	 5.066659999995867e+000	 9.563127197868633e+000
0	 1.333299999983334e+000	 5.133319999991934e+000	 9.570721410184307e+000
0	 1.333299999983334e+000	 5.199979999988400e+000	 9.579648748563121e+000
0	 1.333299999983334e+000	 5.266639999985467e+000	 9.590188080574272e+000
0	 1.333299999983334e+000	 5.333299999983335e+000	 9.602618273787000e+000
0	 1.399969999982150e+000	 4.666700000016665e+000	 9.556406664069268e+000
0	 1.399969999982150e+000	 4.733360000014534e+000	 9.563747331599378e+000
0	 1.399969999982150e+000	 4.800020000011601e+000	 9.569804178991200e+000
0	 1.399969999982150e+000	 4.866680000008066e+000	 9.574993333042471e+000
0	 1.399969999982150e+000	 4.933340000004133e+000	 9.579730920550885e+000
0	 1.399969999982150e+000	 5.000000000000000e+000	 9.584433068314130e+000
0	 1.399969999982150e+000	 5.066659999995867e+000	 9.589515903129833e+000
0	 1.399969999982150e+000	 5.133319999991936e+000	 9.595395551795589e+000
0	 1.399969999982150e+000	 5.199979999988400e+000	 9.602488141108957e+000
0	 1.399969999982150e+000	 5.266639999985468e+000	 9.611209797867447e+000
0	 1.399969999982150e+000	 5.333299999983333e+000	 9.621976648868552e+000
0	 1.466639999981867e+000	 4.666700000016667e+000	 9.583991265444228e+000
0	 1.466639999981866e+000	 4.733360000014533e+000	 9.592607451544254e+000
0	 1.466639999981866e+000	 4.800020000011600e+000	 9.599196264058124e+000
0	 1.466639999981866e+000	 4.866680000008065e+000	 9.604284311086653e+000
0	 1.466639999981866e+000	 4.933340000004134e+000	 9.608398200730649e+000
0	 1.466639999981866e+000	 4.999999999999997e+000	 9.612064541090865e+000
0	 1.466639999981866e+000	 5.066659999995866e+000	 9.615809940268033e+000
0	 1.466639999981866e+000	 5.133319999991933e+000	 9.620161006362821e+000
0	 1.466639999981866e+000	 5.199979999988401e+000	 9.625644347475895e+000
0	 1.466639999981866e+000	 5.266639999985467e+000	 9.632786571707861e+000
0	 1.466639999981867e+000	 5.333299999983335e+000	 9.642114287159282e+000
0	 1.533309999982383e+000	 4.666700000016666e+000	 9.612510435737375e+000
0	 1.533309999982383e+000	 4.733360000014534e+000	 9.621829685668788e+000
0	 1.533309999982383e+000	 4.800020000011601e+000	 9.628570719874023e+000
0	 1.533309999982383e+000	 4.866680000008068e+000	 9.633343849831817e+000
0	 1.533309999982383e+000	 4.933340000004134e+000	 9.636759387020863e+000
0	 1.533309999982383e+000	 5.000000000000002e+000	 9.639427642919824e+000
0	 1.533309999982383e+000	 5.066659999995866e+000	 9.641958929007290e+000
0	 1.533309999982383e+000	 5.133319999991934e+000	 9.644963556761898e+000
0	 1.533309999982383e+000	 5.199979999988400e+000	 9.649051837662150e+000
0	 1.533309999982383e+000	 5.266639999985467e+000	 9.654834083186579e+000
0	 1.533309999982383e+000	 5.333299999983333e+000	 9.662920604813664e+000
0	 1.599979999983599e+000	 4.666700000016665e+000	 9.641779819143034e+000
0	 1.599979999983600e+000	 4.733360000014534e+000	 9.651270697495928e+000
0	 1.599979999983600e+000	 4.800020000011599e+000	 9.657817753261037e+000
0	 1.599979999983599e+000	 4.866680000008065e+000	 9.662088223369777e+000
0	 1.599979999983599e+000	 4.933340000004134e+000	 9.664749344753558e+000
0	 1.599979999983600e+000	 5.000000000000000e+000	 9.666468354343747e+000
0	 1.599979999983600e+000	 5.066659999995866e+000	 9.667912489071679e+000
0	 1.599979999983599e+000	 5.133319999991934e+000	 9.669748985868649e+000
0	 1.599979999983599e+000	 5.199979999988400e+000	 9.672645081665912e+000
0	 1.599979999983600e+000	 5.266639999985468e+000	 9.677268013394691e+000
0	 1.599979999983600e+000	 5.333299999983335e+000	 9.684285017986175e+000
0	 1.666649999985416e+000	 4.666700000016667e+000	 9.671615059855544e+000
0	 1.666649999985416e+000	 4.733360000014534e+000	 9.680787150548666e+000
0	 1.666649999985416e+000	 4.800020000011599e+000	 9.686827571041276e+000
0	 1.666649999985416e+000	 4.866680000008066e+000	 9.690433705792337e+000
0	 1.666649999985416e+000	 4.933340000004134e+000	 9.692302939260763e+000
0	 1.666649999985417e+000	 4.999999999999999e+000	 9.693132655905451e+000
0	 1.666649999985417e+000	 5.066659999995866e+000	 9.693620240185249e+000
0	 1.666649999985416e+000	 5.133319999991935e+000	 9.694463076558964e+000
0	 1.666649999985417e+000	 5.199979999988400e+000	 9.696358549485392e+000
0	 1.666649999985416e+000	 5.266639999985467e+000	 9.700004043423268e+000
0	 1.666649999985416e+000	 5.333299999983334e+000	 9.706096942831309e+000
0	 1.733319999987733e+000	 4.666700000016665e+000	 9.701831802069236e+000
0	 1.733319999987733e+000	 4.733360000014532e+000	 9.710235708349952e+000
0	 1.733319999987733e+000	 4.800020000011601e+000	 9.715490380036888e+000
0	 1.733319999987733e+000	 4.866680000008066e+000	 9.718296571191317e+000
0	 1.733319999987733e+000	 4.933340000004133e+000	 9.719355035874514e+000
0	 1.733319999987733e+000	 4.999999999999999e+000	 9.719366528147688e+000
0	 1.733319999987733e+000	 5.066659999995868e+000	 9.719031802072037e+000
0	 1.733319999987733e+000	 5.133319999991935e+000	 9.719051611708695e+000
0	 1.733319999987733e+000	 5.199979999988402e+000	 9.720126711118786e+000
0	 1.733319999987733e+000	 5.266639999985469e+000	 9.722957854363401e+000
0	 1.733319999987733e+000	 5.333299999983333e+000	 9.728245795503556e+000
0	 1.799989999990449e+000	 4.666700000016665e+000	 9.732245689978459e+000
0	 1.799989999990450e+000	 4.733360000014533e+000	 9.739473034422751e+000
0	 1.799989999990450e+000	 4.800020000011599e+000	 9.743696387069960e+000
0	 1.799989999990450e+000	 4.866680000008066e+000	 9.745593093658517e+000
0	 1.799989999990450e+000	 4.933340000004132e+000	 9.745840499926816e+000
0	 1.799989999990450e+000	 4.999999999999999e+000	 9.745115951613247e+000
0	 1.799989999990450e+000	 5.066659999995867e+000	 9.744096794456107e+000
0	 1.799989999990450e+000	 5.133319999991935e+000	 9.743460374193708e+000
0	 1.799989999990449e+000	 5.199979999988399e+000	 9.743884036564309e+000
0	 1.799989999990450e+000	 5.266639999985467e+000	 9.746045127306143e+000
0	 1.799989999990450e+000	 5.333299999983334e+000	 9.750620992157408e+000
0	 1.866659999993467e+000	 4.666700000016665e+000	 9.762672367777549e+000
0	 1.866659999993467e+000	 4.733360000014532e+000	 9.768355792290034e+000
0	 1.866659999993467e+000	 4.800020000011599e+000	 9.771335798962628e+000
0	 1.866659999993467e+000	 4.866680000008066e+000	 9.772239547285732e+000
0	 1.866659999993467e+000	 4.933340000004133e+000	 9.771694196749714e+000
0	 1.866659999993467e+000	 5.000000000000000e+000	 9.770326906844863e+000
0	 1.866659999993467e+000	 5.066659999995867e+000	 9.768764837061488e+000
0	 1.866659999993467e+000	 5.133319999991935e+000	 9.767635146889838e+000
0	 1.866659999993467e+000	 5.199979999988400e+000	 9.767564995820155e+000
0	 1.866659999993467e+000	 5.266639999985467e+000	 9.769181543342604e+000
0	 1.866659999993467e+000	 5.333299999983333e+000	 9.773111948947348e+000
0	 1.933329999996684e+000	 4.666700000016666e+000	 9.792927479660859e+000
0	 1.933329999996684e+000	 4.733360000014534e+000	 9.796740645474751e+000
0	 1.933329999996684e+000	 4.800020000011601e+000	 9.798298822536992e+000
0	 1.933329999996683e+000	 4.866680000008066e+000	 9.798152206164765e+000
0	 1.933329999996684e+000	 4.933340000004135e+000	 9.796850991675171e+000
0	 1.933329999996683e+000	 5.000000000000000e+000	 9.794945374385309e+000
0	 1.933329999996683e+000	 5.066659999995865e+000	 9.792985549612233e+000
0	 1.933329999996684e+000	 5.133319999991934e+000	 9.791521712672965e+000
0	 1.933329999996684e+000	 5.199979999988401e+000	 9.791104058884525e+000
0	 1.933329999996684e+000	 5.266639999985469e+000	 9.792282783563845e+000
0	 1.933329999996684e+000	 5.333299999983335e+000	 9.795608082027890e+000
0	 2.000000000000000e+000	 4.666700000016665e+000	 9.822826669822714e+000
0	 2.000000000000000e+000	 4.733360000014533e+000	 9.824484257499853e+000
0	 2.000000000000000e+000	 4.800020000011601e+000	 9.824475664615166e+000
0	 2.000000000000000e+000	 4.866680000008067e+000	 9.823247344387392e+000
0	 2.000000000000000e+000	 4.933340000004134e+000	 9.821245750035224e+000
0	 2.000000000000000e+000	 5.000000000000001e+000	 9.818917334777332e+000
0	 2.000000000000000e+000	 5.066659999995866e+000	 9.816708551832360e+000
0	 2.000000000000000e+000	 5.133319999991934e+000	 9.815065854418920e+000
0	 2.000000000000000e+000	 5.199979999988400e+000	 9.814435695755600e+000
0	 2.000000000000000e+000	 5.266639999985468e+000	 9.815264529060954e+000
0	 2.000000000000000e+000	 5.333299999983333e+000	 9.817998807553510e+000
0	 1.333299999983334e+000	 5.333299999983335e+000	 9.602618273786998e+000
0	 1.333299999983334e+000	 5.399969999982149e+000	 9.615807276177865e+000
0	 1.333299999983334e+000	 5.466639999981867e+000	 9.628437366910681e+000
0	 1.333299999983334e+000	 5.533309999982383e+000	 9.640514971802420e+000
0	 1.333299999983334e+000	 5.599979999983599e+000	 9.652046516669996e+000
0	 1.333299999983334e+000	 5.666649999985414e+000	 9.663038427330388e+000
0	 1.333299999983334e+000	 5.733319999987733e+000	 9.673497129600531e+000
0	 1.333299999983334e+000	 5.799989999990448e+000	 9.683429049297345e+000
0	 1.333299999983334e+000	 5.866659999993467e+000	 9.692840612237786e+000
0	 1.333299999983334e+000	 5.933329999996684e+000	 9.701738244238769e+000
0	 1.333299999983334e+000	 6.000000000000000e+000	 9.710128371117200e+000
0	 1.399969999982150e+000	 5.333299999983333e+000	 9.621976648868552e+000
0	 1.399969999982150e+000	 5.399969999982149e+000	 9.633802143021869e+000
0	 1.399969999982150e+000	 5.466639999981864e+000	 9.645387630757595e+000
0	 1.399969999982150e+000	 5.533309999982382e+000	 9.656686459361604e+000
0	 1.399969999982150e+000	 5.599979999983600e+000	 9.667651976119780e+000
0	 1.399969999982150e+000	 5.666649999985418e+000	 9.678237528317984e+000
0	 1.399969999982150e+000	 5.733319999987733e+000	 9.688396463242071e+000
0	 1.399969999982150e+000	 5.799989999990447e+000	 9.698082128177916e+000
0	 1.399969999982150e+000	 5.866659999993465e+000	 9.707247870411342e+000
0	 1.399969999982150e+000	 5.933329999996682e+000	 9.715847037228224e+000
0	 1.399969999982150e+000	 5.999999999999999e+000	 9.723832975914379e+000
0	 1.466639999981867e+000	 5.333299999983335e+000	 9.642114287159284e+000
0	 1.466639999981867e+000	 5.399969999982150e+000	 9.652746636531610e+000
0	 1.466639999981867e+000	 5.466639999981866e+000	 9.663387968172803e+000
0	 1.466639999981866e+000	 5.533309999982383e+000	 9.673947467328780e+000
0	 1.466639999981866e+000	 5.599979999983599e+000	 9.684334319245469e+000
0	 1.466639999981867e+000	 5.666649999985417e+000	 9.694457709168750e+000
0	 1.466639999981867e+000	 5.733319999987733e+000	 9.704226822344536e+000
0	 1.466639999981866e+000	 5.799989999990450e+000	 9.713550844018736e+000
0	 1.466639999981866e+000	 5.866659999993467e+000	 9.722338959437233e+000
0	 1.466639999981867e+000	 5.933329999996683e+000	 9.730500353845899e+000
0	 1.466639999981867e+000	 6.000000000000001e+000	 9.737944212490623e+000
0	 1.533309999982383e+000	 5.333299999983333e+000	 9.662920604813664e+000
0	 1.533309999982383e+000	 5.399969999982150e+000	 9.672503212620306e+000
0	 1.533309999982383e+000	 5.466639999981866e+000	 9.682279969250175e+000
0	 1.533309999982383e+000	 5.533309999982384e+000	 9.692124814400327e+000
0	 1.533309999982383e+000	 5.599979999983599e+000	 9.701911687767844e+000
0	 1.533309999982383e+000	 5.666649999985416e+000	 9.711514529049797e+000
0	 1.533309999982383e+000	 5.733319999987732e+000	 9.720807277943244e+000
0	 1.533309999982383e+000	 5.799989999990449e+000	 9.729663874145228e+000
0	 1.533309999982383e+000	 5.866659999993467e+000	 9.737958257352824e+000
0	 1.533309999982383e+000	 5.933329999996683e+000	 9.745564367263066e+000
0	 1.533309999982383e+000	 6.000000000000000e+000	 9.752356143572989e+000
0	 1.599979999983600e+000	 5.333299999983335e+000	 9.684285017986175e+000
0	 1.599979999983600e+000	 5.399969999982149e+000	 9.692934327201172e+000
0	 1.599979999983600e+000	 5.466639999981866e+000	 9.701905224083536e+000
0	 1.599979999983600e+000	 5.533309999982384e+000	 9.711045319272589e+000
0	 1.599979999983600e+000	 5.599979999983600e+000	 9.720202223407709e+000
0	 1.599979999983599e+000	 5.666649999985416e+000	 9.729223547128227e+000
0	 1.599979999983600e+000	 5.733319999987732e+000	 9.737956901073490e+000
0	 1.599979999983600e+000	 5.799989999990450e+000	 9.746249895882819e+000
0	 1.599979999983600e+000	 5.866659999993466e+000	 9.753950142195556e+000
0	 1.599979999983600e+000	 5.933329999996685e+000	 9.760905250651033e+000
0	 1.599979999983599e+000	 6.000000000000000e+000	 9.766962831888556e+000
0	 1.666649999985416e+000	 5.333299999983334e+000	 9.706096942831309e+000
0	 1.666649999985416e+000	 5.399969999982150e+000	 9.713902436187448e+000
0	 1.666649999985416e+000	 5.466639999981865e+000	 9.722105322766751e+000
0	 1.666649999985416e+000	 5.533309999982384e+000	 9.730535800641956e+000
0	 1.666649999985416e+000	 5.599979999983598e+000	 9.739024067885849e+000
0	 1.666649999985416e+000	 5.666649999985416e+000	 9.747400322571142e+000
0	 1.666649999985416e+000	 5.733319999987733e+000	 9.755494762770589e+000
0	 1.666649999985416e+000	 5.799989999990448e+000	 9.763137586556907e+000
0	 1.666649999985417e+000	 5.866659999993467e+000	 9.770158992002838e+000
0	 1.666649999985416e+000	 5.933329999996683e+000	 9.776389177181089e+000
0	 1.666649999985416e+000	 6.000000000000000e+000	 9.781658340164398e+000
0	 1.733319999987733e+000	 5.333299999983333e+000	 9.728245795503554e+000
0	 1.733319999987733e+000	 5.399969999982151e+000	 9.735269995492326e+000
0	 1.733319999987733e+000	 5.466639999981866e+000	 9.742721855393665e+000
0	 1.733319999987733e+000	 5.533309999982383e+000	 9.750423077204824e+000
0	 1.733319999987733e+000	 5.599979999983599e+000	 9.758195362923068e+000
0	 1.733319999987733e+000	 5.666649999985415e+000	 9.765860414545655e+000
0	 1.733319999987733e+000	 5.733319999987733e+000	 9.773239934069867e+000
0	 1.733319999987733e+000	 5.799989999990450e+000	 9.780155623492920e+000
0	 1.733319999987733e+000	 5.866659999993468e+000	 9.786429184812063e+000
0	 1.733319999987733e+000	 5.933329999996683e+000	 9.791882320024541e+000
0	 1.733319999987733e+000	 6.000000000000001e+000	 9.796336731127575e+000
0	 1.799989999990450e+000	 5.333299999983334e+000	 9.750620992157408e+000
0	 1.799989999990450e+000	 5.399969999982148e+000	 9.756899461029056e+000
0	 1.799989999990450e+000	 5.466639999981866e+000	 9.763596412058131e+000
0	 1.799989999990450e+000	 5.533309999982383e+000	 9.770533967657533e+000
0	 1.799989999990450e+000	 5.599979999983600e+000	 9.777534250240160e+000
0	 1.799989999990450e+000	 5.666649999985416e+000	 9.784419382218898e+000
0	 1.799989999990450e+000	 5.733319999987733e+000	 9.791011486006637e+000
0	 1.799989999990450e+000	 5.799989999990449e+000	 9.797132684016255e+000
0	 1.799989999990450e+000	 5.866659999993467e+000	 9.802605098660646e+000
0	 1.799989999990450e+000	 5.933329999996685e+000	 9.807250852352647e+000
0	 1.799989999990450e+000	 6.000000000000000e+000	 9.810892067505158e+000
0	 1.866659999993467e+000	 5.333299999983333e+000	 9.773111948947346e+000
0	 1.866659999993466e+000	 5.399969999982148e+000	 9.778653288710855e+000
0	 1.866659999993467e+000	 5.466639999981867e+000	 9.784570582854020e+000
0	 1.866659999993467e+000	 5.533309999982382e+000	 9.790695290696489e+000
0	 1.866659999993466e+000	 5.599979999983599e+000	 9.796858871557927e+000
0	 1.866659999993467e+000	 5.666649999985415e+000	 9.802892784757948e+000
0	 1.866659999993467e+000	 5.733319999987733e+000	 9.808628489616215e+000
0	 1.866659999993466e+000	 5.799989999990448e+000	 9.813897445452346e+000
0	 1.866659999993467e+000	 5.866659999993466e+000	 9.818531111585982e+000
0	 1.866659999993467e+000	 5.933329999996682e+000	 9.822360947336717e+000
0	 1.866659999993466e+000	 5.999999999999998e+000	 9.825218412024199e+000
0	 1.933329999996684e+000	 5.333299999983335e+000	 9.795608082027888e+000
0	 1.933329999996684e+000	 5.399969999982150e+000	 9.800393934450963e+000
0	 1.933329999996684e+000	 5.466639999981866e+000	 9.805485957875185e+000
0	 1.933329999996684e+000	 5.533309999982384e+000	 9.810733865018083e+000
0	 1.933329999996684e+000	 5.599979999983600e+000	 9.815987368597174e+000
0	 1.933329999996684e+000	 5.666649999985418e+000	 9.821096181329942e+000
0	 1.933329999996684e+000	 5.733319999987733e+000	 9.825910015933927e+000
0	 1.933329999996684e+000	 5.799989999990450e+000	 9.830278585126603e+000
0	 1.933329999996684e+000	 5.866659999993466e+000	 9.834051601625484e+000
0	 1.933329999996684e+000	 5.933329999996683e+000	 9.837078778148037e+000
0	 1.933329999996684e+000	 6.000000000000000e+000	 9.839209827411777e+000
0	 2.000000000000000e+000	 5.333299999983333e+000	 9.817998807553510e+000
0	 2.000000000000000e+000	 5.399969999982149e+000	 9.821983854162601e+000
0	 2.000000000000000e+000	 5.466639999981868e+000	 9.826184127215500e+000
0	 2.000000000000000e+000	 5.533309999982383e+000	 9.830476509318695e+000
0	 2.000000000000000e+000	 5.599979999983600e+000	 9.834737883078704e+000
0	 2.000000000000000e+000	 5.666649999985416e+000	 9.838845131102005e+000
0	 2.000000000000000e+000	 5.733319999987732e+000	 9.842675135995082e+000
0	 2.000000000000000e+000	 5.799989999990449e+000	 9.846104780364433e+000
0	 1.999999999999999e+000	 5.866659999993466e+000	 9.849010946816547e+000
0	 2.000000000000000e+000	 5.933329999996682e+000	 9.851270517957893e+000
0	 2.000000000000000e+000	 6.000000000000000e+000	 9.852760376394928e+000
0	 1.333299999983334e+000	 6.000000000000000e+000	 9.710128371117200e+000
0	 1.333299999983334e+000	 6.066670000003319e+000	 9.718272827794403e+000
0	 1.333299999983334e+000	 6.133340000006530e+000	 9.726423698505341e+000
0	 1.333299999983334e+000	 6.200010000009551e+000	 9.734572783037500e+000
0	 1.333299999983334e+000	 6.266680000012268e+000	 9.742711881178323e+000
0	 1.333299999983334e+000	 6.333350000014583e+000	 9.750832792715263e+000
0	 1.333299999983334e+000	 6.400020000016402e+000	 9.758927317435777e+000
0	 1.333299999983334e+000	 6.466690000017617e+000	 9.766987255127322e+000
0	 1.333299999983334e+000	 6.533360000018134e+000	 9.775004405577359e+000
0	 1.333299999983334e+000	 6.600030000017851e+000	 9.782970568573321e+000
0	 1.333299999983334e+000	 6.666700000016665e+000	 9.790877543902676e+000
0	 1.399969999982150e+000	 5.999999999999999e+000	 9.723832975914379e+000
0	 1.399969999982150e+000	 6.066670000003315e+000	 9.731452512139279e+000
0	 1.399969999982150e+000	 6.133340000006533e+000	 9.738994652576006e+000
0	 1.399969999982150e+000	 6.200010000009551e+000	 9.746476016015881e+000
0	 1.399969999982150e+000	 6.266680000012269e+000	 9.753913221250206e+000
0	 1.399969999982150e+000	 6.333350000014585e+000	 9.761322887070309e+000
0	 1.399969999982150e+000	 6.400020000016401e+000	 9.768721632267472e+000
0	 1.399969999982150e+000	 6.466690000017618e+000	 9.776126075633025e+000
0	 1.399969999982150e+000	 6.533360000018132e+000	 9.783552835958277e+000
0	 1.399969999982150e+000	 6.600030000017851e+000	 9.791018532034538e+000
0	 1.399969999982150e+000	 6.666700000016667e+000	 9.798539782653112e+000
0	 1.466639999981867e+000	 6.000000000000001e+000	 9.737944212490623e+000
0	 1.466639999981866e+000	 6.066670000003318e+000	 9.744922721016467e+000
0	 1.466639999981866e+000	 6.133340000006535e+000	 9.751773589440287e+000
0	 1.466639999981866e+000	 6.200010000009550e+000	 9.758534289565665e+000
0	 1.466639999981867e+000	 6.266680000012265e+000	 9.765242293196167e+000
0	 1.466639999981866e+000	 6.333350000014585e+000	 9.771935072135392e+000
0	 1.466639999981866e+000	 6.400020000016399e+000	 9.778650098186903e+000
0	 1.466639999981866e+000	 6.466690000017616e+000	 9.785424843154290e+000
0	 1.466639999981867e+000	 6.533360000018135e+000	 9.792296778841152e+000
0	 1.466639999981867e+000	 6.600030000017850e+000	 9.799303377051052e+000
0	 1.466639999981867e+000	 6.666700000016667e+000	 9.806482109587588e+000
0	 1.533309999982383e+000	 6.000000000000000e+000	 9.752356143572989e+000
0	 1.533309999982383e+000	 6.066670000003318e+000	 9.758606259789806e+000
0	 1.533309999982383e+000	 6.133340000006530e+000	 9.764707668838918e+000
0	 1.533309999982383e+000	 6.200010000009550e+000	 9.770714729544546e+000
0	 1.533309999982383e+000	 6.266680000012267e+000	 9.776681800730961e+000
0	 1.533309999982383e+000	 6.333350000014584e+000	 9.782663241222478e+000
0	 1.533309999982383e+000	 6.400020000016400e+000	 9.788713409843300e+000
0	 1.533309999982383e+000	 6.466690000017615e+000	 9.794886665417758e+000
0	 1.533309999982383e+000	 6.533360000018136e+000	 9.801237366770099e+000
0	 1.533309999982383e+000	 6.600030000017851e+000	 9.807819872724600e+000
0	 1.533309999982383e+000	 6.666700000016665e+000	 9.814688542105538e+000
0	 1.599979999983599e+000	 6.000000000000000e+000	 9.766962831888556e+000
0	 1.599979999983600e+000	 6.066670000003319e+000	 9.772425933823168e+000
0	 1.599979999983600e+000	 6.133340000006534e+000	 9.777744050512595e+000
0	 1.599979999983600e+000	 6.200010000009550e+000	 9.782984461810214e+000
0	 1.599979999983599e+000	 6.266680000012266e+000	 9.788214447569384e+000
0	 1.599979999983600e+000	 6.333350000014583e+000	 9.793501287643492e+000
0	 1.599979999983600e+000	 6.400020000016402e+000	 9.798912261885921e+000
0	 1.599979999983600e+000	 6.466690000017618e+000	 9.804514650150033e+000
0	 1.599979999983599e+000	 6.533360000018133e+000	 9.810375732289213e+000
0	 1.599979999983600e+000	 6.600030000017849e+000	 9.816562788156855e+000
0	 1.599979999983599e+000	 6.666700000016665e+000	 9.823143097606330e+000
0	 1.666649999985416e+000	 6.000000000000000e+000	 9.781658340164398e+000
0	 1.666649999985417e+000	 6.066670000003318e+000	 9.786304548480370e+000
0	 1.666649999985417e+000	 6.133340000006535e+000	 9.790829894202057e+000
0	 1.666649999985416e+000	 6.200010000009550e+000	 9.795310612220368e+000
0	 1.666649999985417e+000	 6.266680000012268e+000	 9.799822937426203e+000
0	 1.666649999985416e+000	 6.333350000014584e+000	 9.804443104710432e+000
0	 1.666649999985416e+000	 6.400020000016402e+000	 9.809247348963984e+000
0	 1.666649999985416e+000	 6.466690000017618e+000	 9.814311905077744e+000
0	 1.666649999985416e+000	 6.533360000018134e+000	 9.819713007942632e+000
0	 1.666649999985417e+000	 6.600030000017852e+000	 9.825526892449537e+000
0	 1.666649999985416e+000	 6.666700000016665e+000	 9.831829793489376e+000
0	 1.733319999987733e+000	 6.000000000000001e+000	 9.796336731127575e+000
0	 1.733319999987733e+000	 6.066670000003316e+000	 9.800164909125249e+000
0	 1.733319999987733e+000	 6.133340000006531e+000	 9.803912359648015e+000
0	 1.733319999987733e+000	 6.200010000009552e+000	 9.807660306632711e+000
0	 1.733319999987733e+000	 6.266680000012268e+000	 9.811489974016176e+000
0	 1.733319999987733e+000	 6.333350000014583e+000	 9.815482585735241e+000
0	 1.733319999987733e+000	 6.400020000016398e+000	 9.819719365726746e+000
0	 1.733319999987733e+000	 6.466690000017615e+000	 9.824281537927522e+000
0	 1.733319999987733e+000	 6.533360000018136e+000	 9.829250326274440e+000
0	 1.733319999987733e+000	 6.600030000017851e+000	 9.834706954704348e+000
0	 1.733319999987733e+000	 6.666700000016665e+000	 9.840732647154086e+000
0	 1.799989999990450e+000	 6.000000000000000e+000	 9.810892067505158e+000
0	 1.799989999990450e+000	 6.066670000003319e+000	 9.813929821121649e+000
0	 1.799989999990450e+000	 6.133340000006533e+000	 9.816938606591178e+000
0	 1.799989999990450e+000	 6.200010000009552e+000	 9.820000670904937e+000
0	 1.799989999990450e+000	 6.266680000012267e+000	 9.823198261054078e+000
0	 1.799989999990450e+000	 6.333350000014584e+000	 9.826613624029859e+000
0	 1.799989999990450e+000	 6.400020000016401e+000	 9.830329006823421e+000
0	 1.799989999990450e+000	 6.466690000017616e+000	 9.834426656425990e+000
0	 1.799989999990450e+000	 6.533360000018134e+000	 9.838988819828787e+000
0	 1.799989999990450e+000	 6.600030000017851e+000	 9.844097744022976e+000
0	 1.799989999990450e+000	 6.666700000016666e+000	 9.849835675999827e+000
0	 1.866659999993466e+000	 5.999999999999998e+000	 9.825218412024199e+000
0	 1.866659999993467e+000	 6.066670000003315e+000	 9.827522089833412e+000
0	 1.866659999993467e+000	 6.133340000006532e+000	 9.829855794772259e+000
0	 1.866659999993467e+000	 6.200010000009551e+000	 9.832298830894704e+000
0	 1.866659999993467e+000	 6.266680000012268e+000	 9.834930502254707e+000
0	 1.866659999993467e+000	 6.333350000014583e+000	 9.837830112906230e+000
0	 1.866659999993467e+000	 6.400020000016403e+000	 9.841076966903255e+000
0	 1.866659999993467e+000	 6.466690000017616e+000	 9.844750368299769e+000
0	 1.866659999993467e+000	 6.533360000018133e+000	 9.848929621149738e+000
0	 1.866659999993466e+000	 6.600030000017850e+000	 9.853694029507155e+000
0	 1.866659999993467e+000	 6.666700000016665e+000	 9.859122897426024e+000
0	 1.933329999996684e+000	 6.000000000000000e+000	 9.839209827411777e+000
0	 1.933329999996684e+000	 6.066670000003315e+000	 9.840864520624368e+000
0	 1.933329999996683e+000	 6.133340000006533e+000	 9.842611083931963e+000
0	 1.933329999996684e+000	 6.200010000009551e+000	 9.844521912459722e+000
0	 1.933329999996683e+000	 6.266680000012266e+000	 9.846669401332783e+000
0	 1.933329999996684e+000	 6.333350000014586e+000	 9.849125945676317e+000
0	 1.933329999996684e+000	 6.400020000016400e+000	 9.851963940615486e+000
0	 1.933329999996684e+000	 6.466690000017617e+000	 9.855255781275467e+000
0	 1.933329999996684e+000	 6.533360000018135e+000	 9.859073862781438e+000
0	 1.933329999996684e+000	 6.600030000017852e+000	 9.863490580258562e+000
0	 1.933329999996684e+000	 6.666700000016668e+000	 9.868578328832061e+000
0	 2.000000000000000e+000	 6.000000000000000e+000	 9.852760376394928e+000
0	 2.000000000000000e+000	 6.066670000003317e+000	 9.853879918858349e+000
0	 2.000000000000000e+000	 6.133340000006534e+000	 9.855151633811005e+000
0	 2.000000000000000e+000	 6.200010000009550e+000	 9.856637041457661e+000
0	 1.999999999999999e+000	 6.266680000012266e+000	 9.858397662003094e+000
0	 2.000000000000000e+000	 6.333350000014585e+000	 9.860495015652058e+000
0	 2.000000000000000e+000	 6.400020000016401e+000	 9.862990622609338e+000
0	 2.000000000000000e+000	 6.466690000017618e+000	 9.865946003079715e+000
0	 2.000000000000000e+000	 6.533360000018136e+000	 9.869422677267981e+000
0	 2.000000000000000e+000	 6.600030000017848e+000	 9.873482165378924e+000
0	 2.000000000000000e+000	 6.666700000016668e+000	 9.878185987617339e+000
0	 1.333299999983334e+000	 6.666700000016665e+000	 9.790877543902679e+000
0	 1.333299999983334e+000	 6.733360000014534e+000	 9.798638389392561e+000
0	 1.333299999983334e+000	 6.800020000011599e+000	 9.806181738570110e+000
0	 1.333299999983334e+000	 6.866680000008066e+000	 9.813519211358347e+000
0	 1.333299999983334e+000	 6.933340000004134e+000	 9.820662427680299e+000
0	 1.333299999983334e+000	 6.999999999999999e+000	 9.827623007458978e+000
0	 1.333299999983334e+000	 7.066659999995867e+000	 9.834412570617435e+000
0	 1.333299999983334e+000	 7.133319999991935e+000	 9.841042737078679e+000
0	 1.333299999983334e+000	 7.199979999988400e+000	 9.847525126765776e+000
0	 1.333299999983334e+000	 7.266639999985467e+000	 9.853871359601758e+000
0	 1.333299999983334e+000	 7.333299999983336e+000	 9.860093055509669e+000
0	 1.399969999982150e+000	 6.666700000016667e+000	 9.798539782653112e+000
0	 1.399969999982150e+000	 6.733360000014532e+000	 9.806007187483528e+000
0	 1.399969999982150e+000	 6.800020000011600e+000	 9.813302760502578e+000
0	 1.399969999982150e+000	 6.866680000008066e+000	 9.820426842577039e+000
0	 1.399969999982150e+000	 6.933340000004133e+000	 9.827379774573725e+000
0	 1.399969999982150e+000	 7.000000000000000e+000	 9.834161897359442e+000
0	 1.399969999982150e+000	 7.066659999995866e+000	 9.840773551800984e+000
0	 1.399969999982150e+000	 7.133319999991933e+000	 9.847215078765158e+000
0	 1.399969999982150e+000	 7.199979999988401e+000	 9.853486819118793e+000
0	 1.399969999982150e+000	 7.266639999985465e+000	 9.859589113728722e+000
0	 1.399969999982150e+000	 7.333299999983334e+000	 9.865522303461740e+000
0	 1.466639999981867e+000	 6.666700000016667e+000	 9.806482109587590e+000
0	 1.466639999981866e+000	 6.733360000014534e+000	 9.813690724995157e+000
0	 1.466639999981867e+000	 6.800020000011599e+000	 9.820758104950910e+000
0	 1.466639999981866e+000	 6.866680000008066e+000	 9.827675146340697e+000
0	 1.466639999981866e+000	 6.933340000004134e+000	 9.834432746050368e+000
0	 1.466639999981866e+000	 6.999999999999999e+000	 9.841021800965756e+000
0	 1.466639999981866e+000	 7.066659999995866e+000	 9.847433207972731e+000
0	 1.466639999981866e+000	 7.133319999991934e+000	 9.853657863957130e+000
0	 1.466639999981866e+000	 7.199979999988401e+000	 9.859686665804816e+000
0	 1.466639999981867e+000	 7.266639999985466e+000	 9.865510510401679e+000
0	 1.466639999981867e+000	 7.333299999983336e+000	 9.871120294633577e+000
0	 1.533309999982383e+000	 6.666700000016665e+000	 9.814688542105538e+000
0	 1.533309999982383e+000	 6.733360000014534e+000	 9.821661192347756e+000
0	 1.533309999982383e+000	 6.800020000011601e+000	 9.828510369179146e+000
0	 1.533309999982383e+000	 6.866680000008064e+000	 9.835219360579842e+000
0	 1.533309999982383e+000	 6.933340000004133e+000	 9.841771454530006e+000
0	 1.533309999982383e+000	 7.000000000000001e+000	 9.848149939009797e+000
0	 1.533309999982383e+000	 7.066659999995868e+000	 9.854338101999385e+000
0	 1.533309999982383e+000	 7.133319999991935e+000	 9.860319231478940e+000
0	 1.533309999982383e+000	 7.199979999988402e+000	 9.866076615428627e+000
0	 1.533309999982383e+000	 7.266639999985466e+000	 9.871593541828641e+000
0	 1.533309999982383e+000	 7.333299999983335e+000	 9.876853298659169e+000
0	 1.599979999983599e+000	 6.666700000016665e+000	 9.823143097606330e+000
0	 1.599979999983600e+000	 6.733360000014532e+000	 9.829890779961668e+000
0	 1.599979999983600e+000	 6.800020000011601e+000	 9.836522150451296e+000
0	 1.599979999983599e+000	 6.866680000008064e+000	 9.843014723224986e+000
0	 1.599979999983600e+000	 6.933340000004133e+000	 9.849346012432445e+000
0	 1.599979999983600e+000	 7.000000000000000e+000	 9.855493532223418e+000
0	 1.599979999983599e+000	 7.066659999995867e+000	 9.861434796747664e+000
0	 1.599979999983599e+000	 7.133319999991931e+000	 9.867147320154952e+000
0	 1.599979999983600e+000	 7.199979999988400e+000	 9.872608616595008e+000
0	 1.599979999983600e+000	 7.266639999985469e+000	 9.877796200217629e+000
0	 1.599979999983600e+000	 7.333299999983336e+000	 9.882687585172574e+000
0	 1.666649999985416e+000	 6.666700000016665e+000	 9.831829793489376e+000
0	 1.666649999985416e+000	 6.733360000014533e+000	 9.838351678257171e+000
0	 1.666649999985416e+000	 6.800020000011599e+000	 9.844756046031389e+000
0	 1.666649999985416e+000	 6.866680000008067e+000	 9.851016472206622e+000
0	 1.666649999985416e+000	 6.933340000004131e+000	 9.857106532177440e+000
0	 1.666649999985417e+000	 6.999999999999999e+000	 9.862999801338470e+000
0	 1.666649999985416e+000	 7.066659999995867e+000	 9.868669855084288e+000
0	 1.666649999985416e+000	 7.133319999991934e+000	 9.874090268809516e+000
0	 1.666649999985417e+000	 7.199979999988401e+000	 9.879234617908756e+000
0	 1.666649999985416e+000	 7.266639999985467e+000	 9.884076477776620e+000
0	 1.666649999985416e+000	 7.333299999983333e+000	 9.888589423807762e+000
0	 1.733319999987733e+000	 6.666700000016665e+000	 9.840732647154086e+000
0	 1.733319999987733e+000	 6.733360000014534e+000	 9.847016077654605e+000
0	 1.733319999987733e+000	 6.800020000011600e+000	 9.853174653183425e+000
0	 1.733319999987733e+000	 6.866680000008067e+000	 9.859179845455273e+000
0	 1.733319999987733e+000	 6.933340000004132e+000	 9.865003126184822e+000
0	 1.733319999987733e+000	 6.999999999999998e+000	 9.870615967086820e+000
0	 1.733319999987733e+000	 7.066659999995868e+000	 9.875989839875963e+000
0	 1.733319999987733e+000	 7.133319999991935e+000	 9.881096216266997e+000
0	 1.733319999987733e+000	 7.199979999988400e+000	 9.885906567974642e+000
0	 1.733319999987733e+000	 7.266639999985467e+000	 9.890392366713645e+000
0	 1.733319999987733e+000	 7.333299999983335e+000	 9.894525084198765e+000
0	 1.799989999990450e+000	 6.666700000016666e+000	 9.849835675999829e+000
0	 1.799989999990450e+000	 6.733360000014534e+000	 9.855856168574269e+000
0	 1.799989999990450e+000	 6.800020000011600e+000	 9.861740569171440e+000
0	 1.799989999990450e+000	 6.866680000008068e+000	 9.867460080901438e+000
0	 1.799989999990450e+000	 6.933340000004134e+000	 9.872985906874357e+000
0	 1.799989999990450e+000	 7.000000000000001e+000	 9.878289250200302e+000
0	 1.799989999990450e+000	 7.066659999995868e+000	 9.883341313989389e+000
0	 1.799989999990450e+000	 7.133319999991935e+000	 9.888113301351746e+000
0	 1.799989999990450e+000	 7.199979999988400e+000	 9.892576415397468e+000
0	 1.799989999990450e+000	 7.266639999985467e+000	 9.896701859236700e+000
0	 1.799989999990450e+000	 7.333299999983335e+000	 9.900460835979581e+000
0	 1.866659999993467e+000	 6.666700000016665e+000	 9.859122897426023e+000
0	 1.866659999993467e+000	 6.733360000014532e+000	 9.864844141436491e+000
0	 1.866659999993467e+000	 6.800020000011601e+000	 9.870416391259443e+000
0	 1.866659999993467e+000	 6.866680000008066e+000	 9.875812416475647e+000
0	 1.866659999993467e+000	 6.933340000004133e+000	 9.881004986665838e+000
0	 1.866659999993467e+000	 6.999999999999998e+000	 9.885966871410815e+000
0	 1.866659999993467e+000	 7.066659999995866e+000	 9.890670840291307e+000
0	 1.866659999993467e+000	 7.133319999991935e+000	 9.895089662888116e+000
0	 1.866659999993467e+000	 7.199979999988400e+000	 9.899196108782004e+000
0	 1.866659999993467e+000	 7.266639999985466e+000	 9.902962947553776e+000
0	 1.866659999993467e+000	 7.333299999983333e+000	 9.906362948784217e+000
0	 1.933329999996684e+000	 6.666700000016668e+000	 9.868578328832061e+000
0	 1.933329999996683e+000	 6.733360000014531e+000	 9.873952186661562e+000
0	 1.933329999996684e+000	 6.800020000011601e+000	 9.879164716711447e+000
0	 1.933329999996684e+000	 6.866680000008067e+000	 9.884192090108382e+000
0	 1.933329999996684e+000	 6.933340000004133e+000	 9.889010477979072e+000
0	 1.933329999996684e+000	 7.000000000000000e+000	 9.893596051450164e+000
0	 1.933329999996683e+000	 7.066659999995864e+000	 9.897924981648400e+000
0	 1.933329999996684e+000	 7.133319999991936e+000	 9.901973439700466e+000
0	 1.933329999996684e+000	 7.199979999988401e+000	 9.905717596733055e+000
0	 1.933329999996684e+000	 7.266639999985467e+000	 9.909133623872883e+000
0	 1.933329999996684e+000	 7.333299999983332e+000	 9.912197692246684e+000
0	 2.000000000000000e+000	 6.666700000016668e+000	 9.878185987617338e+000
0	 2.000000000000000e+000	 6.733360000014532e+000	 9.883152494669831e+000
0	 2.000000000000000e+000	 6.800020000011601e+000	 9.887948142791492e+000
0	 2.000000000000000e+000	 6.866680000008068e+000	 9.892554339730197e+000
0	 2.000000000000000e+000	 6.933340000004133e+000	 9.896952493233817e+000
0	 2.000000000000000e+000	 6.999999999999999e+000	 9.901124011050259e+000
0	 2.000000000000000e+000	 7.066659999995867e+000	 9.905050300927398e+000
0	 2.000000000000000e+000	 7.133319999991933e+000	 9.908712770613132e+000
0	 2.000000000000000e+000	 7.199979999988401e+000	 9.912092827855378e+000
0	 2.000000000000000e+000	 7.266639999985467e+000	 9.915171880402028e+000
0	 2.000000000000000e+000	 7.333299999983335e+000	 9.917931336000999e+000
0	 1.333299999983334e+000	 7.333299999983336e+000	 9.860093055509667e+000
0	 1.333299999983334e+000	 7.399969999982149e+000	 9.866206235374337e+000
0	 1.333299999983334e+000	 7.466639999981866e+000	 9.872215260055670e+000
0	 1.333299999983334e+000	 7.533309999982384e+000	 9.878117033202091e+000
0	 1.333299999983334e+000	 7.599979999983600e+000	 9.883908458462006e+000
0	 1.333299999983334e+000	 7.666649999985415e+000	 9.889586439483827e+000
0	 1.333299999983334e+000	 7.733319999987733e+000	 9.895147879915959e+000
0	 1.333299999983334e+000	 7.799989999990449e+000	 9.900589683406800e+000
0	 1.333299999983334e+000	 7.866659999993466e+000	 9.905908753604747e+000
0	 1.333299999983334e+000	 7.933329999996683e+000	 9.911101994158212e+000
0	 1.333299999983334e+000	 8.000000000000000e+000	 9.916166308715580e+000
0	 1.399969999982150e+000	 7.333299999983334e+000	 9.865522303461740e+000
0	 1.399969999982150e+000	 7.399969999982150e+000	 9.871317106173448e+000
0	 1.399969999982150e+000	 7.466639999981867e+000	 9.877003776376647e+000
0	 1.399969999982150e+000	 7.533309999982385e+000	 9.882584592125179e+000
0	 1.399969999982150e+000	 7.599979999983598e+000	 9.888061831472800e+000
0	 1.399969999982150e+000	 7.666649999985416e+000	 9.893437772473346e+000
0	 1.399969999982150e+000	 7.733319999987733e+000	 9.898714693180603e+000
0	 1.399969999982150e+000	 7.799989999990451e+000	 9.903894871648367e+000
0	 1.399969999982150e+000	 7.866659999993467e+000	 9.908980585930442e+000
0	 1.399969999982150e+000	 7.933329999996682e+000	 9.913974114080608e+000
0	 1.399969999982150e+000	 7.999999999999999e+000	 9.918877734152664e+000
0	 1.466639999981867e+000	 7.333299999983336e+000	 9.871120294633577e+000
0	 1.466639999981866e+000	 7.399969999982151e+000	 9.876566325115823e+000
0	 1.466639999981867e+000	 7.466639999981866e+000	 9.881907859625251e+000
0	 1.466639999981866e+000	 7.533309999982383e+000	 9.887151696911385e+000
0	 1.466639999981866e+000	 7.599979999983600e+000	 9.892304635723701e+000
0	 1.466639999981866e+000	 7.666649999985419e+000	 9.897373474811673e+000
0	 1.466639999981866e+000	 7.733319999987731e+000	 9.902365012924815e+000
0	 1.466639999981867e+000	 7.799989999990449e+000	 9.907286048812596e+000
0	 1.466639999981866e+000	 7.866659999993466e+000	 9.912143381224521e+000
0	 1.466639999981867e+000	 7.933329999996684e+000	 9.916943808910069e+000
0	 1.466639999981866e+000	 8.000000000000000e+000	 9.921694130618706e+000
0	 1.533309999982383e+000	 7.333299999983335e+000	 9.876853298659167e+000
0	 1.533309999982383e+000	 7.399969999982148e+000	 9.881928899534218e+000
0	 1.533309999982383e+000	 7.466639999981864e+000	 9.886909938737119e+000
0	 1.533309999982383e+000	 7.533309999982384e+000	 9.891806882003356e+000
0	 1.533309999982383e+000	 7.599979999983599e+000	 9.896630195068406e+000
0	 1.533309999982383e+000	 7.666649999985414e+000	 9.901390343667750e+000
0	 1.533309999982383e+000	 7.733319999987733e+000	 9.906097793536866e+000
0	 1.533309999982383e+000	 7.799989999990449e+000	 9.910763010411229e+000
0	 1.533309999982383e+000	 7.866659999993468e+000	 9.915396460026329e+000
0	 1.533309999982383e+000	 7.933329999996682e+000	 9.920008608117618e+000
0	 1.533309999982383e+000	 8.000000000000000e+000	 9.924609920420567e+000
0	 1.599979999983600e+000	 7.333299999983336e+000	 9.882687585172574e+000
0	 1.599979999983600e+000	 7.399969999982152e+000	 9.887379836761403e+000
0	 1.599979999983600e+000	 7.466639999981867e+000	 9.891992442647860e+000
0	 1.599979999983600e+000	 7.533309999982383e+000	 9.896538681843676e+000
0	 1.599979999983600e+000	 7.599979999983600e+000	 9.901031833360651e+000
0	 1.599979999983599e+000	 7.666649999985414e+000	 9.905485176210513e+000
0	 1.599979999983600e+000	 7.733319999987733e+000	 9.909911989405050e+000
0	 1.599979999983600e+000	 7.799989999990450e+000	 9.914325551956019e+000
0	 1.599979999983600e+000	 7.866659999993468e+000	 9.918739142875161e+000
0	 1.599979999983600e+000	 7.933329999996683e+000	 9.923166041174252e+000
0	 1.599979999983600e+000	 8.000000000000000e+000	 9.927619525865056e+000
0	 1.666649999985416e+000	 7.333299999983333e+000	 9.888589423807758e+000
0	 1.666649999985416e+000	 7.399969999982151e+000	 9.892894144130144e+000
0	 1.666649999985416e+000	 7.466639999981865e+000	 9.897137800293100e+000
0	 1.666649999985416e+000	 7.533309999982385e+000	 9.901335630874995e+000
0	 1.666649999985417e+000	 7.599979999983598e+000	 9.905502874454143e+000
0	 1.666649999985416e+000	 7.666649999985418e+000	 9.909654769608910e+000
0	 1.666649999985417e+000	 7.733319999987733e+000	 9.913806554917645e+000
0	 1.666649999985416e+000	 7.799989999990450e+000	 9.917973468958671e+000
0	 1.666649999985416e+000	 7.866659999993466e+000	 9.922170750310341e+000
0	 1.666649999985417e+000	 7.933329999996684e+000	 9.926413637551013e+000
0	 1.666649999985416e+000	 8.000000000000000e+000	 9.930717369259002e+000
0	 1.733319999987733e+000	 7.333299999983335e+000	 9.894525084198765e+000
0	 1.733319999987733e+000	 7.399969999982150e+000	 9.898446828973185e+000
0	 1.733319999987733e+000	 7.466639999981866e+000	 9.902328440608480e+000
0	 1.733319999987733e+000	 7.533309999982383e+000	 9.906186263539880e+000
0	 1.733319999987733e+000	 7.599979999983598e+000	 9.910036642202607e+000
0	 1.733319999987733e+000	 7.666649999985417e+000	 9.913895921031882e+000
0	 1.733319999987733e+000	 7.733319999987733e+000	 9.917780444462915e+000
0	 1.733319999987733e+000	 7.799989999990450e+000	 9.921706556930952e+000
0	 1.733319999987733e+000	 7.866659999993465e+000	 9.925690602871191e+000
0	 1.733319999987733e+000	 7.933329999996684e+000	 9.929748926718913e+000
0	 1.733319999987733e+000	 7.999999999999999e+000	 9.933897872909277e+000
0	 1.799989999990450e+000	 7.333299999983335e+000	 9.900460835979580e+000
0	 1.799989999990450e+000	 7.399969999982150e+000	 9.904012898623295e+000
0	 1.799989999990450e+000	 7.466639999981866e+000	 9.907546792529629e+000
0	 1.799989999990450e+000	 7.533309999982384e+000	 9.911079114280991e+000
0	 1.799989999990450e+000	 7.599979999983599e+000	 9.914626460459756e+000
0	 1.799989999990450e+000	 7.666649999985416e+000	 9.918205427648351e+000
0	 1.799989999990450e+000	 7.733319999987732e+000	 9.921832612429167e+000
0	 1.799989999990450e+000	 7.799989999990450e+000	 9.925524611384605e+000
0	 1.799989999990450e+000	 7.866659999993468e+000	 9.929298021097065e+000
0	 1.799989999990450e+000	 7.933329999996683e+000	 9.933169438148942e+000
0	 1.799989999990450e+000	 8.000000000000002e+000	 9.937155459122677e+000
0	 1.866659999993467e+000	 7.333299999983333e+000	 9.906362948784214e+000
0	 1.866659999993467e+000	 7.399969999982151e+000	 9.909567360413226e+000
0	 1.866659999993467e+000	 7.466639999981866e+000	 9.912775284992168e+000
0	 1.866659999993467e+000	 7.533309999982383e+000	 9.916002717540893e+000
0	 1.866659999993466e+000	 7.599979999983599e+000	 9.919265653079300e+000
0	 1.866659999993467e+000	 7.666649999985416e+000	 9.922580086627265e+000
0	 1.866659999993467e+000	 7.733319999987733e+000	 9.925962013204662e+000
0	 1.866659999993466e+000	 7.799989999990448e+000	 9.929427427831362e+000
0	 1.866659999993467e+000	 7.866659999993466e+000	 9.932992325527227e+000
0	 1.866659999993467e+000	 7.933329999996684e+000	 9.936672701312165e+000
0	 1.866659999993467e+000	 7.999999999999998e+000	 9.940484550206037e+000
0	 1.933329999996684e+000	 7.333299999983332e+000	 9.912197692246684e+000
0	 1.933329999996684e+000	 7.399969999982151e+000	 9.915085221675733e+000
0	 1.933329999996684e+000	 7.466639999981867e+000	 9.917996346931700e+000
0	 1.933329999996684e+000	 7.533309999982384e+000	 9.920945607762226e+000
0	 1.933329999996684e+000	 7.599979999983602e+000	 9.923947543914965e+000
0	 1.933329999996684e+000	 7.666649999985416e+000	 9.927016695137581e+000
0	 1.933329999996684e+000	 7.733319999987734e+000	 9.930167601177681e+000
0	 1.933329999996684e+000	 7.799989999990451e+000	 9.933414801782948e+000
0	 1.933329999996684e+000	 7.866659999993467e+000	 9.936772836701028e+000
0	 1.933329999996684e+000	 7.933329999996685e+000	 9.940256245679565e+000
0	 1.933329999996683e+000	 8.000000000000000e+000	 9.943879568466203e+000
0	 2.000000000000000e+000	 7.333299999983335e+000	 9.917931336000997e+000
0	 2.000000000000000e+000	 7.399969999982151e+000	 9.920541489743567e+000
0	 2.000000000000000e+000	 7.466639999981867e+000	 9.923192407283862e+000
0	 2.000000000000000e+000	 7.533309999982384e+000	 9.925896319387583e+000
0	 2.000000000000000e+000	 7.599979999983599e+000	 9.928665456820458e+000
0	 2.000000000000000e+000	 7.666649999985416e+000	 9.931512050348196e+000
0	 2.000000000000000e+000	 7.733319999987733e+000	 9.934448330736505e+000
0	 2.000000000000000e+000	 7.799989999990449e+000	 9.937486528751130e+000
0	 2.000000000000000e+000	 7.866659999993466e+000	 9.940638875157767e+000
0	 2.000000000000000e+000	 7.933329999996684e+000	 9.943917600722150e+000
0	 2.000000000000000e+000	 7.999999999999999e+000	 9.947334936209995e+000
0	 1.333299999983334e+000	 8.000000000000000e+000	 9.916166308715580e+000
0	 1.333299999983334e+000	 8.066670000003317e+000	 9.921086168583811e+000
0	 1.333299999983334e+000	 8.133340000006532e+000	 9.925853289191918e+000
0	 1.333299999983334e+000	 8.200010000009550e+000	 9.930475440371465e+000
0	 1.333299999983334e+000	 8.266680000012268e+000	 9.934960391954025e+000
0	 1.333299999983334e+000	 8.333350000014587e+000	 9.939315913771102e+000
0	 1.333299999983334e+000	 8.400020000016399e+000	 9.943549775654285e+000
0	 1.333299999983334e+000	 8.466690000017618e+000	 9.947669747435104e+000
0	 1.333299999983334e+000	 8.533360000018135e+000	 9.951683598945090e+000
0	 1.333299999983334e+000	 8.600030000017851e+000	 9.955599100015812e+000
0	 1.333299999983334e+000	 8.666700000016666e+000	 9.959424020478778e+000
0	 1.399969999982150e+000	 7.999999999999999e+000	 9.918877734152664e+000
0	 1.399969999982150e+000	 8.066670000003315e+000	 9.923663167728426e+000
0	 1.399969999982150e+000	 8.133340000006530e+000	 9.928304160302718e+000
0	 1.399969999982150e+000	 8.200010000009547e+000	 9.932806025798872e+000
0	 1.399969999982150e+000	 8.266680000012268e+000	 9.937174078140233e+000
0	 1.399969999982150e+000	 8.333350000014583e+000	 9.941413631250136e+000
0	 1.399969999982150e+000	 8.400020000016399e+000	 9.945529999051887e+000
0	 1.399969999982150e+000	 8.466690000017616e+000	 9.949528495468814e+000
0	 1.399969999982150e+000	 8.533360000018131e+000	 9.953414434424259e+000
0	 1.399969999982150e+000	 8.600030000017849e+000	 9.957193129841524e+000
0	 1.399969999982150e+000	 8.666700000016668e+000	 9.960869895643951e+000
0	 1.466639999981866e+000	 8.000000000000000e+000	 9.921694130618706e+000
0	 1.466639999981866e+000	 8.066670000003317e+000	 9.926350838282058e+000
0	 1.466639999981866e+000	 8.133340000006534e+000	 9.930868054423248e+000
0	 1.466639999981867e+000	 8.200010000009552e+000	 9.935249023679207e+000
0	 1.466639999981867e+000	 8.266680000012267e+000	 9.939496990686807e+000
0	 1.466639999981866e+000	 8.333350000014585e+000	 9.943615200082917e+000
0	 1.466639999981866e+000	 8.400020000016401e+000	 9.947606896504452e+000
0	 1.466639999981866e+000	 8.466690000017618e+000	 9.951475324588259e+000
0	 1.466639999981867e+000	 8.533360000018135e+000	 9.955223728971239e+000
0	 1.466639999981866e+000	 8.600030000017849e+000	 9.958855354290252e+000
0	 1.466639999981866e+000	 8.666700000016666e+000	 9.962373445182173e+000
0	 1.533309999982383e+000	 8.000000000000000e+000	 9.924609920420567e+000
0	 1.533309999982383e+000	 8.066670000003315e+000	 9.929140161761291e+000
0	 1.533309999982383e+000	 8.133340000006529e+000	 9.933533161123673e+000
0	 1.533309999982383e+000	 8.200010000009552e+000	 9.937790480479965e+000
0	 1.533309999982383e+000	 8.266680000012267e+000	 9.941913681802360e+000
0	 1.533309999982383e+000	 8.333350000014583e+000	 9.945904327063071e+000
0	 1.533309999982383e+000	 8.400020000016401e+000	 9.949763978234303e+000
0	 1.533309999982383e+000	 8.466690000017614e+000	 9.953494197288253e+000
0	 1.533309999982383e+000	 8.533360000018135e+000	 9.957096546197134e+000
0	 1.533309999982383e+000	 8.600030000017849e+000	 9.960572586933122e+000
0	 1.533309999982383e+000	 8.666700000016666e+000	 9.963923881468467e+000
0	 1.599979999983600e+000	 8.000000000000000e+000	 9.927619525865056e+000
0	 1.599979999983600e+000	 8.066670000003319e+000	 9.932022119682749e+000
0	 1.599979999983600e+000	 8.133340000006534e+000	 9.936287669974165e+000
0	 1.599979999983599e+000	 8.200010000009550e+000	 9.940416442668683e+000
0	 1.599979999983600e+000	 8.266680000012267e+000	 9.944408703695578e+000
0	 1.599979999983600e+000	 8.333350000014585e+000	 9.948264718984134e+000
0	 1.599979999983600e+000	 8.400020000016401e+000	 9.951984754463695e+000
0	 1.599979999983600e+000	 8.466690000017616e+000	 9.955569076063549e+000
0	 1.599979999983599e+000	 8.533360000018133e+000	 9.959017949712999e+000
0	 1.599979999983600e+000	 8.600030000017853e+000	 9.962331641341343e+000
0	 1.599979999983600e+000	 8.666700000016668e+000	 9.965510416877876e+000
0	 1.666649999985416e+000	 8.000000000000000e+000	 9.930717369259002e+000
0	 1.666649999985417e+000	 8.066670000003317e+000	 9.934987693563011e+000
0	 1.666649999985417e+000	 8.133340000006534e+000	 9.939119770544908e+000
0	 1.666649999985416e+000	 8.200010000009549e+000	 9.943112956712856e+000
0	 1.666649999985417e+000	 8.266680000012268e+000	 9.946966608575059e+000
0	 1.666649999985416e+000	 8.333350000014587e+000	 9.950680082639694e+000
0	 1.666649999985416e+000	 8.400020000016403e+000	 9.954252735414942e+000
0	 1.666649999985416e+000	 8.466690000017614e+000	 9.957683923408963e+000
0	 1.666649999985416e+000	 8.533360000018133e+000	 9.960973003129942e+000
0	 1.666649999985416e+000	 8.600030000017849e+000	 9.964119331086035e+000
0	 1.666649999985417e+000	 8.666700000016666e+000	 9.967122263785424e+000
0	 1.733319999987733e+000	 7.999999999999999e+000	 9.933897872909277e+000
0	 1.733319999987733e+000	 8.066670000003317e+000	 9.938027864918707e+000
0	 1.733319999987733e+000	 8.133340000006534e+000	 9.942017652406005e+000
0	 1.733319999987733e+000	 8.200010000009554e+000	 9.945866069079994e+000
0	 1.733319999987733e+000	 8.266680000012268e+000	 9.949571948649497e+000
0	 1.733319999987733e+000	 8.333350000014583e+000	 9.953134124823329e+000
0	 1.733319999987733e+000	 8.400020000016401e+000	 9.956551431310320e+000
0	 1.733319999987733e+000	 8.466690000017618e+000	 9.959822701819295e+000
0	 1.733319999987733e+000	 8.533360000018135e+000	 9.962946770059038e+000
0	 1.733319999987733e+000	 8.600030000017851e+000	 9.965922469738393e+000
0	 1.733319999987733e+000	 8.666700000016668e+000	 9.968748634566165e+000
0	 1.799989999990450e+000	 8.000000000000002e+000	 9.937155459122677e+000
0	 1.799989999990450e+000	 8.066670000003319e+000	 9.941133615266425e+000
0	 1.799989999990450e+000	 8.133340000006534e+000	 9.944969505127661e+000
0	 1.799989999990450e+000	 8.200010000009554e+000	 9.948661826237601e+000
0	 1.799989999990450e+000	 8.266680000012265e+000	 9.952209276127501e+000
0	 1.799989999990450e+000	 8.333350000014585e+000	 9.955610552328604e+000
0	 1.799989999990450e+000	 8.400020000016399e+000	 9.958864352372117e+000
0	 1.799989999990450e+000	 8.466690000017616e+000	 9.961969373789287e+000
0	 1.799989999990450e+000	 8.533360000018133e+000	 9.964924314111377e+000
0	 1.799989999990450e+000	 8.600030000017851e+000	 9.967727870869577e+000
0	 1.799989999990450e+000	 8.666700000016666e+000	 9.970378741595118e+000
0	 1.866659999993467e+000	 7.999999999999998e+000	 9.940484550206037e+000
0	 1.866659999993467e+000	 8.066670000003315e+000	 9.944295926122774e+000
0	 1.866659999993467e+000	 8.133340000006532e+000	 9.947963518280025e+000
0	 1.866659999993467e+000	 8.200010000009552e+000	 9.951486274653206e+000
0	 1.866659999993467e+000	 8.266680000012267e+000	 9.954863143217757e+000
0	 1.866659999993467e+000	 8.333350000014582e+000	 9.958093071949088e+000
0	 1.866659999993467e+000	 8.400020000016401e+000	 9.961175008822618e+000
0	 1.866659999993467e+000	 8.466690000017618e+000	 9.964107901813806e+000
0	 1.866659999993467e+000	 8.533360000018137e+000	 9.966890698898039e+000
0	 1.866659999993467e+000	 8.600030000017849e+000	 9.969522348050731e+000
0	 1.866659999993466e+000	 8.666700000016663e+000	 9.972001797247325e+000
0	 1.933329999996683e+000	 8.000000000000000e+000	 9.943879568466203e+000
0	 1.933329999996684e+000	 8.066670000003313e+000	 9.947505779004366e+000
0	 1.933329999996683e+000	 8.133340000006534e+000	 9.950987881433266e+000
0	 1.933329999996684e+000	 8.200010000009552e+000	 9.954325460794314e+000
0	 1.933329999996683e+000	 8.266680000012267e+000	 9.957518102128869e+000
0	 1.933329999996684e+000	 8.333350000014585e+000	 9.960565390478346e+000
0	 1.933329999996684e+000	 8.400020000016401e+000	 9.963466910884122e+000
0	 1.933329999996684e+000	 8.466690000017614e+000	 9.966222248387581e+000
0	 1.933329999996684e+000	 8.533360000018135e+000	 9.968830988030090e+000
0	 1.933329999996683e+000	 8.600030000017849e+000	 9.971292714853043e+000
0	 1.933329999996684e+000	 8.666700000016666e+000	 9.973607013897830e+000
0	 2.000000000000000e+000	 7.999999999999999e+000	 9.947334936209995e+000
0	 2.000000000000000e+000	 8.066670000003319e+000	 9.950754155427783e+000
0	 2.000000000000000e+000	 8.133340000006534e+000	 9.954030784157530e+000
0	 2.000000000000000e+000	 8.200010000009549e+000	 9.957165431128408e+000
0	 2.000000000000000e+000	 8.266680000012267e+000	 9.960158705069517e+000
0	 2.000000000000000e+000	 8.333350000014585e+000	 9.963011214709963e+000
0	 1.999999999999999e+000	 8.400020000016397e+000	 9.965723568778900e+000
0	 2.000000000000000e+000	 8.466690000017618e+000	 9.968296376005421e+000
0	 2.000000000000000e+000	 8.533360000018131e+000	 9.970730245118643e+000
0	 2.000000000000000e+000	 8.600030000017851e+000	 9.973025784847682e+000
0	 2.000000000000000e+000	 8.666700000016666e+000	 9.975183603921639e+000
0	 1.333299999983334e+000	 8.666700000016666e+000	 9.959424020478778e+000
0	 1.333299999983334e+000	 8.733360002791903e+000	 9.963115015206110e+000
0	 1.333299999983334e+000	 8.800020022230553e+000	 9.966627676940417e+000
0	 1.333299999983334e+000	 8.866680074997040e+000	 9.969966480796309e+000
0	 1.333299999983334e+000	 8.933340177755781e+000	 9.973135902410270e+000
0	 1.333299999983334e+000	 9.000000347171181e+000	 9.976140417940595e+000
0	 1.333299999983334e+000	 9.066660599907669e+000	 9.978984504067350e+000
0	 1.333299999983334e+000	 9.133320952629656e+000	 9.981672637992419e+000
0	 1.333299999983334e+000	 9.199981422001560e+000	 9.984209297439472e+000
0	 1.333299999983334e+000	 9.266642024687796e+000	 9.986598960653920e+000
0	 1.333299999983334e+000	 9.333302777352785e+000	 9.988846106403004e+000
0	 1.399969999982150e+000	 8.666700000016668e+000	 9.960869895643949e+000
0	 1.399969999982150e+000	 8.733360002791905e+000	 9.964409064678806e+000
0	 1.399969999982150e+000	 8.800020022230555e+000	 9.967776156631956e+000
0	 1.399969999982150e+000	 8.866680074997044e+000	 9.970976633729768e+000
0	 1.399969999982150e+000	 8.933340177755778e+000	 9.974015958693464e+000
0	 1.399969999982150e+000	 9.000000347171181e+000	 9.976899594739098e+000
0	 1.399969999982150e+000	 9.066660599907667e+000	 9.979633005577574e+000
0	 1.399969999982150e+000	 9.133320952629653e+000	 9.982221655414611e+000
0	 1.399969999982150e+000	 9.199981422001560e+000	 9.984671008950718e+000
0	 1.399969999982150e+000	 9.266642024687794e+000	 9.986986531381254e+000
0	 1.399969999982150e+000	 9.333302777352783e+000	 9.989173688396278e+000
0	 1.466639999981866e+000	 8.666700000016666e+000	 9.962373445182173e+000
0	 1.466639999981867e+000	 8.733360002791901e+000	 9.965751315631426e+000
0	 1.466639999981866e+000	 8.800020022230552e+000	 9.968965319656187e+000
0	 1.466639999981867e+000	 8.866680074997040e+000	 9.972021704289269e+000
0	 1.466639999981867e+000	 8.933340177755781e+000	 9.974926717029902e+000
0	 1.466639999981866e+000	 9.000000347171183e+000	 9.977686605843584e+000
0	 1.466639999981866e+000	 9.066660599907669e+000	 9.980307619162273e+000
0	 1.466639999981866e+000	 9.133320952629655e+000	 9.982796005884204e+000
0	 1.466639999981867e+000	 9.199981422001558e+000	 9.985158015373999e+000
0	 1.466639999981867e+000	 9.266642024687799e+000	 9.987399897462582e+000
0	 1.466639999981866e+000	 9.333302777352783e+000	 9.989527902447184e+000
0	 1.533309999982383e+000	 8.666700000016666e+000	 9.963923881468467e+000
0	 1.533309999982383e+000	 8.733360002791901e+000	 9.967133503845693e+000
0	 1.533309999982383e+000	 8.800020022230557e+000	 9.970189026379270e+000
0	 1.533309999982383e+000	 8.866680074997040e+000	 9.973097278602024e+000
0	 1.533309999982383e+000	 8.933340177755779e+000	 9.975865090483792e+000
0	 1.533309999982383e+000	 9.000000347171184e+000	 9.978499292431399e+000
0	 1.533309999982383e+000	 9.066660599907669e+000	 9.981006715288640e+000
0	 1.533309999982383e+000	 9.133320952629656e+000	 9.983394190336298e+000
0	 1.533309999982383e+000	 9.199981422001560e+000	 9.985668549292095e+000
0	 1.533309999982383e+000	 9.266642024687798e+000	 9.987836624310727e+000
0	 1.533309999982383e+000	 9.333302777352783e+000	 9.989905247983847e+000
0	 1.599979999983600e+000	 8.666700000016668e+000	 9.965510416877875e+000
0	 1.599979999983600e+000	 8.733360002791901e+000	 9.968547365103339e+000
0	 1.599979999983600e+000	 8.800020022230555e+000	 9.971441137167352e+000
0	 1.599979999983600e+000	 8.866680074997042e+000	 9.974198942795173e+000
0	 1.599979999983600e+000	 8.933340177755779e+000	 9.976827992119395e+000
0	 1.599979999983600e+000	 9.000000347171183e+000	 9.979335495679923e+000
0	 1.599979999983600e+000	 9.066660599907669e+000	 9.981728664423944e+000
0	 1.599979999983599e+000	 9.133320952629655e+000	 9.984014709705985e+000
0	 1.599979999983600e+000	 9.199981422001557e+000	 9.986200843287822e+000
0	 1.599979999983600e+000	 9.266642024687799e+000	 9.988294277338490e+000
0	 1.599979999983600e+000	 9.333302777352785e+000	 9.990302224434329e+000
0	 1.666649999985417e+000	 8.666700000016666e+000	 9.967122263785420e+000
0	 1.666649999985416e+000	 8.733360002791903e+000	 9.969984635186108e+000
0	 1.666649999985417e+000	 8.800020022230555e+000	 9.972715512386627e+000
0	 1.666649999985417e+000	 8.866680074997042e+000	 9.975322282995904e+000
0	 1.666649999985416e+000	 8.933340177755779e+000	 9.977812335000909e+000
0	 1.666649999985416e+000	 9.000000347171183e+000	 9.980193056766510e+000
0	 1.666649999985417e+000	 9.066660599907669e+000	 9.982471837035440e+000
0	 1.666649999985417e+000	 9.133320952629658e+000	 9.984656064928405e+000
0	 1.666649999985416e+000	 9.199981422001558e+000	 9.986753129943981e+000
0	 1.666649999985416e+000	 9.266642024687796e+000	 9.988770421958655e+000
0	 1.666649999985417e+000	 9.333302777352783e+000	 9.990715331226733e+000
0	 1.733319999987733e+000	 8.666700000016668e+000	 9.968748634566163e+000
0	 1.733319999987733e+000	 8.733360002791901e+000	 9.971437049875751e+000
0	 1.733319999987733e+000	 8.800020022230557e+000	 9.974006012403210e+000
0	 1.733319999987733e+000	 8.866680074997044e+000	 9.976462885331385e+000
0	 1.733319999987733e+000	 8.933340177755776e+000	 9.978815032192580e+000
0	 1.733319999987733e+000	 9.000000347171181e+000	 9.981069816868512e+000
0	 1.733319999987733e+000	 9.066660599907671e+000	 9.983234603590338e+000
0	 1.733319999987733e+000	 9.133320952629653e+000	 9.985316756938635e+000
0	 1.733319999987733e+000	 9.199981422001558e+000	 9.987323641843393e+000
0	 1.733319999987733e+000	 9.266642024687798e+000	 9.989262623583983e+000
0	 1.733319999987734e+000	 9.333302777352785e+000	 9.991141067789163e+000
0	 1.799989999990450e+000	 8.666700000016666e+000	 9.970378741595118e+000
0	 1.799989999990450e+000	 8.733360002791903e+000	 9.972896344953972e+000
0	 1.799989999990450e+000	 8.800020022230557e+000	 9.975306497583295e+000
0	 1.799989999990450e+000	 8.866680074997042e+000	 9.977616335928790e+000
0	 1.799989999990450e+000	 8.933340177755776e+000	 9.979832996758601e+000
0	 1.799989999990450e+000	 9.000000347171181e+000	 9.981963617163309e+000
0	 1.799989999990450e+000	 9.066660599907669e+000	 9.984015334555911e+000
0	 1.799989999990450e+000	 9.133320952629656e+000	 9.985995286671814e+000
0	 1.799989999990450e+000	 9.199981422001560e+000	 9.987910611568871e+000
0	 1.799989999990450e+000	 9.266642024687798e+000	 9.989768447627302e+000
0	 1.799989999990450e+000	 9.333302777352781e+000	 9.991575933549704e+000
0	 1.866659999993466e+000	 8.666700000016663e+000	 9.972001797247325e+000
0	 1.866659999993467e+000	 8.733360002791903e+000	 9.974354256202497e+000
0	 1.866659999993466e+000	 8.800020022230553e+000	 9.976610828293016e+000
0	 1.866659999993467e+000	 8.866680074997042e+000	 9.978778220915279e+000
0	 1.866659999993467e+000	 8.933340177755779e+000	 9.980863141763210e+000
0	 1.866659999993467e+000	 9.000000347171183e+000	 9.982872298828266e+000
0	 1.866659999993467e+000	 9.066660599907667e+000	 9.984812400399365e+000
0	 1.866659999993467e+000	 9.133320952629656e+000	 9.986690155063025e+000
0	 1.866659999993467e+000	 9.199981422001557e+000	 9.988512271703213e+000
0	 1.866659999993467e+000	 9.266642024687796e+000	 9.990285459501363e+000
0	 1.866659999993467e+000	 9.333302777352783e+000	 9.992016427936431e+000
0	 1.933329999996684e+000	 8.666700000016666e+000	 9.973607013897830e+000
0	 1.933329999996683e+000	 8.733360002791899e+000	 9.975802519403082e+000
0	 1.933329999996683e+000	 8.800020022230555e+000	 9.977912864898556e+000
0	 1.933329999996684e+000	 8.866680074997040e+000	 9.979944126418035e+000
0	 1.933329999996684e+000	 8.933340177755781e+000	 9.981902380270624e+000
0	 1.933329999996684e+000	 9.000000347171183e+000	 9.983793703040703e+000
0	 1.933329999996684e+000	 9.066660599907669e+000	 9.985624171587975e+000
0	 1.933329999996683e+000	 9.133320952629656e+000	 9.987399863047401e+000
0	 1.933329999996684e+000	 9.199981422001557e+000	 9.989126854829229e+000
0	 1.933329999996684e+000	 9.266642024687798e+000	 9.990811224618996e+000
0	 1.933329999996684e+000	 9.333302777352785e+000	 9.992459050377468e+000
0	 2.000000000000000e+000	 8.666700000016666e+000	 9.975183603921639e+000
0	 2.000000000000000e+000	 8.733360002791905e+000	 9.977232870337440e+000
0	 2.000000000000000e+000	 8.800020022230555e+000	 9.979206467766055e+000
0	 2.000000000000000e+000	 8.866680074997039e+000	 9.981109638564231e+000
0	 2.000000000000000e+000	 8.933340177755779e+000	 9.982947625345052e+000
0	 2.000000000000000e+000	 9.000000347171183e+000	 9.984725670978014e+000
0	 2.000000000000000e+000	 9.066660599907667e+000	 9.986449018588930e+000
0	 2.000000000000000e+000	 9.133320952629653e+000	 9.988122911560016e+000
0	 2.000000000000000e+000	 9.199981422001558e+000	 9.989752593529735e+000
0	 2.000000000000000e+000	 9.266642024687796e+000	 9.991343308392970e+000
0	 2.000000000000000e+000	 9.333302777352783e+000	 9.992900300300883e+000
0	 1.333299999983334e+000	 9.333302777352785e+000	 9.988846106403006e+000
0	 1.333299999983334e+000	 9.399973674588177e+000	 9.990903353345223e+000
0	 1.333299999983334e+000	 9.466644621844619e+000	 9.992727379802616e+000
0	 1.333299999983334e+000	 9.533315502450002e+000	 9.994329730767452e+000
0	 1.333299999983334e+000	 9.599986199732198e+000	 9.995721946457646e+000
0	 1.333299999983334e+000	 9.666656597019093e+000	 9.996915562315996e+000
0	 1.333299999983334e+000	 9.733326577638575e+000	 9.997922109009798e+000
0	 1.333299999983334e+000	 9.799996024918523e+000	 9.998753112429803e+000
0	 1.333299999983334e+000	 9.866664822186824e+000	 9.999420093689395e+000
0	 1.333299999983334e+000	 9.933332852771356e+000	 9.999934569123646e+000
0	 1.333299999983334e+000	 1.000000000000000e+001	 1.000030805028794e+001
0	 1.399969999982150e+000	 9.333302777352783e+000	 9.989173688396276e+000
0	 1.399969999982150e+000	 9.399973674588177e+000	 9.991181346212040e+000
0	 1.399969999982150e+000	 9.466644621844623e+000	 9.992960910336793e+000
0	 1.399969999982150e+000	 9.533315502449998e+000	 9.994522608516402e+000
0	 1.399969999982150e+000	 9.599986199732197e+000	 9.995876663819796e+000
0	 1.399969999982150e+000	 9.666656597019095e+000	 9.997033294638490e+000
0	 1.399969999982150e+000	 9.733326577638573e+000	 9.998002714685844e+000
0	 1.399969999982150e+000	 9.799996024918523e+000	 9.998795132996435e+000
0	 1.399969999982150e+000	 9.866664822186824e+000	 9.999420753924968e+000
0	 1.399969999982150e+000	 9.933332852771354e+000	 9.999889777145352e+000
0	 1.399969999982150e+000	 1.000000000000000e+001	 1.000021239764941e+001
0	 1.466639999981866e+000	 9.333302777352783e+000	 9.989527902447184e+000
0	 1.466639999981867e+000	 9.399973674588177e+000	 9.991486498252524e+000
0	 1.466639999981867e+000	 9.466644621844619e+000	 9.993221409738736e+000
0	 1.466639999981867e+000	 9.533315502450003e+000	 9.994741702532268e+000
0	 1.466639999981867e+000	 9.599986199732198e+000	 9.996056437680206e+000
0	 1.466639999981867e+000	 9.666656597019093e+000	 9.997174671649669e+000
0	 1.466639999981867e+000	 9.733326577638577e+000	 9.998105456327153e+000
0	 1.466639999981867e+000	 9.799996024918523e+000	 9.998857839017759e+000
0	 1.466639999981867e+000	 9.866664822186822e+000	 9.999440862444201e+000
0	 1.466639999981867e+000	 9.933332852771354e+000	 9.999863564746130e+000
0	 1.466639999981866e+000	 1.000000000000000e+001	 1.000013497947845e+001
0	 1.533309999982383e+000	 9.333302777352783e+000	 9.989905247983845e+000
0	 1.533309999982383e+000	 9.399973674588175e+000	 9.991814175004578e+000
0	 1.533309999982383e+000	 9.466644621844619e+000	 9.993503373032549e+000
0	 1.533309999982383e+000	 9.533315502450002e+000	 9.994980900697575e+000
0	 1.533309999982383e+000	 9.599986199732197e+000	 9.996254812150175e+000
0	 1.533309999982383e+000	 9.666656597019092e+000	 9.997333157061089e+000
0	 1.533309999982383e+000	 9.733326577638577e+000	 9.998223980620637e+000
0	 1.533309999982383e+000	 9.799996024918526e+000	 9.998935323537916e+000
0	 1.533309999982383e+000	 9.866664822186824e+000	 9.999475222039898e+000
0	 1.533309999982383e+000	 9.933332852771354e+000	 9.999851707870562e+000
0	 1.533309999982383e+000	 1.000000000000000e+001	 1.000007280828966e+001
0	 1.599979999983600e+000	 9.333302777352785e+000	 9.990302224434327e+000
0	 1.599979999983600e+000	 9.399973674588175e+000	 9.992159742005992e+000
0	 1.599979999983600e+000	 9.466644621844617e+000	 9.993801295242445e+000
0	 1.599979999983600e+000	 9.533315502450000e+000	 9.995234090894911e+000
0	 1.599979999983600e+000	 9.599986199732197e+000	 9.996465331341016e+000
0	 1.599979999983600e+000	 9.666656597019097e+000	 9.997502214584271e+000
0	 1.599979999983600e+000	 9.733326577638575e+000	 9.998351934253275e+000
0	 1.599979999983600e+000	 9.799996024918524e+000	 9.999021679601261e+000
0	 1.599979999983600e+000	 9.866664822186824e+000	 9.999518635504826e+000
0	 1.599979999983600e+000	 9.933332852771352e+000	 9.999849982463427e+000
0	 1.599979999983600e+000	 1.000000000000000e+001	 1.000002289659768e+001
0	 1.666649999985417e+000	 9.333302777352783e+000	 9.990715331226731e+000
0	 1.666649999985416e+000	 9.399973674588177e+000	 9.992518564794652e+000
0	 1.666649999985416e+000	 9.466644621844619e+000	 9.994109671392550e+000
0	 1.666649999985417e+000	 9.533315502450002e+000	 9.995495161006819e+000
0	 1.666649999985416e+000	 9.599986199732197e+000	 9.996681539364070e+000
0	 1.666649999985416e+000	 9.666656597019090e+000	 9.997675307930685e+000
0	 1.666649999985417e+000	 9.733326577638577e+000	 9.998482963912078e+000
0	 1.666649999985416e+000	 9.799996024918523e+000	 9.999111000252004e+000
0	 1.666649999985416e+000	 9.866664822186824e+000	 9.999565905631821e+000
0	 1.666649999985416e+000	 9.933332852771352e+000	 9.999854164469150e+000
0	 1.666649999985417e+000	 1.000000000000000e+001	 9.999982256917342e+000
0	 1.733319999987734e+000	 9.333302777352785e+000	 9.991141067789163e+000
0	 1.733319999987733e+000	 9.399973674588175e+000	 9.992886008908416e+000
0	 1.733319999987733e+000	 9.466644621844623e+000	 9.994422996507041e+000
0	 1.733319999987733e+000	 9.533315502450002e+000	 9.995757998915829e+000
0	 1.733319999987733e+000	 9.599986199732198e+000	 9.996896980330636e+000
0	 1.733319999987733e+000	 9.666656597019095e+000	 9.997845900811859e+000
0	 1.733319999987733e+000	 9.733326577638579e+000	 9.998610716283968e+000
0	 1.733319999987734e+000	 9.799996024918524e+000	 9.999197378534499e+000
0	 1.733319999987733e+000	 9.866664822186820e+000	 9.999611835213546e+000
0	 1.733319999987733e+000	 9.933332852771352e+000	 9.999860029832464e+000
0	 1.733319999987733e+000	 1.000000000000000e+001	 9.999947901763129e+000
0	 1.799989999990450e+000	 9.333302777352781e+000	 9.991575933549701e+000
0	 1.799989999990450e+000	 9.399973674588177e+000	 9.993257439885094e+000
0	 1.799989999990450e+000	 9.466644621844617e+000	 9.994735765610063e+000
0	 1.799989999990450e+000	 9.533315502450003e+000	 9.996016492504506e+000
0	 1.799989999990450e+000	 9.599986199732193e+000	 9.997105198352001e+000
0	 1.799989999990450e+000	 9.666656597019097e+000	 9.998007456939327e+000
0	 1.799989999990450e+000	 9.733326577638577e+000	 9.998728838055916e+000
0	 1.799989999990450e+000	 9.799996024918524e+000	 9.999274907492939e+000
0	 1.799989999990450e+000	 9.866664822186824e+000	 9.999651227042834e+000
0	 1.799989999990450e+000	 9.933332852771352e+000	 9.999863354497965e+000
0	 1.799989999990450e+000	 1.000000000000000e+001	 9.999916843649825e+000
0	 1.866659999993467e+000	 9.333302777352783e+000	 9.992016427936431e+000
0	 1.866659999993467e+000	 9.399973674588173e+000	 9.993628223262553e+000
0	 1.866659999993467e+000	 9.466644621844623e+000	 9.995042473725784e+000
0	 1.866659999993467e+000	 9.533315502450003e+000	 9.996264529655395e+000
0	 1.866659999993467e+000	 9.599986199732197e+000	 9.997299737539494e+000
0	 1.866659999993467e+000	 9.666656597019093e+000	 9.998153440024575e+000
0	 1.866659999993466e+000	 9.733326577638575e+000	 9.998830975914876e+000
0	 1.866659999993467e+000	 9.799996024918523e+000	 9.999337680171678e+000
0	 1.866659999993467e+000	 9.866664822186822e+000	 9.999678883912518e+000
0	 1.866659999993467e+000	 9.933332852771352e+000	 9.999859914410237e+000
0	 1.866659999993467e+000	 1.000000000000000e+001	 9.999886095092027e+000
0	 1.933329999996684e+000	 9.333302777352785e+000	 9.992459050377470e+000
0	 1.933329999996684e+000	 9.399973674588178e+000	 9.993993724578649e+000
0	 1.933329999996684e+000	 9.466644621844621e+000	 9.995337615878341e+000
0	 1.933329999996684e+000	 9.533315502450000e+000	 9.996495998251010e+000
0	 1.933329999996684e+000	 9.599986199732197e+000	 9.997474142004432e+000
0	 1.933329999996684e+000	 9.666656597019093e+000	 9.998277313779102e+000
0	 1.933329999996684e+000	 9.733326577638575e+000	 9.998910776547866e+000
0	 1.933329999996684e+000	 9.799996024918524e+000	 9.999379789614942e+000
0	 1.933329999996684e+000	 9.866664822186822e+000	 9.999689608615327e+000
0	 1.933329999996684e+000	 9.933332852771352e+000	 9.999845485513880e+000
0	 1.933329999996684e+000	 1.000000000000000e+001	 9.999852668604390e+000
0	 2.000000000000000e+000	 9.333302777352783e+000	 9.992900300300883e+000
0	 2.000000000000000e+000	 9.399973674588177e+000	 9.994349309371224e+000
0	 2.000000000000000e+000	 9.466644621844621e+000	 9.995615687091929e+000
0	 2.000000000000000e+000	 9.533315502449998e+000	 9.996704786173961e+000
0	 2.000000000000000e+000	 9.599986199732198e+000	 9.997621955858110e+000
0	 2.000000000000000e+000	 9.666656597019093e+000	 9.998372541914456e+000
0	 2.000000000000000e+000	 9.733326577638575e+000	 9.998961886641785e+000
0	 2.000000000000000e+000	 9.799996024918524e+000	 9.999395328866957e+000
0	 2.000000000000000e+000	 9.866664822186822e+000	 9.999678203944052e+000
0	 2.000000000000000e+000	 9.933332852771352e+000	 9.999815843753622e+000
0	 2.000000000000000e+000	 1.000000000000000e+001	 9.999813576701651e+000
0	 2.000000000000000e+000	 0.000000000000000e+000	-4.008723440305434e+001
0	 2.000000000000000e+000	 6.666714722864757e-002	-3.623425297533605e+001
0	 2.000000000000000e+000	 1.333351778131789e-001	-3.236192280367342e+001
0	 2.000000000000000e+000	 2.000039750814773e-001	-2.849210559735991e+001
0	 2.000000000000000e+000	 2.666734223614256e-001	-2.464666577966086e+001
0	 2.000000000000000e+000	 3.333434029809069e-001	-2.084747048702977e+001
0	 2.000000000000000e+000	 4.000138002678043e-001	-1.711638956839586e+001
0	 2.000000000000000e+000	 4.666844975500010e-001	-1.347529558452297e+001
0	 2.000000000000000e+000	 5.333553781553803e-001	-9.946063807439588e+000
0	 2.000000000000000e+000	 6.000263254118246e-001	-6.550572219940069e+000
0	 2.000000000000000e+000	 6.666972226472177e-001	-3.310701515157029e+000
0	 2.066670000003316e+000	 0.000000000000000e+000	-4.427058011408418e+001
0	 2.066670000003316e+000	 6.666714722864756e-002	-4.009404828421737e+001
0	 2.066670000003317e+000	 1.333351778131789e-001	-3.585610680645105e+001
0	 2.066670000003318e+000	 2.000039750814773e-001	-3.158840987983293e+001
0	 2.066670000003317e+000	 2.666734223614255e-001	-2.732261485730022e+001
0	 2.066670000003317e+000	 3.333434029809069e-001	-2.309038224479499e+001
0	 2.066670000003317e+000	 4.000138002678045e-001	-1.892337570046206e+001
0	 2.066670000003317e+000	 4.666844975500010e-001	-1.485326203392984e+001
0	 2.066670000003316e+000	 5.333553781553803e-001	-1.091171120567386e+001
0	 2.066670000003317e+000	 6.000263254118247e-001	-7.130396326463115e+000
0	 2.066670000003317e+000	 6.666972226472175e-001	-3.540993656888933e+000
0	 2.133340000006534e+000	 0.000000000000000e+000	-4.881521520085342e+001
0	 2.133340000006534e+000	 6.666714722864753e-002	-4.418764399735282e+001
0	 2.133340000006534e+000	 1.333351778131789e-001	-3.948143061401293e+001
0	 2.133340000006534e+000	 2.000039750814772e-001	-3.473544236851443e+001
0	 2.133340000006534e+000	 2.666734223614256e-001	-2.998855016886839e+001
0	 2.133340000006534e+000	 3.333434029809069e-001	-2.527962851243147e+001
0	 2.133340000006534e+000	 4.000138002678044e-001	-2.064755548501541e+001
0	 2.133340000006534e+000	 4.666844975500012e-001	-1.613121276009068e+001
0	 2.133340000006534e+000	 5.333553781553801e-001	-1.176948559808450e+001
0	 2.133340000006535e+000	 6.000263254118247e-001	-7.601262845772824e+000
0	 2.133340000006534e+000	 6.666972226472177e-001	-3.665436935766647e+000
0	 2.200010000009550e+000	 0.000000000000000e+000	-5.364207099834778e+001
0	 2.200010000009550e+000	 6.666714722864756e-002	-4.844657688682912e+001
0	 2.200010000009551e+000	 1.333351778131789e-001	-4.317950727786898e+001
0	 2.200010000009550e+000	 2.000039750814772e-001	-3.788436330920559e+001
0	 2.200010000009551e+000	 2.666734223614255e-001	-3.260465013631266e+001
0	 2.200010000009551e+000	 3.333434029809069e-001	-2.738387693131728e+001
0	 2.200010000009550e+000	 4.000138002678043e-001	-2.226555688202318e+001
0	 2.200010000009550e+000	 4.666844975500011e-001	-1.729320719103943e+001
0	 2.200010000009551e+000	 5.333553781553804e-001	-1.251034907501466e+001
0	 2.200010000009551e+000	 6.000263254118248e-001	-7.960507763976673e+000
0	 2.200010000009551e+000	 6.666972226472177e-001	-3.687212500777274e+000
0	 2.266680000012268e+000	 0.000000000000000e+000	-5.867207884155732e+001
0	 2.266680000012267e+000	 6.666714722864756e-002	-5.280238372473616e+001
0	 2.266680000012268e+000	 1.333351778131789e-001	-4.689194984953135e+001
0	 2.266680000012268e+000	 2.000039750814772e-001	-4.098633294770895e+001
0	 2.266680000012267e+000	 2.666734223614255e-001	-3.513109318158109e+001
0	 2.266680000012268e+000	 3.333434029809069e-001	-2.937179514283084e+001
0	 2.266680000012267e+000	 4.000138002678044e-001	-2.375400785145266e+001
0	 2.266680000012268e+000	 4.666844975500011e-001	-1.832330475480970e+001
0	 2.266680000012268e+000	 5.333553781553801e-001	-1.312526372680712e+001
0	 2.266680000012268e+000	 6.000263254118248e-001	-8.205467067181658e+000
0	 2.266680000012268e+000	 6.666972226472177e-001	-3.609501500907417e+000
0	 2.333350000014584e+000	 0.000000000000000e+000	-6.382617006547653e+001
0	 2.333350000014584e+000	 6.666714722864756e-002	-5.718660128316691e+001
0	 2.333350000014585e+000	 1.333351778131789e-001	-5.056037138051430e+001
0	 2.333350000014585e+000	 2.000039750814772e-001	-4.399251152982833e+001
0	 2.333350000014584e+000	 2.666734223614256e-001	-3.752805772662252e+001
0	 2.333350000014584e+000	 3.333434029809068e-001	-3.121205078835082e+001
0	 2.333350000014584e+000	 4.000138002678044e-001	-2.508953635327108e+001
0	 2.333350000014585e+000	 4.666844975500012e-001	-1.920556487943491e+001
0	 2.333350000014584e+000	 5.333553781553804e-001	-1.360519164380425e+001
0	 2.333350000014584e+000	 6.000263254118247e-001	-8.333476741494337e+000
0	 2.333350000014584e+000	 6.666972226472177e-001	-3.435485085143221e+000
0	 2.400020000016401e+000	 0.000000000000000e+000	-6.902527600510429e+001
0	 2.400020000016401e+000	 6.666714722864756e-002	-6.153076633421765e+001
0	 2.400020000016401e+000	 1.333351778131790e-001	-5.412638492233430e+001
0	 2.400020000016400e+000	 2.000039750814772e-001	-4.685405930136913e+001
0	 2.400020000016401e+000	 2.666734223614256e-001	-3.975572219338651e+001
0	 2.400020000016401e+000	 3.333434029809069e-001	-3.287331150925620e+001
0	 2.400020000016401e+000	 4.000138002678044e-001	-2.624877034744563e+001
0	 2.400020000016401e+000	 4.666844975500011e-001	-1.992404699294820e+001
0	 2.400020000016400e+000	 5.333553781553801e-001	-1.394109491634807e+001
0	 2.400020000016402e+000	 6.000263254118247e-001	-8.341872773020809e+000
0	 2.400020000016400e+000	 6.666972226472178e-001	-3.168344402470320e+000
0	 2.466690000017618e+000	 0.000000000000000e+000	-7.419032799544389e+001
0	 2.466690000017618e+000	 6.666714722864757e-002	-6.576641564998769e+001
0	 2.466690000017617e+000	 1.333351778131789e-001	-5.753160352650996e+001
0	 2.466690000017618e+000	 2.000039750814773e-001	-4.952213650813793e+001
0	 2.466690000017618e+000	 2.666734223614256e-001	-4.177426500382337e+001
0	 2.466690000017618e+000	 3.333434029809068e-001	-3.432424494692626e+001
0	 2.466690000017617e+000	 4.000138002678044e-001	-2.720833779394345e+001
0	 2.466690000017617e+000	 4.666844975500011e-001	-2.046281052338245e+001
0	 2.466690000017618e+000	 5.333553781553803e-001	-1.412393563478018e+001
0	 2.466690000017618e+000	 6.000263254118246e-001	-8.227991147866717e+000
0	 2.466690000017618e+000	 6.666972226472177e-001	-2.811260601873900e+000
0	 2.533360000018134e+000	 0.000000000000000e+000	-7.924225737150302e+001
0	 2.533360000018134e+000	 6.666714722864753e-002	-6.982508600257965e+001
0	 2.533360000018134e+000	 1.333351778131789e-001	-6.071764024456210e+001
0	 2.533360000018133e+000	 2.000039750814772e-001	-5.194790339594272e+001
0	 2.533360000018134e+000	 2.666734223614255e-001	-4.354386457988417e+001
0	 2.533360000018134e+000	 3.333434029809068e-001	-3.553351874274053e+001
0	 2.533360000018134e+000	 4.000138002678043e-001	-2.794486665273166e+001
0	 2.533360000018134e+000	 4.666844975500011e-001	-2.080591489877026e+001
0	 2.533360000018134e+000	 5.333553781553804e-001	-1.414467588944179e+001
0	 2.533360000018134e+000	 6.000263254118248e-001	-7.989167852137254e+000
0	 2.533360000018134e+000	 6.666972226472177e-001	-2.367414832338644e+000
0	 2.600030000017850e+000	 0.000000000000000e+000	-8.410199546829377e+001
0	 2.600030000017850e+000	 6.666714722864756e-002	-7.363831416409917e+001
0	 2.600030000017851e+000	 1.333351778131790e-001	-6.362610812801363e+001
0	 2.600030000017851e+000	 2.000039750814772e-001	-5.408252021059295e+001
0	 2.600030000017850e+000	 2.666734223614255e-001	-4.502469934352074e+001
0	 2.600030000017851e+000	 3.333434029809069e-001	-3.646980053807886e+001
0	 2.600030000017850e+000	 4.000138002678045e-001	-2.843498488377735e+001
0	 2.600030000017851e+000	 4.666844975500011e-001	-2.093741954714403e+001
0	 2.600030000017851e+000	 5.333553781553803e-001	-1.399427777067375e+001
0	 2.600030000017850e+000	 6.000263254118247e-001	-7.622738871937149e+000
0	 2.600030000017851e+000	 6.666972226472178e-001	-1.839988242848752e+000
0	 2.666700000016666e+000	 0.000000000000000e+000	-8.869047362083258e+001
0	 2.666700000016666e+000	 6.666714722864756e-002	-7.713763690665523e+001
0	 2.666700000016666e+000	 1.333351778131789e-001	-6.619862022838977e+001
0	 2.666700000016666e+000	 2.000039750814772e-001	-5.587714719789934e+001
0	 2.666700000016666e+000	 2.666734223614255e-001	-4.617694771668568e+001
0	 2.666700000016666e+000	 3.333434029809069e-001	-3.710175797432141e+001
0	 2.666700000016666e+000	 4.000138002678045e-001	-2.865532044704754e+001
0	 2.666700000016666e+000	 4.666844975500011e-001	-2.084138389653584e+001
0	 2.666700000016666e+000	 5.333553781553803e-001	-1.366370336881650e+001
0	 2.666700000016666e+000	 6.000263254118247e-001	-7.126040193370684e+000
0	 2.666700000016666e+000	 6.666972226472175e-001	-1.232161982387952e+000
0	 2.000000000000000e+000	 6.666972226472177e-001	-3.310701515157029e+000
0	 2.000000000000000e+000	 7.333579753122048e-001	-2.218918831740896e-001
0	 2.000000000000000e+000	 8.000185779984418e-001	 2.725455063949059e+000
0	 2.000000000000000e+000	 8.666790473703454e-001	 5.515595125881032e+000
0	 2.000000000000000e+000	 9.333394000923323e-001	 8.132784411672290e+000
0	 2.000000000000000e+000	 9.999996528288190e-001	 1.056127933976646e+001
0	 2.000000000000000e+000	 1.066659822244222e+000	 1.278533663801048e+001
0	 2.000000000000000e+000	 1.133319925002958e+000	 1.478921334366366e+001
0	 2.000000000000000e+000	 1.199979977769445e+000	 1.655716680340536e+001
0	 2.000000000000000e+000	 1.266639997208097e+000	 1.807345467334185e+001
0	 2.000000000000000e+000	 1.333299999983334e+000	 1.932233491901166e+001
0	 2.066670000003317e+000	 6.666972226472175e-001	-3.540993656888932e+000
0	 2.066670000003317e+000	 7.333579753122047e-001	-1.436977872630298e-001
0	 2.066670000003316e+000	 8.000185779984413e-001	 3.073341581963071e+000
0	 2.066670000003316e+000	 8.666790473703450e-001	 6.094946213604995e+000
0	 2.066670000003317e+000	 9.333394000923323e-001	 8.905938232545090e+000
0	 2.066670000003317e+000	 9.999996528288190e-001	 1.149114012574517e+001
0	 2.066670000003317e+000	 1.066659822244222e+000	 1.383537474225776e+001
0	 2.066670000003317e+000	 1.133319925002959e+000	 1.592346529323607e+001
0	 2.066670000003316e+000	 1.199979977769445e+000	 1.774023535194259e+001
0	 2.066670000003318e+000	 1.266639997208098e+000	 1.927050885375628e+001
0	 2.066670000003317e+000	 1.333299999983333e+000	 2.049911009617843e+001
0	 2.133340000006534e+000	 6.666972226472177e-001	-3.665436935766647e+000
0	 2.133340000006534e+000	 7.333579753122046e-001	 3.510120200023679e-002
0	 2.133340000006534e+000	 8.000185779984417e-001	 3.514977413192766e+000
0	 2.133340000006534e+000	 8.666790473703452e-001	 6.759859138022479e+000
0	 2.133340000006534e+000	 9.333394000923321e-001	 9.755414231373779e+000
0	 2.133340000006534e+000	 9.999996528288190e-001	 1.248731096281799e+001
0	 2.133340000006534e+000	 1.066659822244222e+000	 1.494121801662576e+001
0	 2.133340000006534e+000	 1.133319925002959e+000	 1.710280449177797e+001
0	 2.133340000006534e+000	 1.199979977769445e+000	 1.895773990197500e+001
0	 2.133340000006534e+000	 1.266639997208098e+000	 2.049169417564458e+001
0	 2.133340000006534e+000	 1.333299999983334e+000	 2.169033765594794e+001
0	 2.200010000009551e+000	 6.666972226472177e-001	-3.687212500777274e+000
0	 2.200010000009551e+000	 7.333579753122049e-001	 3.060913130731526e-001
0	 2.200010000009551e+000	 8.000185779984419e-001	 4.037410862552169e+000
0	 2.200010000009550e+000	 8.666790473703452e-001	 7.493538987347939e+000
0	 2.200010000009550e+000	 9.333394000923322e-001	 1.066126899330693e+001
0	 2.200010000009550e+000	 9.999996528288191e-001	 1.352739465244918e+001
0	 2.200010000009551e+000	 1.066659822244222e+000	 1.607871020298185e+001
0	 2.200010000009551e+000	 1.133319925002959e+000	 1.830201034931095e+001
0	 2.200010000009551e+000	 1.199979977769445e+000	 2.018409026205154e+001
0	 2.200010000009551e+000	 1.266639997208098e+000	 2.171174557803580e+001
0	 2.200010000009552e+000	 1.333299999983334e+000	 2.287177240031973e+001
0	 2.266680000012268e+000	 6.666972226472177e-001	-3.609501500907417e+000
0	 2.266680000012267e+000	 7.333579753122047e-001	 6.608587744136640e-001
0	 2.266680000012267e+000	 8.000185779984413e-001	 4.627690234955776e+000
0	 2.266680000012267e+000	 8.666790473703453e-001	 8.279190849796287e+000
0	 2.266680000012268e+000	 9.333394000923323e-001	 1.160355910349354e+001
0	 2.266680000012268e+000	 9.999996528288190e-001	 1.458899399610334e+001
0	 2.266680000012268e+000	 1.066659822244222e+000	 1.722369504319360e+001
0	 2.266680000012268e+000	 1.133319925002958e+000	 1.949586227585693e+001
0	 2.266680000012267e+000	 1.199979977769445e+000	 2.139369624072136e+001
0	 2.266680000012268e+000	 1.266639997208098e+000	 2.290539799995916e+001
0	 2.266680000012267e+000	 1.333299999983334e+000	 2.401916913129357e+001
0	 2.333350000014584e+000	 6.666972226472177e-001	-3.435485085143221e+000
0	 2.333350000014585e+000	 7.333579753122047e-001	 1.090989814480185e+000
0	 2.333350000014585e+000	 8.000185779984416e-001	 5.272863835318584e+000
0	 2.333350000014584e+000	 8.666790473703452e-001	 9.100019813582899e+000
0	 2.333350000014585e+000	 9.333394000923322e-001	 1.256234114708301e+001
0	 2.333350000014584e+000	 9.999996528288191e-001	 1.564971179524547e+001
0	 2.333350000014585e+000	 1.066659822244222e+000	 1.835201627912905e+001
0	 2.333350000014584e+000	 1.133319925002959e+000	 2.065913968143809e+001
0	 2.333350000014585e+000	 1.199979977769445e+000	 2.256096764653393e+001
0	 2.333350000014585e+000	 1.266639997208098e+000	 2.404738638044408e+001
0	 2.333350000014584e+000	 1.333299999983334e+000	 2.510828265086933e+001
0	 2.400020000016400e+000	 6.666972226472178e-001	-3.168344402470320e+000
0	 2.400020000016402e+000	 7.333579753122050e-001	 1.588070661731621e+000
0	 2.400020000016400e+000	 8.000185779984415e-001	 5.959979968556055e+000
0	 2.400020000016401e+000	 8.666790473703453e-001	 9.939230966923583e+000
0	 2.400020000016401e+000	 9.333394000923321e-001	 1.351767170922520e+001
0	 2.400020000016401e+000	 9.999996528288186e-001	 1.668715085134099e+001
0	 2.400020000016402e+000	 1.066659822244223e+000	 1.943951765265649e+001
0	 2.400020000016400e+000	 1.133319925002958e+000	 2.176662197607691e+001
0	 2.400020000016401e+000	 1.199979977769445e+000	 2.366031428803889e+001
0	 2.400020000016401e+000	 1.266639997208098e+000	 2.511244565852022e+001
0	 2.400020000016401e+000	 1.333299999983334e+000	 2.611486776104708e+001
0	 2.466690000017618e+000	 6.666972226472177e-001	-2.811260601873900e+000
0	 2.466690000017618e+000	 7.333579753122049e-001	 2.143687544627372e+000
0	 2.466690000017617e+000	 8.000185779984419e-001	 6.676086939584129e+000
0	 2.466690000017618e+000	 8.666790473703456e-001	 1.078002939803464e+001
0	 2.466690000017618e+000	 9.333394000923322e-001	 1.444960737507037e+001
0	 2.466690000017618e+000	 9.999996528288190e-001	 1.767891396585563e+001
0	 2.466690000017617e+000	 1.066659822244222e+000	 2.046204290564461e+001
0	 2.466690000017617e+000	 1.133319925002959e+000	 2.279308856979618e+001
0	 2.466690000017618e+000	 1.199979977769445e+000	 2.466614597378619e+001
0	 2.466690000017617e+000	 1.266639997208098e+000	 2.607531077321740e+001
0	 2.466690000017618e+000	 1.333299999983334e+000	 2.701467926382705e+001
0	 2.533360000018134e+000	 6.666972226472177e-001	-2.367414832338644e+000
0	 2.533360000018134e+000	 7.333579753122047e-001	 2.749426691627317e+000
0	 2.533360000018134e+000	 8.000185779984416e-001	 7.408233053319231e+000
0	 2.533360000018134e+000	 8.666790473703454e-001	 1.160562019513279e+001
0	 2.533360000018134e+000	 9.333394000923322e-001	 1.533820472976923e+001
0	 2.533360000018134e+000	 9.999996528288191e-001	 1.860260394025557e+001
0	 2.533360000018134e+000	 1.066659822244222e+000	 2.139543577996240e+001
0	 2.533360000018134e+000	 1.133319925002959e+000	 2.371331887261898e+001
0	 2.533360000018134e+000	 1.199979977769445e+000	 2.555287251232599e+001
0	 2.533360000018134e+000	 1.266639997208098e+000	 2.691071666356570e+001
0	 2.533360000018134e+000	 1.333299999983334e+000	 2.778347196120964e+001
0	 2.600030000017851e+000	 6.666972226472178e-001	-1.839988242848752e+000
0	 2.600030000017851e+000	 7.333579753122048e-001	 3.396874331191829e+000
0	 2.600030000017851e+000	 8.000185779984418e-001	 8.143466614678244e+000
0	 2.600030000017851e+000	 8.666790473703451e-001	 1.239920844643524e+001
0	 2.600030000017851e+000	 9.333394000923320e-001	 1.616352035847286e+001
0	 2.600030000017851e+000	 9.999996528288191e-001	 1.943582357600736e+001
0	 2.600030000017851e+000	 1.066659822244223e+000	 2.221554001747921e+001
0	 2.600030000017850e+000	 1.133319925002959e+000	 2.450209229456866e+001
0	 2.600030000017851e+000	 1.199979977769445e+000	 2.629490371220871e+001
0	 2.600030000017851e+000	 1.266639997208098e+000	 2.759339826859536e+001
0	 2.600030000017851e+000	 1.333299999983334e+000	 2.839700065519538e+001
0	 2.666700000016666e+000	 6.666972226472175e-001	-1.232161982387952e+000
0	 2.666700000016666e+000	 7.333579753122047e-001	 4.077616691781762e+000
0	 2.666700000016666e+000	 8.000185779984416e-001	 8.868835928578562e+000
0	 2.666700000016666e+000	 8.666790473703453e-001	 1.314399924015962e+001
0	 2.666700000016666e+000	 9.333394000923323e-001	 1.690561084633283e+001
0	 2.666700000016665e+000	 9.999996528288190e-001	 2.015617567457792e+001
0	 2.666700000016666e+000	 1.066659822244222e+000	 2.289819936006472e+001
0	 2.666700000016667e+000	 1.133319925002959e+000	 2.513418824566891e+001
0	 2.666700000016667e+000	 1.199979977769445e+000	 2.686664938198501e+001
0	 2.666700000016666e+000	 1.266639997208098e+000	 2.809809052733681e+001
0	 2.666700000016667e+000	 1.333299999983334e+000	 2.883102014778506e+001
0	 2.000000000000000e+000	 1.333299999983334e+000	 1.932233491901167e+001
0	 2.000000000000000e+000	 1.399969999982150e+000	 2.029900837181199e+001
0	 2.000000000000000e+000	 1.466639999981866e+000	 2.101588507692737e+001
0	 2.000000000000000e+000	 1.533309999982383e+000	 2.148353657072972e+001
0	 2.000000000000000e+000	 1.599979999983599e+000	 2.171253438958914e+001
0	 2.000000000000000e+000	 1.666649999985416e+000	 2.171345006987407e+001
0	 2.000000000000000e+000	 1.733319999987733e+000	 2.149685514795115e+001
0	 2.000000000000000e+000	 1.799989999990450e+000	 2.107332116018530e+001
0	 2.000000000000000e+000	 1.866659999993467e+000	 2.045341964293973e+001
0	 2.000000000000000e+000	 1.933329999996683e+000	 1.964772213257581e+001
0	 2.000000000000000e+000	 2.000000000000000e+000	 1.866680016545330e+001
0	 2.066670000003317e+000	 1.333299999983333e+000	 2.049911009617843e+001
0	 2.066670000003317e+000	 1.399969999982150e+000	 2.143943042881443e+001
0	 2.066670000003317e+000	 1.466639999981867e+000	 2.212171539931061e+001
0	 2.066670000003317e+000	 1.533309999982383e+000	 2.255655364008595e+001
0	 2.066670000003317e+000	 1.599979999983599e+000	 2.275453378355766e+001
0	 2.066670000003317e+000	 1.666649999985416e+000	 2.272624446214120e+001
0	 2.066670000003317e+000	 1.733319999987733e+000	 2.248227430825029e+001
0	 2.066670000003317e+000	 1.799989999990450e+000	 2.203321195429694e+001
0	 2.066670000003317e+000	 1.866659999993466e+000	 2.138964603269136e+001
0	 2.066670000003317e+000	 1.933329999996683e+000	 2.056216517584209e+001
0	 2.066670000003317e+000	 2.000000000000000e+000	 1.956135801615591e+001
0	 2.133340000006534e+000	 1.333299999983334e+000	 2.169033765594795e+001
0	 2.133340000006534e+000	 1.399969999982150e+000	 2.258556627537464e+001
0	 2.133340000006534e+000	 1.466639999981866e+000	 2.322550258695456e+001
0	 2.133340000006534e+000	 1.533309999982383e+000	 2.362061901713119e+001
0	 2.133340000006534e+000	 1.599979999983600e+000	 2.378138799234627e+001
0	 2.133340000006534e+000	 1.666649999985416e+000	 2.371828193903976e+001
0	 2.133340000006534e+000	 1.733319999987733e+000	 2.344177328365001e+001
0	 2.133340000006534e+000	 1.799989999990450e+000	 2.296233445261345e+001
0	 2.133340000006534e+000	 1.866659999993466e+000	 2.229043787236498e+001
0	 2.133340000006534e+000	 1.933329999996683e+000	 2.143655596933758e+001
0	 2.133340000006534e+000	 2.000000000000000e+000	 2.041116116996264e+001
0	 2.200010000009552e+000	 1.333299999983334e+000	 2.287177240031974e+001
0	 2.200010000009551e+000	 1.399969999982150e+000	 2.371455796010150e+001
0	 2.200010000009551e+000	 1.466639999981867e+000	 2.430581555981727e+001
0	 2.200010000009551e+000	 1.533309999982383e+000	 2.465576811791254e+001
0	 2.200010000009550e+000	 1.599979999983599e+000	 2.477463855283103e+001
0	 2.200010000009551e+000	 1.666649999985416e+000	 2.467264978301474e+001
0	 2.200010000009550e+000	 1.733319999987732e+000	 2.436002472690399e+001
0	 2.200010000009551e+000	 1.799989999990449e+000	 2.384698630293731e+001
0	 2.200010000009550e+000	 1.866659999993466e+000	 2.314375742955156e+001
0	 2.200010000009550e+000	 1.933329999996683e+000	 2.226056102518181e+001
0	 2.200010000009551e+000	 2.000000000000000e+000	 2.120762000826147e+001
0	 2.266680000012267e+000	 1.333299999983334e+000	 2.401916913129357e+001
0	 2.266680000012268e+000	 1.399969999982150e+000	 2.480354753160402e+001
0	 2.266680000012267e+000	 1.466639999981867e+000	 2.534122323785691e+001
0	 2.266680000012268e+000	 1.533309999982383e+000	 2.564203635847722e+001
0	 2.266680000012267e+000	 1.599979999983599e+000	 2.571582700188812e+001
0	 2.266680000012268e+000	 1.666649999985416e+000	 2.557243527651116e+001
0	 2.266680000012268e+000	 1.733319999987733e+000	 2.522170129076606e+001
0	 2.266680000012268e+000	 1.799989999990449e+000	 2.467346515307091e+001
0	 2.266680000012267e+000	 1.866659999993466e+000	 2.393756697184213e+001
0	 2.266680000012267e+000	 1.933329999996683e+000	 2.302384685549426e+001
0	 2.266680000012268e+000	 2.000000000000000e+000	 2.194214491244028e+001
0	 2.333350000014584e+000	 1.333299999983334e+000	 2.510828265086933e+001
0	 2.333350000014585e+000	 1.399969999982150e+000	 2.582967703849130e+001
0	 2.333350000014585e+000	 1.466639999981867e+000	 2.631029454103173e+001
0	 2.333350000014584e+000	 1.533309999982383e+000	 2.655945915487252e+001
0	 2.333350000014584e+000	 1.599979999983599e+000	 2.658649487639380e+001
0	 2.333350000014584e+000	 1.666649999985416e+000	 2.640072570197404e+001
0	 2.333350000014584e+000	 1.733319999987732e+000	 2.601147562799002e+001
0	 2.333350000014584e+000	 1.799989999990449e+000	 2.542806865081678e+001
0	 2.333350000014585e+000	 1.866659999993466e+000	 2.465982876682771e+001
0	 2.333350000014584e+000	 1.933329999996683e+000	 2.371607997239447e+001
0	 2.333350000014584e+000	 2.000000000000000e+000	 2.260614626388701e+001
0	 2.400020000016401e+000	 1.333299999983334e+000	 2.611486776104708e+001
0	 2.400020000016402e+000	 1.399969999982151e+000	 2.677008852937265e+001
0	 2.400020000016401e+000	 1.466639999981867e+000	 2.719159838930013e+001
0	 2.400020000016401e+000	 1.533309999982382e+000	 2.738807192314584e+001
0	 2.400020000016401e+000	 1.599979999983599e+000	 2.736818371322434e+001
0	 2.400020000016401e+000	 1.666649999985416e+000	 2.714060834184858e+001
0	 2.400020000016401e+000	 1.733319999987733e+000	 2.671402039132974e+001
0	 2.400020000016401e+000	 1.799989999990450e+000	 2.609709444397743e+001
0	 2.400020000016400e+000	 1.866659999993466e+000	 2.529850508209943e+001
0	 2.400020000016401e+000	 1.933329999996683e+000	 2.432692688800200e+001
0	 2.400020000016401e+000	 2.000000000000000e+000	 2.319103444398961e+001
0	 2.466690000017618e+000	 1.333299999983334e+000	 2.701467926382705e+001
0	 2.466690000017618e+000	 1.399969999982150e+000	 2.760192405285743e+001
0	 2.466690000017618e+000	 1.466639999981867e+000	 2.796370370262059e+001
0	 2.466690000017618e+000	 1.533309999982383e+000	 2.810791007934467e+001
0	 2.466690000017617e+000	 1.599979999983599e+000	 2.804243504925618e+001
0	 2.466690000017618e+000	 1.666649999985416e+000	 2.777517047857995e+001
0	 2.466690000017617e+000	 1.733319999987733e+000	 2.731400823353918e+001
0	 2.466690000017617e+000	 1.799989999990449e+000	 2.666684018035535e+001
0	 2.466690000017617e+000	 1.866659999993466e+000	 2.584155818524837e+001
0	 2.466690000017618e+000	 1.933329999996684e+000	 2.484605411443640e+001
0	 2.466690000017618e+000	 2.000000000000000e+000	 2.368821983413599e+001
0	 2.533360000018134e+000	 1.333299999983334e+000	 2.778347196120963e+001
0	 2.533360000018133e+000	 1.399969999982150e+000	 2.830232565755520e+001
0	 2.533360000018134e+000	 1.466639999981867e+000	 2.860517940095167e+001
0	 2.533360000018134e+000	 1.533309999982383e+000	 2.869900903951656e+001
0	 2.533360000018134e+000	 1.599979999983599e+000	 2.859079042136573e+001
0	 2.533360000018134e+000	 1.666649999985416e+000	 2.828749939461344e+001
0	 2.533360000018134e+000	 1.733319999987733e+000	 2.779611180737228e+001
0	 2.533360000018134e+000	 1.799989999990450e+000	 2.712360350775324e+001
0	 2.533360000018134e+000	 1.866659999993466e+000	 2.627695034386564e+001
0	 2.533360000018134e+000	 1.933329999996683e+000	 2.526312816381722e+001
0	 2.533360000018134e+000	 2.000000000000000e+000	 2.408911281571407e+001
0	 2.600030000017851e+000	 1.333299999983334e+000	 2.839700065519539e+001
0	 2.600030000017851e+000	 1.399969999982150e+000	 2.884843539207562e+001
0	 2.600030000017850e+000	 1.466639999981866e+000	 2.909459440425211e+001
0	 2.600030000017850e+000	 1.533309999982383e+000	 2.914140421970918e+001
0	 2.600030000017850e+000	 1.599979999983599e+000	 2.899479136642955e+001
0	 2.600030000017851e+000	 1.666649999985416e+000	 2.866068237239434e+001
0	 2.600030000017851e+000	 1.733319999987733e+000	 2.814500376558307e+001
0	 2.600030000017850e+000	 1.799989999990449e+000	 2.745368207397366e+001
0	 2.600030000017851e+000	 1.866659999993466e+000	 2.659264382554245e+001
0	 2.600030000017850e+000	 1.933329999996683e+000	 2.556781554826409e+001
0	 2.600030000017851e+000	 2.000000000000000e+000	 2.438512377011176e+001
0	 2.666700000016667e+000	 1.333299999983334e+000	 2.883102014778506e+001
0	 2.666700000016667e+000	 1.399969999982150e+000	 2.921739530502851e+001
0	 2.666700000016666e+000	 1.466639999981867e+000	 2.941051763248072e+001
0	 2.666700000016667e+000	 1.533309999982383e+000	 2.941513103597028e+001
0	 2.666700000016667e+000	 1.599979999983600e+000	 2.923597942132425e+001
0	 2.666700000016665e+000	 1.666649999985416e+000	 2.887780669436807e+001
0	 2.666700000016667e+000	 1.733319999987733e+000	 2.834535676092565e+001
0	 2.666700000016667e+000	 1.799989999990450e+000	 2.764337352681934e+001
0	 2.666700000016666e+000	 1.866659999993466e+000	 2.677660089786994e+001
0	 2.666700000016667e+000	 1.933329999996683e+000	 2.574978277989660e+001
0	 2.666700000016667e+000	 2.000000000000000e+000	 2.456766307871702e+001
0	 2.000000000000000e+000	 2.000000000000000e+000	 1.866680016545330e+001
0	 2.000000000000000e+000	 2.066670000003317e+000	 1.760789787954994e+001
0	 2.000000000000000e+000	 2.133340000006534e+000	 1.656531560545320e+001
0	 2.000000000000000e+000	 2.200010000009551e+000	 1.554520916843582e+001
0	 2.000000000000000e+000	 2.266680000012268e+000	 1.455373439377036e+001
0	 2.000000000000000e+000	 2.333350000014584e+000	 1.359704710672924e+001
0	 2.000000000000000e+000	 2.400020000016401e+000	 1.268130313258471e+001
0	 2.000000000000000e+000	 2.466690000017618e+000	 1.181265829660886e+001
0	 2.000000000000000e+000	 2.533360000018133e+000	 1.099726842407354e+001
0	 2.000000000000000e+000	 2.600030000017851e+000	 1.024128934025054e+001
0	 2.000000000000000e+000	 2.666700000016667e+000	 9.550876870411416e+000
0	 2.066670000003317e+000	 2.000000000000000e+000	 1.956135801615591e+001
0	 2.066670000003317e+000	 2.066670000003317e+000	 1.848580840719452e+001
0	 2.066670000003317e+000	 2.133340000006534e+000	 1.743042784120902e+001
0	 2.066670000003317e+000	 2.200010000009551e+000	 1.640029640863869e+001
0	 2.066670000003317e+000	 2.266680000012268e+000	 1.540049419992278e+001
0	 2.066670000003316e+000	 2.333350000014584e+000	 1.443610130550033e+001
0	 2.066670000003318e+000	 2.400020000016401e+000	 1.351219781581027e+001
0	 2.066670000003317e+000	 2.466690000017617e+000	 1.263386382129141e+001
0	 2.066670000003317e+000	 2.533360000018134e+000	 1.180617941238242e+001
0	 2.066670000003317e+000	 2.600030000017850e+000	 1.103422467952173e+001
0	 2.066670000003317e+000	 2.666700000016667e+000	 1.032307971314778e+001
0	 2.133340000006534e+000	 2.000000000000000e+000	 2.041116116996264e+001
0	 2.133340000006534e+000	 2.066670000003317e+000	 1.931426346075664e+001
0	 2.133340000006534e+000	 2.133340000006534e+000	 1.824162490013368e+001
0	 2.133340000006534e+000	 2.200010000009551e+000	 1.719734602237011e+001
0	 2.133340000006534e+000	 2.266680000012268e+000	 1.618552736174218e+001
0	 2.133340000006534e+000	 2.333350000014584e+000	 1.521026945252605e+001
0	 2.133340000006534e+000	 2.400020000016400e+000	 1.427567282899779e+001
0	 2.133340000006534e+000	 2.466690000017617e+000	 1.338583802543335e+001
0	 2.133340000006534e+000	 2.533360000018133e+000	 1.254486557610857e+001
0	 2.133340000006534e+000	 2.600030000017851e+000	 1.175685601529917e+001
0	 2.133340000006534e+000	 2.666700000016666e+000	 1.102590987728083e+001
0	 2.200010000009551e+000	 2.000000000000000e+000	 2.120762000826147e+001
0	 2.200010000009551e+000	 2.066670000003317e+000	 2.008636755879774e+001
0	 2.200010000009551e+000	 2.133340000006534e+000	 1.899356634903242e+001
0	 2.200010000009551e+000	 2.200010000009551e+000	 1.793243353574925e+001
0	 2.200010000009551e+000	 2.266680000012268e+000	 1.690618627573199e+001
0	 2.200010000009550e+000	 2.333350000014583e+000	 1.591804172576433e+001
0	 2.200010000009550e+000	 2.400020000016400e+000	 1.497121704262989e+001
0	 2.200010000009551e+000	 2.466690000017618e+000	 1.406892938311219e+001
0	 2.200010000009550e+000	 2.533360000018133e+000	 1.321439590399478e+001
0	 2.200010000009551e+000	 2.600030000017851e+000	 1.241083376206105e+001
0	 2.200010000009551e+000	 2.666700000016666e+000	 1.166146011409435e+001
0	 2.266680000012268e+000	 2.000000000000000e+000	 2.194214491244028e+001
0	 2.266680000012267e+000	 2.066670000003317e+000	 2.079522521987928e+001
0	 2.266680000012267e+000	 2.133340000006534e+000	 1.968091175471036e+001
0	 2.266680000012267e+000	 2.200010000009550e+000	 1.860163447489522e+001
0	 2.266680000012267e+000	 2.266680000012267e+000	 1.755982333839554e+001
0	 2.266680000012268e+000	 2.333350000014584e+000	 1.655790830317292e+001
0	 2.266680000012267e+000	 2.400020000016400e+000	 1.559831932718899e+001
0	 2.266680000012267e+000	 2.466690000017617e+000	 1.468348636840534e+001
0	 2.266680000012268e+000	 2.533360000018134e+000	 1.381583938478359e+001
0	 2.266680000012268e+000	 2.600030000017851e+000	 1.299780833428524e+001
0	 2.266680000012268e+000	 2.666700000016667e+000	 1.223182317487187e+001
0	 2.333350000014584e+000	 2.000000000000000e+000	 2.260614626388701e+001
0	 2.333350000014584e+000	 2.066670000003316e+000	 2.143394096256258e+001
0	 2.333350000014585e+000	 2.133340000006534e+000	 2.029832068397261e+001
0	 2.333350000014585e+000	 2.200010000009551e+000	 1.920102436592709e+001
0	 2.333350000014584e+000	 2.266680000012267e+000	 1.814379094623603e+001
0	 2.333350000014584e+000	 2.333350000014584e+000	 1.712835936270944e+001
0	 2.333350000014584e+000	 2.400020000016401e+000	 1.615646855315737e+001
0	 2.333350000014584e+000	 2.466690000017617e+000	 1.522985745538995e+001
0	 2.333350000014585e+000	 2.533360000018134e+000	 1.435026500721726e+001
0	 2.333350000014585e+000	 2.600030000017851e+000	 1.351943014644943e+001
0	 2.333350000014584e+000	 2.666700000016666e+000	 1.273909181089663e+001
0	 2.400020000016401e+000	 2.000000000000000e+000	 2.319103444398961e+001
0	 2.400020000016401e+000	 2.066670000003317e+000	 2.199561930540910e+001
0	 2.400020000016400e+000	 2.133340000006534e+000	 2.084045270362427e+001
0	 2.400020000016401e+000	 2.200010000009550e+000	 1.972667873496383e+001
0	 2.400020000016401e+000	 2.266680000012267e+000	 1.865544149575660e+001
0	 2.400020000016401e+000	 2.333350000014584e+000	 1.762788508233142e+001
0	 2.400020000016401e+000	 2.400020000016400e+000	 1.664515359101723e+001
0	 2.400020000016401e+000	 2.466690000017617e+000	 1.570839111814304e+001
0	 2.400020000016401e+000	 2.533360000018134e+000	 1.481874176003796e+001
0	 2.400020000016402e+000	 2.600030000017852e+000	 1.397734961303108e+001
0	 2.400020000016401e+000	 2.666700000016666e+000	 1.318535877345166e+001
0	 2.466690000017618e+000	 2.000000000000000e+000	 2.368821983413599e+001
0	 2.466690000017618e+000	 2.066670000003317e+000	 2.247336476698016e+001
0	 2.466690000017617e+000	 2.133340000006534e+000	 2.130196738047031e+001
0	 2.466690000017618e+000	 2.200010000009551e+000	 2.017467310812432e+001
0	 2.466690000017618e+000	 2.266680000012268e+000	 1.909212738346026e+001
0	 2.466690000017617e+000	 2.333350000014584e+000	 1.805497563999622e+001
0	 2.466690000017617e+000	 2.400020000016400e+000	 1.706386331125049e+001
0	 2.466690000017618e+000	 2.466690000017618e+000	 1.611943583074143e+001
0	 2.466690000017617e+000	 2.533360000018134e+000	 1.522233863198753e+001
0	 2.466690000017618e+000	 2.600030000017851e+000	 1.437321714850737e+001
0	 2.466690000017618e+000	 2.666700000016666e+000	 1.357271681381971e+001
0	 2.533360000018134e+000	 2.000000000000000e+000	 2.408911281571407e+001
0	 2.533360000018134e+000	 2.066670000003317e+000	 2.286028186583710e+001
0	 2.533360000018134e+000	 2.133340000006534e+000	 2.167752428131571e+001
0	 2.533360000018134e+000	 2.200010000009550e+000	 2.054108301152743e+001
0	 2.533360000018134e+000	 2.266680000012268e+000	 1.945120100584994e+001
0	 2.533360000018135e+000	 2.333350000014585e+000	 1.840812121366112e+001
0	 2.533360000018134e+000	 2.400020000016401e+000	 1.741208658433899e+001
0	 2.533360000018134e+000	 2.466690000017617e+000	 1.646334006726171e+001
0	 2.533360000018134e+000	 2.533360000018134e+000	 1.556212461180764e+001
0	 2.533360000018134e+000	 2.600030000017850e+000	 1.470868316735527e+001
0	 2.533360000018134e+000	 2.666700000016666e+000	 1.390325868328324e+001
0	 2.600030000017851e+000	 2.000000000000000e+000	 2.438512377011176e+001
0	 2.600030000017850e+000	 2.066670000003317e+000	 2.314947512054124e+001
0	 2.600030000017851e+000	 2.133340000006534e+000	 2.196178297296540e+001
0	 2.600030000017851e+000	 2.200010000009550e+000	 2.082198397129185e+001
0	 2.600030000017850e+000	 2.266680000012267e+000	 1.973001475942844e+001
0	 2.600030000017850e+000	 2.333350000014584e+000	 1.868581198128321e+001
0	 2.600030000017851e+000	 2.400020000016400e+000	 1.768931228076437e+001
0	 2.600030000017850e+000	 2.466690000017618e+000	 1.674045230178035e+001
0	 2.600030000017850e+000	 2.533360000018134e+000	 1.583916868823980e+001
0	 2.600030000017851e+000	 2.600030000017851e+000	 1.498539808405151e+001
0	 2.600030000017850e+000	 2.666700000016666e+000	 1.417907713312455e+001
0	 2.666700000016667e+000	 2.000000000000000e+000	 2.456766307871702e+001
0	 2.666700000016667e+000	 2.066670000003317e+000	 2.333404904965387e+001
0	 2.666700000016666e+000	 2.133340000006534e+000	 2.214940302222426e+001
0	 2.666700000016666e+000	 2.200010000009550e+000	 2.101345151353633e+001
0	 2.666700000016667e+000	 2.266680000012268e+000	 1.992592104069852e+001
0	 2.666700000016666e+000	 2.333350000014584e+000	 1.888653812081948e+001
0	 2.666700000016667e+000	 2.400020000016401e+000	 1.789502927100813e+001
0	 2.666700000016666e+000	 2.466690000017618e+000	 1.695112100837360e+001
0	 2.666700000016666e+000	 2.533360000018134e+000	 1.605453985002523e+001
0	 2.666700000016666e+000	 2.600030000017850e+000	 1.520501231307260e+001
0	 2.666700000016667e+000	 2.666700000016667e+000	 1.440226491462557e+001
0	 2.000000000000000e+000	 2.666700000016667e+000	 9.550876870411422e+000
0	 2.000000000000000e+000	 2.733360000014533e+000	 8.949095047692431e+000
0	 2.000000000000000e+000	 2.800020000011600e+000	 8.449887588342488e+000
0	 2.000000000000000e+000	 2.866680000008067e+000	 8.046024837301442e+000
0	 2.000000000000000e+000	 2.933340000004133e+000	 7.730277139508821e+000
0	 2.000000000000000e+000	 3.000000000000000e+000	 7.495414839903780e+000
0	 2.000000000000000e+000	 3.066659999995867e+000	 7.334208283425133e+000
0	 2.000000000000000e+000	 3.133319999991934e+000	 7.239427815011323e+000
0	 2.000000000000000e+000	 3.199979999988400e+000	 7.203843779600497e+000
0	 2.000000000000000e+000	 3.266639999985468e+000	 7.220226522130407e+000
0	 2.000000000000000e+000	 3.333299999983334e+000	 7.281346387538458e+000
0	 2.066670000003317e+000	 2.666700000016667e+000	 1.032307971314779e+001
0	 2.066670000003318e+000	 2.733360000014533e+000	 9.696166268780450e+000
0	 2.066670000003317e+000	 2.800020000011600e+000	 9.168909542293767e+000
0	 2.066670000003316e+000	 2.866680000008066e+000	 8.734700340402879e+000
0	 2.066670000003317e+000	 2.933340000004133e+000	 8.386929469822560e+000
0	 2.066670000003318e+000	 3.000000000000000e+000	 8.118987737267080e+000
0	 2.066670000003317e+000	 3.066659999995867e+000	 7.924265949450230e+000
0	 2.066670000003317e+000	 3.133319999991933e+000	 7.796154913085451e+000
0	 2.066670000003317e+000	 3.199979999988401e+000	 7.728045434885640e+000
0	 2.066670000003317e+000	 3.266639999985467e+000	 7.713328321563278e+000
0	 2.066670000003317e+000	 3.333299999983333e+000	 7.745394379830415e+000
0	 2.133340000006534e+000	 2.666700000016666e+000	 1.102590987728082e+001
0	 2.133340000006534e+000	 2.733360000014533e+000	 1.037547882817510e+001
0	 2.133340000006534e+000	 2.800020000011600e+000	 9.822061322226555e+000
0	 2.133340000006534e+000	 2.866680000008067e+000	 9.359643531533974e+000
0	 2.133340000006534e+000	 2.933340000004133e+000	 8.982211628195584e+000
0	 2.133340000006535e+000	 3.000000000000001e+000	 8.683751784309054e+000
0	 2.133340000006534e+000	 3.066659999995868e+000	 8.458250171971557e+000
0	 2.133340000006534e+000	 3.133319999991934e+000	 8.299692963279620e+000
0	 2.133340000006534e+000	 3.199979999988401e+000	 8.202066330329309e+000
0	 2.133340000006534e+000	 3.266639999985467e+000	 8.159356445216105e+000
0	 2.133340000006534e+000	 3.333299999983334e+000	 8.165549480034956e+000
0	 2.200010000009551e+000	 2.666700000016666e+000	 1.166146011409435e+001
0	 2.200010000009551e+000	 2.733360000014533e+000	 1.098946757327199e+001
0	 2.200010000009551e+000	 2.800020000011601e+000	 1.041205859102265e+001
0	 2.200010000009550e+000	 2.866680000008066e+000	 9.923789608436989e+000
0	 2.200010000009550e+000	 2.933340000004133e+000	 9.519217066604996e+000
0	 2.200010000009551e+000	 3.000000000000000e+000	 9.192897406616048e+000
0	 2.200010000009550e+000	 3.066659999995866e+000	 8.939387069558839e+000
0	 2.200010000009550e+000	 3.133319999991934e+000	 8.753242496521436e+000
0	 2.200010000009551e+000	 3.199979999988400e+000	 8.629020128591254e+000
0	 2.200010000009551e+000	 3.266639999985467e+000	 8.561276406855097e+000
0	 2.200010000009551e+000	 3.333299999983335e+000	 8.544567772399111e+000
0	 2.266680000012268e+000	 2.666700000016667e+000	 1.223182317487187e+001
0	 2.266680000012267e+000	 2.733360000014533e+000	 1.154056735146646e+001
0	 2.266680000012267e+000	 2.800020000011599e+000	 1.094161701156358e+001
0	 2.266680000012267e+000	 2.866680000008067e+000	 1.043007376885397e+001
0	 2.266680000012268e+000	 2.933340000004134e+000	 1.000103923702769e+001
0	 2.266680000012268e+000	 3.000000000000000e+000	 9.649615029774040e+000
0	 2.266680000012268e+000	 3.066659999995868e+000	 9.370902760781574e+000
0	 2.266680000012268e+000	 3.133319999991934e+000	 9.160004043738171e+000
0	 2.266680000012267e+000	 3.199979999988400e+000	 9.012020492330901e+000
0	 2.266680000012268e+000	 3.266639999985468e+000	 8.922053720246192e+000
0	 2.266680000012267e+000	 3.333299999983333e+000	 8.885205341169684e+000
0	 2.333350000014584e+000	 2.666700000016666e+000	 1.273909181089663e+001
0	 2.333350000014584e+000	 2.733360000014533e+000	 1.203121301015362e+001
0	 2.333350000014585e+000	 2.800020000011600e+000	 1.141345224673057e+001
0	 2.333350000014584e+000	 2.866680000008067e+000	 1.088143121052665e+001
0	 2.333350000014585e+000	 2.933340000004134e+000	 1.043077159144019e+001
0	 2.333350000014585e+000	 3.000000000000000e+000	 1.005709507936871e+001
0	 2.333350000014585e+000	 3.066659999995868e+000	 9.756023364208954e+000
0	 2.333350000014584e+000	 3.133319999991934e+000	 9.523178135856831e+000
0	 2.333350000014585e+000	 3.199979999988401e+000	 9.354181084207431e+000
0	 2.333350000014585e+000	 3.266639999985466e+000	 9.244653899155052e+000
0	 2.333350000014584e+000	 3.333299999983333e+000	 9.190218270593178e+000
0	 2.400020000016401e+000	 2.666700000016666e+000	 1.318535877345166e+001
0	 2.400020000016402e+000	 2.733360000014533e+000	 1.246383939672827e+001
0	 2.400020000016401e+000	 2.800020000011600e+000	 1.183027995940460e+001
0	 2.400020000016401e+000	 2.866680000008067e+000	 1.128079713119643e+001
0	 2.400020000016402e+000	 2.933340000004134e+000	 1.081150758181871e+001
0	 2.400020000016401e+000	 2.999999999999999e+000	 1.041852798098547e+001
0	 2.400020000016402e+000	 3.066659999995868e+000	 1.009797499840986e+001
0	 2.400020000016401e+000	 3.133319999991934e+000	 9.845965303804151e+000
0	 2.400020000016401e+000	 3.199979999988401e+000	 9.658615566879732e+000
0	 2.400020000016401e+000	 3.266639999985467e+000	 9.532042457347094e+000
0	 2.400020000016401e+000	 3.333299999983334e+000	 9.462362644915876e+000
0	 2.466690000017618e+000	 2.666700000016666e+000	 1.357271681381971e+001
0	 2.466690000017617e+000	 2.733360000014533e+000	 1.284088135858495e+001
0	 2.466690000017618e+000	 2.800020000011601e+000	 1.219481581246630e+001
0	 2.466690000017618e+000	 2.866680000008067e+000	 1.163110672860448e+001
0	 2.466690000017618e+000	 2.933340000004134e+000	 1.114634066013923e+001
0	 2.466690000017618e+000	 3.000000000000000e+000	 1.073710416020941e+001
0	 2.466690000017617e+000	 3.066659999995866e+000	 1.039998378195288e+001
0	 2.466690000017617e+000	 3.133319999991934e+000	 1.013156607850653e+001
0	 2.466690000017618e+000	 3.199979999988401e+000	 9.928437603006387e+000
0	 2.466690000017618e+000	 3.266639999985467e+000	 9.787184908587443e+000
0	 2.466690000017617e+000	 3.333299999983334e+000	 9.704394548383768e+000
0	 2.533360000018134e+000	 2.666700000016666e+000	 1.390325868328324e+001
0	 2.533360000018134e+000	 2.733360000014533e+000	 1.316477374311791e+001
0	 2.533360000018134e+000	 2.800020000011600e+000	 1.250977546879606e+001
0	 2.533360000018134e+000	 2.866680000008067e+000	 1.193529520049160e+001
0	 2.533360000018134e+000	 2.933340000004133e+000	 1.143836427837739e+001
0	 2.533360000018134e+000	 3.000000000000000e+000	 1.101601404262534e+001
0	 2.533360000018134e+000	 3.066659999995867e+000	 1.066527583340630e+001
0	 2.533360000018134e+000	 3.133319999991934e+000	 1.038318099089014e+001
0	 2.533360000018134e+000	 3.199979999988400e+000	 1.016676085524573e+001
0	 2.533360000018134e+000	 3.266639999985467e+000	 1.001304676664094e+001
0	 2.533360000018134e+000	 3.333299999983334e+000	 9.919070065242613e+000
0	 2.600030000017850e+000	 2.666700000016666e+000	 1.417907713312455e+001
0	 2.600030000017850e+000	 2.733360000014533e+000	 1.343795139772115e+001
0	 2.600030000017850e+000	 2.800020000011599e+000	 1.277787459127397e+001
0	 2.600030000017850e+000	 2.866680000008066e+000	 1.219629774459836e+001
0	 2.600030000017850e+000	 2.933340000004134e+000	 1.169067188850855e+001
0	 2.600030000017851e+000	 3.000000000000000e+000	 1.125844805381774e+001
0	 2.600030000017850e+000	 3.066659999995866e+000	 1.089707727133811e+001
0	 2.600030000017851e+000	 3.133319999991933e+000	 1.060401057188078e+001
0	 2.600030000017850e+000	 3.199979999988400e+000	 1.037669898625579e+001
0	 2.600030000017851e+000	 3.266639999985467e+000	 1.021259354527216e+001
0	 2.600030000017851e+000	 3.333299999983334e+000	 1.010914527973788e+001
0	 2.666700000016667e+000	 2.666700000016667e+000	 1.440226491462557e+001
0	 2.666700000016666e+000	 2.733360000014533e+000	 1.366284916978838e+001
0	 2.666700000016666e+000	 2.800020000011599e+000	 1.300182884277986e+001
0	 2.666700000016667e+000	 2.866680000008067e+000	 1.241704955866503e+001
0	 2.666700000016666e+000	 2.933340000004133e+000	 1.190635694250775e+001
0	 2.666700000016666e+000	 3.000000000000000e+000	 1.146759661937084e+001
0	 2.666700000016666e+000	 3.066659999995867e+000	 1.109861421431604e+001
0	 2.666700000016666e+000	 3.133319999991934e+000	 1.079725535240400e+001
0	 2.666700000016667e+000	 3.199979999988401e+000	 1.056136565869430e+001
0	 2.666700000016666e+000	 3.266639999985468e+000	 1.038879075824543e+001
0	 2.666700000016667e+000	 3.333299999983334e+000	 1.027737627611481e+001
0	 2.000000000000000e+000	 3.333299999983334e+000	 7.281346387538456e+000
0	 2.000000000000000e+000	 3.399969999982150e+000	 7.387949036124748e+000
0	 2.000000000000000e+000	 3.466639999981867e+000	 7.539901262331337e+000
0	 2.000000000000000e+000	 3.533309999982383e+000	 7.728691601301207e+000
0	 2.000000000000000e+000	 3.599979999983600e+000	 7.945808588177713e+000
0	 2.000000000000000e+000	 3.666649999985416e+000	 8.182740758104492e+000
0	 2.000000000000000e+000	 3.733319999987733e+000	 8.430976646225513e+000
0	 2.000000000000000e+000	 3.799989999990449e+000	 8.682004787685074e+000
0	 2.000000000000000e+000	 3.866659999993466e+000	 8.927313717627804e+000
0	 2.000000000000000e+000	 3.933329999996683e+000	 9.158391971198638e+000
0	 2.000000000000000e+000	 4.000000000000001e+000	 9.366728083542835e+000
0	 2.066670000003317e+000	 3.333299999983333e+000	 7.745394379830414e+000
0	 2.066670000003317e+000	 3.399969999982150e+000	 7.822327425870422e+000
0	 2.066670000003317e+000	 3.466639999981866e+000	 7.941491218321334e+000
0	 2.066670000003316e+000	 3.533309999982382e+000	 8.095220444534471e+000
0	 2.066670000003317e+000	 3.599979999983600e+000	 8.275849791861516e+000
0	 2.066670000003317e+000	 3.666649999985415e+000	 8.475713947654434e+000
0	 2.066670000003317e+000	 3.733319999987733e+000	 8.687147599265488e+000
0	 2.066670000003317e+000	 3.799989999990450e+000	 8.902485434047318e+000
0	 2.066670000003317e+000	 3.866659999993466e+000	 9.114062139352814e+000
0	 2.066670000003318e+000	 3.933329999996684e+000	 9.314212402535180e+000
0	 2.066670000003317e+000	 4.000000000000001e+000	 9.495270910947980e+000
0	 2.133340000006534e+000	 3.333299999983334e+000	 8.165549480034953e+000
0	 2.133340000006534e+000	 3.399969999982150e+000	 8.216071524923384e+000
0	 2.133340000006534e+000	 3.466639999981867e+000	 8.305774684696479e+000
0	 2.133340000006534e+000	 3.533309999982382e+000	 8.427797042702697e+000
0	 2.133340000006534e+000	 3.599979999983601e+000	 8.575276682290772e+000
0	 2.133340000006534e+000	 3.666649999985416e+000	 8.741351686809781e+000
0	 2.133340000006534e+000	 3.733319999987733e+000	 8.919160139609057e+000
0	 2.133340000006534e+000	 3.799989999990450e+000	 9.101840124038247e+000
0	 2.133340000006534e+000	 3.866659999993468e+000	 9.282529723447329e+000
0	 2.133340000006534e+000	 3.933329999996684e+000	 9.454367021186567e+000
0	 2.133340000006533e+000	 4.000000000000000e+000	 9.610490100606510e+000
0	 2.200010000009551e+000	 3.333299999983335e+000	 8.544567772399113e+000
0	 2.200010000009551e+000	 3.399969999982150e+000	 8.571702979537552e+000
0	 2.200010000009550e+000	 3.466639999981866e+000	 8.635050205423594e+000
0	 2.200010000009551e+000	 3.533309999982383e+000	 8.728508173191530e+000
0	 2.200010000009550e+000	 3.599979999983600e+000	 8.845975605975964e+000
0	 2.200010000009551e+000	 3.666649999985416e+000	 8.981351226911796e+000
0	 2.200010000009551e+000	 3.733319999987733e+000	 9.128533759134179e+000
0	 2.200010000009551e+000	 3.799989999990451e+000	 9.281421925778606e+000
0	 2.200010000009551e+000	 3.866659999993467e+000	 9.433914449980835e+000
0	 2.200010000009551e+000	 3.933329999996683e+000	 9.579910054876926e+000
0	 2.200010000009551e+000	 4.000000000000000e+000	 9.713307463603210e+000
0	 2.266680000012267e+000	 3.333299999983333e+000	 8.885205341169680e+000
0	 2.266680000012268e+000	 3.399969999982151e+000	 8.891743435966658e+000
0	 2.266680000012267e+000	 3.466639999981866e+000	 8.931616324469271e+000
0	 2.266680000012268e+000	 3.533309999982383e+000	 8.999440613386426e+000
0	 2.266680000012267e+000	 3.599979999983600e+000	 9.089832909427356e+000
0	 2.266680000012268e+000	 3.666649999985417e+000	 9.197409819301527e+000
0	 2.266680000012267e+000	 3.733319999987733e+000	 9.316787949718714e+000
0	 2.266680000012268e+000	 3.799989999990450e+000	 9.442583907388974e+000
0	 2.266680000012268e+000	 3.866659999993466e+000	 9.569414299022620e+000
0	 2.266680000012268e+000	 3.933329999996684e+000	 9.691895731330252e+000
0	 2.266680000012268e+000	 4.000000000000001e+000	 9.804644811022778e+000
0	 2.333350000014584e+000	 3.333299999983333e+000	 9.190218270593174e+000
0	 2.333350000014584e+000	 3.399969999982150e+000	 9.178714540464160e+000
0	 2.333350000014585e+000	 3.466639999981867e+000	 9.197771585799876e+000
0	 2.333350000014585e+000	 3.533309999982384e+000	 9.242681140672639e+000
0	 2.333350000014584e+000	 3.599979999983600e+000	 9.308734939155039e+000
0	 2.333350000014584e+000	 3.666649999985416e+000	 9.391224715319909e+000
0	 2.333350000014585e+000	 3.733319999987733e+000	 9.485442203240371e+000
0	 2.333350000014584e+000	 3.799989999990450e+000	 9.586679136989810e+000
0	 2.333350000014585e+000	 3.866659999993466e+000	 9.690227250641891e+000
0	 2.333350000014585e+000	 3.933329999996684e+000	 9.791378278270502e+000
0	 2.333350000014584e+000	 3.999999999999999e+000	 9.885423953949832e+000
0	 2.400020000016401e+000	 3.333299999983334e+000	 9.462362644915876e+000
0	 2.400020000016401e+000	 3.399969999982150e+000	 9.435137939283271e+000
0	 2.400020000016401e+000	 3.466639999981866e+000	 9.435814533381551e+000
0	 2.400020000016401e+000	 3.533309999982383e+000	 9.460316532435186e+000
0	 2.400020000016401e+000	 3.599979999983600e+000	 9.504568041668899e+000
0	 2.400020000016401e+000	 3.666649999985416e+000	 9.564493166307646e+000
0	 2.400020000016401e+000	 3.733319999987733e+000	 9.636016011576674e+000
0	 2.400020000016401e+000	 3.799989999990449e+000	 9.715060682701463e+000
0	 2.400020000016401e+000	 3.866659999993466e+000	 9.797551284907728e+000
0	 2.400020000016401e+000	 3.933329999996684e+000	 9.879411923421465e+000
0	 2.400020000016401e+000	 4.000000000000000e+000	 9.956566703468930e+000
0	 2.466690000017617e+000	 3.333299999983334e+000	 9.704394548383766e+000
0	 2.466690000017618e+000	 3.399969999982150e+000	 9.663535278676964e+000
0	 2.466690000017618e+000	 3.466639999981867e+000	 9.648043711180209e+000
0	 2.466690000017617e+000	 3.533309999982382e+000	 9.654433566058904e+000
0	 2.466690000017618e+000	 3.599979999983600e+000	 9.679218563478656e+000
0	 2.466690000017617e+000	 3.666649999985417e+000	 9.718912423605328e+000
0	 2.466690000017617e+000	 3.733319999987733e+000	 9.770028866605026e+000
0	 2.466690000017617e+000	 3.799989999990450e+000	 9.829081612644091e+000
0	 2.466690000017618e+000	 3.866659999993467e+000	 9.892584381889115e+000
0	 2.466690000017618e+000	 3.933329999996684e+000	 9.957050894506903e+000
0	 2.466690000017617e+000	 4.000000000000000e+000	 1.001899487066452e+001
0	 2.533360000018134e+000	 3.333299999983334e+000	 9.919070065242613e+000
0	 2.533360000018134e+000	 3.399969999982150e+000	 9.866428204897970e+000
0	 2.533360000018134e+000	 3.466639999981866e+000	 9.836757663161542e+000
0	 2.533360000018134e+000	 3.533309999982383e+000	 9.827119018928386e+000
0	 2.533360000018134e+000	 3.599979999983600e+000	 9.834572851093812e+000
0	 2.533360000018134e+000	 3.666649999985416e+000	 9.856179738553321e+000
0	 2.533360000018134e+000	 3.733319999987733e+000	 9.889000260202662e+000
0	 2.533360000018134e+000	 3.799989999990449e+000	 9.930094994937786e+000
0	 2.533360000018134e+000	 3.866659999993467e+000	 9.976524521654904e+000
0	 2.533360000018134e+000	 3.933329999996683e+000	 1.002534941925042e+001
0	 2.533360000018134e+000	 4.000000000000000e+000	 1.007363026662097e+001
0	 2.600030000017851e+000	 3.333299999983334e+000	 1.010914527973788e+001
0	 2.600030000017851e+000	 3.399969999982150e+000	 1.004633836419876e+001
0	 2.600030000017849e+000	 3.466639999981866e+000	 1.000425493329098e+001
0	 2.600030000017850e+000	 3.533309999982382e+000	 9.980459668428047e+000
0	 2.600030000017851e+000	 3.599979999983600e+000	 9.972517251023696e+000
0	 2.600030000017851e+000	 3.666649999985416e+000	 9.977992362491847e+000
0	 2.600030000017850e+000	 3.733319999987733e+000	 9.994449684246654e+000
0	 2.600030000017851e+000	 3.799989999990450e+000	 1.001945389770245e+001
0	 2.600030000017850e+000	 3.866659999993465e+000	 1.005056968427384e+001
0	 2.600030000017850e+000	 3.933329999996684e+000	 1.008536172537556e+001
0	 2.600030000017850e+000	 4.000000000000000e+000	 1.012139470242261e+001
0	 2.666700000016667e+000	 3.333299999983334e+000	 1.027737627611481e+001
0	 2.666700000016666e+000	 3.399969999982150e+000	 1.020578740283159e+001
0	 2.666700000016666e+000	 3.466639999981867e+000	 1.015283406553376e+001
0	 2.666700000016666e+000	 3.533309999982383e+000	 1.011654229194207e+001
0	 2.666700000016666e+000	 3.599979999983599e+000	 1.009493810977743e+001
0	 2.666700000016666e+000	 3.666649999985416e+000	 1.008604754676094e+001
0	 2.666700000016667e+000	 3.733319999987733e+000	 1.008789663061393e+001
0	 2.666700000016667e+000	 3.799989999990450e+000	 1.009851138905790e+001
0	 2.666700000016666e+000	 3.866659999993467e+000	 1.011591784981455e+001
0	 2.666700000016666e+000	 3.933329999996684e+000	 1.013814204060575e+001
0	 2.666700000016666e+000	 4.000000000000001e+000	 1.016320998915362e+001
0	 2.000000000000000e+000	 4.000000000000001e+000	 9.366728083542837e+000
0	 2.000000000000000e+000	 4.066670000003318e+000	 9.536504842000916e+000
0	 2.000000000000000e+000	 4.133340000006533e+000	 9.661801266263405e+000
0	 2.000000000000000e+000	 4.200010000009550e+000	 9.748950240000864e+000
0	 2.000000000000000e+000	 4.266680000012268e+000	 9.804284646884053e+000
0	 2.000000000000000e+000	 4.333350000014584e+000	 9.834137370583822e+000
0	 2.000000000000000e+000	 4.400020000016401e+000	 9.844841294771229e+000
0	 2.000000000000000e+000	 4.466690000017617e+000	 9.842729303117423e+000
0	 2.000000000000000e+000	 4.533360000018134e+000	 9.834134279293737e+000
0	 2.000000000000000e+000	 4.600030000017851e+000	 9.825389106971633e+000
0	 2.000000000000000e+000	 4.666700000016665e+000	 9.822826669822712e+000
0	 2.066670000003317e+000	 4.000000000000001e+000	 9.495270910947980e+000
0	 2.066670000003318e+000	 4.066670000003317e+000	 9.642094898395508e+000
0	 2.066670000003316e+000	 4.133340000006534e+000	 9.748565680872227e+000
0	 2.066670000003317e+000	 4.200010000009550e+000	 9.820554069017263e+000
0	 2.066670000003317e+000	 4.266680000012267e+000	 9.863930873469867e+000
0	 2.066670000003317e+000	 4.333350000014584e+000	 9.884566904869455e+000
0	 2.066670000003318e+000	 4.400020000016401e+000	 9.888332973855549e+000
0	 2.066670000003317e+000	 4.466690000017618e+000	 9.881099891067839e+000
0	 2.066670000003317e+000	 4.533360000018134e+000	 9.868738467146125e+000
0	 2.066670000003318e+000	 4.600030000017852e+000	 9.857119512730371e+000
0	 2.066670000003317e+000	 4.666700000016667e+000	 9.852113838460644e+000
0	 2.133340000006533e+000	 4.000000000000000e+000	 9.610490100606510e+000
0	 2.133340000006534e+000	 4.066670000003317e+000	 9.736443262647716e+000
0	 2.133340000006534e+000	 4.133340000006534e+000	 9.825958362227187e+000
0	 2.133340000006534e+000	 4.200010000009550e+000	 9.884454813660488e+000
0	 2.133340000006534e+000	 4.266680000012269e+000	 9.917352031263304e+000
0	 2.133340000006534e+000	 4.333350000014584e+000	 9.930069429351486e+000
0	 2.133340000006534e+000	 4.400020000016402e+000	 9.928026422240960e+000
0	 2.133340000006534e+000	 4.466690000017618e+000	 9.916642424247828e+000
0	 2.133340000006534e+000	 4.533360000018134e+000	 9.901336849688294e+000
0	 2.133340000006534e+000	 4.600030000017850e+000	 9.887529112878694e+000
0	 2.133340000006534e+000	 4.666700000016666e+000	 9.880638628135500e+000
0	 2.200010000009551e+000	 4.000000000000000e+000	 9.713307463603210e+000
0	 2.200010000009551e+000	 4.066670000003318e+000	 9.820348196401165e+000
0	 2.200010000009550e+000	 4.133340000006534e+000	 9.894660421221110e+000
0	 2.200010000009551e+000	 4.200010000009551e+000	 9.941222832762948e+000
0	 2.200010000009551e+000	 4.266680000012268e+000	 9.965014125726707e+000
0	 2.200010000009551e+000	 4.333350000014583e+000	 9.971012994812543e+000
0	 2.200010000009550e+000	 4.400020000016401e+000	 9.964198134720732e+000
0	 2.200010000009551e+000	 4.466690000017618e+000	 9.949548240151673e+000
0	 2.200010000009550e+000	 4.533360000018135e+000	 9.932042005805851e+000
0	 2.200010000009550e+000	 4.600030000017850e+000	 9.916658126383927e+000
0	 2.200010000009551e+000	 4.666700000016667e+000	 9.908375296586650e+000
0	 2.266680000012268e+000	 4.000000000000001e+000	 9.804644811022778e+000
0	 2.266680000012268e+000	 4.066670000003317e+000	 9.894607961299428e+000
0	 2.266680000012268e+000	 4.133340000006534e+000	 9.955352968746787e+000
0	 2.266680000012267e+000	 4.200010000009550e+000	 9.991428485157005e+000
0	 2.266680000012267e+000	 4.266680000012268e+000	 1.000738316232236e+001
0	 2.266680000012267e+000	 4.333350000014583e+000	 1.000776565203524e+001
0	 2.266680000012267e+000	 4.400020000016401e+000	 9.997124606088116e+000
0	 2.266680000012267e+000	 4.466690000017616e+000	 9.980008676273604e+000
0	 2.266680000012267e+000	 4.533360000018134e+000	 9.960966514384415e+000
0	 2.266680000012268e+000	 4.600030000017852e+000	 9.944546772213389e+000
0	 2.266680000012268e+000	 4.666700000016667e+000	 9.935298101553450e+000
0	 2.333350000014584e+000	 3.999999999999999e+000	 9.885423953949832e+000
0	 2.333350000014584e+000	 4.066670000003318e+000	 9.960020818985981e+000
0	 2.333350000014585e+000	 4.133340000006535e+000	 1.000871711569693e+001
0	 2.333350000014585e+000	 4.200010000009550e+000	 1.003564212967500e+001
0	 2.333350000014584e+000	 4.266680000012268e+000	 1.004492514651256e+001
0	 2.333350000014584e+000	 4.333350000014584e+000	 1.004069545180214e+001
0	 2.333350000014584e+000	 4.400020000016402e+000	 1.002708233113635e+001
0	 2.333350000014585e+000	 4.466690000017618e+000	 1.000821507010790e+001
0	 2.333350000014585e+000	 4.533360000018135e+000	 9.988222954309604e+000
0	 2.333350000014585e+000	 4.600030000017850e+000	 9.971235269334386e+000
0	 2.333350000014584e+000	 4.666700000016666e+000	 9.961381300775265e+000
0	 2.400020000016401e+000	 4.000000000000000e+000	 9.956566703468928e+000
0	 2.400020000016401e+000	 4.066670000003317e+000	 1.001738503110427e+001
0	 2.400020000016401e+000	 4.133340000006534e+000	 1.005543397296425e+001
0	 2.400020000016401e+000	 4.200010000009550e+000	 1.007443412514918e+001
0	 2.400020000016401e+000	 4.266680000012268e+000	 1.007810608375952e+001
0	 2.400020000016402e+000	 4.333350000014583e+000	 1.007017044489581e+001
0	 2.400020000016401e+000	 4.400020000016401e+000	 1.005434780465865e+001
0	 2.400020000016401e+000	 4.466690000017616e+000	 1.003435875914878e+001
0	 2.400020000016400e+000	 4.533360000018133e+000	 1.001392390446701e+001
0	 2.400020000016401e+000	 4.600030000017851e+000	 9.996763836714228e+000
0	 2.400020000016401e+000	 4.666700000016665e+000	 9.986599151991442e+000
0	 2.466690000017617e+000	 4.000000000000000e+000	 1.001899487066452e+001
0	 2.466690000017618e+000	 4.066670000003317e+000	 1.006749885929765e+001
0	 2.466690000017618e+000	 4.133340000006535e+000	 1.009618465144132e+001
0	 2.466690000017618e+000	 4.200010000009550e+000	 1.010837483041181e+001
0	 2.466690000017618e+000	 4.266680000012268e+000	 1.010739197952548e+001
0	 2.466690000017618e+000	 4.333350000014583e+000	 1.009655868209877e+001
0	 2.466690000017617e+000	 4.400020000016402e+000	 1.007919752144823e+001
0	 2.466690000017617e+000	 4.466690000017618e+000	 1.005863108089048e+001
0	 2.466690000017617e+000	 4.533360000018133e+000	 1.003818194374221e+001
0	 2.466690000017617e+000	 4.600030000017849e+000	 1.002117269332021e+001
0	 2.466690000017617e+000	 4.666700000016666e+000	 1.001092591294137e+001
0	 2.533360000018134e+000	 4.000000000000000e+000	 1.007363026662097e+001
0	 2.533360000018134e+000	 4.066670000003318e+000	 1.011116056520942e+001
0	 2.533360000018134e+000	 4.133340000006535e+000	 1.013165026202075e+001
0	 2.533360000018134e+000	 4.200010000009550e+000	 1.013803460429507e+001
0	 2.533360000018135e+000	 4.266680000012268e+000	 1.013324883927258e+001
0	 2.533360000018134e+000	 4.333350000014584e+000	 1.012022821419354e+001
0	 2.533360000018134e+000	 4.400020000016402e+000	 1.010190797629827e+001
0	 2.533360000018134e+000	 4.466690000017617e+000	 1.008122337282720e+001
0	 2.533360000018134e+000	 4.533360000018135e+000	 1.006110965102081e+001
0	 2.533360000018134e+000	 4.600030000017849e+000	 1.004450205811966e+001
0	 2.533360000018134e+000	 4.666700000016666e+000	 1.003433584136440e+001
0	 2.600030000017850e+000	 4.000000000000000e+000	 1.012139470242261e+001
0	 2.600030000017850e+000	 4.066670000003316e+000	 1.014916841048279e+001
0	 2.600030000017851e+000	 4.133340000006535e+000	 1.016251191559502e+001
0	 2.600030000017851e+000	 4.200010000009550e+000	 1.016398380563112e+001
0	 2.600030000017851e+000	 4.266680000012268e+000	 1.015614266846299e+001
0	 2.600030000017851e+000	 4.333350000014584e+000	 1.014154709196258e+001
0	 2.600030000017850e+000	 4.400020000016400e+000	 1.012275566400195e+001
0	 2.600030000017850e+000	 4.466690000017617e+000	 1.010232697245315e+001
0	 2.600030000017850e+000	 4.533360000018132e+000	 1.008281960518839e+001
0	 2.600030000017851e+000	 4.600030000017849e+000	 1.006679215007988e+001
0	 2.600030000017851e+000	 4.666700000016666e+000	 1.005680319499992e+001
0	 2.666700000016666e+000	 4.000000000000001e+000	 1.016320998915362e+001
0	 2.666700000016667e+000	 4.066670000003317e+000	 1.018232065676094e+001
0	 2.666700000016666e+000	 4.133340000006535e+000	 1.018945072305660e+001
0	 2.666700000016666e+000	 4.200010000009551e+000	 1.018679279325206e+001
0	 2.666700000016667e+000	 4.266680000012267e+000	 1.017653947255880e+001
0	 2.666700000016667e+000	 4.333350000014584e+000	 1.016088336618838e+001
0	 2.666700000016666e+000	 4.400020000016401e+000	 1.014201707935239e+001
0	 2.666700000016667e+000	 4.466690000017619e+000	 1.012213321726253e+001
0	 2.666700000016666e+000	 4.533360000018133e+000	 1.010342438513053e+001
0	 2.666700000016666e+000	 4.600030000017851e+000	 1.008808318816815e+001
0	 2.666700000016666e+000	 4.666700000016666e+000	 1.007830223158728e+001
0	 2.000000000000000e+000	 4.666700000016665e+000	 9.822826669822714e+000
0	 2.000000000000000e+000	 4.733360000014533e+000	 9.824484257499853e+000
0	 2.000000000000000e+000	 4.800020000011601e+000	 9.824475664615166e+000
0	 2.000000000000000e+000	 4.866680000008067e+000	 9.823247344387392e+000
0	 2.000000000000000e+000	 4.933340000004134e+000	 9.821245750035224e+000
0	 2.000000000000000e+000	 5.000000000000001e+000	 9.818917334777332e+000
0	 2.000000000000000e+000	 5.066659999995866e+000	 9.816708551832360e+000
0	 2.000000000000000e+000	 5.133319999991934e+000	 9.815065854418920e+000
0	 2.000000000000000e+000	 5.199979999988400e+000	 9.814435695755600e+000
0	 2.000000000000000e+000	 5.266639999985468e+000	 9.815264529060954e+000
0	 2.000000000000000e+000	 5.333299999983333e+000	 9.817998807553510e+000
0	 2.066670000003317e+000	 4.666700000016667e+000	 9.852113838460644e+000
0	 2.066670000003317e+000	 4.733360000014534e+000	 9.851725035546309e+000
0	 2.066670000003316e+000	 4.800020000011599e+000	 9.850266070546232e+000
0	 2.066670000003317e+000	 4.866680000008067e+000	 9.848071701074471e+000
0	 2.066670000003317e+000	 4.933340000004134e+000	 9.845476684745103e+000
0	 2.066670000003318e+000	 5.000000000000000e+000	 9.842815779172110e+000
0	 2.066670000003317e+000	 5.066659999995868e+000	 9.840423741969502e+000
0	 2.066670000003317e+000	 5.133319999991933e+000	 9.838635330751243e+000
0	 2.066670000003316e+000	 5.199979999988400e+000	 9.837785303131284e+000
0	 2.066670000003317e+000	 5.266639999985467e+000	 9.838208416723527e+000
0	 2.066670000003317e+000	 5.333299999983333e+000	 9.840239429141874e+000
0	 2.133340000006534e+000	 4.666700000016666e+000	 9.880638628135504e+000
0	 2.133340000006534e+000	 4.733360000014533e+000	 9.878641744337907e+000
0	 2.133340000006533e+000	 4.800020000011598e+000	 9.876057335176991e+000
0	 2.133340000006534e+000	 4.866680000008067e+000	 9.873119333574907e+000
0	 2.133340000006534e+000	 4.933340000004134e+000	 9.870061672453742e+000
0	 2.133340000006534e+000	 5.000000000000002e+000	 9.867118284735602e+000
0	 2.133340000006534e+000	 5.066659999995867e+000	 9.864523103342554e+000
0	 2.133340000006534e+000	 5.133319999991935e+000	 9.862510061196637e+000
0	 2.133340000006534e+000	 5.199979999988400e+000	 9.861313091219881e+000
0	 2.133340000006534e+000	 5.266639999985467e+000	 9.861166126334293e+000
0	 2.133340000006533e+000	 5.333299999983334e+000	 9.862303099461856e+000
0	 2.200010000009551e+000	 4.666700000016667e+000	 9.908375296586652e+000
0	 2.200010000009551e+000	 4.733360000014534e+000	 9.905151583711850e+000
0	 2.200010000009551e+000	 4.800020000011601e+000	 9.901720989576159e+000
0	 2.200010000009550e+000	 4.866680000008064e+000	 9.898227493322480e+000
0	 2.200010000009550e+000	 4.933340000004133e+000	 9.894815074093716e+000
0	 2.200010000009551e+000	 5.000000000000002e+000	 9.891627711032765e+000
0	 2.200010000009550e+000	 5.066659999995866e+000	 9.888809383282473e+000
0	 2.200010000009551e+000	 5.133319999991936e+000	 9.886504069985714e+000
0	 2.200010000009551e+000	 5.199979999988402e+000	 9.884855750285308e+000
0	 2.200010000009550e+000	 5.266639999985466e+000	 9.884008403324078e+000
0	 2.200010000009551e+000	 5.333299999983335e+000	 9.884106008244821e+000
0	 2.266680000012268e+000	 4.666700000016667e+000	 9.935298101553450e+000
0	 2.266680000012268e+000	 4.733360000014534e+000	 9.931171753505362e+000
0	 2.266680000012267e+000	 4.800020000011600e+000	 9.927128564812399e+000
0	 2.266680000012268e+000	 4.866680000008068e+000	 9.923233431750989e+000
0	 2.266680000012268e+000	 4.933340000004133e+000	 9.919551250597571e+000
0	 2.266680000012267e+000	 4.999999999999999e+000	 9.916146917628506e+000
0	 2.266680000012268e+000	 5.066659999995868e+000	 9.913085329120220e+000
0	 2.266680000012267e+000	 5.133319999991935e+000	 9.910431381349072e+000
0	 2.266680000012268e+000	 5.199979999988401e+000	 9.908249970591434e+000
0	 2.266680000012268e+000	 5.266639999985469e+000	 9.906605993123662e+000
0	 2.266680000012268e+000	 5.333299999983335e+000	 9.905564345222095e+000
0	 2.333350000014584e+000	 4.666700000016666e+000	 9.961381300775267e+000
0	 2.333350000014584e+000	 4.733360000014534e+000	 9.956619453555641e+000
0	 2.333350000014585e+000	 4.800020000011601e+000	 9.952151591954419e+000
0	 2.333350000014584e+000	 4.866680000008066e+000	 9.947974400294283e+000
0	 2.333350000014585e+000	 4.933340000004134e+000	 9.944084562897864e+000
0	 2.333350000014584e+000	 4.999999999999999e+000	 9.940478764087805e+000
0	 2.333350000014584e+000	 5.066659999995866e+000	 9.937153688186742e+000
0	 2.333350000014585e+000	 5.133319999991935e+000	 9.934106019517333e+000
0	 2.333350000014584e+000	 5.199979999988400e+000	 9.931332442402171e+000
0	 2.333350000014585e+000	 5.266639999985466e+000	 9.928829641163878e+000
0	 2.333350000014583e+000	 5.333299999983333e+000	 9.926594300125057e+000
0	 2.400020000016401e+000	 4.666700000016665e+000	 9.986599151991445e+000
0	 2.400020000016401e+000	 4.733360000014533e+000	 9.981411883699908e+000
0	 2.400020000016401e+000	 4.800020000011599e+000	 9.976661602070941e+000
0	 2.400020000016401e+000	 4.866680000008067e+000	 9.972287650386154e+000
0	 2.400020000016401e+000	 4.933340000004132e+000	 9.968229371927162e+000
0	 2.400020000016401e+000	 5.000000000000000e+000	 9.964426109975587e+000
0	 2.400020000016402e+000	 5.066659999995868e+000	 9.960817207813033e+000
0	 2.400020000016401e+000	 5.133319999991934e+000	 9.957342008721112e+000
0	 2.400020000016401e+000	 5.199979999988400e+000	 9.953939855981403e+000
0	 2.400020000016402e+000	 5.266639999985467e+000	 9.950550092875522e+000
0	 2.400020000016401e+000	 5.333299999983335e+000	 9.947112062685070e+000
0	 2.466690000017617e+000	 4.666700000016666e+000	 1.001092591294137e+001
0	 2.466690000017617e+000	 4.733360000014532e+000	 1.000546624377539e+001
0	 2.466690000017617e+000	 4.800020000011599e+000	 1.000053012623064e+001
0	 2.466690000017618e+000	 4.866680000008068e+000	 9.996010433460436e+000
0	 2.466690000017617e+000	 4.933340000004134e+000	 9.991800038618072e+000
0	 2.466690000017618e+000	 5.000000000000000e+000	 9.987791814856831e+000
0	 2.466690000017618e+000	 5.066659999995866e+000	 9.983878635330058e+000
0	 2.466690000017618e+000	 5.133319999991934e+000	 9.979953373191025e+000
0	 2.466690000017618e+000	 5.199979999988400e+000	 9.975908901593046e+000
0	 2.466690000017618e+000	 5.266639999985469e+000	 9.971638093689439e+000
0	 2.466690000017618e+000	 5.333299999983335e+000	 9.967033822633477e+000
0	 2.533360000018134e+000	 4.666700000016666e+000	 1.003433584136441e+001
0	 2.533360000018134e+000	 4.733360000014534e+000	 1.002869973361930e+001
0	 2.533360000018134e+000	 4.800020000011600e+000	 1.002362869550225e+001
0	 2.533360000018134e+000	 4.866680000008065e+000	 1.001898000095094e+001
0	 2.533360000018133e+000	 4.933340000004133e+000	 1.001461092390312e+001
0	 2.533360000018134e+000	 5.000000000000000e+000	 1.001037873829650e+001
0	 2.533360000018134e+000	 5.066659999995868e+000	 1.000614071806878e+001
0	 2.533360000018134e+000	 5.133319999991934e+000	 1.000175413715771e+001
0	 2.533360000018134e+000	 5.199979999988400e+000	 9.997076269501005e+000
0	 2.533360000018134e+000	 5.266639999985468e+000	 9.991964389036415e+000
0	 2.533360000018134e+000	 5.333299999983333e+000	 9.986275769701662e+000
0	 2.600030000017851e+000	 4.666700000016666e+000	 1.005680319499992e+001
0	 2.600030000017851e+000	 4.733360000014534e+000	 1.005102955306888e+001
0	 2.600030000017850e+000	 4.800020000011600e+000	 1.004582884095447e+001
0	 2.600030000017851e+000	 4.866680000008067e+000	 1.004103360429154e+001
0	 2.600030000017851e+000	 4.933340000004134e+000	 1.003647638871495e+001
0	 2.600030000017851e+000	 5.000000000000000e+000	 1.003198973985955e+001
0	 2.600030000017850e+000	 5.066659999995866e+000	 1.002740620336020e+001
0	 2.600030000017850e+000	 5.133319999991935e+000	 1.002255832485179e+001
0	 2.600030000017850e+000	 5.199979999988400e+000	 1.001727864996919e+001
0	 2.600030000017851e+000	 5.266639999985468e+000	 1.001139972434729e+001
0	 2.600030000017851e+000	 5.333299999983334e+000	 1.000475409362097e+001
0	 2.666700000016666e+000	 4.666700000016666e+000	 1.007830223158728e+001
0	 2.666700000016666e+000	 4.733360000014533e+000	 1.007237290196134e+001
0	 2.666700000016666e+000	 4.800020000011600e+000	 1.006700209365603e+001
0	 2.666700000016667e+000	 4.866680000008069e+000	 1.006200849491605e+001
0	 2.666700000016666e+000	 4.933340000004133e+000	 1.005721079398611e+001
0	 2.666700000016666e+000	 5.000000000000001e+000	 1.005242767911095e+001
0	 2.666700000016667e+000	 5.066659999995868e+000	 1.004747783853530e+001
0	 2.666700000016666e+000	 5.133319999991934e+000	 1.004217996050390e+001
0	 2.666700000016667e+000	 5.199979999988402e+000	 1.003635273326152e+001
0	 2.666700000016667e+000	 5.266639999985468e+000	 1.002981484505289e+001
0	 2.666700000016666e+000	 5.333299999983335e+000	 1.002238498412280e+001
0	 2.000000000000000e+000	 5.333299999983333e+000	 9.817998807553510e+000
0	 2.000000000000000e+000	 5.399969999982149e+000	 9.821983854162601e+000
0	 2.000000000000000e+000	 5.466639999981868e+000	 9.826184127215500e+000
0	 2.000000000000000e+000	 5.533309999982383e+000	 9.830476509318695e+000
0	 2.000000000000000e+000	 5.599979999983600e+000	 9.834737883078704e+000
0	 2.000000000000000e+000	 5.666649999985416e+000	 9.838845131102005e+000
0	 2.000000000000000e+000	 5.733319999987732e+000	 9.842675135995082e+000
0	 2.000000000000000e+000	 5.799989999990449e+000	 9.846104780364433e+000
0	 1.999999999999999e+000	 5.866659999993466e+000	 9.849010946816547e+000
0	 2.000000000000000e+000	 5.933329999996682e+000	 9.851270517957893e+000
0	 2.000000000000000e+000	 6.000000000000000e+000	 9.852760376394928e+000
0	 2.066670000003317e+000	 5.333299999983333e+000	 9.840239429141873e+000
0	 2.066670000003317e+000	 5.399969999982150e+000	 9.843288169685309e+000
0	 2.066670000003317e+000	 5.466639999981866e+000	 9.846478571433273e+000
0	 2.066670000003317e+000	 5.533309999982385e+000	 9.849717873749301e+000
0	 2.066670000003317e+000	 5.599979999983599e+000	 9.852913315996981e+000
0	 2.066670000003317e+000	 5.666649999985414e+000	 9.855972137539856e+000
0	 2.066670000003317e+000	 5.733319999987733e+000	 9.858801577741533e+000
0	 2.066670000003317e+000	 5.799989999990450e+000	 9.861308875965513e+000
0	 2.066670000003317e+000	 5.866659999993467e+000	 9.863401271575404e+000
0	 2.066670000003317e+000	 5.933329999996684e+000	 9.864986003934721e+000
0	 2.066670000003317e+000	 5.999999999999999e+000	 9.865970312407033e+000
0	 2.133340000006533e+000	 5.333299999983334e+000	 9.862303099461856e+000
0	 2.133340000006534e+000	 5.399969999982150e+000	 9.864239116030964e+000
0	 2.133340000006534e+000	 5.466639999981865e+000	 9.866289471300858e+000
0	 2.133340000006534e+000	 5.533309999982383e+000	 9.868389218637246e+000
0	 2.133340000006534e+000	 5.599979999983600e+000	 9.870473411405801e+000
0	 2.133340000006534e+000	 5.666649999985418e+000	 9.872477102972241e+000
0	 2.133340000006534e+000	 5.733319999987733e+000	 9.874335346702248e+000
0	 2.133340000006534e+000	 5.799989999990448e+000	 9.875983195961505e+000
0	 2.133340000006534e+000	 5.866659999993466e+000	 9.877355704115718e+000
0	 2.133340000006534e+000	 5.933329999996684e+000	 9.878387924530566e+000
0	 2.133340000006533e+000	 5.999999999999998e+000	 9.879014910571735e+000
0	 2.200010000009551e+000	 5.333299999983335e+000	 9.884106008244819e+000
0	 2.200010000009551e+000	 5.399969999982152e+000	 9.884799818871269e+000
0	 2.200010000009551e+000	 5.466639999981866e+000	 9.885618467233206e+000
0	 2.200010000009551e+000	 5.533309999982383e+000	 9.886522277943477e+000
0	 2.200010000009550e+000	 5.599979999983599e+000	 9.887471575615011e+000
0	 2.200010000009551e+000	 5.666649999985415e+000	 9.888426684860646e+000
0	 2.200010000009550e+000	 5.733319999987733e+000	 9.889347930293292e+000
0	 2.200010000009551e+000	 5.799989999990449e+000	 9.890195636525808e+000
0	 2.200010000009550e+000	 5.866659999993466e+000	 9.890930128171105e+000
0	 2.200010000009551e+000	 5.933329999996686e+000	 9.891511729842035e+000
0	 2.200010000009551e+000	 6.000000000000000e+000	 9.891900766151503e+000
0	 2.266680000012268e+000	 5.333299999983335e+000	 9.905564345222095e+000
0	 2.266680000012268e+000	 5.399969999982151e+000	 9.904933403877957e+000
0	 2.266680000012268e+000	 5.466639999981866e+000	 9.904467199645216e+000
0	 2.266680000012268e+000	 5.533309999982383e+000	 9.904148785628991e+000
0	 2.266680000012267e+000	 5.599979999983599e+000	 9.903961214934419e+000
0	 2.266680000012268e+000	 5.666649999985416e+000	 9.903887540666615e+000
0	 2.266680000012267e+000	 5.733319999987733e+000	 9.903910815930720e+000
0	 2.266680000012268e+000	 5.799989999990450e+000	 9.904014093831856e+000
0	 2.266680000012267e+000	 5.866659999993466e+000	 9.904180427475172e+000
0	 2.266680000012268e+000	 5.933329999996684e+000	 9.904392869965784e+000
0	 2.266680000012268e+000	 6.000000000000000e+000	 9.904634474408837e+000
0	 2.333350000014583e+000	 5.333299999983333e+000	 9.926594300125061e+000
0	 2.333350000014585e+000	 5.399969999982150e+000	 9.924602996722760e+000
0	 2.333350000014584e+000	 5.466639999981866e+000	 9.922837308951849e+000
0	 2.333350000014584e+000	 5.533309999982384e+000	 9.921300475654743e+000
0	 2.333350000014584e+000	 5.599979999983599e+000	 9.919995735673876e+000
0	 2.333350000014584e+000	 5.666649999985417e+000	 9.918926327851683e+000
0	 2.333350000014584e+000	 5.733319999987733e+000	 9.918095491030599e+000
0	 2.333350000014584e+000	 5.799989999990448e+000	 9.917506464053060e+000
0	 2.333350000014585e+000	 5.866659999993468e+000	 9.917162485761521e+000
0	 2.333350000014585e+000	 5.933329999996683e+000	 9.917066794998418e+000
0	 2.333350000014584e+000	 6.000000000000000e+000	 9.917222630606220e+000
0	 2.400020000016401e+000	 5.333299999983335e+000	 9.947112062685072e+000
0	 2.400020000016401e+000	 5.399969999982150e+000	 9.943771723077415e+000
0	 2.400020000016401e+000	 5.466639999981866e+000	 9.940730435568023e+000
0	 2.400020000016401e+000	 5.533309999982383e+000	 9.938009081981690e+000
0	 2.400020000016401e+000	 5.599979999983598e+000	 9.935628544143199e+000
0	 2.400020000016401e+000	 5.666649999985414e+000	 9.933609703877350e+000
0	 2.400020000016401e+000	 5.733319999987733e+000	 9.931973443008955e+000
0	 2.400020000016401e+000	 5.799989999990450e+000	 9.930740643362825e+000
0	 2.400020000016401e+000	 5.866659999993468e+000	 9.929932186763761e+000
0	 2.400020000016401e+000	 5.933329999996683e+000	 9.929568955036594e+000
0	 2.400020000016401e+000	 6.000000000000000e+000	 9.929671830006159e+000
0	 2.466690000017618e+000	 5.333299999983335e+000	 9.967033822633477e+000
0	 2.466690000017617e+000	 5.399969999982149e+000	 9.962402708613649e+000
0	 2.466690000017618e+000	 5.466639999981865e+000	 9.958148219908692e+000
0	 2.466690000017617e+000	 5.533309999982382e+000	 9.954306338570813e+000
0	 2.466690000017617e+000	 5.599979999983598e+000	 9.950913046652243e+000
0	 2.466690000017617e+000	 5.666649999985414e+000	 9.948004326205179e+000
0	 2.466690000017618e+000	 5.733319999987732e+000	 9.945616159281881e+000
0	 2.466690000017618e+000	 5.799989999990450e+000	 9.943784527934582e+000
0	 2.466690000017617e+000	 5.866659999993468e+000	 9.942545414215525e+000
0	 2.466690000017618e+000	 5.933329999996683e+000	 9.941934800176947e+000
0	 2.466690000017618e+000	 6.000000000000000e+000	 9.941988667871124e+000
0	 2.533360000018134e+000	 5.333299999983333e+000	 9.986275769701662e+000
0	 2.533360000018134e+000	 5.399969999982148e+000	 9.980459079003198e+000
0	 2.533360000018134e+000	 5.466639999981866e+000	 9.975092302388781e+000
0	 2.533360000018134e+000	 5.533309999982383e+000	 9.970223979383079e+000
0	 2.533360000018133e+000	 5.599979999983598e+000	 9.965902649510820e+000
0	 2.533360000018134e+000	 5.666649999985417e+000	 9.962176852296699e+000
0	 2.533360000018134e+000	 5.733319999987734e+000	 9.959095127265428e+000
0	 2.533360000018134e+000	 5.799989999990449e+000	 9.956706013941748e+000
0	 2.533360000018134e+000	 5.866659999993467e+000	 9.955058051850395e+000
0	 2.533360000018134e+000	 5.933329999996683e+000	 9.954199780516110e+000
0	 2.533360000018134e+000	 6.000000000000000e+000	 9.954179739463626e+000
0	 2.600030000017851e+000	 5.333299999983334e+000	 1.000475409362097e+001
0	 2.600030000017851e+000	 5.399969999982149e+000	 9.997903959917805e+000
0	 2.600030000017849e+000	 5.466639999981865e+000	 9.991564323423226e+000
0	 2.600030000017850e+000	 5.533309999982384e+000	 9.985793738379474e+000
0	 2.600030000017850e+000	 5.599979999983599e+000	 9.980650759028789e+000
0	 2.600030000017850e+000	 5.666649999985417e+000	 9.976193939613415e+000
0	 2.600030000017851e+000	 5.733319999987734e+000	 9.972481834375655e+000
0	 2.600030000017850e+000	 5.799989999990451e+000	 9.969572997557751e+000
0	 2.600030000017851e+000	 5.866659999993467e+000	 9.967525983402004e+000
0	 2.600030000017851e+000	 5.933329999996685e+000	 9.966399346150707e+000
0	 2.600030000017851e+000	 6.000000000000000e+000	 9.966251640046151e+000
0	 2.666700000016666e+000	 5.333299999983335e+000	 1.002238498412280e+001
0	 2.666700000016666e+000	 5.399969999982150e+000	 1.001470047702922e+001
0	 2.666700000016666e+000	 5.466639999981865e+000	 1.000756592342699e+001
0	 2.666700000016666e+000	 5.533309999982384e+000	 1.000104734952096e+001
0	 2.666700000016666e+000	 5.599979999983598e+000	 9.995210781515981e+000
0	 2.666700000016665e+000	 5.666649999985414e+000	 9.990122245616899e+000
0	 2.666700000016667e+000	 5.733319999987733e+000	 9.985847768028622e+000
0	 2.666700000016667e+000	 5.799989999990448e+000	 9.982453374956014e+000
0	 2.666700000016665e+000	 5.866659999993467e+000	 9.980005092603966e+000
0	 2.666700000016666e+000	 5.933329999996683e+000	 9.978568947177401e+000
0	 2.666700000016666e+000	 6.000000000000001e+000	 9.978210964881219e+000
0	 2.000000000000000e+000	 6.000000000000000e+000	 9.852760376394928e+000
0	 2.000000000000000e+000	 6.066670000003317e+000	 9.853879918858349e+000
0	 2.000000000000000e+000	 6.133340000006534e+000	 9.855151633811005e+000
0	 2.000000000000000e+000	 6.200010000009550e+000	 9.856637041457661e+000
0	 1.999999999999999e+000	 6.266680000012266e+000	 9.858397662003094e+000
0	 2.000000000000000e+000	 6.333350000014585e+000	 9.860495015652058e+000
0	 2.000000000000000e+000	 6.400020000016401e+000	 9.862990622609338e+000
0	 2.000000000000000e+000	 6.466690000017618e+000	 9.865946003079715e+000
0	 2.000000000000000e+000	 6.533360000018136e+000	 9.869422677267981e+000
0	 2.000000000000000e+000	 6.600030000017848e+000	 9.873482165378924e+000
0	 2.000000000000000e+000	 6.666700000016668e+000	 9.878185987617339e+000
0	 2.066670000003317e+000	 5.999999999999999e+000	 9.865970312407033e+000
0	 2.066670000003317e+000	 6.066670000003316e+000	 9.866704085199558e+000
0	 2.066670000003317e+000	 6.133340000006533e+000	 9.867631841506027e+000
0	 2.066670000003317e+000	 6.200010000009550e+000	 9.868802767169729e+000
0	 2.066670000003317e+000	 6.266680000012268e+000	 9.870266048033990e+000
0	 2.066670000003316e+000	 6.333350000014582e+000	 9.872070869942144e+000
0	 2.066670000003318e+000	 6.400020000016401e+000	 9.874266418737497e+000
0	 2.066670000003318e+000	 6.466690000017618e+000	 9.876901880263391e+000
0	 2.066670000003316e+000	 6.533360000018132e+000	 9.880026440363162e+000
0	 2.066670000003317e+000	 6.600030000017851e+000	 9.883689284880171e+000
0	 2.066670000003317e+000	 6.666700000016665e+000	 9.887939599657717e+000
0	 2.133340000006533e+000	 5.999999999999998e+000	 9.879014910571735e+000
0	 2.133340000006534e+000	 6.066670000003318e+000	 9.879508438216291e+000
0	 2.133340000006534e+000	 6.133340000006535e+000	 9.880208846925051e+000
0	 2.133340000006534e+000	 6.200010000009550e+000	 9.881154035289345e+000
0	 2.133340000006533e+000	 6.266680000012268e+000	 9.882381901900489e+000
0	 2.133340000006534e+000	 6.333350000014584e+000	 9.883930345349814e+000
0	 2.133340000006534e+000	 6.400020000016400e+000	 9.885837264228663e+000
0	 2.133340000006534e+000	 6.466690000017617e+000	 9.888140557128368e+000
0	 2.133340000006534e+000	 6.533360000018135e+000	 9.890878122640284e+000
0	 2.133340000006535e+000	 6.600030000017850e+000	 9.894087859355748e+000
0	 2.133340000006534e+000	 6.666700000016665e+000	 9.897807665866116e+000
0	 2.200010000009551e+000	 6.000000000000000e+000	 9.891900766151503e+000
0	 2.200010000009551e+000	 6.066670000003318e+000	 9.892269210128490e+000
0	 2.200010000009551e+000	 6.133340000006534e+000	 9.892833924025917e+000
0	 2.200010000009551e+000	 6.200010000009551e+000	 9.893622566292608e+000
0	 2.200010000009551e+000	 6.266680000012268e+000	 9.894662795377316e+000
0	 2.200010000009550e+000	 6.333350000014584e+000	 9.895982269728878e+000
0	 2.200010000009550e+000	 6.400020000016403e+000	 9.897608647796085e+000
0	 2.200010000009551e+000	 6.466690000017617e+000	 9.899569588027728e+000
0	 2.200010000009550e+000	 6.533360000018132e+000	 9.901892748872644e+000
0	 2.200010000009551e+000	 6.600030000017851e+000	 9.904605788779644e+000
0	 2.200010000009551e+000	 6.666700000016667e+000	 9.907736366197543e+000
0	 2.266680000012268e+000	 6.000000000000000e+000	 9.904634474408837e+000
0	 2.266680000012267e+000	 6.066670000003316e+000	 9.904962633156119e+000
0	 2.266680000012267e+000	 6.133340000006531e+000	 9.905458346766460e+000
0	 2.266680000012268e+000	 6.200010000009551e+000	 9.906140080655584e+000
0	 2.266680000012267e+000	 6.266680000012268e+000	 9.907026300239235e+000
0	 2.266680000012268e+000	 6.333350000014584e+000	 9.908135470933122e+000
0	 2.266680000012268e+000	 6.400020000016402e+000	 9.909486058152993e+000
0	 2.266680000012267e+000	 6.466690000017616e+000	 9.911096527314575e+000
0	 2.266680000012267e+000	 6.533360000018132e+000	 9.912985343833606e+000
0	 2.266680000012267e+000	 6.600030000017849e+000	 9.915170973125836e+000
0	 2.266680000012268e+000	 6.666700000016666e+000	 9.917671880607003e+000
0	 2.333350000014584e+000	 6.000000000000000e+000	 9.917222630606220e+000
0	 2.333350000014584e+000	 6.066670000003316e+000	 9.917564939519137e+000
0	 2.333350000014585e+000	 6.133340000006532e+000	 9.918033389104490e+000
0	 2.333350000014584e+000	 6.200010000009550e+000	 9.918638298854406e+000
0	 2.333350000014584e+000	 6.266680000012268e+000	 9.919389988260994e+000
0	 2.333350000014584e+000	 6.333350000014583e+000	 9.920298776816361e+000
0	 2.333350000014584e+000	 6.400020000016401e+000	 9.921374984012653e+000
0	 2.333350000014585e+000	 6.466690000017619e+000	 9.922628929341988e+000
0	 2.333350000014584e+000	 6.533360000018132e+000	 9.924070932296475e+000
0	 2.333350000014585e+000	 6.600030000017851e+000	 9.925711312368277e+000
0	 2.333350000014584e+000	 6.666700000016665e+000	 9.927560389049498e+000
0	 2.400020000016401e+000	 6.000000000000000e+000	 9.929671830006159e+000
0	 2.400020000016401e+000	 6.066670000003318e+000	 9.930052361437516e+000
0	 2.400020000016401e+000	 6.133340000006532e+000	 9.930510324997847e+000
0	 2.400020000016401e+000	 6.200010000009550e+000	 9.931048941365129e+000
0	 2.400020000016401e+000	 6.266680000012267e+000	 9.931671431217321e+000
0	 2.400020000016401e+000	 6.333350000014582e+000	 9.932381015232393e+000
0	 2.400020000016400e+000	 6.400020000016400e+000	 9.933180914088320e+000
0	 2.400020000016401e+000	 6.466690000017618e+000	 9.934074348463080e+000
0	 2.400020000016401e+000	 6.533360000018134e+000	 9.935064539034624e+000
0	 2.400020000016401e+000	 6.600030000017850e+000	 9.936154706480954e+000
0	 2.400020000016401e+000	 6.666700000016667e+000	 9.937348071480034e+000
0	 2.466690000017618e+000	 6.000000000000000e+000	 9.941988667871124e+000
0	 2.466690000017618e+000	 6.066670000003317e+000	 9.942401131131209e+000
0	 2.466690000017617e+000	 6.133340000006533e+000	 9.942840428404354e+000
0	 2.466690000017618e+000	 6.200010000009551e+000	 9.943303728663867e+000
0	 2.466690000017617e+000	 6.266680000012268e+000	 9.943788200882986e+000
0	 2.466690000017617e+000	 6.333350000014583e+000	 9.944291014035015e+000
0	 2.466690000017618e+000	 6.400020000016401e+000	 9.944809337093243e+000
0	 2.466690000017617e+000	 6.466690000017616e+000	 9.945340339030935e+000
0	 2.466690000017617e+000	 6.533360000018134e+000	 9.945881188821373e+000
0	 2.466690000017618e+000	 6.600030000017852e+000	 9.946429055437838e+000
0	 2.466690000017617e+000	 6.666700000016665e+000	 9.946981107853613e+000
0	 2.533360000018134e+000	 6.000000000000000e+000	 9.954179739463626e+000
0	 2.533360000018133e+000	 6.066670000003315e+000	 9.954587480820187e+000
0	 2.533360000018134e+000	 6.133340000006535e+000	 9.954974973281857e+000
0	 2.533360000018134e+000	 6.200010000009550e+000	 9.955334381226688e+000
0	 2.533360000018134e+000	 6.266680000012267e+000	 9.955657869032741e+000
0	 2.533360000018135e+000	 6.333350000014584e+000	 9.955937601078039e+000
0	 2.533360000018134e+000	 6.400020000016399e+000	 9.956165741740662e+000
0	 2.533360000018134e+000	 6.466690000017617e+000	 9.956334455398649e+000
0	 2.533360000018134e+000	 6.533360000018134e+000	 9.956435906430039e+000
0	 2.533360000018134e+000	 6.600030000017850e+000	 9.956462259212898e+000
0	 2.533360000018134e+000	 6.666700000016665e+000	 9.956405678125273e+000
0	 2.600030000017851e+000	 6.000000000000000e+000	 9.966251640046151e+000
0	 2.600030000017851e+000	 6.066670000003318e+000	 9.966587642724413e+000
0	 2.600030000017850e+000	 6.133340000006532e+000	 9.966865233588171e+000
0	 2.600030000017850e+000	 6.200010000009550e+000	 9.967072619529711e+000
0	 2.600030000017851e+000	 6.266680000012268e+000	 9.967198007441326e+000
0	 2.600030000017851e+000	 6.333350000014585e+000	 9.967229604215273e+000
0	 2.600030000017850e+000	 6.400020000016400e+000	 9.967155616743858e+000
0	 2.600030000017850e+000	 6.466690000017617e+000	 9.966964251919327e+000
0	 2.600030000017850e+000	 6.533360000018133e+000	 9.966643716633994e+000
0	 2.600030000017851e+000	 6.600030000017850e+000	 9.966182217780110e+000
0	 2.600030000017850e+000	 6.666700000016665e+000	 9.965567962249965e+000
0	 2.666700000016666e+000	 6.000000000000001e+000	 9.978210964881219e+000
0	 2.666700000016666e+000	 6.066670000003318e+000	 9.978377849063859e+000
0	 2.666700000016666e+000	 6.133340000006533e+000	 9.978462483281149e+000
0	 2.666700000016667e+000	 6.200010000009550e+000	 9.978450164049036e+000
0	 2.666700000016667e+000	 6.266680000012268e+000	 9.978326187883505e+000
0	 2.666700000016666e+000	 6.333350000014584e+000	 9.978075851300517e+000
0	 2.666700000016667e+000	 6.400020000016400e+000	 9.977684450816057e+000
0	 2.666700000016666e+000	 6.466690000017617e+000	 9.977137282946076e+000
0	 2.666700000016666e+000	 6.533360000018133e+000	 9.976419644206558e+000
0	 2.666700000016667e+000	 6.600030000017850e+000	 9.975516831113456e+000
0	 2.666700000016667e+000	 6.666700000016667e+000	 9.974414140182727e+000
0	 2.000000000000000e+000	 6.666700000016668e+000	 9.878185987617338e+000
0	 2.000000000000000e+000	 6.733360000014532e+000	 9.883152494669831e+000
0	 2.000000000000000e+000	 6.800020000011601e+000	 9.887948142791492e+000
0	 2.000000000000000e+000	 6.866680000008068e+000	 9.892554339730197e+000
0	 2.000000000000000e+000	 6.933340000004133e+000	 9.896952493233817e+000
0	 2.000000000000000e+000	 6.999999999999999e+000	 9.901124011050259e+000
0	 2.000000000000000e+000	 7.066659999995867e+000	 9.905050300927398e+000
0	 2.000000000000000e+000	 7.133319999991933e+000	 9.908712770613132e+000
0	 2.000000000000000e+000	 7.199979999988401e+000	 9.912092827855378e+000
0	 2.000000000000000e+000	 7.266639999985467e+000	 9.915171880402028e+000
0	 2.000000000000000e+000	 7.333299999983335e+000	 9.917931336000999e+000
0	 2.066670000003317e+000	 6.666700000016665e+000	 9.887939599657717e+000
0	 2.066670000003317e+000	 6.733360000014534e+000	 9.892419053411228e+000
0	 2.066670000003317e+000	 6.800020000011601e+000	 9.896729395645778e+000
0	 2.066670000003316e+000	 6.866680000008066e+000	 9.900857881291570e+000
0	 2.066670000003317e+000	 6.933340000004136e+000	 9.904791765278793e+000
0	 2.066670000003317e+000	 7.000000000000001e+000	 9.908518302537644e+000
0	 2.066670000003317e+000	 7.066659999995869e+000	 9.912024747998304e+000
0	 2.066670000003318e+000	 7.133319999991935e+000	 9.915298356590981e+000
0	 2.066670000003316e+000	 7.199979999988399e+000	 9.918326383245907e+000
0	 2.066670000003318e+000	 7.266639999985467e+000	 9.921096082893261e+000
0	 2.066670000003316e+000	 7.333299999983331e+000	 9.923594710463293e+000
0	 2.133340000006534e+000	 6.666700000016665e+000	 9.897807665866118e+000
0	 2.133340000006534e+000	 6.733360000014533e+000	 9.901721451441865e+000
0	 2.133340000006534e+000	 6.800020000011600e+000	 9.905484047914669e+000
0	 2.133340000006534e+000	 6.866680000008066e+000	 9.909087943443996e+000
0	 2.133340000006534e+000	 6.933340000004134e+000	 9.912525626189272e+000
0	 2.133340000006534e+000	 7.000000000000000e+000	 9.915789584309993e+000
0	 2.133340000006534e+000	 7.066659999995868e+000	 9.918872305965589e+000
0	 2.133340000006534e+000	 7.133319999991935e+000	 9.921766279315548e+000
0	 2.133340000006534e+000	 7.199979999988400e+000	 9.924463992519323e+000
0	 2.133340000006534e+000	 7.266639999985467e+000	 9.926957933736398e+000
0	 2.133340000006534e+000	 7.333299999983335e+000	 9.929240591126247e+000
0	 2.200010000009551e+000	 6.666700000016667e+000	 9.907736366197543e+000
0	 2.200010000009551e+000	 6.733360000014533e+000	 9.911025280091327e+000
0	 2.200010000009551e+000	 6.800020000011601e+000	 9.914193966603383e+000
0	 2.200010000009550e+000	 6.866680000008067e+000	 9.917239533169369e+000
0	 2.200010000009550e+000	 6.933340000004134e+000	 9.920159087224953e+000
0	 2.200010000009551e+000	 7.000000000000000e+000	 9.922949736205840e+000
0	 2.200010000009550e+000	 7.066659999995867e+000	 9.925608587547707e+000
0	 2.200010000009550e+000	 7.133319999991934e+000	 9.928132748686217e+000
0	 2.200010000009551e+000	 7.199979999988401e+000	 9.930519327057080e+000
0	 2.200010000009552e+000	 7.266639999985468e+000	 9.932765430095996e+000
0	 2.200010000009551e+000	 7.333299999983335e+000	 9.934868165238619e+000
0	 2.266680000012268e+000	 6.666700000016666e+000	 9.917671880607003e+000
0	 2.266680000012267e+000	 6.733360000014531e+000	 9.920296130689193e+000
0	 2.266680000012267e+000	 6.800020000011599e+000	 9.922841018717113e+000
0	 2.266680000012267e+000	 6.866680000008067e+000	 9.925307657449599e+000
0	 2.266680000012268e+000	 6.933340000004134e+000	 9.927697159645520e+000
0	 2.266680000012268e+000	 7.000000000000001e+000	 9.930010638063726e+000
0	 2.266680000012267e+000	 7.066659999995865e+000	 9.932249205463087e+000
0	 2.266680000012267e+000	 7.133319999991934e+000	 9.934413974602439e+000
0	 2.266680000012267e+000	 7.199979999988401e+000	 9.936506058240676e+000
0	 2.266680000012268e+000	 7.266639999985467e+000	 9.938526569136625e+000
0	 2.266680000012267e+000	 7.333299999983333e+000	 9.940476620049186e+000
0	 2.333350000014584e+000	 6.666700000016665e+000	 9.927560389049498e+000
0	 2.333350000014585e+000	 6.733360000014533e+000	 9.929499594565028e+000
0	 2.333350000014585e+000	 6.800020000011600e+000	 9.931407071261058e+000
0	 2.333350000014584e+000	 6.866680000008066e+000	 9.933287323266608e+000
0	 2.333350000014584e+000	 6.933340000004132e+000	 9.935144854710652e+000
0	 2.333350000014585e+000	 6.999999999999999e+000	 9.936984169722191e+000
0	 2.333350000014585e+000	 7.066659999995865e+000	 9.938809772430176e+000
0	 2.333350000014584e+000	 7.133319999991935e+000	 9.940626166963634e+000
0	 2.333350000014584e+000	 7.199979999988400e+000	 9.942437857451543e+000
0	 2.333350000014585e+000	 7.266639999985468e+000	 9.944249348022888e+000
0	 2.333350000014584e+000	 7.333299999983333e+000	 9.946065142806670e+000
0	 2.400020000016401e+000	 6.666700000016667e+000	 9.937348071480034e+000
0	 2.400020000016401e+000	 6.733360000014533e+000	 9.938601263048396e+000
0	 2.400020000016401e+000	 6.800020000011598e+000	 9.939873991240457e+000
0	 2.400020000016401e+000	 6.866680000008064e+000	 9.941173537602319e+000
0	 2.400020000016402e+000	 6.933340000004134e+000	 9.942507183680036e+000
0	 2.400020000016402e+000	 7.000000000000000e+000	 9.943882211019718e+000
0	 2.400020000016401e+000	 7.066659999995866e+000	 9.945305901167412e+000
0	 2.400020000016401e+000	 7.133319999991936e+000	 9.946785535669211e+000
0	 2.400020000016400e+000	 7.199979999988400e+000	 9.948328396071169e+000
0	 2.400020000016402e+000	 7.266639999985467e+000	 9.949941763919375e+000
0	 2.400020000016401e+000	 7.333299999983335e+000	 9.951632920759890e+000
0	 2.466690000017617e+000	 6.666700000016665e+000	 9.946981107853615e+000
0	 2.466690000017618e+000	 6.733360000014534e+000	 9.947566727468864e+000
0	 2.466690000017618e+000	 6.800020000011600e+000	 9.948223645660496e+000
0	 2.466690000017617e+000	 6.866680000008068e+000	 9.948961307438626e+000
0	 2.466690000017617e+000	 6.933340000004133e+000	 9.949789157813372e+000
0	 2.466690000017618e+000	 6.999999999999999e+000	 9.950716641794863e+000
0	 2.466690000017617e+000	 7.066659999995868e+000	 9.951753204393237e+000
0	 2.466690000017617e+000	 7.133319999991935e+000	 9.952908290618570e+000
0	 2.466690000017618e+000	 7.199979999988401e+000	 9.954191345481002e+000
0	 2.466690000017618e+000	 7.266639999985467e+000	 9.955611813990641e+000
0	 2.466690000017617e+000	 7.333299999983336e+000	 9.957179141157580e+000
0	 2.533360000018134e+000	 6.666700000016665e+000	 9.956405678125272e+000
0	 2.533360000018134e+000	 6.733360000014532e+000	 9.956361579156040e+000
0	 2.533360000018134e+000	 6.800020000011599e+000	 9.956437901526401e+000
0	 2.533360000018134e+000	 6.866680000008065e+000	 9.956645639757456e+000
0	 2.533360000018134e+000	 6.933340000004132e+000	 9.956995788370341e+000
0	 2.533360000018133e+000	 6.999999999999999e+000	 9.957499341886175e+000
0	 2.533360000018134e+000	 7.066659999995868e+000	 9.958167294826087e+000
0	 2.533360000018134e+000	 7.133319999991935e+000	 9.959010641711167e+000
0	 2.533360000018134e+000	 7.199979999988400e+000	 9.960040377062519e+000
0	 2.533360000018134e+000	 7.266639999985466e+000	 9.961267495401275e+000
0	 2.533360000018134e+000	 7.333299999983334e+000	 9.962702991248520e+000
0	 2.600030000017850e+000	 6.666700000016665e+000	 9.965567962249965e+000
0	 2.600030000017851e+000	 6.733360000014532e+000	 9.964951409439466e+000
0	 2.600030000017850e+000	 6.800020000011601e+000	 9.964498625843360e+000
0	 2.600030000017851e+000	 6.866680000008067e+000	 9.964221541540722e+000
0	 2.600030000017851e+000	 6.933340000004134e+000	 9.964132086610629e+000
0	 2.600030000017851e+000	 7.000000000000000e+000	 9.964242191132176e+000
0	 2.600030000017851e+000	 7.066659999995867e+000	 9.964563785184406e+000
0	 2.600030000017850e+000	 7.133319999991934e+000	 9.965108798846392e+000
0	 2.600030000017851e+000	 7.199979999988402e+000	 9.965889162197184e+000
0	 2.600030000017851e+000	 7.266639999985467e+000	 9.966916805315870e+000
0	 2.600030000017851e+000	 7.333299999983335e+000	 9.968203658281466e+000
0	 2.666700000016667e+000	 6.666700000016667e+000	 9.974414140182727e+000
0	 2.666700000016666e+000	 6.733360000014533e+000	 9.973301809648730e+000
0	 2.666700000016666e+000	 6.800020000011599e+000	 9.972387685616598e+000
0	 2.666700000016666e+000	 6.866680000008068e+000	 9.971684019770347e+000
0	 2.666700000016667e+000	 6.933340000004134e+000	 9.971203063793931e+000
0	 2.666700000016667e+000	 7.000000000000000e+000	 9.970957069371369e+000
0	 2.666700000016667e+000	 7.066659999995867e+000	 9.970958288186633e+000
0	 2.666700000016666e+000	 7.133319999991936e+000	 9.971218971923676e+000
0	 2.666700000016666e+000	 7.199979999988401e+000	 9.971751372266471e+000
0	 2.666700000016666e+000	 7.266639999985467e+000	 9.972567740898993e+000
0	 2.666700000016667e+000	 7.333299999983335e+000	 9.973680329505175e+000
0	 2.000000000000000e+000	 7.333299999983335e+000	 9.917931336000997e+000
0	 2.000000000000000e+000	 7.399969999982151e+000	 9.920541489743567e+000
0	 2.000000000000000e+000	 7.466639999981867e+000	 9.923192407283862e+000
0	 2.000000000000000e+000	 7.533309999982384e+000	 9.925896319387583e+000
0	 2.000000000000000e+000	 7.599979999983599e+000	 9.928665456820458e+000
0	 2.000000000000000e+000	 7.666649999985416e+000	 9.931512050348196e+000
0	 2.000000000000000e+000	 7.733319999987733e+000	 9.934448330736505e+000
0	 2.000000000000000e+000	 7.799989999990449e+000	 9.937486528751130e+000
0	 2.000000000000000e+000	 7.866659999993466e+000	 9.940638875157767e+000
0	 2.000000000000000e+000	 7.933329999996684e+000	 9.943917600722150e+000
0	 2.000000000000000e+000	 7.999999999999999e+000	 9.947334936209995e+000
0	 2.066670000003316e+000	 7.333299999983331e+000	 9.923594710463293e+000
0	 2.066670000003317e+000	 7.399969999982150e+000	 9.925976140720691e+000
0	 2.066670000003317e+000	 7.466639999981865e+000	 9.928408474156662e+000
0	 2.066670000003317e+000	 7.533309999982384e+000	 9.930901365876698e+000
0	 2.066670000003318e+000	 7.599979999983600e+000	 9.933464470986305e+000
0	 2.066670000003317e+000	 7.666649999985414e+000	 9.936107444591011e+000
0	 2.066670000003317e+000	 7.733319999987731e+000	 9.938839941796312e+000
0	 2.066670000003317e+000	 7.799989999990450e+000	 9.941671617707749e+000
0	 2.066670000003317e+000	 7.866659999993468e+000	 9.944612127430803e+000
0	 2.066670000003318e+000	 7.933329999996684e+000	 9.947671126071013e+000
0	 2.066670000003317e+000	 7.999999999999999e+000	 9.950858268733876e+000
0	 2.133340000006534e+000	 7.333299999983335e+000	 9.929240591126245e+000
0	 2.133340000006534e+000	 7.399969999982150e+000	 9.931438912315686e+000
0	 2.133340000006534e+000	 7.466639999981867e+000	 9.933689133605455e+000
0	 2.133340000006533e+000	 7.533309999982382e+000	 9.935998654794004e+000
0	 2.133340000006534e+000	 7.599979999983600e+000	 9.938374875679829e+000
0	 2.133340000006534e+000	 7.666649999985416e+000	 9.940825196061338e+000
0	 2.133340000006534e+000	 7.733319999987731e+000	 9.943357015737002e+000
0	 2.133340000006534e+000	 7.799989999990448e+000	 9.945977734505297e+000
0	 2.133340000006534e+000	 7.866659999993466e+000	 9.948694752164649e+000
0	 2.133340000006534e+000	 7.933329999996685e+000	 9.951515468513547e+000
0	 2.133340000006534e+000	 8.000000000000000e+000	 9.954447283350428e+000
0	 2.200010000009551e+000	 7.333299999983335e+000	 9.934868165238616e+000
0	 2.200010000009551e+000	 7.399969999982150e+000	 9.936919454268230e+000
0	 2.200010000009551e+000	 7.466639999981867e+000	 9.939016181486949e+000
0	 2.200010000009551e+000	 7.533309999982385e+000	 9.941163811739322e+000
0	 2.200010000009550e+000	 7.599979999983601e+000	 9.943367809869907e+000
0	 2.200010000009550e+000	 7.666649999985416e+000	 9.945633640723258e+000
0	 2.200010000009551e+000	 7.733319999987732e+000	 9.947966769143930e+000
0	 2.200010000009551e+000	 7.799989999990449e+000	 9.950372659976452e+000
0	 2.200010000009551e+000	 7.866659999993468e+000	 9.952856778065412e+000
0	 2.200010000009551e+000	 7.933329999996684e+000	 9.955424588255326e+000
0	 2.200010000009551e+000	 8.000000000000000e+000	 9.958081555390782e+000
0	 2.266680000012267e+000	 7.333299999983333e+000	 9.940476620049186e+000
0	 2.266680000012267e+000	 7.399969999982149e+000	 9.942407416318028e+000
0	 2.266680000012267e+000	 7.466639999981863e+000	 9.944371413657816e+000
0	 2.266680000012267e+000	 7.533309999982382e+000	 9.946372462312359e+000
0	 2.266680000012267e+000	 7.599979999983599e+000	 9.948414412525453e+000
0	 2.266680000012268e+000	 7.666649999985416e+000	 9.950501114540872e+000
0	 2.266680000012267e+000	 7.733319999987733e+000	 9.952636418602442e+000
0	 2.266680000012268e+000	 7.799989999990449e+000	 9.954824174953934e+000
0	 2.266680000012267e+000	 7.866659999993468e+000	 9.957068233839152e+000
0	 2.266680000012267e+000	 7.933329999996682e+000	 9.959372445501900e+000
0	 2.266680000012267e+000	 7.999999999999998e+000	 9.961740660185976e+000
0	 2.333350000014584e+000	 7.333299999983333e+000	 9.946065142806667e+000
0	 2.333350000014584e+000	 7.399969999982148e+000	 9.947892448204765e+000
0	 2.333350000014584e+000	 7.466639999981866e+000	 9.949736625974772e+000
0	 2.333350000014584e+000	 7.533309999982383e+000	 9.951600232112911e+000
0	 2.333350000014584e+000	 7.599979999983599e+000	 9.953485822615335e+000
0	 2.333350000014585e+000	 7.666649999985417e+000	 9.955395953478270e+000
0	 2.333350000014584e+000	 7.733319999987733e+000	 9.957333180697892e+000
0	 2.333350000014584e+000	 7.799989999990449e+000	 9.959300060270392e+000
0	 2.333350000014585e+000	 7.866659999993465e+000	 9.961299148191966e+000
0	 2.333350000014584e+000	 7.933329999996682e+000	 9.963333000458814e+000
0	 2.333350000014583e+000	 8.000000000000000e+000	 9.965404173067100e+000
0	 2.400020000016401e+000	 7.333299999983335e+000	 9.951632920759888e+000
0	 2.400020000016401e+000	 7.399969999982149e+000	 9.953364199668149e+000
0	 2.400020000016401e+000	 7.466639999981866e+000	 9.955093614294521e+000
0	 2.400020000016401e+000	 7.533309999982383e+000	 9.956822746740697e+000
0	 2.400020000016401e+000	 7.599979999983599e+000	 9.958553179108465e+000
0	 2.400020000016401e+000	 7.666649999985415e+000	 9.960286493499538e+000
0	 2.400020000016401e+000	 7.733319999987733e+000	 9.962024272015647e+000
0	 2.400020000016400e+000	 7.799989999990447e+000	 9.963768096758548e+000
0	 2.400020000016401e+000	 7.866659999993467e+000	 9.965519549829955e+000
0	 2.400020000016401e+000	 7.933329999996683e+000	 9.967280213331611e+000
0	 2.400020000016401e+000	 8.000000000000000e+000	 9.969051669365264e+000
0	 2.466690000017617e+000	 7.333299999983336e+000	 9.957179141157578e+000
0	 2.466690000017618e+000	 7.399969999982151e+000	 9.958812320447882e+000
0	 2.466690000017618e+000	 7.466639999981866e+000	 9.960424174473712e+000
0	 2.466690000017617e+000	 7.533309999982383e+000	 9.962015631795532e+000
0	 2.466690000017618e+000	 7.599979999983601e+000	 9.963587620973733e+000
0	 2.466690000017618e+000	 7.666649999985418e+000	 9.965141070568761e+000
0	 2.466690000017617e+000	 7.733319999987734e+000	 9.966676909141063e+000
0	 2.466690000017618e+000	 7.799989999990449e+000	 9.968196065251062e+000
0	 2.466690000017617e+000	 7.866659999993468e+000	 9.969699467459172e+000
0	 2.466690000017618e+000	 7.933329999996683e+000	 9.971188044325848e+000
0	 2.466690000017618e+000	 8.000000000000000e+000	 9.972662724411510e+000
0	 2.533360000018134e+000	 7.333299999983334e+000	 9.962702991248520e+000
0	 2.533360000018134e+000	 7.399969999982149e+000	 9.964226460283649e+000
0	 2.533360000018134e+000	 7.466639999981867e+000	 9.965710102369098e+000
0	 2.533360000018134e+000	 7.533309999982385e+000	 9.967154512877132e+000
0	 2.533360000018134e+000	 7.599979999983598e+000	 9.968560287180027e+000
0	 2.533360000018134e+000	 7.666649999985415e+000	 9.969928020650050e+000
0	 2.533360000018134e+000	 7.733319999987733e+000	 9.971258308659484e+000
0	 2.533360000018134e+000	 7.799989999990449e+000	 9.972551746580631e+000
0	 2.533360000018134e+000	 7.866659999993467e+000	 9.973808929785719e+000
0	 2.533360000018134e+000	 7.933329999996683e+000	 9.975030453647085e+000
0	 2.533360000018133e+000	 8.000000000000000e+000	 9.976216913536939e+000
0	 2.600030000017851e+000	 7.333299999983335e+000	 9.968203658281464e+000
0	 2.600030000017851e+000	 7.399969999982149e+000	 9.969596268915165e+000
0	 2.600030000017850e+000	 7.466639999981865e+000	 9.970933193837345e+000
0	 2.600030000017851e+000	 7.533309999982384e+000	 9.972215015585286e+000
0	 2.600030000017851e+000	 7.599979999983599e+000	 9.973442316696232e+000
0	 2.600030000017851e+000	 7.666649999985416e+000	 9.974615679707478e+000
0	 2.600030000017850e+000	 7.733319999987733e+000	 9.975735687156289e+000
0	 2.600030000017850e+000	 7.799989999990449e+000	 9.976802921579941e+000
0	 2.600030000017851e+000	 7.866659999993467e+000	 9.977817965515694e+000
0	 2.600030000017850e+000	 7.933329999996685e+000	 9.978781401500845e+000
0	 2.600030000017851e+000	 8.000000000000000e+000	 9.979693812072638e+000
0	 2.666700000016667e+000	 7.333299999983335e+000	 9.973680329505173e+000
0	 2.666700000016667e+000	 7.399969999982151e+000	 9.974911396082122e+000
0	 2.666700000016666e+000	 7.466639999981866e+000	 9.976075244735155e+000
0	 2.666700000016666e+000	 7.533309999982383e+000	 9.977172765519738e+000
0	 2.666700000016666e+000	 7.599979999983598e+000	 9.978204848491254e+000
0	 2.666700000016666e+000	 7.666649999985416e+000	 9.979172383705146e+000
0	 2.666700000016667e+000	 7.733319999987733e+000	 9.980076261216810e+000
0	 2.666700000016667e+000	 7.799989999990449e+000	 9.980917371081690e+000
0	 2.666700000016665e+000	 7.866659999993464e+000	 9.981696603355177e+000
0	 2.666700000016666e+000	 7.933329999996683e+000	 9.982414848092697e+000
0	 2.666700000016667e+000	 8.000000000000000e+000	 9.983072995349669e+000
0	 2.000000000000000e+000	 7.999999999999999e+000	 9.947334936209995e+000
0	 2.000000000000000e+000	 8.066670000003319e+000	 9.950754155427783e+000
0	 2.000000000000000e+000	 8.133340000006534e+000	 9.954030784157530e+000
0	 2.000000000000000e+000	 8.200010000009549e+000	 9.957165431128408e+000
0	 2.000000000000000e+000	 8.266680000012267e+000	 9.960158705069517e+000
0	 2.000000000000000e+000	 8.333350000014585e+000	 9.963011214709963e+000
0	 1.999999999999999e+000	 8.400020000016397e+000	 9.965723568778900e+000
0	 2.000000000000000e+000	 8.466690000017618e+000	 9.968296376005421e+000
0	 2.000000000000000e+000	 8.533360000018131e+000	 9.970730245118643e+000
0	 2.000000000000000e+000	 8.600030000017851e+000	 9.973025784847682e+000
0	 2.000000000000000e+000	 8.666700000016666e+000	 9.975183603921639e+000
0	 2.066670000003317e+000	 7.999999999999999e+000	 9.950858268733876e+000
0	 2.066670000003317e+000	 8.066670000003317e+000	 9.954043550959726e+000
0	 2.066670000003316e+000	 8.133340000006532e+000	 9.957091683634390e+000
0	 2.066670000003317e+000	 8.200010000009549e+000	 9.960004394881649e+000
0	 2.066670000003317e+000	 8.266680000012268e+000	 9.962783412825280e+000
0	 2.066670000003317e+000	 8.333350000014583e+000	 9.965430465589087e+000
0	 2.066670000003318e+000	 8.400020000016401e+000	 9.967947281296853e+000
0	 2.066670000003316e+000	 8.466690000017616e+000	 9.970335588072324e+000
0	 2.066670000003317e+000	 8.533360000018135e+000	 9.972597114039280e+000
0	 2.066670000003317e+000	 8.600030000017851e+000	 9.974733587321499e+000
0	 2.066670000003317e+000	 8.666700000016666e+000	 9.976746736042779e+000
0	 2.133340000006534e+000	 8.000000000000000e+000	 9.954447283350428e+000
0	 2.133340000006534e+000	 8.066670000003317e+000	 9.957372853298878e+000
0	 2.133340000006534e+000	 8.133340000006536e+000	 9.960171669990446e+000
0	 2.133340000006534e+000	 8.200010000009550e+000	 9.962846385735718e+000
0	 2.133340000006534e+000	 8.266680000012268e+000	 9.965399652845170e+000
0	 2.133340000006534e+000	 8.333350000014583e+000	 9.967834123629356e+000
0	 2.133340000006534e+000	 8.400020000016401e+000	 9.970152450398780e+000
0	 2.133340000006534e+000	 8.466690000017616e+000	 9.972357285463954e+000
0	 2.133340000006534e+000	 8.533360000018135e+000	 9.974451281135410e+000
0	 2.133340000006535e+000	 8.600030000017851e+000	 9.976437089723687e+000
0	 2.133340000006534e+000	 8.666700000016668e+000	 9.978317363539262e+000
0	 2.200010000009551e+000	 8.000000000000000e+000	 9.958081555390782e+000
0	 2.200010000009551e+000	 8.066670000003319e+000	 9.960727632159781e+000
0	 2.200010000009551e+000	 8.133340000006532e+000	 9.963261382213549e+000
0	 2.200010000009551e+000	 8.200010000009550e+000	 9.965686186841436e+000
0	 2.200010000009551e+000	 8.266680000012268e+000	 9.968005427332811e+000
0	 2.200010000009550e+000	 8.333350000014583e+000	 9.970222484976985e+000
0	 2.200010000009550e+000	 8.400020000016399e+000	 9.972340741063325e+000
0	 2.200010000009551e+000	 8.466690000017618e+000	 9.974363576881183e+000
0	 2.200010000009550e+000	 8.533360000018135e+000	 9.976294373719899e+000
0	 2.200010000009550e+000	 8.600030000017851e+000	 9.978136512868804e+000
0	 2.200010000009551e+000	 8.666700000016666e+000	 9.979893375617245e+000
0	 2.266680000012267e+000	 7.999999999999998e+000	 9.961740660185976e+000
0	 2.266680000012268e+000	 8.066670000003319e+000	 9.964093457256970e+000
0	 2.266680000012267e+000	 8.133340000006530e+000	 9.966351459291431e+000
0	 2.266680000012268e+000	 8.200010000009554e+000	 9.968518581349617e+000
0	 2.266680000012266e+000	 8.266680000012265e+000	 9.970598738491812e+000
0	 2.266680000012268e+000	 8.333350000014583e+000	 9.972595845778244e+000
0	 2.266680000012268e+000	 8.400020000016403e+000	 9.974513818269177e+000
0	 2.266680000012267e+000	 8.466690000017618e+000	 9.976356571024844e+000
0	 2.266680000012268e+000	 8.533360000018135e+000	 9.978128019105521e+000
0	 2.266680000012268e+000	 8.600030000017849e+000	 9.979832077571441e+000
0	 2.266680000012268e+000	 8.666700000016670e+000	 9.981472661482844e+000
0	 2.333350000014583e+000	 8.000000000000000e+000	 9.965404173067100e+000
0	 2.333350000014584e+000	 8.066670000003315e+000	 9.967455898304968e+000
0	 2.333350000014585e+000	 8.133340000006532e+000	 9.969432540211882e+000
0	 2.333350000014584e+000	 8.200010000009552e+000	 9.971338352411113e+000
0	 2.333350000014583e+000	 8.266680000012267e+000	 9.973177588525854e+000
0	 2.333350000014584e+000	 8.333350000014583e+000	 9.974954502179388e+000
0	 2.333350000014584e+000	 8.400020000016401e+000	 9.976673346994954e+000
0	 2.333350000014584e+000	 8.466690000017618e+000	 9.978338376595772e+000
0	 2.333350000014585e+000	 8.533360000018135e+000	 9.979953844605097e+000
0	 2.333350000014585e+000	 8.600030000017851e+000	 9.981524004646143e+000
0	 2.333350000014584e+000	 8.666700000016668e+000	 9.983053110342182e+000
0	 2.400020000016401e+000	 8.000000000000000e+000	 9.969051669365264e+000
0	 2.400020000016401e+000	 8.066670000003317e+000	 9.970800525018353e+000
0	 2.400020000016401e+000	 8.133340000006534e+000	 9.972495263962721e+000
0	 2.400020000016401e+000	 8.200010000009550e+000	 9.974140283176702e+000
0	 2.400020000016402e+000	 8.266680000012268e+000	 9.975739979638583e+000
0	 2.400020000016402e+000	 8.333350000014583e+000	 9.977298750326693e+000
0	 2.400020000016401e+000	 8.400020000016397e+000	 9.978820992219317e+000
0	 2.400020000016401e+000	 8.466690000017618e+000	 9.980311102294804e+000
0	 2.400020000016401e+000	 8.533360000018135e+000	 9.981773477531441e+000
0	 2.400020000016401e+000	 8.600030000017851e+000	 9.983212514907519e+000
0	 2.400020000016401e+000	 8.666700000016665e+000	 9.984632611401377e+000
0	 2.466690000017618e+000	 8.000000000000000e+000	 9.972662724411510e+000
0	 2.466690000017617e+000	 8.066670000003317e+000	 9.974112907111628e+000
0	 2.466690000017617e+000	 8.133340000006534e+000	 9.975530269531715e+000
0	 2.466690000017619e+000	 8.200010000009552e+000	 9.976919156797232e+000
0	 2.466690000017618e+000	 8.266680000012268e+000	 9.978283914033614e+000
0	 2.466690000017617e+000	 8.333350000014585e+000	 9.979628886366369e+000
0	 2.466690000017617e+000	 8.400020000016401e+000	 9.980958418920929e+000
0	 2.466690000017617e+000	 8.466690000017616e+000	 9.982276856822779e+000
0	 2.466690000017618e+000	 8.533360000018135e+000	 9.983588545197341e+000
0	 2.466690000017618e+000	 8.600030000017849e+000	 9.984897829170134e+000
0	 2.466690000017618e+000	 8.666700000016668e+000	 9.986209053866585e+000
0	 2.533360000018133e+000	 8.000000000000000e+000	 9.976216913536939e+000
0	 2.533360000018134e+000	 8.066670000003315e+000	 9.977378614299362e+000
0	 2.533360000018134e+000	 8.133340000006534e+000	 9.978528195906646e+000
0	 2.533360000018133e+000	 8.200010000009549e+000	 9.979669756423501e+000
0	 2.533360000018134e+000	 8.266680000012268e+000	 9.980807393914608e+000
0	 2.533360000018135e+000	 8.333350000014585e+000	 9.981945206444699e+000
0	 2.533360000018134e+000	 8.400020000016403e+000	 9.983087292078430e+000
0	 2.533360000018134e+000	 8.466690000017616e+000	 9.984237748880526e+000
0	 2.533360000018134e+000	 8.533360000018133e+000	 9.985400674915661e+000
0	 2.533360000018134e+000	 8.600030000017851e+000	 9.986580168248560e+000
0	 2.533360000018134e+000	 8.666700000016666e+000	 9.987780326943890e+000
0	 2.600030000017851e+000	 8.000000000000000e+000	 9.979693812072638e+000
0	 2.600030000017851e+000	 8.066670000003317e+000	 9.980583216296072e+000
0	 2.600030000017850e+000	 8.133340000006532e+000	 9.981479682075301e+000
0	 2.600030000017851e+000	 8.200010000009552e+000	 9.982386865206356e+000
0	 2.600030000017851e+000	 8.266680000012268e+000	 9.983308421485226e+000
0	 2.600030000017851e+000	 8.333350000014585e+000	 9.984248006707915e+000
0	 2.600030000017850e+000	 8.400020000016401e+000	 9.985209276670474e+000
0	 2.600030000017850e+000	 8.466690000017618e+000	 9.986195887168886e+000
0	 2.600030000017850e+000	 8.533360000018133e+000	 9.987211493999181e+000
0	 2.600030000017850e+000	 8.600030000017849e+000	 9.988259752957363e+000
0	 2.600030000017851e+000	 8.666700000016668e+000	 9.989344319839448e+000
0	 2.666700000016667e+000	 8.000000000000000e+000	 9.983072995349669e+000
0	 2.666700000016666e+000	 8.066670000003317e+000	 9.983712282816311e+000
0	 2.666700000016666e+000	 8.133340000006532e+000	 9.984375367025473e+000
0	 2.666700000016666e+000	 8.200010000009550e+000	 9.985065266296603e+000
0	 2.666700000016666e+000	 8.266680000012267e+000	 9.985784998949056e+000
0	 2.666700000016666e+000	 8.333350000014583e+000	 9.986537583302289e+000
0	 2.666700000016665e+000	 8.400020000016399e+000	 9.987326037675713e+000
0	 2.666700000016666e+000	 8.466690000017618e+000	 9.988153380388717e+000
0	 2.666700000016666e+000	 8.533360000018133e+000	 9.989022629760731e+000
0	 2.666700000016666e+000	 8.600030000017851e+000	 9.989936804111139e+000
0	 2.666700000016666e+000	 8.666700000016668e+000	 9.990898921759369e+000
0	 2.000000000000000e+000	 8.666700000016666e+000	 9.975183603921639e+000
0	 2.000000000000000e+000	 8.733360002791905e+000	 9.977232870337440e+000
0	 2.000000000000000e+000	 8.800020022230555e+000	 9.979206467766055e+000
0	 2.000000000000000e+000	 8.866680074997039e+000	 9.981109638564231e+000
0	 2.000000000000000e+000	 8.933340177755779e+000	 9.982947625345052e+000
0	 2.000000000000000e+000	 9.000000347171183e+000	 9.984725670978014e+000
0	 2.000000000000000e+000	 9.066660599907667e+000	 9.986449018588930e+000
0	 2.000000000000000e+000	 9.133320952629653e+000	 9.988122911560016e+000
0	 2.000000000000000e+000	 9.199981422001558e+000	 9.989752593529735e+000
0	 2.000000000000000e+000	 9.266642024687796e+000	 9.991343308392970e+000
0	 2.000000000000000e+000	 9.333302777352783e+000	 9.992900300300883e+000
0	 2.066670000003317e+000	 8.666700000016666e+000	 9.976746736042779e+000
0	 2.066670000003317e+000	 8.733360002791905e+000	 9.978662835729024e+000
0	 2.066670000003317e+000	 8.800020022230557e+000	 9.980510507654429e+000
0	 2.066670000003318e+000	 8.866680074997042e+000	 9.982294120361766e+000
0	 2.066670000003317e+000	 8.933340177755779e+000	 9.984018042634835e+000
0	 2.066670000003317e+000	 9.000000347171184e+000	 9.985686643498630e+000
0	 2.066670000003317e+000	 9.066660599907671e+000	 9.987304292219150e+000
0	 2.066670000003316e+000	 9.133320952629656e+000	 9.988875358303510e+000
0	 2.066670000003317e+000	 9.199981422001560e+000	 9.990404211499877e+000
0	 2.066670000003317e+000	 9.266642024687798e+000	 9.991895221797485e+000
0	 2.066670000003317e+000	 9.333302777352783e+000	 9.993352759426612e+000
0	 2.133340000006534e+000	 8.666700000016668e+000	 9.978317363539263e+000
0	 2.133340000006534e+000	 8.733360002791903e+000	 9.980112340767109e+000
0	 2.133340000006534e+000	 8.800020022230553e+000	 9.981843450940916e+000
0	 2.133340000006534e+000	 8.866680074997042e+000	 9.983514310831449e+000
0	 2.133340000006534e+000	 8.933340177755776e+000	 9.985128537438511e+000
0	 2.133340000006534e+000	 9.000000347171181e+000	 9.986689747990841e+000
0	 2.133340000006534e+000	 9.066660599907666e+000	 9.988201559946203e+000
0	 2.133340000006534e+000	 9.133320952629655e+000	 9.989667590991299e+000
0	 2.133340000006534e+000	 9.199981422001558e+000	 9.991091459041822e+000
0	 2.133340000006534e+000	 9.266642024687796e+000	 9.992476782242440e+000
0	 2.133340000006534e+000	 9.333302777352783e+000	 9.993827178966722e+000
0	 2.200010000009551e+000	 8.666700000016666e+000	 9.979893375617245e+000
0	 2.200010000009551e+000	 8.733360002791905e+000	 9.981576718932230e+000
0	 2.200010000009551e+000	 8.800020022230557e+000	 9.983198551419152e+000
0	 2.200010000009550e+000	 8.866680074997039e+000	 9.984761860119871e+000
0	 2.200010000009551e+000	 8.933340177755778e+000	 9.986269632295590e+000
0	 2.200010000009550e+000	 9.000000347171183e+000	 9.987724855426798e+000
0	 2.200010000009550e+000	 9.066660599907667e+000	 9.989130517213415e+000
0	 2.200010000009551e+000	 9.133320952629656e+000	 9.990489605574602e+000
0	 2.200010000009551e+000	 9.199981422001558e+000	 9.991805108648896e+000
0	 2.200010000009551e+000	 9.266642024687799e+000	 9.993080014794137e+000
0	 2.200010000009551e+000	 9.333302777352783e+000	 9.994317312587448e+000
0	 2.266680000012268e+000	 8.666700000016670e+000	 9.981472661482844e+000
0	 2.266680000012267e+000	 8.733360002791901e+000	 9.983051303704889e+000
0	 2.266680000012267e+000	 8.800020022230553e+000	 9.984569062882814e+000
0	 2.266680000012267e+000	 8.866680074997042e+000	 9.986028418373579e+000
0	 2.266680000012268e+000	 8.933340177755781e+000	 9.987431849745594e+000
0	 2.266680000012268e+000	 9.000000347171181e+000	 9.988781836778683e+000
0	 2.266680000012267e+000	 9.066660599907669e+000	 9.990080859464149e+000
0	 2.266680000012268e+000	 9.133320952629653e+000	 9.991331398004686e+000
0	 2.266680000012267e+000	 9.199981422001558e+000	 9.992535932814423e+000
0	 2.266680000012267e+000	 9.266642024687796e+000	 9.993696944518861e+000
0	 2.266680000012268e+000	 9.333302777352783e+000	 9.994816913954997e+000
0	 2.333350000014584e+000	 8.666700000016668e+000	 9.983053110342178e+000
0	 2.333350000014585e+000	 8.733360002791905e+000	 9.984531428565617e+000
0	 2.333350000014585e+000	 8.800020022230557e+000	 9.985948239125563e+000
0	 2.333350000014584e+000	 8.866680074997040e+000	 9.987305635739121e+000
0	 2.333350000014585e+000	 8.933340177755779e+000	 9.988605712328045e+000
0	 2.333350000014585e+000	 9.000000347171183e+000	 9.989850563018642e+000
0	 2.333350000014585e+000	 9.066660599907669e+000	 9.991042282141747e+000
0	 2.333350000014584e+000	 9.133320952629658e+000	 9.992182964232791e+000
0	 2.333350000014585e+000	 9.199981422001560e+000	 9.993274704031714e+000
0	 2.333350000014584e+000	 9.266642024687796e+000	 9.994319596482994e+000
0	 2.333350000014584e+000	 9.333302777352781e+000	 9.995319736735643e+000
0	 2.400020000016401e+000	 8.666700000016665e+000	 9.984632611401377e+000
0	 2.400020000016400e+000	 8.733360002791899e+000	 9.986012426994982e+000
0	 2.400020000016401e+000	 8.800020022230555e+000	 9.987329333941036e+000
0	 2.400020000016401e+000	 8.866680074997040e+000	 9.988585162363043e+000
0	 2.400020000016402e+000	 8.933340177755779e+000	 9.989781742582473e+000
0	 2.400020000016401e+000	 9.000000347171181e+000	 9.990920905118816e+000
0	 2.400020000016401e+000	 9.066660599907667e+000	 9.992004480689570e+000
0	 2.400020000016401e+000	 9.133320952629655e+000	 9.993034300210169e+000
0	 2.400020000016401e+000	 9.199981422001558e+000	 9.994012194794102e+000
0	 2.400020000016402e+000	 9.266642024687796e+000	 9.994939995752802e+000
0	 2.400020000016400e+000	 9.333302777352781e+000	 9.995819534595610e+000
0	 2.466690000017618e+000	 8.666700000016668e+000	 9.986209053866585e+000
0	 2.466690000017617e+000	 8.733360002791901e+000	 9.987489632473441e+000
0	 2.466690000017618e+000	 8.800020022230559e+000	 9.988705601122913e+000
0	 2.466690000017618e+000	 8.866680074997042e+000	 9.989858648391909e+000
0	 2.466690000017617e+000	 8.933340177755776e+000	 9.990950463048380e+000
0	 2.466690000017618e+000	 9.000000347171183e+000	 9.991982734051373e+000
0	 2.466690000017617e+000	 9.066660599907667e+000	 9.992957150550899e+000
0	 2.466690000017618e+000	 9.133320952629656e+000	 9.993875401888049e+000
0	 2.466690000017618e+000	 9.199981422001557e+000	 9.994739177594910e+000
0	 2.466690000017618e+000	 9.266642024687798e+000	 9.995550167394580e+000
0	 2.466690000017618e+000	 9.333302777352783e+000	 9.996310061201147e+000
0	 2.533360000018134e+000	 8.666700000016666e+000	 9.987780326943890e+000
0	 2.533360000018134e+000	 8.733360002791899e+000	 9.988958378481552e+000
0	 2.533360000018134e+000	 8.800020022230557e+000	 9.990070294464823e+000
0	 2.533360000018134e+000	 8.866680074997042e+000	 9.991117743972248e+000
0	 2.533360000018135e+000	 8.933340177755779e+000	 9.992102396265311e+000
0	 2.533360000018135e+000	 9.000000347171181e+000	 9.993025920788460e+000
0	 2.533360000018134e+000	 9.066660599907667e+000	 9.993889987169149e+000
0	 2.533360000018135e+000	 9.133320952629656e+000	 9.994696265217701e+000
0	 2.533360000018134e+000	 9.199981422001557e+000	 9.995446424927463e+000
0	 2.533360000018134e+000	 9.266642024687798e+000	 9.996142136474662e+000
0	 2.533360000018134e+000	 9.333302777352783e+000	 9.996785070218474e+000
0	 2.600030000017851e+000	 8.666700000016668e+000	 9.989344319839447e+000
0	 2.600030000017851e+000	 8.733360002791903e+000	 9.990413998499818e+000
0	 2.600030000017850e+000	 8.800020022230555e+000	 9.991416667760445e+000
0	 2.600030000017850e+000	 8.866680074997042e+000	 9.992354099250646e+000
0	 2.600030000017851e+000	 8.933340177755778e+000	 9.993228064772747e+000
0	 2.600030000017851e+000	 9.000000347171183e+000	 9.994040336302243e+000
0	 2.600030000017851e+000	 9.066660599907669e+000	 9.994792685987607e+000
0	 2.600030000017851e+000	 9.133320952629655e+000	 9.995486886150335e+000
0	 2.600030000017851e+000	 9.199981422001558e+000	 9.996124709285075e+000
0	 2.600030000017851e+000	 9.266642024687798e+000	 9.996707928059347e+000
0	 2.600030000017850e+000	 9.333302777352781e+000	 9.997238315313835e+000
0	 2.666700000016666e+000	 8.666700000016668e+000	 9.990898921759365e+000
0	 2.666700000016667e+000	 8.733360002791903e+000	 9.991851826008766e+000
0	 2.666700000016667e+000	 8.800020022230555e+000	 9.992737974803431e+000
0	 2.666700000016666e+000	 8.866680074997040e+000	 9.993559364373601e+000
0	 2.666700000016667e+000	 8.933340177755779e+000	 9.994317991110252e+000
0	 2.666700000016666e+000	 9.000000347171183e+000	 9.995015851564887e+000
0	 2.666700000016666e+000	 9.066660599907667e+000	 9.995654942449626e+000
0	 2.666700000016666e+000	 9.133320952629655e+000	 9.996237260637241e+000
0	 2.666700000016667e+000	 9.199981422001557e+000	 9.996764803161048e+000
0	 2.666700000016667e+000	 9.266642024687794e+000	 9.997239567214944e+000
0	 2.666700000016666e+000	 9.333302777352785e+000	 9.997663550153447e+000
0	 2.000000000000000e+000	 9.333302777352783e+000	 9.992900300300883e+000
0	 2.000000000000000e+000	 9.399973674588177e+000	 9.994349309371224e+000
0	 2.000000000000000e+000	 9.466644621844621e+000	 9.995615687091929e+000
0	 2.000000000000000e+000	 9.533315502449998e+000	 9.996704786173961e+000
0	 2.000000000000000e+000	 9.599986199732198e+000	 9.997621955858110e+000
0	 2.000000000000000e+000	 9.666656597019093e+000	 9.998372541914456e+000
0	 2.000000000000000e+000	 9.733326577638575e+000	 9.998961886641785e+000
0	 2.000000000000000e+000	 9.799996024918524e+000	 9.999395328866957e+000
0	 2.000000000000000e+000	 9.866664822186822e+000	 9.999678203944052e+000
0	 2.000000000000000e+000	 9.933332852771352e+000	 9.999815843753622e+000
0	 2.000000000000000e+000	 1.000000000000000e+001	 9.999813576701651e+000
0	 2.066670000003317e+000	 9.333302777352783e+000	 9.993352759426612e+000
0	 2.066670000003317e+000	 9.399973674588177e+000	 9.994707223273355e+000
0	 2.066670000003317e+000	 9.466644621844623e+000	 9.995889295478321e+000
0	 2.066670000003317e+000	 9.533315502450000e+000	 9.996904417978016e+000
0	 2.066670000003317e+000	 9.599986199732197e+000	 9.997758029458844e+000
0	 2.066670000003318e+000	 9.666656597019095e+000	 9.998455565356530e+000
0	 2.066670000003317e+000	 9.733326577638573e+000	 9.999002457855637e+000
0	 2.066670000003318e+000	 9.799996024918524e+000	 9.999404135888858e+000
0	 2.066670000003318e+000	 9.866664822186822e+000	 9.999666025136278e+000
0	 2.066670000003317e+000	 9.933332852771352e+000	 9.999793548024581e+000
0	 2.066670000003316e+000	 9.999999999999998e+000	 9.999792123726170e+000
0	 2.133340000006534e+000	 9.333302777352783e+000	 9.993827178966720e+000
0	 2.133340000006534e+000	 9.399973674588177e+000	 9.995079798251043e+000
0	 2.133340000006534e+000	 9.466644621844621e+000	 9.996172576028558e+000
0	 2.133340000006534e+000	 9.533315502450003e+000	 9.997110909355403e+000
0	 2.133340000006534e+000	 9.599986199732195e+000	 9.997900192277710e+000
0	 2.133340000006534e+000	 9.666656597019093e+000	 9.998545815831180e+000
0	 2.133340000006534e+000	 9.733326577638577e+000	 9.999053168040415e+000
0	 2.133340000006534e+000	 9.799996024918523e+000	 9.999427633918399e+000
0	 2.133340000006534e+000	 9.866664822186820e+000	 9.999674595465816e+000
0	 2.133340000006534e+000	 9.933332852771351e+000	 9.999799431669892e+000
0	 2.133340000006534e+000	 1.000000000000000e+001	 9.999807518504159e+000
0	 2.200010000009551e+000	 9.333302777352783e+000	 9.994317312587446e+000
0	 2.200010000009551e+000	 9.399973674588173e+000	 9.995462529341452e+000
0	 2.200010000009550e+000	 9.466644621844621e+000	 9.996462314085564e+000
0	 2.200010000009551e+000	 9.533315502450000e+000	 9.997321884896225e+000
0	 2.200010000009550e+000	 9.599986199732197e+000	 9.998046457095347e+000
0	 2.200010000009551e+000	 9.666656597019095e+000	 9.998641243249903e+000
0	 2.200010000009551e+000	 9.733326577638573e+000	 9.999111453171373e+000
0	 2.200010000009551e+000	 9.799996024918523e+000	 9.999462293915078e+000
0	 2.200010000009550e+000	 9.866664822186822e+000	 9.999698969779530e+000
0	 2.200010000009551e+000	 9.933332852771354e+000	 9.999826682305697e+000
0	 2.200010000009550e+000	 1.000000000000000e+001	 9.999850630276072e+000
0	 2.266680000012268e+000	 9.333302777352783e+000	 9.994816913954999e+000
0	 2.266680000012267e+000	 9.399973674588175e+000	 9.995850911581771e+000
0	 2.266680000012268e+000	 9.466644621844619e+000	 9.996755294992301e+000
0	 2.266680000012268e+000	 9.533315502450002e+000	 9.997534969190609e+000
0	 2.266680000012268e+000	 9.599986199732197e+000	 9.998194836692296e+000
0	 2.266680000012267e+000	 9.666656597019093e+000	 9.998739797524181e+000
0	 2.266680000012268e+000	 9.733326577638575e+000	 9.999174749223643e+000
0	 2.266680000012268e+000	 9.799996024918526e+000	 9.999504586838164e+000
0	 2.266680000012268e+000	 9.866664822186824e+000	 9.999734202924488e+000
0	 2.266680000012268e+000	 9.933332852771354e+000	 9.999868487548170e+000
0	 2.266680000012268e+000	 1.000000000000000e+001	 9.999912328282402e+000
0	 2.333350000014584e+000	 9.333302777352781e+000	 9.995319736735645e+000
0	 2.333350000014584e+000	 9.399973674588173e+000	 9.996240440009174e+000
0	 2.333350000014584e+000	 9.466644621844621e+000	 9.997048304091656e+000
0	 2.333350000014584e+000	 9.533315502450002e+000	 9.997747786828615e+000
0	 2.333350000014584e+000	 9.599986199732197e+000	 9.998343343849134e+000
0	 2.333350000014585e+000	 9.666656597019093e+000	 9.998839428565443e+000
0	 2.333350000014584e+000	 9.733326577638575e+000	 9.999240492172419e+000
0	 2.333350000014584e+000	 9.799996024918523e+000	 9.999550983647062e+000
0	 2.333350000014584e+000	 9.866664822186822e+000	 9.999775349747683e+000
0	 2.333350000014584e+000	 9.933332852771352e+000	 9.999918035013421e+000
0	 2.333350000014584e+000	 1.000000000000000e+001	 9.999983481763490e+000
0	 2.400020000016400e+000	 9.333302777352781e+000	 9.995819534595611e+000
0	 2.400020000016401e+000	 9.399973674588178e+000	 9.996626609660794e+000
0	 2.400020000016401e+000	 9.466644621844623e+000	 9.997338126726573e+000
0	 2.400020000016401e+000	 9.533315502450002e+000	 9.997957962400397e+000
0	 2.400020000016401e+000	 9.599986199732197e+000	 9.998489991346453e+000
0	 2.400020000016402e+000	 9.666656597019093e+000	 9.998938086285206e+000
0	 2.400020000016401e+000	 9.733326577638579e+000	 9.999306117992926e+000
0	 2.400020000016401e+000	 9.799996024918523e+000	 9.999597955301155e+000
0	 2.400020000016401e+000	 9.866664822186822e+000	 9.999817465096065e+000
0	 2.400020000016401e+000	 9.933332852771351e+000	 9.999968512317718e+000
0	 2.400020000016401e+000	 1.000000000000000e+001	 1.000005495995970e+001
0	 2.466690000017618e+000	 9.333302777352783e+000	 9.996310061201147e+000
0	 2.466690000017618e+000	 9.399973674588177e+000	 9.997004915573850e+000
0	 2.466690000017618e+000	 9.466644621844623e+000	 9.997621548240000e+000
0	 2.466690000017617e+000	 9.533315502450000e+000	 9.998163120496029e+000
0	 2.466690000017617e+000	 9.599986199732198e+000	 9.998632791964790e+000
0	 2.466690000017618e+000	 9.666656597019095e+000	 9.999033720594888e+000
0	 2.466690000017618e+000	 9.733326577638577e+000	 9.999369062660296e+000
0	 2.466690000017617e+000	 9.799996024918523e+000	 9.999641972759829e+000
0	 2.466690000017617e+000	 9.866664822186822e+000	 9.999855603816556e+000
0	 2.466690000017618e+000	 9.933332852771354e+000	 1.000001310707724e+001
0	 2.466690000017618e+000	 1.000000000000000e+001	 1.000011763211149e+001
0	 2.533360000018134e+000	 9.333302777352783e+000	 9.996785070218470e+000
0	 2.533360000018134e+000	 9.399973674588177e+000	 9.997370852785505e+000
0	 2.533360000018134e+000	 9.466644621844621e+000	 9.997895353974839e+000
0	 2.533360000018134e+000	 9.533315502450002e+000	 9.998360885705658e+000
0	 2.533360000018134e+000	 9.599986199732197e+000	 9.998769758484746e+000
0	 2.533360000018134e+000	 9.666656597019095e+000	 9.999124281405992e+000
0	 2.533360000018135e+000	 9.733326577638575e+000	 9.999426762149712e+000
0	 2.533360000018134e+000	 9.799996024918524e+000	 9.999679506982483e+000
0	 2.533360000018134e+000	 9.866664822186824e+000	 9.999884820756286e+000
0	 2.533360000018134e+000	 9.933332852771354e+000	 1.000004500690812e+001
0	 2.533360000018134e+000	 1.000000000000000e+001	 1.000016236745926e+001
0	 2.600030000017850e+000	 9.333302777352781e+000	 9.997238315313831e+000
0	 2.600030000017851e+000	 9.399973674588177e+000	 9.997719916332960e+000
0	 2.600030000017850e+000	 9.466644621844619e+000	 9.998156329274016e+000
0	 2.600030000017850e+000	 9.533315502450002e+000	 9.998548882619339e+000
0	 2.600030000017850e+000	 9.599986199732197e+000	 9.998898903686891e+000
0	 2.600030000017850e+000	 9.666656597019093e+000	 9.999207718629929e+000
0	 2.600030000017850e+000	 9.733326577638575e+000	 9.999476652436401e+000
0	 2.600030000017850e+000	 9.799996024918523e+000	 9.999707028928460e+000
0	 2.600030000017851e+000	 9.866664822186824e+000	 9.999900170762141e+000
0	 2.600030000017850e+000	 9.933332852771351e+000	 1.000005739942655e+001
0	 2.600030000017850e+000	 1.000000000000000e+001	 1.000018003524347e+001
0	 2.666700000016666e+000	 9.333302777352785e+000	 9.997663550153451e+000
0	 2.666700000016666e+000	 9.399973674588178e+000	 9.998047601253342e+000
0	 2.666700000016666e+000	 9.466644621844617e+000	 9.998401259480479e+000
0	 2.666700000016666e+000	 9.533315502450000e+000	 9.998724735827196e+000
0	 2.666700000016666e+000	 9.599986199732197e+000	 9.999018240351832e+000
0	 2.666700000016667e+000	 9.666656597019095e+000	 9.999281982178244e+000
0	 2.666700000016666e+000	 9.733326577638575e+000	 9.999516169495477e+000
0	 2.666700000016667e+000	 9.799996024918521e+000	 9.999721009557126e+000
0	 2.666700000016666e+000	 9.866664822186822e+000	 9.999896708681053e+000
0	 2.666700000016666e+000	 9.933332852771351e+000	 1.000004347224866e+001
0	 2.666700000016666e+000	 1.000000000000000e+001	 1.000016150470449e+001
0	 2.666700000016666e+000	 0.000000000000000e+000	-8.869047362083258e+001
0	 2.666700000016666e+000	 6.666714722864756e-002	-7.713763690665523e+001
0	 2.666700000016666e+000	 1.333351778131789e-001	-6.619862022838977e+001
0	 2.666700000016666e+000	 2.000039750814772e-001	-5.587714719789933e+001
0	 2.666700000016666e+000	 2.666734223614255e-001	-4.617694771668568e+001
0	 2.666700000016666e+000	 3.333434029809069e-001	-3.710175797432141e+001
0	 2.666700000016666e+000	 4.000138002678045e-001	-2.865532044704754e+001
0	 2.666700000016666e+000	 4.666844975500011e-001	-2.084138389653584e+001
0	 2.666700000016666e+000	 5.333553781553803e-001	-1.366370336881651e+001
0	 2.666700000016666e+000	 6.000263254118247e-001	-7.126040193370685e+000
0	 2.666700000016666e+000	 6.666972226472175e-001	-1.232161982387953e+000
0	 2.733360000014533e+000	 0.000000000000000e+000	-9.234516927133021e+001
0	 2.733360000014533e+000	 6.666714722864756e-002	-7.981670141714612e+001
0	 2.733360000014533e+000	 1.333351778131789e-001	-6.805894439701363e+001
0	 2.733360000014533e+000	 2.000039750814772e-001	-5.706214364840845e+001
0	 2.733360000014532e+000	 2.666734223614255e-001	-4.681655105428160e+001
0	 2.733360000014533e+000	 3.333434029809069e-001	-3.731242494146787e+001
0	 2.733360000014533e+000	 4.000138002678044e-001	-2.854003007926317e+001
0	 2.733360000014533e+000	 4.666844975500011e-001	-2.048963767817124e+001
0	 2.733360000014533e+000	 5.333553781553801e-001	-1.315152538881950e+001
0	 2.733360000014533e+000	 6.000263254118246e-001	-6.515977301043892e+000
0	 2.733360000014533e+000	 6.666972226472175e-001	-5.732839431428125e-001
0	 2.800020000011600e+000	 0.000000000000000e+000	-9.449493057140420e+001
0	 2.800020000011600e+000	 6.666714722864754e-002	-8.124998729009172e+001
0	 2.800020000011600e+000	 1.333351778131790e-001	-6.890151828594050e+001
0	 2.800020000011600e+000	 2.000039750814773e-001	-5.742874726513391e+001
0	 2.800020000011600e+000	 2.666734223614255e-001	-4.681090448122519e+001
0	 2.800020000011600e+000	 3.333434029809069e-001	-3.702722673353534e+001
0	 2.800020000011600e+000	 4.000138002678044e-001	-2.805695736572341e+001
0	 2.800020000011600e+000	 4.666844975500012e-001	-1.987934626452837e+001
0	 2.800020000011600e+000	 5.333553781553803e-001	-1.247364985868289e+001
0	 2.800020000011599e+000	 6.000263254118249e-001	-5.819131117998881e+000
0	 2.800020000011599e+000	 6.666972226472175e-001	 1.049404473753739e-001
0	 2.866680000008067e+000	 0.000000000000000e+000	-9.519575309840407e+001
0	 2.866680000008066e+000	 6.666714722864754e-002	-8.148878618669862e+001
0	 2.866680000008067e+000	 1.333351778131790e-001	-6.877288641911062e+001
0	 2.866680000008066e+000	 2.000039750814772e-001	-5.701871219030858e+001
0	 2.866680000008067e+000	 2.666734223614255e-001	-4.619692848982952e+001
0	 2.866680000008067e+000	 3.333434029809069e-001	-3.627820690048063e+001
0	 2.866680000008067e+000	 4.000138002678044e-001	-2.723322559691405e+001
0	 2.866680000008067e+000	 4.666844975500011e-001	-1.903266934437488e+001
0	 2.866680000008066e+000	 5.333553781553803e-001	-1.164722949762219e+001
0	 2.866680000008067e+000	 6.000263254118248e-001	-5.047604000022862e+000
0	 2.866680000008067e+000	 6.666972226472177e-001	 7.955026171813020e-001
0	 2.933340000004133e+000	 0.000000000000000e+000	-9.450363242969236e+001
0	 2.933340000004133e+000	 6.666714722864756e-002	-8.058438976818353e+001
0	 2.933340000004133e+000	 1.333351778131789e-001	-6.771959332047216e+001
0	 2.933340000004133e+000	 2.000039750814772e-001	-5.587379256617106e+001
0	 2.933340000004134e+000	 2.666734223614256e-001	-4.501154357241188e+001
0	 2.933340000004133e+000	 3.333434029809070e-001	-3.509740899226338e+001
0	 2.933340000004133e+000	 4.000138002678044e-001	-2.609595806332271e+001
0	 2.933340000004133e+000	 4.666844975500011e-001	-1.797176660647961e+001
0	 2.933340000004134e+000	 5.333553781553803e-001	-1.068941702485352e+001
0	 2.933340000004133e+000	 6.000263254118248e-001	-4.213498302903396e+000
0	 2.933340000004133e+000	 6.666972226472175e-001	 1.491393994289632e+000
0	 3.000000000000000e+000	 0.000000000000000e+000	-9.247456414264458e+001
0	 3.000000000000000e+000	 6.666714722864756e-002	-7.858808969577328e+001
0	 3.000000000000000e+000	 1.333351778131790e-001	-6.578818351398083e+001
0	 3.000000000000000e+000	 2.000039750814773e-001	-5.403574253496565e+001
0	 3.000000000000000e+000	 2.666734223614255e-001	-4.329167022129364e+001
0	 3.000000000000001e+000	 3.333434029809069e-001	-3.351687655884618e+001
0	 3.000000000000000e+000	 4.000138002678044e-001	-2.467227805543899e+001
0	 3.000000000000000e+000	 4.666844975500011e-001	-1.671879773961256e+001
0	 3.000000000000000e+000	 5.333553781553801e-001	-9.617365159593705e+000
0	 3.000000000000000e+000	 6.000263254118247e-001	-3.328916382428295e+000
0	 3.000000000000001e+000	 6.666972226472178e-001	 2.185606006714987e+000
0	 3.066659999995866e+000	 0.000000000000000e+000	-8.916454381464924e+001
0	 3.066659999995867e+000	 6.666714722864757e-002	-7.555117763070481e+001
0	 3.066659999995868e+000	 1.333351778131789e-001	-6.302520152360020e+001
0	 3.066659999995867e+000	 2.000039750814772e-001	-5.154631623894241e+001
0	 3.066659999995867e+000	 2.666734223614256e-001	-4.107422892880035e+001
0	 3.066659999995867e+000	 3.333434029809069e-001	-3.156865315019445e+001
0	 3.066659999995868e+000	 4.000138002678044e-001	-2.298930886375437e+001
0	 3.066659999995868e+000	 4.666844975500012e-001	-1.529592243254493e+001
0	 3.066659999995868e+000	 5.333553781553801e-001	-8.448226621060222e+000
0	 3.066659999995868e+000	 6.000263254118249e-001	-2.405960594385679e+000
0	 3.066659999995867e+000	 6.666972226472177e-001	 2.871130082471881e+000
0	 3.133319999991934e+000	 0.000000000000000e+000	-8.462956702310787e+001
0	 3.133319999991935e+000	 6.666714722864757e-002	-7.152494523422524e+001
0	 3.133319999991934e+000	 1.333351778131790e-001	-5.947719187330151e+001
0	 3.133319999991934e+000	 2.000039750814772e-001	-4.844726782035721e+001
0	 3.133319999991934e+000	 2.666734223614255e-001	-3.839614018726170e+001
0	 3.133319999991933e+000	 3.333434029809069e-001	-2.928478231627651e+001
0	 3.133319999991933e+000	 4.000138002678043e-001	-2.107417377876221e+001
0	 3.133319999991934e+000	 4.666844975500011e-001	-1.372530037404910e+001
0	 3.133319999991934e+000	 5.333553781553804e-001	-7.199154128471227e+000
0	 3.133319999991935e+000	 6.000263254118247e-001	-1.456733294563974e+000
0	 3.133319999991934e+000	 6.666972226472177e-001	 3.540957649574873e+000
0	 3.199979999988401e+000	 0.000000000000000e+000	-7.892562934543496e+001
0	 3.199979999988400e+000	 6.666714722864756e-002	-6.656068416759176e+001
0	 3.199979999988400e+000	 1.333351778131789e-001	-5.519069908706369e+001
0	 3.199979999988401e+000	 2.000039750814773e-001	-4.478035142147159e+001
0	 3.199979999988400e+000	 2.666734223614255e-001	-3.529432448901155e+001
0	 3.199979999988401e+000	 3.333434029809070e-001	-2.669730760706357e+001
0	 3.199979999988401e+000	 4.000138002678044e-001	-1.895399609095786e+001
0	 3.199979999988401e+000	 4.666844975500011e-001	-1.202909125289863e+001
0	 3.199979999988401e+000	 5.333553781553801e-001	-5.887300401045479e+000
0	 3.199979999988401e+000	 6.000263254118249e-001	-4.933368387519068e-001
0	 3.199979999988400e+000	 6.666972226472175e-001	 4.188080136038396e+000
0	 3.266639999985468e+000	 0.000000000000000e+000	-7.210872635905795e+001
0	 3.266639999985468e+000	 6.666714722864756e-002	-6.070968609207174e+001
0	 3.266639999985467e+000	 1.333351778131789e-001	-5.021226768887345e+001
0	 3.266639999985468e+000	 2.000039750814772e-001	-4.058732118455286e+001
0	 3.266639999985468e+000	 2.666734223614255e-001	-3.180570232638785e+001
0	 3.266639999985467e+000	 3.333434029809068e-001	-2.383827257252969e+001
0	 3.266639999985467e+000	 4.000138002678043e-001	-1.665589909083849e+001
0	 3.266639999985468e+000	 4.666844975500012e-001	-1.022945475786830e+001
0	 3.266639999985467e+000	 5.333553781553803e-001	-4.529818158002454e+000
0	 3.266639999985467e+000	 6.000263254118246e-001	 4.721264172614981e-001
0	 3.266639999985468e+000	 6.666972226472178e-001	 4.805488969876891e+000
0	 3.333299999983334e+000	 0.000000000000000e+000	-6.423485364141743e+001
0	 3.333299999983333e+000	 6.666714722864756e-002	-5.402324266894262e+001
0	 3.333299999983333e+000	 1.333351778131789e-001	-4.458844220272520e+001
0	 3.333299999983334e+000	 2.000039750814772e-001	-3.590993125187408e+001
0	 3.333299999983334e+000	 2.666734223614256e-001	-2.796719419173274e+001
0	 3.333299999983334e+000	 3.333434029809069e-001	-2.073972076265189e+001
0	 3.333299999983334e+000	 4.000138002678044e-001	-1.420700606890327e+001
0	 3.333299999983333e+000	 4.666844975500011e-001	-8.348550577734033e+000
0	 3.333299999983335e+000	 5.333553781553803e-001	-3.143860118562291e+000
0	 3.333299999983334e+000	 6.000263254118248e-001	 1.427554117686906e+000
0	 3.333299999983334e+000	 6.666972226472175e-001	 5.386175579104678e+000
0	 2.666700000016666e+000	 6.666972226472175e-001	-1.232161982387954e+000
0	 2.666700000016666e+000	 7.333579753122047e-001	 4.077616691781762e+000
0	 2.666700000016666e+000	 8.000185779984416e-001	 8.868835928578562e+000
0	 2.666700000016666e+000	 8.666790473703453e-001	 1.314399924015962e+001
0	 2.666700000016666e+000	 9.333394000923323e-001	 1.690561084633283e+001
0	 2.666700000016665e+000	 9.999996528288190e-001	 2.015617567457792e+001
0	 2.666700000016666e+000	 1.066659822244222e+000	 2.289819936006472e+001
0	 2.666700000016667e+000	 1.133319925002959e+000	 2.513418824566891e+001
0	 2.666700000016667e+000	 1.199979977769445e+000	 2.686664938198501e+001
0	 2.666700000016666e+000	 1.266639997208098e+000	 2.809809052733681e+001
0	 2.666700000016667e+000	 1.333299999983334e+000	 2.883102014778506e+001
0	 2.733360000014533e+000	 6.666972226472175e-001	-5.732839431428132e-001
0	 2.733360000014533e+000	 7.333579753122049e-001	 4.753607695955513e+000
0	 2.733360000014532e+000	 8.000185779984417e-001	 9.540605644046742e+000
0	 2.733360000014533e+000	 8.666790473703454e-001	 1.379317795473740e+001
0	 2.733360000014533e+000	 9.333394000923319e-001	 1.751679339460403e+001
0	 2.733360000014533e+000	 9.999996528288192e-001	 2.071692144321429e+001
0	 2.733360000014532e+000	 1.066659822244222e+000	 2.339903229314528e+001
0	 2.733360000014533e+000	 1.133319925002959e+000	 2.556859684999922e+001
0	 2.733360000014533e+000	 1.199979977769445e+000	 2.723108673241648e+001
0	 2.733360000014533e+000	 1.266639997208098e+000	 2.839197427208588e+001
0	 2.733360000014532e+000	 1.333299999983334e+000	 2.905673251375237e+001
0	 2.800020000011599e+000	 6.666972226472175e-001	 1.049404473753727e-001
0	 2.800020000011599e+000	 7.333579753122049e-001	 5.391173974976123e+000
0	 2.800020000011599e+000	 8.000185779984415e-001	 1.012530784216096e+001
0	 2.800020000011600e+000	 8.666790473703455e-001	 1.431525756064479e+001
0	 2.800020000011600e+000	 9.333394000923321e-001	 1.796893935179842e+001
0	 2.800020000011600e+000	 9.999996528288189e-001	 2.109427014666951e+001
0	 2.800020000011600e+000	 1.066659822244222e+000	 2.369916758600068e+001
0	 2.800020000011600e+000	 1.133319925002959e+000	 2.579155002024499e+001
0	 2.800020000011600e+000	 1.199979977769445e+000	 2.737933650957882e+001
0	 2.800020000011600e+000	 1.266639997208098e+000	 2.847044682391204e+001
0	 2.800020000011600e+000	 1.333299999983334e+000	 2.907280144289553e+001
0	 2.866680000008067e+000	 6.666972226472177e-001	 7.955026171813020e-001
0	 2.866680000008067e+000	 7.333579753122049e-001	 5.988148272680474e+000
0	 2.866680000008066e+000	 8.000185779984417e-001	 1.062506973804708e+001
0	 2.866680000008067e+000	 8.666790473703453e-001	 1.471611289305666e+001
0	 2.866680000008067e+000	 9.333394000923322e-001	 1.827112431601343e+001
0	 2.866680000008067e+000	 9.999996528288191e-001	 2.129995128377079e+001
0	 2.866680000008066e+000	 1.066659822244222e+000	 2.381244177174897e+001
0	 2.866680000008066e+000	 1.133319925002958e+000	 2.581844445395037e+001
0	 2.866680000008067e+000	 1.199979977769445e+000	 2.732780870297201e+001
0	 2.866680000008067e+000	 1.266639997208098e+000	 2.835038459001545e+001
0	 2.866680000008067e+000	 1.333299999983334e+000	 2.889602288489416e+001
0	 2.933340000004133e+000	 6.666972226472175e-001	 1.491393994289631e+000
0	 2.933340000004133e+000	 7.333579753122048e-001	 6.542363332905622e+000
0	 2.933340000004134e+000	 8.000185779984418e-001	 1.104201854683123e+001
0	 2.933340000004133e+000	 8.666790473703455e-001	 1.500161878714825e+001
0	 2.933340000004133e+000	 9.333394000923322e-001	 1.843242388534686e+001
0	 2.933340000004134e+000	 9.999996528288188e-001	 2.134569435334560e+001
0	 2.933340000004133e+000	 1.066659822244222e+000	 2.375269138350849e+001
0	 2.933340000004133e+000	 1.133319925002958e+000	 2.566467684865977e+001
0	 2.933340000004133e+000	 1.199979977769445e+000	 2.709291330209619e+001
0	 2.933340000004133e+000	 1.266639997208098e+000	 2.804866397759636e+001
0	 2.933340000004133e+000	 1.333299999983334e+000	 2.854319278942807e+001
0	 3.000000000000001e+000	 6.666972226472178e-001	 2.185606006714987e+000
0	 3.000000000000000e+000	 7.333579753122049e-001	 7.051651899488717e+000
0	 3.000000000000001e+000	 8.000185779984418e-001	 1.137828148363978e+001
0	 3.000000000000001e+000	 8.666790473703453e-001	 1.517765007809506e+001
0	 3.000000000000000e+000	 9.333394000923321e-001	 1.846191365789682e+001
0	 3.000000000000000e+000	 9.999996528288189e-001	 2.124322885422179e+001
0	 3.000000000000000e+000	 1.066659822244222e+000	 2.353375295439778e+001
0	 3.000000000000000e+000	 1.133319925002959e+000	 2.534564390191778e+001
0	 3.000000000000001e+000	 1.199979977769445e+000	 2.669106029645159e+001
0	 3.000000000000000e+000	 1.266639997208098e+000	 2.758216139385513e+001
0	 3.000000000000000e+000	 1.333299999983334e+000	 2.803110710617710e+001
0	 3.066659999995867e+000	 6.666972226472177e-001	 2.871130082471881e+000
0	 3.066659999995867e+000	 7.333579753122047e-001	 7.513846716267040e+000
0	 3.066659999995868e+000	 8.000185779984420e-001	 1.163598576359931e+001
0	 3.066659999995867e+000	 8.666790473703452e-001	 1.525008160107292e+001
0	 3.066659999995867e+000	 9.333394000923320e-001	 1.836866923176168e+001
0	 3.066659999995868e+000	 9.999996528288190e-001	 2.100428428522746e+001
0	 3.066659999995867e+000	 1.066659822244222e+000	 2.316946301753576e+001
0	 3.066659999995868e+000	 1.133319925002959e+000	 2.487674231126918e+001
0	 3.066659999995867e+000	 1.199979977769445e+000	 2.613865967553872e+001
0	 3.066659999995868e+000	 1.266639997208098e+000	 2.696775324599222e+001
0	 3.066659999995867e+000	 1.333299999983334e+000	 2.737656178482114e+001
0	 3.133319999991934e+000	 6.666972226472177e-001	 3.540957649574873e+000
0	 3.133319999991934e+000	 7.333579753122048e-001	 7.926780527078008e+000
0	 3.133319999991934e+000	 8.000185779984418e-001	 1.181725860183670e+001
0	 3.133319999991934e+000	 8.666790473703455e-001	 1.522478819125792e+001
0	 3.133319999991934e+000	 9.333394000923323e-001	 1.816176620504022e+001
0	 3.133319999991934e+000	 9.999996528288190e-001	 2.064059014519104e+001
0	 3.133319999991934e+000	 1.066659822244222e+000	 2.267365810604148e+001
0	 3.133319999991934e+000	 1.133319925002959e+000	 2.427336877425904e+001
0	 3.133319999991933e+000	 1.199979977769445e+000	 2.545212142885813e+001
0	 3.133319999991934e+000	 1.266639997208098e+000	 2.622231594120829e+001
0	 3.133319999991933e+000	 1.333299999983334e+000	 2.659635277504017e+001
0	 3.199979999988400e+000	 6.666972226472175e-001	 4.188080136038396e+000
0	 3.199979999988401e+000	 7.333579753122048e-001	 8.288286075759125e+000
0	 3.199979999988401e+000	 8.000185779984419e-001	 1.192422721347899e+001
0	 3.199979999988400e+000	 8.666790473703452e-001	 1.510764468382650e+001
0	 3.199979999988402e+000	 9.333394000923322e-001	 1.785028017583152e+001
0	 3.199979999988401e+000	 9.999996528288190e-001	 2.016387593294128e+001
0	 3.199979999988401e+000	 1.066659822244222e+000	 2.206017475303440e+001
0	 3.199979999988401e+000	 1.133319925002959e+000	 2.355091998843261e+001
0	 3.199979999988401e+000	 1.199979977769445e+000	 2.464785554591068e+001
0	 3.199979999988401e+000	 1.266639997208098e+000	 2.536272588670400e+001
0	 3.199979999988401e+000	 1.333299999983334e+000	 2.570727602651425e+001
0	 3.266639999985468e+000	 6.666972226472178e-001	 4.805488969876891e+000
0	 3.266639999985468e+000	 7.333579753122048e-001	 8.596196106148080e+000
0	 3.266639999985468e+000	 8.000185779984418e-001	 1.195901881365352e+001
0	 3.266639999985467e+000	 8.666790473703451e-001	 1.490452591395538e+001
0	 3.266639999985467e+000	 9.333394000923321e-001	 1.744328674223490e+001
0	 3.266639999985467e+000	 9.999996528288189e-001	 1.958587114730722e+001
0	 3.266639999985468e+000	 1.066659822244222e+000	 2.134284949163416e+001
0	 3.266639999985468e+000	 1.133319925002959e+000	 2.272479265133537e+001
0	 3.266639999985467e+000	 1.199979977769445e+000	 2.374227201619727e+001
0	 3.266639999985468e+000	 1.266639997208098e+000	 2.440585948968021e+001
0	 3.266639999985468e+000	 1.333299999983334e+000	 2.472612748892356e+001
0	 3.333299999983334e+000	 6.666972226472175e-001	 5.386175579104676e+000
0	 3.333299999983334e+000	 7.333579753122049e-001	 8.848343362082664e+000
0	 3.333299999983334e+000	 8.000185779984418e-001	 1.192376061748782e+001
0	 3.333299999983334e+000	 8.666790473703455e-001	 1.462130671682157e+001
0	 3.333299999983334e+000	 9.333394000923322e-001	 1.694986150235014e+001
0	 3.333299999983334e+000	 9.999996528288189e-001	 1.891830528711819e+001
0	 3.333299999983335e+000	 1.066659822244222e+000	 2.053551885496074e+001
0	 3.333299999983334e+000	 1.133319925002958e+000	 2.181038346051306e+001
0	 3.333299999983334e+000	 1.199979977769445e+000	 2.275178082921906e+001
0	 3.333299999983334e+000	 1.266639997208098e+000	 2.336859315733782e+001
0	 3.333299999983334e+000	 1.333299999983334e+000	 2.366970311194831e+001
0	 2.666700000016667e+000	 1.333299999983334e+000	 2.883102014778506e+001
0	 2.666700000016667e+000	 1.399969999982150e+000	 2.921739530502851e+001
0	 2.666700000016666e+000	 1.466639999981867e+000	 2.941051763248072e+001
0	 2.666700000016667e+000	 1.533309999982383e+000	 2.941513103597028e+001
0	 2.666700000016667e+000	 1.599979999983600e+000	 2.923597942132425e+001
0	 2.666700000016665e+000	 1.666649999985416e+000	 2.887780669436807e+001
0	 2.666700000016667e+000	 1.733319999987733e+000	 2.834535676092565e+001
0	 2.666700000016667e+000	 1.799989999990450e+000	 2.764337352681934e+001
0	 2.666700000016666e+000	 1.866659999993466e+000	 2.677660089786994e+001
0	 2.666700000016667e+000	 1.933329999996683e+000	 2.574978277989660e+001
0	 2.666700000016667e+000	 2.000000000000000e+000	 2.456766307871702e+001
0	 2.733360000014532e+000	 1.333299999983334e+000	 2.905673251375237e+001
0	 2.733360000014533e+000	 1.399969999982150e+000	 2.938370644673853e+001
0	 2.733360000014533e+000	 1.466639999981867e+000	 2.952984715555726e+001
0	 2.733360000014533e+000	 1.533309999982383e+000	 2.949872571452205e+001
0	 2.733360000014532e+000	 1.599979999983600e+000	 2.929391319794486e+001
0	 2.733360000014533e+000	 1.666649999985416e+000	 2.891898068013614e+001
0	 2.733360000014534e+000	 1.733319999987733e+000	 2.837749923540480e+001
0	 2.733360000014532e+000	 1.799989999990449e+000	 2.767303993805823e+001
0	 2.733360000014533e+000	 1.866659999993466e+000	 2.680917386240236e+001
0	 2.733360000014533e+000	 1.933329999996683e+000	 2.578947208274147e+001
0	 2.733360000014533e+000	 2.000000000000000e+000	 2.461750567337843e+001
0	 2.800020000011600e+000	 1.333299999983334e+000	 2.907280144289553e+001
0	 2.800020000011600e+000	 1.399969999982150e+000	 2.934813594213330e+001
0	 2.800020000011600e+000	 1.466639999981866e+000	 2.945449752753085e+001
0	 2.800020000011600e+000	 1.533309999982383e+000	 2.939443695042709e+001
0	 2.800020000011600e+000	 1.599979999983599e+000	 2.917050496215943e+001
0	 2.800020000011599e+000	 1.666649999985416e+000	 2.878525231406395e+001
0	 2.800020000011600e+000	 1.733319999987733e+000	 2.824122975747511e+001
0	 2.800020000011600e+000	 1.799989999990450e+000	 2.754098804372594e+001
0	 2.800020000011600e+000	 1.866659999993466e+000	 2.668707792414803e+001
0	 2.800020000011600e+000	 1.933329999996683e+000	 2.568205015007149e+001
0	 2.800020000011600e+000	 2.000000000000000e+000	 2.452845547282490e+001
0	 2.866680000008067e+000	 1.333299999983334e+000	 2.889602288489416e+001
0	 2.866680000008067e+000	 1.399969999982150e+000	 2.912710221330594e+001
0	 2.866680000008067e+000	 1.466639999981866e+000	 2.920046248440874e+001
0	 2.866680000008067e+000	 1.533309999982383e+000	 2.911778663510749e+001
0	 2.866680000008067e+000	 1.599979999983600e+000	 2.888075760230581e+001
0	 2.866680000008067e+000	 1.666649999985416e+000	 2.849105832290577e+001
0	 2.866680000008067e+000	 1.733319999987733e+000	 2.795037173380812e+001
0	 2.866680000008067e+000	 1.799989999990450e+000	 2.726038077191209e+001
0	 2.866680000008067e+000	 1.866659999993467e+000	 2.642276837411559e+001
0	 2.866680000008067e+000	 1.933329999996683e+000	 2.543921747731503e+001
0	 2.866680000008067e+000	 2.000000000000000e+000	 2.431141101840542e+001
0	 2.933340000004133e+000	 1.333299999983334e+000	 2.854319278942808e+001
0	 2.933340000004133e+000	 1.399969999982150e+000	 2.873702368234952e+001
0	 2.933340000004133e+000	 1.466639999981866e+000	 2.878373576219813e+001
0	 2.933340000004133e+000	 1.533309999982383e+000	 2.868429665998549e+001
0	 2.933340000004134e+000	 1.599979999983599e+000	 2.843967400672184e+001
0	 2.933340000004133e+000	 1.666649999985416e+000	 2.805083543341604e+001
0	 2.933340000004133e+000	 1.733319999987732e+000	 2.751874857107560e+001
0	 2.933340000004133e+000	 1.799989999990450e+000	 2.684438105070666e+001
0	 2.933340000004133e+000	 1.866659999993466e+000	 2.602870050331395e+001
0	 2.933340000004133e+000	 1.933329999996683e+000	 2.507267455990087e+001
0	 2.933340000004134e+000	 2.000000000000000e+000	 2.397727085146950e+001
0	 3.000000000000000e+000	 1.333299999983334e+000	 2.803110710617710e+001
0	 3.000000000000000e+000	 1.399969999982150e+000	 2.819431877135727e+001
0	 3.000000000000000e+000	 1.466639999981867e+000	 2.822031109690640e+001
0	 3.000000000000001e+000	 1.533309999982383e+000	 2.810948891648335e+001
0	 3.000000000000000e+000	 1.599979999983599e+000	 2.786225706374564e+001
0	 3.000000000000000e+000	 1.666649999985416e+000	 2.747902037234943e+001
0	 3.000000000000000e+000	 1.733319999987733e+000	 2.696018367594963e+001
0	 3.000000000000000e+000	 1.799989999990450e+000	 2.630615180819987e+001
0	 3.000000000000000e+000	 1.866659999993466e+000	 2.551732960275243e+001
0	 3.000000000000000e+000	 1.933329999996683e+000	 2.459412189325829e+001
0	 3.000000000000001e+000	 2.000000000000000e+000	 2.353693351336711e+001
0	 3.066659999995867e+000	 1.333299999983334e+000	 2.737656178482114e+001
0	 3.066659999995867e+000	 1.399969999982150e+000	 2.751540590242240e+001
0	 3.066659999995867e+000	 1.466639999981866e+000	 2.752618222454099e+001
0	 3.066659999995868e+000	 1.533309999982383e+000	 2.740888529602347e+001
0	 3.066659999995868e+000	 1.599979999983600e+000	 2.716350966171532e+001
0	 3.066659999995868e+000	 1.666649999985416e+000	 2.679004986646069e+001
0	 3.066659999995868e+000	 1.733319999987733e+000	 2.628850045510245e+001
0	 3.066659999995867e+000	 1.799989999990450e+000	 2.565885597248232e+001
0	 3.066659999995867e+000	 1.866659999993466e+000	 2.490111096344076e+001
0	 3.066659999995866e+000	 1.933329999996683e+000	 2.401525997281692e+001
0	 3.066659999995868e+000	 2.000000000000000e+000	 2.300129754544877e+001
0	 3.133319999991933e+000	 1.333299999983334e+000	 2.659635277504017e+001
0	 3.133319999991935e+000	 1.399969999982150e+000	 2.671670349763825e+001
0	 3.133319999991935e+000	 1.466639999981866e+000	 2.671734288110929e+001
0	 3.133319999991933e+000	 1.533309999982382e+000	 2.659800769002831e+001
0	 3.133319999991934e+000	 1.599979999983600e+000	 2.635843468896924e+001
0	 3.133319999991934e+000	 1.666649999985416e+000	 2.599836064250480e+001
0	 3.133319999991935e+000	 1.733319999987733e+000	 2.551752231520653e+001
0	 3.133319999991934e+000	 1.799989999990449e+000	 2.491565647164487e+001
0	 3.133319999991933e+000	 1.866659999993466e+000	 2.419249987638897e+001
0	 3.133319999991934e+000	 1.933329999996683e+000	 2.334778929400688e+001
0	 3.133319999991934e+000	 2.000000000000000e+000	 2.238126148906548e+001
0	 3.199979999988401e+000	 1.333299999983334e+000	 2.570727602651425e+001
0	 3.199979999988401e+000	 1.399969999982150e+000	 2.581462997909823e+001
0	 3.199979999988401e+000	 1.466639999981866e+000	 2.580978680261891e+001
0	 3.199979999988401e+000	 1.533309999982383e+000	 2.569237798992040e+001
0	 3.199979999988400e+000	 1.599979999983599e+000	 2.546203503384577e+001
0	 3.199979999988401e+000	 1.666649999985416e+000	 2.511838942723690e+001
0	 3.199979999988400e+000	 1.733319999987733e+000	 2.466107266293461e+001
0	 3.199979999988400e+000	 1.799989999990450e+000	 2.408971623377860e+001
0	 3.199979999988401e+000	 1.866659999993466e+000	 2.340395163260749e+001
0	 3.199979999988401e+000	 1.933329999996683e+000	 2.260341035225873e+001
0	 3.199979999988401e+000	 2.000000000000000e+000	 2.168772388556874e+001
0	 3.266639999985468e+000	 1.333299999983334e+000	 2.472612748892356e+001
0	 3.266639999985467e+000	 1.399969999982150e+000	 2.482560376889570e+001
0	 3.266639999985468e+000	 1.466639999981866e+000	 2.481950772507739e+001
0	 3.266639999985468e+000	 1.533309999982383e+000	 2.470751808712240e+001
0	 3.266639999985469e+000	 1.599979999983600e+000	 2.448931358468348e+001
0	 3.266639999985467e+000	 1.666649999985416e+000	 2.416457294741234e+001
0	 3.266639999985467e+000	 1.733319999987733e+000	 2.373297490495963e+001
0	 3.266639999985467e+000	 1.799989999990449e+000	 2.319419818697502e+001
0	 3.266639999985468e+000	 1.866659999993466e+000	 2.254792152310710e+001
0	 3.266639999985468e+000	 1.933329999996684e+000	 2.179382364300344e+001
0	 3.266639999985468e+000	 2.000000000000000e+000	 2.093158327631058e+001
0	 3.333299999983334e+000	 1.333299999983334e+000	 2.366970311194831e+001
0	 3.333299999983334e+000	 1.399969999982150e+000	 2.376604328912422e+001
0	 3.333299999983334e+000	 1.466639999981867e+000	 2.376249938449246e+001
0	 3.333299999983334e+000	 1.533309999982383e+000	 2.365894987305705e+001
0	 3.333299999983333e+000	 1.599979999983599e+000	 2.345527322982106e+001
0	 3.333299999983334e+000	 1.666649999985416e+000	 2.315134792978659e+001
0	 3.333299999983334e+000	 1.733319999987733e+000	 2.274705244795480e+001
0	 3.333299999983334e+000	 1.799989999990450e+000	 2.224226525932583e+001
0	 3.333299999983334e+000	 1.866659999993466e+000	 2.163686483889897e+001
0	 3.333299999983334e+000	 1.933329999996683e+000	 2.093072966167241e+001
0	 3.333299999983334e+000	 2.000000000000000e+000	 2.012373820264350e+001
0	 2.666700000016667e+000	 2.000000000000000e+000	 2.456766307871702e+001
0	 2.666700000016667e+000	 2.066670000003317e+000	 2.333404904965387e+001
0	 2.666700000016666e+000	 2.133340000006534e+000	 2.214940302222426e+001
0	 2.666700000016666e+000	 2.200010000009550e+000	 2.101345151353633e+001
0	 2.666700000016667e+000	 2.266680000012268e+000	 1.992592104069852e+001
0	 2.666700000016666e+000	 2.333350000014584e+000	 1.888653812081948e+001
0	 2.666700000016667e+000	 2.400020000016401e+000	 1.789502927100813e+001
0	 2.666700000016666e+000	 2.466690000017618e+000	 1.695112100837360e+001
0	 2.666700000016666e+000	 2.533360000018134e+000	 1.605453985002522e+001
0	 2.666700000016666e+000	 2.600030000017850e+000	 1.520501231307260e+001
0	 2.666700000016667e+000	 2.666700000016667e+000	 1.440226491462557e+001
0	 2.733360000014533e+000	 2.000000000000000e+000	 2.461750567337843e+001
0	 2.733360000014533e+000	 2.066670000003317e+000	 2.339539879322665e+001
0	 2.733360000014533e+000	 2.133340000006534e+000	 2.222261234637475e+001
0	 2.733360000014533e+000	 2.200010000009550e+000	 2.109872252488741e+001
0	 2.733360000014533e+000	 2.266680000012268e+000	 2.002330552082957e+001
0	 2.733360000014533e+000	 2.333350000014585e+000	 1.899593752626648e+001
0	 2.733360000014533e+000	 2.400020000016402e+000	 1.801619473326358e+001
0	 2.733360000014534e+000	 2.466690000017618e+000	 1.708365333388660e+001
0	 2.733360000014533e+000	 2.533360000018134e+000	 1.619788952020157e+001
0	 2.733360000014533e+000	 2.600030000017851e+000	 1.535847948427476e+001
0	 2.733360000014533e+000	 2.666700000016666e+000	 1.456499941817269e+001
0	 2.800020000011600e+000	 2.000000000000000e+000	 2.452845547282490e+001
0	 2.800020000011599e+000	 2.066670000003316e+000	 2.332627847910305e+001
0	 2.800020000011600e+000	 2.133340000006534e+000	 2.217343608355143e+001
0	 2.800020000011600e+000	 2.200010000009551e+000	 2.106937752942379e+001
0	 2.800020000011600e+000	 2.266680000012266e+000	 2.001355205997419e+001
0	 2.800020000011600e+000	 2.333350000014585e+000	 1.900540891845697e+001
0	 2.800020000011600e+000	 2.400020000016400e+000	 1.804439734812677e+001
0	 2.800020000011601e+000	 2.466690000017618e+000	 1.712996659223852e+001
0	 2.800020000011600e+000	 2.533360000018134e+000	 1.626156589404739e+001
0	 2.800020000011599e+000	 2.600030000017851e+000	 1.543864449680890e+001
0	 2.800020000011600e+000	 2.666700000016667e+000	 1.466065164377883e+001
0	 2.866680000008067e+000	 2.000000000000000e+000	 2.431141101840542e+001
0	 2.866680000008066e+000	 2.066670000003316e+000	 2.313677262585908e+001
0	 2.866680000008066e+000	 2.133340000006534e+000	 2.201116775066916e+001
0	 2.866680000008067e+000	 2.200010000009550e+000	 2.093394206351108e+001
0	 2.866680000008067e+000	 2.266680000012267e+000	 1.990444123506060e+001
0	 2.866680000008066e+000	 2.333350000014584e+000	 1.892201093599377e+001
0	 2.866680000008066e+000	 2.400020000016400e+000	 1.798599683698693e+001
0	 2.866680000008067e+000	 2.466690000017618e+000	 1.709574460871674e+001
0	 2.866680000008066e+000	 2.533360000018134e+000	 1.625059992186019e+001
0	 2.866680000008067e+000	 2.600030000017850e+000	 1.544990844709457e+001
0	 2.866680000008067e+000	 2.666700000016667e+000	 1.469301585509744e+001
0	 2.933340000004134e+000	 2.000000000000000e+000	 2.397727085146950e+001
0	 2.933340000004133e+000	 2.066670000003317e+000	 2.283696575207130e+001
0	 2.933340000004133e+000	 2.133340000006534e+000	 2.174510086464343e+001
0	 2.933340000004133e+000	 2.200010000009550e+000	 2.070094166351560e+001
0	 2.933340000004134e+000	 2.266680000012267e+000	 1.970375362301780e+001
0	 2.933340000004134e+000	 2.333350000014585e+000	 1.875280221748037e+001
0	 2.933340000004133e+000	 2.400020000016400e+000	 1.784735292123394e+001
0	 2.933340000004133e+000	 2.466690000017617e+000	 1.698667120860952e+001
0	 2.933340000004134e+000	 2.533360000018134e+000	 1.617002255393840e+001
0	 2.933340000004133e+000	 2.600030000017851e+000	 1.539667243155219e+001
0	 2.933340000004133e+000	 2.666700000016666e+000	 1.466588631578284e+001
0	 3.000000000000001e+000	 2.000000000000000e+000	 2.353693351336711e+001
0	 3.000000000000000e+000	 2.066670000003317e+000	 2.243694237631681e+001
0	 3.000000000000001e+000	 2.133340000006534e+000	 2.138452894239037e+001
0	 3.000000000000000e+000	 2.200010000009550e+000	 2.037890186580431e+001
0	 3.000000000000000e+000	 2.266680000012267e+000	 1.941926980077547e+001
0	 3.000000000000000e+000	 2.333350000014584e+000	 1.850484140152108e+001
0	 3.000000000000001e+000	 2.400020000016401e+000	 1.763482532225861e+001
0	 3.000000000000000e+000	 2.466690000017617e+000	 1.680843021720594e+001
0	 3.000000000000000e+000	 2.533360000018134e+000	 1.602486474058125e+001
0	 3.000000000000000e+000	 2.600030000017850e+000	 1.528333754660306e+001
0	 3.000000000000000e+000	 2.666700000016666e+000	 1.458305728949022e+001
0	 3.066659999995868e+000	 2.000000000000000e+000	 2.300129754544877e+001
0	 3.066659999995866e+000	 2.066670000003317e+000	 2.194678701717332e+001
0	 3.066659999995868e+000	 2.133340000006534e+000	 2.093874550082670e+001
0	 3.066659999995867e+000	 2.200010000009550e+000	 1.997634820674488e+001
0	 3.066659999995868e+000	 2.266680000012267e+000	 1.905877034526408e+001
0	 3.066659999995868e+000	 2.333350000014584e+000	 1.818518712672097e+001
0	 3.066659999995867e+000	 2.400020000016401e+000	 1.735477376145250e+001
0	 3.066659999995867e+000	 2.466690000017617e+000	 1.656670545979593e+001
0	 3.066659999995868e+000	 2.533360000018134e+000	 1.582015743208890e+001
0	 3.066659999995868e+000	 2.600030000017851e+000	 1.511430488866937e+001
0	 3.066659999995868e+000	 2.666700000016666e+000	 1.444832303987567e+001
0	 3.133319999991934e+000	 2.000000000000000e+000	 2.238126148906548e+001
0	 3.133319999991935e+000	 2.066670000003317e+000	 2.137658419321907e+001
0	 3.133319999991934e+000	 2.133340000006534e+000	 2.041704405686980e+001
0	 3.133319999991934e+000	 2.200010000009550e+000	 1.950180622270561e+001
0	 3.133319999991933e+000	 2.266680000012267e+000	 1.863003583341477e+001
0	 3.133319999991935e+000	 2.333350000014585e+000	 1.780089803168590e+001
0	 3.133319999991934e+000	 2.400020000016401e+000	 1.701355796020796e+001
0	 3.133319999991934e+000	 2.466690000017617e+000	 1.626718076167022e+001
0	 3.133319999991934e+000	 2.533360000018134e+000	 1.556093157876230e+001
0	 3.133319999991934e+000	 2.600030000017850e+000	 1.489397555417418e+001
0	 3.133319999991934e+000	 2.666700000016666e+000	 1.426547783059615e+001
0	 3.199979999988401e+000	 2.000000000000000e+000	 2.168772388556874e+001
0	 3.199979999988401e+000	 2.066670000003316e+000	 2.073641842303287e+001
0	 3.199979999988401e+000	 2.133340000006534e+000	 1.982871812743764e+001
0	 3.199979999988401e+000	 2.200010000009550e+000	 1.896380145005556e+001
0	 3.199979999988401e+000	 2.266680000012267e+000	 1.814084684215944e+001
0	 3.199979999988401e+000	 2.333350000014584e+000	 1.735903275502249e+001
0	 3.199979999988401e+000	 2.400020000016401e+000	 1.661753763991820e+001
0	 3.199979999988401e+000	 2.466690000017617e+000	 1.591553994812042e+001
0	 3.199979999988401e+000	 2.533360000018134e+000	 1.525221813090331e+001
0	 3.199979999988401e+000	 2.600030000017851e+000	 1.462675063954139e+001
0	 3.199979999988401e+000	 2.666700000016666e+000	 1.403831592530950e+001
0	 3.266639999985468e+000	 2.000000000000000e+000	 2.093158327631058e+001
0	 3.266639999985467e+000	 2.066670000003317e+000	 2.003637422519415e+001
0	 3.266639999985467e+000	 2.133340000006534e+000	 1.918306122944886e+001
0	 3.266639999985468e+000	 2.200010000009550e+000	 1.837085942516441e+001
0	 3.266639999985468e+000	 2.266680000012267e+000	 1.759898394843073e+001
0	 3.266639999985467e+000	 2.333350000014584e+000	 1.686664993533812e+001
0	 3.266639999985468e+000	 2.400020000016401e+000	 1.617307252197722e+001
0	 3.266639999985467e+000	 2.466690000017616e+000	 1.551746684443895e+001
0	 3.266639999985467e+000	 2.533360000018133e+000	 1.489904803881463e+001
0	 3.266639999985468e+000	 2.600030000017851e+000	 1.431703124119581e+001
0	 3.266639999985468e+000	 2.666700000016666e+000	 1.377063158767444e+001
0	 3.333299999983334e+000	 2.000000000000000e+000	 2.012373820264350e+001
0	 3.333299999983333e+000	 2.066670000003317e+000	 1.928653611828283e+001
0	 3.333299999983334e+000	 2.133340000006534e+000	 1.848936687982273e+001
0	 3.333299999983335e+000	 2.200010000009550e+000	 1.773150568440257e+001
0	 3.333299999983334e+000	 2.266680000012267e+000	 1.701222772916199e+001
0	 3.333299999983334e+000	 2.333350000014584e+000	 1.633080821124097e+001
0	 3.333299999983334e+000	 2.400020000016401e+000	 1.568652232777981e+001
0	 3.333299999983334e+000	 2.466690000017617e+000	 1.507864527591912e+001
0	 3.333299999983334e+000	 2.533360000018134e+000	 1.450645225279980e+001
0	 3.333299999983334e+000	 2.600030000017851e+000	 1.396921845556309e+001
0	 3.333299999983334e+000	 2.666700000016667e+000	 1.346621908135056e+001
0	 2.666700000016667e+000	 2.666700000016667e+000	 1.440226491462557e+001
0	 2.666700000016666e+000	 2.733360000014533e+000	 1.366284916978838e+001
0	 2.666700000016666e+000	 2.800020000011599e+000	 1.300182884277986e+001
0	 2.666700000016667e+000	 2.866680000008067e+000	 1.241704955866503e+001
0	 2.666700000016666e+000	 2.933340000004133e+000	 1.190635694250775e+001
0	 2.666700000016666e+000	 3.000000000000000e+000	 1.146759661937084e+001
0	 2.666700000016666e+000	 3.066659999995867e+000	 1.109861421431604e+001
0	 2.666700000016666e+000	 3.133319999991934e+000	 1.079725535240400e+001
0	 2.666700000016667e+000	 3.199979999988401e+000	 1.056136565869429e+001
0	 2.666700000016666e+000	 3.266639999985468e+000	 1.038879075824543e+001
0	 2.666700000016667e+000	 3.333299999983334e+000	 1.027737627611481e+001
0	 2.733360000014533e+000	 2.666700000016666e+000	 1.456499941817269e+001
0	 2.733360000014534e+000	 2.733360000014534e+000	 1.383279293915281e+001
0	 2.733360000014533e+000	 2.800020000011599e+000	 1.317606125723347e+001
0	 2.733360000014533e+000	 2.866680000008067e+000	 1.259301373164071e+001
0	 2.733360000014533e+000	 2.933340000004133e+000	 1.208185972159943e+001
0	 2.733360000014534e+000	 3.000000000000000e+000	 1.164080858633348e+001
0	 2.733360000014533e+000	 3.066659999995867e+000	 1.126806968506559e+001
0	 2.733360000014532e+000	 3.133319999991934e+000	 1.096185237701739e+001
0	 2.733360000014533e+000	 3.199979999988400e+000	 1.072036602140943e+001
0	 2.733360000014534e+000	 3.266639999985468e+000	 1.054181997746114e+001
0	 2.733360000014533e+000	 3.333299999983334e+000	 1.042442360439085e+001
0	 2.800020000011600e+000	 2.666700000016667e+000	 1.466065164377883e+001
0	 2.800020000011600e+000	 2.733360000014533e+000	 1.394169430107812e+001
0	 2.800020000011599e+000	 2.800020000011600e+000	 1.329504429314924e+001
0	 2.800020000011600e+000	 2.866680000008066e+000	 1.271923820420188e+001
0	 2.800020000011600e+000	 2.933340000004134e+000	 1.221281261844461e+001
0	 2.800020000011600e+000	 3.000000000000000e+000	 1.177430412008498e+001
0	 2.800020000011601e+000	 3.066659999995868e+000	 1.140224929332933e+001
0	 2.800020000011600e+000	 3.133319999991933e+000	 1.109518472238295e+001
0	 2.800020000011600e+000	 3.199979999988401e+000	 1.085164699145001e+001
0	 2.800020000011599e+000	 3.266639999985466e+000	 1.067017268473359e+001
0	 2.800020000011600e+000	 3.333299999983334e+000	 1.054929838643566e+001
0	 2.866680000008067e+000	 2.666700000016667e+000	 1.469301585509744e+001
0	 2.866680000008066e+000	 2.733360000014533e+000	 1.399277597438824e+001
0	 2.866680000008067e+000	 2.800020000011600e+000	 1.336147650069521e+001
0	 2.866680000008067e+000	 2.866680000008067e+000	 1.279794473403435e+001
0	 2.866680000008067e+000	 2.933340000004133e+000	 1.230100797442055e+001
0	 2.866680000008066e+000	 2.999999999999999e+000	 1.186949352186758e+001
0	 2.866680000008067e+000	 3.066659999995866e+000	 1.150222867638816e+001
0	 2.866680000008067e+000	 3.133319999991934e+000	 1.119804073799385e+001
0	 2.866680000008066e+000	 3.199979999988400e+000	 1.095575700669516e+001
0	 2.866680000008066e+000	 3.266639999985467e+000	 1.077420478250147e+001
0	 2.866680000008066e+000	 3.333299999983333e+000	 1.065221136542106e+001
0	 2.933340000004133e+000	 2.666700000016666e+000	 1.466588631578284e+001
0	 2.933340000004133e+000	 2.733360000014533e+000	 1.398926067790798e+001
0	 2.933340000004134e+000	 2.800020000011599e+000	 1.337805643004035e+001
0	 2.933340000004133e+000	 2.866680000008067e+000	 1.283135507882484e+001
0	 2.933340000004133e+000	 2.933340000004133e+000	 1.234823813090526e+001
0	 2.933340000004133e+000	 2.999999999999999e+000	 1.192778709292436e+001
0	 2.933340000004133e+000	 3.066659999995867e+000	 1.156908347152376e+001
0	 2.933340000004133e+000	 3.133319999991933e+000	 1.127120877334404e+001
0	 2.933340000004133e+000	 3.199979999988400e+000	 1.103324450502466e+001
0	 2.933340000004133e+000	 3.266639999985467e+000	 1.085427217320402e+001
0	 2.933340000004133e+000	 3.333299999983334e+000	 1.073337328451944e+001
0	 3.000000000000000e+000	 2.666700000016666e+000	 1.458305728949022e+001
0	 3.000000000000000e+000	 2.733360000014533e+000	 1.393437113046306e+001
0	 3.000000000000000e+000	 2.800020000011599e+000	 1.334748263135446e+001
0	 3.000000000000001e+000	 2.866680000008067e+000	 1.282169099626088e+001
0	 3.000000000000000e+000	 2.933340000004132e+000	 1.235629542927765e+001
0	 3.000000000000000e+000	 3.000000000000000e+000	 1.195059513449914e+001
0	 2.999999999999999e+000	 3.066659999995866e+000	 1.160388931601856e+001
0	 3.000000000000000e+000	 3.133319999991935e+000	 1.131547717792813e+001
0	 3.000000000000000e+000	 3.199979999988400e+000	 1.108465792431898e+001
0	 3.000000000000000e+000	 3.266639999985467e+000	 1.091073075928119e+001
0	 3.000000000000000e+000	 3.333299999983334e+000	 1.079299488690378e+001
0	 3.066659999995868e+000	 2.666700000016666e+000	 1.444832303987568e+001
0	 3.066659999995868e+000	 2.733360000014534e+000	 1.383133005088005e+001
0	 3.066659999995867e+000	 2.800020000011600e+000	 1.327245365480823e+001
0	 3.066659999995867e+000	 2.866680000008066e+000	 1.277117424403084e+001
0	 3.066659999995867e+000	 2.933340000004134e+000	 1.232697221091744e+001
0	 3.066659999995867e+000	 2.999999999999999e+000	 1.193932794783657e+001
0	 3.066659999995867e+000	 3.066659999995865e+000	 1.160772184715575e+001
0	 3.066659999995868e+000	 3.133319999991934e+000	 1.133163430124150e+001
0	 3.066659999995867e+000	 3.199979999988400e+000	 1.111054570245927e+001
0	 3.066659999995868e+000	 3.266639999985467e+000	 1.094393644317350e+001
0	 3.066659999995867e+000	 3.333299999983333e+000	 1.083128691574762e+001
0	 3.133319999991934e+000	 2.666700000016666e+000	 1.426547783059616e+001
0	 3.133319999991934e+000	 2.733360000014533e+000	 1.368336015798638e+001
0	 3.133319999991934e+000	 2.800020000011599e+000	 1.315566805057319e+001
0	 3.133319999991935e+000	 2.866680000008067e+000	 1.268202657982397e+001
0	 3.133319999991934e+000	 2.933340000004134e+000	 1.226206081720513e+001
0	 3.133319999991934e+000	 3.000000000000000e+000	 1.189539583418209e+001
0	 3.133319999991934e+000	 3.066659999995868e+000	 1.158165670221930e+001
0	 3.133319999991935e+000	 3.133319999991934e+000	 1.132046849278022e+001
0	 3.133319999991934e+000	 3.199979999988400e+000	 1.111145627732733e+001
0	 3.133319999991933e+000	 3.266639999985467e+000	 1.095424512732212e+001
0	 3.133319999991934e+000	 3.333299999983333e+000	 1.084846011422509e+001
0	 3.199979999988401e+000	 2.666700000016666e+000	 1.403831592530949e+001
0	 3.199979999988401e+000	 2.733360000014534e+000	 1.349368417061042e+001
0	 3.199979999988400e+000	 2.800020000011599e+000	 1.299982436882176e+001
0	 3.199979999988401e+000	 2.866680000008067e+000	 1.255646976133036e+001
0	 3.199979999988401e+000	 2.933340000004134e+000	 1.216335358952209e+001
0	 3.199979999988401e+000	 3.000000000000000e+000	 1.182020909478194e+001
0	 3.199979999988401e+000	 3.066659999995867e+000	 1.152676951849391e+001
0	 3.199979999988401e+000	 3.133319999991933e+000	 1.128276810204110e+001
0	 3.199979999988401e+000	 3.199979999988400e+000	 1.108793808680567e+001
0	 3.199979999988401e+000	 3.266639999985466e+000	 1.094201271416884e+001
0	 3.199979999988401e+000	 3.333299999983334e+000	 1.084472522551091e+001
0	 3.266639999985468e+000	 2.666700000016666e+000	 1.377063158767444e+001
0	 3.266639999985468e+000	 2.733360000014533e+000	 1.326552480758136e+001
0	 3.266639999985468e+000	 2.800020000011600e+000	 1.280762115972722e+001
0	 3.266639999985468e+000	 2.866680000008066e+000	 1.239672554624093e+001
0	 3.266639999985467e+000	 2.933340000004133e+000	 1.203264286925052e+001
0	 3.266639999985468e+000	 3.000000000000000e+000	 1.171517803088314e+001
0	 3.266639999985468e+000	 3.066659999995867e+000	 1.144413593326505e+001
0	 3.266639999985467e+000	 3.133319999991933e+000	 1.121932147852164e+001
0	 3.266639999985468e+000	 3.199979999988400e+000	 1.104053956877745e+001
0	 3.266639999985468e+000	 3.266639999985468e+000	 1.090759510615610e+001
0	 3.266639999985468e+000	 3.333299999983334e+000	 1.082029299278035e+001
0	 3.333299999983334e+000	 2.666700000016667e+000	 1.346621908135056e+001
0	 3.333299999983333e+000	 2.733360000014532e+000	 1.300210478772928e+001
0	 3.333299999983334e+000	 2.800020000011600e+000	 1.258175697346371e+001
0	 3.333299999983334e+000	 2.866680000008067e+000	 1.220501569224749e+001
0	 3.333299999983334e+000	 2.933340000004133e+000	 1.187172099777341e+001
0	 3.333299999983334e+000	 3.000000000000000e+000	 1.158171294373351e+001
0	 3.333299999983334e+000	 3.066659999995868e+000	 1.133483158381895e+001
0	 3.333299999983333e+000	 3.133319999991934e+000	 1.113091697172010e+001
0	 3.333299999983333e+000	 3.199979999988400e+000	 1.096980916112652e+001
0	 3.333299999983334e+000	 3.266639999985468e+000	 1.085134820572694e+001
0	 3.333299999983334e+000	 3.333299999983334e+000	 1.077537415920929e+001
0	 2.666700000016667e+000	 3.333299999983334e+000	 1.027737627611481e+001
0	 2.666700000016666e+000	 3.399969999982150e+000	 1.020578740283159e+001
0	 2.666700000016666e+000	 3.466639999981867e+000	 1.015283406553376e+001
0	 2.666700000016666e+000	 3.533309999982383e+000	 1.011654229194207e+001
0	 2.666700000016666e+000	 3.599979999983599e+000	 1.009493810977742e+001
0	 2.666700000016666e+000	 3.666649999985416e+000	 1.008604754676094e+001
0	 2.666700000016667e+000	 3.733319999987733e+000	 1.008789663061393e+001
0	 2.666700000016667e+000	 3.799989999990450e+000	 1.009851138905790e+001
0	 2.666700000016666e+000	 3.866659999993467e+000	 1.011591784981455e+001
0	 2.666700000016666e+000	 3.933329999996684e+000	 1.013814204060575e+001
0	 2.666700000016666e+000	 4.000000000000001e+000	 1.016320998915362e+001
0	 2.733360000014533e+000	 3.333299999983334e+000	 1.042442360439085e+001
0	 2.733360000014533e+000	 3.399969999982150e+000	 1.034584002877852e+001
0	 2.733360000014533e+000	 3.466639999981868e+000	 1.028391507320527e+001
0	 2.733360000014534e+000	 3.533309999982383e+000	 1.023709279866820e+001
0	 2.733360000014533e+000	 3.599979999983600e+000	 1.020381726616458e+001
0	 2.733360000014533e+000	 3.666649999985416e+000	 1.018253253669185e+001
0	 2.733360000014532e+000	 3.733319999987732e+000	 1.017168267124766e+001
0	 2.733360000014533e+000	 3.799989999990450e+000	 1.016971173082981e+001
0	 2.733360000014534e+000	 3.866659999993467e+000	 1.017506377643630e+001
0	 2.733360000014533e+000	 3.933329999996684e+000	 1.018618286906531e+001
0	 2.733360000014533e+000	 4.000000000000001e+000	 1.020151306971517e+001
0	 2.800020000011600e+000	 3.333299999983334e+000	 1.054929838643566e+001
0	 2.800020000011599e+000	 3.399969999982150e+000	 1.046598828183834e+001
0	 2.800020000011600e+000	 3.466639999981866e+000	 1.039742172572282e+001
0	 2.800020000011600e+000	 3.533309999982382e+000	 1.034241707449598e+001
0	 2.800020000011600e+000	 3.599979999983599e+000	 1.029979268456484e+001
0	 2.800020000011599e+000	 3.666649999985417e+000	 1.026836691233661e+001
0	 2.800020000011600e+000	 3.733319999987733e+000	 1.024695811421866e+001
0	 2.800020000011600e+000	 3.799989999990450e+000	 1.023438464661853e+001
0	 2.800020000011601e+000	 3.866659999993467e+000	 1.022946486594390e+001
0	 2.800020000011600e+000	 3.933329999996684e+000	 1.023101712860265e+001
0	 2.800020000011600e+000	 4.000000000000001e+000	 1.023785979100277e+001
0	 2.866680000008066e+000	 3.333299999983333e+000	 1.065221136542106e+001
0	 2.866680000008066e+000	 3.399969999982149e+000	 1.056632728280252e+001
0	 2.866680000008066e+000	 3.466639999981866e+000	 1.049334525554191e+001
0	 2.866680000008066e+000	 3.533309999982382e+000	 1.043241419758929e+001
0	 2.866680000008067e+000	 3.599979999983599e+000	 1.038268302289486e+001
0	 2.866680000008066e+000	 3.666649999985417e+000	 1.034330064540899e+001
0	 2.866680000008067e+000	 3.733319999987734e+000	 1.031341597908218e+001
0	 2.866680000008067e+000	 3.799989999990450e+000	 1.029217793786509e+001
0	 2.866680000008067e+000	 3.866659999993467e+000	 1.027873543570852e+001
0	 2.866680000008066e+000	 3.933329999996684e+000	 1.027223738656342e+001
0	 2.866680000008066e+000	 4.000000000000000e+000	 1.027183270438087e+001
0	 2.933340000004133e+000	 3.333299999983334e+000	 1.073337328451944e+001
0	 2.933340000004133e+000	 3.399969999982150e+000	 1.064695215246305e+001
0	 2.933340000004133e+000	 3.466639999981867e+000	 1.057167689511850e+001
0	 2.933340000004133e+000	 3.533309999982383e+000	 1.050698324611245e+001
0	 2.933340000004134e+000	 3.599979999983600e+000	 1.045230693907167e+001
0	 2.933340000004133e+000	 3.666649999985415e+000	 1.040708370762307e+001
0	 2.933340000004133e+000	 3.733319999987733e+000	 1.037074928539369e+001
0	 2.933340000004133e+000	 3.799989999990450e+000	 1.034273940601073e+001
0	 2.933340000004133e+000	 3.866659999993467e+000	 1.032248980310149e+001
0	 2.933340000004133e+000	 3.933329999996683e+000	 1.030943621029340e+001
0	 2.933340000004133e+000	 4.000000000000001e+000	 1.030301436121406e+001
0	 3.000000000000000e+000	 3.333299999983334e+000	 1.079299488690378e+001
0	 3.000000000000000e+000	 3.399969999982150e+000	 1.070795801161246e+001
0	 3.000000000000000e+000	 3.466639999981868e+000	 1.063240787690906e+001
0	 3.000000000000000e+000	 3.533309999982383e+000	 1.056602329823022e+001
0	 3.000000000000001e+000	 3.599979999983601e+000	 1.050848309101265e+001
0	 3.000000000000001e+000	 3.666649999985417e+000	 1.045946607069324e+001
0	 3.000000000000000e+000	 3.733319999987733e+000	 1.041865105270895e+001
0	 3.000000000000000e+000	 3.799989999990450e+000	 1.038571685249690e+001
0	 3.000000000000001e+000	 3.866659999993467e+000	 1.036034228549431e+001
0	 3.000000000000001e+000	 3.933329999996685e+000	 1.034220616713850e+001
0	 3.000000000000000e+000	 4.000000000000001e+000	 1.033098731286694e+001
0	 3.066659999995867e+000	 3.333299999983333e+000	 1.083128691574762e+001
0	 3.066659999995868e+000	 3.399969999982150e+000	 1.074943998104381e+001
0	 3.066659999995866e+000	 3.466639999981866e+000	 1.067552943337051e+001
0	 3.066659999995868e+000	 3.533309999982383e+000	 1.060943343210772e+001
0	 3.066659999995868e+000	 3.599979999983600e+000	 1.055103013663554e+001
0	 3.066659999995867e+000	 3.666649999985415e+000	 1.050019770633418e+001
0	 3.066659999995868e+000	 3.733319999987733e+000	 1.045681430058397e+001
0	 3.066659999995867e+000	 3.799989999990450e+000	 1.042075807876530e+001
0	 3.066659999995867e+000	 3.866659999993466e+000	 1.039190720025869e+001
0	 3.066659999995868e+000	 3.933329999996685e+000	 1.037013982444478e+001
0	 3.066659999995868e+000	 4.000000000000000e+000	 1.035533411070429e+001
0	 3.133319999991934e+000	 3.333299999983333e+000	 1.084846011422509e+001
0	 3.133319999991933e+000	 3.399969999982149e+000	 1.077149318155066e+001
0	 3.133319999991934e+000	 3.466639999981867e+000	 1.070103279696022e+001
0	 3.133319999991934e+000	 3.533309999982382e+000	 1.063711272591055e+001
0	 3.133319999991933e+000	 3.599979999983600e+000	 1.057976673385848e+001
0	 3.133319999991934e+000	 3.666649999985416e+000	 1.052902858626096e+001
0	 3.133319999991934e+000	 3.733319999987733e+000	 1.048493204857503e+001
0	 3.133319999991934e+000	 3.799989999990450e+000	 1.044751088625780e+001
0	 3.133319999991934e+000	 3.866659999993466e+000	 1.041679886476650e+001
0	 3.133319999991934e+000	 3.933329999996683e+000	 1.039282974955841e+001
0	 3.133319999991935e+000	 4.000000000000000e+000	 1.037563730609094e+001
0	 3.199979999988401e+000	 3.333299999983334e+000	 1.084472522551091e+001
0	 3.199979999988401e+000	 3.399969999982150e+000	 1.077421273392714e+001
0	 3.199979999988400e+000	 3.466639999981866e+000	 1.070890920013609e+001
0	 3.199979999988400e+000	 3.533309999982383e+000	 1.064896025780470e+001
0	 3.199979999988400e+000	 3.599979999983599e+000	 1.059451154059994e+001
0	 3.199979999988401e+000	 3.666649999985417e+000	 1.054570868218889e+001
0	 3.199979999988401e+000	 3.733319999987733e+000	 1.050269731623867e+001
0	 3.199979999988401e+000	 3.799989999990450e+000	 1.046562307641653e+001
0	 3.199979999988400e+000	 3.866659999993466e+000	 1.043463159638974e+001
0	 3.199979999988401e+000	 3.933329999996683e+000	 1.040986850982570e+001
0	 3.199979999988401e+000	 4.000000000000000e+000	 1.039147945039186e+001
0	 3.266639999985468e+000	 3.333299999983334e+000	 1.082029299278035e+001
0	 3.266639999985468e+000	 3.399969999982151e+000	 1.075769375896787e+001
0	 3.266639999985468e+000	 3.466639999981867e+000	 1.069914987535647e+001
0	 3.266639999985467e+000	 3.533309999982383e+000	 1.064487510595660e+001
0	 3.266639999985468e+000	 3.599979999983599e+000	 1.059508321477878e+001
0	 3.266639999985467e+000	 3.666649999985417e+000	 1.054998796583360e+001
0	 3.266639999985467e+000	 3.733319999987732e+000	 1.050980312313171e+001
0	 3.266639999985468e+000	 3.799989999990451e+000	 1.047474245068380e+001
0	 3.266639999985468e+000	 3.866659999993467e+000	 1.044501971250066e+001
0	 3.266639999985468e+000	 3.933329999996684e+000	 1.042084867259312e+001
0	 3.266639999985467e+000	 4.000000000000001e+000	 1.040244309497208e+001
0	 3.333299999983334e+000	 3.333299999983334e+000	 1.077537415920929e+001
0	 3.333299999983333e+000	 3.399969999982149e+000	 1.072203137746800e+001
0	 3.333299999983333e+000	 3.466639999981866e+000	 1.067174605508014e+001
0	 3.333299999983334e+000	 3.533309999982383e+000	 1.062475634853307e+001
0	 3.333299999983334e+000	 3.599979999983599e+000	 1.058130041431422e+001
0	 3.333299999983334e+000	 3.666649999985416e+000	 1.054161640891110e+001
0	 3.333299999983334e+000	 3.733319999987733e+000	 1.050594248881122e+001
0	 3.333299999983334e+000	 3.799989999990450e+000	 1.047451681050218e+001
0	 3.333299999983334e+000	 3.866659999993467e+000	 1.044757753047161e+001
0	 3.333299999983333e+000	 3.933329999996682e+000	 1.042536280520723e+001
0	 3.333299999983333e+000	 4.000000000000000e+000	 1.040811079119675e+001
0	 2.666700000016666e+000	 4.000000000000001e+000	 1.016320998915362e+001
0	 2.666700000016667e+000	 4.066670000003317e+000	 1.018232065676093e+001
0	 2.666700000016666e+000	 4.133340000006535e+000	 1.018945072305660e+001
0	 2.666700000016666e+000	 4.200010000009551e+000	 1.018679279325206e+001
0	 2.666700000016667e+000	 4.266680000012267e+000	 1.017653947255880e+001
0	 2.666700000016667e+000	 4.333350000014584e+000	 1.016088336618838e+001
0	 2.666700000016666e+000	 4.400020000016401e+000	 1.014201707935239e+001
0	 2.666700000016667e+000	 4.466690000017619e+000	 1.012213321726253e+001
0	 2.666700000016666e+000	 4.533360000018133e+000	 1.010342438513053e+001
0	 2.666700000016666e+000	 4.600030000017851e+000	 1.008808318816815e+001
0	 2.666700000016666e+000	 4.666700000016666e+000	 1.007830223158728e+001
0	 2.733360000014533e+000	 4.000000000000001e+000	 1.020151306971517e+001
0	 2.733360000014533e+000	 4.066670000003317e+000	 1.021294405507795e+001
0	 2.733360000014534e+000	 4.133340000006533e+000	 1.021463419570245e+001
0	 2.733360000014533e+000	 4.200010000009550e+000	 1.020843059337229e+001
0	 2.733360000014534e+000	 4.266680000012269e+000	 1.019618034987110e+001
0	 2.733360000014533e+000	 4.333350000014582e+000	 1.017973056698260e+001
0	 2.733360000014533e+000	 4.400020000016402e+000	 1.016092834649055e+001
0	 2.733360000014534e+000	 4.466690000017618e+000	 1.014162079017877e+001
0	 2.733360000014533e+000	 4.533360000018131e+000	 1.012365499983110e+001
0	 2.733360000014533e+000	 4.600030000017852e+000	 1.010887807723148e+001
0	 2.733360000014533e+000	 4.666700000016666e+000	 1.009913712416386e+001
0	 2.800020000011600e+000	 4.000000000000001e+000	 1.023785979100277e+001
0	 2.800020000011599e+000	 4.066670000003317e+000	 1.024256382809253e+001
0	 2.800020000011599e+000	 4.133340000006532e+000	 1.023950915849813e+001
0	 2.800020000011600e+000	 4.200010000009550e+000	 1.023022755414473e+001
0	 2.800020000011599e+000	 4.266680000012266e+000	 1.021625078695750e+001
0	 2.800020000011600e+000	 4.333350000014584e+000	 1.019911062886167e+001
0	 2.800020000011601e+000	 4.400020000016401e+000	 1.018033885178250e+001
0	 2.800020000011600e+000	 4.466690000017619e+000	 1.016146722764531e+001
0	 2.800020000011600e+000	 4.533360000018134e+000	 1.014402752837546e+001
0	 2.800020000011600e+000	 4.600030000017849e+000	 1.012955152589833e+001
0	 2.800020000011599e+000	 4.666700000016665e+000	 1.011957099213939e+001
0	 2.866680000008066e+000	 4.000000000000000e+000	 1.027183270438087e+001
0	 2.866680000008066e+000	 4.066670000003319e+000	 1.027076199984169e+001
0	 2.866680000008067e+000	 4.133340000006533e+000	 1.026366435141652e+001
0	 2.866680000008067e+000	 4.200010000009550e+000	 1.025178637474135e+001
0	 2.866680000008067e+000	 4.266680000012268e+000	 1.023637468545229e+001
0	 2.866680000008066e+000	 4.333350000014585e+000	 1.021867589918544e+001
0	 2.866680000008067e+000	 4.400020000016401e+000	 1.019993663157693e+001
0	 2.866680000008066e+000	 4.466690000017617e+000	 1.018140349826293e+001
0	 2.866680000008066e+000	 4.533360000018135e+000	 1.016432311487970e+001
0	 2.866680000008067e+000	 4.600030000017851e+000	 1.014994209706343e+001
0	 2.866680000008067e+000	 4.666700000016666e+000	 1.013950706045045e+001
0	 2.933340000004133e+000	 4.000000000000001e+000	 1.030301436121406e+001
0	 2.933340000004133e+000	 4.066670000003317e+000	 1.029712059436259e+001
0	 2.933340000004133e+000	 4.133340000006534e+000	 1.028668851443051e+001
0	 2.933340000004133e+000	 4.200010000009550e+000	 1.027270975433411e+001
0	 2.933340000004134e+000	 4.266680000012267e+000	 1.025617594698974e+001
0	 2.933340000004133e+000	 4.333350000014583e+000	 1.023807872531372e+001
0	 2.933340000004133e+000	 4.400020000016400e+000	 1.021940972222246e+001
0	 2.933340000004133e+000	 4.466690000017617e+000	 1.020116057063237e+001
0	 2.933340000004133e+000	 4.533360000018133e+000	 1.018432290345989e+001
0	 2.933340000004133e+000	 4.600030000017850e+000	 1.016988835362148e+001
0	 2.933340000004133e+000	 4.666700000016667e+000	 1.015884855403366e+001
0	 3.000000000000000e+000	 4.000000000000001e+000	 1.033098731286694e+001
0	 3.000000000000000e+000	 4.066670000003318e+000	 1.032122163569236e+001
0	 3.000000000000001e+000	 4.133340000006534e+000	 1.030817038751307e+001
0	 3.000000000000000e+000	 4.200010000009552e+000	 1.029260039209500e+001
0	 3.000000000000000e+000	 4.266680000012268e+000	 1.027527847320411e+001
0	 3.000000000000000e+000	 4.333350000014583e+000	 1.025697145460637e+001
0	 3.000000000000000e+000	 4.400020000016401e+000	 1.023844616006778e+001
0	 3.000000000000000e+000	 4.466690000017617e+000	 1.022046941335434e+001
0	 3.000000000000001e+000	 4.533360000018135e+000	 1.020380803823213e+001
0	 3.000000000000001e+000	 4.600030000017850e+000	 1.018922885846718e+001
0	 3.000000000000000e+000	 4.666700000016665e+000	 1.017749869782561e+001
0	 3.066659999995868e+000	 4.000000000000000e+000	 1.035533411070429e+001
0	 3.066659999995867e+000	 4.066670000003318e+000	 1.034264714786828e+001
0	 3.066659999995868e+000	 4.133340000006535e+000	 1.032769871063723e+001
0	 3.066659999995866e+000	 4.200010000009550e+000	 1.031106098719606e+001
0	 3.066659999995867e+000	 4.266680000012268e+000	 1.029330616572974e+001
0	 3.066659999995867e+000	 4.333350000014583e+000	 1.027500643442323e+001
0	 3.066659999995868e+000	 4.400020000016402e+000	 1.025673398146150e+001
0	 3.066659999995867e+000	 4.466690000017617e+000	 1.023906099502958e+001
0	 3.066659999995868e+000	 4.533360000018135e+000	 1.022255966331247e+001
0	 3.066659999995867e+000	 4.600030000017850e+000	 1.020780217449522e+001
0	 3.066659999995867e+000	 4.666700000016665e+000	 1.019536071676288e+001
0	 3.133319999991935e+000	 4.000000000000000e+000	 1.037563730609094e+001
0	 3.133319999991935e+000	 4.066670000003318e+000	 1.036097915492766e+001
0	 3.133319999991935e+000	 4.133340000006535e+000	 1.034486222377602e+001
0	 3.133319999991934e+000	 4.200010000009551e+000	 1.032769423880933e+001
0	 3.133319999991934e+000	 4.266680000012268e+000	 1.030988292620092e+001
0	 3.133319999991935e+000	 4.333350000014585e+000	 1.029183601212413e+001
0	 3.133319999991933e+000	 4.400020000016399e+000	 1.027396122275230e+001
0	 3.133319999991935e+000	 4.466690000017617e+000	 1.025666628425878e+001
0	 3.133319999991935e+000	 4.533360000018134e+000	 1.024035892281698e+001
0	 3.133319999991934e+000	 4.600030000017850e+000	 1.022544686460026e+001
0	 3.133319999991934e+000	 4.666700000016667e+000	 1.021233783578203e+001
0	 3.199979999988401e+000	 4.000000000000000e+000	 1.039147945039186e+001
0	 3.199979999988401e+000	 4.066670000003318e+000	 1.037579968090789e+001
0	 3.199979999988400e+000	 4.133340000006534e+000	 1.035924966690255e+001
0	 3.199979999988401e+000	 4.200010000009550e+000	 1.034210284610689e+001
0	 3.199979999988401e+000	 4.266680000012268e+000	 1.032463265625198e+001
0	 3.199979999988400e+000	 4.333350000014583e+000	 1.030711253506892e+001
0	 3.199979999988401e+000	 4.400020000016401e+000	 1.028981592028877e+001
0	 3.199979999988401e+000	 4.466690000017617e+000	 1.027301624964267e+001
0	 3.199979999988400e+000	 4.533360000018132e+000	 1.025698696086169e+001
0	 3.199979999988401e+000	 4.600030000017852e+000	 1.024200149167695e+001
0	 3.199979999988400e+000	 4.666700000016665e+000	 1.022833327981960e+001
0	 3.266639999985467e+000	 4.000000000000001e+000	 1.040244309497208e+001
0	 3.266639999985468e+000	 4.066670000003318e+000	 1.038669074984645e+001
0	 3.266639999985467e+000	 4.133340000006533e+000	 1.037044977998998e+001
0	 3.266639999985467e+000	 4.200010000009550e+000	 1.035388950826086e+001
0	 3.266639999985468e+000	 4.266680000012268e+000	 1.033717925751728e+001
0	 3.266639999985468e+000	 4.333350000014584e+000	 1.032048835061745e+001
0	 3.266639999985468e+000	 4.400020000016402e+000	 1.030398611041959e+001
0	 3.266639999985468e+000	 4.466690000017616e+000	 1.028784185978191e+001
0	 3.266639999985468e+000	 4.533360000018134e+000	 1.027222492156263e+001
0	 3.266639999985468e+000	 4.600030000017851e+000	 1.025730461861995e+001
0	 3.266639999985468e+000	 4.666700000016667e+000	 1.024325027381212e+001
0	 3.333299999983333e+000	 4.000000000000000e+000	 1.040811079119675e+001
0	 3.333299999983334e+000	 4.066670000003317e+000	 1.039323438578086e+001
0	 3.333299999983334e+000	 4.133340000006534e+000	 1.037805130301149e+001
0	 3.333299999983335e+000	 4.200010000009551e+000	 1.036265692444336e+001
0	 3.333299999983334e+000	 4.266680000012268e+000	 1.034714663163116e+001
0	 3.333299999983334e+000	 4.333350000014583e+000	 1.033161580612960e+001
0	 3.333299999983334e+000	 4.400020000016401e+000	 1.031615982949337e+001
0	 3.333299999983333e+000	 4.466690000017617e+000	 1.030087408327721e+001
0	 3.333299999983334e+000	 4.533360000018134e+000	 1.028585394903580e+001
0	 3.333299999983334e+000	 4.600030000017851e+000	 1.027119480832387e+001
0	 3.333299999983333e+000	 4.666700000016666e+000	 1.025699204269612e+001
0	 2.666700000016666e+000	 4.666700000016666e+000	 1.007830223158728e+001
0	 2.666700000016666e+000	 4.733360000014533e+000	 1.007237290196134e+001
0	 2.666700000016666e+000	 4.800020000011600e+000	 1.006700209365603e+001
0	 2.666700000016667e+000	 4.866680000008069e+000	 1.006200849491605e+001
0	 2.666700000016666e+000	 4.933340000004133e+000	 1.005721079398611e+001
0	 2.666700000016666e+000	 5.000000000000001e+000	 1.005242767911095e+001
0	 2.666700000016667e+000	 5.066659999995868e+000	 1.004747783853531e+001
0	 2.666700000016666e+000	 5.133319999991934e+000	 1.004217996050390e+001
0	 2.666700000016667e+000	 5.199979999988402e+000	 1.003635273326152e+001
0	 2.666700000016667e+000	 5.266639999985468e+000	 1.002981484505289e+001
0	 2.666700000016666e+000	 5.333299999983335e+000	 1.002238498412280e+001
0	 2.733360000014533e+000	 4.666700000016666e+000	 1.009913712416386e+001
0	 2.733360000014533e+000	 4.733360000014534e+000	 1.009287270342376e+001
0	 2.733360000014533e+000	 4.800020000011600e+000	 1.008716679913433e+001
0	 2.733360000014533e+000	 4.866680000008067e+000	 1.008183161819298e+001
0	 2.733360000014533e+000	 4.933340000004135e+000	 1.007667936749705e+001
0	 2.733360000014534e+000	 5.000000000000000e+000	 1.007152225394393e+001
0	 2.733360000014533e+000	 5.066659999995868e+000	 1.006617248443099e+001
0	 2.733360000014533e+000	 5.133319999991935e+000	 1.006044226585565e+001
0	 2.733360000014534e+000	 5.199979999988400e+000	 1.005414380511527e+001
0	 2.733360000014533e+000	 5.266639999985467e+000	 1.004708930910730e+001
0	 2.733360000014532e+000	 5.333299999983334e+000	 1.003909098472913e+001
0	 2.800020000011599e+000	 4.666700000016665e+000	 1.011957099213939e+001
0	 2.800020000011599e+000	 4.733360000014533e+000	 1.011271069650778e+001
0	 2.800020000011600e+000	 4.800020000011601e+000	 1.010644513003899e+001
0	 2.800020000011600e+000	 4.866680000008067e+000	 1.010058389692942e+001
0	 2.800020000011600e+000	 4.933340000004134e+000	 1.009493660137546e+001
0	 2.800020000011600e+000	 5.000000000000000e+000	 1.008931284757351e+001
0	 2.800020000011600e+000	 5.066659999995867e+000	 1.008352223972000e+001
0	 2.800020000011601e+000	 5.133319999991935e+000	 1.007737438201133e+001
0	 2.800020000011600e+000	 5.199979999988400e+000	 1.007067887864395e+001
0	 2.800020000011599e+000	 5.266639999985466e+000	 1.006324533381429e+001
0	 2.800020000011600e+000	 5.333299999983335e+000	 1.005488335171877e+001
0	 2.866680000008067e+000	 4.666700000016666e+000	 1.013950706045045e+001
0	 2.866680000008066e+000	 4.733360000014534e+000	 1.013185293527498e+001
0	 2.866680000008067e+000	 4.800020000011600e+000	 1.012485508094341e+001
0	 2.866680000008067e+000	 4.866680000008066e+000	 1.011832437759751e+001
0	 2.866680000008066e+000	 4.933340000004132e+000	 1.011207170537910e+001
0	 2.866680000008067e+000	 5.000000000000001e+000	 1.010590794443001e+001
0	 2.866680000008067e+000	 5.066659999995866e+000	 1.009964397489204e+001
0	 2.866680000008067e+000	 5.133319999991933e+000	 1.009309067690705e+001
0	 2.866680000008067e+000	 5.199979999988401e+000	 1.008605893061683e+001
0	 2.866680000008067e+000	 5.266639999985468e+000	 1.007835961616326e+001
0	 2.866680000008066e+000	 5.333299999983334e+000	 1.006980361368817e+001
0	 2.933340000004133e+000	 4.666700000016667e+000	 1.015884855403366e+001
0	 2.933340000004133e+000	 4.733360000014534e+000	 1.015026547378693e+001
0	 2.933340000004134e+000	 4.800020000011599e+000	 1.014241464642096e+001
0	 2.933340000004133e+000	 4.866680000008067e+000	 1.013511210666937e+001
0	 2.933340000004133e+000	 4.933340000004132e+000	 1.012817388926576e+001
0	 2.933340000004133e+000	 5.000000000000000e+000	 1.012141602894372e+001
0	 2.933340000004133e+000	 5.066659999995868e+000	 1.011465456043687e+001
0	 2.933340000004134e+000	 5.133319999991934e+000	 1.010770551847882e+001
0	 2.933340000004133e+000	 5.199979999988400e+000	 1.010038493780320e+001
0	 2.933340000004134e+000	 5.266639999985470e+000	 1.009250885314362e+001
0	 2.933340000004133e+000	 5.333299999983334e+000	 1.008389329923372e+001
0	 3.000000000000000e+000	 4.666700000016665e+000	 1.017749869782561e+001
0	 3.000000000000001e+000	 4.733360000014534e+000	 1.016791436610514e+001
0	 3.000000000000000e+000	 4.800020000011601e+000	 1.015914182104505e+001
0	 3.000000000000001e+000	 4.866680000008068e+000	 1.015100613061714e+001
0	 3.000000000000000e+000	 4.933340000004135e+000	 1.014333236279317e+001
0	 3.000000000000000e+000	 4.999999999999999e+000	 1.013594558554492e+001
0	 3.000000000000000e+000	 5.066659999995866e+000	 1.012867086684419e+001
0	 3.000000000000000e+000	 5.133319999991934e+000	 1.012133327466272e+001
0	 3.000000000000001e+000	 5.199979999988401e+000	 1.011375787697232e+001
0	 3.000000000000000e+000	 5.266639999985467e+000	 1.010576974174477e+001
0	 3.000000000000000e+000	 5.333299999983333e+000	 1.009719393695185e+001
0	 3.066659999995867e+000	 4.666700000016665e+000	 1.019536071676288e+001
0	 3.066659999995868e+000	 4.733360000014534e+000	 1.018476566629113e+001
0	 3.066659999995868e+000	 4.800020000011600e+000	 1.017505459938902e+001
0	 3.066659999995868e+000	 4.866680000008067e+000	 1.016606549591290e+001
0	 3.066659999995867e+000	 4.933340000004133e+000	 1.015763633571909e+001
0	 3.066659999995867e+000	 5.000000000000001e+000	 1.014960509866391e+001
0	 3.066659999995867e+000	 5.066659999995867e+000	 1.014180976460370e+001
0	 3.066659999995868e+000	 5.133319999991936e+000	 1.013408831339478e+001
0	 3.066659999995867e+000	 5.199979999988400e+000	 1.012627872489347e+001
0	 3.066659999995867e+000	 5.266639999985467e+000	 1.011821897895609e+001
0	 3.066659999995867e+000	 5.333299999983333e+000	 1.010974705543896e+001
0	 3.133319999991934e+000	 4.666700000016667e+000	 1.021233783578203e+001
0	 3.133319999991934e+000	 4.733360000014534e+000	 1.020078542840641e+001
0	 3.133319999991934e+000	 4.800020000011601e+000	 1.019017097602623e+001
0	 3.133319999991934e+000	 4.866680000008065e+000	 1.018034924902875e+001
0	 3.133319999991934e+000	 4.933340000004134e+000	 1.017117501780123e+001
0	 3.133319999991934e+000	 4.999999999999999e+000	 1.016250305273095e+001
0	 3.133319999991934e+000	 5.066659999995868e+000	 1.015418812420513e+001
0	 3.133319999991935e+000	 5.133319999991935e+000	 1.014608500261103e+001
0	 3.133319999991933e+000	 5.199979999988398e+000	 1.013804845833589e+001
0	 3.133319999991934e+000	 5.266639999985468e+000	 1.012993326176696e+001
0	 3.133319999991933e+000	 5.333299999983333e+000	 1.012159418329147e+001
0	 3.199979999988400e+000	 4.666700000016665e+000	 1.022833327981960e+001
0	 3.199979999988401e+000	 4.733360000014532e+000	 1.021593970651247e+001
0	 3.199979999988401e+000	 4.800020000011601e+000	 1.020450894553000e+001
0	 3.199979999988401e+000	 4.866680000008067e+000	 1.019391643643676e+001
0	 3.199979999988402e+000	 4.933340000004134e+000	 1.018403761879733e+001
0	 3.199979999988401e+000	 4.999999999999999e+000	 1.017474793217627e+001
0	 3.199979999988401e+000	 5.066659999995867e+000	 1.016592281613814e+001
0	 3.199979999988400e+000	 5.133319999991934e+000	 1.015743771024748e+001
0	 3.199979999988400e+000	 5.199979999988400e+000	 1.014916805406884e+001
0	 3.199979999988400e+000	 5.266639999985467e+000	 1.014098928716676e+001
0	 3.199979999988401e+000	 5.333299999983335e+000	 1.013277684910575e+001
0	 3.266639999985468e+000	 4.666700000016667e+000	 1.024325027381212e+001
0	 3.266639999985468e+000	 4.733360000014534e+000	 1.023019455467079e+001
0	 3.266639999985468e+000	 4.800020000011601e+000	 1.021808650247366e+001
0	 3.266639999985468e+000	 4.866680000008065e+000	 1.020682610460901e+001
0	 3.266639999985468e+000	 4.933340000004135e+000	 1.019631334846508e+001
0	 3.266639999985468e+000	 4.999999999999999e+000	 1.018644822143014e+001
0	 3.266639999985468e+000	 5.066659999995868e+000	 1.017713071089243e+001
0	 3.266639999985467e+000	 5.133319999991936e+000	 1.016826080424016e+001
0	 3.266639999985468e+000	 5.199979999988400e+000	 1.015973848886157e+001
0	 3.266639999985468e+000	 5.266639999985468e+000	 1.015146375214486e+001
0	 3.266639999985467e+000	 5.333299999983334e+000	 1.014333658147824e+001
0	 3.333299999983333e+000	 4.666700000016666e+000	 1.025699204269613e+001
0	 3.333299999983334e+000	 4.733360000014533e+000	 1.024351602694282e+001
0	 3.333299999983334e+000	 4.800020000011601e+000	 1.023092164143051e+001
0	 3.333299999983333e+000	 4.866680000008066e+000	 1.021913730001752e+001
0	 3.333299999983335e+000	 4.933340000004134e+000	 1.020809141656218e+001
0	 3.333299999983334e+000	 5.000000000000001e+000	 1.019771240492280e+001
0	 3.333299999983334e+000	 5.066659999995867e+000	 1.018792867895766e+001
0	 3.333299999983334e+000	 5.133319999991934e+000	 1.017866865252507e+001
0	 3.333299999983334e+000	 5.199979999988400e+000	 1.016986073948331e+001
0	 3.333299999983333e+000	 5.266639999985467e+000	 1.016143335369062e+001
0	 3.333299999983334e+000	 5.333299999983335e+000	 1.015331490900529e+001
0	 2.666700000016666e+000	 5.333299999983335e+000	 1.002238498412280e+001
0	 2.666700000016666e+000	 5.399969999982150e+000	 1.001470047702922e+001
0	 2.666700000016666e+000	 5.466639999981865e+000	 1.000756592342699e+001
0	 2.666700000016666e+000	 5.533309999982384e+000	 1.000104734952096e+001
0	 2.666700000016666e+000	 5.599979999983598e+000	 9.995210781515981e+000
0	 2.666700000016665e+000	 5.666649999985414e+000	 9.990122245616899e+000
0	 2.666700000016667e+000	 5.733319999987733e+000	 9.985847768028622e+000
0	 2.666700000016667e+000	 5.799989999990448e+000	 9.982453374956014e+000
0	 2.666700000016665e+000	 5.866659999993467e+000	 9.980005092603966e+000
0	 2.666700000016666e+000	 5.933329999996683e+000	 9.978568947177401e+000
0	 2.666700000016666e+000	 6.000000000000001e+000	 9.978210964881219e+000
0	 2.733360000014532e+000	 5.333299999983334e+000	 1.003909098472913e+001
0	 2.733360000014533e+000	 5.399969999982151e+000	 1.003081320594610e+001
0	 2.733360000014533e+000	 5.466639999981866e+000	 1.002309562495931e+001
0	 2.733360000014532e+000	 5.533309999982381e+000	 1.001600952585963e+001
0	 2.733360000014533e+000	 5.599979999983599e+000	 1.000962619273784e+001
0	 2.733360000014533e+000	 5.666649999985415e+000	 1.000401690968479e+001
0	 2.733360000014533e+000	 5.733319999987733e+000	 9.999252960791322e+000
0	 2.733360000014533e+000	 5.799989999990450e+000	 9.995405630148298e+000
0	 2.733360000014534e+000	 5.866659999993466e+000	 9.992546201846599e+000
0	 2.733360000014533e+000	 5.933329999996684e+000	 9.990745959977080e+000
0	 2.733360000014533e+000	 6.000000000000001e+000	 9.990076188630622e+000
0	 2.800020000011600e+000	 5.333299999983335e+000	 1.005488335171877e+001
0	 2.800020000011599e+000	 5.399969999982149e+000	 1.004623897507214e+001
0	 2.800020000011600e+000	 5.466639999981864e+000	 1.003813761658367e+001
0	 2.800020000011600e+000	 5.533309999982385e+000	 1.003065393469189e+001
0	 2.800020000011600e+000	 5.599979999983599e+000	 1.002386258783535e+001
0	 2.800020000011600e+000	 5.666649999985417e+000	 1.001783823445260e+001
0	 2.800020000011600e+000	 5.733319999987732e+000	 1.001265553298220e+001
0	 2.800020000011600e+000	 5.799989999990451e+000	 1.000838914186275e+001
0	 2.800020000011600e+000	 5.866659999993467e+000	 1.000511371953280e+001
0	 2.800020000011600e+000	 5.933329999996683e+000	 1.000290392443097e+001
0	 2.800020000011600e+000	 6.000000000000000e+000	 1.000183441499588e+001
0	 2.866680000008066e+000	 5.333299999983334e+000	 1.006980361368817e+001
0	 2.866680000008066e+000	 5.399969999982149e+000	 1.006098188262233e+001
0	 2.866680000008066e+000	 5.466639999981866e+000	 1.005266494295470e+001
0	 2.866680000008066e+000	 5.533309999982384e+000	 1.004492894393327e+001
0	 2.866680000008066e+000	 5.599979999983598e+000	 1.003785003480603e+001
0	 2.866680000008066e+000	 5.666649999985414e+000	 1.003150436482104e+001
0	 2.866680000008067e+000	 5.733319999987731e+000	 1.002596808322629e+001
0	 2.866680000008066e+000	 5.799989999990449e+000	 1.002131733926985e+001
0	 2.866680000008066e+000	 5.866659999993466e+000	 1.001762828219977e+001
0	 2.866680000008067e+000	 5.933329999996684e+000	 1.001497706126410e+001
0	 2.866680000008067e+000	 6.000000000000002e+000	 1.001343982571095e+001
0	 2.933340000004133e+000	 5.333299999983334e+000	 1.008389329923372e+001
0	 2.933340000004133e+000	 5.399969999982149e+000	 1.007504602681163e+001
0	 2.933340000004133e+000	 5.466639999981866e+000	 1.006665064872708e+001
0	 2.933340000004133e+000	 5.533309999982382e+000	 1.005878292149926e+001
0	 2.933340000004134e+000	 5.599979999983600e+000	 1.005151860164742e+001
0	 2.933340000004134e+000	 5.666649999985417e+000	 1.004493344569079e+001
0	 2.933340000004134e+000	 5.733319999987733e+000	 1.003910321014861e+001
0	 2.933340000004133e+000	 5.799989999990449e+000	 1.003410365154015e+001
0	 2.933340000004134e+000	 5.866659999993467e+000	 1.003001052638467e+001
0	 2.933340000004133e+000	 5.933329999996683e+000	 1.002689959120145e+001
0	 2.933340000004133e+000	 5.999999999999998e+000	 1.002484660250977e+001
0	 3.000000000000000e+000	 5.333299999983333e+000	 1.009719393695185e+001
0	 3.000000000000000e+000	 5.399969999982150e+000	 1.008843550585497e+001
0	 3.000000000000000e+000	 5.466639999981866e+000	 1.008006777855541e+001
0	 3.000000000000000e+000	 5.533309999982383e+000	 1.007216423530537e+001
0	 3.000000000000001e+000	 5.599979999983600e+000	 1.006479835635702e+001
0	 3.000000000000001e+000	 5.666649999985417e+000	 1.005804362196256e+001
0	 3.000000000000001e+000	 5.733319999987733e+000	 1.005197351237420e+001
0	 3.000000000000000e+000	 5.799989999990451e+000	 1.004666150784418e+001
0	 3.000000000000000e+000	 5.866659999993466e+000	 1.004218108862469e+001
0	 3.000000000000000e+000	 5.933329999996684e+000	 1.003860573496799e+001
0	 3.000000000000000e+000	 6.000000000000000e+000	 1.003600892712632e+001
0	 3.066659999995867e+000	 5.333299999983333e+000	 1.010974705543896e+001
0	 3.066659999995867e+000	 5.399969999982149e+000	 1.010115441796730e+001
0	 3.066659999995867e+000	 5.466639999981865e+000	 1.009288937709438e+001
0	 3.066659999995868e+000	 5.533309999982384e+000	 1.008502125326709e+001
0	 3.066659999995868e+000	 5.599979999983599e+000	 1.007761936693234e+001
0	 3.066659999995866e+000	 5.666649999985416e+000	 1.007075303853704e+001
0	 3.066659999995867e+000	 5.733319999987734e+000	 1.006449158852809e+001
0	 3.066659999995867e+000	 5.799989999990450e+000	 1.005890433735243e+001
0	 3.066659999995867e+000	 5.866659999993468e+000	 1.005406060545700e+001
0	 3.066659999995867e+000	 5.933329999996683e+000	 1.005002971328871e+001
0	 3.066659999995868e+000	 6.000000000000001e+000	 1.004688098129455e+001
0	 3.133319999991933e+000	 5.333299999983333e+000	 1.012159418329147e+001
0	 3.133319999991933e+000	 5.399969999982149e+000	 1.011320686136357e+001
0	 3.133319999991934e+000	 5.466639999981865e+000	 1.010508848899860e+001
0	 3.133319999991933e+000	 5.533309999982383e+000	 1.009730234329993e+001
0	 3.133319999991933e+000	 5.599979999983598e+000	 1.008991170137092e+001
0	 3.133319999991934e+000	 5.666649999985416e+000	 1.008297984031490e+001
0	 3.133319999991933e+000	 5.733319999987733e+000	 1.007657003723529e+001
0	 3.133319999991934e+000	 5.799989999990449e+000	 1.007074556923545e+001
0	 3.133319999991934e+000	 5.866659999993467e+000	 1.006556971341875e+001
0	 3.133319999991933e+000	 5.933329999996682e+000	 1.006110574688860e+001
0	 3.133319999991934e+000	 6.000000000000000e+000	 1.005741694674840e+001
0	 3.199979999988401e+000	 5.333299999983335e+000	 1.013277684910575e+001
0	 3.199979999988401e+000	 5.399969999982150e+000	 1.012459693425869e+001
0	 3.199979999988401e+000	 5.466639999981867e+000	 1.011663815892272e+001
0	 3.199979999988401e+000	 5.533309999982383e+000	 1.010895587331937e+001
0	 3.199979999988401e+000	 5.599979999983601e+000	 1.010160542767023e+001
0	 3.199979999988400e+000	 5.666649999985415e+000	 1.009464217219685e+001
0	 3.199979999988401e+000	 5.733319999987733e+000	 1.008812145712082e+001
0	 3.199979999988401e+000	 5.799989999990450e+000	 1.008209863266370e+001
0	 3.199979999988400e+000	 5.866659999993467e+000	 1.007662904904710e+001
0	 3.199979999988401e+000	 5.933329999996685e+000	 1.007176805649261e+001
0	 3.199979999988401e+000	 6.000000000000001e+000	 1.006757100522182e+001
0	 3.266639999985467e+000	 5.333299999983334e+000	 1.014333658147824e+001
0	 3.266639999985468e+000	 5.399969999982149e+000	 1.013532873486763e+001
0	 3.266639999985467e+000	 5.466639999981867e+000	 1.012751143152135e+001
0	 3.266639999985468e+000	 5.533309999982385e+000	 1.011993021124090e+001
0	 3.266639999985467e+000	 5.599979999983599e+000	 1.011263061382779e+001
0	 3.266639999985468e+000	 5.666649999985419e+000	 1.010565817908354e+001
0	 3.266639999985467e+000	 5.733319999987733e+000	 1.009905844680968e+001
0	 3.266639999985467e+000	 5.799989999990450e+000	 1.009287695680774e+001
0	 3.266639999985468e+000	 5.866659999993468e+000	 1.008715924887923e+001
0	 3.266639999985468e+000	 5.933329999996684e+000	 1.008195086282572e+001
0	 3.266639999985468e+000	 6.000000000000001e+000	 1.007729733844872e+001
0	 3.333299999983334e+000	 5.333299999983335e+000	 1.015331490900529e+001
0	 3.333299999983334e+000	 5.399969999982148e+000	 1.014540636140530e+001
0	 3.333299999983335e+000	 5.466639999981867e+000	 1.013768135144915e+001
0	 3.333299999983334e+000	 5.533309999982384e+000	 1.013017372498002e+001
0	 3.333299999983334e+000	 5.599979999983601e+000	 1.012291732784112e+001
0	 3.333299999983334e+000	 5.666649999985414e+000	 1.011594600587567e+001
0	 3.333299999983334e+000	 5.733319999987733e+000	 1.010929360492691e+001
0	 3.333299999983333e+000	 5.799989999990449e+000	 1.010299397083803e+001
0	 3.333299999983333e+000	 5.866659999993468e+000	 1.009708094945228e+001
0	 3.333299999983334e+000	 5.933329999996684e+000	 1.009158838661287e+001
0	 3.333299999983333e+000	 5.999999999999998e+000	 1.008655012816306e+001
0	 2.666700000016666e+000	 6.000000000000001e+000	 9.978210964881219e+000
0	 2.666700000016666e+000	 6.066670000003318e+000	 9.978377849063859e+000
0	 2.666700000016666e+000	 6.133340000006533e+000	 9.978462483281149e+000
0	 2.666700000016667e+000	 6.200010000009550e+000	 9.978450164049036e+000
0	 2.666700000016667e+000	 6.266680000012268e+000	 9.978326187883505e+000
0	 2.666700000016666e+000	 6.333350000014584e+000	 9.978075851300519e+000
0	 2.666700000016667e+000	 6.400020000016400e+000	 9.977684450816057e+000
0	 2.666700000016666e+000	 6.466690000017617e+000	 9.977137282946075e+000
0	 2.666700000016666e+000	 6.533360000018133e+000	 9.976419644206558e+000
0	 2.666700000016667e+000	 6.600030000017850e+000	 9.975516831113454e+000
0	 2.666700000016667e+000	 6.666700000016667e+000	 9.974414140182727e+000
0	 2.733360000014533e+000	 6.000000000000001e+000	 9.990076188630622e+000
0	 2.733360000014533e+000	 6.066670000003318e+000	 9.989957384852678e+000
0	 2.733360000014533e+000	 6.133340000006531e+000	 9.989751331251835e+000
0	 2.733360000014533e+000	 6.200010000009551e+000	 9.989441240263767e+000
0	 2.733360000014532e+000	 6.266680000012268e+000	 9.989010324324152e+000
0	 2.733360000014533e+000	 6.333350000014583e+000	 9.988441795868665e+000
0	 2.733360000014533e+000	 6.400020000016401e+000	 9.987718867332987e+000
0	 2.733360000014533e+000	 6.466690000017619e+000	 9.986824751152764e+000
0	 2.733360000014533e+000	 6.533360000018132e+000	 9.985742659763675e+000
0	 2.733360000014533e+000	 6.600030000017851e+000	 9.984455805601376e+000
0	 2.733360000014533e+000	 6.666700000016669e+000	 9.982947401101560e+000
0	 2.800020000011600e+000	 6.000000000000000e+000	 1.000183441499588e+001
0	 2.800020000011599e+000	 6.066670000003313e+000	 1.000132856881368e+001
0	 2.800020000011600e+000	 6.133340000006533e+000	 1.000074781325945e+001
0	 2.800020000011600e+000	 6.200010000009553e+000	 1.000007388145513e+001
0	 2.800020000011599e+000	 6.266680000012265e+000	 9.999288506522611e+000
0	 2.800020000011600e+000	 6.333350000014586e+000	 9.998373421583839e+000
0	 2.800020000011600e+000	 6.400020000016401e+000	 9.997310359760739e+000
0	 2.800020000011600e+000	 6.466690000017617e+000	 9.996081054175223e+000
0	 2.800020000011600e+000	 6.533360000018133e+000	 9.994667237949216e+000
0	 2.800020000011600e+000	 6.600030000017850e+000	 9.993050644204638e+000
0	 2.800020000011599e+000	 6.666700000016665e+000	 9.991213006063418e+000
0	 2.866680000008067e+000	 6.000000000000002e+000	 1.001343982571095e+001
0	 2.866680000008066e+000	 6.066670000003317e+000	 1.001246692920497e+001
0	 2.866680000008066e+000	 6.133340000006531e+000	 1.001144519829533e+001
0	 2.866680000008067e+000	 6.200010000009550e+000	 1.001035549155676e+001
0	 2.866680000008067e+000	 6.266680000012267e+000	 1.000917866756397e+001
0	 2.866680000008067e+000	 6.333350000014584e+000	 1.000789558489172e+001
0	 2.866680000008066e+000	 6.400020000016399e+000	 1.000648710211469e+001
0	 2.866680000008066e+000	 6.466690000017618e+000	 1.000493407780765e+001
0	 2.866680000008066e+000	 6.533360000018135e+000	 1.000321737054532e+001
0	 2.866680000008067e+000	 6.600030000017850e+000	 1.000131783890241e+001
0	 2.866680000008067e+000	 6.666700000016666e+000	 9.999216341453648e+000
0	 2.933340000004133e+000	 5.999999999999998e+000	 1.002484660250977e+001
0	 2.933340000004133e+000	 6.066670000003318e+000	 1.002334799428459e+001
0	 2.933340000004133e+000	 6.133340000006530e+000	 1.002183675535073e+001
0	 2.933340000004133e+000	 6.200010000009551e+000	 1.002029347450229e+001
0	 2.933340000004134e+000	 6.266680000012268e+000	 1.001869874053334e+001
0	 2.933340000004133e+000	 6.333350000014583e+000	 1.001703314223795e+001
0	 2.933340000004135e+000	 6.400020000016403e+000	 1.001527726841024e+001
0	 2.933340000004133e+000	 6.466690000017616e+000	 1.001341170784426e+001
0	 2.933340000004134e+000	 6.533360000018133e+000	 1.001141704933412e+001
0	 2.933340000004134e+000	 6.600030000017850e+000	 1.000927388167388e+001
0	 2.933340000004133e+000	 6.666700000016665e+000	 1.000696279365762e+001
0	 3.000000000000000e+000	 6.000000000000000e+000	 1.003600892712632e+001
0	 3.000000000000000e+000	 6.066670000003318e+000	 1.003394729231062e+001
0	 3.000000000000000e+000	 6.133340000006531e+000	 1.003191575341698e+001
0	 3.000000000000000e+000	 6.200010000009552e+000	 1.002989523422537e+001
0	 3.000000000000000e+000	 6.266680000012268e+000	 1.002786665851580e+001
0	 3.000000000000000e+000	 6.333350000014584e+000	 1.002581095006825e+001
0	 3.000000000000000e+000	 6.400020000016401e+000	 1.002370903266274e+001
0	 3.000000000000000e+000	 6.466690000017617e+000	 1.002154183007923e+001
0	 3.000000000000000e+000	 6.533360000018136e+000	 1.001929026609772e+001
0	 3.000000000000000e+000	 6.600030000017848e+000	 1.001693526449821e+001
0	 3.000000000000000e+000	 6.666700000016666e+000	 1.001445774906068e+001
0	 3.066659999995868e+000	 6.000000000000001e+000	 1.004688098129455e+001
0	 3.066659999995867e+000	 6.066670000003317e+000	 1.004424035154111e+001
0	 3.066659999995867e+000	 6.133340000006533e+000	 1.004167546148531e+001
0	 3.066659999995867e+000	 6.200010000009553e+000	 1.003916817465962e+001
0	 3.066659999995868e+000	 6.266680000012269e+000	 1.003670035459646e+001
0	 3.066659999995868e+000	 6.333350000014584e+000	 1.003425386482829e+001
0	 3.066659999995868e+000	 6.400020000016403e+000	 1.003181056888759e+001
0	 3.066659999995868e+000	 6.466690000017617e+000	 1.002935233030676e+001
0	 3.066659999995868e+000	 6.533360000018135e+000	 1.002686101261827e+001
0	 3.066659999995868e+000	 6.600030000017851e+000	 1.002431847935459e+001
0	 3.066659999995867e+000	 6.666700000016665e+000	 1.002170659404817e+001
0	 3.133319999991934e+000	 6.000000000000000e+000	 1.005741694674840e+001
0	 3.133319999991935e+000	 6.066670000003319e+000	 1.005420270023411e+001
0	 3.133319999991934e+000	 6.133340000006534e+000	 1.005110914854705e+001
0	 3.133319999991934e+000	 6.200010000009550e+000	 1.004811969973865e+001
0	 3.133319999991934e+000	 6.266680000012267e+000	 1.004521776186039e+001
0	 3.133319999991934e+000	 6.333350000014583e+000	 1.004238674296373e+001
0	 3.133319999991934e+000	 6.400020000016399e+000	 1.003961005110011e+001
0	 3.133319999991933e+000	 6.466690000017615e+000	 1.003687109432102e+001
0	 3.133319999991935e+000	 6.533360000018135e+000	 1.003415328067789e+001
0	 3.133319999991933e+000	 6.600030000017849e+000	 1.003144001822221e+001
0	 3.133319999991934e+000	 6.666700000016667e+000	 1.002871471500544e+001
0	 3.199979999988401e+000	 6.000000000000001e+000	 1.006757100522182e+001
0	 3.199979999988401e+000	 6.066670000003318e+000	 1.006380986664768e+001
0	 3.199979999988401e+000	 6.133340000006532e+000	 1.006021008359344e+001
0	 3.199979999988401e+000	 6.200010000009551e+000	 1.005675721339610e+001
0	 3.199979999988400e+000	 6.266680000012266e+000	 1.005343681339269e+001
0	 3.199979999988400e+000	 6.333350000014582e+000	 1.005023444092022e+001
0	 3.199979999988401e+000	 6.400020000016401e+000	 1.004713565331572e+001
0	 3.199979999988400e+000	 6.466690000017614e+000	 1.004412600791619e+001
0	 3.199979999988401e+000	 6.533360000018133e+000	 1.004119106205869e+001
0	 3.199979999988400e+000	 6.600030000017850e+000	 1.003831637308023e+001
0	 3.199979999988401e+000	 6.666700000016667e+000	 1.003548749831782e+001
0	 3.266639999985468e+000	 6.000000000000001e+000	 1.007729733844872e+001
0	 3.266639999985468e+000	 6.066670000003318e+000	 1.007303737903986e+001
0	 3.266639999985467e+000	 6.133340000006531e+000	 1.006897153561577e+001
0	 3.266639999985468e+000	 6.200010000009553e+000	 1.006508811956559e+001
0	 3.266639999985467e+000	 6.266680000012268e+000	 1.006137544227844e+001
0	 3.266639999985468e+000	 6.333350000014584e+000	 1.005782181514345e+001
0	 3.266639999985468e+000	 6.400020000016400e+000	 1.005441554954974e+001
0	 3.266639999985468e+000	 6.466690000017618e+000	 1.005114495688648e+001
0	 3.266639999985467e+000	 6.533360000018132e+000	 1.004799834854279e+001
0	 3.266639999985468e+000	 6.600030000017852e+000	 1.004496403590781e+001
0	 3.266639999985468e+000	 6.666700000016667e+000	 1.004203033037067e+001
0	 3.333299999983333e+000	 5.999999999999998e+000	 1.008655012816306e+001
0	 3.333299999983333e+000	 6.066670000003317e+000	 1.008186076566869e+001
0	 3.333299999983333e+000	 6.133340000006531e+000	 1.007738677360532e+001
0	 3.333299999983334e+000	 6.200010000009550e+000	 1.007311982218072e+001
0	 3.333299999983334e+000	 6.266680000012269e+000	 1.006905158160270e+001
0	 3.333299999983334e+000	 6.333350000014584e+000	 1.006517372207906e+001
0	 3.333299999983334e+000	 6.400020000016401e+000	 1.006147791381757e+001
0	 3.333299999983334e+000	 6.466690000017618e+000	 1.005795582702605e+001
0	 3.333299999983334e+000	 6.533360000018134e+000	 1.005459913191231e+001
0	 3.333299999983334e+000	 6.600030000017851e+000	 1.005139949868412e+001
0	 3.333299999983333e+000	 6.666700000016665e+000	 1.004834859754933e+001
0	 2.666700000016667e+000	 6.666700000016667e+000	 9.974414140182727e+000
0	 2.666700000016666e+000	 6.733360000014533e+000	 9.973301809648730e+000
0	 2.666700000016666e+000	 6.800020000011599e+000	 9.972387685616598e+000
0	 2.666700000016666e+000	 6.866680000008068e+000	 9.971684019770345e+000
0	 2.666700000016667e+000	 6.933340000004134e+000	 9.971203063793931e+000
0	 2.666700000016667e+000	 7.000000000000000e+000	 9.970957069371369e+000
0	 2.666700000016667e+000	 7.066659999995867e+000	 9.970958288186633e+000
0	 2.666700000016666e+000	 7.133319999991936e+000	 9.971218971923678e+000
0	 2.666700000016666e+000	 7.199979999988401e+000	 9.971751372266471e+000
0	 2.666700000016666e+000	 7.266639999985467e+000	 9.972567740898993e+000
0	 2.666700000016667e+000	 7.333299999983335e+000	 9.973680329505175e+000
0	 2.733360000014533e+000	 6.666700000016669e+000	 9.982947401101560e+000
0	 2.733360000014533e+000	 6.733360000014533e+000	 9.981428966672949e+000
0	 2.733360000014533e+000	 6.800020000011597e+000	 9.980130872013978e+000
0	 2.733360000014533e+000	 6.866680000008068e+000	 9.979065334607325e+000
0	 2.733360000014533e+000	 6.933340000004135e+000	 9.978244571935655e+000
0	 2.733360000014534e+000	 7.000000000000002e+000	 9.977680801481617e+000
0	 2.733360000014533e+000	 7.066659999995870e+000	 9.977386240727862e+000
0	 2.733360000014533e+000	 7.133319999991937e+000	 9.977373107157037e+000
0	 2.733360000014533e+000	 7.199979999988400e+000	 9.977653618251756e+000
0	 2.733360000014533e+000	 7.266639999985468e+000	 9.978239991494657e+000
0	 2.733360000014533e+000	 7.333299999983334e+000	 9.979144444368393e+000
0	 2.800020000011599e+000	 6.666700000016665e+000	 9.991213006063418e+000
0	 2.800020000011599e+000	 6.733360000014535e+000	 9.989370141928974e+000
0	 2.800020000011599e+000	 6.800020000011600e+000	 9.987757518962173e+000
0	 2.800020000011600e+000	 6.866680000008067e+000	 9.986387222789329e+000
0	 2.800020000011600e+000	 6.933340000004134e+000	 9.985271339036713e+000
0	 2.800020000011600e+000	 7.000000000000001e+000	 9.984421953330603e+000
0	 2.800020000011600e+000	 7.066659999995867e+000	 9.983851151297296e+000
0	 2.800020000011600e+000	 7.133319999991935e+000	 9.983571018563053e+000
0	 2.800020000011600e+000	 7.199979999988400e+000	 9.983593640754128e+000
0	 2.800020000011599e+000	 7.266639999985466e+000	 9.983931103496776e+000
0	 2.800020000011599e+000	 7.333299999983334e+000	 9.984595492417258e+000
0	 2.866680000008067e+000	 6.666700000016666e+000	 9.999216341453648e+000
0	 2.866680000008067e+000	 6.733360000014534e+000	 9.997118840075901e+000
0	 2.866680000008067e+000	 6.800020000011600e+000	 9.995251299047666e+000
0	 2.866680000008066e+000	 6.866680000008065e+000	 9.993625574483822e+000
0	 2.866680000008067e+000	 6.933340000004133e+000	 9.992253522499253e+000
0	 2.866680000008067e+000	 6.999999999999997e+000	 9.991146999208825e+000
0	 2.866680000008066e+000	 7.066659999995865e+000	 9.990317860727389e+000
0	 2.866680000008067e+000	 7.133319999991935e+000	 9.989777963169797e+000
0	 2.866680000008067e+000	 7.199979999988402e+000	 9.989539162650919e+000
0	 2.866680000008067e+000	 7.266639999985468e+000	 9.989613315285556e+000
0	 2.866680000008067e+000	 7.333299999983333e+000	 9.990012277188571e+000
0	 2.933340000004133e+000	 6.666700000016665e+000	 1.000696279365762e+001
0	 2.933340000004133e+000	 6.733360000014533e+000	 1.000466856577281e+001
0	 2.933340000004134e+000	 6.800020000011601e+000	 1.000259588485691e+001
0	 2.933340000004133e+000	 6.866680000008067e+000	 1.000075627985832e+001
0	 2.933340000004133e+000	 6.933340000004134e+000	 9.999161279725461e+000
0	 2.933340000004133e+000	 7.000000000000000e+000	 9.997822413406759e+000
0	 2.933340000004133e+000	 7.066659999995869e+000	 9.996751209850583e+000
0	 2.933340000004133e+000	 7.133319999991932e+000	 9.995959198005352e+000
0	 2.933340000004133e+000	 7.199979999988399e+000	 9.995457906819459e+000
0	 2.933340000004133e+000	 7.266639999985467e+000	 9.995258865241272e+000
0	 2.933340000004133e+000	 7.333299999983336e+000	 9.995373602219162e+000
0	 3.000000000000000e+000	 6.666700000016666e+000	 1.001445774906068e+001
0	 3.000000000000000e+000	 6.733360000014533e+000	 1.001201282367879e+001
0	 3.000000000000001e+000	 6.800020000011600e+000	 1.000977494897635e+001
0	 3.000000000000000e+000	 6.866680000008066e+000	 1.000775522908026e+001
0	 3.000000000000001e+000	 6.933340000004134e+000	 1.000596476811746e+001
0	 3.000000000000000e+000	 7.000000000000000e+000	 1.000441467021486e+001
0	 3.000000000000000e+000	 7.066659999995870e+000	 1.000311603949932e+001
0	 3.000000000000000e+000	 7.133319999991934e+000	 1.000207998009775e+001
0	 3.000000000000000e+000	 7.199979999988401e+000	 1.000131759613707e+001
0	 3.000000000000000e+000	 7.266639999985467e+000	 1.000083999174414e+001
0	 3.000000000000001e+000	 7.333299999983335e+000	 1.000065827104583e+001
0	 3.066659999995867e+000	 6.666700000016665e+000	 1.002170659404817e+001
0	 3.066659999995868e+000	 6.733360000014532e+000	 1.001914511845291e+001
0	 3.066659999995868e+000	 6.800020000011598e+000	 1.001677216399245e+001
0	 3.066659999995867e+000	 6.866680000008066e+000	 1.001459831231717e+001
0	 3.066659999995867e+000	 6.933340000004133e+000	 1.001263414507745e+001
0	 3.066659999995867e+000	 7.000000000000000e+000	 1.001089024392361e+001
0	 3.066659999995867e+000	 7.066659999995864e+000	 1.000937719050604e+001
0	 3.066659999995868e+000	 7.133319999991935e+000	 1.000810556647510e+001
0	 3.066659999995867e+000	 7.199979999988399e+000	 1.000708595348110e+001
0	 3.066659999995866e+000	 7.266639999985464e+000	 1.000632893317440e+001
0	 3.066659999995867e+000	 7.333299999983333e+000	 1.000584508720534e+001
0	 3.133319999991934e+000	 6.666700000016667e+000	 1.002871471500544e+001
0	 3.133319999991934e+000	 6.733360000014533e+000	 1.002605895475424e+001
0	 3.133319999991934e+000	 6.800020000011601e+000	 1.002357120249167e+001
0	 3.133319999991934e+000	 6.866680000008067e+000	 1.002126141973651e+001
0	 3.133319999991934e+000	 6.933340000004134e+000	 1.001913956800753e+001
0	 3.133319999991933e+000	 6.999999999999998e+000	 1.001721560882351e+001
0	 3.133319999991934e+000	 7.066659999995867e+000	 1.001549950370321e+001
0	 3.133319999991934e+000	 7.133319999991935e+000	 1.001400121416542e+001
0	 3.133319999991934e+000	 7.199979999988399e+000	 1.001273070172887e+001
0	 3.133319999991934e+000	 7.266639999985467e+000	 1.001169792791233e+001
0	 3.133319999991933e+000	 7.333299999983334e+000	 1.001091285423455e+001
0	 3.199979999988401e+000	 6.666700000016667e+000	 1.003548749831782e+001
0	 3.199979999988401e+000	 6.733360000014533e+000	 1.003274783724187e+001
0	 3.199979999988401e+000	 6.800020000011601e+000	 1.003015573706047e+001
0	 3.199979999988401e+000	 6.866680000008066e+000	 1.002772044150574e+001
0	 3.199979999988402e+000	 6.933340000004133e+000	 1.002545119430988e+001
0	 3.199979999988401e+000	 7.000000000000000e+000	 1.002335723920499e+001
0	 3.199979999988401e+000	 7.066659999995867e+000	 1.002144781992325e+001
0	 3.199979999988401e+000	 7.133319999991935e+000	 1.001973218019677e+001
0	 3.199979999988401e+000	 7.199979999988402e+000	 1.001821956375770e+001
0	 3.199979999988400e+000	 7.266639999985467e+000	 1.001691921433815e+001
0	 3.199979999988401e+000	 7.333299999983334e+000	 1.001584037567026e+001
0	 3.266639999985468e+000	 6.666700000016667e+000	 1.004203033037068e+001
0	 3.266639999985468e+000	 6.733360000014533e+000	 1.003920527057485e+001
0	 3.266639999985468e+000	 6.800020000011600e+000	 1.003650944028526e+001
0	 3.266639999985468e+000	 6.866680000008067e+000	 1.003395126779237e+001
0	 3.266639999985468e+000	 6.933340000004133e+000	 1.003153918138664e+001
0	 3.266639999985468e+000	 6.999999999999999e+000	 1.002928160935856e+001
0	 3.266639999985468e+000	 7.066659999995867e+000	 1.002718697999861e+001
0	 3.266639999985468e+000	 7.133319999991934e+000	 1.002526372159725e+001
0	 3.266639999985468e+000	 7.199979999988400e+000	 1.002352026244492e+001
0	 3.266639999985468e+000	 7.266639999985468e+000	 1.002196503083208e+001
0	 3.266639999985467e+000	 7.333299999983333e+000	 1.002060645504920e+001
0	 3.333299999983333e+000	 6.666700000016665e+000	 1.004834859754933e+001
0	 3.333299999983334e+000	 6.733360000014534e+000	 1.004542475941228e+001
0	 3.333299999983334e+000	 6.800020000011601e+000	 1.004261598475253e+001
0	 3.333299999983333e+000	 6.866680000008064e+000	 1.003992978876384e+001
0	 3.333299999983334e+000	 6.933340000004133e+000	 1.003737368663996e+001
0	 3.333299999983333e+000	 6.999999999999999e+000	 1.003495519357469e+001
0	 3.333299999983335e+000	 7.066659999995867e+000	 1.003268182476174e+001
0	 3.333299999983334e+000	 7.133319999991936e+000	 1.003056109539487e+001
0	 3.333299999983334e+000	 7.199979999988401e+000	 1.002860052066784e+001
0	 3.333299999983334e+000	 7.266639999985467e+000	 1.002680761577438e+001
0	 3.333299999983335e+000	 7.333299999983336e+000	 1.002518989590825e+001
0	 2.666700000016667e+000	 7.333299999983335e+000	 9.973680329505172e+000
0	 2.666700000016667e+000	 7.399969999982151e+000	 9.974911396082122e+000
0	 2.666700000016666e+000	 7.466639999981866e+000	 9.976075244735155e+000
0	 2.666700000016666e+000	 7.533309999982383e+000	 9.977172765519738e+000
0	 2.666700000016666e+000	 7.599979999983598e+000	 9.978204848491252e+000
0	 2.666700000016666e+000	 7.666649999985416e+000	 9.979172383705146e+000
0	 2.666700000016667e+000	 7.733319999987733e+000	 9.980076261216810e+000
0	 2.666700000016667e+000	 7.799989999990449e+000	 9.980917371081690e+000
0	 2.666700000016665e+000	 7.866659999993464e+000	 9.981696603355177e+000
0	 2.666700000016666e+000	 7.933329999996683e+000	 9.982414848092697e+000
0	 2.666700000016667e+000	 8.000000000000000e+000	 9.983072995349669e+000
0	 2.733360000014533e+000	 7.333299999983334e+000	 9.979144444368393e+000
0	 2.733360000014533e+000	 7.399969999982149e+000	 9.980175627802421e+000
0	 2.733360000014533e+000	 7.466639999981865e+000	 9.981134602150354e+000
0	 2.733360000014533e+000	 7.533309999982382e+000	 9.982022679483345e+000
0	 2.733360000014533e+000	 7.599979999983601e+000	 9.982841171872524e+000
0	 2.733360000014533e+000	 7.666649999985416e+000	 9.983591391389039e+000
0	 2.733360000014533e+000	 7.733319999987733e+000	 9.984274650104046e+000
0	 2.733360000014533e+000	 7.799989999990449e+000	 9.984892260088655e+000
0	 2.733360000014533e+000	 7.866659999993466e+000	 9.985445533414035e+000
0	 2.733360000014533e+000	 7.933329999996682e+000	 9.985935782151318e+000
0	 2.733360000014533e+000	 7.999999999999999e+000	 9.986364318371633e+000
0	 2.800020000011599e+000	 7.333299999983334e+000	 9.984595492417256e+000
0	 2.800020000011599e+000	 7.399969999982149e+000	 9.985391791959135e+000
0	 2.800020000011599e+000	 7.466639999981865e+000	 9.986117775138821e+000
0	 2.800020000011600e+000	 7.533309999982383e+000	 9.986775084825512e+000
0	 2.800020000011601e+000	 7.599979999983602e+000	 9.987365363888360e+000
0	 2.800020000011600e+000	 7.666649999985417e+000	 9.987890255196559e+000
0	 2.800020000011600e+000	 7.733319999987733e+000	 9.988351401619269e+000
0	 2.800020000011600e+000	 7.799989999990451e+000	 9.988750446025692e+000
0	 2.800020000011600e+000	 7.866659999993467e+000	 9.989089031284978e+000
0	 2.800020000011600e+000	 7.933329999996681e+000	 9.989368800266323e+000
0	 2.800020000011600e+000	 8.000000000000000e+000	 9.989591395838875e+000
0	 2.866680000008067e+000	 7.333299999983333e+000	 9.990012277188571e+000
0	 2.866680000008067e+000	 7.399969999982149e+000	 9.990545723257167e+000
0	 2.866680000008066e+000	 7.466639999981866e+000	 9.991016509665810e+000
0	 2.866680000008066e+000	 7.533309999982383e+000	 9.991426518864053e+000
0	 2.866680000008066e+000	 7.599979999983598e+000	 9.991777633301373e+000
0	 2.866680000008067e+000	 7.666649999985417e+000	 9.992071735427309e+000
0	 2.866680000008067e+000	 7.733319999987733e+000	 9.992310707691393e+000
0	 2.866680000008066e+000	 7.799989999990447e+000	 9.992496432543153e+000
0	 2.866680000008066e+000	 7.866659999993466e+000	 9.992630792432070e+000
0	 2.866680000008066e+000	 7.933329999996682e+000	 9.992715669807705e+000
0	 2.866680000008067e+000	 7.999999999999999e+000	 9.992752947119559e+000
0	 2.933340000004133e+000	 7.333299999983336e+000	 9.995373602219162e+000
0	 2.933340000004133e+000	 7.399969999982149e+000	 9.995623256401446e+000
0	 2.933340000004133e+000	 7.466639999981866e+000	 9.995822551696591e+000
0	 2.933340000004133e+000	 7.533309999982383e+000	 9.995973518916777e+000
0	 2.933340000004134e+000	 7.599979999983602e+000	 9.996078188874170e+000
0	 2.933340000004133e+000	 7.666649999985414e+000	 9.996138592380945e+000
0	 2.933340000004134e+000	 7.733319999987733e+000	 9.996156760249289e+000
0	 2.933340000004133e+000	 7.799989999990448e+000	 9.996134723291375e+000
0	 2.933340000004134e+000	 7.866659999993468e+000	 9.996074512319368e+000
0	 2.933340000004134e+000	 7.933329999996684e+000	 9.995978158145453e+000
0	 2.933340000004133e+000	 7.999999999999999e+000	 9.995847691581792e+000
0	 3.000000000000001e+000	 7.333299999983335e+000	 1.000065827104583e+001
0	 3.000000000000000e+000	 7.399969999982151e+000	 1.000061022609688e+001
0	 2.999999999999999e+000	 7.466639999981865e+000	 1.000052764719639e+001
0	 3.000000000000000e+000	 7.533309999982383e+000	 1.000041262230151e+001
0	 3.000000000000001e+000	 7.599979999983599e+000	 1.000026723936938e+001
0	 3.000000000000000e+000	 7.666649999985415e+000	 1.000009358635711e+001
0	 3.000000000000000e+000	 7.733319999987733e+000	 9.999893751221832e+000
0	 3.000000000000000e+000	 7.799989999990451e+000	 9.999669821920746e+000
0	 3.000000000000001e+000	 7.866659999993468e+000	 9.999423886410936e+000
0	 3.000000000000000e+000	 7.933329999996683e+000	 9.999158032649557e+000
0	 3.000000000000000e+000	 8.000000000000000e+000	 9.998874348593773e+000
0	 3.066659999995867e+000	 7.333299999983333e+000	 1.000584508720534e+001
0	 3.066659999995868e+000	 7.399969999982150e+000	 1.000549246704839e+001
0	 3.066659999995867e+000	 7.466639999981867e+000	 1.000512354213050e+001
0	 3.066659999995867e+000	 7.533309999982381e+000	 1.000474036633609e+001
0	 3.066659999995868e+000	 7.599979999983601e+000	 1.000434499354958e+001
0	 3.066659999995868e+000	 7.666649999985417e+000	 1.000393947765537e+001
0	 3.066659999995868e+000	 7.733319999987733e+000	 1.000352587253792e+001
0	 3.066659999995867e+000	 7.799989999990450e+000	 1.000310623208159e+001
0	 3.066659999995867e+000	 7.866659999993466e+000	 1.000268261017082e+001
0	 3.066659999995867e+000	 7.933329999996682e+000	 1.000225706069004e+001
0	 3.066659999995868e+000	 8.000000000000000e+000	 1.000183163752363e+001
0	 3.133319999991933e+000	 7.333299999983334e+000	 1.001091285423455e+001
0	 3.133319999991933e+000	 7.399969999982148e+000	 1.001025581396087e+001
0	 3.133319999991935e+000	 7.466639999981867e+000	 1.000960198246412e+001
0	 3.133319999991934e+000	 7.533309999982384e+000	 1.000895328833829e+001
0	 3.133319999991933e+000	 7.599979999983598e+000	 1.000831166017741e+001
0	 3.133319999991934e+000	 7.666649999985417e+000	 1.000767902657544e+001
0	 3.133319999991934e+000	 7.733319999987733e+000	 1.000705731612640e+001
0	 3.133319999991934e+000	 7.799989999990449e+000	 1.000644845742428e+001
0	 3.133319999991934e+000	 7.866659999993466e+000	 1.000585437906310e+001
0	 3.133319999991935e+000	 7.933329999996683e+000	 1.000527700963684e+001
0	 3.133319999991934e+000	 8.000000000000000e+000	 1.000471827773952e+001
0	 3.199979999988401e+000	 7.333299999983334e+000	 1.001584037567026e+001
0	 3.199979999988402e+000	 7.399969999982152e+000	 1.001488610153926e+001
0	 3.199979999988402e+000	 7.466639999981867e+000	 1.001395471416253e+001
0	 3.199979999988400e+000	 7.533309999982381e+000	 1.001304792562597e+001
0	 3.199979999988401e+000	 7.599979999983600e+000	 1.001216744801546e+001
0	 3.199979999988401e+000	 7.666649999985417e+000	 1.001131499341689e+001
0	 3.199979999988401e+000	 7.733319999987733e+000	 1.001049227391619e+001
0	 3.199979999988401e+000	 7.799989999990449e+000	 1.000970100159918e+001
0	 3.199979999988400e+000	 7.866659999993467e+000	 1.000894288855183e+001
0	 3.199979999988401e+000	 7.933329999996684e+000	 1.000821964685999e+001
0	 3.199979999988401e+000	 7.999999999999999e+000	 1.000753298860957e+001
0	 3.266639999985467e+000	 7.333299999983333e+000	 1.002060645504920e+001
0	 3.266639999985467e+000	 7.399969999982151e+000	 1.001936916448845e+001
0	 3.266639999985468e+000	 7.466639999981867e+000	 1.001817348319099e+001
0	 3.266639999985468e+000	 7.533309999982384e+000	 1.001702081551692e+001
0	 3.266639999985468e+000	 7.599979999983599e+000	 1.001591256582636e+001
0	 3.266639999985467e+000	 7.666649999985417e+000	 1.001485013847938e+001
0	 3.266639999985467e+000	 7.733319999987733e+000	 1.001383493783611e+001
0	 3.266639999985467e+000	 7.799989999990450e+000	 1.001286836825662e+001
0	 3.266639999985467e+000	 7.866659999993466e+000	 1.001195183410103e+001
0	 3.266639999985468e+000	 7.933329999996683e+000	 1.001108673972946e+001
0	 3.266639999985468e+000	 8.000000000000000e+000	 1.001027448950195e+001
0	 3.333299999983335e+000	 7.333299999983336e+000	 1.002518989590825e+001
0	 3.333299999983333e+000	 7.399969999982149e+000	 1.002369083751335e+001
0	 3.333299999983334e+000	 7.466639999981866e+000	 1.002225003551472e+001
0	 3.333299999983334e+000	 7.533309999982383e+000	 1.002086849532896e+001
0	 3.333299999983334e+000	 7.599979999983601e+000	 1.001954722237268e+001
0	 3.333299999983334e+000	 7.666649999985416e+000	 1.001828722206253e+001
0	 3.333299999983334e+000	 7.733319999987733e+000	 1.001708949981508e+001
0	 3.333299999983334e+000	 7.799989999990448e+000	 1.001595506104698e+001
0	 3.333299999983333e+000	 7.866659999993466e+000	 1.001488491117481e+001
0	 3.333299999983334e+000	 7.933329999996683e+000	 1.001388005561522e+001
0	 3.333299999983334e+000	 8.000000000000000e+000	 1.001294149978480e+001
0	 2.666700000016667e+000	 8.000000000000000e+000	 9.983072995349669e+000
0	 2.666700000016666e+000	 8.066670000003317e+000	 9.983712282816311e+000
0	 2.666700000016666e+000	 8.133340000006532e+000	 9.984375367025473e+000
0	 2.666700000016666e+000	 8.200010000009550e+000	 9.985065266296603e+000
0	 2.666700000016666e+000	 8.266680000012267e+000	 9.985784998949056e+000
0	 2.666700000016666e+000	 8.333350000014583e+000	 9.986537583302289e+000
0	 2.666700000016665e+000	 8.400020000016399e+000	 9.987326037675713e+000
0	 2.666700000016666e+000	 8.466690000017618e+000	 9.988153380388717e+000
0	 2.666700000016666e+000	 8.533360000018133e+000	 9.989022629760731e+000
0	 2.666700000016666e+000	 8.600030000017851e+000	 9.989936804111139e+000
0	 2.666700000016666e+000	 8.666700000016668e+000	 9.990898921759367e+000
0	 2.733360000014533e+000	 7.999999999999999e+000	 9.986364318371633e+000
0	 2.733360000014534e+000	 8.066670000003319e+000	 9.986780011373291e+000
0	 2.733360000014534e+000	 8.133340000006532e+000	 9.987232414960584e+000
0	 2.733360000014533e+000	 8.200010000009552e+000	 9.987723867963688e+000
0	 2.733360000014533e+000	 8.266680000012268e+000	 9.988256709212799e+000
0	 2.733360000014533e+000	 8.333350000014583e+000	 9.988833277538056e+000
0	 2.733360000014532e+000	 8.400020000016403e+000	 9.989455911769657e+000
0	 2.733360000014534e+000	 8.466690000017618e+000	 9.990126950737762e+000
0	 2.733360000014532e+000	 8.533360000018133e+000	 9.990848733272580e+000
0	 2.733360000014533e+000	 8.600030000017854e+000	 9.991623598204239e+000
0	 2.733360000014533e+000	 8.666700000016666e+000	 9.992453884362950e+000
0	 2.800020000011600e+000	 8.000000000000000e+000	 9.989591395838875e+000
0	 2.800020000011599e+000	 8.066670000003315e+000	 9.989808082013930e+000
0	 2.800020000011600e+000	 8.133340000006530e+000	 9.990070207758652e+000
0	 2.800020000011599e+000	 8.200010000009550e+000	 9.990379543376122e+000
0	 2.800020000011600e+000	 8.266680000012265e+000	 9.990737859169421e+000
0	 2.800020000011600e+000	 8.333350000014585e+000	 9.991146925441624e+000
0	 2.800020000011600e+000	 8.400020000016397e+000	 9.991608512495791e+000
0	 2.800020000011600e+000	 8.466690000017618e+000	 9.992124390635023e+000
0	 2.800020000011601e+000	 8.533360000018135e+000	 9.992696330162378e+000
0	 2.800020000011601e+000	 8.600030000017853e+000	 9.993326101380951e+000
0	 2.800020000011600e+000	 8.666700000016666e+000	 9.994015474593805e+000
0	 2.866680000008067e+000	 7.999999999999999e+000	 9.992752947119559e+000
0	 2.866680000008066e+000	 8.066670000003319e+000	 9.992791899402784e+000
0	 2.866680000008067e+000	 8.133340000006532e+000	 9.992881421884961e+000
0	 2.866680000008067e+000	 8.200010000009549e+000	 9.993022827304209e+000
0	 2.866680000008067e+000	 8.266680000012267e+000	 9.993217428398634e+000
0	 2.866680000008066e+000	 8.333350000014585e+000	 9.993466537906331e+000
0	 2.866680000008066e+000	 8.400020000016399e+000	 9.993771468565427e+000
0	 2.866680000008066e+000	 8.466690000017618e+000	 9.994133533114045e+000
0	 2.866680000008066e+000	 8.533360000018133e+000	 9.994554044290304e+000
0	 2.866680000008067e+000	 8.600030000017849e+000	 9.995034314832290e+000
0	 2.866680000008067e+000	 8.666700000016665e+000	 9.995575657478156e+000
0	 2.933340000004133e+000	 7.999999999999999e+000	 9.995847691581792e+000
0	 2.933340000004133e+000	 8.066670000003319e+000	 9.995726868204446e+000
0	 2.933340000004133e+000	 8.133340000006534e+000	 9.995658733804863e+000
0	 2.933340000004133e+000	 8.200010000009550e+000	 9.995644254518318e+000
0	 2.933340000004133e+000	 8.266680000012267e+000	 9.995684396480117e+000
0	 2.933340000004133e+000	 8.333350000014585e+000	 9.995780125825547e+000
0	 2.933340000004133e+000	 8.400020000016399e+000	 9.995932408689887e+000
0	 2.933340000004133e+000	 8.466690000017618e+000	 9.996142211208431e+000
0	 2.933340000004133e+000	 8.533360000018131e+000	 9.996410499516482e+000
0	 2.933340000004133e+000	 8.600030000017851e+000	 9.996738239749332e+000
0	 2.933340000004133e+000	 8.666700000016666e+000	 9.997126398042243e+000
0	 3.000000000000000e+000	 8.000000000000000e+000	 9.998874348593773e+000
0	 3.000000000000000e+000	 8.066670000003319e+000	 9.998608393083487e+000
0	 3.000000000000000e+000	 8.133340000006530e+000	 9.998394819983645e+000
0	 2.999999999999999e+000	 8.200010000009549e+000	 9.998234359788793e+000
0	 3.000000000000000e+000	 8.266680000012267e+000	 9.998127742993596e+000
0	 3.000000000000000e+000	 8.333350000014582e+000	 9.998075700092622e+000
0	 3.000000000000000e+000	 8.400020000016401e+000	 9.998078961580475e+000
0	 3.000000000000001e+000	 8.466690000017618e+000	 9.998138257951762e+000
0	 3.000000000000000e+000	 8.533360000018133e+000	 9.998254319701102e+000
0	 3.000000000000000e+000	 8.600030000017847e+000	 9.998427877323071e+000
0	 3.000000000000001e+000	 8.666700000016666e+000	 9.998659661312288e+000
0	 3.066659999995868e+000	 8.000000000000000e+000	 1.000183163752363e+001
0	 3.066659999995867e+000	 8.066670000003319e+000	 1.000143187870449e+001
0	 3.066659999995867e+000	 8.133340000006534e+000	 1.000108235688660e+001
0	 3.066659999995867e+000	 8.200010000009552e+000	 1.000078367788601e+001
0	 3.066659999995868e+000	 8.266680000012270e+000	 1.000053644751876e+001
0	 3.066659999995867e+000	 8.333350000014583e+000	 1.000034127160092e+001
0	 3.066659999995868e+000	 8.400020000016399e+000	 1.000019875594851e+001
0	 3.066659999995867e+000	 8.466690000017616e+000	 1.000010950637762e+001
0	 3.066659999995867e+000	 8.533360000018133e+000	 1.000007412870429e+001
0	 3.066659999995868e+000	 8.600030000017851e+000	 1.000009322874457e+001
0	 3.066659999995868e+000	 8.666700000016665e+000	 1.000016741231453e+001
0	 3.133319999991934e+000	 8.000000000000000e+000	 1.000471827773952e+001
0	 3.133319999991934e+000	 8.066670000003317e+000	 1.000419272973203e+001
0	 3.133319999991935e+000	 8.133340000006536e+000	 1.000371402097907e+001
0	 3.133319999991933e+000	 8.200010000009550e+000	 1.000328274358029e+001
0	 3.133319999991935e+000	 8.266680000012268e+000	 1.000289948963529e+001
0	 3.133319999991934e+000	 8.333350000014583e+000	 1.000256485124375e+001
0	 3.133319999991934e+000	 8.400020000016403e+000	 1.000227942050530e+001
0	 3.133319999991934e+000	 8.466690000017618e+000	 1.000204378951957e+001
0	 3.133319999991935e+000	 8.533360000018137e+000	 1.000185855038622e+001
0	 3.133319999991935e+000	 8.600030000017851e+000	 1.000172429520487e+001
0	 3.133319999991935e+000	 8.666700000016668e+000	 1.000164161607517e+001
0	 3.199979999988401e+000	 7.999999999999999e+000	 1.000753298860957e+001
0	 3.199979999988401e+000	 8.066670000003317e+000	 1.000688635083067e+001
0	 3.199979999988400e+000	 8.133340000006530e+000	 1.000628248872634e+001
0	 3.199979999988401e+000	 8.200010000009550e+000	 1.000572209164197e+001
0	 3.199979999988400e+000	 8.266680000012265e+000	 1.000520584892291e+001
0	 3.199979999988401e+000	 8.333350000014583e+000	 1.000473444991452e+001
0	 3.199979999988401e+000	 8.400020000016401e+000	 1.000430858396215e+001
0	 3.199979999988401e+000	 8.466690000017618e+000	 1.000392894041121e+001
0	 3.199979999988400e+000	 8.533360000018133e+000	 1.000359620860703e+001
0	 3.199979999988400e+000	 8.600030000017849e+000	 1.000331107789500e+001
0	 3.199979999988401e+000	 8.666700000016668e+000	 1.000307423762047e+001
0	 3.266639999985468e+000	 8.000000000000000e+000	 1.001027448950195e+001
0	 3.266639999985468e+000	 8.066670000003317e+000	 1.000950814666500e+001
0	 3.266639999985467e+000	 8.133340000006534e+000	 1.000878043659375e+001
0	 3.266639999985468e+000	 8.200010000009552e+000	 1.000809225684142e+001
0	 3.266639999985468e+000	 8.266680000012267e+000	 1.000744450496129e+001
0	 3.266639999985468e+000	 8.333350000014583e+000	 1.000683807850652e+001
0	 3.266639999985468e+000	 8.400020000016401e+000	 1.000627387503040e+001
0	 3.266639999985467e+000	 8.466690000017616e+000	 1.000575279208611e+001
0	 3.266639999985467e+000	 8.533360000018133e+000	 1.000527572722690e+001
0	 3.266639999985467e+000	 8.600030000017849e+000	 1.000484357800599e+001
0	 3.266639999985467e+000	 8.666700000016666e+000	 1.000445724197662e+001
0	 3.333299999983334e+000	 8.000000000000000e+000	 1.001294149978480e+001
0	 3.333299999983334e+000	 8.066670000003317e+000	 1.001205352189957e+001
0	 3.333299999983334e+000	 8.133340000006532e+000	 1.001120054104657e+001
0	 3.333299999983334e+000	 8.200010000009550e+000	 1.001038377394901e+001
0	 3.333299999983334e+000	 8.266680000012267e+000	 1.000960443733013e+001
0	 3.333299999983334e+000	 8.333350000014585e+000	 1.000886374791316e+001
0	 3.333299999983334e+000	 8.400020000016399e+000	 1.000816292242133e+001
0	 3.333299999983334e+000	 8.466690000017618e+000	 1.000750317757786e+001
0	 3.333299999983333e+000	 8.533360000018133e+000	 1.000688573010597e+001
0	 3.333299999983335e+000	 8.600030000017851e+000	 1.000631179672890e+001
0	 3.333299999983334e+000	 8.666700000016668e+000	 1.000578259416988e+001
0	 2.666700000016666e+000	 8.666700000016668e+000	 9.990898921759365e+000
0	 2.666700000016667e+000	 8.733360002791903e+000	 9.991851826008766e+000
0	 2.666700000016667e+000	 8.800020022230555e+000	 9.992737974803431e+000
0	 2.666700000016666e+000	 8.866680074997040e+000	 9.993559364373601e+000
0	 2.666700000016667e+000	 8.933340177755779e+000	 9.994317991110252e+000
0	 2.666700000016666e+000	 9.000000347171183e+000	 9.995015851564888e+000
0	 2.666700000016666e+000	 9.066660599907667e+000	 9.995654942449626e+000
0	 2.666700000016666e+000	 9.133320952629655e+000	 9.996237260637241e+000
0	 2.666700000016667e+000	 9.199981422001557e+000	 9.996764803161048e+000
0	 2.666700000016667e+000	 9.266642024687794e+000	 9.997239567214944e+000
0	 2.666700000016666e+000	 9.333302777352785e+000	 9.997663550153449e+000
0	 2.733360000014533e+000	 8.666700000016666e+000	 9.992453884362950e+000
0	 2.733360000014533e+000	 8.733360002791901e+000	 9.993279552086674e+000
0	 2.733360000014534e+000	 8.800020022230553e+000	 9.994040745991310e+000
0	 2.733360000014533e+000	 8.866680074997044e+000	 9.994739695002696e+000
0	 2.733360000014533e+000	 8.933340177755776e+000	 9.995378628191803e+000
0	 2.733360000014533e+000	 9.000000347171183e+000	 9.995959774774741e+000
0	 2.733360000014533e+000	 9.066660599907669e+000	 9.996485364112733e+000
0	 2.733360000014533e+000	 9.133320952629655e+000	 9.996957625712076e+000
0	 2.733360000014532e+000	 9.199981422001558e+000	 9.997378789224216e+000
0	 2.733360000014533e+000	 9.266642024687798e+000	 9.997751084445653e+000
0	 2.733360000014533e+000	 9.333302777352785e+000	 9.998076741318016e+000
0	 2.800020000011600e+000	 8.666700000016666e+000	 9.994015474593805e+000
0	 2.800020000011600e+000	 8.733360002791905e+000	 9.994704436975992e+000
0	 2.800020000011600e+000	 8.800020022230557e+000	 9.995333581918727e+000
0	 2.800020000011599e+000	 8.866680074997040e+000	 9.995905265266723e+000
0	 2.800020000011600e+000	 8.933340177755781e+000	 9.996421842991643e+000
0	 2.800020000011600e+000	 9.000000347171183e+000	 9.996885671192027e+000
0	 2.800020000011600e+000	 9.066660599907667e+000	 9.997299106093337e+000
0	 2.800020000011600e+000	 9.133320952629653e+000	 9.997664504047926e+000
0	 2.800020000011600e+000	 9.199981422001557e+000	 9.997984221535003e+000
0	 2.800020000011599e+000	 9.266642024687796e+000	 9.998260615160650e+000
0	 2.800020000011600e+000	 9.333302777352783e+000	 9.998496041657869e+000
0	 2.866680000008067e+000	 8.666700000016665e+000	 9.995575657478154e+000
0	 2.866680000008066e+000	 8.733360002791903e+000	 9.996120525616597e+000
0	 2.866680000008067e+000	 8.800020022230553e+000	 9.996612253768006e+000
0	 2.866680000008066e+000	 8.866680074997040e+000	 9.997053218918437e+000
0	 2.866680000008067e+000	 8.933340177755778e+000	 9.997445798160458e+000
0	 2.866680000008067e+000	 9.000000347171184e+000	 9.997792368693116e+000
0	 2.866680000008066e+000	 9.066660599907666e+000	 9.998095307821963e+000
0	 2.866680000008067e+000	 9.133320952629656e+000	 9.998356992959021e+000
0	 2.866680000008067e+000	 9.199981422001558e+000	 9.998579801622759e+000
0	 2.866680000008067e+000	 9.266642024687798e+000	 9.998766111438149e+000
0	 2.866680000008067e+000	 9.333302777352783e+000	 9.998918300136607e+000
0	 2.933340000004133e+000	 8.666700000016666e+000	 9.997126398042241e+000
0	 2.933340000004133e+000	 8.733360002791905e+000	 9.997521862948352e+000
0	 2.933340000004133e+000	 8.800020022230555e+000	 9.997872532721491e+000
0	 2.933340000004133e+000	 8.866680074997042e+000	 9.998180699710565e+000
0	 2.933340000004133e+000	 8.933340177755776e+000	 9.998448656348954e+000
0	 2.933340000004133e+000	 9.000000347171181e+000	 9.998678695154393e+000
0	 2.933340000004133e+000	 9.066660599907667e+000	 9.998873108729075e+000
0	 2.933340000004133e+000	 9.133320952629653e+000	 9.999034189759573e+000
0	 2.933340000004133e+000	 9.199981422001558e+000	 9.999164231016881e+000
0	 2.933340000004133e+000	 9.266642024687798e+000	 9.999265525356366e+000
0	 2.933340000004133e+000	 9.333302777352783e+000	 9.999340365717744e+000
0	 3.000000000000001e+000	 8.666700000016666e+000	 9.998659661312287e+000
0	 3.000000000000000e+000	 8.733360002791903e+000	 9.998902493911123e+000
0	 3.000000000000000e+000	 8.800020022230555e+000	 9.999110189961510e+000
0	 3.000000000000000e+000	 8.866680074997039e+000	 9.999284851395842e+000
0	 3.000000000000000e+000	 8.933340177755776e+000	 9.999428580207798e+000
0	 3.000000000000000e+000	 9.000000347171181e+000	 9.999543478452200e+000
0	 3.000000000000000e+000	 9.066660599907666e+000	 9.999631648245130e+000
0	 3.000000000000000e+000	 9.133320952629658e+000	 9.999695191763824e+000
0	 2.999999999999999e+000	 9.199981422001557e+000	 9.999736211246765e+000
0	 3.000000000000001e+000	 9.266642024687796e+000	 9.999756808993512e+000
0	 3.000000000000000e+000	 9.333302777352781e+000	 9.999759087364899e+000
0	 3.066659999995868e+000	 8.666700000016665e+000	 1.000016741231453e+001
0	 3.066659999995868e+000	 8.733360002791901e+000	 1.000025646344480e+001
0	 3.066659999995868e+000	 8.800020022230557e+000	 1.000032099667039e+001
0	 3.066659999995867e+000	 8.866680074997042e+000	 1.000036281772700e+001
0	 3.066659999995867e+000	 8.933340177755779e+000	 1.000038373238767e+001
0	 3.066659999995868e+000	 9.000000347171181e+000	 1.000038554646292e+001
0	 3.066659999995868e+000	 9.066660599907667e+000	 1.000037006580061e+001
0	 3.066659999995867e+000	 9.133320952629655e+000	 1.000033909628600e+001
0	 3.066659999995868e+000	 9.199981422001562e+000	 1.000029444384174e+001
0	 3.066659999995867e+000	 9.266642024687794e+000	 1.000023791442781e+001
0	 3.066659999995867e+000	 9.333302777352781e+000	 1.000017131404158e+001
0	 3.133319999991935e+000	 8.666700000016668e+000	 1.000164161607517e+001
0	 3.133319999991934e+000	 8.733360002791903e+000	 1.000157781648923e+001
0	 3.133319999991934e+000	 8.800020022230555e+000	 1.000150072403049e+001
0	 3.133319999991934e+000	 8.866680074997040e+000	 1.000141174245674e+001
0	 3.133319999991933e+000	 8.933340177755776e+000	 1.000131227553928e+001
0	 3.133319999991934e+000	 9.000000347171183e+000	 1.000120372706293e+001
0	 3.133319999991934e+000	 9.066660599907669e+000	 1.000108750082600e+001
0	 3.133319999991933e+000	 9.133320952629653e+000	 1.000096500064033e+001
0	 3.133319999991934e+000	 9.199981422001557e+000	 1.000083763033122e+001
0	 3.133319999991934e+000	 9.266642024687799e+000	 1.000070679373748e+001
0	 3.133319999991934e+000	 9.333302777352783e+000	 1.000057389471141e+001
0	 3.199979999988401e+000	 8.666700000016668e+000	 1.000307423762047e+001
0	 3.199979999988400e+000	 8.733360002791901e+000	 1.000286059798428e+001
0	 3.199979999988401e+000	 8.800020022230557e+000	 1.000264514322411e+001
0	 3.199979999988401e+000	 8.866680074997042e+000	 1.000242876933782e+001
0	 3.199979999988400e+000	 8.933340177755778e+000	 1.000221237231330e+001
0	 3.199979999988401e+000	 9.000000347171181e+000	 1.000199684812858e+001
0	 3.199979999988401e+000	 9.066660599907667e+000	 1.000178309275178e+001
0	 3.199979999988400e+000	 9.133320952629653e+000	 1.000157200214102e+001
0	 3.199979999988402e+000	 9.199981422001560e+000	 1.000136447224459e+001
0	 3.199979999988400e+000	 9.266642024687794e+000	 1.000116139900077e+001
0	 3.199979999988401e+000	 9.333302777352785e+000	 1.000096367833790e+001
0	 3.266639999985467e+000	 8.666700000016666e+000	 1.000445724197662e+001
0	 3.266639999985467e+000	 8.733360002791901e+000	 1.000409885286982e+001
0	 3.266639999985468e+000	 8.800020022230555e+000	 1.000375002543361e+001
0	 3.266639999985467e+000	 8.866680074997042e+000	 1.000341104212295e+001
0	 3.266639999985468e+000	 8.933340177755778e+000	 1.000308218536042e+001
0	 3.266639999985468e+000	 9.000000347171181e+000	 1.000276373753627e+001
0	 3.266639999985468e+000	 9.066660599907667e+000	 1.000245598100838e+001
0	 3.266639999985468e+000	 9.133320952629656e+000	 1.000215919810232e+001
0	 3.266639999985468e+000	 9.199981422001562e+000	 1.000187367111120e+001
0	 3.266639999985468e+000	 9.266642024687798e+000	 1.000159968229583e+001
0	 3.266639999985468e+000	 9.333302777352785e+000	 1.000133751388465e+001
0	 3.333299999983334e+000	 8.666700000016668e+000	 1.000578259416988e+001
0	 3.333299999983334e+000	 8.733360002791903e+000	 1.000528662608572e+001
0	 3.333299999983334e+000	 8.800020022230553e+000	 1.000481114184133e+001
0	 3.333299999983334e+000	 8.866680074997039e+000	 1.000435570456487e+001
0	 3.333299999983334e+000	 8.933340177755779e+000	 1.000391987733131e+001
0	 3.333299999983333e+000	 9.000000347171181e+000	 1.000350322316234e+001
0	 3.333299999983334e+000	 9.066660599907667e+000	 1.000310530502634e+001
0	 3.333299999983335e+000	 9.133320952629656e+000	 1.000272568583842e+001
0	 3.333299999983333e+000	 9.199981422001558e+000	 1.000236392846044e+001
0	 3.333299999983334e+000	 9.266642024687796e+000	 1.000201959570095e+001
0	 3.333299999983334e+000	 9.333302777352785e+000	 1.000169225031521e+001
0	 2.666700000016666e+000	 9.333302777352785e+000	 9.997663550153451e+000
0	 2.666700000016666e+000	 9.399973674588178e+000	 9.998047601253342e+000
0	 2.666700000016666e+000	 9.466644621844617e+000	 9.998401259480479e+000
0	 2.666700000016666e+000	 9.533315502450000e+000	 9.998724735827196e+000
0	 2.666700000016666e+000	 9.599986199732197e+000	 9.999018240351832e+000
0	 2.666700000016667e+000	 9.666656597019095e+000	 9.999281982178244e+000
0	 2.666700000016666e+000	 9.733326577638575e+000	 9.999516169495477e+000
0	 2.666700000016667e+000	 9.799996024918521e+000	 9.999721009557126e+000
0	 2.666700000016666e+000	 9.866664822186822e+000	 9.999896708681051e+000
0	 2.666700000016666e+000	 9.933332852771351e+000	 1.000004347224866e+001
0	 2.666700000016666e+000	 1.000000000000000e+001	 1.000016150470449e+001
0	 2.733360000014533e+000	 9.333302777352785e+000	 9.998076741318016e+000
0	 2.733360000014533e+000	 9.399973674588175e+000	 9.998371393776516e+000
0	 2.733360000014533e+000	 9.466644621844619e+000	 9.998648503395136e+000
0	 2.733360000014533e+000	 9.533315502450000e+000	 9.998907177538742e+000
0	 2.733360000014532e+000	 9.599986199732195e+000	 9.999146522847376e+000
0	 2.733360000014533e+000	 9.666656597019092e+000	 9.999365645235619e+000
0	 2.733360000014533e+000	 9.733326577638577e+000	 9.999563649892204e+000
0	 2.733360000014533e+000	 9.799996024918524e+000	 9.999739641279639e+000
0	 2.733360000014532e+000	 9.866664822186822e+000	 9.999892723133659e+000
0	 2.733360000014533e+000	 9.933332852771352e+000	 1.000002199846288e+001
0	 2.733360000014533e+000	 1.000000000000000e+001	 1.000012656954801e+001
0	 2.800020000011600e+000	 9.333302777352783e+000	 9.998496041657869e+000
0	 2.800020000011599e+000	 9.399973674588173e+000	 9.998709015160465e+000
0	 2.800020000011600e+000	 9.466644621844619e+000	 9.998915190894907e+000
0	 2.800020000011600e+000	 9.533315502450002e+000	 9.999112734014346e+000
0	 2.800020000011601e+000	 9.599986199732197e+000	 9.999299809136387e+000
0	 2.800020000011600e+000	 9.666656597019092e+000	 9.999474580342552e+000
0	 2.800020000011600e+000	 9.733326577638575e+000	 9.999635211178021e+000
0	 2.800020000011599e+000	 9.799996024918523e+000	 9.999779864651119e+000
0	 2.800020000011600e+000	 9.866664822186820e+000	 9.999906703232826e+000
0	 2.800020000011600e+000	 9.933332852771352e+000	 1.000001388885635e+001
0	 2.800020000011600e+000	 1.000000000000000e+001	 1.000009958291677e+001
0	 2.866680000008067e+000	 9.333302777352783e+000	 9.998918300136607e+000
0	 2.866680000008067e+000	 9.399973674588178e+000	 9.999056171019257e+000
0	 2.866680000008066e+000	 9.466644621844619e+000	 9.999196157815826e+000
0	 2.866680000008066e+000	 9.533315502450000e+000	 9.999335644878830e+000
0	 2.866680000008067e+000	 9.599986199732197e+000	 9.999472016197780e+000
0	 2.866680000008066e+000	 9.666656597019095e+000	 9.999602655398777e+000
0	 2.866680000008066e+000	 9.733326577638572e+000	 9.999724945744150e+000
0	 2.866680000008067e+000	 9.799996024918524e+000	 9.999836270132001e+000
0	 2.866680000008067e+000	 9.866664822186822e+000	 9.999934011095798e+000
0	 2.866680000008066e+000	 9.933332852771354e+000	 1.000001555080377e+001
0	 2.866680000008067e+000	 1.000000000000000e+001	 1.000007827105897e+001
0	 2.933340000004133e+000	 9.333302777352783e+000	 9.999340365717742e+000
0	 2.933340000004133e+000	 9.399973674588175e+000	 9.999408566967018e+000
0	 2.933340000004133e+000	 9.466644621844619e+000	 9.999486239993937e+000
0	 2.933340000004134e+000	 9.533315502450002e+000	 9.999570149757052e+000
0	 2.933340000004133e+000	 9.599986199732197e+000	 9.999657061010566e+000
0	 2.933340000004133e+000	 9.666656597019093e+000	 9.999743738304012e+000
0	 2.933340000004134e+000	 9.733326577638575e+000	 9.999826945981761e+000
0	 2.933340000004133e+000	 9.799996024918521e+000	 9.999903448182705e+000
0	 2.933340000004133e+000	 9.866664822186820e+000	 9.999970008839890e+000
0	 2.933340000004133e+000	 9.933332852771354e+000	 1.000002339167997e+001
0	 2.933340000004133e+000	 1.000000000000000e+001	 1.000006036022285e+001
0	 3.000000000000000e+000	 9.333302777352781e+000	 9.999759087364899e+000
0	 3.000000000000001e+000	 9.399973674588180e+000	 9.999761908617845e+000
0	 3.000000000000000e+000	 9.466644621844623e+000	 9.999780273265239e+000
0	 3.000000000000000e+000	 9.533315502450000e+000	 9.999810488273859e+000
0	 3.000000000000001e+000	 9.599986199732197e+000	 9.999848860553783e+000
0	 3.000000000000000e+000	 9.666656597019092e+000	 9.999891696957954e+000
0	 3.000000000000000e+000	 9.733326577638575e+000	 9.999935304282037e+000
0	 3.000000000000000e+000	 9.799996024918523e+000	 9.999975989263724e+000
0	 3.000000000000000e+000	 9.866664822186822e+000	 1.000001005858258e+001
0	 3.000000000000001e+000	 9.933332852771352e+000	 1.000003381885948e+001
0	 3.000000000000000e+000	 1.000000000000000e+001	 1.000004357665642e+001
0	 3.066659999995867e+000	 9.333302777352781e+000	 1.000017131404158e+001
0	 3.066659999995867e+000	 9.399973674588175e+000	 1.000011190158588e+001
0	 3.066659999995868e+000	 9.466644621844619e+000	 1.000007309346581e+001
0	 3.066659999995868e+000	 9.533315502450002e+000	 1.000005090005412e+001
0	 3.066659999995867e+000	 9.599986199732197e+000	 1.000004133180632e+001
0	 3.066659999995867e+000	 9.666656597019090e+000	 1.000004039926034e+001
0	 3.066659999995868e+000	 9.733326577638577e+000	 1.000004411303614e+001
0	 3.066659999995868e+000	 9.799996024918524e+000	 1.000004848383539e+001
0	 3.066659999995867e+000	 9.866664822186822e+000	 1.000004952244112e+001
0	 3.066659999995868e+000	 9.933332852771354e+000	 1.000004323971711e+001
0	 3.066659999995866e+000	 9.999999999999998e+000	 1.000002564660805e+001
0	 3.133319999991934e+000	 9.333302777352783e+000	 1.000057389471141e+001
0	 3.133319999991933e+000	 9.399973674588175e+000	 1.000045425148520e+001
0	 3.133319999991933e+000	 9.466644621844619e+000	 1.000035953643163e+001
0	 3.133319999991935e+000	 9.533315502450002e+000	 1.000028562472265e+001
0	 3.133319999991934e+000	 9.599986199732195e+000	 1.000022839174722e+001
0	 3.133319999991934e+000	 9.666656597019097e+000	 1.000018371311082e+001
0	 3.133319999991934e+000	 9.733326577638579e+000	 1.000014746463528e+001
0	 3.133319999991935e+000	 9.799996024918523e+000	 1.000011552235827e+001
0	 3.133319999991934e+000	 9.866664822186820e+000	 1.000008376253289e+001
0	 3.133319999991934e+000	 9.933332852771354e+000	 1.000004806162762e+001
0	 3.133319999991934e+000	 1.000000000000000e+001	 1.000000429632572e+001
0	 3.199979999988401e+000	 9.333302777352785e+000	 1.000096367833790e+001
0	 3.199979999988400e+000	 9.399973674588173e+000	 1.000078466392998e+001
0	 3.199979999988400e+000	 9.466644621844617e+000	 1.000063443799877e+001
0	 3.199979999988400e+000	 9.533315502449998e+000	 1.000050890190434e+001
0	 3.199979999988401e+000	 9.599986199732197e+000	 1.000040395735545e+001
0	 3.199979999988401e+000	 9.666656597019095e+000	 1.000031550640919e+001
0	 3.199979999988401e+000	 9.733326577638577e+000	 1.000023945147067e+001
0	 3.199979999988401e+000	 9.799996024918523e+000	 1.000017169529266e+001
0	 3.199979999988401e+000	 9.866664822186822e+000	 1.000010814097528e+001
0	 3.199979999988401e+000	 9.933332852771354e+000	 1.000004469196571e+001
0	 3.199979999988401e+000	 1.000000000000000e+001	 9.999977252057674e+000
0	 3.266639999985468e+000	 9.333302777352785e+000	 1.000133751388465e+001
0	 3.266639999985467e+000	 9.399973674588177e+000	 1.000109884453425e+001
0	 3.266639999985468e+000	 9.466644621844621e+000	 1.000089263400322e+001
0	 3.266639999985468e+000	 9.533315502450002e+000	 1.000071497122402e+001
0	 3.266639999985468e+000	 9.599986199732198e+000	 1.000056194561000e+001
0	 3.266639999985468e+000	 9.666656597019095e+000	 1.000042964705508e+001
0	 3.266639999985468e+000	 9.733326577638573e+000	 1.000031416593343e+001
0	 3.266639999985468e+000	 9.799996024918523e+000	 1.000021159309905e+001
0	 3.266639999985468e+000	 9.866664822186822e+000	 1.000011801988556e+001
0	 3.266639999985468e+000	 9.933332852771354e+000	 1.000002953810595e+001
0	 3.266639999985468e+000	 1.000000000000000e+001	 9.999942240052087e+000
0	 3.333299999983334e+000	 9.333302777352785e+000	 1.000169225031521e+001
0	 3.333299999983334e+000	 9.399973674588177e+000	 1.000139249891219e+001
0	 3.333299999983334e+000	 9.466644621844619e+000	 1.000112896028104e+001
0	 3.333299999983334e+000	 9.533315502450002e+000	 1.000089807230652e+001
0	 3.333299999983333e+000	 9.599986199732197e+000	 1.000069627348984e+001
0	 3.333299999983334e+000	 9.666656597019093e+000	 1.000052000294825e+001
0	 3.333299999983334e+000	 9.733326577638577e+000	 1.000036570041478e+001
0	 3.333299999983334e+000	 9.799996024918524e+000	 1.000022980623790e+001
0	 3.333299999983334e+000	 9.866664822186822e+000	 1.000010876138120e+001
0	 3.333299999983333e+000	 9.933332852771354e+000	 9.999999007423250e+000
0	 3.333299999983334e+000	 1.000000000000000e+001	 9.999896986557141e+000
0	 3.333299999983334e+000	 0.000000000000000e+000	-6.423485364141743e+001
0	 3.333299999983333e+000	 6.666714722864756e-002	-5.402324266894262e+001
0	 3.333299999983333e+000	 1.333351778131789e-001	-4.458844220272519e+001
0	 3.333299999983334e+000	 2.000039750814772e-001	-3.590993125187408e+001
0	 3.333299999983334e+000	 2.666734223614256e-001	-2.796719419173274e+001
0	 3.333299999983334e+000	 3.333434029809069e-001	-2.073972076265189e+001
0	 3.333299999983334e+000	 4.000138002678044e-001	-1.420700606890327e+001
0	 3.333299999983333e+000	 4.666844975500011e-001	-8.348550577734034e+000
0	 3.333299999983335e+000	 5.333553781553803e-001	-3.143860118562292e+000
0	 3.333299999983334e+000	 6.000263254118248e-001	 1.427554117686906e+000
0	 3.333299999983334e+000	 6.666972226472175e-001	 5.386175579104678e+000
0	 3.399969999982150e+000	 0.000000000000000e+000	-5.589123875799179e+001
0	 3.399969999982149e+000	 6.666714722864757e-002	-4.696400617922646e+001
0	 3.399969999982150e+000	 1.333351778131789e-001	-3.867709350715087e+001
0	 3.399969999982150e+000	 2.000039750814772e-001	-3.101918340817903e+001
0	 3.399969999982149e+000	 2.666734223614254e-001	-2.397896351312666e+001
0	 3.399969999982150e+000	 3.333434029809069e-001	-1.754512641608150e+001
0	 3.399969999982150e+000	 4.000138002678045e-001	-1.170636967340395e+001
0	 3.399969999982150e+000	 4.666844975500012e-001	-6.451395802857946e+000
0	 3.399969999982150e+000	 5.333553781553803e-001	-1.768912282872194e+000
0	 3.399969999982150e+000	 6.000263254118246e-001	 2.352368448068352e+000
0	 3.399969999982150e+000	 6.666972226472177e-001	 5.923728991900879e+000
0	 3.466639999981865e+000	 0.000000000000000e+000	-4.769376687945650e+001
0	 3.466639999981866e+000	 6.666714722864756e-002	-4.001582080654413e+001
0	 3.466639999981865e+000	 1.333351778131789e-001	-3.285070069837799e+001
0	 3.466639999981866e+000	 2.000039750814772e-001	-2.619498296735243e+001
0	 3.466639999981866e+000	 2.666734223614255e-001	-2.004524854317184e+001
0	 3.466639999981866e+000	 3.333434029809069e-001	-1.439808287182633e+001
0	 3.466639999981866e+000	 4.000138002678044e-001	-9.250075914685903e+000
0	 3.466639999981866e+000	 4.666844975500011e-001	-4.597822147713497e+000
0	 3.466639999981866e+000	 5.333553781553801e-001	-4.379205607962137e-001
0	 3.466639999981866e+000	 6.000263254118248e-001	 3.233025342804706e+000
0	 3.466639999981866e+000	 6.666972226472177e-001	 6.418407546885494e+000
0	 3.533309999982383e+000	 0.000000000000000e+000	-3.973764695217983e+001
0	 3.533309999982382e+000	 6.666714722864756e-002	-3.325857656613595e+001
0	 3.533309999982382e+000	 1.333351778131790e-001	-2.717505140656926e+001
0	 3.533309999982383e+000	 2.000039750814773e-001	-2.149023160132780e+001
0	 3.533309999982383e+000	 2.666734223614256e-001	-1.620728131599707e+001
0	 3.533309999982382e+000	 3.333434029809068e-001	-1.132936875298643e+001
0	 3.533309999982383e+000	 4.000138002678045e-001	-6.859666150721469e+000
0	 3.533309999982382e+000	 4.666844975500012e-001	-2.801349782942405e+000
0	 3.533309999982382e+000	 5.333553781553801e-001	 8.424000418914881e-001
0	 3.533309999982382e+000	 6.000263254118247e-001	 4.068398981091689e+000
0	 3.533309999982382e+000	 6.666972226472177e-001	 6.873458658124139e+000
0	 3.599979999983598e+000	 0.000000000000000e+000	-3.211808792253290e+001
0	 3.599979999983598e+000	 6.666714722864756e-002	-2.677216347324456e+001
0	 3.599979999983598e+000	 1.333351778131789e-001	-2.171593326188908e+001
0	 3.599979999983600e+000	 2.000039750814772e-001	-1.695783098203977e+001
0	 3.599979999983600e+000	 2.666734223614256e-001	-1.250629386573190e+001
0	 3.599979999983598e+000	 3.333434029809068e-001	-8.369762682662504e+000
0	 3.599979999983598e+000	 4.000138002678043e-001	-4.556681739483387e+000
0	 3.599979999983598e+000	 4.666844975500011e-001	-1.075498879186632e+000
0	 3.599979999983599e+000	 5.333553781553801e-001	 2.065334519416634e+000
0	 3.599979999983598e+000	 6.000263254118247e-001	 4.857363542124983e+000
0	 3.599979999983599e+000	 6.666972226472178e-001	 7.292129739682393e+000
0	 3.666649999985415e+000	 0.000000000000000e+000	-2.493029873688986e+001
0	 3.666649999985415e+000	 6.666714722864756e-002	-2.063647154311487e+001
0	 3.666649999985415e+000	 1.333351778131789e-001	-1.653913389450356e+001
0	 3.666649999985416e+000	 2.000039750814773e-001	-1.265068278142428e+001
0	 3.666649999985415e+000	 2.666734223614255e-001	-8.983518226506737e+000
0	 3.666649999985414e+000	 3.333434029809068e-001	-5.550043283955792e+000
0	 3.666649999985415e+000	 4.000138002678044e-001	-2.362664038944768e+000
0	 3.666649999985415e+000	 4.666844975500012e-001	 5.662103929116620e-001
0	 3.666649999985415e+000	 5.333553781553803e-001	 3.224167866004856e+000
0	 3.666649999985415e+000	 6.000263254118246e-001	 5.598793205100288e+000
0	 3.666649999985416e+000	 6.666972226472177e-001	 7.677668205625854e+000
0	 3.733319999987732e+000	 0.000000000000000e+000	-1.826948834162784e+001
0	 3.733319999987730e+000	 6.666714722864754e-002	-1.493139079099405e+001
0	 3.733319999987731e+000	 1.333351778131789e-001	-1.171044093458054e+001
0	 3.733319999987732e+000	 2.000039750814773e-001	-8.621688671418458e+000
0	 3.733319999987731e+000	 2.666734223614256e-001	-5.680186432452910e+000
0	 3.733319999987732e+000	 3.333434029809069e-001	-2.900989179968075e+000
0	 3.733319999987732e+000	 4.000138002678044e-001	-2.991544070790235e-001
0	 3.733319999987732e+000	 4.666844975500011e-001	 2.110257862710135e+000
0	 3.733319999987732e+000	 5.333553781553803e-001	 4.312185075881681e+000
0	 3.733319999987731e+000	 6.000263254118247e-001	 6.291562149213196e+000
0	 3.733319999987732e+000	 6.666972226472177e-001	 8.033321470020139e+000
0	 3.799989999990448e+000	 0.000000000000000e+000	-1.223086568312692e+001
0	 3.799989999990448e+000	 6.666714722864756e-002	-9.736811232131570e+000
0	 3.799989999990448e+000	 1.333351778131790e-001	-7.295642012289514e+000
0	 3.799989999990448e+000	 2.000039750814773e-001	-4.923750323960726e+000
0	 3.799989999990448e+000	 2.666734223614256e-001	-2.637530517702589e+000
0	 3.799989999990449e+000	 3.333434029809070e-001	-4.533789938017557e-001
0	 3.799989999990448e+000	 4.000138002678043e-001	 1.612305798139965e+000
0	 3.799989999990448e+000	 4.666844975500011e-001	 3.543123359566218e+000
0	 3.799989999990449e+000	 5.333553781553804e-001	 5.322671143272523e+000
0	 3.799989999990448e+000	 6.000263254118246e-001	 6.934544553659290e+000
0	 3.799989999990448e+000	 6.666972226472178e-001	 8.362336946930826e+000
0	 3.866659999993465e+000	 0.000000000000000e+000	-6.909639707770149e+000
0	 3.866659999993464e+000	 6.666714722864754e-002	-5.132622881779168e+000
0	 3.866659999993465e+000	 1.333351778131789e-001	-3.360524757801717e+000
0	 3.866659999993465e+000	 2.000039750814773e-001	-1.609769410990672e+000
0	 3.866659999993464e+000	 2.666734223614255e-001	 1.032174836112272e-001
0	 3.866659999993465e+000	 3.333434029809068e-001	 1.762008651440198e+000
0	 3.866659999993466e+000	 4.000138002678045e-001	 3.350175218738084e+000
0	 3.866659999993465e+000	 4.666844975500012e-001	 4.851286712837122e+000
0	 3.866659999993464e+000	 5.333553781553800e-001	 6.248911062402698e+000
0	 3.866659999993466e+000	 6.000263254118247e-001	 7.526614597634140e+000
0	 3.866659999993465e+000	 6.666972226472177e-001	 8.667962050423533e+000
0	 3.933329999996682e+000	 0.000000000000000e+000	-2.401019361943567e+000
0	 3.933329999996682e+000	 6.666714722864757e-002	-1.198715755190852e+000
0	 3.933329999996682e+000	 1.333351778131790e-001	 2.912319870994557e-002
0	 3.933329999996681e+000	 2.000039750814773e-001	 1.267352395550823e+000
0	 3.933329999996681e+000	 2.666734223614255e-001	 2.500825537354612e+000
0	 3.933329999996682e+000	 3.333434029809070e-001	 3.714395132654247e+000
0	 3.933329999996681e+000	 4.000138002678044e-001	 4.892912496740739e+000
0	 3.933329999996682e+000	 4.666844975500011e-001	 6.021227751879863e+000
0	 3.933329999996682e+000	 5.333553781553801e-001	 7.084189827497409e+000
0	 3.933329999996682e+000	 6.000263254118247e-001	 8.066646460333219e+000
0	 3.933329999996682e+000	 6.666972226472177e-001	 8.953444194563865e+000
0	 4.000000000000000e+000	 0.000000000000000e+000	 1.199786407963931e+000
0	 4.000000000000001e+000	 6.666714722864757e-002	 1.985020132377184e+000
0	 4.000000000000001e+000	 1.333351778131790e-001	 2.807514227070914e+000
0	 4.000000000000000e+000	 2.000039750814772e-001	 3.654713423721756e+000
0	 4.000000000000001e+000	 2.666734223614255e-001	 4.514061609392882e+000
0	 3.999999999999999e+000	 3.333434029809068e-001	 5.373001826736306e+000
0	 4.000000000000000e+000	 4.000138002678045e-001	 6.218976274173083e+000
0	 4.000000000000000e+000	 4.666844975500011e-001	 7.039426306051275e+000
0	 4.000000000000000e+000	 5.333553781553803e-001	 7.821792432781777e+000
0	 4.000000000000001e+000	 6.000263254118247e-001	 8.553514320952020e+000
0	 4.000000000000000e+000	 6.666972226472175e-001	 9.222030793417442e+000
0	 3.333299999983334e+000	 6.666972226472175e-001	 5.386175579104677e+000
0	 3.333299999983334e+000	 7.333579753122049e-001	 8.848343362082664e+000
0	 3.333299999983334e+000	 8.000185779984418e-001	 1.192376061748782e+001
0	 3.333299999983334e+000	 8.666790473703455e-001	 1.462130671682157e+001
0	 3.333299999983334e+000	 9.333394000923322e-001	 1.694986150235014e+001
0	 3.333299999983334e+000	 9.999996528288189e-001	 1.891830528711819e+001
0	 3.333299999983335e+000	 1.066659822244222e+000	 2.053551885496074e+001
0	 3.333299999983334e+000	 1.133319925002958e+000	 2.181038346051306e+001
0	 3.333299999983334e+000	 1.199979977769445e+000	 2.275178082921906e+001
0	 3.333299999983334e+000	 1.266639997208098e+000	 2.336859315733782e+001
0	 3.333299999983334e+000	 1.333299999983334e+000	 2.366970311194831e+001
0	 3.399969999982150e+000	 6.666972226472177e-001	 5.923728991900878e+000
0	 3.399969999982150e+000	 7.333579753122047e-001	 9.049187303680812e+000
0	 3.399969999982150e+000	 8.000185779984420e-001	 1.183091696120900e+001
0	 3.399969999982150e+000	 8.666790473703454e-001	 1.427594560325196e+001
0	 3.399969999982150e+000	 9.333394000923322e-001	 1.639130129519750e+001
0	 3.399969999982150e+000	 9.999996528288190e-001	 1.818401252906714e+001
0	 3.399969999982150e+000	 1.066659822244222e+000	 1.966110822352677e+001
0	 3.399969999982150e+000	 1.133319925002958e+000	 2.082961772389573e+001
0	 3.399969999982150e+000	 1.199979977769445e+000	 2.169657080215442e+001
0	 3.399969999982150e+000	 1.266639997208098e+000	 2.226899765695017e+001
0	 3.399969999982149e+000	 1.333299999983334e+000	 2.255392891360152e+001
0	 3.466639999981866e+000	 6.666972226472177e-001	 6.418407546885494e+000
0	 3.466639999981867e+000	 7.333579753122049e-001	 9.209098907374912e+000
0	 3.466639999981866e+000	 8.000185779984418e-001	 1.169817547339686e+001
0	 3.466639999981866e+000	 8.666790473703452e-001	 1.389100630820252e+001
0	 3.466639999981866e+000	 9.333394000923321e-001	 1.579296085690316e+001
0	 3.466639999981866e+000	 9.999996528288189e-001	 1.740940894648142e+001
0	 3.466639999981866e+000	 1.066659822244222e+000	 1.874572078580076e+001
0	 3.466639999981866e+000	 1.133319925002959e+000	 1.980726696561363e+001
0	 3.466639999981866e+000	 1.199979977769445e+000	 2.059941845856832e+001
0	 3.466639999981867e+000	 1.266639997208098e+000	 2.112754661921414e+001
0	 3.466639999981866e+000	 1.333299999983334e+000	 2.139702318400536e+001
0	 3.533309999982382e+000	 6.666972226472177e-001	 6.873458658124139e+000
0	 3.533309999982382e+000	 7.333579753122047e-001	 9.334878796087416e+000
0	 3.533309999982382e+000	 8.000185779984416e-001	 1.153546699626700e+001
0	 3.533309999982383e+000	 8.666790473703456e-001	 1.347912689857418e+001
0	 3.533309999982382e+000	 9.333394000923320e-001	 1.516976248003602e+001
0	 3.533309999982383e+000	 9.999996528288191e-001	 1.661127805480546e+001
0	 3.533309999982382e+000	 1.066659822244222e+000	 1.780757827416946e+001
0	 3.533309999982382e+000	 1.133319925002958e+000	 1.876256812655645e+001
0	 3.533309999982382e+000	 1.199979977769445e+000	 1.948015293754223e+001
0	 3.533309999982383e+000	 1.266639997208098e+000	 1.996423836985467e+001
0	 3.533309999982381e+000	 1.333299999983334e+000	 2.021873042337710e+001
0	 3.599979999983599e+000	 6.666972226472178e-001	 7.292129739682393e+000
0	 3.599979999983600e+000	 7.333579753122049e-001	 9.433327592740815e+000
0	 3.599979999983598e+000	 8.000185779984416e-001	 1.135272237203503e+001
0	 3.599979999983598e+000	 8.666790473703452e-001	 1.305294544126788e+001
0	 3.599979999983598e+000	 9.333394000923321e-001	 1.453662845716507e+001
0	 3.599979999983599e+000	 9.999996528288191e-001	 1.580640336948369e+001
0	 3.599979999983598e+000	 1.066659822244222e+000	 1.686490242101962e+001
0	 3.599979999983599e+000	 1.133319925002959e+000	 1.771475814761383e+001
0	 3.599979999983598e+000	 1.199979977769445e+000	 1.835860337815760e+001
0	 3.599979999983598e+000	 1.266639997208098e+000	 1.879907123459660e+001
0	 3.599979999983598e+000	 1.333299999983334e+000	 1.903879513193389e+001
0	 3.666649999985416e+000	 6.666972226472177e-001	 7.677668205625856e+000
0	 3.666649999985415e+000	 7.333579753122047e-001	 9.511245920257643e+000
0	 3.666649999985415e+000	 8.000185779984416e-001	 1.115987244291663e+001
0	 3.666649999985415e+000	 8.666790473703450e-001	 1.262510000318470e+001
0	 3.666649999985415e+000	 9.333394000923321e-001	 1.390848108085929e+001
0	 3.666649999985415e+000	 9.999996528288190e-001	 1.501156840596060e+001
0	 3.666649999985415e+000	 1.066659822244222e+000	 1.593591495873802e+001
0	 3.666649999985415e+000	 1.133319925002959e+000	 1.668307396967546e+001
0	 3.666649999985415e+000	 1.199979977769445e+000	 1.725459891949588e+001
0	 3.666649999985415e+000	 1.266639997208098e+000	 1.765204353916477e+001
0	 3.666649999985415e+000	 1.333299999983333e+000	 1.787696180989282e+001
0	 3.733319999987732e+000	 6.666972226472177e-001	 8.033321470020141e+000
0	 3.733319999987732e+000	 7.333579753122047e-001	 9.575434401560447e+000
0	 3.733319999987731e+000	 8.000185779984413e-001	 1.096684805112748e+001
0	 3.733319999987732e+000	 8.666790473703451e-001	 1.220822865122567e+001
0	 3.733319999987732e+000	 9.333394000923323e-001	 1.330024264368773e+001
0	 3.733319999987732e+000	 9.999996528288190e-001	 1.424355667968072e+001
0	 3.733319999987732e+000	 1.066659822244222e+000	 1.503883761971145e+001
0	 3.733319999987731e+000	 1.133319925002959e+000	 1.568675253363099e+001
0	 3.733319999987731e+000	 1.199979977769445e+000	 1.618796870063845e+001
0	 3.733319999987732e+000	 1.266639997208098e+000	 1.654315360928398e+001
0	 3.733319999987732e+000	 1.333299999983334e+000	 1.675297495747098e+001
0	 3.799989999990448e+000	 6.666972226472178e-001	 8.362336946930826e+000
0	 3.799989999990447e+000	 7.333579753122048e-001	 9.632693659571805e+000
0	 3.799989999990448e+000	 8.000185779984416e-001	 1.078358003888336e+001
0	 3.799989999990448e+000	 8.666790473703453e-001	 1.181496945229193e+001
0	 3.799989999990449e+000	 9.333394000923323e-001	 1.272683543821949e+001
0	 3.799989999990448e+000	 9.999996528288186e-001	 1.351915170608859e+001
0	 3.799989999990448e+000	 1.066659822244222e+000	 1.419189213632672e+001
0	 3.799989999990448e+000	 1.133319925002958e+000	 1.474503078037006e+001
0	 3.799989999990448e+000	 1.199979977769445e+000	 1.517854186066670e+001
0	 3.799989999990448e+000	 1.266639997208098e+000	 1.549239977067897e+001
0	 3.799989999990448e+000	 1.333299999983334e+000	 1.568657907488529e+001
0	 3.866659999993465e+000	 6.666972226472177e-001	 8.667962050423533e+000
0	 3.866659999993465e+000	 7.333579753122048e-001	 9.689824317214326e+000
0	 3.866659999993465e+000	 8.000185779984417e-001	 1.061999924840005e+001
0	 3.866659999993465e+000	 8.666790473703453e-001	 1.145796047328462e+001
0	 3.866659999993466e+000	 9.333394000923324e-001	 1.220318175702371e+001
0	 3.866659999993465e+000	 9.999996528288191e-001	 1.285513700062879e+001
0	 3.866659999993465e+000	 1.066659822244222e+000	 1.341330024097063e+001
0	 3.866659999993465e+000	 1.133319925002958e+000	 1.387714565078238e+001
0	 3.866659999993466e+000	 1.199979977769445e+000	 1.424614753866202e+001
0	 3.866659999993464e+000	 1.266639997208098e+000	 1.451978034907440e+001
0	 3.866659999993464e+000	 1.333299999983334e+000	 1.469751866235272e+001
0	 3.933329999996682e+000	 6.666972226472177e-001	 8.953444194563865e+000
0	 3.933329999996681e+000	 7.333579753122047e-001	 9.753626997410652e+000
0	 3.933329999996682e+000	 8.000185779984415e-001	 1.048603652189340e+001
0	 3.933329999996682e+000	 8.666790473703455e-001	 1.114983978110498e+001
0	 3.933329999996682e+000	 9.333394000923321e-001	 1.174420389266958e+001
0	 3.933329999996682e+000	 9.999996528288190e-001	 1.226829607874594e+001
0	 3.933329999996681e+000	 1.066659822244222e+000	 1.272128366603005e+001
0	 3.933329999996681e+000	 1.133319925002959e+000	 1.310233408575756e+001
0	 3.933329999996682e+000	 1.199979977769445e+000	 1.341061487370573e+001
0	 3.933329999996681e+000	 1.266639997208098e+000	 1.364529367019497e+001
0	 3.933329999996682e+000	 1.333299999983334e+000	 1.380553822009012e+001
0	 4.000000000000000e+000	 6.666972226472175e-001	 9.222030793417444e+000
0	 4.000000000000002e+000	 7.333579753122048e-001	 9.830902323083450e+000
0	 4.000000000000001e+000	 8.000185779984418e-001	 1.039162270157931e+001
0	 4.000000000000000e+000	 8.666790473703454e-001	 1.090324544265424e+001
0	 4.000000000000000e+000	 9.333394000923323e-001	 1.136482413772630e+001
0	 3.999999999999999e+000	 9.999996528288188e-001	 1.177541245588466e+001
0	 4.000000000000001e+000	 1.066659822244222e+000	 1.213406414389180e+001
0	 3.999999999999999e+000	 1.133319925002959e+000	 1.243983302618526e+001
0	 4.000000000000001e+000	 1.199979977769445e+000	 1.269177300487911e+001
0	 4.000000000000000e+000	 1.266639997208098e+000	 1.288893805976525e+001
0	 3.999999999999999e+000	 1.333299999983334e+000	 1.303038224831428e+001
0	 3.333299999983334e+000	 1.333299999983334e+000	 2.366970311194831e+001
0	 3.333299999983334e+000	 1.399969999982150e+000	 2.376604328912422e+001
0	 3.333299999983334e+000	 1.466639999981867e+000	 2.376249938449246e+001
0	 3.333299999983334e+000	 1.533309999982383e+000	 2.365894987305705e+001
0	 3.333299999983333e+000	 1.599979999983599e+000	 2.345527322982106e+001
0	 3.333299999983334e+000	 1.666649999985416e+000	 2.315134792978659e+001
0	 3.333299999983334e+000	 1.733319999987733e+000	 2.274705244795480e+001
0	 3.333299999983334e+000	 1.799989999990450e+000	 2.224226525932583e+001
0	 3.333299999983334e+000	 1.866659999993466e+000	 2.163686483889897e+001
0	 3.333299999983334e+000	 1.933329999996683e+000	 2.093072966167241e+001
0	 3.333299999983334e+000	 2.000000000000000e+000	 2.012373820264350e+001
0	 3.399969999982149e+000	 1.333299999983334e+000	 2.255392891360151e+001
0	 3.399969999982150e+000	 1.399969999982150e+000	 2.265021780250462e+001
0	 3.399969999982150e+000	 1.466639999981867e+000	 2.265207728696039e+001
0	 3.399969999982150e+000	 1.533309999982383e+000	 2.255964250530612e+001
0	 3.399969999982150e+000	 1.599979999983600e+000	 2.237304859587821e+001
0	 3.399969999982150e+000	 1.666649999985416e+000	 2.209243069701215e+001
0	 3.399969999982150e+000	 1.733319999987733e+000	 2.171792394704260e+001
0	 3.399969999982150e+000	 1.799989999990450e+000	 2.124966348430326e+001
0	 3.399969999982150e+000	 1.866659999993466e+000	 2.068778444712700e+001
0	 3.399969999982150e+000	 1.933329999996683e+000	 2.003242197384579e+001
0	 3.399969999982150e+000	 2.000000000000000e+000	 1.928371120279069e+001
0	 3.466639999981866e+000	 1.333299999983334e+000	 2.139702318400536e+001
0	 3.466639999981866e+000	 1.399969999982150e+000	 2.149460347590053e+001
0	 3.466639999981866e+000	 1.466639999981866e+000	 2.150365424676975e+001
0	 3.466639999981866e+000	 1.533309999982382e+000	 2.142452854290078e+001
0	 3.466639999981865e+000	 1.599979999983599e+000	 2.125757941058065e+001
0	 3.466639999981866e+000	 1.666649999985416e+000	 2.100315989609550e+001
0	 3.466639999981866e+000	 1.733319999987733e+000	 2.066162304573072e+001
0	 3.466639999981866e+000	 1.799989999990450e+000	 2.023332190577083e+001
0	 3.466639999981866e+000	 1.866659999993466e+000	 1.971860952249959e+001
0	 3.466639999981866e+000	 1.933329999996684e+000	 1.911783894219993e+001
0	 3.466639999981866e+000	 2.000000000000000e+000	 1.843136321115395e+001
0	 3.533309999982381e+000	 1.333299999983334e+000	 2.021873042337711e+001
0	 3.533309999982382e+000	 1.399969999982150e+000	 2.031843882893056e+001
0	 3.533309999982383e+000	 1.466639999981866e+000	 2.033588164460771e+001
0	 3.533309999982382e+000	 1.533309999982383e+000	 2.027159106926412e+001
0	 3.533309999982383e+000	 1.599979999983600e+000	 2.012609930175460e+001
0	 3.533309999982382e+000	 1.666649999985416e+000	 1.989993854093327e+001
0	 3.533309999982382e+000	 1.733319999987733e+000	 1.959364098565346e+001
0	 3.533309999982382e+000	 1.799989999990450e+000	 1.920773883476782e+001
0	 3.533309999982382e+000	 1.866659999993466e+000	 1.874276428712819e+001
0	 3.533309999982383e+000	 1.933329999996683e+000	 1.819924954158575e+001
0	 3.533309999982383e+000	 2.000000000000000e+000	 1.757772679699090e+001
0	 3.599979999983598e+000	 1.333299999983334e+000	 1.903879513193389e+001
0	 3.599979999983598e+000	 1.399969999982150e+000	 1.914096238121324e+001
0	 3.599979999983599e+000	 1.466639999981866e+000	 1.916741086116147e+001
0	 3.599979999983599e+000	 1.533309999982383e+000	 1.911881316781917e+001
0	 3.599979999983598e+000	 1.599979999983599e+000	 1.899584189722624e+001
0	 3.599979999983598e+000	 1.666649999985416e+000	 1.879916964542201e+001
0	 3.599979999983600e+000	 1.733319999987733e+000	 1.852946900844505e+001
0	 3.599979999983597e+000	 1.799989999990449e+000	 1.818741258233333e+001
0	 3.599979999983599e+000	 1.866659999993466e+000	 1.777367296312412e+001
0	 3.599979999983598e+000	 1.933329999996683e+000	 1.728892274685405e+001
0	 3.599979999983599e+000	 2.000000000000001e+000	 1.673383452955907e+001
0	 3.666649999985415e+000	 1.333299999983333e+000	 1.787696180989282e+001
0	 3.666649999985415e+000	 1.399969999982150e+000	 1.798141265236698e+001
0	 3.666649999985415e+000	 1.466639999981867e+000	 1.801689327711800e+001
0	 3.666649999985416e+000	 1.533309999982383e+000	 1.798417792198875e+001
0	 3.666649999985415e+000	 1.599979999983600e+000	 1.788404082482156e+001
0	 3.666649999985415e+000	 1.666649999985416e+000	 1.771725622345813e+001
0	 3.666649999985415e+000	 1.733319999987733e+000	 1.748459835573957e+001
0	 3.666649999985415e+000	 1.799989999990449e+000	 1.718684145950643e+001
0	 3.666649999985415e+000	 1.866659999993466e+000	 1.682475977259863e+001
0	 3.666649999985415e+000	 1.933329999996683e+000	 1.639912753285553e+001
0	 3.666649999985414e+000	 2.000000000000000e+000	 1.591071897811590e+001
0	 3.733319999987732e+000	 1.333299999983334e+000	 1.675297495747098e+001
0	 3.733319999987732e+000	 1.399969999982150e+000	 1.685902816201016e+001
0	 3.733319999987732e+000	 1.466639999981866e+000	 1.690298027316427e+001
0	 3.733319999987732e+000	 1.533309999982383e+000	 1.688566841519574e+001
0	 3.733319999987731e+000	 1.599979999983599e+000	 1.680792971236650e+001
0	 3.733319999987732e+000	 1.666649999985416e+000	 1.667060128893796e+001
0	 3.733319999987732e+000	 1.733319999987733e+000	 1.647452026917102e+001
0	 3.733319999987732e+000	 1.799989999990450e+000	 1.622052377732604e+001
0	 3.733319999987732e+000	 1.866659999993466e+000	 1.590944893766286e+001
0	 3.733319999987732e+000	 1.933329999996683e+000	 1.554213287444082e+001
0	 3.733319999987732e+000	 2.000000000000000e+000	 1.511941271191874e+001
0	 3.799989999990448e+000	 1.333299999983334e+000	 1.568657907488529e+001
0	 3.799989999990449e+000	 1.399969999982150e+000	 1.579304742976106e+001
0	 3.799989999990448e+000	 1.466639999981866e+000	 1.584432322998715e+001
0	 3.799989999990448e+000	 1.533309999982383e+000	 1.584126773086283e+001
0	 3.799989999990448e+000	 1.599979999983599e+000	 1.578474218768690e+001
0	 3.799989999990449e+000	 1.666649999985416e+000	 1.567560785575775e+001
0	 3.799989999990449e+000	 1.733319999987733e+000	 1.551472599037330e+001
0	 3.799989999990448e+000	 1.799989999990450e+000	 1.530295784683101e+001
0	 3.799989999990448e+000	 1.866659999993466e+000	 1.504116468042786e+001
0	 3.799989999990449e+000	 1.933329999996683e+000	 1.473020774646044e+001
0	 3.799989999990448e+000	 2.000000000000000e+000	 1.437094830022483e+001
0	 3.866659999993464e+000	 1.333299999983334e+000	 1.469751866235272e+001
0	 3.866659999993465e+000	 1.399969999982150e+000	 1.480270897523790e+001
0	 3.866659999993464e+000	 1.466639999981866e+000	 1.485957352827342e+001
0	 3.866659999993465e+000	 1.533309999982383e+000	 1.486895895241262e+001
0	 3.866659999993464e+000	 1.599979999983599e+000	 1.483171187860849e+001
0	 3.866659999993463e+000	 1.666649999985416e+000	 1.474867893781363e+001
0	 3.866659999993464e+000	 1.733319999987733e+000	 1.462070676098021e+001
0	 3.866659999993465e+000	 1.799989999990450e+000	 1.444864197906004e+001
0	 3.866659999993465e+000	 1.866659999993467e+000	 1.423333122300456e+001
0	 3.866659999993465e+000	 1.933329999996683e+000	 1.397562112376477e+001
0	 3.866659999993465e+000	 2.000000000000000e+000	 1.367635831229132e+001
0	 3.933329999996682e+000	 1.333299999983334e+000	 1.380553822009013e+001
0	 3.933329999996682e+000	 1.399969999982150e+000	 1.390725131805883e+001
0	 3.933329999996682e+000	 1.466639999981866e+000	 1.396738254870976e+001
0	 3.933329999996682e+000	 1.533309999982383e+000	 1.398672516326766e+001
0	 3.933329999996681e+000	 1.599979999983600e+000	 1.396607241295691e+001
0	 3.933329999996682e+000	 1.666649999985416e+000	 1.390621754900159e+001
0	 3.933329999996681e+000	 1.733319999987733e+000	 1.380795382262541e+001
0	 3.933329999996681e+000	 1.799989999990450e+000	 1.367207448505179e+001
0	 3.933329999996682e+000	 1.866659999993466e+000	 1.349937278750379e+001
0	 3.933329999996682e+000	 1.933329999996683e+000	 1.329064198120415e+001
0	 3.933329999996681e+000	 2.000000000000000e+000	 1.304667531737528e+001
0	 3.999999999999999e+000	 1.333299999983334e+000	 1.303038224831428e+001
0	 4.000000000000000e+000	 1.399969999982150e+000	 1.312591297784186e+001
0	 4.000000000000002e+000	 1.466639999981866e+000	 1.318640167198276e+001
0	 4.000000000000000e+000	 1.533309999982383e+000	 1.321254944685034e+001
0	 4.000000000000001e+000	 1.599979999983599e+000	 1.320505741855767e+001
0	 4.000000000000001e+000	 1.666649999985416e+000	 1.316462670321754e+001
0	 4.000000000000001e+000	 1.733319999987733e+000	 1.309195841694248e+001
0	 4.000000000000001e+000	 1.799989999990450e+000	 1.298775367584473e+001
0	 4.000000000000000e+000	 1.866659999993467e+000	 1.285271359603627e+001
0	 4.000000000000001e+000	 1.933329999996683e+000	 1.268753929362877e+001
0	 4.000000000000001e+000	 2.000000000000000e+000	 1.249293188473365e+001
0	 3.333299999983334e+000	 2.000000000000000e+000	 2.012373820264350e+001
0	 3.333299999983333e+000	 2.066670000003317e+000	 1.928653611828283e+001
0	 3.333299999983334e+000	 2.133340000006534e+000	 1.848936687982273e+001
0	 3.333299999983335e+000	 2.200010000009550e+000	 1.773150568440257e+001
0	 3.333299999983334e+000	 2.266680000012267e+000	 1.701222772916199e+001
0	 3.333299999983334e+000	 2.333350000014584e+000	 1.633080821124097e+001
0	 3.333299999983334e+000	 2.400020000016401e+000	 1.568652232777981e+001
0	 3.333299999983334e+000	 2.466690000017617e+000	 1.507864527591912e+001
0	 3.333299999983334e+000	 2.533360000018134e+000	 1.450645225279980e+001
0	 3.333299999983334e+000	 2.600030000017851e+000	 1.396921845556309e+001
0	 3.333299999983334e+000	 2.666700000016667e+000	 1.346621908135056e+001
0	 3.399969999982150e+000	 2.000000000000000e+000	 1.928371120279069e+001
0	 3.399969999982150e+000	 2.066670000003318e+000	 1.850755257144006e+001
0	 3.399969999982150e+000	 2.133340000006534e+000	 1.776931951651375e+001
0	 3.399969999982150e+000	 2.200010000009551e+000	 1.706835667520465e+001
0	 3.399969999982150e+000	 2.266680000012267e+000	 1.640400868470594e+001
0	 3.399969999982150e+000	 2.333350000014584e+000	 1.577562018221107e+001
0	 3.399969999982150e+000	 2.400020000016401e+000	 1.518253580491384e+001
0	 3.399969999982150e+000	 2.466690000017616e+000	 1.462410019000832e+001
0	 3.399969999982150e+000	 2.533360000018133e+000	 1.409965797468888e+001
0	 3.399969999982150e+000	 2.600030000017851e+000	 1.360855379615019e+001
0	 3.399969999982150e+000	 2.666700000016666e+000	 1.315013229158725e+001
0	 3.466639999981866e+000	 2.000000000000000e+000	 1.843136321115395e+001
0	 3.466639999981866e+000	 2.066670000003318e+000	 1.772010595486590e+001
0	 3.466639999981866e+000	 2.133340000006534e+000	 1.704436172631529e+001
0	 3.466639999981866e+000	 2.200010000009550e+000	 1.640353996299671e+001
0	 3.466639999981866e+000	 2.266680000012266e+000	 1.579705010240505e+001
0	 3.466639999981866e+000	 2.333350000014584e+000	 1.522430158203545e+001
0	 3.466639999981866e+000	 2.400020000016401e+000	 1.468470383938336e+001
0	 3.466639999981866e+000	 2.466690000017617e+000	 1.417766631194449e+001
0	 3.466639999981867e+000	 2.533360000018134e+000	 1.370259843721485e+001
0	 3.466639999981866e+000	 2.600030000017849e+000	 1.325890965269072e+001
0	 3.466639999981867e+000	 2.666700000016666e+000	 1.284600939586867e+001
0	 3.533309999982383e+000	 2.000000000000000e+000	 1.757772679699090e+001
0	 3.533309999982382e+000	 2.066670000003316e+000	 1.693398448591388e+001
0	 3.533309999982382e+000	 2.133340000006534e+000	 1.632310264038791e+001
0	 3.533309999982382e+000	 2.200010000009550e+000	 1.574455085845746e+001
0	 3.533309999982382e+000	 2.266680000012267e+000	 1.519779873816731e+001
0	 3.533309999982382e+000	 2.333350000014584e+000	 1.468231587756245e+001
0	 3.533309999982382e+000	 2.400020000016401e+000	 1.419757187468818e+001
0	 3.533309999982382e+000	 2.466690000017617e+000	 1.374303632759002e+001
0	 3.533309999982383e+000	 2.533360000018134e+000	 1.331817883431377e+001
0	 3.533309999982382e+000	 2.600030000017850e+000	 1.292246899290548e+001
0	 3.533309999982382e+000	 2.666700000016667e+000	 1.255537640141150e+001
0	 3.599979999983599e+000	 2.000000000000001e+000	 1.673383452955907e+001
0	 3.599979999983598e+000	 2.066670000003316e+000	 1.615897638193745e+001
0	 3.599979999983599e+000	 2.133340000006534e+000	 1.561415138989209e+001
0	 3.599979999983599e+000	 2.200010000009550e+000	 1.509888467226554e+001
0	 3.599979999983598e+000	 2.266680000012267e+000	 1.461270134790060e+001
0	 3.599979999983599e+000	 2.333350000014584e+000	 1.415512653564034e+001
0	 3.599979999983598e+000	 2.400020000016401e+000	 1.372568535432804e+001
0	 3.599979999983599e+000	 2.466690000017617e+000	 1.332390292280721e+001
0	 3.599979999983599e+000	 2.533360000018134e+000	 1.294930435992163e+001
0	 3.599979999983599e+000	 2.600030000017851e+000	 1.260141478451528e+001
0	 3.599979999983599e+000	 2.666700000016667e+000	 1.227975931543241e+001
0	 3.666649999985414e+000	 2.000000000000000e+000	 1.591071897811590e+001
0	 3.666649999985414e+000	 2.066670000003316e+000	 1.540486986028997e+001
0	 3.666649999985415e+000	 2.133340000006534e+000	 1.492611710598822e+001
0	 3.666649999985415e+000	 2.200010000009550e+000	 1.447403671509947e+001
0	 3.666649999985415e+000	 2.266680000012267e+000	 1.404820468751275e+001
0	 3.666649999985415e+000	 2.333350000014583e+000	 1.364819702311731e+001
0	 3.666649999985415e+000	 2.400020000016400e+000	 1.327358972180260e+001
0	 3.666649999985415e+000	 2.466690000017617e+000	 1.292395878345831e+001
0	 3.666649999985415e+000	 2.533360000018134e+000	 1.259888020797434e+001
0	 3.666649999985415e+000	 2.600030000017851e+000	 1.229792999524078e+001
0	 3.666649999985415e+000	 2.666700000016666e+000	 1.202068414514797e+001
0	 3.733319999987732e+000	 2.000000000000000e+000	 1.511941271191874e+001
0	 3.733319999987733e+000	 2.066670000003317e+000	 1.468145313832470e+001
0	 3.733319999987732e+000	 2.133340000006534e+000	 1.426760891983664e+001
0	 3.733319999987732e+000	 2.200010000009550e+000	 1.387750229763775e+001
0	 3.733319999987731e+000	 2.266680000012266e+000	 1.351075551291148e+001
0	 3.733319999987732e+000	 2.333350000014584e+000	 1.316699080684145e+001
0	 3.733319999987731e+000	 2.400020000016400e+000	 1.284583042061145e+001
0	 3.733319999987732e+000	 2.466690000017617e+000	 1.254689659540550e+001
0	 3.733319999987732e+000	 2.533360000018134e+000	 1.226981157240778e+001
0	 3.733319999987733e+000	 2.600030000017851e+000	 1.201419759280267e+001
0	 3.733319999987732e+000	 2.666700000016666e+000	 1.177967689777475e+001
0	 3.799989999990448e+000	 2.000000000000000e+000	 1.437094830022483e+001
0	 3.799989999990449e+000	 2.066670000003318e+000	 1.399851443339483e+001
0	 3.799989999990448e+000	 2.133340000006534e+000	 1.364723596259754e+001
0	 3.799989999990448e+000	 2.200010000009550e+000	 1.331677673055876e+001
0	 3.799989999990448e+000	 2.266680000012268e+000	 1.300680058000446e+001
0	 3.799989999990449e+000	 2.333350000014584e+000	 1.271697135366082e+001
0	 3.799989999990448e+000	 2.400020000016401e+000	 1.244695289425414e+001
0	 3.799989999990448e+000	 2.466690000017617e+000	 1.219640904451090e+001
0	 3.799989999990448e+000	 2.533360000018133e+000	 1.196500364715777e+001
0	 3.799989999990448e+000	 2.600030000017850e+000	 1.175240054492154e+001
0	 3.799989999990448e+000	 2.666700000016666e+000	 1.155826358052921e+001
0	 3.866659999993465e+000	 2.000000000000000e+000	 1.367635831229132e+001
0	 3.866659999993464e+000	 2.066670000003317e+000	 1.336584196285343e+001
0	 3.866659999993465e+000	 2.133340000006534e+000	 1.307360736543107e+001
0	 3.866659999993465e+000	 2.200010000009550e+000	 1.279935532454078e+001
0	 3.866659999993464e+000	 2.266680000012267e+000	 1.254278664469928e+001
0	 3.866659999993465e+000	 2.333350000014584e+000	 1.230360213042339e+001
0	 3.866659999993466e+000	 2.400020000016401e+000	 1.208150258623011e+001
0	 3.866659999993465e+000	 2.466690000017617e+000	 1.187618881663658e+001
0	 3.866659999993464e+000	 2.533360000018133e+000	 1.168736162616005e+001
0	 3.866659999993464e+000	 2.600030000017850e+000	 1.151472181931793e+001
0	 3.866659999993464e+000	 2.666700000016666e+000	 1.135797020062782e+001
0	 3.933329999996681e+000	 2.000000000000000e+000	 1.304667531737528e+001
0	 3.933329999996681e+000	 2.066670000003317e+000	 1.279322394405351e+001
0	 3.933329999996681e+000	 2.133340000006534e+000	 1.255533225949729e+001
0	 3.933329999996682e+000	 2.200010000009551e+000	 1.233273339026207e+001
0	 3.933329999996681e+000	 2.266680000012267e+000	 1.212516046290343e+001
0	 3.933329999996682e+000	 2.333350000014584e+000	 1.193234660397707e+001
0	 3.933329999996682e+000	 2.400020000016401e+000	 1.175402494003878e+001
0	 3.933329999996681e+000	 2.466690000017617e+000	 1.158992859764451e+001
0	 3.933329999996682e+000	 2.533360000018134e+000	 1.143979070335031e+001
0	 3.933329999996681e+000	 2.600030000017850e+000	 1.130334438371237e+001
0	 3.933329999996681e+000	 2.666700000016666e+000	 1.118032276528698e+001
0	 4.000000000000001e+000	 2.000000000000000e+000	 1.249293188473365e+001
0	 4.000000000000001e+000	 2.066670000003317e+000	 1.229044859434793e+001
0	 4.000000000000001e+000	 2.133340000006534e+000	 1.210101977595613e+001
0	 4.000000000000000e+000	 2.200010000009551e+000	 1.192440623840073e+001
0	 4.000000000000001e+000	 2.266680000012268e+000	 1.176036879052433e+001
0	 4.000000000000000e+000	 2.333350000014584e+000	 1.160866824116963e+001
0	 4.000000000000000e+000	 2.400020000016400e+000	 1.146906539917943e+001
0	 4.000000000000001e+000	 2.466690000017617e+000	 1.134132107339661e+001
0	 4.000000000000001e+000	 2.533360000018134e+000	 1.122519607266419e+001
0	 4.000000000000000e+000	 2.600030000017850e+000	 1.112045120582526e+001
0	 4.000000000000000e+000	 2.666700000016667e+000	 1.102684728172301e+001
0	 3.333299999983334e+000	 2.666700000016667e+000	 1.346621908135056e+001
0	 3.333299999983333e+000	 2.733360000014532e+000	 1.300210478772928e+001
0	 3.333299999983334e+000	 2.800020000011600e+000	 1.258175697346371e+001
0	 3.333299999983334e+000	 2.866680000008067e+000	 1.220501569224749e+001
0	 3.333299999983334e+000	 2.933340000004133e+000	 1.187172099777341e+001
0	 3.333299999983334e+000	 3.000000000000000e+000	 1.158171294373351e+001
0	 3.333299999983334e+000	 3.066659999995868e+000	 1.133483158381895e+001
0	 3.333299999983333e+000	 3.133319999991934e+000	 1.113091697172010e+001
0	 3.333299999983333e+000	 3.199979999988400e+000	 1.096980916112652e+001
0	 3.333299999983334e+000	 3.266639999985468e+000	 1.085134820572694e+001
0	 3.333299999983334e+000	 3.333299999983334e+000	 1.077537415920929e+001
0	 3.399969999982150e+000	 2.666700000016666e+000	 1.315013229158725e+001
0	 3.399969999982150e+000	 2.733360000014534e+000	 1.272809040541433e+001
0	 3.399969999982150e+000	 2.800020000011598e+000	 1.234633403761639e+001
0	 3.399969999982149e+000	 2.866680000008067e+000	 1.200472028317268e+001
0	 3.399969999982150e+000	 2.933340000004133e+000	 1.170310623706165e+001
0	 3.399969999982150e+000	 3.000000000000000e+000	 1.144134899426106e+001
0	 3.399969999982150e+000	 3.066659999995866e+000	 1.121930564974786e+001
0	 3.399969999982149e+000	 3.133319999991933e+000	 1.103683329849831e+001
0	 3.399969999982150e+000	 3.199979999988400e+000	 1.089378903548786e+001
0	 3.399969999982150e+000	 3.266639999985468e+000	 1.079002995569126e+001
0	 3.399969999982149e+000	 3.333299999983333e+000	 1.072541315408248e+001
0	 3.466639999981867e+000	 2.666700000016666e+000	 1.284600939586867e+001
0	 3.466639999981867e+000	 2.733360000014534e+000	 1.246670838438594e+001
0	 3.466639999981866e+000	 2.800020000011600e+000	 1.212400801920293e+001
0	 3.466639999981866e+000	 2.866680000008065e+000	 1.181778272013396e+001
0	 3.466639999981866e+000	 2.933340000004133e+000	 1.154790690699266e+001
0	 3.466639999981865e+000	 2.999999999999999e+000	 1.131425499959198e+001
0	 3.466639999981866e+000	 3.066659999995866e+000	 1.111670141774418e+001
0	 3.466639999981866e+000	 3.133319999991933e+000	 1.095512058126086e+001
0	 3.466639999981866e+000	 3.199979999988401e+000	 1.082938690995294e+001
0	 3.466639999981867e+000	 3.266639999985468e+000	 1.073937482363063e+001
0	 3.466639999981866e+000	 3.333299999983334e+000	 1.068495874210351e+001
0	 3.533309999982382e+000	 2.666700000016667e+000	 1.255537640141151e+001
0	 3.533309999982383e+000	 2.733360000014533e+000	 1.221889608570968e+001
0	 3.533309999982382e+000	 2.800020000011600e+000	 1.191519880884379e+001
0	 3.533309999982383e+000	 2.866680000008067e+000	 1.164417659901271e+001
0	 3.533309999982383e+000	 2.933340000004133e+000	 1.140572148441472e+001
0	 3.533309999982382e+000	 3.000000000000000e+000	 1.119972549324750e+001
0	 3.533309999982383e+000	 3.066659999995867e+000	 1.102608065370810e+001
0	 3.533309999982383e+000	 3.133319999991934e+000	 1.088467899399298e+001
0	 3.533309999982382e+000	 3.199979999988401e+000	 1.077541254229798e+001
0	 3.533309999982383e+000	 3.266639999985468e+000	 1.069817332681833e+001
0	 3.533309999982382e+000	 3.333299999983334e+000	 1.065285337574869e+001
0	 3.599979999983599e+000	 2.666700000016667e+000	 1.227975931543241e+001
0	 3.599979999983599e+000	 2.733360000014533e+000	 1.198559087045110e+001
0	 3.599979999983599e+000	 2.800020000011600e+000	 1.172032629715940e+001
0	 3.599979999983598e+000	 2.866680000008067e+000	 1.148387551569026e+001
0	 3.599979999983598e+000	 2.933340000004133e+000	 1.127614844617611e+001
0	 3.599979999983599e+000	 3.000000000000000e+000	 1.109705500874884e+001
0	 3.599979999983598e+000	 3.066659999995866e+000	 1.094650512353981e+001
0	 3.599979999983599e+000	 3.133319999991934e+000	 1.082440871067983e+001
0	 3.599979999983599e+000	 3.199979999988401e+000	 1.073067569029917e+001
0	 3.599979999983599e+000	 3.266639999985467e+000	 1.066521598252760e+001
0	 3.599979999983598e+000	 3.333299999983333e+000	 1.062793950749434e+001
0	 3.666649999985415e+000	 2.666700000016666e+000	 1.202068414514797e+001
0	 3.666649999985415e+000	 2.733360000014533e+000	 1.176773009967569e+001
0	 3.666649999985415e+000	 2.800020000011600e+000	 1.153981037477015e+001
0	 3.666649999985415e+000	 2.866680000008065e+000	 1.133685306604792e+001
0	 3.666649999985415e+000	 2.933340000004133e+000	 1.115878626912505e+001
0	 3.666649999985415e+000	 3.000000000000000e+000	 1.100553807961718e+001
0	 3.666649999985415e+000	 3.066659999995867e+000	 1.087703659313945e+001
0	 3.666649999985415e+000	 3.133319999991933e+000	 1.077320990530654e+001
0	 3.666649999985415e+000	 3.199979999988401e+000	 1.069398611173270e+001
0	 3.666649999985415e+000	 3.266639999985468e+000	 1.063929330803167e+001
0	 3.666649999985415e+000	 3.333299999983334e+000	 1.060905958981678e+001
0	 3.733319999987732e+000	 2.666700000016666e+000	 1.177967689777475e+001
0	 3.733319999987731e+000	 2.733360000014532e+000	 1.156625113444888e+001
0	 3.733319999987731e+000	 2.800020000011599e+000	 1.137407093229640e+001
0	 3.733319999987732e+000	 2.866680000008066e+000	 1.120308284596694e+001
0	 3.733319999987732e+000	 2.933340000004133e+000	 1.105323343010974e+001
0	 3.733319999987731e+000	 3.000000000000000e+000	 1.092446923937366e+001
0	 3.733319999987732e+000	 3.066659999995867e+000	 1.081673682840716e+001
0	 3.733319999987732e+000	 3.133319999991933e+000	 1.072998275185828e+001
0	 3.733319999987731e+000	 3.199979999988401e+000	 1.066415356437472e+001
0	 3.733319999987732e+000	 3.266639999985467e+000	 1.061919582060374e+001
0	 3.733319999987732e+000	 3.333299999983334e+000	 1.059505607519226e+001
0	 3.799989999990448e+000	 2.666700000016666e+000	 1.155826358052921e+001
0	 3.799989999990448e+000	 2.733360000014533e+000	 1.138209133583609e+001
0	 3.799989999990448e+000	 2.800020000011600e+000	 1.122352786035845e+001
0	 3.799989999990448e+000	 2.866680000008066e+000	 1.108253845132857e+001
0	 3.799989999990448e+000	 2.933340000004133e+000	 1.095908840597835e+001
0	 3.799989999990448e+000	 3.000000000000000e+000	 1.085314302153941e+001
0	 3.799989999990448e+000	 3.066659999995866e+000	 1.076466759524302e+001
0	 3.799989999990448e+000	 3.133319999991934e+000	 1.069362742432013e+001
0	 3.799989999990448e+000	 3.199979999988400e+000	 1.063998780600137e+001
0	 3.799989999990449e+000	 3.266639999985467e+000	 1.060371403751704e+001
0	 3.799989999990448e+000	 3.333299999983334e+000	 1.058477141609710e+001
0	 3.866659999993464e+000	 2.666700000016666e+000	 1.135797020062782e+001
0	 3.866659999993464e+000	 2.733360000014533e+000	 1.121618806490266e+001
0	 3.866659999993465e+000	 2.800020000011601e+000	 1.108860104957658e+001
0	 3.866659999993464e+000	 2.866680000008067e+000	 1.097519347801399e+001
0	 3.866659999993464e+000	 2.933340000004133e+000	 1.087594967357901e+001
0	 3.866659999993465e+000	 3.000000000000000e+000	 1.079085395963552e+001
0	 3.866659999993464e+000	 3.066659999995866e+000	 1.071989065954713e+001
0	 3.866659999993465e+000	 3.133319999991934e+000	 1.066304409667719e+001
0	 3.866659999993465e+000	 3.199979999988400e+000	 1.062029859438877e+001
0	 3.866659999993465e+000	 3.266639999985467e+000	 1.059163847604471e+001
0	 3.866659999993464e+000	 3.333299999983334e+000	 1.057704806500755e+001
0	 3.933329999996681e+000	 2.666700000016666e+000	 1.118032276528698e+001
0	 3.933329999996682e+000	 2.733360000014532e+000	 1.106947868271390e+001
0	 3.933329999996682e+000	 2.800020000011600e+000	 1.096971039057100e+001
0	 3.933329999996681e+000	 2.866680000008066e+000	 1.088102152190435e+001
0	 3.933329999996681e+000	 2.933340000004133e+000	 1.080341570975982e+001
0	 3.933329999996681e+000	 3.000000000000000e+000	 1.073689658718305e+001
0	 3.933329999996682e+000	 3.066659999995867e+000	 1.068146778721954e+001
0	 3.933329999996681e+000	 3.133319999991933e+000	 1.063713294291452e+001
0	 3.933329999996682e+000	 3.199979999988400e+000	 1.060389568731304e+001
0	 3.933329999996682e+000	 3.266639999985467e+000	 1.058175965345994e+001
0	 3.933329999996681e+000	 3.333299999983334e+000	 1.057072847439988e+001
0	 4.000000000000000e+000	 2.666700000016667e+000	 1.102684728172301e+001
0	 4.000000000000000e+000	 2.733360000014533e+000	 1.094290055033508e+001
0	 4.000000000000000e+000	 2.800020000011599e+000	 1.086727577396191e+001
0	 4.000000000000001e+000	 2.866680000008067e+000	 1.079999617888078e+001
0	 4.000000000000000e+000	 2.933340000004133e+000	 1.074108499136883e+001
0	 4.000000000000000e+000	 3.000000000000000e+000	 1.069056543770305e+001
0	 4.000000000000000e+000	 3.066659999995867e+000	 1.064846074416027e+001
0	 4.000000000000000e+000	 3.133319999991933e+000	 1.061479413701716e+001
0	 4.000000000000001e+000	 3.199979999988401e+000	 1.058958884255025e+001
0	 4.000000000000001e+000	 3.266639999985467e+000	 1.057286808703590e+001
0	 4.000000000000000e+000	 3.333299999983333e+000	 1.056465509675033e+001
0	 3.333299999983334e+000	 3.333299999983334e+000	 1.077537415920929e+001
0	 3.333299999983333e+000	 3.399969999982149e+000	 1.072203137746800e+001
0	 3.333299999983333e+000	 3.466639999981866e+000	 1.067174605508014e+001
0	 3.333299999983334e+000	 3.533309999982383e+000	 1.062475634853307e+001
0	 3.333299999983334e+000	 3.599979999983599e+000	 1.058130041431422e+001
0	 3.333299999983334e+000	 3.666649999985416e+000	 1.054161640891110e+001
0	 3.333299999983334e+000	 3.733319999987733e+000	 1.050594248881122e+001
0	 3.333299999983334e+000	 3.799989999990450e+000	 1.047451681050218e+001
0	 3.333299999983334e+000	 3.866659999993467e+000	 1.044757753047161e+001
0	 3.333299999983333e+000	 3.933329999996682e+000	 1.042536280520723e+001
0	 3.333299999983333e+000	 4.000000000000000e+000	 1.040811079119675e+001
0	 3.399969999982149e+000	 3.333299999983333e+000	 1.072541315408248e+001
0	 3.399969999982150e+000	 3.399969999982150e+000	 1.068132524632831e+001
0	 3.399969999982150e+000	 3.466639999981867e+000	 1.063942077182252e+001
0	 3.399969999982150e+000	 3.533309999982383e+000	 1.059993841711573e+001
0	 3.399969999982150e+000	 3.599979999983600e+000	 1.056311686875864e+001
0	 3.399969999982150e+000	 3.666649999985417e+000	 1.052919481330200e+001
0	 3.399969999982150e+000	 3.733319999987732e+000	 1.049841093729656e+001
0	 3.399969999982150e+000	 3.799989999990450e+000	 1.047100392729314e+001
0	 3.399969999982150e+000	 3.866659999993467e+000	 1.044721246984259e+001
0	 3.399969999982150e+000	 3.933329999996684e+000	 1.042727525149581e+001
0	 3.399969999982150e+000	 4.000000000000000e+000	 1.041143095880373e+001
0	 3.466639999981866e+000	 3.333299999983334e+000	 1.068495874210351e+001
0	 3.466639999981866e+000	 3.399969999982150e+000	 1.064891251891105e+001
0	 3.466639999981867e+000	 3.466639999981867e+000	 1.061426154606576e+001
0	 3.466639999981866e+000	 3.533309999982382e+000	 1.058124105246371e+001
0	 3.466639999981866e+000	 3.599979999983600e+000	 1.055008626700102e+001
0	 3.466639999981866e+000	 3.666649999985417e+000	 1.052103241857381e+001
0	 3.466639999981866e+000	 3.733319999987733e+000	 1.049431473607826e+001
0	 3.466639999981866e+000	 3.799989999990450e+000	 1.047016844841057e+001
0	 3.466639999981866e+000	 3.866659999993466e+000	 1.044882878446697e+001
0	 3.466639999981866e+000	 3.933329999996683e+000	 1.043053097314372e+001
0	 3.466639999981866e+000	 4.000000000000001e+000	 1.041551024333711e+001
0	 3.533309999982382e+000	 3.333299999983334e+000	 1.065285337574869e+001
0	 3.533309999982383e+000	 3.399969999982150e+000	 1.062372421759965e+001
0	 3.533309999982382e+000	 3.466639999981867e+000	 1.059529003754297e+001
0	 3.533309999982381e+000	 3.533309999982382e+000	 1.056777861910231e+001
0	 3.533309999982383e+000	 3.599979999983600e+000	 1.054141774580137e+001
0	 3.533309999982381e+000	 3.666649999985415e+000	 1.051643520116383e+001
0	 3.533309999982382e+000	 3.733319999987732e+000	 1.049305876871345e+001
0	 3.533309999982382e+000	 3.799989999990450e+000	 1.047151623197396e+001
0	 3.533309999982382e+000	 3.866659999993467e+000	 1.045203537446914e+001
0	 3.533309999982383e+000	 3.933329999996684e+000	 1.043484397972279e+001
0	 3.533309999982383e+000	 4.000000000000000e+000	 1.042016983125871e+001
0	 3.599979999983598e+000	 3.333299999983333e+000	 1.062793950749434e+001
0	 3.599979999983598e+000	 3.399969999982150e+000	 1.060469136477755e+001
0	 3.599979999983599e+000	 3.466639999981867e+000	 1.058152790598724e+001
0	 3.599979999983600e+000	 3.533309999982384e+000	 1.055866548155683e+001
0	 3.599979999983598e+000	 3.599979999983600e+000	 1.053632044191974e+001
0	 3.599979999983599e+000	 3.666649999985416e+000	 1.051470913750941e+001
0	 3.599979999983598e+000	 3.733319999987732e+000	 1.049404791875928e+001
0	 3.599979999983598e+000	 3.799989999990448e+000	 1.047455313610284e+001
0	 3.599979999983598e+000	 3.866659999993467e+000	 1.045644113997354e+001
0	 3.599979999983599e+000	 3.933329999996684e+000	 1.043992828080489e+001
0	 3.599979999983598e+000	 4.000000000000000e+000	 1.042523090903040e+001
0	 3.666649999985415e+000	 3.333299999983334e+000	 1.060905958981677e+001
0	 3.666649999985415e+000	 3.399969999982150e+000	 1.059074498282818e+001
0	 3.666649999985415e+000	 3.466639999981866e+000	 1.057199681113168e+001
0	 3.666649999985416e+000	 3.533309999982384e+000	 1.055301600435257e+001
0	 3.666649999985415e+000	 3.599979999983600e+000	 1.053400349211618e+001
0	 3.666649999985415e+000	 3.666649999985416e+000	 1.051516020404785e+001
0	 3.666649999985416e+000	 3.733319999987733e+000	 1.049668706977290e+001
0	 3.666649999985415e+000	 3.799989999990450e+000	 1.047878501891670e+001
0	 3.666649999985415e+000	 3.866659999993467e+000	 1.046165498110457e+001
0	 3.666649999985415e+000	 3.933329999996683e+000	 1.044549788596190e+001
0	 3.666649999985415e+000	 4.000000000000001e+000	 1.043051466311402e+001
0	 3.733319999987732e+000	 3.333299999983334e+000	 1.059505607519226e+001
0	 3.733319999987733e+000	 3.399969999982150e+000	 1.058081609413496e+001
0	 3.733319999987732e+000	 3.466639999981866e+000	 1.056571841270936e+001
0	 3.733319999987732e+000	 3.533309999982383e+000	 1.054994455201481e+001
0	 3.733319999987730e+000	 3.599979999983599e+000	 1.053367603315072e+001
0	 3.733319999987732e+000	 3.666649999985417e+000	 1.051709437721648e+001
0	 3.733319999987732e+000	 3.733319999987733e+000	 1.050038110531147e+001
0	 3.733319999987732e+000	 3.799989999990451e+000	 1.048371773853506e+001
0	 3.733319999987732e+000	 3.866659999993467e+000	 1.046728579798667e+001
0	 3.733319999987732e+000	 3.933329999996684e+000	 1.045126680476566e+001
0	 3.733319999987732e+000	 4.000000000000001e+000	 1.043584227997144e+001
0	 3.799989999990448e+000	 3.333299999983334e+000	 1.058477141609710e+001
0	 3.799989999990449e+000	 3.399969999982149e+000	 1.057383572108132e+001
0	 3.799989999990447e+000	 3.466639999981866e+000	 1.056171437045337e+001
0	 3.799989999990448e+000	 3.533309999982383e+000	 1.054856548906887e+001
0	 3.799989999990449e+000	 3.599979999983600e+000	 1.053454720178342e+001
0	 3.799989999990449e+000	 3.666649999985417e+000	 1.051981763345264e+001
0	 3.799989999990448e+000	 3.733319999987733e+000	 1.050453490893212e+001
0	 3.799989999990448e+000	 3.799989999990450e+000	 1.048885715307747e+001
0	 3.799989999990448e+000	 3.866659999993467e+000	 1.047294249074427e+001
0	 3.799989999990448e+000	 3.933329999996684e+000	 1.045694904678810e+001
0	 3.799989999990448e+000	 4.000000000000001e+000	 1.044103494606455e+001
0	 3.866659999993464e+000	 3.333299999983334e+000	 1.057704806500755e+001
0	 3.866659999993465e+000	 3.399969999982150e+000	 1.056873488605064e+001
0	 3.866659999993465e+000	 3.466639999981867e+000	 1.055900634409679e+001
0	 3.866659999993465e+000	 3.533309999982383e+000	 1.054799318004002e+001
0	 3.866659999993465e+000	 3.599979999983600e+000	 1.053582613477431e+001
0	 3.866659999993464e+000	 3.666649999985416e+000	 1.052263594919366e+001
0	 3.866659999993465e+000	 3.733319999987733e+000	 1.050855336419205e+001
0	 3.866659999993464e+000	 3.799989999990449e+000	 1.049370912066345e+001
0	 3.866659999993464e+000	 3.866659999993466e+000	 1.047823395950181e+001
0	 3.866659999993465e+000	 3.933329999996684e+000	 1.046225862160109e+001
0	 3.866659999993465e+000	 4.000000000000000e+000	 1.044591384785523e+001
0	 3.933329999996681e+000	 3.333299999983334e+000	 1.057072847439988e+001
0	 3.933329999996682e+000	 3.399969999982151e+000	 1.056444461142633e+001
0	 3.933329999996682e+000	 3.466639999981867e+000	 1.055661599337270e+001
0	 3.933329999996682e+000	 3.533309999982382e+000	 1.054734198945355e+001
0	 3.933329999996682e+000	 3.599979999983600e+000	 1.053672196888343e+001
0	 3.933329999996681e+000	 3.666649999985416e+000	 1.052485530087688e+001
0	 3.933329999996681e+000	 3.733319999987733e+000	 1.051184135464841e+001
0	 3.933329999996681e+000	 3.799989999990450e+000	 1.049777949941253e+001
0	 3.933329999996682e+000	 3.866659999993466e+000	 1.048276910438375e+001
0	 3.933329999996682e+000	 3.933329999996684e+000	 1.046690953877654e+001
0	 3.933329999996682e+000	 4.000000000000000e+000	 1.045030017180537e+001
0	 4.000000000000000e+000	 3.333299999983333e+000	 1.056465509675033e+001
0	 4.000000000000000e+000	 3.399969999982150e+000	 1.055989591959177e+001
0	 4.000000000000001e+000	 3.466639999981866e+000	 1.055356497801416e+001
0	 4.000000000000000e+000	 3.533309999982383e+000	 1.054572628183477e+001
0	 4.000000000000000e+000	 3.599979999983600e+000	 1.053644384087084e+001
0	 4.000000000000001e+000	 3.666649999985417e+000	 1.052578166493964e+001
0	 4.000000000000001e+000	 3.733319999987733e+000	 1.051380376385838e+001
0	 4.000000000000001e+000	 3.799989999990450e+000	 1.050057414744429e+001
0	 4.000000000000000e+000	 3.866659999993467e+000	 1.048615682551456e+001
0	 3.999999999999999e+000	 3.933329999996683e+000	 1.047061580788637e+001
0	 4.000000000000000e+000	 4.000000000000000e+000	 1.045401510437689e+001
0	 3.333299999983333e+000	 4.000000000000000e+000	 1.040811079119675e+001
0	 3.333299999983334e+000	 4.066670000003317e+000	 1.039323438578086e+001
0	 3.333299999983334e+000	 4.133340000006534e+000	 1.037805130301149e+001
0	 3.333299999983335e+000	 4.200010000009551e+000	 1.036265692444336e+001
0	 3.333299999983334e+000	 4.266680000012268e+000	 1.034714663163116e+001
0	 3.333299999983334e+000	 4.333350000014583e+000	 1.033161580612960e+001
0	 3.333299999983334e+000	 4.400020000016401e+000	 1.031615982949337e+001
0	 3.333299999983333e+000	 4.466690000017617e+000	 1.030087408327721e+001
0	 3.333299999983334e+000	 4.533360000018134e+000	 1.028585394903580e+001
0	 3.333299999983334e+000	 4.600030000017851e+000	 1.027119480832387e+001
0	 3.333299999983333e+000	 4.666700000016666e+000	 1.025699204269612e+001
0	 3.399969999982150e+000	 4.000000000000000e+000	 1.041143095880373e+001
0	 3.399969999982150e+000	 4.066670000003317e+000	 1.039760174902115e+001
0	 3.399969999982150e+000	 4.133340000006534e+000	 1.038357773088204e+001
0	 3.399969999982150e+000	 4.200010000009551e+000	 1.036939951815621e+001
0	 3.399969999982150e+000	 4.266680000012267e+000	 1.035510772461345e+001
0	 3.399969999982150e+000	 4.333350000014584e+000	 1.034074296402354e+001
0	 3.399969999982149e+000	 4.400020000016400e+000	 1.032634585015625e+001
0	 3.399969999982150e+000	 4.466690000017616e+000	 1.031195699678140e+001
0	 3.399969999982149e+000	 4.533360000018131e+000	 1.029761701766877e+001
0	 3.399969999982150e+000	 4.600030000017850e+000	 1.028336652658814e+001
0	 3.399969999982150e+000	 4.666700000016666e+000	 1.026924613730930e+001
0	 3.466639999981866e+000	 4.000000000000001e+000	 1.041551024333711e+001
0	 3.466639999981866e+000	 4.066670000003318e+000	 1.040218930825083e+001
0	 3.466639999981865e+000	 4.133340000006533e+000	 1.038883008656487e+001
0	 3.466639999981866e+000	 4.200010000009550e+000	 1.037542661539002e+001
0	 3.466639999981866e+000	 4.266680000012267e+000	 1.036197293183705e+001
0	 3.466639999981865e+000	 4.333350000014584e+000	 1.034846307301677e+001
0	 3.466639999981866e+000	 4.400020000016402e+000	 1.033489107603992e+001
0	 3.466639999981866e+000	 4.466690000017618e+000	 1.032125097801732e+001
0	 3.466639999981866e+000	 4.533360000018133e+000	 1.030753681605974e+001
0	 3.466639999981866e+000	 4.600030000017851e+000	 1.029374262727796e+001
0	 3.466639999981866e+000	 4.666700000016666e+000	 1.027986244878275e+001
0	 3.533309999982383e+000	 4.000000000000000e+000	 1.042016983125871e+001
0	 3.533309999982383e+000	 4.066670000003318e+000	 1.040691895402548e+001
0	 3.533309999982382e+000	 4.133340000006534e+000	 1.039381595167421e+001
0	 3.533309999982382e+000	 4.200010000009551e+000	 1.038081647578259e+001
0	 3.533309999982382e+000	 4.266680000012267e+000	 1.036787617792835e+001
0	 3.533309999982382e+000	 4.333350000014583e+000	 1.035495070968912e+001
0	 3.533309999982383e+000	 4.400020000016403e+000	 1.034199572264263e+001
0	 3.533309999982381e+000	 4.466690000017615e+000	 1.032896686836656e+001
0	 3.533309999982383e+000	 4.533360000018135e+000	 1.031581979843859e+001
0	 3.533309999982383e+000	 4.600030000017849e+000	 1.030251016443640e+001
0	 3.533309999982381e+000	 4.666700000016665e+000	 1.028899361793770e+001
0	 3.599979999983598e+000	 4.000000000000000e+000	 1.042523090903040e+001
0	 3.599979999983598e+000	 4.066670000003316e+000	 1.041171257690067e+001
0	 3.599979999983599e+000	 4.133340000006532e+000	 1.039854290782430e+001
0	 3.599979999983598e+000	 4.200010000009550e+000	 1.038564735897180e+001
0	 3.599979999983598e+000	 4.266680000012268e+000	 1.037295138751369e+001
0	 3.599979999983599e+000	 4.333350000014584e+000	 1.036038045062047e+001
0	 3.599979999983598e+000	 4.400020000016402e+000	 1.034786000546264e+001
0	 3.599979999983599e+000	 4.466690000017617e+000	 1.033531550921071e+001
0	 3.599979999983598e+000	 4.533360000018133e+000	 1.032267241903518e+001
0	 3.599979999983598e+000	 4.600030000017853e+000	 1.030985619210657e+001
0	 3.599979999983599e+000	 4.666700000016667e+000	 1.029679228559536e+001
0	 3.666649999985415e+000	 4.000000000000001e+000	 1.043051466311402e+001
0	 3.666649999985415e+000	 4.066670000003317e+000	 1.041649206743199e+001
0	 3.666649999985415e+000	 4.133340000006534e+000	 1.040301853662940e+001
0	 3.666649999985415e+000	 4.200010000009550e+000	 1.038999752459549e+001
0	 3.666649999985415e+000	 4.266680000012268e+000	 1.037733248521950e+001
0	 3.666649999985415e+000	 4.333350000014582e+000	 1.036492687239068e+001
0	 3.666649999985415e+000	 4.400020000016401e+000	 1.035268413999823e+001
0	 3.666649999985416e+000	 4.466690000017618e+000	 1.034050774193140e+001
0	 3.666649999985415e+000	 4.533360000018133e+000	 1.032830113207943e+001
0	 3.666649999985416e+000	 4.600030000017850e+000	 1.031596776433154e+001
0	 3.666649999985415e+000	 4.666700000016665e+000	 1.030341109257697e+001
0	 3.733319999987732e+000	 4.000000000000001e+000	 1.043584227997144e+001
0	 3.733319999987732e+000	 4.066670000003318e+000	 1.042117931617503e+001
0	 3.733319999987732e+000	 4.133340000006535e+000	 1.040725041970377e+001
0	 3.733319999987732e+000	 4.200010000009550e+000	 1.039394523229152e+001
0	 3.733319999987731e+000	 4.266680000012267e+000	 1.038115339567219e+001
0	 3.733319999987732e+000	 4.333350000014584e+000	 1.036876455157962e+001
0	 3.733319999987732e+000	 4.400020000016402e+000	 1.035666834174766e+001
0	 3.733319999987732e+000	 4.466690000017617e+000	 1.034475440791023e+001
0	 3.733319999987732e+000	 4.533360000018135e+000	 1.033291239180120e+001
0	 3.733319999987732e+000	 4.600030000017851e+000	 1.032103193515440e+001
0	 3.733319999987732e+000	 4.666700000016666e+000	 1.030900267970376e+001
0	 3.799989999990448e+000	 4.000000000000001e+000	 1.044103494606455e+001
0	 3.799989999990449e+000	 4.066670000003317e+000	 1.042569621368541e+001
0	 3.799989999990448e+000	 4.133340000006534e+000	 1.041124613866167e+001
0	 3.799989999990448e+000	 4.200010000009550e+000	 1.039756874169778e+001
0	 3.799989999990448e+000	 4.266680000012267e+000	 1.038454804349812e+001
0	 3.799989999990448e+000	 4.333350000014583e+000	 1.037206806476714e+001
0	 3.799989999990448e+000	 4.400020000016401e+000	 1.036001282620923e+001
0	 3.799989999990447e+000	 4.466690000017617e+000	 1.034826634852884e+001
0	 3.799989999990449e+000	 4.533360000018134e+000	 1.033671265243038e+001
0	 3.799989999990449e+000	 4.600030000017850e+000	 1.032523575861828e+001
0	 3.799989999990448e+000	 4.666700000016666e+000	 1.031371968779695e+001
0	 3.866659999993465e+000	 4.000000000000000e+000	 1.044591384785523e+001
0	 3.866659999993464e+000	 4.066670000003316e+000	 1.042996465051873e+001
0	 3.866659999993465e+000	 4.133340000006534e+000	 1.041501327511741e+001
0	 3.866659999993464e+000	 4.200010000009551e+000	 1.040094631245213e+001
0	 3.866659999993464e+000	 4.266680000012268e+000	 1.038765035332375e+001
0	 3.866659999993464e+000	 4.333350000014585e+000	 1.037501198853316e+001
0	 3.866659999993466e+000	 4.400020000016401e+000	 1.036291780888123e+001
0	 3.866659999993465e+000	 4.466690000017617e+000	 1.035125440516884e+001
0	 3.866659999993464e+000	 4.533360000018133e+000	 1.033990836819688e+001
0	 3.866659999993464e+000	 4.600030000017849e+000	 1.032876628876624e+001
0	 3.866659999993464e+000	 4.666700000016665e+000	 1.031771475767779e+001
0	 3.933329999996682e+000	 4.000000000000000e+000	 1.045030017180537e+001
0	 3.933329999996681e+000	 4.066670000003316e+000	 1.043390651723065e+001
0	 3.933329999996682e+000	 4.133340000006535e+000	 1.041855941068526e+001
0	 3.933329999996682e+000	 4.200010000009551e+000	 1.040415620419247e+001
0	 3.933329999996681e+000	 4.266680000012268e+000	 1.039059424977548e+001
0	 3.933329999996682e+000	 4.333350000014584e+000	 1.037777089945756e+001
0	 3.933329999996681e+000	 4.400020000016401e+000	 1.036558350526194e+001
0	 3.933329999996682e+000	 4.466690000017618e+000	 1.035392941921187e+001
0	 3.933329999996682e+000	 4.533360000018134e+000	 1.034270599333060e+001
0	 3.933329999996682e+000	 4.600030000017851e+000	 1.033181057964140e+001
0	 3.933329999996682e+000	 4.666700000016666e+000	 1.032114053016752e+001
0	 4.000000000000000e+000	 4.000000000000000e+000	 1.045401510437689e+001
0	 4.000000000000000e+000	 4.066670000003317e+000	 1.043744370437678e+001
0	 4.000000000000000e+000	 4.133340000006534e+000	 1.042189212697955e+001
0	 4.000000000000000e+000	 4.200010000009550e+000	 1.040727667655670e+001
0	 4.000000000000001e+000	 4.266680000012268e+000	 1.039351365747976e+001
0	 4.000000000000000e+000	 4.333350000014584e+000	 1.038051937412025e+001
0	 4.000000000000000e+000	 4.400020000016401e+000	 1.036821013084967e+001
0	 4.000000000000000e+000	 4.466690000017617e+000	 1.035650223203956e+001
0	 4.000000000000001e+000	 4.533360000018134e+000	 1.034531198206144e+001
0	 4.000000000000000e+000	 4.600030000017851e+000	 1.033455568528687e+001
0	 4.000000000000000e+000	 4.666700000016666e+000	 1.032414964608736e+001
0	 3.333299999983333e+000	 4.666700000016666e+000	 1.025699204269613e+001
0	 3.333299999983334e+000	 4.733360000014533e+000	 1.024351602694282e+001
0	 3.333299999983334e+000	 4.800020000011601e+000	 1.023092164143051e+001
0	 3.333299999983333e+000	 4.866680000008066e+000	 1.021913730001752e+001
0	 3.333299999983335e+000	 4.933340000004134e+000	 1.020809141656218e+001
0	 3.333299999983334e+000	 5.000000000000001e+000	 1.019771240492280e+001
0	 3.333299999983334e+000	 5.066659999995867e+000	 1.018792867895766e+001
0	 3.333299999983334e+000	 5.133319999991934e+000	 1.017866865252507e+001
0	 3.333299999983334e+000	 5.199979999988400e+000	 1.016986073948330e+001
0	 3.333299999983333e+000	 5.266639999985467e+000	 1.016143335369062e+001
0	 3.333299999983334e+000	 5.333299999983335e+000	 1.015331490900529e+001
0	 3.399969999982150e+000	 4.666700000016666e+000	 1.026924613730930e+001
0	 3.399969999982151e+000	 4.733360000014534e+000	 1.025561067095323e+001
0	 3.399969999982150e+000	 4.800020000011601e+000	 1.024275481079950e+001
0	 3.399969999982149e+000	 4.866680000008066e+000	 1.023063528235010e+001
0	 3.399969999982149e+000	 4.933340000004132e+000	 1.021920881110700e+001
0	 3.399969999982150e+000	 5.000000000000001e+000	 1.020843212257214e+001
0	 3.399969999982150e+000	 5.066659999995867e+000	 1.019826194224746e+001
0	 3.399969999982149e+000	 5.133319999991934e+000	 1.018865499563491e+001
0	 3.399969999982150e+000	 5.199979999988400e+000	 1.017956800823639e+001
0	 3.399969999982150e+000	 5.266639999985468e+000	 1.017095770555381e+001
0	 3.399969999982149e+000	 5.333299999983332e+000	 1.016278081308907e+001
0	 3.466639999981866e+000	 4.666700000016666e+000	 1.027986244878275e+001
0	 3.466639999981866e+000	 4.733360000014534e+000	 1.026627941678664e+001
0	 3.466639999981866e+000	 4.800020000011600e+000	 1.025336374524602e+001
0	 3.466639999981866e+000	 4.866680000008067e+000	 1.024109635389666e+001
0	 3.466639999981866e+000	 4.933340000004135e+000	 1.022945816247430e+001
0	 3.466639999981866e+000	 4.999999999999999e+000	 1.021843009071467e+001
0	 3.466639999981866e+000	 5.066659999995866e+000	 1.020799305835349e+001
0	 3.466639999981866e+000	 5.133319999991933e+000	 1.019812798512647e+001
0	 3.466639999981866e+000	 5.199979999988401e+000	 1.018881579076931e+001
0	 3.466639999981866e+000	 5.266639999985468e+000	 1.018003739501769e+001
0	 3.466639999981866e+000	 5.333299999983334e+000	 1.017177371760726e+001
0	 3.533309999982381e+000	 4.666700000016665e+000	 1.028899361793770e+001
0	 3.533309999982382e+000	 4.733360000014534e+000	 1.027563567233355e+001
0	 3.533309999982382e+000	 4.800020000011601e+000	 1.026282798077191e+001
0	 3.533309999982384e+000	 4.866680000008067e+000	 1.025057153981244e+001
0	 3.533309999982383e+000	 4.933340000004134e+000	 1.023886734601480e+001
0	 3.533309999982382e+000	 4.999999999999999e+000	 1.022771639593864e+001
0	 3.533309999982382e+000	 5.066659999995867e+000	 1.021711968614360e+001
0	 3.533309999982383e+000	 5.133319999991936e+000	 1.020707821318929e+001
0	 3.533309999982382e+000	 5.199979999988400e+000	 1.019759297363532e+001
0	 3.533309999982382e+000	 5.266639999985468e+000	 1.018866496404129e+001
0	 3.533309999982382e+000	 5.333299999983335e+000	 1.018029518096680e+001
0	 3.599979999983599e+000	 4.666700000016667e+000	 1.029679228559536e+001
0	 3.599979999983598e+000	 4.733360000014534e+000	 1.028379284548448e+001
0	 3.599979999983599e+000	 4.800020000011600e+000	 1.027122705337903e+001
0	 3.599979999983599e+000	 4.866680000008065e+000	 1.025911186525271e+001
0	 3.599979999983599e+000	 4.933340000004134e+000	 1.024746423707925e+001
0	 3.599979999983598e+000	 4.999999999999999e+000	 1.023630112483232e+001
0	 3.599979999983598e+000	 5.066659999995866e+000	 1.022563948448564e+001
0	 3.599979999983598e+000	 5.133319999991934e+000	 1.021549627201287e+001
0	 3.599979999983598e+000	 5.199979999988400e+000	 1.020588844338767e+001
0	 3.599979999983598e+000	 5.266639999985467e+000	 1.019683295458370e+001
0	 3.599979999983598e+000	 5.333299999983333e+000	 1.018834676157460e+001
0	 3.666649999985415e+000	 4.666700000016665e+000	 1.030341109257697e+001
0	 3.666649999985415e+000	 4.733360000014534e+000	 1.029086434412994e+001
0	 3.666649999985415e+000	 4.800020000011601e+000	 1.027864049906922e+001
0	 3.666649999985415e+000	 4.866680000008065e+000	 1.026676835537273e+001
0	 3.666649999985414e+000	 4.933340000004133e+000	 1.025527671101835e+001
0	 3.666649999985415e+000	 5.000000000000001e+000	 1.024419436398398e+001
0	 3.666649999985415e+000	 5.066659999995867e+000	 1.023355011224749e+001
0	 3.666649999985415e+000	 5.133319999991935e+000	 1.022337275378676e+001
0	 3.666649999985415e+000	 5.199979999988400e+000	 1.021369108657963e+001
0	 3.666649999985415e+000	 5.266639999985467e+000	 1.020453390860395e+001
0	 3.666649999985415e+000	 5.333299999983333e+000	 1.019593001783757e+001
0	 3.733319999987732e+000	 4.666700000016666e+000	 1.030900267970376e+001
0	 3.733319999987732e+000	 4.733360000014534e+000	 1.029696357616044e+001
0	 3.733319999987731e+000	 4.800020000011599e+000	 1.028514785384435e+001
0	 3.733319999987733e+000	 4.866680000008066e+000	 1.027359203532775e+001
0	 3.733319999987731e+000	 4.933340000004131e+000	 1.026233264318285e+001
0	 3.733319999987731e+000	 4.999999999999999e+000	 1.025140619998187e+001
0	 3.733319999987732e+000	 5.066659999995868e+000	 1.024084922829702e+001
0	 3.733319999987732e+000	 5.133319999991934e+000	 1.023069825070048e+001
0	 3.733319999987732e+000	 5.199979999988401e+000	 1.022098978976446e+001
0	 3.733319999987732e+000	 5.266639999985467e+000	 1.021176036806113e+001
0	 3.733319999987731e+000	 5.333299999983333e+000	 1.020304650816265e+001
0	 3.799989999990448e+000	 4.666700000016666e+000	 1.031371968779695e+001
0	 3.799989999990448e+000	 4.733360000014532e+000	 1.030220394946647e+001
0	 3.799989999990448e+000	 4.800020000011600e+000	 1.029082865370626e+001
0	 3.799989999990448e+000	 4.866680000008067e+000	 1.027963393027303e+001
0	 3.799989999990448e+000	 4.933340000004133e+000	 1.026865990892348e+001
0	 3.799989999990447e+000	 4.999999999999999e+000	 1.025794671941427e+001
0	 3.799989999990449e+000	 5.066659999995868e+000	 1.024753449150208e+001
0	 3.799989999990448e+000	 5.133319999991934e+000	 1.023746335494359e+001
0	 3.799989999990448e+000	 5.199979999988400e+000	 1.022777343949544e+001
0	 3.799989999990449e+000	 5.266639999985467e+000	 1.021850487491427e+001
0	 3.799989999990449e+000	 5.333299999983334e+000	 1.020969779095675e+001
0	 3.866659999993464e+000	 4.666700000016665e+000	 1.031771475767779e+001
0	 3.866659999993465e+000	 4.733360000014533e+000	 1.030669887193856e+001
0	 3.866659999993465e+000	 4.800020000011601e+000	 1.029576243465681e+001
0	 3.866659999993464e+000	 4.866680000008066e+000	 1.028494506536385e+001
0	 3.866659999993465e+000	 4.933340000004133e+000	 1.027428638359097e+001
0	 3.866659999993465e+000	 5.000000000000000e+000	 1.026382600886945e+001
0	 3.866659999993465e+000	 5.066659999995866e+000	 1.025360356073057e+001
0	 3.866659999993465e+000	 5.133319999991935e+000	 1.024365865870561e+001
0	 3.866659999993465e+000	 5.199979999988400e+000	 1.023403092232583e+001
0	 3.866659999993465e+000	 5.266639999985468e+000	 1.022475997112248e+001
0	 3.866659999993464e+000	 5.333299999983333e+000	 1.021588542462682e+001
0	 3.933329999996682e+000	 4.666700000016666e+000	 1.032114053016752e+001
0	 3.933329999996682e+000	 4.733360000014532e+000	 1.031056175146723e+001
0	 3.933329999996682e+000	 4.800020000011600e+000	 1.030002873269787e+001
0	 3.933329999996682e+000	 4.866680000008067e+000	 1.028957646575546e+001
0	 3.933329999996682e+000	 4.933340000004133e+000	 1.027923994253606e+001
0	 3.933329999996682e+000	 5.000000000000001e+000	 1.026905415493568e+001
0	 3.933329999996681e+000	 5.066659999995867e+000	 1.025905409485034e+001
0	 3.933329999996682e+000	 5.133319999991934e+000	 1.024927475417607e+001
0	 3.933329999996682e+000	 5.199979999988400e+000	 1.023975112480890e+001
0	 3.933329999996682e+000	 5.266639999985467e+000	 1.023051819864480e+001
0	 3.933329999996682e+000	 5.333299999983334e+000	 1.022161096757979e+001
0	 4.000000000000000e+000	 4.666700000016666e+000	 1.032414964608736e+001
0	 4.000000000000000e+000	 4.733360000014533e+000	 1.031390599594300e+001
0	 4.000000000000000e+000	 4.800020000011600e+000	 1.030370708383128e+001
0	 4.000000000000001e+000	 4.866680000008067e+000	 1.029357915660314e+001
0	 3.999999999999999e+000	 4.933340000004133e+000	 1.028354846110948e+001
0	 3.999999999999999e+000	 5.000000000000000e+000	 1.027364124420123e+001
0	 4.000000000000000e+000	 5.066659999995866e+000	 1.026388375272928e+001
0	 4.000000000000000e+000	 5.133319999991934e+000	 1.025430223354454e+001
0	 4.000000000000001e+000	 5.199979999988400e+000	 1.024492293349793e+001
0	 4.000000000000000e+000	 5.266639999985467e+000	 1.023577209944031e+001
0	 4.000000000000000e+000	 5.333299999983334e+000	 1.022687597822260e+001
0	 3.333299999983334e+000	 5.333299999983335e+000	 1.015331490900529e+001
0	 3.333299999983334e+000	 5.399969999982148e+000	 1.014540636140530e+001
0	 3.333299999983335e+000	 5.466639999981867e+000	 1.013768135144915e+001
0	 3.333299999983334e+000	 5.533309999982384e+000	 1.013017372498002e+001
0	 3.333299999983334e+000	 5.599979999983601e+000	 1.012291732784112e+001
0	 3.333299999983334e+000	 5.666649999985414e+000	 1.011594600587567e+001
0	 3.333299999983334e+000	 5.733319999987733e+000	 1.010929360492691e+001
0	 3.333299999983333e+000	 5.799989999990449e+000	 1.010299397083803e+001
0	 3.333299999983333e+000	 5.866659999993468e+000	 1.009708094945228e+001
0	 3.333299999983334e+000	 5.933329999996684e+000	 1.009158838661287e+001
0	 3.333299999983333e+000	 5.999999999999998e+000	 1.008655012816306e+001
0	 3.399969999982149e+000	 5.333299999983332e+000	 1.016278081308907e+001
0	 3.399969999982150e+000	 5.399969999982149e+000	 1.015489465073322e+001
0	 3.399969999982150e+000	 5.466639999981866e+000	 1.014720243997933e+001
0	 3.399969999982150e+000	 5.533309999982383e+000	 1.013972616979784e+001
0	 3.399969999982150e+000	 5.599979999983599e+000	 1.013248782915922e+001
0	 3.399969999982150e+000	 5.666649999985416e+000	 1.012550940703394e+001
0	 3.399969999982150e+000	 5.733319999987733e+000	 1.011881289239245e+001
0	 3.399969999982150e+000	 5.799989999990447e+000	 1.011242027420526e+001
0	 3.399969999982150e+000	 5.866659999993466e+000	 1.010635354144284e+001
0	 3.399969999982150e+000	 5.933329999996683e+000	 1.010063468307565e+001
0	 3.399969999982150e+000	 6.000000000000001e+000	 1.009528568807419e+001
0	 3.466639999981866e+000	 5.333299999983334e+000	 1.017177371760726e+001
0	 3.466639999981866e+000	 5.399969999982150e+000	 1.016386095997802e+001
0	 3.466639999981867e+000	 5.466639999981867e+000	 1.015615824352215e+001
0	 3.466639999981866e+000	 5.533309999982382e+000	 1.014867726183787e+001
0	 3.466639999981865e+000	 5.599979999983598e+000	 1.014142970852332e+001
0	 3.466639999981866e+000	 5.666649999985417e+000	 1.013442727717672e+001
0	 3.466639999981866e+000	 5.733319999987733e+000	 1.012768166139625e+001
0	 3.466639999981867e+000	 5.799989999990451e+000	 1.012120455478010e+001
0	 3.466639999981866e+000	 5.866659999993467e+000	 1.011500765092647e+001
0	 3.466639999981866e+000	 5.933329999996685e+000	 1.010910264343356e+001
0	 3.466639999981866e+000	 6.000000000000001e+000	 1.010350122589959e+001
0	 3.533309999982382e+000	 5.333299999983335e+000	 1.018029518096680e+001
0	 3.533309999982383e+000	 5.399969999982149e+000	 1.017231755654864e+001
0	 3.533309999982383e+000	 5.466639999981865e+000	 1.016456975904550e+001
0	 3.533309999982382e+000	 5.533309999982382e+000	 1.015705474818375e+001
0	 3.533309999982383e+000	 5.599979999983600e+000	 1.014977548368976e+001
0	 3.533309999982382e+000	 5.666649999985417e+000	 1.014273492528988e+001
0	 3.533309999982383e+000	 5.733319999987733e+000	 1.013593603271054e+001
0	 3.533309999982382e+000	 5.799989999990449e+000	 1.012938176567807e+001
0	 3.533309999982382e+000	 5.866659999993466e+000	 1.012307508391887e+001
0	 3.533309999982382e+000	 5.933329999996683e+000	 1.011701894715931e+001
0	 3.533309999982383e+000	 6.000000000000000e+000	 1.011121631512581e+001
0	 3.599979999983598e+000	 5.333299999983333e+000	 1.018834676157460e+001
0	 3.599979999983598e+000	 5.399969999982149e+000	 1.018027670785406e+001
0	 3.599979999983600e+000	 5.466639999981866e+000	 1.017245798351726e+001
0	 3.599979999983599e+000	 5.533309999982384e+000	 1.016488637591918e+001
0	 3.599979999983598e+000	 5.599979999983600e+000	 1.015755767241486e+001
0	 3.599979999983598e+000	 5.666649999985416e+000	 1.015046766035933e+001
0	 3.599979999983598e+000	 5.733319999987733e+000	 1.014361212710760e+001
0	 3.599979999983598e+000	 5.799989999990449e+000	 1.013698686001471e+001
0	 3.599979999983599e+000	 5.866659999993468e+000	 1.013058764643569e+001
0	 3.599979999983598e+000	 5.933329999996683e+000	 1.012441027372559e+001
0	 3.599979999983599e+000	 6.000000000000001e+000	 1.011845052923942e+001
0	 3.666649999985415e+000	 5.333299999983333e+000	 1.019593001783757e+001
0	 3.666649999985415e+000	 5.399969999982151e+000	 1.018775068130326e+001
0	 3.666649999985415e+000	 5.466639999981864e+000	 1.017984391390531e+001
0	 3.666649999985415e+000	 5.533309999982385e+000	 1.017219989212784e+001
0	 3.666649999985415e+000	 5.599979999983601e+000	 1.016480879245499e+001
0	 3.666649999985415e+000	 5.666649999985416e+000	 1.015766079137089e+001
0	 3.666649999985416e+000	 5.733319999987733e+000	 1.015074606535971e+001
0	 3.666649999985415e+000	 5.799989999990449e+000	 1.014405479090556e+001
0	 3.666649999985415e+000	 5.866659999993467e+000	 1.013757714449263e+001
0	 3.666649999985415e+000	 5.933329999996684e+000	 1.013130330260505e+001
0	 3.666649999985415e+000	 5.999999999999998e+000	 1.012522344172698e+001
0	 3.733319999987731e+000	 5.333299999983333e+000	 1.020304650816264e+001
0	 3.733319999987733e+000	 5.399969999982150e+000	 1.019475174430523e+001
0	 3.733319999987732e+000	 5.466639999981866e+000	 1.018674854717757e+001
0	 3.733319999987732e+000	 5.533309999982384e+000	 1.017902304389341e+001
0	 3.733319999987731e+000	 5.599979999983598e+000	 1.017156136156647e+001
0	 3.733319999987731e+000	 5.666649999985416e+000	 1.016434962731045e+001
0	 3.733319999987731e+000	 5.733319999987733e+000	 1.015737396823912e+001
0	 3.733319999987732e+000	 5.799989999990450e+000	 1.015062051146617e+001
0	 3.733319999987731e+000	 5.866659999993466e+000	 1.014407538410535e+001
0	 3.733319999987732e+000	 5.933329999996684e+000	 1.013772471327041e+001
0	 3.733319999987732e+000	 6.000000000000000e+000	 1.013155462607506e+001
0	 3.799989999990449e+000	 5.333299999983334e+000	 1.020969779095675e+001
0	 3.799989999990449e+000	 5.399969999982148e+000	 1.020129216426891e+001
0	 3.799989999990448e+000	 5.466639999981866e+000	 1.019319288030193e+001
0	 3.799989999990448e+000	 5.533309999982381e+000	 1.018538357829960e+001
0	 3.799989999990449e+000	 5.599979999983600e+000	 1.017784789750567e+001
0	 3.799989999990449e+000	 5.666649999985418e+000	 1.017056947716390e+001
0	 3.799989999990448e+000	 5.733319999987732e+000	 1.016353195651812e+001
0	 3.799989999990448e+000	 5.799989999990449e+000	 1.015671897481206e+001
0	 3.799989999990448e+000	 5.866659999993468e+000	 1.015011417128954e+001
0	 3.799989999990449e+000	 5.933329999996684e+000	 1.014370118519433e+001
0	 3.799989999990448e+000	 6.000000000000000e+000	 1.013746365577021e+001
0	 3.866659999993464e+000	 5.333299999983333e+000	 1.021588542462682e+001
0	 3.866659999993465e+000	 5.399969999982149e+000	 1.020738420860332e+001
0	 3.866659999993465e+000	 5.466639999981866e+000	 1.019919791024630e+001
0	 3.866659999993465e+000	 5.533309999982382e+000	 1.019130924243006e+001
0	 3.866659999993464e+000	 5.599979999983599e+000	 1.018370091802891e+001
0	 3.866659999993463e+000	 5.666649999985416e+000	 1.017635564991711e+001
0	 3.866659999993465e+000	 5.733319999987733e+000	 1.016925615096898e+001
0	 3.866659999993464e+000	 5.799989999990449e+000	 1.016238513405880e+001
0	 3.866659999993466e+000	 5.866659999993469e+000	 1.015572531206088e+001
0	 3.866659999993465e+000	 5.933329999996684e+000	 1.014925939784951e+001
0	 3.866659999993465e+000	 6.000000000000000e+000	 1.014297010429901e+001
0	 3.933329999996682e+000	 5.333299999983334e+000	 1.022161096757979e+001
0	 3.933329999996681e+000	 5.399969999982149e+000	 1.021304014471741e+001
0	 3.933329999996681e+000	 5.466639999981867e+000	 1.020478463397856e+001
0	 3.933329999996681e+000	 5.533309999982383e+000	 1.019682778336853e+001
0	 3.933329999996681e+000	 5.599979999983599e+000	 1.018915294089258e+001
0	 3.933329999996681e+000	 5.666649999985417e+000	 1.018174345455597e+001
0	 3.933329999996682e+000	 5.733319999987733e+000	 1.017458267236399e+001
0	 3.933329999996682e+000	 5.799989999990448e+000	 1.016765394232193e+001
0	 3.933329999996682e+000	 5.866659999993466e+000	 1.016094061243505e+001
0	 3.933329999996682e+000	 5.933329999996683e+000	 1.015442603070866e+001
0	 3.933329999996682e+000	 5.999999999999998e+000	 1.014809354514801e+001
0	 4.000000000000000e+000	 5.333299999983334e+000	 1.022687597822260e+001
0	 4.000000000000000e+000	 5.399969999982148e+000	 1.021827224002020e+001
0	 4.000000000000002e+000	 5.466639999981868e+000	 1.020997404846666e+001
0	 4.000000000000000e+000	 5.533309999982382e+000	 1.020196694819868e+001
0	 4.000000000000001e+000	 5.599979999983600e+000	 1.019423648385300e+001
0	 4.000000000000001e+000	 5.666649999985416e+000	 1.018676820006636e+001
0	 4.000000000000001e+000	 5.733319999987733e+000	 1.017954764147544e+001
0	 4.000000000000000e+000	 5.799989999990448e+000	 1.017256035271700e+001
0	 4.000000000000001e+000	 5.866659999993468e+000	 1.016579187842776e+001
0	 4.000000000000000e+000	 5.933329999996682e+000	 1.015922776324445e+001
0	 4.000000000000000e+000	 6.000000000000001e+000	 1.015285355180380e+001
0	 3.333299999983333e+000	 5.999999999999998e+000	 1.008655012816306e+001
0	 3.333299999983333e+000	 6.066670000003317e+000	 1.008186076566869e+001
0	 3.333299999983333e+000	 6.133340000006531e+000	 1.007738677360532e+001
0	 3.333299999983334e+000	 6.200010000009550e+000	 1.007311982218072e+001
0	 3.333299999983334e+000	 6.266680000012269e+000	 1.006905158160270e+001
0	 3.333299999983334e+000	 6.333350000014584e+000	 1.006517372207906e+001
0	 3.333299999983334e+000	 6.400020000016401e+000	 1.006147791381757e+001
0	 3.333299999983334e+000	 6.466690000017618e+000	 1.005795582702605e+001
0	 3.333299999983334e+000	 6.533360000018134e+000	 1.005459913191230e+001
0	 3.333299999983334e+000	 6.600030000017851e+000	 1.005139949868412e+001
0	 3.333299999983333e+000	 6.666700000016665e+000	 1.004834859754933e+001
0	 3.399969999982150e+000	 6.000000000000001e+000	 1.009528568807419e+001
0	 3.399969999982150e+000	 6.066670000003313e+000	 1.009024364402428e+001
0	 3.399969999982150e+000	 6.133340000006532e+000	 1.008542771040925e+001
0	 3.399969999982150e+000	 6.200010000009552e+000	 1.008083298404583e+001
0	 3.399969999982150e+000	 6.266680000012269e+000	 1.007645456175075e+001
0	 3.399969999982151e+000	 6.333350000014587e+000	 1.007228754034079e+001
0	 3.399969999982150e+000	 6.400020000016400e+000	 1.006832701663267e+001
0	 3.399969999982150e+000	 6.466690000017618e+000	 1.006456808744316e+001
0	 3.399969999982150e+000	 6.533360000018132e+000	 1.006100584958901e+001
0	 3.399969999982150e+000	 6.600030000017850e+000	 1.005763539988697e+001
0	 3.399969999982150e+000	 6.666700000016666e+000	 1.005445183515380e+001
0	 3.466639999981866e+000	 6.000000000000001e+000	 1.010350122589959e+001
0	 3.466639999981866e+000	 6.066670000003317e+000	 1.009817139296406e+001
0	 3.466639999981866e+000	 6.133340000006534e+000	 1.009307204562855e+001
0	 3.466639999981867e+000	 6.200010000009552e+000	 1.008820123703429e+001
0	 3.466639999981866e+000	 6.266680000012266e+000	 1.008355702032256e+001
0	 3.466639999981866e+000	 6.333350000014584e+000	 1.007913744863460e+001
0	 3.466639999981866e+000	 6.400020000016401e+000	 1.007494057511164e+001
0	 3.466639999981866e+000	 6.466690000017618e+000	 1.007096445289500e+001
0	 3.466639999981866e+000	 6.533360000018134e+000	 1.006720713512591e+001
0	 3.466639999981866e+000	 6.600030000017850e+000	 1.006366667494563e+001
0	 3.466639999981867e+000	 6.666700000016669e+000	 1.006034112549544e+001
0	 3.533309999982383e+000	 6.000000000000000e+000	 1.011121631512581e+001
0	 3.533309999982383e+000	 6.066670000003317e+000	 1.010565605910962e+001
0	 3.533309999982382e+000	 6.133340000006533e+000	 1.010032543670531e+001
0	 3.533309999982382e+000	 6.200010000009550e+000	 1.009522498709419e+001
0	 3.533309999982382e+000	 6.266680000012268e+000	 1.009035524945761e+001
0	 3.533309999982381e+000	 6.333350000014585e+000	 1.008571676297684e+001
0	 3.533309999982383e+000	 6.400020000016402e+000	 1.008131006683323e+001
0	 3.533309999982382e+000	 6.466690000017618e+000	 1.007713570020810e+001
0	 3.533309999982383e+000	 6.533360000018136e+000	 1.007319420228280e+001
0	 3.533309999982383e+000	 6.600030000017850e+000	 1.006948611223862e+001
0	 3.533309999982382e+000	 6.666700000016667e+000	 1.006601196925692e+001
0	 3.599979999983599e+000	 6.000000000000001e+000	 1.011845052923942e+001
0	 3.599979999983598e+000	 6.066670000003318e+000	 1.011270968908257e+001
0	 3.599979999983598e+000	 6.133340000006532e+000	 1.010719354108165e+001
0	 3.599979999983598e+000	 6.200010000009550e+000	 1.010190464017362e+001
0	 3.599979999983598e+000	 6.266680000012266e+000	 1.009684554129539e+001
0	 3.599979999983599e+000	 6.333350000014584e+000	 1.009201879938392e+001
0	 3.599979999983598e+000	 6.400020000016400e+000	 1.008742696937614e+001
0	 3.599979999983599e+000	 6.466690000017616e+000	 1.008307260620901e+001
0	 3.599979999983598e+000	 6.533360000018133e+000	 1.007895826481946e+001
0	 3.599979999983599e+000	 6.600030000017851e+000	 1.007508650014447e+001
0	 3.599979999983599e+000	 6.666700000016668e+000	 1.007145986712096e+001
0	 3.666649999985415e+000	 5.999999999999998e+000	 1.012522344172698e+001
0	 3.666649999985415e+000	 6.066670000003318e+000	 1.011934432950451e+001
0	 3.666649999985415e+000	 6.133340000006533e+000	 1.011368201619968e+001
0	 3.666649999985415e+000	 6.200010000009550e+000	 1.010824060222061e+001
0	 3.666649999985415e+000	 6.266680000012267e+000	 1.010302418797542e+001
0	 3.666649999985415e+000	 6.333350000014584e+000	 1.009803687387220e+001
0	 3.666649999985415e+000	 6.400020000016402e+000	 1.009328276031910e+001
0	 3.666649999985416e+000	 6.466690000017619e+000	 1.008876594772424e+001
0	 3.666649999985416e+000	 6.533360000018135e+000	 1.008449053649572e+001
0	 3.666649999985416e+000	 6.600030000017851e+000	 1.008046062704171e+001
0	 3.666649999985415e+000	 6.666700000016666e+000	 1.007668031977030e+001
0	 3.733319999987732e+000	 6.000000000000000e+000	 1.013155462607506e+001
0	 3.733319999987732e+000	 6.066670000003316e+000	 1.012557202699705e+001
0	 3.733319999987732e+000	 6.133340000006533e+000	 1.011979651950149e+001
0	 3.733319999987732e+000	 6.200010000009552e+000	 1.011423327918325e+001
0	 3.733319999987732e+000	 6.266680000012268e+000	 1.010888748163717e+001
0	 3.733319999987732e+000	 6.333350000014586e+000	 1.010376430245808e+001
0	 3.733319999987731e+000	 6.400020000016399e+000	 1.009886891724085e+001
0	 3.733319999987732e+000	 6.466690000017619e+000	 1.009420650158033e+001
0	 3.733319999987732e+000	 6.533360000018135e+000	 1.008978223107138e+001
0	 3.733319999987733e+000	 6.600030000017851e+000	 1.008560128130887e+001
0	 3.733319999987732e+000	 6.666700000016666e+000	 1.008166882788766e+001
0	 3.799989999990448e+000	 6.000000000000000e+000	 1.013746365577021e+001
0	 3.799989999990448e+000	 6.066670000003319e+000	 1.013140482818178e+001
0	 3.799989999990448e+000	 6.133340000006533e+000	 1.012554270842921e+001
0	 3.799989999990448e+000	 6.200010000009551e+000	 1.011988307700961e+001
0	 3.799989999990448e+000	 6.266680000012268e+000	 1.011443171442014e+001
0	 3.799989999990449e+000	 6.333350000014584e+000	 1.010919440115791e+001
0	 3.799989999990448e+000	 6.400020000016402e+000	 1.010417691772008e+001
0	 3.799989999990448e+000	 6.466690000017616e+000	 1.009938504460382e+001
0	 3.799989999990449e+000	 6.533360000018135e+000	 1.009482456230623e+001
0	 3.799989999990449e+000	 6.600030000017850e+000	 1.009050125132448e+001
0	 3.799989999990448e+000	 6.666700000016664e+000	 1.008642089215574e+001
0	 3.866659999993465e+000	 6.000000000000000e+000	 1.014297010429901e+001
0	 3.866659999993464e+000	 6.066670000003315e+000	 1.013685477968033e+001
0	 3.866659999993465e+000	 6.133340000006534e+000	 1.013092624042494e+001
0	 3.866659999993464e+000	 6.200010000009551e+000	 1.012519040164776e+001
0	 3.866659999993465e+000	 6.266680000012268e+000	 1.011965317846384e+001
0	 3.866659999993465e+000	 6.333350000014584e+000	 1.011432048598810e+001
0	 3.866659999993465e+000	 6.400020000016401e+000	 1.010919823933556e+001
0	 3.866659999993465e+000	 6.466690000017617e+000	 1.010429235362122e+001
0	 3.866659999993464e+000	 6.533360000018134e+000	 1.009960874396006e+001
0	 3.866659999993465e+000	 6.600030000017849e+000	 1.009515332546708e+001
0	 3.866659999993464e+000	 6.666700000016666e+000	 1.009093201325727e+001
0	 3.933329999996682e+000	 5.999999999999998e+000	 1.014809354514801e+001
0	 3.933329999996682e+000	 6.066670000003318e+000	 1.014193392811431e+001
0	 3.933329999996682e+000	 6.133340000006533e+000	 1.013595277293077e+001
0	 3.933329999996682e+000	 6.200010000009552e+000	 1.013015565904579e+001
0	 3.933329999996681e+000	 6.266680000012267e+000	 1.012454816590774e+001
0	 3.933329999996682e+000	 6.333350000014585e+000	 1.011913587296503e+001
0	 3.933329999996682e+000	 6.400020000016402e+000	 1.011392435966601e+001
0	 3.933329999996681e+000	 6.466690000017615e+000	 1.010891920545910e+001
0	 3.933329999996682e+000	 6.533360000018136e+000	 1.010412598979270e+001
0	 3.933329999996682e+000	 6.600030000017851e+000	 1.009955029211520e+001
0	 3.933329999996681e+000	 6.666700000016666e+000	 1.009519769187497e+001
0	 4.000000000000000e+000	 6.000000000000001e+000	 1.015285355180380e+001
0	 4.000000000000000e+000	 6.066670000003314e+000	 1.014665432010532e+001
0	 4.000000000000001e+000	 6.133340000006534e+000	 1.014062796338885e+001
0	 4.000000000000000e+000	 6.200010000009551e+000	 1.013477925515176e+001
0	 4.000000000000001e+000	 6.266680000012268e+000	 1.012911296889138e+001
0	 4.000000000000000e+000	 6.333350000014584e+000	 1.012363387810506e+001
0	 3.999999999999999e+000	 6.400020000016398e+000	 1.011834675629015e+001
0	 4.000000000000000e+000	 6.466690000017617e+000	 1.011325637694401e+001
0	 4.000000000000000e+000	 6.533360000018133e+000	 1.010836751356395e+001
0	 4.000000000000000e+000	 6.600030000017848e+000	 1.010368493964736e+001
0	 4.000000000000000e+000	 6.666700000016665e+000	 1.009921342869160e+001
0	 3.333299999983333e+000	 6.666700000016665e+000	 1.004834859754933e+001
0	 3.333299999983334e+000	 6.733360000014534e+000	 1.004542475941228e+001
0	 3.333299999983334e+000	 6.800020000011601e+000	 1.004261598475253e+001
0	 3.333299999983333e+000	 6.866680000008064e+000	 1.003992978876384e+001
0	 3.333299999983334e+000	 6.933340000004133e+000	 1.003737368663996e+001
0	 3.333299999983333e+000	 6.999999999999999e+000	 1.003495519357469e+001
0	 3.333299999983335e+000	 7.066659999995867e+000	 1.003268182476174e+001
0	 3.333299999983334e+000	 7.133319999991936e+000	 1.003056109539487e+001
0	 3.333299999983334e+000	 7.199979999988401e+000	 1.002860052066784e+001
0	 3.333299999983334e+000	 7.266639999985467e+000	 1.002680761577438e+001
0	 3.333299999983335e+000	 7.333299999983336e+000	 1.002518989590825e+001
0	 3.399969999982150e+000	 6.666700000016666e+000	 1.005445183515380e+001
0	 3.399969999982150e+000	 6.733360000014531e+000	 1.005141120946946e+001
0	 3.399969999982150e+000	 6.800020000011599e+000	 1.004847630478749e+001
0	 3.399969999982150e+000	 6.866680000008066e+000	 1.004565370095594e+001
0	 3.399969999982150e+000	 6.933340000004133e+000	 1.004294997782294e+001
0	 3.399969999982150e+000	 6.999999999999999e+000	 1.004037171523654e+001
0	 3.399969999982150e+000	 7.066659999995865e+000	 1.003792549304484e+001
0	 3.399969999982150e+000	 7.133319999991934e+000	 1.003561789109592e+001
0	 3.399969999982150e+000	 7.199979999988400e+000	 1.003345548923782e+001
0	 3.399969999982150e+000	 7.266639999985467e+000	 1.003144486731862e+001
0	 3.399969999982149e+000	 7.333299999983332e+000	 1.002959260518640e+001
0	 3.466639999981867e+000	 6.666700000016669e+000	 1.006034112549544e+001
0	 3.466639999981867e+000	 6.733360000014534e+000	 1.005717102793772e+001
0	 3.466639999981866e+000	 6.800020000011599e+000	 1.005410105439813e+001
0	 3.466639999981866e+000	 6.866680000008068e+000	 1.005113690282479e+001
0	 3.466639999981866e+000	 6.933340000004134e+000	 1.004828427116586e+001
0	 3.466639999981866e+000	 6.999999999999998e+000	 1.004554885736946e+001
0	 3.466639999981866e+000	 7.066659999995866e+000	 1.004293635938370e+001
0	 3.466639999981866e+000	 7.133319999991935e+000	 1.004045247515671e+001
0	 3.466639999981866e+000	 7.199979999988400e+000	 1.003810290263663e+001
0	 3.466639999981866e+000	 7.266639999985467e+000	 1.003589333977155e+001
0	 3.466639999981866e+000	 7.333299999983332e+000	 1.003382948450958e+001
0	 3.533309999982382e+000	 6.666700000016667e+000	 1.006601196925692e+001
0	 3.533309999982382e+000	 6.733360000014534e+000	 1.006270271622265e+001
0	 3.533309999982382e+000	 6.800020000011599e+000	 1.005949117584927e+001
0	 3.533309999982383e+000	 6.866680000008067e+000	 1.005638221763067e+001
0	 3.533309999982382e+000	 6.933340000004132e+000	 1.005338071106077e+001
0	 3.533309999982383e+000	 7.000000000000001e+000	 1.005049152563346e+001
0	 3.533309999982382e+000	 7.066659999995866e+000	 1.004771953084261e+001
0	 3.533309999982383e+000	 7.133319999991936e+000	 1.004506959618218e+001
0	 3.533309999982382e+000	 7.199979999988400e+000	 1.004254659114600e+001
0	 3.533309999982383e+000	 7.266639999985467e+000	 1.004015538522799e+001
0	 3.533309999982382e+000	 7.333299999983335e+000	 1.003790084792200e+001
0	 3.599979999983599e+000	 6.666700000016668e+000	 1.007145986712096e+001
0	 3.599979999983599e+000	 6.733360000014532e+000	 1.006800477572990e+001
0	 3.599979999983599e+000	 6.800020000011598e+000	 1.006464761140573e+001
0	 3.599979999983598e+000	 6.866680000008066e+000	 1.006139246863386e+001
0	 3.599979999983599e+000	 6.933340000004134e+000	 1.005824344189967e+001
0	 3.599979999983598e+000	 6.999999999999999e+000	 1.005520462568856e+001
0	 3.599979999983598e+000	 7.066659999995865e+000	 1.005228011448592e+001
0	 3.599979999983599e+000	 7.133319999991934e+000	 1.004947400277716e+001
0	 3.599979999983598e+000	 7.199979999988399e+000	 1.004679038504765e+001
0	 3.599979999983599e+000	 7.266639999985468e+000	 1.004423335578277e+001
0	 3.599979999983598e+000	 7.333299999983334e+000	 1.004180700946790e+001
0	 3.666649999985415e+000	 6.666700000016666e+000	 1.007668031977030e+001
0	 3.666649999985415e+000	 6.733360000014532e+000	 1.007307570786510e+001
0	 3.666649999985415e+000	 6.800020000011601e+000	 1.006957130333233e+001
0	 3.666649999985415e+000	 6.866680000008066e+000	 1.006617047909462e+001
0	 3.666649999985414e+000	 6.933340000004129e+000	 1.006287660807455e+001
0	 3.666649999985415e+000	 6.999999999999999e+000	 1.005969306319479e+001
0	 3.666649999985415e+000	 7.066659999995867e+000	 1.005662321737792e+001
0	 3.666649999985415e+000	 7.133319999991936e+000	 1.005367044354655e+001
0	 3.666649999985416e+000	 7.199979999988400e+000	 1.005083811462328e+001
0	 3.666649999985415e+000	 7.266639999985468e+000	 1.004812960353073e+001
0	 3.666649999985415e+000	 7.333299999983333e+000	 1.004554828319148e+001
0	 3.733319999987732e+000	 6.666700000016666e+000	 1.008166882788766e+001
0	 3.733319999987731e+000	 6.733360000014532e+000	 1.007791401403388e+001
0	 3.733319999987731e+000	 6.800020000011599e+000	 1.007426319389388e+001
0	 3.733319999987732e+000	 6.866680000008067e+000	 1.007071907227323e+001
0	 3.733319999987732e+000	 6.933340000004134e+000	 1.006728435397747e+001
0	 3.733319999987732e+000	 6.999999999999999e+000	 1.006396174381219e+001
0	 3.733319999987732e+000	 7.066659999995867e+000	 1.006075394658291e+001
0	 3.733319999987732e+000	 7.133319999991934e+000	 1.005766366709521e+001
0	 3.733319999987732e+000	 7.199979999988401e+000	 1.005469361015462e+001
0	 3.733319999987732e+000	 7.266639999985467e+000	 1.005184648056669e+001
0	 3.733319999987732e+000	 7.333299999983333e+000	 1.004912498313697e+001
0	 3.799989999990448e+000	 6.666700000016664e+000	 1.008642089215574e+001
0	 3.799989999990449e+000	 6.733360000014533e+000	 1.008251819564186e+001
0	 3.799989999990449e+000	 6.800020000011601e+000	 1.007872422535519e+001
0	 3.799989999990448e+000	 6.866680000008067e+000	 1.007504107142997e+001
0	 3.799989999990448e+000	 6.933340000004132e+000	 1.007147082400044e+001
0	 3.799989999990448e+000	 6.999999999999999e+000	 1.006801557320078e+001
0	 3.799989999990448e+000	 7.066659999995867e+000	 1.006467740916524e+001
0	 3.799989999990448e+000	 7.133319999991934e+000	 1.006145842202804e+001
0	 3.799989999990449e+000	 7.199979999988400e+000	 1.005836070192339e+001
0	 3.799989999990448e+000	 7.266639999985467e+000	 1.005538633898551e+001
0	 3.799989999990449e+000	 7.333299999983335e+000	 1.005253742334859e+001
0	 3.866659999993464e+000	 6.666700000016666e+000	 1.009093201325727e+001
0	 3.866659999993465e+000	 6.733360000014533e+000	 1.008688675409468e+001
0	 3.866659999993465e+000	 6.800020000011601e+000	 1.008295533998110e+001
0	 3.866659999993465e+000	 6.866680000008067e+000	 1.007913929982515e+001
0	 3.866659999993465e+000	 6.933340000004135e+000	 1.007544016253544e+001
0	 3.866659999993464e+000	 6.999999999999999e+000	 1.007185945702059e+001
0	 3.866659999993465e+000	 7.066659999995868e+000	 1.006839871218921e+001
0	 3.866659999993465e+000	 7.133319999991935e+000	 1.006505945694992e+001
0	 3.866659999993465e+000	 7.199979999988401e+000	 1.006184322021131e+001
0	 3.866659999993466e+000	 7.266639999985467e+000	 1.005875153088199e+001
0	 3.866659999993464e+000	 7.333299999983333e+000	 1.005578591787056e+001
0	 3.933329999996681e+000	 6.666700000016666e+000	 1.009519769187498e+001
0	 3.933329999996682e+000	 6.733360000014534e+000	 1.009101819079798e+001
0	 3.933329999996682e+000	 6.800020000011600e+000	 1.008695748003641e+001
0	 3.933329999996682e+000	 6.866680000008067e+000	 1.008301658071902e+001
0	 3.933329999996682e+000	 6.933340000004133e+000	 1.007919651397452e+001
0	 3.933329999996681e+000	 6.999999999999999e+000	 1.007549830093165e+001
0	 3.933329999996681e+000	 7.066659999995866e+000	 1.007192296271914e+001
0	 3.933329999996681e+000	 7.133319999991934e+000	 1.006847152046571e+001
0	 3.933329999996682e+000	 7.199979999988401e+000	 1.006514499530009e+001
0	 3.933329999996682e+000	 7.266639999985467e+000	 1.006194440835099e+001
0	 3.933329999996682e+000	 7.333299999983334e+000	 1.005887078074710e+001
0	 4.000000000000000e+000	 6.666700000016665e+000	 1.009921342869160e+001
0	 4.000000000000001e+000	 6.733360000014532e+000	 1.009491100715739e+001
0	 4.000000000000000e+000	 6.800020000011598e+000	 1.009073158778596e+001
0	 4.000000000000000e+000	 6.866680000008068e+000	 1.008667573737187e+001
0	 4.000000000000001e+000	 6.933340000004132e+000	 1.008274402270969e+001
0	 4.000000000000000e+000	 6.999999999999998e+000	 1.007893701059401e+001
0	 4.000000000000000e+000	 7.066659999995868e+000	 1.007525526781936e+001
0	 4.000000000000000e+000	 7.133319999991934e+000	 1.007169936118033e+001
0	 4.000000000000001e+000	 7.199979999988402e+000	 1.006826985747146e+001
0	 4.000000000000001e+000	 7.266639999985467e+000	 1.006496732348732e+001
0	 4.000000000000001e+000	 7.333299999983335e+000	 1.006179232602245e+001
0	 3.333299999983335e+000	 7.333299999983336e+000	 1.002518989590825e+001
0	 3.333299999983333e+000	 7.399969999982149e+000	 1.002369083751335e+001
0	 3.333299999983334e+000	 7.466639999981866e+000	 1.002225003551472e+001
0	 3.333299999983334e+000	 7.533309999982383e+000	 1.002086849532896e+001
0	 3.333299999983334e+000	 7.599979999983601e+000	 1.001954722237268e+001
0	 3.333299999983334e+000	 7.666649999985416e+000	 1.001828722206253e+001
0	 3.333299999983334e+000	 7.733319999987733e+000	 1.001708949981508e+001
0	 3.333299999983334e+000	 7.799989999990448e+000	 1.001595506104698e+001
0	 3.333299999983333e+000	 7.866659999993466e+000	 1.001488491117481e+001
0	 3.333299999983334e+000	 7.933329999996683e+000	 1.001388005561522e+001
0	 3.333299999983334e+000	 8.000000000000000e+000	 1.001294149978480e+001
0	 3.399969999982149e+000	 7.333299999983332e+000	 1.002959260518640e+001
0	 3.399969999982150e+000	 7.399969999982149e+000	 1.002785713352677e+001
0	 3.399969999982150e+000	 7.466639999981865e+000	 1.002619342565551e+001
0	 3.399969999982150e+000	 7.533309999982385e+000	 1.002460207838627e+001
0	 3.399969999982150e+000	 7.599979999983598e+000	 1.002308368853262e+001
0	 3.399969999982150e+000	 7.666649999985416e+000	 1.002163885290823e+001
0	 3.399969999982150e+000	 7.733319999987732e+000	 1.002026816832666e+001
0	 3.399969999982150e+000	 7.799989999990450e+000	 1.001897223160156e+001
0	 3.399969999982150e+000	 7.866659999993466e+000	 1.001775163954654e+001
0	 3.399969999982150e+000	 7.933329999996683e+000	 1.001660698897520e+001
0	 3.399969999982150e+000	 8.000000000000000e+000	 1.001553887670118e+001
0	 3.466639999981866e+000	 7.333299999983332e+000	 1.003382948450958e+001
0	 3.466639999981866e+000	 7.399969999982150e+000	 1.003188102418894e+001
0	 3.466639999981867e+000	 7.466639999981868e+000	 1.003001461780116e+001
0	 3.466639999981866e+000	 7.533309999982382e+000	 1.002823052558890e+001
0	 3.466639999981866e+000	 7.599979999983601e+000	 1.002652900779482e+001
0	 3.466639999981866e+000	 7.666649999985418e+000	 1.002491032466158e+001
0	 3.466639999981866e+000	 7.733319999987734e+000	 1.002337473643181e+001
0	 3.466639999981867e+000	 7.799989999990450e+000	 1.002192250334818e+001
0	 3.466639999981866e+000	 7.866659999993466e+000	 1.002055388565336e+001
0	 3.466639999981866e+000	 7.933329999996682e+000	 1.001926914358996e+001
0	 3.466639999981866e+000	 8.000000000000000e+000	 1.001806853740071e+001
0	 3.533309999982382e+000	 7.333299999983335e+000	 1.003790084792200e+001
0	 3.533309999982383e+000	 7.399969999982151e+000	 1.003576068883194e+001
0	 3.533309999982383e+000	 7.466639999981866e+000	 1.003371002380770e+001
0	 3.533309999982382e+000	 7.533309999982385e+000	 1.003174884855305e+001
0	 3.533309999982383e+000	 7.599979999983599e+000	 1.002987715877168e+001
0	 3.533309999982382e+000	 7.666649999985417e+000	 1.002809495016736e+001
0	 3.533309999982382e+000	 7.733319999987733e+000	 1.002640221844379e+001
0	 3.533309999982382e+000	 7.799989999990448e+000	 1.002479895930475e+001
0	 3.533309999982382e+000	 7.866659999993467e+000	 1.002328516845392e+001
0	 3.533309999982383e+000	 7.933329999996684e+000	 1.002186084159505e+001
0	 3.533309999982383e+000	 8.000000000000000e+000	 1.002052597443192e+001
0	 3.599979999983598e+000	 7.333299999983334e+000	 1.004180700946790e+001
0	 3.599979999983599e+000	 7.399969999982151e+000	 1.003949430678786e+001
0	 3.599979999983599e+000	 7.466639999981866e+000	 1.003727605553124e+001
0	 3.599979999983599e+000	 7.533309999982382e+000	 1.003515205889488e+001
0	 3.599979999983598e+000	 7.599979999983598e+000	 1.003312212007564e+001
0	 3.599979999983598e+000	 7.666649999985415e+000	 1.003118604227036e+001
0	 3.599979999983599e+000	 7.733319999987733e+000	 1.002934362867591e+001
0	 3.599979999983598e+000	 7.799989999990448e+000	 1.002759468248913e+001
0	 3.599979999983598e+000	 7.866659999993466e+000	 1.002593900690686e+001
0	 3.599979999983598e+000	 7.933329999996682e+000	 1.002437640512597e+001
0	 3.599979999983599e+000	 8.000000000000002e+000	 1.002290668034332e+001
0	 3.666649999985415e+000	 7.333299999983333e+000	 1.004554828319149e+001
0	 3.666649999985415e+000	 7.399969999982151e+000	 1.004308005738878e+001
0	 3.666649999985415e+000	 7.466639999981868e+000	 1.004070912482780e+001
0	 3.666649999985416e+000	 7.533309999982385e+000	 1.003843516823057e+001
0	 3.666649999985415e+000	 7.599979999983599e+000	 1.003625787031910e+001
0	 3.666649999985415e+000	 7.666649999985417e+000	 1.003417691381537e+001
0	 3.666649999985415e+000	 7.733319999987732e+000	 1.003219198144142e+001
0	 3.666649999985415e+000	 7.799989999990449e+000	 1.003030275591924e+001
0	 3.666649999985415e+000	 7.866659999993464e+000	 1.002850891997086e+001
0	 3.666649999985415e+000	 7.933329999996682e+000	 1.002681015631827e+001
0	 3.666649999985414e+000	 7.999999999999998e+000	 1.002520614768348e+001
0	 3.733319999987732e+000	 7.333299999983333e+000	 1.004912498313697e+001
0	 3.733319999987732e+000	 7.399969999982150e+000	 1.004651611996676e+001
0	 3.733319999987732e+000	 7.466639999981866e+000	 1.004400564355346e+001
0	 3.733319999987732e+000	 7.533309999982383e+000	 1.004159318817631e+001
0	 3.733319999987730e+000	 7.599979999983598e+000	 1.003927838811447e+001
0	 3.733319999987732e+000	 7.666649999985416e+000	 1.003706087764717e+001
0	 3.733319999987732e+000	 7.733319999987733e+000	 1.003494029105362e+001
0	 3.733319999987732e+000	 7.799989999990451e+000	 1.003291626261300e+001
0	 3.733319999987732e+000	 7.866659999993465e+000	 1.003098842660453e+001
0	 3.733319999987732e+000	 7.933329999996683e+000	 1.002915641730743e+001
0	 3.733319999987732e+000	 8.000000000000000e+000	 1.002741986900090e+001
0	 3.799989999990449e+000	 7.333299999983335e+000	 1.005253742334859e+001
0	 3.799989999990449e+000	 7.399969999982151e+000	 1.004980067385389e+001
0	 3.799989999990448e+000	 7.466639999981865e+000	 1.004716202356430e+001
0	 3.799989999990448e+000	 7.533309999982384e+000	 1.004462113034825e+001
0	 3.799989999990448e+000	 7.599979999983598e+000	 1.004217765207419e+001
0	 3.799989999990449e+000	 7.666649999985417e+000	 1.003983124661055e+001
0	 3.799989999990449e+000	 7.733319999987733e+000	 1.003758157182577e+001
0	 3.799989999990448e+000	 7.799989999990450e+000	 1.003542828558829e+001
0	 3.799989999990448e+000	 7.866659999993466e+000	 1.003337104576657e+001
0	 3.799989999990448e+000	 7.933329999996683e+000	 1.003140951022903e+001
0	 3.799989999990448e+000	 8.000000000000000e+000	 1.002954333684412e+001
0	 3.866659999993464e+000	 7.333299999983333e+000	 1.005578591787056e+001
0	 3.866659999993466e+000	 7.399969999982151e+000	 1.005293189838226e+001
0	 3.866659999993464e+000	 7.466639999981866e+000	 1.005017467671637e+001
0	 3.866659999993465e+000	 7.533309999982382e+000	 1.004751400636260e+001
0	 3.866659999993465e+000	 7.599979999983599e+000	 1.004494964081067e+001
0	 3.866659999993464e+000	 7.666649999985417e+000	 1.004248133355029e+001
0	 3.866659999993465e+000	 7.733319999987733e+000	 1.004010883807117e+001
0	 3.866659999993463e+000	 7.799989999990447e+000	 1.003783190786303e+001
0	 3.866659999993465e+000	 7.866659999993468e+000	 1.003565029641558e+001
0	 3.866659999993465e+000	 7.933329999996684e+000	 1.003356375721855e+001
0	 3.866659999993465e+000	 8.000000000000000e+000	 1.003157204376166e+001
0	 3.933329999996682e+000	 7.333299999983334e+000	 1.005887078074710e+001
0	 3.933329999996682e+000	 7.399969999982151e+000	 1.005590797288394e+001
0	 3.933329999996681e+000	 7.466639999981865e+000	 1.005304001486574e+001
0	 3.933329999996681e+000	 7.533309999982382e+000	 1.005026682783553e+001
0	 3.933329999996681e+000	 7.599979999983600e+000	 1.004758833293634e+001
0	 3.933329999996682e+000	 7.666649999985415e+000	 1.004500445131118e+001
0	 3.933329999996681e+000	 7.733319999987733e+000	 1.004251510410310e+001
0	 3.933329999996682e+000	 7.799989999990451e+000	 1.004012021245512e+001
0	 3.933329999996682e+000	 7.866659999993467e+000	 1.003781969751025e+001
0	 3.933329999996682e+000	 7.933329999996685e+000	 1.003561348041155e+001
0	 3.933329999996681e+000	 7.999999999999999e+000	 1.003350148230206e+001
0	 4.000000000000001e+000	 7.333299999983335e+000	 1.006179232602245e+001
0	 4.000000000000001e+000	 7.399969999982151e+000	 1.005872707669102e+001
0	 4.000000000000000e+000	 7.466639999981866e+000	 1.005575444986848e+001
0	 4.000000000000000e+000	 7.533309999982384e+000	 1.005287460638322e+001
0	 4.000000000000000e+000	 7.599979999983599e+000	 1.005008770706360e+001
0	 4.000000000000001e+000	 7.666649999985416e+000	 1.004739391273801e+001
0	 4.000000000000000e+000	 7.733319999987733e+000	 1.004479338423483e+001
0	 4.000000000000000e+000	 7.799989999990448e+000	 1.004228628238244e+001
0	 4.000000000000000e+000	 7.866659999993465e+000	 1.003987276800922e+001
0	 4.000000000000000e+000	 7.933329999996684e+000	 1.003755300194356e+001
0	 4.000000000000000e+000	 7.999999999999999e+000	 1.003532714501383e+001
0	 3.333299999983334e+000	 8.000000000000000e+000	 1.001294149978480e+001
0	 3.333299999983334e+000	 8.066670000003317e+000	 1.001205352189957e+001
0	 3.333299999983334e+000	 8.133340000006532e+000	 1.001120054104657e+001
0	 3.333299999983334e+000	 8.200010000009550e+000	 1.001038377394901e+001
0	 3.333299999983334e+000	 8.266680000012267e+000	 1.000960443733013e+001
0	 3.333299999983334e+000	 8.333350000014585e+000	 1.000886374791316e+001
0	 3.333299999983334e+000	 8.400020000016399e+000	 1.000816292242133e+001
0	 3.333299999983334e+000	 8.466690000017618e+000	 1.000750317757786e+001
0	 3.333299999983333e+000	 8.533360000018133e+000	 1.000688573010597e+001
0	 3.333299999983335e+000	 8.600030000017851e+000	 1.000631179672890e+001
0	 3.333299999983334e+000	 8.666700000016668e+000	 1.000578259416988e+001
0	 3.399969999982150e+000	 8.000000000000000e+000	 1.001553887670118e+001
0	 3.399969999982150e+000	 8.066670000003317e+000	 1.001452509694614e+001
0	 3.399969999982149e+000	 8.133340000006530e+000	 1.001354407510156e+001
0	 3.399969999982150e+000	 8.200010000009549e+000	 1.001259735473577e+001
0	 3.399969999982150e+000	 8.266680000012268e+000	 1.001168647941707e+001
0	 3.399969999982151e+000	 8.333350000014583e+000	 1.001081299271386e+001
0	 3.399969999982150e+000	 8.400020000016401e+000	 1.000997843819443e+001
0	 3.399969999982150e+000	 8.466690000017614e+000	 1.000918435942712e+001
0	 3.399969999982150e+000	 8.533360000018133e+000	 1.000843229998028e+001
0	 3.399969999982150e+000	 8.600030000017851e+000	 1.000772380342224e+001
0	 3.399969999982149e+000	 8.666700000016666e+000	 1.000706041332133e+001
0	 3.466639999981866e+000	 8.000000000000000e+000	 1.001806853740071e+001
0	 3.466639999981865e+000	 8.066670000003317e+000	 1.001692562918842e+001
0	 3.466639999981866e+000	 8.133340000006532e+000	 1.001581499068694e+001
0	 3.466639999981867e+000	 8.200010000009552e+000	 1.001473839658539e+001
0	 3.466639999981866e+000	 8.266680000012265e+000	 1.001369762157289e+001
0	 3.466639999981866e+000	 8.333350000014583e+000	 1.001269444033856e+001
0	 3.466639999981866e+000	 8.400020000016401e+000	 1.001173062757147e+001
0	 3.466639999981866e+000	 8.466690000017620e+000	 1.001080795796078e+001
0	 3.466639999981867e+000	 8.533360000018135e+000	 1.000992820619560e+001
0	 3.466639999981866e+000	 8.600030000017849e+000	 1.000909314696503e+001
0	 3.466639999981866e+000	 8.666700000016668e+000	 1.000830455495821e+001
0	 3.533309999982383e+000	 8.000000000000000e+000	 1.002052597443192e+001
0	 3.533309999982383e+000	 8.066670000003315e+000	 1.001925185639666e+001
0	 3.533309999982382e+000	 8.133340000006530e+000	 1.001801105317604e+001
0	 3.533309999982382e+000	 8.200010000009549e+000	 1.001680547485561e+001
0	 3.533309999982382e+000	 8.266680000012267e+000	 1.001563703152093e+001
0	 3.533309999982382e+000	 8.333350000014583e+000	 1.001450763325758e+001
0	 3.533309999982383e+000	 8.400020000016401e+000	 1.001341919015114e+001
0	 3.533309999982382e+000	 8.466690000017616e+000	 1.001237361228715e+001
0	 3.533309999982383e+000	 8.533360000018137e+000	 1.001137280975121e+001
0	 3.533309999982382e+000	 8.600030000017851e+000	 1.001041869262887e+001
0	 3.533309999982382e+000	 8.666700000016668e+000	 1.000951317100572e+001
0	 3.599979999983599e+000	 8.000000000000002e+000	 1.002290668034332e+001
0	 3.599979999983598e+000	 8.066670000003315e+000	 1.002150051634112e+001
0	 3.599979999983598e+000	 8.133340000006532e+000	 1.002013002794213e+001
0	 3.599979999983599e+000	 8.200010000009552e+000	 1.001879716490404e+001
0	 3.599979999983598e+000	 8.266680000012265e+000	 1.001750387698453e+001
0	 3.599979999983599e+000	 8.333350000014587e+000	 1.001625211394132e+001
0	 3.599979999983598e+000	 8.400020000016399e+000	 1.001504382553210e+001
0	 3.599979999983598e+000	 8.466690000017612e+000	 1.001388096151455e+001
0	 3.599979999983598e+000	 8.533360000018135e+000	 1.001276547164640e+001
0	 3.599979999983599e+000	 8.600030000017851e+000	 1.001169930568530e+001
0	 3.599979999983599e+000	 8.666700000016666e+000	 1.001068441338900e+001
0	 3.666649999985414e+000	 7.999999999999998e+000	 1.002520614768348e+001
0	 3.666649999985415e+000	 8.066670000003315e+000	 1.002366834679206e+001
0	 3.666649999985415e+000	 8.133340000006536e+000	 1.002216968035852e+001
0	 3.666649999985416e+000	 8.200010000009552e+000	 1.002071204208835e+001
0	 3.666649999985415e+000	 8.266680000012270e+000	 1.001929732568706e+001
0	 3.666649999985415e+000	 8.333350000014583e+000	 1.001792742486012e+001
0	 3.666649999985416e+000	 8.400020000016403e+000	 1.001660423331305e+001
0	 3.666649999985416e+000	 8.466690000017618e+000	 1.001532964475132e+001
0	 3.666649999985415e+000	 8.533360000018135e+000	 1.001410555288044e+001
0	 3.666649999985416e+000	 8.600030000017851e+000	 1.001293385140590e+001
0	 3.666649999985415e+000	 8.666700000016665e+000	 1.001181643403322e+001
0	 3.733319999987732e+000	 8.000000000000000e+000	 1.002741986900090e+001
0	 3.733319999987732e+000	 8.066670000003317e+000	 1.002575208551973e+001
0	 3.733319999987732e+000	 8.133340000006532e+000	 1.002412777579852e+001
0	 3.733319999987732e+000	 8.200010000009552e+000	 1.002254868176623e+001
0	 3.733319999987732e+000	 8.266680000012267e+000	 1.002101654535185e+001
0	 3.733319999987732e+000	 8.333350000014585e+000	 1.001953310848433e+001
0	 3.733319999987732e+000	 8.400020000016401e+000	 1.001810011309265e+001
0	 3.733319999987732e+000	 8.466690000017616e+000	 1.001671930110577e+001
0	 3.733319999987732e+000	 8.533360000018131e+000	 1.001539241445264e+001
0	 3.733319999987732e+000	 8.600030000017851e+000	 1.001412119506226e+001
0	 3.733319999987732e+000	 8.666700000016668e+000	 1.001290738486358e+001
0	 3.799989999990448e+000	 8.000000000000000e+000	 1.002954333684412e+001
0	 3.799989999990449e+000	 8.066670000003317e+000	 1.002774847029437e+001
0	 3.799989999990449e+000	 8.133340000006534e+000	 1.002600207963539e+001
0	 3.799989999990448e+000	 8.200010000009552e+000	 1.002430565929534e+001
0	 3.799989999990448e+000	 8.266680000012267e+000	 1.002266070370227e+001
0	 3.799989999990449e+000	 8.333350000014585e+000	 1.002106870728433e+001
0	 3.799989999990448e+000	 8.400020000016401e+000	 1.001953116446959e+001
0	 3.799989999990448e+000	 8.466690000017616e+000	 1.001804956968622e+001
0	 3.799989999990449e+000	 8.533360000018135e+000	 1.001662541736229e+001
0	 3.799989999990448e+000	 8.600030000017849e+000	 1.001526020192593e+001
0	 3.799989999990448e+000	 8.666700000016668e+000	 1.001395541780526e+001
0	 3.866659999993465e+000	 8.000000000000000e+000	 1.003157204376166e+001
0	 3.866659999993464e+000	 8.066670000003315e+000	 1.002965423888625e+001
0	 3.866659999993464e+000	 8.133340000006532e+000	 1.002779035724250e+001
0	 3.866659999993464e+000	 8.200010000009550e+000	 1.002598155003333e+001
0	 3.866659999993465e+000	 8.266680000012268e+000	 1.002422896846166e+001
0	 3.866659999993465e+000	 8.333350000014585e+000	 1.002253376373043e+001
0	 3.866659999993466e+000	 8.400020000016401e+000	 1.002089708704256e+001
0	 3.866659999993464e+000	 8.466690000017618e+000	 1.001932008960100e+001
0	 3.866659999993465e+000	 8.533360000018133e+000	 1.001780392260866e+001
0	 3.866659999993464e+000	 8.600030000017849e+000	 1.001634973726848e+001
0	 3.866659999993465e+000	 8.666700000016666e+000	 1.001495868478338e+001
0	 3.933329999996681e+000	 7.999999999999999e+000	 1.003350148230206e+001
0	 3.933329999996682e+000	 8.066670000003317e+000	 1.003146612906563e+001
0	 3.933329999996681e+000	 8.133340000006532e+000	 1.002949037399310e+001
0	 3.933329999996682e+000	 8.200010000009550e+000	 1.002757492933788e+001
0	 3.933329999996682e+000	 8.266680000012268e+000	 1.002572050735338e+001
0	 3.933329999996682e+000	 8.333350000014585e+000	 1.002392782029303e+001
0	 3.933329999996681e+000	 8.400020000016399e+000	 1.002219758041024e+001
0	 3.933329999996682e+000	 8.466690000017616e+000	 1.002053049995846e+001
0	 3.933329999996681e+000	 8.533360000018133e+000	 1.001892729119106e+001
0	 3.933329999996681e+000	 8.600030000017847e+000	 1.001738866636148e+001
0	 3.933329999996682e+000	 8.666700000016666e+000	 1.001591533772319e+001
0	 4.000000000000000e+000	 7.999999999999999e+000	 1.003532714501383e+001
0	 4.000000000000001e+000	 8.066670000003319e+000	 1.003318087860276e+001
0	 4.000000000000001e+000	 8.133340000006536e+000	 1.003109989526051e+001
0	 4.000000000000002e+000	 8.200010000009552e+000	 1.002908437256666e+001
0	 4.000000000000000e+000	 8.266680000012267e+000	 1.002713448810078e+001
0	 4.000000000000000e+000	 8.333350000014585e+000	 1.002525041944247e+001
0	 4.000000000000000e+000	 8.400020000016399e+000	 1.002343234417130e+001
0	 4.000000000000000e+000	 8.466690000017618e+000	 1.002168043986688e+001
0	 4.000000000000001e+000	 8.533360000018135e+000	 1.001999488410876e+001
0	 4.000000000000000e+000	 8.600030000017847e+000	 1.001837585447654e+001
0	 4.000000000000000e+000	 8.666700000016666e+000	 1.001682352854982e+001
0	 3.333299999983334e+000	 8.666700000016668e+000	 1.000578259416988e+001
0	 3.333299999983334e+000	 8.733360002791903e+000	 1.000528662608572e+001
0	 3.333299999983334e+000	 8.800020022230553e+000	 1.000481114184133e+001
0	 3.333299999983334e+000	 8.866680074997039e+000	 1.000435570456487e+001
0	 3.333299999983334e+000	 8.933340177755779e+000	 1.000391987733131e+001
0	 3.333299999983333e+000	 9.000000347171181e+000	 1.000350322316235e+001
0	 3.333299999983334e+000	 9.066660599907667e+000	 1.000310530502634e+001
0	 3.333299999983335e+000	 9.133320952629656e+000	 1.000272568583842e+001
0	 3.333299999983333e+000	 9.199981422001558e+000	 1.000236392846044e+001
0	 3.333299999983334e+000	 9.266642024687796e+000	 1.000201959570095e+001
0	 3.333299999983334e+000	 9.333302777352785e+000	 1.000169225031521e+001
0	 3.399969999982149e+000	 8.666700000016666e+000	 1.000706041332133e+001
0	 3.399969999982150e+000	 8.733360002791905e+000	 1.000643571909137e+001
0	 3.399969999982150e+000	 8.800020022230555e+000	 1.000584131572374e+001
0	 3.399969999982150e+000	 8.866680074997044e+000	 1.000527604322960e+001
0	 3.399969999982150e+000	 8.933340177755776e+000	 1.000473874154788e+001
0	 3.399969999982150e+000	 9.000000347171181e+000	 1.000422825054522e+001
0	 3.399969999982150e+000	 9.066660599907669e+000	 1.000374341001600e+001
0	 3.399969999982150e+000	 9.133320952629656e+000	 1.000328305968236e+001
0	 3.399969999982150e+000	 9.199981422001562e+000	 1.000284603919413e+001
0	 3.399969999982150e+000	 9.266642024687798e+000	 1.000243118812884e+001
0	 3.399969999982149e+000	 9.333302777352783e+000	 1.000203734599175e+001
0	 3.466639999981866e+000	 8.666700000016668e+000	 1.000830455495821e+001
0	 3.466639999981866e+000	 8.733360002791901e+000	 1.000755982199158e+001
0	 3.466639999981866e+000	 8.800020022230555e+000	 1.000685373760148e+001
0	 3.466639999981866e+000	 8.866680074997040e+000	 1.000618451711780e+001
0	 3.466639999981866e+000	 8.933340177755781e+000	 1.000555037578102e+001
0	 3.466639999981866e+000	 9.000000347171181e+000	 1.000494952874214e+001
0	 3.466639999981866e+000	 9.066660599907669e+000	 1.000438019106282e+001
0	 3.466639999981866e+000	 9.133320952629655e+000	 1.000384057771521e+001
0	 3.466639999981866e+000	 9.199981422001557e+000	 1.000332890358213e+001
0	 3.466639999981867e+000	 9.266642024687799e+000	 1.000284338345682e+001
0	 3.466639999981866e+000	 9.333302777352783e+000	 1.000238223204322e+001
0	 3.533309999982382e+000	 8.666700000016668e+000	 1.000951317100572e+001
0	 3.533309999982382e+000	 8.733360002791901e+000	 1.000865633499292e+001
0	 3.533309999982382e+000	 8.800020022230557e+000	 1.000784519659055e+001
0	 3.533309999982382e+000	 8.866680074997042e+000	 1.000707744488319e+001
0	 3.533309999982382e+000	 8.933340177755778e+000	 1.000635076885052e+001
0	 3.533309999982383e+000	 9.000000347171184e+000	 1.000566285736723e+001
0	 3.533309999982382e+000	 9.066660599907669e+000	 1.000501139920312e+001
0	 3.533309999982383e+000	 9.133320952629658e+000	 1.000439408302298e+001
0	 3.533309999982383e+000	 9.199981422001558e+000	 1.000380859738668e+001
0	 3.533309999982382e+000	 9.266642024687796e+000	 1.000325263074912e+001
0	 3.533309999982382e+000	 9.333302777352783e+000	 1.000272387146018e+001
0	 3.599979999983599e+000	 8.666700000016666e+000	 1.001068441338900e+001
0	 3.599979999983598e+000	 8.733360002791899e+000	 1.000972265830202e+001
0	 3.599979999983599e+000	 8.800020022230555e+000	 1.000881248180696e+001
0	 3.599979999983599e+000	 8.866680074997042e+000	 1.000795114517947e+001
0	 3.599979999983599e+000	 8.933340177755779e+000	 1.000713590957616e+001
0	 3.599979999983599e+000	 9.000000347171184e+000	 1.000636403603460e+001
0	 3.599979999983599e+000	 9.066660599907666e+000	 1.000563278547328e+001
0	 3.599979999983599e+000	 9.133320952629655e+000	 1.000493941869167e+001
0	 3.599979999983598e+000	 9.199981422001558e+000	 1.000428119637011e+001
0	 3.599979999983598e+000	 9.266642024687796e+000	 1.000365537906990e+001
0	 3.599979999983598e+000	 9.333302777352783e+000	 1.000305922723327e+001
0	 3.666649999985415e+000	 8.666700000016665e+000	 1.001181643403322e+001
0	 3.666649999985415e+000	 8.733360002791903e+000	 1.001075619212547e+001
0	 3.666649999985415e+000	 8.800020022230557e+000	 1.000975238236672e+001
0	 3.666649999985415e+000	 8.866680074997044e+000	 1.000880193666034e+001
0	 3.666649999985415e+000	 8.933340177755778e+000	 1.000790178677774e+001
0	 3.666649999985416e+000	 9.000000347171184e+000	 1.000704886435836e+001
0	 3.666649999985416e+000	 9.066660599907667e+000	 1.000624010090969e+001
0	 3.666649999985416e+000	 9.133320952629656e+000	 1.000547242780728e+001
0	 3.666649999985415e+000	 9.199981422001560e+000	 1.000474277629465e+001
0	 3.666649999985415e+000	 9.266642024687796e+000	 1.000404807748340e+001
0	 3.666649999985415e+000	 9.333302777352781e+000	 1.000338526235308e+001
0	 3.733319999987732e+000	 8.666700000016668e+000	 1.001290738486358e+001
0	 3.733319999987732e+000	 8.733360002791905e+000	 1.001175433666984e+001
0	 3.733319999987732e+000	 8.800020022230555e+000	 1.001066168738583e+001
0	 3.733319999987731e+000	 8.866680074997040e+000	 1.000962613797951e+001
0	 3.733319999987732e+000	 8.933340177755778e+000	 1.000864438927502e+001
0	 3.733319999987732e+000	 9.000000347171183e+000	 1.000771314195264e+001
0	 3.733319999987732e+000	 9.066660599907669e+000	 1.000682909654873e+001
0	 3.733319999987732e+000	 9.133320952629656e+000	 1.000598895345583e+001
0	 3.733319999987732e+000	 9.199981422001560e+000	 1.000518941292259e+001
0	 3.733319999987733e+000	 9.266642024687796e+000	 1.000442717505376e+001
0	 3.733319999987732e+000	 9.333302777352783e+000	 1.000369893981020e+001
0	 3.799989999990448e+000	 8.666700000016668e+000	 1.001395541780526e+001
0	 3.799989999990448e+000	 8.733360002791905e+000	 1.001271449214176e+001
0	 3.799989999990448e+000	 8.800020022230555e+000	 1.001153718598029e+001
0	 3.799989999990448e+000	 8.866680074997042e+000	 1.001042006779069e+001
0	 3.799989999990448e+000	 8.933340177755779e+000	 1.000935970588781e+001
0	 3.799989999990449e+000	 9.000000347171179e+000	 1.000835266843153e+001
0	 3.799989999990449e+000	 9.066660599907667e+000	 1.000739552342674e+001
0	 3.799989999990449e+000	 9.133320952629658e+000	 1.000648483872334e+001
0	 3.799989999990447e+000	 9.199981422001557e+000	 1.000561718201620e+001
0	 3.799989999990448e+000	 9.266642024687798e+000	 1.000478912084521e+001
0	 3.799989999990448e+000	 9.333302777352783e+000	 1.000399722259525e+001
0	 3.866659999993465e+000	 8.666700000016666e+000	 1.001495868478338e+001
0	 3.866659999993465e+000	 8.733360002791903e+000	 1.001363405874781e+001
0	 3.866659999993464e+000	 8.800020022230553e+000	 1.001237566726612e+001
0	 3.866659999993465e+000	 8.866680074997040e+000	 1.001118004474758e+001
0	 3.866659999993465e+000	 8.933340177755778e+000	 1.001004372543586e+001
0	 3.866659999993465e+000	 9.000000347171183e+000	 1.000896324340918e+001
0	 3.866659999993465e+000	 9.066660599907669e+000	 1.000793513258013e+001
0	 3.866659999993465e+000	 9.133320952629658e+000	 1.000695592669581e+001
0	 3.866659999993465e+000	 9.199981422001558e+000	 1.000602215933776e+001
0	 3.866659999993464e+000	 9.266642024687796e+000	 1.000513036392196e+001
0	 3.866659999993464e+000	 9.333302777352783e+000	 1.000427707369881e+001
0	 3.933329999996682e+000	 8.666700000016666e+000	 1.001591533772320e+001
0	 3.933329999996681e+000	 8.733360002791899e+000	 1.001451043669458e+001
0	 3.933329999996682e+000	 8.800020022230557e+000	 1.001317392035932e+001
0	 3.933329999996682e+000	 8.866680074997040e+000	 1.001190238750389e+001
0	 3.933329999996682e+000	 8.933340177755776e+000	 1.001069243673899e+001
0	 3.933329999996681e+000	 9.000000347171183e+000	 1.000954066649969e+001
0	 3.933329999996681e+000	 9.066660599907669e+000	 1.000844367504524e+001
0	 3.933329999996682e+000	 9.133320952629655e+000	 1.000739806045927e+001
0	 3.933329999996681e+000	 9.199981422001555e+000	 1.000640042064954e+001
0	 3.933329999996682e+000	 9.266642024687799e+000	 1.000544735334817e+001
0	 3.933329999996682e+000	 9.333302777352781e+000	 1.000453545611150e+001
0	 4.000000000000000e+000	 8.666700000016666e+000	 1.001682352854982e+001
0	 4.000000000000000e+000	 8.733360002791901e+000	 1.001534102618869e+001
0	 4.000000000000000e+000	 8.800020022230555e+000	 1.001392873437591e+001
0	 4.000000000000000e+000	 8.866680074997040e+000	 1.001258341471332e+001
0	 4.000000000000000e+000	 8.933340177755778e+000	 1.001130182861696e+001
0	 4.000000000000001e+000	 9.000000347171181e+000	 1.001008073731718e+001
0	 4.000000000000000e+000	 9.066660599907667e+000	 1.000891690185848e+001
0	 4.000000000000001e+000	 9.133320952629656e+000	 1.000780708309970e+001
0	 4.000000000000001e+000	 9.199981422001560e+000	 1.000674804171381e+001
0	 4.000000000000001e+000	 9.266642024687796e+000	 1.000573653818808e+001
0	 4.000000000000000e+000	 9.333302777352783e+000	 1.000476933282392e+001
0	 3.333299999983334e+000	 9.333302777352785e+000	 1.000169225031521e+001
0	 3.333299999983334e+000	 9.399973674588177e+000	 1.000139249891219e+001
0	 3.333299999983334e+000	 9.466644621844619e+000	 1.000112896028104e+001
0	 3.333299999983334e+000	 9.533315502450002e+000	 1.000089807230652e+001
0	 3.333299999983333e+000	 9.599986199732197e+000	 1.000069627348984e+001
0	 3.333299999983334e+000	 9.666656597019093e+000	 1.000052000294825e+001
0	 3.333299999983334e+000	 9.733326577638577e+000	 1.000036570041478e+001
0	 3.333299999983334e+000	 9.799996024918524e+000	 1.000022980623790e+001
0	 3.333299999983334e+000	 9.866664822186822e+000	 1.000010876138120e+001
0	 3.333299999983333e+000	 9.933332852771354e+000	 9.999999007423250e+000
0	 3.333299999983334e+000	 1.000000000000000e+001	 9.999896986557141e+000
0	 3.399969999982149e+000	 9.333302777352783e+000	 1.000203734599175e+001
0	 3.399969999982150e+000	 9.399973674588175e+000	 1.000167494823239e+001
0	 3.399969999982151e+000	 9.466644621844623e+000	 1.000135319101190e+001
0	 3.399969999982150e+000	 9.533315502449995e+000	 1.000106888272382e+001
0	 3.399969999982150e+000	 9.599986199732198e+000	 1.000081883251905e+001
0	 3.399969999982150e+000	 9.666656597019093e+000	 1.000059985030548e+001
0	 3.399969999982149e+000	 9.733326577638572e+000	 1.000040874674781e+001
0	 3.399969999982150e+000	 9.799996024918524e+000	 1.000024233326719e+001
0	 3.399969999982150e+000	 9.866664822186822e+000	 1.000009742204090e+001
0	 3.399969999982150e+000	 9.933332852771354e+000	 9.999970826002267e+000
0	 3.399969999982150e+000	 1.000000000000000e+001	 9.999859358840036e+000
0	 3.466639999981866e+000	 9.333302777352783e+000	 1.000238223204322e+001
0	 3.466639999981866e+000	 9.399973674588175e+000	 1.000195660268182e+001
0	 3.466639999981866e+000	 9.466644621844619e+000	 1.000157701372624e+001
0	 3.466639999981866e+000	 9.533315502449998e+000	 1.000124052568688e+001
0	 3.466639999981866e+000	 9.599986199732197e+000	 1.000094419997697e+001
0	 3.466639999981866e+000	 9.666656597019095e+000	 1.000068509891230e+001
0	 3.466639999981866e+000	 9.733326577638575e+000	 1.000046028571086e+001
0	 3.466639999981866e+000	 9.799996024918523e+000	 1.000026682449260e+001
0	 3.466639999981866e+000	 9.866664822186820e+000	 1.000010178027910e+001
0	 3.466639999981866e+000	 9.933332852771354e+000	 9.999962218993451e+000
0	 3.466639999981865e+000	 1.000000000000000e+001	 9.999845207459968e+000
0	 3.533309999982382e+000	 9.333302777352783e+000	 1.000272387146017e+001
0	 3.533309999982383e+000	 9.399973674588178e+000	 1.000223492829686e+001
0	 3.533309999982383e+000	 9.466644621844623e+000	 1.000179823494781e+001
0	 3.533309999982381e+000	 9.533315502450002e+000	 1.000141098565029e+001
0	 3.533309999982383e+000	 9.599986199732197e+000	 1.000107037569263e+001
0	 3.533309999982382e+000	 9.666656597019092e+000	 1.000077360141390e+001
0	 3.533309999982382e+000	 9.733326577638573e+000	 1.000051786020365e+001
0	 3.533309999982382e+000	 9.799996024918524e+000	 1.000030035050159e+001
0	 3.533309999982382e+000	 9.866664822186825e+000	 1.000011827179755e+001
0	 3.533309999982383e+000	 9.933332852771352e+000	 9.999968824631024e+000
0	 3.533309999982383e+000	 1.000000000000000e+001	 9.999849210591096e+000
0	 3.599979999983598e+000	 9.333302777352783e+000	 1.000305922723327e+001
0	 3.599979999983598e+000	 9.399973674588177e+000	 1.000250739111378e+001
0	 3.599979999983599e+000	 9.466644621844619e+000	 1.000201466120034e+001
0	 3.599979999983599e+000	 9.533315502450003e+000	 1.000157824706872e+001
0	 3.599979999983598e+000	 9.599986199732195e+000	 1.000119535949504e+001
0	 3.599979999983598e+000	 9.666656597019093e+000	 1.000086321045538e+001
0	 3.599979999983598e+000	 9.733326577638575e+000	 1.000057901312576e+001
0	 3.599979999983599e+000	 9.799996024918526e+000	 1.000033998188170e+001
0	 3.599979999983600e+000	 9.866664822186822e+000	 1.000014333229811e+001
0	 3.599979999983598e+000	 9.933332852771352e+000	 9.999986281148958e+000
0	 3.599979999983598e+000	 1.000000000000000e+001	 9.999866046407362e+000
0	 3.666649999985415e+000	 9.333302777352781e+000	 1.000338526235308e+001
0	 3.666649999985415e+000	 9.399973674588177e+000	 1.000277145716889e+001
0	 3.666649999985416e+000	 9.466644621844621e+000	 1.000222409900761e+001
0	 3.666649999985416e+000	 9.533315502450002e+000	 1.000174029439683e+001
0	 3.666649999985415e+000	 9.599986199732197e+000	 1.000131715121312e+001
0	 3.666649999985414e+000	 9.666656597019092e+000	 1.000095177868188e+001
0	 3.666649999985415e+000	 9.733326577638577e+000	 1.000064128737688e+001
0	 3.666649999985415e+000	 9.799996024918523e+000	 1.000038278922039e+001
0	 3.666649999985415e+000	 9.866664822186824e+000	 1.000017339748248e+001
0	 3.666649999985415e+000	 9.933332852771354e+000	 1.000001022678138e+001
0	 3.666649999985415e+000	 9.999999999999998e+000	 9.999890393082978e+000
0	 3.733319999987732e+000	 9.333302777352783e+000	 1.000369893981019e+001
0	 3.733319999987732e+000	 9.399973674588175e+000	 1.000302459249849e+001
0	 3.733319999987732e+000	 9.466644621844621e+000	 1.000242435489335e+001
0	 3.733319999987732e+000	 9.533315502450002e+000	 1.000189511208919e+001
0	 3.733319999987731e+000	 9.599986199732195e+000	 1.000143375067593e+001
0	 3.733319999987732e+000	 9.666656597019093e+000	 1.000103715873849e+001
0	 3.733319999987732e+000	 9.733326577638577e+000	 1.000070222585675e+001
0	 3.733319999987732e+000	 9.799996024918524e+000	 1.000042584310512e+001
0	 3.733319999987731e+000	 9.866664822186820e+000	 1.000020490305255e+001
0	 3.733319999987732e+000	 9.933332852771356e+000	 1.000003629976232e+001
0	 3.733319999987732e+000	 1.000000000000000e+001	 9.999916928791935e+000
0	 3.799989999990448e+000	 9.333302777352783e+000	 1.000399722259525e+001
0	 3.799989999990449e+000	 9.399973674588177e+000	 1.000326426313893e+001
0	 3.799989999990447e+000	 9.466644621844621e+000	 1.000261323538128e+001
0	 3.799989999990449e+000	 9.533315502450000e+000	 1.000204068460046e+001
0	 3.799989999990448e+000	 9.599986199732197e+000	 1.000154315771240e+001
0	 3.799989999990449e+000	 9.666656597019095e+000	 1.000111720327042e+001
0	 3.799989999990448e+000	 9.733326577638575e+000	 1.000075937146496e+001
0	 3.799989999990448e+000	 9.799996024918524e+000	 1.000046621412339e+001
0	 3.799989999990447e+000	 9.866664822186824e+000	 1.000023428471012e+001
0	 3.799989999990449e+000	 9.933332852771352e+000	 1.000006013832589e+001
0	 3.799989999990448e+000	 1.000000000000000e+001	 9.999940331708416e+000
0	 3.866659999993464e+000	 9.333302777352783e+000	 1.000427707369881e+001
0	 3.866659999993465e+000	 9.399973674588177e+000	 1.000348793512650e+001
0	 3.866659999993464e+000	 9.466644621844621e+000	 1.000278854699515e+001
0	 3.866659999993465e+000	 9.533315502450002e+000	 1.000217499638526e+001
0	 3.866659999993466e+000	 9.599986199732198e+000	 1.000164337215157e+001
0	 3.866659999993465e+000	 9.666656597019095e+000	 1.000118976492276e+001
0	 3.866659999993465e+000	 9.733326577638577e+000	 1.000081026710118e+001
0	 3.866659999993465e+000	 9.799996024918524e+000	 1.000050097286280e+001
0	 3.866659999993466e+000	 9.866664822186824e+000	 1.000025797815690e+001
0	 3.866659999993464e+000	 9.933332852771352e+000	 1.000007738070613e+001
0	 3.866659999993465e+000	 1.000000000000000e+001	 9.999955280006468e+000
0	 3.933329999996682e+000	 9.333302777352781e+000	 1.000453545611150e+001
0	 3.933329999996682e+000	 9.399973674588177e+000	 1.000369307449749e+001
0	 3.933329999996682e+000	 9.466644621844619e+000	 1.000294809625869e+001
0	 3.933329999996682e+000	 9.533315502450000e+000	 1.000229603189821e+001
0	 3.933329999996681e+000	 9.599986199732197e+000	 1.000173239382241e+001
0	 3.933329999996682e+000	 9.666656597019093e+000	 1.000125269634062e+001
0	 3.933329999996681e+000	 9.733326577638575e+000	 1.000085245566510e+001
0	 3.933329999996681e+000	 9.799996024918524e+000	 1.000052718991071e+001
0	 3.933329999996682e+000	 9.866664822186824e+000	 1.000027241909479e+001
0	 3.933329999996682e+000	 9.933332852771352e+000	 1.000008366513719e+001
0	 3.933329999996682e+000	 1.000000000000000e+001	 9.999956451860273e+000
0	 4.000000000000000e+000	 9.333302777352783e+000	 1.000476933282392e+001
0	 4.000000000000001e+000	 9.399973674588178e+000	 1.000387714728821e+001
0	 4.000000000000001e+000	 9.466644621844623e+000	 1.000308968969570e+001
0	 4.000000000000000e+000	 9.533315502450000e+000	 1.000240177559397e+001
0	 4.000000000000000e+000	 9.599986199732195e+000	 1.000180822255387e+001
0	 4.000000000000000e+000	 9.666656597019095e+000	 1.000130385016916e+001
0	 4.000000000000001e+000	 9.733326577638577e+000	 1.000088348005639e+001
0	 3.999999999999999e+000	 9.799996024918523e+000	 1.000054193585465e+001
0	 4.000000000000000e+000	 9.866664822186824e+000	 1.000027404322552e+001
0	 4.000000000000000e+000	 9.933332852771352e+000	 1.000007462985304e+001
0	 4.000000000000000e+000	 1.000000000000000e+001	 9.999938525443838e+000
0	 4.000000000000000e+000	 0.000000000000000e+000	 1.199786407963930e+000
0	 4.000000000000001e+000	 6.666714722864757e-002	 1.985020132377184e+000
0	 4.000000000000001e+000	 1.333351778131790e-001	 2.807514227070914e+000
0	 4.000000000000000e+000	 2.000039750814772e-001	 3.654713423721756e+000
0	 4.000000000000001e+000	 2.666734223614255e-001	 4.514061609392881e+000
0	 3.999999999999999e+000	 3.333434029809068e-001	 5.373001826736305e+000
0	 4.000000000000000e+000	 4.000138002678045e-001	 6.218976274173083e+000
0	 4.000000000000000e+000	 4.666844975500011e-001	 7.039426306051275e+000
0	 4.000000000000000e+000	 5.333553781553803e-001	 7.821792432781777e+000
0	 4.000000000000001e+000	 6.000263254118247e-001	 8.553514320952020e+000
0	 4.000000000000000e+000	 6.666972226472175e-001	 9.222030793417442e+000
0	 4.066670000003317e+000	 0.000000000000000e+000	 3.996199848258357e+000
0	 4.066670000003317e+000	 6.666714722864756e-002	 4.488346248780019e+000
0	 4.066670000003317e+000	 1.333351778131789e-001	 5.018037708679261e+000
0	 4.066670000003317e+000	 2.000039750814773e-001	 5.575781952841600e+000
0	 4.066670000003317e+000	 2.666734223614256e-001	 6.152086144300974e+000
0	 4.066670000003317e+000	 3.333434029809069e-001	 6.737456884379430e+000
0	 4.066670000003318e+000	 4.000138002678044e-001	 7.322400212812017e+000
0	 4.066670000003316e+000	 4.666844975500010e-001	 7.897421607856955e+000
0	 4.066670000003317e+000	 5.333553781553803e-001	 8.453025986391046e+000
0	 4.066670000003318e+000	 6.000263254118246e-001	 8.979717703990401e+000
0	 4.066670000003317e+000	 6.666972226472177e-001	 9.468000554996259e+000
0	 4.133340000006534e+000	 0.000000000000000e+000	 6.200389174368393e+000
0	 4.133340000006533e+000	 6.666714722864754e-002	 6.472996421073320e+000
0	 4.133340000006533e+000	 1.333351778131789e-001	 6.780557173496434e+000
0	 4.133340000006534e+000	 2.000039750814772e-001	 7.116277470725928e+000
0	 4.133340000006534e+000	 2.666734223614255e-001	 7.473363010333908e+000
0	 4.133340000006532e+000	 3.333434029809069e-001	 7.845019148466758e+000
0	 4.133340000006534e+000	 4.000138002678043e-001	 8.224450899926692e+000
0	 4.133340000006535e+000	 4.666844975500012e-001	 8.604862938244164e+000
0	 4.133340000006533e+000	 5.333553781553800e-001	 8.979459595741398e+000
0	 4.133340000006534e+000	 6.000263254118247e-001	 9.341444863586991e+000
0	 4.133340000006534e+000	 6.666972226472177e-001	 9.684022391841497e+000
0	 4.200010000009550e+000	 0.000000000000000e+000	 7.880264393586324e+000
0	 4.200010000009549e+000	 6.666714722864756e-002	 7.997039172799473e+000
0	 4.200010000009550e+000	 1.333351778131789e-001	 8.143996214191118e+000
0	 4.200010000009550e+000	 2.000039750814773e-001	 8.316675118175420e+000
0	 4.200010000009550e+000	 2.666734223614256e-001	 8.510615308875895e+000
0	 4.200010000009550e+000	 3.333434029809069e-001	 8.721356034178472e+000
0	 4.200010000009550e+000	 4.000138002678044e-001	 8.944436365779920e+000
0	 4.200010000009550e+000	 4.666844975500010e-001	 9.175395199231657e+000
0	 4.200010000009550e+000	 5.333553781553800e-001	 9.409771253978894e+000
0	 4.200010000009550e+000	 6.000263254118248e-001	 9.643103073395194e+000
0	 4.200010000009550e+000	 6.666972226472178e-001	 9.870929024812426e+000
0	 4.266680000012267e+000	 0.000000000000000e+000	 9.103735513204548e+000
0	 4.266680000012266e+000	 6.666714722864754e-002	 9.118543027500856e+000
0	 4.266680000012267e+000	 1.333351778131790e-001	 9.157278423431922e+000
0	 4.266680000012267e+000	 2.000039750814772e-001	 9.217450035990600e+000
0	 4.266680000012268e+000	 2.666734223614256e-001	 9.296566141311022e+000
0	 4.266680000012268e+000	 3.333434029809068e-001	 9.392134956694557e+000
0	 4.266680000012267e+000	 4.000138002678044e-001	 9.501664640634314e+000
0	 4.266680000012267e+000	 4.666844975500011e-001	 9.622663292838025e+000
0	 4.266680000012267e+000	 5.333553781553803e-001	 9.752638954249443e+000
0	 4.266680000012268e+000	 6.000263254118248e-001	 9.889099607068230e+000
0	 4.266680000012267e+000	 6.666972226472177e-001	 1.002955317476816e+001
0	 4.333350000014584e+000	 0.000000000000000e+000	 9.938712540515569e+000
0	 4.333350000014582e+000	 6.666714722864756e-002	 9.895576508719877e+000
0	 4.333350000014582e+000	 1.333351778131790e-001	 9.869327393887362e+000
0	 4.333350000014583e+000	 2.000039750814773e-001	 9.859077364971858e+000
0	 4.333350000014585e+000	 2.666734223614256e-001	 9.863938609023176e+000
0	 4.333350000014582e+000	 3.333434029809069e-001	 9.883023331194824e+000
0	 4.333350000014584e+000	 4.000138002678044e-001	 9.915443754752275e+000
0	 4.333350000014584e+000	 4.666844975500012e-001	 9.960312121081625e+000
0	 4.333350000014583e+000	 5.333553781553800e-001	 1.001674068969879e+001
0	 4.333350000014583e+000	 6.000263254118247e-001	 1.008384173825915e+001
0	 4.333350000014583e+000	 6.666972226472177e-001	 1.016072756256767e+001
0	 4.400020000016400e+000	 0.000000000000000e+000	 1.045310548281202e+001
0	 4.400020000016400e+000	 6.666714722864754e-002	 1.038620813999891e+001
0	 4.400020000016400e+000	 1.333351778131789e-001	 1.032906671822589e+001
0	 4.400020000016400e+000	 2.000039750814773e-001	 1.028203224591944e+001
0	 4.400020000016401e+000	 2.666734223614256e-001	 1.024545581339604e+001
0	 4.400020000016400e+000	 3.333434029809069e-001	 1.021968857285884e+001
0	 4.400020000016402e+000	 4.000138002678044e-001	 1.020508173839599e+001
0	 4.400020000016398e+000	 4.666844975500011e-001	 1.020198658598064e+001
0	 4.400020000016401e+000	 5.333553781553803e-001	 1.021075445347245e+001
0	 4.400020000016400e+000	 6.000263254118248e-001	 1.023173674062083e+001
0	 4.400020000016399e+000	 6.666972226472175e-001	 1.026528490906976e+001
0	 4.466690000017617e+000	 0.000000000000000e+000	 1.071482434738663e+001
0	 4.466690000017615e+000	 6.666714722864756e-002	 1.064850644488035e+001
0	 4.466690000017616e+000	 1.333351778131790e-001	 1.058541998911587e+001
0	 4.466690000017617e+000	 2.000039750814773e-001	 1.052678981963347e+001
0	 4.466690000017615e+000	 2.666734223614255e-001	 1.047384085581316e+001
0	 4.466690000017616e+000	 3.333434029809069e-001	 1.042779809686599e+001
0	 4.466690000017616e+000	 4.000138002678044e-001	 1.038988662182747e+001
0	 4.466690000017619e+000	 4.666844975500012e-001	 1.036133158955304e+001
0	 4.466690000017617e+000	 5.333553781553801e-001	 1.034335823871577e+001
0	 4.466690000017616e+000	 6.000263254118246e-001	 1.033719188780598e+001
0	 4.466690000017616e+000	 6.666972226472177e-001	 1.034405793513310e+001
0	 4.533360000018132e+000	 0.000000000000000e+000	 1.079177914153226e+001
0	 4.533360000018133e+000	 6.666714722864756e-002	 1.074053994690661e+001
0	 4.533360000018132e+000	 1.333351778131789e-001	 1.068731079922557e+001
0	 4.533360000018133e+000	 2.000039750814773e-001	 1.063382522691389e+001
0	 4.533360000018131e+000	 2.666734223614256e-001	 1.058181683765787e+001
0	 4.533360000018131e+000	 3.333434029809069e-001	 1.053301931839548e+001
0	 4.533360000018132e+000	 4.000138002678044e-001	 1.048916643530847e+001
0	 4.533360000018133e+000	 4.666844975500011e-001	 1.045199203381660e+001
0	 4.533360000018132e+000	 5.333553781553803e-001	 1.042323003857391e+001
0	 4.533360000018133e+000	 6.000263254118248e-001	 1.040461445346716e+001
0	 4.533360000018133e+000	 6.666972226472177e-001	 1.039787936161619e+001
0	 4.600030000017849e+000	 0.000000000000000e+000	 1.075187987254188e+001
0	 4.600030000017847e+000	 6.666714722864754e-002	 1.072037716962006e+001
0	 4.600030000017849e+000	 1.333351778131790e-001	 1.068366274122321e+001
0	 4.600030000017848e+000	 2.000039750814773e-001	 1.064361360856055e+001
0	 4.600030000017848e+000	 2.666734223614254e-001	 1.060210686031335e+001
0	 4.600030000017848e+000	 3.333434029809069e-001	 1.056101965262630e+001
0	 4.600030000017848e+000	 4.000138002678044e-001	 1.052222920910060e+001
0	 4.600030000017849e+000	 4.666844975500011e-001	 1.048761282078888e+001
0	 4.600030000017849e+000	 5.333553781553801e-001	 1.045904784619185e+001
0	 4.600030000017849e+000	 6.000263254118249e-001	 1.043841171125671e+001
0	 4.600030000017848e+000	 6.666972226472175e-001	 1.042758190937740e+001
0	 4.666700000016666e+000	 0.000000000000000e+000	 1.066303654770857e+001
0	 4.666700000016666e+000	 6.666714722864757e-002	 1.064608663656312e+001
0	 4.666700000016667e+000	 1.333351778131790e-001	 1.062339940777690e+001
0	 4.666700000016665e+000	 2.000039750814772e-001	 1.059663010537313e+001
0	 4.666700000016666e+000	 2.666734223614256e-001	 1.056743402516258e+001
0	 4.666700000016668e+000	 3.333434029809070e-001	 1.053746651473722e+001
0	 4.666700000016665e+000	 4.000138002678044e-001	 1.050838297346522e+001
0	 4.666700000016666e+000	 4.666844975500011e-001	 1.048183885248726e+001
0	 4.666700000016667e+000	 5.333553781553803e-001	 1.045948965471435e+001
0	 4.666700000016666e+000	 6.000263254118248e-001	 1.044299093482686e+001
0	 4.666700000016667e+000	 6.666972226472179e-001	 1.043399829927493e+001
0	 4.000000000000000e+000	 6.666972226472175e-001	 9.222030793417444e+000
0	 4.000000000000002e+000	 7.333579753122048e-001	 9.830902323083450e+000
0	 4.000000000000001e+000	 8.000185779984418e-001	 1.039162270157931e+001
0	 4.000000000000000e+000	 8.666790473703454e-001	 1.090324544265424e+001
0	 4.000000000000000e+000	 9.333394000923323e-001	 1.136482413772630e+001
0	 3.999999999999999e+000	 9.999996528288188e-001	 1.177541245588466e+001
0	 4.000000000000001e+000	 1.066659822244222e+000	 1.213406414389180e+001
0	 3.999999999999999e+000	 1.133319925002959e+000	 1.243983302618526e+001
0	 4.000000000000001e+000	 1.199979977769445e+000	 1.269177300487911e+001
0	 4.000000000000000e+000	 1.266639997208098e+000	 1.288893805976525e+001
0	 3.999999999999999e+000	 1.333299999983334e+000	 1.303038224831428e+001
0	 4.066670000003317e+000	 6.666972226472177e-001	 9.468000554996259e+000
0	 4.066670000003317e+000	 7.333579753122046e-001	 9.917883025996058e+000
0	 4.066670000003316e+000	 8.000185779984417e-001	 1.033520658089412e+001
0	 4.066670000003318e+000	 8.666790473703452e-001	 1.071901445057947e+001
0	 4.066670000003317e+000	 9.333394000923323e-001	 1.106834992164624e+001
0	 4.066670000003317e+000	 9.999996528288190e-001	 1.138225633639550e+001
0	 4.066670000003318e+000	 1.066659822244223e+000	 1.165977709283673e+001
0	 4.066670000003317e+000	 1.133319925002959e+000	 1.189995564468918e+001
0	 4.066670000003318e+000	 1.199979977769445e+000	 1.210183550138303e+001
0	 4.066670000003317e+000	 1.266639997208098e+000	 1.226446022806025e+001
0	 4.066670000003317e+000	 1.333299999983333e+000	 1.238687344557532e+001
0	 4.133340000006534e+000	 6.666972226472177e-001	 9.684022391841493e+000
0	 4.133340000006534e+000	 7.333579753122047e-001	 1.000478934165414e+001
0	 4.133340000006532e+000	 8.000185779984416e-001	 1.030533728321677e+001
0	 4.133340000006534e+000	 8.666790473703452e-001	 1.058471248685906e+001
0	 4.133340000006534e+000	 9.333394000923320e-001	 1.084196126121900e+001
0	 4.133340000006535e+000	 9.999996528288191e-001	 1.107612995324420e+001
0	 4.133340000006534e+000	 1.066659822244222e+000	 1.128626494819288e+001
0	 4.133340000006535e+000	 1.133319925002959e+000	 1.147141266963500e+001
0	 4.133340000006534e+000	 1.199979977769445e+000	 1.163061957945291e+001
0	 4.133340000006534e+000	 1.266639997208098e+000	 1.176293217784211e+001
0	 4.133340000006534e+000	 1.333299999983334e+000	 1.186739700331176e+001
0	 4.200010000009550e+000	 6.666972226472178e-001	 9.870929024812426e+000
0	 4.200010000009551e+000	 7.333579753122049e-001	 1.008940314859371e+001
0	 4.200010000009550e+000	 8.000185779984417e-001	 1.029709614567677e+001
0	 4.200010000009550e+000	 8.666790473703452e-001	 1.049307065239122e+001
0	 4.200010000009550e+000	 9.333394000923323e-001	 1.067638933001959e+001
0	 4.200010000009551e+000	 9.999996528288190e-001	 1.084611486479825e+001
0	 4.200010000009550e+000	 1.066659822244222e+000	 1.100130996791812e+001
0	 4.200010000009550e+000	 1.133319925002958e+000	 1.114103737552536e+001
0	 4.200010000009550e+000	 1.199979977769445e+000	 1.126435984872196e+001
0	 4.200010000009550e+000	 1.266639997208098e+000	 1.137034017356619e+001
0	 4.200010000009550e+000	 1.333299999983334e+000	 1.145804116107300e+001
0	 4.266680000012267e+000	 6.666972226472177e-001	 1.002955317476816e+001
0	 4.266680000012267e+000	 7.333579753122047e-001	 1.016950632535066e+001
0	 4.266680000012265e+000	 8.000185779984413e-001	 1.030556450540357e+001
0	 4.266680000012267e+000	 8.666790473703453e-001	 1.043682004807407e+001
0	 4.266680000012268e+000	 9.333394000923322e-001	 1.056236530162294e+001
0	 4.266680000012267e+000	 9.999996528288189e-001	 1.068129262942509e+001
0	 4.266680000012267e+000	 1.066659822244222e+000	 1.079269440997016e+001
0	 4.266680000012266e+000	 1.133319925002959e+000	 1.089566303686283e+001
0	 4.266680000012267e+000	 1.199979977769445e+000	 1.098929091882337e+001
0	 4.266680000012267e+000	 1.266639997208098e+000	 1.107267047968783e+001
0	 4.266680000012265e+000	 1.333299999983333e+000	 1.114489415840841e+001
0	 4.333350000014583e+000	 6.666972226472177e-001	 1.016072756256767e+001
0	 4.333350000014583e+000	 7.333579753122048e-001	 1.024288075046076e+001
0	 4.333350000014583e+000	 8.000185779984417e-001	 1.032582369952650e+001
0	 4.333350000014583e+000	 8.666790473703452e-001	 1.040869177480564e+001
0	 4.333350000014584e+000	 9.333394000923323e-001	 1.049062034960388e+001
0	 4.333350000014582e+000	 9.999996528288190e-001	 1.057074480549206e+001
0	 4.333350000014583e+000	 1.066659822244222e+000	 1.064820053230667e+001
0	 4.333350000014583e+000	 1.133319925002959e+000	 1.072212292814993e+001
0	 4.333350000014582e+000	 1.199979977769445e+000	 1.079164739939025e+001
0	 4.333350000014583e+000	 1.266639997208098e+000	 1.085590936066230e+001
0	 4.333350000014583e+000	 1.333299999983334e+000	 1.091404423486729e+001
0	 4.400020000016399e+000	 6.666972226472175e-001	 1.026528490906976e+001
0	 4.400020000016400e+000	 7.333579753122048e-001	 1.030730830245964e+001
0	 4.400020000016400e+000	 8.000185779984417e-001	 1.035295506517472e+001
0	 4.400020000016399e+000	 8.666790473703453e-001	 1.040141693348383e+001
0	 4.400020000016400e+000	 9.333394000923323e-001	 1.045188564753714e+001
0	 4.400020000016398e+000	 9.999996528288188e-001	 1.050355295136643e+001
0	 4.400020000016401e+000	 1.066659822244222e+000	 1.055561059288524e+001
0	 4.400020000016401e+000	 1.133319925002958e+000	 1.060725032388910e+001
0	 4.400020000016400e+000	 1.199979977769445e+000	 1.065766390005565e+001
0	 4.400020000016400e+000	 1.266639997208098e+000	 1.070604308094481e+001
0	 4.400020000016401e+000	 1.333299999983334e+000	 1.075157962999892e+001
0	 4.466690000017616e+000	 6.666972226472177e-001	 1.034405793513310e+001
0	 4.466690000017617e+000	 7.333579753122048e-001	 1.036057085988280e+001
0	 4.466690000017617e+000	 8.000185779984417e-001	 1.038203993947735e+001
0	 4.466690000017616e+000	 8.666790473703452e-001	 1.040772662500644e+001
0	 4.466690000017616e+000	 9.333394000923321e-001	 1.043689236899739e+001
0	 4.466690000017618e+000	 9.999996528288189e-001	 1.046879862541534e+001
0	 4.466690000017617e+000	 1.066659822244222e+000	 1.050270684966341e+001
0	 4.466690000017614e+000	 1.133319925002958e+000	 1.053787849858271e+001
0	 4.466690000017616e+000	 1.199979977769445e+000	 1.057357503045256e+001
0	 4.466690000017615e+000	 1.266639997208098e+000	 1.060905790499051e+001
0	 4.466690000017615e+000	 1.333299999983334e+000	 1.064358858335251e+001
0	 4.533360000018133e+000	 6.666972226472177e-001	 1.039787936161619e+001
0	 4.533360000018132e+000	 7.333579753122049e-001	 1.040045030126557e+001
0	 4.533360000018132e+000	 8.000185779984417e-001	 1.040815965956334e+001
0	 4.533360000018130e+000	 8.666790473703453e-001	 1.042035195027118e+001
0	 4.533360000018133e+000	 9.333394000923322e-001	 1.043637168755917e+001
0	 4.533360000018132e+000	 9.999996528288191e-001	 1.045556338600593e+001
0	 4.533360000018132e+000	 1.066659822244222e+000	 1.047727156059861e+001
0	 4.533360000018133e+000	 1.133319925002959e+000	 1.050084072673309e+001
0	 4.533360000018133e+000	 1.199979977769445e+000	 1.052561540021393e+001
0	 4.533360000018133e+000	 1.266639997208098e+000	 1.055094009725455e+001
0	 4.533360000018131e+000	 1.333299999983334e+000	 1.057615933447721e+001
0	 4.600030000017848e+000	 6.666972226472175e-001	 1.042758190937740e+001
0	 4.600030000017849e+000	 7.333579753122049e-001	 1.042472850514321e+001
0	 4.600030000017849e+000	 8.000185779984419e-001	 1.042639556256153e+001
0	 4.600030000017848e+000	 8.666790473703451e-001	 1.043202401017563e+001
0	 4.600030000017849e+000	 9.333394000923323e-001	 1.044105477679695e+001
0	 4.600030000017849e+000	 9.999996528288190e-001	 1.045292879150516e+001
0	 4.600030000017849e+000	 1.066659822244222e+000	 1.046708698364823e+001
0	 4.600030000017849e+000	 1.133319925002959e+000	 1.048297028284248e+001
0	 4.600030000017849e+000	 1.199979977769445e+000	 1.050001961897264e+001
0	 4.600030000017847e+000	 1.266639997208098e+000	 1.051767592219195e+001
0	 4.600030000017849e+000	 1.333299999983334e+000	 1.053538012292217e+001
0	 4.666700000016667e+000	 6.666972226472179e-001	 1.043399829927493e+001
0	 4.666700000016665e+000	 7.333579753122046e-001	 1.043118735005078e+001
0	 4.666700000016666e+000	 8.000185779984418e-001	 1.043182898560063e+001
0	 4.666700000016665e+000	 8.666790473703452e-001	 1.043547390561729e+001
0	 4.666700000016666e+000	 9.333394000923320e-001	 1.044167281028510e+001
0	 4.666700000016666e+000	 9.999996528288190e-001	 1.044997640028000e+001
0	 4.666700000016665e+000	 1.066659822244222e+000	 1.045993537676957e+001
0	 4.666700000016667e+000	 1.133319925002959e+000	 1.047110044141305e+001
0	 4.666700000016666e+000	 1.199979977769445e+000	 1.048302229636150e+001
0	 4.666700000016667e+000	 1.266639997208098e+000	 1.049525164425773e+001
0	 4.666700000016666e+000	 1.333299999983334e+000	 1.050733918823644e+001
0	 3.999999999999999e+000	 1.333299999983334e+000	 1.303038224831428e+001
0	 4.000000000000000e+000	 1.399969999982150e+000	 1.312591297784186e+001
0	 4.000000000000002e+000	 1.466639999981866e+000	 1.318640167198276e+001
0	 4.000000000000000e+000	 1.533309999982383e+000	 1.321254944685034e+001
0	 4.000000000000001e+000	 1.599979999983599e+000	 1.320505741855767e+001
0	 4.000000000000001e+000	 1.666649999985416e+000	 1.316462670321754e+001
0	 4.000000000000001e+000	 1.733319999987733e+000	 1.309195841694248e+001
0	 4.000000000000001e+000	 1.799989999990450e+000	 1.298775367584473e+001
0	 4.000000000000000e+000	 1.866659999993467e+000	 1.285271359603627e+001
0	 4.000000000000001e+000	 1.933329999996683e+000	 1.268753929362877e+001
0	 4.000000000000001e+000	 2.000000000000000e+000	 1.249293188473365e+001
0	 4.066670000003317e+000	 1.333299999983333e+000	 1.238687344557532e+001
0	 4.066670000003317e+000	 1.399969999982150e+000	 1.247418117863169e+001
0	 4.066670000003317e+000	 1.466639999981866e+000	 1.253249276909154e+001
0	 4.066670000003316e+000	 1.533309999982383e+000	 1.256240275482958e+001
0	 4.066670000003318e+000	 1.599979999983600e+000	 1.256450567372036e+001
0	 4.066670000003317e+000	 1.666649999985416e+000	 1.253939606363818e+001
0	 4.066670000003317e+000	 1.733319999987733e+000	 1.248766846245708e+001
0	 4.066670000003317e+000	 1.799989999990450e+000	 1.240991740805088e+001
0	 4.066670000003317e+000	 1.866659999993467e+000	 1.230673743829322e+001
0	 4.066670000003316e+000	 1.933329999996683e+000	 1.217872309105744e+001
0	 4.066670000003316e+000	 2.000000000000000e+000	 1.202646890421669e+001
0	 4.133340000006534e+000	 1.333299999983334e+000	 1.186739700331176e+001
0	 4.133340000006534e+000	 1.399969999982151e+000	 1.194564062896829e+001
0	 4.133340000006534e+000	 1.466639999981866e+000	 1.200023006595266e+001
0	 4.133340000006533e+000	 1.533309999982382e+000	 1.203166314302929e+001
0	 4.133340000006534e+000	 1.599979999983600e+000	 1.204043768896241e+001
0	 4.133340000006534e+000	 1.666649999985416e+000	 1.202705153251605e+001
0	 4.133340000006534e+000	 1.733319999987733e+000	 1.199200250245408e+001
0	 4.133340000006534e+000	 1.799989999990450e+000	 1.193578842754015e+001
0	 4.133340000006534e+000	 1.866659999993467e+000	 1.185890713653774e+001
0	 4.133340000006535e+000	 1.933329999996683e+000	 1.176185645821014e+001
0	 4.133340000006533e+000	 2.000000000000000e+000	 1.164513422132044e+001
0	 4.200010000009550e+000	 1.333299999983334e+000	 1.145804116107300e+001
0	 4.200010000009549e+000	 1.399969999982150e+000	 1.152667607521267e+001
0	 4.200010000009550e+000	 1.466639999981866e+000	 1.157633347562902e+001
0	 4.200010000009551e+000	 1.533309999982383e+000	 1.160742435110440e+001
0	 4.200010000009550e+000	 1.599979999983599e+000	 1.162035969042102e+001
0	 4.200010000009549e+000	 1.666649999985416e+000	 1.161555048236090e+001
0	 4.200010000009550e+000	 1.733319999987733e+000	 1.159340771570597e+001
0	 4.200010000009550e+000	 1.799989999990450e+000	 1.155434237923794e+001
0	 4.200010000009550e+000	 1.866659999993466e+000	 1.149876546173843e+001
0	 4.200010000009550e+000	 1.933329999996683e+000	 1.142708795198887e+001
0	 4.200010000009550e+000	 1.999999999999999e+000	 1.133972083877053e+001
0	 4.266680000012265e+000	 1.333299999983333e+000	 1.114489415840840e+001
0	 4.266680000012267e+000	 1.399969999982150e+000	 1.120367226372581e+001
0	 4.266680000012267e+000	 1.466639999981867e+000	 1.124752291118342e+001
0	 4.266680000012266e+000	 1.533309999982383e+000	 1.127678011870980e+001
0	 4.266680000012267e+000	 1.599979999983599e+000	 1.129177790423335e+001
0	 4.266680000012267e+000	 1.666649999985416e+000	 1.129285028568240e+001
0	 4.266680000012268e+000	 1.733319999987733e+000	 1.128033128098513e+001
0	 4.266680000012266e+000	 1.799989999990449e+000	 1.125455490806962e+001
0	 4.266680000012268e+000	 1.866659999993466e+000	 1.121585518486382e+001
0	 4.266680000012267e+000	 1.933329999996683e+000	 1.116456612929556e+001
0	 4.266680000012267e+000	 2.000000000000000e+000	 1.110102175929255e+001
0	 4.333350000014583e+000	 1.333299999983334e+000	 1.091404423486729e+001
0	 4.333350000014585e+000	 1.399969999982150e+000	 1.096301394086867e+001
0	 4.333350000014582e+000	 1.466639999981867e+000	 1.100051828567867e+001
0	 4.333350000014582e+000	 1.533309999982383e+000	 1.102682418550034e+001
0	 4.333350000014584e+000	 1.599979999983599e+000	 1.104219855653656e+001
0	 4.333350000014583e+000	 1.666649999985416e+000	 1.104690831499019e+001
0	 4.333350000014583e+000	 1.733319999987733e+000	 1.104122037706398e+001
0	 4.333350000014583e+000	 1.799989999990449e+000	 1.102540165896053e+001
0	 4.333350000014583e+000	 1.866659999993466e+000	 1.099971907688245e+001
0	 4.333350000014583e+000	 1.933329999996683e+000	 1.096443954703217e+001
0	 4.333350000014584e+000	 2.000000000000000e+000	 1.091982998561207e+001
0	 4.400020000016401e+000	 1.333299999983334e+000	 1.075157962999892e+001
0	 4.400020000016399e+000	 1.399969999982150e+000	 1.079108585300212e+001
0	 4.400020000016400e+000	 1.466639999981867e+000	 1.082203951217751e+001
0	 4.400020000016399e+000	 1.533309999982383e+000	 1.084465029113082e+001
0	 4.400020000016400e+000	 1.599979999983599e+000	 1.085912787346775e+001
0	 4.400020000016400e+000	 1.666649999985416e+000	 1.086568194279391e+001
0	 4.400020000016399e+000	 1.733319999987733e+000	 1.086452218271483e+001
0	 4.400020000016400e+000	 1.799989999990450e+000	 1.085585827683599e+001
0	 4.400020000016399e+000	 1.866659999993466e+000	 1.083989990876280e+001
0	 4.400020000016399e+000	 1.933329999996683e+000	 1.081685676210059e+001
0	 4.400020000016400e+000	 2.000000000000000e+000	 1.078693852045463e+001
0	 4.466690000017615e+000	 1.333299999983334e+000	 1.064358858335251e+001
0	 4.466690000017617e+000	 1.399969999982150e+000	 1.067427274648703e+001
0	 4.466690000017617e+000	 1.466639999981867e+000	 1.069880650374263e+001
0	 4.466690000017618e+000	 1.533309999982383e+000	 1.071735217525605e+001
0	 4.466690000017615e+000	 1.599979999983599e+000	 1.073007208116399e+001
0	 4.466690000017616e+000	 1.666649999985416e+000	 1.073712854160312e+001
0	 4.466690000017616e+000	 1.733319999987733e+000	 1.073868387671003e+001
0	 4.466690000017616e+000	 1.799989999990450e+000	 1.073490040662126e+001
0	 4.466690000017617e+000	 1.866659999993466e+000	 1.072594045147333e+001
0	 4.466690000017617e+000	 1.933329999996683e+000	 1.071196633140269e+001
0	 4.466690000017617e+000	 2.000000000000000e+000	 1.069314036654574e+001
0	 4.533360000018131e+000	 1.333299999983334e+000	 1.057615933447721e+001
0	 4.533360000018131e+000	 1.399969999982150e+000	 1.059895936768419e+001
0	 4.533360000018132e+000	 1.466639999981867e+000	 1.061753917343670e+001
0	 4.533360000018131e+000	 1.533309999982383e+000	 1.063202357753074e+001
0	 4.533360000018132e+000	 1.599979999983600e+000	 1.064253740576232e+001
0	 4.533360000018132e+000	 1.666649999985416e+000	 1.064920548392737e+001
0	 4.533360000018131e+000	 1.733319999987733e+000	 1.065215263782184e+001
0	 4.533360000018132e+000	 1.799989999990450e+000	 1.065150369324159e+001
0	 4.533360000018133e+000	 1.866659999993466e+000	 1.064738347598248e+001
0	 4.533360000018133e+000	 1.933329999996683e+000	 1.063991681184031e+001
0	 4.533360000018131e+000	 2.000000000000000e+000	 1.062922852661087e+001
0	 4.600030000017849e+000	 1.333299999983334e+000	 1.053538012292217e+001
0	 4.600030000017848e+000	 1.399969999982150e+000	 1.055153046295437e+001
0	 4.600030000017847e+000	 1.466639999981866e+000	 1.056495743432233e+001
0	 4.600030000017849e+000	 1.533309999982383e+000	 1.057575823760960e+001
0	 4.600030000017849e+000	 1.599979999983599e+000	 1.058403007339972e+001
0	 4.600030000017848e+000	 1.666649999985416e+000	 1.058987014227620e+001
0	 4.600030000017849e+000	 1.733319999987733e+000	 1.059337564482254e+001
0	 4.600030000017848e+000	 1.799989999990449e+000	 1.059464378162221e+001
0	 4.600030000017849e+000	 1.866659999993466e+000	 1.059377175325864e+001
0	 4.600030000017850e+000	 1.933329999996683e+000	 1.059085676031527e+001
0	 4.600030000017850e+000	 2.000000000000000e+000	 1.058599600337549e+001
0	 4.666700000016666e+000	 1.333299999983334e+000	 1.050733918823644e+001
0	 4.666700000016665e+000	 1.399969999982150e+000	 1.051837077865828e+001
0	 4.666700000016666e+000	 1.466639999981866e+000	 1.052778119946211e+001
0	 4.666700000016667e+000	 1.533309999982383e+000	 1.053564989514729e+001
0	 4.666700000016666e+000	 1.599979999983600e+000	 1.054205631021316e+001
0	 4.666700000016665e+000	 1.666649999985416e+000	 1.054707988915907e+001
0	 4.666700000016666e+000	 1.733319999987733e+000	 1.055080007648434e+001
0	 4.666700000016666e+000	 1.799989999990450e+000	 1.055329631668827e+001
0	 4.666700000016666e+000	 1.866659999993466e+000	 1.055464805427018e+001
0	 4.666700000016666e+000	 1.933329999996683e+000	 1.055493473372933e+001
0	 4.666700000016666e+000	 2.000000000000000e+000	 1.055423579956502e+001
0	 4.000000000000001e+000	 2.000000000000000e+000	 1.249293188473365e+001
0	 4.000000000000001e+000	 2.066670000003317e+000	 1.229044859434793e+001
0	 4.000000000000001e+000	 2.133340000006534e+000	 1.210101977595613e+001
0	 4.000000000000000e+000	 2.200010000009551e+000	 1.192440623840073e+001
0	 4.000000000000001e+000	 2.266680000012268e+000	 1.176036879052433e+001
0	 4.000000000000000e+000	 2.333350000014584e+000	 1.160866824116963e+001
0	 4.000000000000000e+000	 2.400020000016400e+000	 1.146906539917942e+001
0	 4.000000000000001e+000	 2.466690000017617e+000	 1.134132107339661e+001
0	 4.000000000000001e+000	 2.533360000018134e+000	 1.122519607266419e+001
0	 4.000000000000000e+000	 2.600030000017850e+000	 1.112045120582526e+001
0	 4.000000000000000e+000	 2.666700000016667e+000	 1.102684728172301e+001
0	 4.066670000003316e+000	 2.000000000000000e+000	 1.202646890421669e+001
0	 4.066670000003317e+000	 2.066670000003317e+000	 1.186776944559541e+001
0	 4.066670000003317e+000	 2.133340000006534e+000	 1.171988018582586e+001
0	 4.066670000003317e+000	 2.200010000009551e+000	 1.158258701699281e+001
0	 4.066670000003318e+000	 2.266680000012268e+000	 1.145567583118110e+001
0	 4.066670000003317e+000	 2.333350000014583e+000	 1.133893252047567e+001
0	 4.066670000003317e+000	 2.400020000016401e+000	 1.123214297696153e+001
0	 4.066670000003317e+000	 2.466690000017617e+000	 1.113509309272377e+001
0	 4.066670000003318e+000	 2.533360000018134e+000	 1.104756875984758e+001
0	 4.066670000003317e+000	 2.600030000017850e+000	 1.096935587041820e+001
0	 4.066670000003316e+000	 2.666700000016667e+000	 1.090024031652099e+001
0	 4.133340000006533e+000	 2.000000000000000e+000	 1.164513422132044e+001
0	 4.133340000006534e+000	 2.066670000003318e+000	 1.152321416634198e+001
0	 4.133340000006534e+000	 2.133340000006534e+000	 1.141011175923229e+001
0	 4.133340000006533e+000	 2.200010000009550e+000	 1.130563741698073e+001
0	 4.133340000006534e+000	 2.266680000012267e+000	 1.120960155657671e+001
0	 4.133340000006533e+000	 2.333350000014585e+000	 1.112181459500971e+001
0	 4.133340000006535e+000	 2.400020000016401e+000	 1.104208694926928e+001
0	 4.133340000006534e+000	 2.466690000017617e+000	 1.097022903634501e+001
0	 4.133340000006533e+000	 2.533360000018134e+000	 1.090605127322661e+001
0	 4.133340000006534e+000	 2.600030000017851e+000	 1.084936407690379e+001
0	 4.133340000006534e+000	 2.666700000016666e+000	 1.079997786436637e+001
0	 4.200010000009550e+000	 1.999999999999999e+000	 1.133972083877053e+001
0	 4.200010000009550e+000	 2.066670000003318e+000	 1.124823217897154e+001
0	 4.200010000009550e+000	 2.133340000006534e+000	 1.116380562599669e+001
0	 4.200010000009550e+000	 2.200010000009551e+000	 1.108627556340220e+001
0	 4.200010000009550e+000	 2.266680000012268e+000	 1.101547637474436e+001
0	 4.200010000009550e+000	 2.333350000014584e+000	 1.095124244357952e+001
0	 4.200010000009550e+000	 2.400020000016400e+000	 1.089340815346410e+001
0	 4.200010000009551e+000	 2.466690000017618e+000	 1.084180788795451e+001
0	 4.200010000009550e+000	 2.533360000018134e+000	 1.079627603060728e+001
0	 4.200010000009550e+000	 2.600030000017850e+000	 1.075664696497894e+001
0	 4.200010000009550e+000	 2.666700000016667e+000	 1.072275507462609e+001
0	 4.266680000012267e+000	 2.000000000000000e+000	 1.110102175929255e+001
0	 4.266680000012266e+000	 2.066670000003317e+000	 1.103427290586800e+001
0	 4.266680000012268e+000	 2.133340000006534e+000	 1.097305291594028e+001
0	 4.266680000012268e+000	 2.200010000009550e+000	 1.091721958129485e+001
0	 4.266680000012268e+000	 2.266680000012267e+000	 1.086663069371721e+001
0	 4.266680000012268e+000	 2.333350000014584e+000	 1.082114404499287e+001
0	 4.266680000012268e+000	 2.400020000016401e+000	 1.078061742690741e+001
0	 4.266680000012266e+000	 2.466690000017617e+000	 1.074490863124643e+001
0	 4.266680000012267e+000	 2.533360000018134e+000	 1.071387544979558e+001
0	 4.266680000012268e+000	 2.600030000017850e+000	 1.068737567434054e+001
0	 4.266680000012266e+000	 2.666700000016666e+000	 1.066526709666703e+001
0	 4.333350000014584e+000	 2.000000000000000e+000	 1.091982998561207e+001
0	 4.333350000014583e+000	 2.066670000003317e+000	 1.087278576941518e+001
0	 4.333350000014582e+000	 2.133340000006534e+000	 1.082994475888428e+001
0	 4.333350000014584e+000	 2.200010000009550e+000	 1.079118759569635e+001
0	 4.333350000014583e+000	 2.266680000012267e+000	 1.075639492152840e+001
0	 4.333350000014582e+000	 2.333350000014584e+000	 1.072544737805746e+001
0	 4.333350000014584e+000	 2.400020000016401e+000	 1.069822560696059e+001
0	 4.333350000014582e+000	 2.466690000017616e+000	 1.067461024991489e+001
0	 4.333350000014583e+000	 2.533360000018134e+000	 1.065448194859746e+001
0	 4.333350000014584e+000	 2.600030000017851e+000	 1.063772134468547e+001
0	 4.333350000014583e+000	 2.666700000016666e+000	 1.062420907985608e+001
0	 4.400020000016400e+000	 2.000000000000000e+000	 1.078693852045463e+001
0	 4.400020000016400e+000	 2.066670000003317e+000	 1.075522019199693e+001
0	 4.400020000016399e+000	 2.133340000006534e+000	 1.072657228464987e+001
0	 4.400020000016399e+000	 2.200010000009550e+000	 1.070089773164430e+001
0	 4.400020000016399e+000	 2.266680000012267e+000	 1.067809946621105e+001
0	 4.400020000016399e+000	 2.333350000014585e+000	 1.065808042158100e+001
0	 4.400020000016401e+000	 2.400020000016401e+000	 1.064074353098502e+001
0	 4.400020000016400e+000	 2.466690000017617e+000	 1.062599172765400e+001
0	 4.400020000016401e+000	 2.533360000018133e+000	 1.061372794481888e+001
0	 4.400020000016400e+000	 2.600030000017850e+000	 1.060385511571060e+001
0	 4.400020000016400e+000	 2.666700000016666e+000	 1.059627617356011e+001
0	 4.466690000017617e+000	 2.000000000000000e+000	 1.069314036654574e+001
0	 4.466690000017616e+000	 2.066670000003316e+000	 1.067302559599703e+001
0	 4.466690000017616e+000	 2.133340000006533e+000	 1.065502662305822e+001
0	 4.466690000017617e+000	 2.200010000009550e+000	 1.063906811417630e+001
0	 4.466690000017615e+000	 2.266680000012267e+000	 1.062507473579828e+001
0	 4.466690000017616e+000	 2.333350000014585e+000	 1.061297115437118e+001
0	 4.466690000017615e+000	 2.400020000016400e+000	 1.060268203634203e+001
0	 4.466690000017616e+000	 2.466690000017617e+000	 1.059413204815787e+001
0	 4.466690000017618e+000	 2.533360000018134e+000	 1.058724585626577e+001
0	 4.466690000017618e+000	 2.600030000017851e+000	 1.058194812711277e+001
0	 4.466690000017616e+000	 2.666700000016666e+000	 1.057816352714597e+001
0	 4.533360000018131e+000	 2.000000000000000e+000	 1.062922852661087e+001
0	 4.533360000018133e+000	 2.066670000003317e+000	 1.061765140379927e+001
0	 4.533360000018133e+000	 2.133340000006534e+000	 1.060739890393045e+001
0	 4.533360000018131e+000	 2.200010000009550e+000	 1.059841686832991e+001
0	 4.533360000018131e+000	 2.266680000012267e+000	 1.059065113832314e+001
0	 4.533360000018132e+000	 2.333350000014584e+000	 1.058404755523565e+001
0	 4.533360000018132e+000	 2.400020000016400e+000	 1.057855196039295e+001
0	 4.533360000018132e+000	 2.466690000017617e+000	 1.057411019512057e+001
0	 4.533360000018132e+000	 2.533360000018133e+000	 1.057066810074401e+001
0	 4.533360000018132e+000	 2.600030000017850e+000	 1.056817151858882e+001
0	 4.533360000018131e+000	 2.666700000016666e+000	 1.056656628998051e+001
0	 4.600030000017850e+000	 2.000000000000000e+000	 1.058599600337549e+001
0	 4.600030000017848e+000	 2.066670000003317e+000	 1.058054703778739e+001
0	 4.600030000017850e+000	 2.133340000006534e+000	 1.057578025708768e+001
0	 4.600030000017849e+000	 2.200010000009551e+000	 1.057166211914267e+001
0	 4.600030000017848e+000	 2.266680000012267e+000	 1.056815908181869e+001
0	 4.600030000017848e+000	 2.333350000014584e+000	 1.056523760298207e+001
0	 4.600030000017849e+000	 2.400020000016401e+000	 1.056286414049911e+001
0	 4.600030000017850e+000	 2.466690000017617e+000	 1.056100515223616e+001
0	 4.600030000017848e+000	 2.533360000018134e+000	 1.055962709605954e+001
0	 4.600030000017849e+000	 2.600030000017850e+000	 1.055869642983556e+001
0	 4.600030000017850e+000	 2.666700000016666e+000	 1.055817961143056e+001
0	 4.666700000016666e+000	 2.000000000000000e+000	 1.055423579956502e+001
0	 4.666700000016665e+000	 2.066670000003317e+000	 1.055316192034511e+001
0	 4.666700000016666e+000	 2.133340000006534e+000	 1.055226181235098e+001
0	 4.666700000016667e+000	 2.200010000009551e+000	 1.055152199165210e+001
0	 4.666700000016666e+000	 2.266680000012268e+000	 1.055092897431796e+001
0	 4.666700000016667e+000	 2.333350000014584e+000	 1.055046927641802e+001
0	 4.666700000016666e+000	 2.400020000016401e+000	 1.055012941402177e+001
0	 4.666700000016668e+000	 2.466690000017617e+000	 1.054989590319866e+001
0	 4.666700000016667e+000	 2.533360000018134e+000	 1.054975526001818e+001
0	 4.666700000016667e+000	 2.600030000017851e+000	 1.054969400054978e+001
0	 4.666700000016666e+000	 2.666700000016666e+000	 1.054969864086293e+001
0	 4.000000000000000e+000	 2.666700000016667e+000	 1.102684728172301e+001
0	 4.000000000000000e+000	 2.733360000014533e+000	 1.094290055033508e+001
0	 4.000000000000000e+000	 2.800020000011599e+000	 1.086727577396191e+001
0	 4.000000000000001e+000	 2.866680000008067e+000	 1.079999617888078e+001
0	 4.000000000000000e+000	 2.933340000004133e+000	 1.074108499136883e+001
0	 4.000000000000000e+000	 3.000000000000000e+000	 1.069056543770305e+001
0	 4.000000000000000e+000	 3.066659999995867e+000	 1.064846074416027e+001
0	 4.000000000000000e+000	 3.133319999991933e+000	 1.061479413701716e+001
0	 4.000000000000001e+000	 3.199979999988401e+000	 1.058958884255025e+001
0	 4.000000000000001e+000	 3.266639999985467e+000	 1.057286808703590e+001
0	 4.000000000000000e+000	 3.333299999983333e+000	 1.056465509675033e+001
0	 4.066670000003316e+000	 2.666700000016667e+000	 1.090024031652099e+001
0	 4.066670000003318e+000	 2.733360000014534e+000	 1.083859549278310e+001
0	 4.066670000003316e+000	 2.800020000011600e+000	 1.078294549440878e+001
0	 4.066670000003319e+000	 2.866680000008067e+000	 1.073333135010957e+001
0	 4.066670000003317e+000	 2.933340000004133e+000	 1.068979408859690e+001
0	 4.066670000003319e+000	 3.000000000000000e+000	 1.065237473858210e+001
0	 4.066670000003318e+000	 3.066659999995867e+000	 1.062111432877638e+001
0	 4.066670000003318e+000	 3.133319999991933e+000	 1.059605388789085e+001
0	 4.066670000003316e+000	 3.199979999988401e+000	 1.057723444463648e+001
0	 4.066670000003318e+000	 3.266639999985467e+000	 1.056469702772419e+001
0	 4.066670000003317e+000	 3.333299999983334e+000	 1.055848266586470e+001
0	 4.133340000006534e+000	 2.666700000016666e+000	 1.079997786436637e+001
0	 4.133340000006534e+000	 2.733360000014534e+000	 1.075620847432160e+001
0	 4.133340000006531e+000	 2.800020000011599e+000	 1.071652103916418e+001
0	 4.133340000006533e+000	 2.866680000008067e+000	 1.068097052489645e+001
0	 4.133340000006534e+000	 2.933340000004133e+000	 1.064961189752064e+001
0	 4.133340000006534e+000	 3.000000000000000e+000	 1.062250012303894e+001
0	 4.133340000006534e+000	 3.066659999995867e+000	 1.059969016745344e+001
0	 4.133340000006533e+000	 3.133319999991933e+000	 1.058123699676615e+001
0	 4.133340000006533e+000	 3.199979999988401e+000	 1.056719557697904e+001
0	 4.133340000006533e+000	 3.266639999985467e+000	 1.055762087409397e+001
0	 4.133340000006533e+000	 3.333299999983333e+000	 1.055256785411273e+001
0	 4.200010000009550e+000	 2.666700000016667e+000	 1.072275507462609e+001
0	 4.200010000009551e+000	 2.733360000014533e+000	 1.069293156488589e+001
0	 4.200010000009551e+000	 2.800020000011600e+000	 1.066565208773788e+001
0	 4.200010000009550e+000	 2.866680000008067e+000	 1.064098168133165e+001
0	 4.200010000009551e+000	 2.933340000004133e+000	 1.061898538381680e+001
0	 4.200010000009553e+000	 3.000000000000000e+000	 1.059972823334284e+001
0	 4.200010000009550e+000	 3.066659999995866e+000	 1.058327526805925e+001
0	 4.200010000009550e+000	 3.133319999991933e+000	 1.056969152611547e+001
0	 4.200010000009550e+000	 3.199979999988401e+000	 1.055904204566085e+001
0	 4.200010000009550e+000	 3.266639999985467e+000	 1.055139186484478e+001
0	 4.200010000009550e+000	 3.333299999983334e+000	 1.054680602181651e+001
0	 4.266680000012266e+000	 2.666700000016666e+000	 1.066526709666703e+001
0	 4.266680000012268e+000	 2.733360000014534e+000	 1.064595683441128e+001
0	 4.266680000012265e+000	 2.800020000011599e+000	 1.062798831963961e+001
0	 4.266680000012267e+000	 2.866680000008067e+000	 1.061143279750541e+001
0	 4.266680000012267e+000	 2.933340000004133e+000	 1.059636151316210e+001
0	 4.266680000012267e+000	 2.999999999999999e+000	 1.058284571176305e+001
0	 4.266680000012265e+000	 3.066659999995866e+000	 1.057095663846160e+001
0	 4.266680000012267e+000	 3.133319999991934e+000	 1.056076553841110e+001
0	 4.266680000012266e+000	 3.199979999988400e+000	 1.055234365676484e+001
0	 4.266680000012268e+000	 3.266639999985467e+000	 1.054576223867611e+001
0	 4.266680000012266e+000	 3.333299999983333e+000	 1.054109252929817e+001
0	 4.333350000014583e+000	 2.666700000016666e+000	 1.062420907985608e+001
0	 4.333350000014582e+000	 2.733360000014532e+000	 1.061247635283309e+001
0	 4.333350000014582e+000	 2.800020000011599e+000	 1.060117941437912e+001
0	 4.333350000014584e+000	 2.866680000008067e+000	 1.059039185150794e+001
0	 4.333350000014582e+000	 2.933340000004133e+000	 1.058018725123326e+001
0	 4.333350000014583e+000	 3.000000000000000e+000	 1.057063920056879e+001
0	 4.333350000014583e+000	 3.066659999995867e+000	 1.056182128652828e+001
0	 4.333350000014584e+000	 3.133319999991934e+000	 1.055380709612543e+001
0	 4.333350000014582e+000	 3.199979999988400e+000	 1.054667021637393e+001
0	 4.333350000014583e+000	 3.266639999985467e+000	 1.054048423428749e+001
0	 4.333350000014582e+000	 3.333299999983333e+000	 1.053532273687979e+001
0	 4.400020000016400e+000	 2.666700000016666e+000	 1.059627617356011e+001
0	 4.400020000016401e+000	 2.733360000014534e+000	 1.058968219008656e+001
0	 4.400020000016400e+000	 2.800020000011600e+000	 1.058287505146615e+001
0	 4.400020000016399e+000	 2.866680000008066e+000	 1.057592682142944e+001
0	 4.400020000016400e+000	 2.933340000004134e+000	 1.056890956370699e+001
0	 4.400020000016397e+000	 2.999999999999999e+000	 1.056189534202936e+001
0	 4.400020000016401e+000	 3.066659999995867e+000	 1.055495622012710e+001
0	 4.400020000016399e+000	 3.133319999991933e+000	 1.054816426173080e+001
0	 4.400020000016401e+000	 3.199979999988401e+000	 1.054159153057104e+001
0	 4.400020000016401e+000	 3.266639999985468e+000	 1.053531009037840e+001
0	 4.400020000016401e+000	 3.333299999983334e+000	 1.052939200488348e+001
0	 4.466690000017616e+000	 2.666700000016666e+000	 1.057816352714597e+001
0	 4.466690000017616e+000	 2.733360000014533e+000	 1.057476641610698e+001
0	 4.466690000017618e+000	 2.800020000011600e+000	 1.057072491041042e+001
0	 4.466690000017616e+000	 2.866680000008066e+000	 1.056610568536014e+001
0	 4.466690000017616e+000	 2.933340000004134e+000	 1.056097541626001e+001
0	 4.466690000017618e+000	 3.000000000000000e+000	 1.055540077841394e+001
0	 4.466690000017615e+000	 3.066659999995867e+000	 1.054944844712581e+001
0	 4.466690000017616e+000	 3.133319999991933e+000	 1.054318509769955e+001
0	 4.466690000017618e+000	 3.199979999988400e+000	 1.053667740543908e+001
0	 4.466690000017616e+000	 3.266639999985467e+000	 1.052999204564836e+001
0	 4.466690000017616e+000	 3.333299999983334e+000	 1.052319569363136e+001
0	 4.533360000018131e+000	 2.666700000016666e+000	 1.056656628998051e+001
0	 4.533360000018131e+000	 2.733360000014534e+000	 1.056492110082962e+001
0	 4.533360000018133e+000	 2.800020000011601e+000	 1.056237867072163e+001
0	 4.533360000018132e+000	 2.866680000008066e+000	 1.055899642139021e+001
0	 4.533360000018132e+000	 2.933340000004133e+000	 1.055483177456903e+001
0	 4.533360000018131e+000	 3.000000000000000e+000	 1.054994215199179e+001
0	 4.533360000018131e+000	 3.066659999995866e+000	 1.054438497539221e+001
0	 4.533360000018134e+000	 3.133319999991933e+000	 1.053821766650403e+001
0	 4.533360000018133e+000	 3.199979999988401e+000	 1.053149764706098e+001
0	 4.533360000018132e+000	 3.266639999985467e+000	 1.052428233879689e+001
0	 4.533360000018131e+000	 3.333299999983334e+000	 1.051662916344553e+001
0	 4.600030000017850e+000	 2.666700000016666e+000	 1.055817961143056e+001
0	 4.600030000017848e+000	 2.733360000014532e+000	 1.055733831418971e+001
0	 4.600030000017848e+000	 2.800020000011600e+000	 1.055548601190950e+001
0	 4.600030000017849e+000	 2.866680000008067e+000	 1.055266700760984e+001
0	 4.600030000017848e+000	 2.933340000004133e+000	 1.054892560431073e+001
0	 4.600030000017849e+000	 3.000000000000000e+000	 1.054430610503213e+001
0	 4.600030000017848e+000	 3.066659999995867e+000	 1.053885281279406e+001
0	 4.600030000017848e+000	 3.133319999991934e+000	 1.053261003061655e+001
0	 4.600030000017849e+000	 3.199979999988401e+000	 1.052562206151967e+001
0	 4.600030000017848e+000	 3.266639999985467e+000	 1.051793320852348e+001
0	 4.600030000017848e+000	 3.333299999983334e+000	 1.050958777464811e+001
0	 4.666700000016666e+000	 2.666700000016666e+000	 1.054969864086293e+001
0	 4.666700000016666e+000	 2.733360000014533e+000	 1.054921012612249e+001
0	 4.666700000016665e+000	 2.800020000011599e+000	 1.054769661348369e+001
0	 4.666700000016666e+000	 2.866680000008067e+000	 1.054518542210922e+001
0	 4.666700000016667e+000	 2.933340000004133e+000	 1.054170387116180e+001
0	 4.666700000016666e+000	 3.000000000000000e+000	 1.053727927980418e+001
0	 4.666700000016665e+000	 3.066659999995866e+000	 1.053193896719914e+001
0	 4.666700000016666e+000	 3.133319999991934e+000	 1.052571025250949e+001
0	 4.666700000016665e+000	 3.199979999988400e+000	 1.051862045489803e+001
0	 4.666700000016665e+000	 3.266639999985467e+000	 1.051069689352765e+001
0	 4.666700000016666e+000	 3.333299999983334e+000	 1.050196688756120e+001
0	 4.000000000000000e+000	 3.333299999983333e+000	 1.056465509675032e+001
0	 4.000000000000000e+000	 3.399969999982150e+000	 1.055989591959177e+001
0	 4.000000000000001e+000	 3.466639999981866e+000	 1.055356497801416e+001
0	 4.000000000000000e+000	 3.533309999982383e+000	 1.054572628183477e+001
0	 4.000000000000000e+000	 3.599979999983600e+000	 1.053644384087084e+001
0	 4.000000000000001e+000	 3.666649999985417e+000	 1.052578166493964e+001
0	 4.000000000000001e+000	 3.733319999987733e+000	 1.051380376385838e+001
0	 4.000000000000001e+000	 3.799989999990450e+000	 1.050057414744429e+001
0	 4.000000000000000e+000	 3.866659999993467e+000	 1.048615682551456e+001
0	 3.999999999999999e+000	 3.933329999996683e+000	 1.047061580788637e+001
0	 4.000000000000000e+000	 4.000000000000000e+000	 1.045401510437689e+001
0	 4.066670000003317e+000	 3.333299999983334e+000	 1.055848266586470e+001
0	 4.066670000003317e+000	 3.399969999982150e+000	 1.055468162757147e+001
0	 4.066670000003318e+000	 3.466639999981866e+000	 1.054937720417114e+001
0	 4.066670000003315e+000	 3.533309999982382e+000	 1.054259859083627e+001
0	 4.066670000003316e+000	 3.599979999983600e+000	 1.053437498273941e+001
0	 4.066670000003317e+000	 3.666649999985416e+000	 1.052473557505310e+001
0	 4.066670000003318e+000	 3.733319999987734e+000	 1.051370956294989e+001
0	 4.066670000003317e+000	 3.799989999990450e+000	 1.050132614160226e+001
0	 4.066670000003317e+000	 3.866659999993466e+000	 1.048761450618272e+001
0	 4.066670000003317e+000	 3.933329999996684e+000	 1.047260385186374e+001
0	 4.066670000003317e+000	 4.000000000000001e+000	 1.045632337381778e+001
0	 4.133340000006533e+000	 3.333299999983333e+000	 1.055256785411273e+001
0	 4.133340000006534e+000	 3.399969999982150e+000	 1.054911371304277e+001
0	 4.133340000006534e+000	 3.466639999981867e+000	 1.054429947363116e+001
0	 4.133340000006534e+000	 3.533309999982382e+000	 1.053812459362877e+001
0	 4.133340000006533e+000	 3.599979999983600e+000	 1.053058853078648e+001
0	 4.133340000006534e+000	 3.666649999985416e+000	 1.052169074285512e+001
0	 4.133340000006534e+000	 3.733319999987733e+000	 1.051143068758553e+001
0	 4.133340000006534e+000	 3.799989999990451e+000	 1.049980782272853e+001
0	 4.133340000006533e+000	 3.866659999993467e+000	 1.048682160603491e+001
0	 4.133340000006534e+000	 3.933329999996684e+000	 1.047247149525546e+001
0	 4.133340000006533e+000	 4.000000000000001e+000	 1.045675694814095e+001
0	 4.200010000009550e+000	 3.333299999983334e+000	 1.054680602181651e+001
0	 4.200010000009550e+000	 3.399969999982150e+000	 1.054320193936827e+001
0	 4.200010000009551e+000	 3.466639999981867e+000	 1.053843778958361e+001
0	 4.200010000009551e+000	 3.533309999982383e+000	 1.053248837001473e+001
0	 4.200010000009551e+000	 3.599979999983601e+000	 1.052532847821382e+001
0	 4.200010000009550e+000	 3.666649999985415e+000	 1.051693291173304e+001
0	 4.200010000009551e+000	 3.733319999987733e+000	 1.050727646812452e+001
0	 4.200010000009550e+000	 3.799989999990450e+000	 1.049633394494042e+001
0	 4.200010000009550e+000	 3.866659999993467e+000	 1.048408013973287e+001
0	 4.200010000009549e+000	 3.933329999996684e+000	 1.047048985005395e+001
0	 4.200010000009550e+000	 4.000000000000000e+000	 1.045553787345577e+001
0	 4.266680000012266e+000	 3.333299999983333e+000	 1.054109252929817e+001
0	 4.266680000012267e+000	 3.399969999982151e+000	 1.053695606991059e+001
0	 4.266680000012267e+000	 3.466639999981867e+000	 1.053189815521788e+001
0	 4.266680000012266e+000	 3.533309999982384e+000	 1.052587399979657e+001
0	 4.266680000012268e+000	 3.599979999983600e+000	 1.051883881822316e+001
0	 4.266680000012268e+000	 3.666649999985416e+000	 1.051074782507416e+001
0	 4.266680000012268e+000	 3.733319999987733e+000	 1.050155623492604e+001
0	 4.266680000012266e+000	 3.799989999990449e+000	 1.049121926235526e+001
0	 4.266680000012268e+000	 3.866659999993467e+000	 1.047969212193831e+001
0	 4.266680000012267e+000	 3.933329999996684e+000	 1.046693002825160e+001
0	 4.266680000012267e+000	 4.000000000000001e+000	 1.045288819587157e+001
0	 4.333350000014582e+000	 3.333299999983333e+000	 1.053532273687979e+001
0	 4.333350000014584e+000	 3.399969999982150e+000	 1.053038586803234e+001
0	 4.333350000014582e+000	 3.466639999981867e+000	 1.052478657372337e+001
0	 4.333350000014582e+000	 3.533309999982383e+000	 1.051846556277672e+001
0	 4.333350000014584e+000	 3.599979999983600e+000	 1.051136354401628e+001
0	 4.333350000014584e+000	 3.666649999985416e+000	 1.050342122626585e+001
0	 4.333350000014582e+000	 3.733319999987733e+000	 1.049457931834929e+001
0	 4.333350000014583e+000	 3.799989999990450e+000	 1.048477852909038e+001
0	 4.333350000014584e+000	 3.866659999993467e+000	 1.047395956731297e+001
0	 4.333350000014584e+000	 3.933329999996683e+000	 1.046206314184082e+001
0	 4.333350000014585e+000	 4.000000000000000e+000	 1.044902996149770e+001
0	 4.400020000016401e+000	 3.333299999983334e+000	 1.052939200488348e+001
0	 4.400020000016399e+000	 3.399969999982149e+000	 1.052350109709614e+001
0	 4.400020000016400e+000	 3.466639999981866e+000	 1.051720904828946e+001
0	 4.400020000016400e+000	 3.533309999982383e+000	 1.051044713875765e+001
0	 4.400020000016401e+000	 3.599979999983600e+000	 1.050314664879492e+001
0	 4.400020000016399e+000	 3.666649999985415e+000	 1.049523885869545e+001
0	 4.400020000016400e+000	 3.733319999987733e+000	 1.048665504875347e+001
0	 4.400020000016399e+000	 3.799989999990451e+000	 1.047732649926312e+001
0	 4.400020000016399e+000	 3.866659999993466e+000	 1.046718449051857e+001
0	 4.400020000016399e+000	 3.933329999996684e+000	 1.045616030281400e+001
0	 4.400020000016400e+000	 4.000000000000000e+000	 1.044418521644353e+001
0	 4.466690000017616e+000	 3.333299999983334e+000	 1.052319569363136e+001
0	 4.466690000017617e+000	 3.399969999982150e+000	 1.051631152046461e+001
0	 4.466690000017617e+000	 3.466639999981867e+000	 1.050927158210555e+001
0	 4.466690000017617e+000	 3.533309999982383e+000	 1.050200280754177e+001
0	 4.466690000017616e+000	 3.599979999983599e+000	 1.049443212576083e+001
0	 4.466690000017617e+000	 3.666649999985417e+000	 1.048648646575031e+001
0	 4.466690000017615e+000	 3.733319999987733e+000	 1.047809275649777e+001
0	 4.466690000017616e+000	 3.799989999990450e+000	 1.046917792699077e+001
0	 4.466690000017618e+000	 3.866659999993467e+000	 1.045966890621685e+001
0	 4.466690000017615e+000	 3.933329999996683e+000	 1.044949262316354e+001
0	 4.466690000017616e+000	 4.000000000000001e+000	 1.043857600681837e+001
0	 4.533360000018131e+000	 3.333299999983334e+000	 1.051662916344553e+001
0	 4.533360000018132e+000	 3.399969999982150e+000	 1.050882690150037e+001
0	 4.533360000018132e+000	 3.466639999981867e+000	 1.050108017836104e+001
0	 4.533360000018132e+000	 3.533309999982382e+000	 1.049331664893153e+001
0	 4.533360000018132e+000	 3.599979999983599e+000	 1.048546396811578e+001
0	 4.533360000018131e+000	 3.666649999985416e+000	 1.047744979081776e+001
0	 4.533360000018131e+000	 3.733319999987734e+000	 1.046920177194141e+001
0	 4.533360000018133e+000	 3.799989999990450e+000	 1.046064756639070e+001
0	 4.533360000018131e+000	 3.866659999993466e+000	 1.045171482906953e+001
0	 4.533360000018132e+000	 3.933329999996683e+000	 1.044233121488185e+001
0	 4.533360000018131e+000	 4.000000000000001e+000	 1.043242437873157e+001
0	 4.600030000017848e+000	 3.333299999983334e+000	 1.050958777464811e+001
0	 4.600030000017849e+000	 3.399969999982150e+000	 1.050105700356603e+001
0	 4.600030000017848e+000	 3.466639999981866e+000	 1.049274084024533e+001
0	 4.600030000017849e+000	 3.533309999982383e+000	 1.048457274272937e+001
0	 4.600030000017849e+000	 3.599979999983600e+000	 1.047648616906152e+001
0	 4.600030000017848e+000	 3.666649999985416e+000	 1.046841457728514e+001
0	 4.600030000017849e+000	 3.733319999987733e+000	 1.046029142544358e+001
0	 4.600030000017848e+000	 3.799989999990450e+000	 1.045205017158019e+001
0	 4.600030000017849e+000	 3.866659999993467e+000	 1.044362427373832e+001
0	 4.600030000017848e+000	 3.933329999996683e+000	 1.043494718996131e+001
0	 4.600030000017848e+000	 4.000000000000000e+000	 1.042595237829250e+001
0	 4.666700000016666e+000	 3.333299999983334e+000	 1.050196688756120e+001
0	 4.666700000016665e+000	 3.399969999982150e+000	 1.049301159002423e+001
0	 4.666700000016666e+000	 3.466639999981866e+000	 1.048435957094781e+001
0	 4.666700000016666e+000	 3.533309999982382e+000	 1.047595516873776e+001
0	 4.666700000016665e+000	 3.599979999983599e+000	 1.046774272179982e+001
0	 4.666700000016667e+000	 3.666649999985417e+000	 1.045966656853979e+001
0	 4.666700000016667e+000	 3.733319999987733e+000	 1.045167104736347e+001
0	 4.666700000016666e+000	 3.799989999990449e+000	 1.044370049667660e+001
0	 4.666700000016667e+000	 3.866659999993467e+000	 1.043569925488497e+001
0	 4.666700000016666e+000	 3.933329999996684e+000	 1.042761166039433e+001
0	 4.666700000016667e+000	 4.000000000000001e+000	 1.041938205161046e+001
0	 4.000000000000000e+000	 4.000000000000000e+000	 1.045401510437689e+001
0	 4.000000000000000e+000	 4.066670000003317e+000	 1.043744370437678e+001
0	 4.000000000000000e+000	 4.133340000006534e+000	 1.042189212697955e+001
0	 4.000000000000000e+000	 4.200010000009550e+000	 1.040727667655670e+001
0	 4.000000000000001e+000	 4.266680000012268e+000	 1.039351365747976e+001
0	 4.000000000000000e+000	 4.333350000014584e+000	 1.038051937412025e+001
0	 4.000000000000000e+000	 4.400020000016401e+000	 1.036821013084967e+001
0	 4.000000000000000e+000	 4.466690000017617e+000	 1.035650223203956e+001
0	 4.000000000000001e+000	 4.533360000018134e+000	 1.034531198206144e+001
0	 4.000000000000000e+000	 4.600030000017851e+000	 1.033455568528687e+001
0	 4.000000000000000e+000	 4.666700000016666e+000	 1.032414964608736e+001
0	 4.066670000003317e+000	 4.000000000000001e+000	 1.045632337381778e+001
0	 4.066670000003317e+000	 4.066670000003317e+000	 1.043990634779780e+001
0	 4.066670000003317e+000	 4.133340000006534e+000	 1.042442522398184e+001
0	 4.066670000003317e+000	 4.200010000009550e+000	 1.040981795917994e+001
0	 4.066670000003318e+000	 4.266680000012268e+000	 1.039602251020216e+001
0	 4.066670000003318e+000	 4.333350000014584e+000	 1.038297683385857e+001
0	 4.066670000003317e+000	 4.400020000016400e+000	 1.037061888695923e+001
0	 4.066670000003317e+000	 4.466690000017617e+000	 1.035888662631419e+001
0	 4.066670000003316e+000	 4.533360000018134e+000	 1.034771800873357e+001
0	 4.066670000003317e+000	 4.600030000017850e+000	 1.033705099102742e+001
0	 4.066670000003317e+000	 4.666700000016667e+000	 1.032682353000583e+001
0	 4.133340000006533e+000	 4.000000000000001e+000	 1.045675694814095e+001
0	 4.133340000006534e+000	 4.066670000003318e+000	 1.044078823398828e+001
0	 4.133340000006533e+000	 4.133340000006534e+000	 1.042564719579601e+001
0	 4.133340000006533e+000	 4.200010000009550e+000	 1.041129065186736e+001
0	 4.133340000006534e+000	 4.266680000012268e+000	 1.039767542050556e+001
0	 4.133340000006532e+000	 4.333350000014584e+000	 1.038475832001385e+001
0	 4.133340000006534e+000	 4.400020000016402e+000	 1.037249616869547e+001
0	 4.133340000006534e+000	 4.466690000017618e+000	 1.036084578485367e+001
0	 4.133340000006534e+000	 4.533360000018134e+000	 1.034976398679170e+001
0	 4.133340000006534e+000	 4.600030000017851e+000	 1.033920759281281e+001
0	 4.133340000006533e+000	 4.666700000016667e+000	 1.032913342122026e+001
0	 4.200010000009550e+000	 4.000000000000000e+000	 1.045553787345577e+001
0	 4.200010000009550e+000	 4.066670000003317e+000	 1.044025672948469e+001
0	 4.200010000009550e+000	 4.133340000006535e+000	 1.042567766521974e+001
0	 4.200010000009550e+000	 4.200010000009550e+000	 1.041177356951193e+001
0	 4.200010000009550e+000	 4.266680000012268e+000	 1.039851733121232e+001
0	 4.200010000009551e+000	 4.333350000014583e+000	 1.038588183917195e+001
0	 4.200010000009550e+000	 4.400020000016402e+000	 1.037383998224183e+001
0	 4.200010000009551e+000	 4.466690000017619e+000	 1.036236464927305e+001
0	 4.200010000009550e+000	 4.533360000018135e+000	 1.035142872911665e+001
0	 4.200010000009550e+000	 4.600030000017851e+000	 1.034100511062367e+001
0	 4.200010000009550e+000	 4.666700000016666e+000	 1.033106668264522e+001
0	 4.266680000012267e+000	 4.000000000000001e+000	 1.045288819587157e+001
0	 4.266680000012267e+000	 4.066670000003317e+000	 1.043847920082350e+001
0	 4.266680000012268e+000	 4.133340000006534e+000	 1.042463625505071e+001
0	 4.266680000012267e+000	 4.200010000009550e+000	 1.041134552700665e+001
0	 4.266680000012268e+000	 4.266680000012268e+000	 1.039859318514482e+001
0	 4.266680000012268e+000	 4.333350000014583e+000	 1.038636539791868e+001
0	 4.266680000012267e+000	 4.400020000016402e+000	 1.037464833378170e+001
0	 4.266680000012266e+000	 4.466690000017617e+000	 1.036342816118738e+001
0	 4.266680000012266e+000	 4.533360000018133e+000	 1.035269104858920e+001
0	 4.266680000012267e+000	 4.600030000017851e+000	 1.034242316444064e+001
0	 4.266680000012266e+000	 4.666700000016666e+000	 1.033261067719518e+001
0	 4.333350000014585e+000	 4.000000000000000e+000	 1.044902996149770e+001
0	 4.333350000014583e+000	 4.066670000003318e+000	 1.043562301454117e+001
0	 4.333350000014582e+000	 4.133340000006534e+000	 1.042264258808660e+001
0	 4.333350000014584e+000	 4.200010000009550e+000	 1.041008533924450e+001
0	 4.333350000014583e+000	 4.266680000012268e+000	 1.039794792512542e+001
0	 4.333350000014582e+000	 4.333350000014584e+000	 1.038622700283991e+001
0	 4.333350000014583e+000	 4.400020000016401e+000	 1.037491922949849e+001
0	 4.333350000014582e+000	 4.466690000017616e+000	 1.036402126221172e+001
0	 4.333350000014583e+000	 4.533360000018132e+000	 1.035352975809013e+001
0	 4.333350000014583e+000	 4.600030000017850e+000	 1.034344137424429e+001
0	 4.333350000014582e+000	 4.666700000016665e+000	 1.033375276778473e+001
0	 4.400020000016400e+000	 4.000000000000000e+000	 1.044418521644353e+001
0	 4.400020000016399e+000	 4.066670000003317e+000	 1.043185553717420e+001
0	 4.400020000016399e+000	 4.133340000006534e+000	 1.041981628712511e+001
0	 4.400020000016399e+000	 4.200010000009550e+000	 1.040807182111847e+001
0	 4.400020000016399e+000	 4.266680000012268e+000	 1.039662649397651e+001
0	 4.400020000016399e+000	 4.333350000014584e+000	 1.038548466052149e+001
0	 4.400020000016399e+000	 4.400020000016402e+000	 1.037465067557562e+001
0	 4.400020000016399e+000	 4.466690000017615e+000	 1.036412889396113e+001
0	 4.400020000016399e+000	 4.533360000018132e+000	 1.035392367050027e+001
0	 4.400020000016399e+000	 4.600030000017850e+000	 1.034403936001528e+001
0	 4.400020000016400e+000	 4.666700000016666e+000	 1.033448031732838e+001
0	 4.466690000017616e+000	 4.000000000000001e+000	 1.043857600681837e+001
0	 4.466690000017616e+000	 4.066670000003316e+000	 1.042734413525903e+001
0	 4.466690000017616e+000	 4.133340000006534e+000	 1.041627697496389e+001
0	 4.466690000017616e+000	 4.200010000009551e+000	 1.040538378752151e+001
0	 4.466690000017615e+000	 4.266680000012268e+000	 1.039467383452046e+001
0	 4.466690000017618e+000	 4.333350000014584e+000	 1.038415637754925e+001
0	 4.466690000017616e+000	 4.400020000016401e+000	 1.037384067819647e+001
0	 4.466690000017617e+000	 4.466690000017619e+000	 1.036373599805067e+001
0	 4.466690000017618e+000	 4.533360000018133e+000	 1.035385159870040e+001
0	 4.466690000017618e+000	 4.600030000017851e+000	 1.034419674173420e+001
0	 4.466690000017615e+000	 4.666700000016665e+000	 1.033478068874067e+001
0	 4.533360000018131e+000	 4.000000000000001e+000	 1.043242437873157e+001
0	 4.533360000018134e+000	 4.066670000003318e+000	 1.042225617533214e+001
0	 4.533360000018133e+000	 4.133340000006534e+000	 1.041214427440066e+001
0	 4.533360000018130e+000	 4.200010000009550e+000	 1.040210005334665e+001
0	 4.533360000018131e+000	 4.266680000012268e+000	 1.039213488957962e+001
0	 4.533360000018131e+000	 4.333350000014583e+000	 1.038226016050906e+001
0	 4.533360000018132e+000	 4.400020000016402e+000	 1.037248724354449e+001
0	 4.533360000018132e+000	 4.466690000017617e+000	 1.036282751609540e+001
0	 4.533360000018133e+000	 4.533360000018135e+000	 1.035329235557131e+001
0	 4.533360000018133e+000	 4.600030000017851e+000	 1.034389313938172e+001
0	 4.533360000018131e+000	 4.666700000016666e+000	 1.033464124493612e+001
0	 4.600030000017848e+000	 4.000000000000000e+000	 1.042595237829250e+001
0	 4.600030000017849e+000	 4.066670000003318e+000	 1.041675902392999e+001
0	 4.600030000017850e+000	 4.133340000006535e+000	 1.040753780823308e+001
0	 4.600030000017849e+000	 4.200010000009551e+000	 1.039829943348684e+001
0	 4.600030000017848e+000	 4.266680000012267e+000	 1.038905460197636e+001
0	 4.600030000017848e+000	 4.333350000014583e+000	 1.037981401598674e+001
0	 4.600030000017849e+000	 4.400020000016401e+000	 1.037058837780305e+001
0	 4.600030000017849e+000	 4.466690000017617e+000	 1.036138838971039e+001
0	 4.600030000017847e+000	 4.533360000018132e+000	 1.035222475399380e+001
0	 4.600030000017848e+000	 4.600030000017850e+000	 1.034310817293842e+001
0	 4.600030000017850e+000	 4.666700000016668e+000	 1.033404934882929e+001
0	 4.666700000016667e+000	 4.000000000000001e+000	 1.041938205161046e+001
0	 4.666700000016666e+000	 4.066670000003317e+000	 1.041102004758905e+001
0	 4.666700000016666e+000	 4.133340000006535e+000	 1.040257719925882e+001
0	 4.666700000016667e+000	 4.200010000009550e+000	 1.039406074283506e+001
0	 4.666700000016666e+000	 4.266680000012268e+000	 1.038547791453308e+001
0	 4.666700000016665e+000	 4.333350000014583e+000	 1.037683595056815e+001
0	 4.666700000016665e+000	 4.400020000016400e+000	 1.036814208715558e+001
0	 4.666700000016667e+000	 4.466690000017618e+000	 1.035940356051067e+001
0	 4.666700000016666e+000	 4.533360000018134e+000	 1.035062760684869e+001
0	 4.666700000016668e+000	 4.600030000017852e+000	 1.034182146238494e+001
0	 4.666700000016666e+000	 4.666700000016666e+000	 1.033299236333471e+001
0	 4.000000000000000e+000	 4.666700000016666e+000	 1.032414964608736e+001
0	 4.000000000000000e+000	 4.733360000014533e+000	 1.031390599594300e+001
0	 4.000000000000000e+000	 4.800020000011600e+000	 1.030370708383128e+001
0	 4.000000000000001e+000	 4.866680000008067e+000	 1.029357915660314e+001
0	 3.999999999999999e+000	 4.933340000004133e+000	 1.028354846110947e+001
0	 3.999999999999999e+000	 5.000000000000000e+000	 1.027364124420123e+001
0	 4.000000000000000e+000	 5.066659999995866e+000	 1.026388375272928e+001
0	 4.000000000000000e+000	 5.133319999991934e+000	 1.025430223354454e+001
0	 4.000000000000001e+000	 5.199979999988400e+000	 1.024492293349793e+001
0	 4.000000000000000e+000	 5.266639999985467e+000	 1.023577209944031e+001
0	 4.000000000000000e+000	 5.333299999983334e+000	 1.022687597822260e+001
0	 4.066670000003317e+000	 4.666700000016667e+000	 1.032682353000583e+001
0	 4.066670000003317e+000	 4.733360000014532e+000	 1.031682306634407e+001
0	 4.066670000003315e+000	 4.800020000011598e+000	 1.030688610478476e+001
0	 4.066670000003319e+000	 4.866680000008067e+000	 1.029702871077705e+001
0	 4.066670000003318e+000	 4.933340000004133e+000	 1.028726694977012e+001
0	 4.066670000003317e+000	 5.000000000000000e+000	 1.027761688721312e+001
0	 4.066670000003318e+000	 5.066659999995867e+000	 1.026809458855521e+001
0	 4.066670000003318e+000	 5.133319999991933e+000	 1.025871611924553e+001
0	 4.066670000003315e+000	 5.199979999988400e+000	 1.024949754473323e+001
0	 4.066670000003317e+000	 5.266639999985467e+000	 1.024045493046747e+001
0	 4.066670000003316e+000	 5.333299999983332e+000	 1.023160434189738e+001
0	 4.133340000006533e+000	 4.666700000016667e+000	 1.032913342122026e+001
0	 4.133340000006532e+000	 4.733360000014532e+000	 1.031932741182867e+001
0	 4.133340000006533e+000	 4.800020000011599e+000	 1.030960609065786e+001
0	 4.133340000006534e+000	 4.866680000008066e+000	 1.029997658645186e+001
0	 4.133340000006533e+000	 4.933340000004134e+000	 1.029044602795461e+001
0	 4.133340000006535e+000	 5.000000000000002e+000	 1.028102154391016e+001
0	 4.133340000006534e+000	 5.066659999995867e+000	 1.027171026306247e+001
0	 4.133340000006534e+000	 5.133319999991933e+000	 1.026251931415553e+001
0	 4.133340000006534e+000	 5.199979999988401e+000	 1.025345582593332e+001
0	 4.133340000006533e+000	 5.266639999985468e+000	 1.024452692713983e+001
0	 4.133340000006533e+000	 5.333299999983334e+000	 1.023573974651904e+001
0	 4.200010000009550e+000	 4.666700000016666e+000	 1.033106668264522e+001
0	 4.200010000009551e+000	 4.733360000014534e+000	 1.032141692255732e+001
0	 4.200010000009550e+000	 4.800020000011601e+000	 1.031187409501026e+001
0	 4.200010000009550e+000	 4.866680000008064e+000	 1.030243763673946e+001
0	 4.200010000009551e+000	 4.933340000004133e+000	 1.029310698448034e+001
0	 4.200010000009553e+000	 5.000000000000001e+000	 1.028388157496830e+001
0	 4.200010000009550e+000	 5.066659999995866e+000	 1.027476084493875e+001
0	 4.200010000009550e+000	 5.133319999991934e+000	 1.026574423112711e+001
0	 4.200010000009550e+000	 5.199979999988400e+000	 1.025683117026877e+001
0	 4.200010000009550e+000	 5.266639999985467e+000	 1.024802109909913e+001
0	 4.200010000009550e+000	 5.333299999983334e+000	 1.023931345435361e+001
0	 4.266680000012266e+000	 4.666700000016666e+000	 1.033261067719519e+001
0	 4.266680000012268e+000	 4.733360000014534e+000	 1.032308948869052e+001
0	 4.266680000012265e+000	 4.800020000011599e+000	 1.031369717140159e+001
0	 4.266680000012267e+000	 4.866680000008066e+000	 1.030442671475183e+001
0	 4.266680000012266e+000	 4.933340000004134e+000	 1.029527110816465e+001
0	 4.266680000012268e+000	 5.000000000000000e+000	 1.028622334106349e+001
0	 4.266680000012266e+000	 5.066659999995866e+000	 1.027727640287174e+001
0	 4.266680000012266e+000	 5.133319999991935e+000	 1.026842328301281e+001
0	 4.266680000012267e+000	 5.199979999988400e+000	 1.025965697091015e+001
0	 4.266680000012267e+000	 5.266639999985468e+000	 1.025097045598715e+001
0	 4.266680000012265e+000	 5.333299999983333e+000	 1.024235672766722e+001
0	 4.333350000014582e+000	 4.666700000016665e+000	 1.033375276778474e+001
0	 4.333350000014582e+000	 4.733360000014533e+000	 1.032434300038880e+001
0	 4.333350000014582e+000	 4.800020000011600e+000	 1.031508237339151e+001
0	 4.333350000014583e+000	 4.866680000008066e+000	 1.030595867360089e+001
0	 4.333350000014582e+000	 4.933340000004133e+000	 1.029695968782494e+001
0	 4.333350000014582e+000	 4.999999999999998e+000	 1.028807320287167e+001
0	 4.333350000014583e+000	 5.066659999995869e+000	 1.027928700554908e+001
0	 4.333350000014583e+000	 5.133319999991934e+000	 1.027058888266521e+001
0	 4.333350000014583e+000	 5.199979999988401e+000	 1.026196662102806e+001
0	 4.333350000014582e+000	 5.266639999985467e+000	 1.025340800744560e+001
0	 4.333350000014583e+000	 5.333299999983334e+000	 1.024490082872589e+001
0	 4.400020000016400e+000	 4.666700000016666e+000	 1.033448031732838e+001
0	 4.400020000016401e+000	 4.733360000014534e+000	 1.032517534781269e+001
0	 4.400020000016399e+000	 4.800020000011600e+000	 1.031603675453969e+001
0	 4.400020000016399e+000	 4.866680000008065e+000	 1.030704836639858e+001
0	 4.400020000016400e+000	 4.933340000004133e+000	 1.029819401227855e+001
0	 4.400020000016400e+000	 5.000000000000000e+000	 1.028945752106880e+001
0	 4.400020000016400e+000	 5.066659999995867e+000	 1.028082272165850e+001
0	 4.400020000016399e+000	 5.133319999991933e+000	 1.027227344293686e+001
0	 4.400020000016400e+000	 5.199979999988400e+000	 1.026379351379305e+001
0	 4.400020000016401e+000	 5.266639999985467e+000	 1.025536676311628e+001
0	 4.400020000016400e+000	 5.333299999983333e+000	 1.024697701979572e+001
0	 4.466690000017615e+000	 4.666700000016665e+000	 1.033478068874067e+001
0	 4.466690000017615e+000	 4.733360000014532e+000	 1.032558442112270e+001
0	 4.466690000017618e+000	 4.800020000011601e+000	 1.031656736840577e+001
0	 4.466690000017617e+000	 4.866680000008068e+000	 1.030771064625685e+001
0	 4.466690000017615e+000	 4.933340000004133e+000	 1.029899537034289e+001
0	 4.466690000017618e+000	 5.000000000000000e+000	 1.029040265633084e+001
0	 4.466690000017615e+000	 5.066659999995866e+000	 1.028191361988766e+001
0	 4.466690000017616e+000	 5.133319999991935e+000	 1.027350937668031e+001
0	 4.466690000017618e+000	 5.199979999988400e+000	 1.026517104237574e+001
0	 4.466690000017614e+000	 5.266639999985467e+000	 1.025687973264091e+001
0	 4.466690000017616e+000	 5.333299999983335e+000	 1.024861656314278e+001
0	 4.533360000018131e+000	 4.666700000016666e+000	 1.033464124493612e+001
0	 4.533360000018132e+000	 4.733360000014534e+000	 1.032556811047936e+001
0	 4.533360000018133e+000	 4.800020000011601e+000	 1.031668126854944e+001
0	 4.533360000018133e+000	 4.866680000008067e+000	 1.030796036628766e+001
0	 4.533360000018132e+000	 4.933340000004135e+000	 1.029938505083532e+001
0	 4.533360000018132e+000	 5.000000000000001e+000	 1.029093496933375e+001
0	 4.533360000018133e+000	 5.066659999995866e+000	 1.028258976892425e+001
0	 4.533360000018133e+000	 5.133319999991935e+000	 1.027432909674814e+001
0	 4.533360000018132e+000	 5.199979999988401e+000	 1.026613259994670e+001
0	 4.533360000018132e+000	 5.266639999985467e+000	 1.025797992566127e+001
0	 4.533360000018131e+000	 5.333299999983334e+000	 1.024985072103315e+001
0	 4.600030000017850e+000	 4.666700000016668e+000	 1.033404934882929e+001
0	 4.600030000017849e+000	 4.733360000014534e+000	 1.032512430604321e+001
0	 4.600030000017848e+000	 4.800020000011601e+000	 1.031638550853034e+001
0	 4.600030000017848e+000	 4.866680000008065e+000	 1.030781237960293e+001
0	 4.600030000017848e+000	 4.933340000004134e+000	 1.029938434257324e+001
0	 4.600030000017849e+000	 4.999999999999999e+000	 1.029108082075349e+001
0	 4.600030000017848e+000	 5.066659999995866e+000	 1.028288123745597e+001
0	 4.600030000017849e+000	 5.133319999991935e+000	 1.027476501599289e+001
0	 4.600030000017849e+000	 5.199979999988401e+000	 1.026671157967652e+001
0	 4.600030000017848e+000	 5.266639999985468e+000	 1.025870035181912e+001
0	 4.600030000017849e+000	 5.333299999983335e+000	 1.025071075573291e+001
0	 4.666700000016666e+000	 4.666700000016666e+000	 1.033299236333471e+001
0	 4.666700000016666e+000	 4.733360000014534e+000	 1.032425089797476e+001
0	 4.666700000016665e+000	 4.800020000011599e+000	 1.031568714190814e+001
0	 4.666700000016666e+000	 4.866680000008067e+000	 1.030728153931463e+001
0	 4.666700000016667e+000	 4.933340000004135e+000	 1.029901453437400e+001
0	 4.666700000016666e+000	 5.000000000000001e+000	 1.029086657126602e+001
0	 4.666700000016667e+000	 5.066659999995867e+000	 1.028281809417049e+001
0	 4.666700000016666e+000	 5.133319999991935e+000	 1.027484954726716e+001
0	 4.666700000016665e+000	 5.199979999988400e+000	 1.026694137473580e+001
0	 4.666700000016667e+000	 5.266639999985468e+000	 1.025907402075620e+001
0	 4.666700000016667e+000	 5.333299999983335e+000	 1.025122792950813e+001
0	 4.000000000000000e+000	 5.333299999983334e+000	 1.022687597822260e+001
0	 4.000000000000000e+000	 5.399969999982148e+000	 1.021827224002020e+001
0	 4.000000000000002e+000	 5.466639999981868e+000	 1.020997404846666e+001
0	 4.000000000000000e+000	 5.533309999982382e+000	 1.020196694819868e+001
0	 4.000000000000001e+000	 5.599979999983600e+000	 1.019423648385300e+001
0	 4.000000000000001e+000	 5.666649999985416e+000	 1.018676820006636e+001
0	 4.000000000000001e+000	 5.733319999987733e+000	 1.017954764147544e+001
0	 4.000000000000000e+000	 5.799989999990448e+000	 1.017256035271700e+001
0	 4.000000000000001e+000	 5.866659999993468e+000	 1.016579187842776e+001
0	 4.000000000000000e+000	 5.933329999996682e+000	 1.015922776324445e+001
0	 4.000000000000000e+000	 6.000000000000001e+000	 1.015285355180380e+001
0	 4.066670000003316e+000	 5.333299999983332e+000	 1.023160434189738e+001
0	 4.066670000003317e+000	 5.399969999982150e+000	 1.022300271951247e+001
0	 4.066670000003318e+000	 5.466639999981867e+000	 1.021469115945187e+001
0	 4.066670000003317e+000	 5.533309999982384e+000	 1.020665802309611e+001
0	 4.066670000003316e+000	 5.599979999983599e+000	 1.019889167182575e+001
0	 4.066670000003317e+000	 5.666649999985415e+000	 1.019138046702132e+001
0	 4.066670000003318e+000	 5.733319999987733e+000	 1.018411277006339e+001
0	 4.066670000003318e+000	 5.799989999990451e+000	 1.017707694233252e+001
0	 4.066670000003317e+000	 5.866659999993468e+000	 1.017026134520926e+001
0	 4.066670000003316e+000	 5.933329999996683e+000	 1.016365434007415e+001
0	 4.066670000003316e+000	 5.999999999999999e+000	 1.015724428830778e+001
0	 4.133340000006533e+000	 5.333299999983334e+000	 1.023573974651903e+001
0	 4.133340000006534e+000	 5.399969999982150e+000	 1.022716489428020e+001
0	 4.133340000006533e+000	 5.466639999981865e+000	 1.021886474714741e+001
0	 4.133340000006533e+000	 5.533309999982382e+000	 1.021083016196934e+001
0	 4.133340000006534e+000	 5.599979999983601e+000	 1.020305199559464e+001
0	 4.133340000006533e+000	 5.666649999985417e+000	 1.019552110487199e+001
0	 4.133340000006535e+000	 5.733319999987733e+000	 1.018822834665006e+001
0	 4.133340000006532e+000	 5.799989999990449e+000	 1.018116457777753e+001
0	 4.133340000006532e+000	 5.866659999993466e+000	 1.017432065510307e+001
0	 4.133340000006533e+000	 5.933329999996684e+000	 1.016768743547533e+001
0	 4.133340000006532e+000	 6.000000000000000e+000	 1.016125577574303e+001
0	 4.200010000009550e+000	 5.333299999983334e+000	 1.023931345435361e+001
0	 4.200010000009550e+000	 5.399969999982150e+000	 1.023078766086008e+001
0	 4.200010000009550e+000	 5.466639999981865e+000	 1.022252147022900e+001
0	 4.200010000009551e+000	 5.533309999982384e+000	 1.021450791350148e+001
0	 4.200010000009550e+000	 5.599979999983600e+000	 1.020674002171857e+001
0	 4.200010000009549e+000	 5.666649999985416e+000	 1.019921082592137e+001
0	 4.200010000009550e+000	 5.733319999987733e+000	 1.019191335715093e+001
0	 4.200010000009550e+000	 5.799989999990450e+000	 1.018484064644835e+001
0	 4.200010000009550e+000	 5.866659999993467e+000	 1.017798572485473e+001
0	 4.200010000009550e+000	 5.933329999996684e+000	 1.017134162341113e+001
0	 4.200010000009550e+000	 5.999999999999998e+000	 1.016490137315868e+001
0	 4.266680000012265e+000	 5.333299999983333e+000	 1.024235672766722e+001
0	 4.266680000012267e+000	 5.399969999982151e+000	 1.023389991578884e+001
0	 4.266680000012266e+000	 5.466639999981866e+000	 1.022568798737240e+001
0	 4.266680000012267e+000	 5.533309999982383e+000	 1.021771582637565e+001
0	 4.266680000012268e+000	 5.599979999983600e+000	 1.020997831675640e+001
0	 4.266680000012268e+000	 5.666649999985417e+000	 1.020247034247240e+001
0	 4.266680000012268e+000	 5.733319999987733e+000	 1.019518678748146e+001
0	 4.266680000012266e+000	 5.799989999990449e+000	 1.018812253574132e+001
0	 4.266680000012268e+000	 5.866659999993467e+000	 1.018127247120983e+001
0	 4.266680000012267e+000	 5.933329999996683e+000	 1.017463147784473e+001
0	 4.266680000012267e+000	 6.000000000000000e+000	 1.016819443960381e+001
0	 4.333350000014583e+000	 5.333299999983334e+000	 1.024490082872588e+001
0	 4.333350000014583e+000	 5.399969999982149e+000	 1.023653055560320e+001
0	 4.333350000014583e+000	 5.466639999981866e+000	 1.022839095725330e+001
0	 4.333350000014582e+000	 5.533309999982382e+000	 1.022047844927498e+001
0	 4.333350000014583e+000	 5.599979999983598e+000	 1.021278944726698e+001
0	 4.333350000014584e+000	 5.666649999985417e+000	 1.020532036682811e+001
0	 4.333350000014583e+000	 5.733319999987733e+000	 1.019806762355712e+001
0	 4.333350000014583e+000	 5.799989999990449e+000	 1.019102763305279e+001
0	 4.333350000014583e+000	 5.866659999993468e+000	 1.018419681091390e+001
0	 4.333350000014584e+000	 5.933329999996684e+000	 1.017757157273923e+001
0	 4.333350000014585e+000	 6.000000000000001e+000	 1.017114833412757e+001
0	 4.400020000016400e+000	 5.333299999983333e+000	 1.024697701979572e+001
0	 4.400020000016400e+000	 5.399969999982149e+000	 1.023870847683987e+001
0	 4.400020000016401e+000	 5.466639999981866e+000	 1.023065703854747e+001
0	 4.400020000016399e+000	 5.533309999982382e+000	 1.022282033088256e+001
0	 4.400020000016400e+000	 5.599979999983599e+000	 1.021519597980922e+001
0	 4.400020000016399e+000	 5.666649999985414e+000	 1.020778161129147e+001
0	 4.400020000016400e+000	 5.733319999987732e+000	 1.020057485129340e+001
0	 4.400020000016400e+000	 5.799989999990449e+000	 1.019357332577906e+001
0	 4.400020000016401e+000	 5.866659999993468e+000	 1.018677466071251e+001
0	 4.400020000016399e+000	 5.933329999996682e+000	 1.018017648205782e+001
0	 4.400020000016400e+000	 6.000000000000000e+000	 1.017377641577905e+001
0	 4.466690000017616e+000	 5.333299999983335e+000	 1.024861656314278e+001
0	 4.466690000017618e+000	 5.399969999982151e+000	 1.024046257603559e+001
0	 4.466690000017616e+000	 5.466639999981865e+000	 1.023251288993064e+001
0	 4.466690000017615e+000	 5.533309999982382e+000	 1.022476601988154e+001
0	 4.466690000017616e+000	 5.599979999983600e+000	 1.021722048094197e+001
0	 4.466690000017615e+000	 5.666649999985417e+000	 1.020987478816549e+001
0	 4.466690000017614e+000	 5.733319999987733e+000	 1.020272745660580e+001
0	 4.466690000017616e+000	 5.799989999990449e+000	 1.019577700131650e+001
0	 4.466690000017617e+000	 5.866659999993466e+000	 1.018902193735124e+001
0	 4.466690000017616e+000	 5.933329999996682e+000	 1.018246077976364e+001
0	 4.466690000017617e+000	 6.000000000000001e+000	 1.017609204360737e+001
0	 4.533360000018131e+000	 5.333299999983334e+000	 1.024985072103315e+001
0	 4.533360000018133e+000	 5.399969999982151e+000	 1.024182174972707e+001
0	 4.533360000018131e+000	 5.466639999981865e+000	 1.023398517007853e+001
0	 4.533360000018134e+000	 5.533309999982383e+000	 1.022634006495504e+001
0	 4.533360000018132e+000	 5.599979999983599e+000	 1.021888551722408e+001
0	 4.533360000018132e+000	 5.666649999985416e+000	 1.021162060975316e+001
0	 4.533360000018131e+000	 5.733319999987733e+000	 1.020454442540978e+001
0	 4.533360000018132e+000	 5.799989999990448e+000	 1.019765604706143e+001
0	 4.533360000018133e+000	 5.866659999993467e+000	 1.019095455757562e+001
0	 4.533360000018134e+000	 5.933329999996684e+000	 1.018443903981985e+001
0	 4.533360000018132e+000	 6.000000000000000e+000	 1.017810857666165e+001
0	 4.600030000017849e+000	 5.333299999983335e+000	 1.025071075573291e+001
0	 4.600030000017848e+000	 5.399969999982150e+000	 1.024281489445104e+001
0	 4.600030000017849e+000	 5.466639999981867e+000	 1.023510053766691e+001
0	 4.600030000017849e+000	 5.533309999982384e+000	 1.022756701478616e+001
0	 4.600030000017849e+000	 5.599979999983599e+000	 1.022021365521447e+001
0	 4.600030000017848e+000	 5.666649999985417e+000	 1.021303978835747e+001
0	 4.600030000017848e+000	 5.733319999987731e+000	 1.020604474362082e+001
0	 4.600030000017848e+000	 5.799989999990449e+000	 1.019922785041018e+001
0	 4.600030000017849e+000	 5.866659999993467e+000	 1.019258843813124e+001
0	 4.600030000017849e+000	 5.933329999996683e+000	 1.018612583618962e+001
0	 4.600030000017848e+000	 6.000000000000001e+000	 1.017983937399101e+001
0	 4.666700000016667e+000	 5.333299999983335e+000	 1.025122792950814e+001
0	 4.666700000016665e+000	 5.399969999982150e+000	 1.024347090674423e+001
0	 4.666700000016666e+000	 5.466639999981867e+000	 1.023588565137151e+001
0	 4.666700000016665e+000	 5.533309999982382e+000	 1.022847141805806e+001
0	 4.666700000016666e+000	 5.599979999983599e+000	 1.022122746147199e+001
0	 4.666700000016665e+000	 5.666649999985416e+000	 1.021415303628141e+001
0	 4.666700000016666e+000	 5.733319999987732e+000	 1.020724739715442e+001
0	 4.666700000016666e+000	 5.799989999990449e+000	 1.020050979875913e+001
0	 4.666700000016666e+000	 5.866659999993467e+000	 1.019393949576365e+001
0	 4.666700000016667e+000	 5.933329999996684e+000	 1.018753574283609e+001
0	 4.666700000016666e+000	 6.000000000000000e+000	 1.018129779464456e+001
0	 4.000000000000000e+000	 6.000000000000001e+000	 1.015285355180380e+001
0	 4.000000000000000e+000	 6.066670000003314e+000	 1.014665432010532e+001
0	 4.000000000000001e+000	 6.133340000006534e+000	 1.014062796338885e+001
0	 4.000000000000000e+000	 6.200010000009551e+000	 1.013477925515176e+001
0	 4.000000000000001e+000	 6.266680000012268e+000	 1.012911296889138e+001
0	 4.000000000000000e+000	 6.333350000014584e+000	 1.012363387810506e+001
0	 3.999999999999999e+000	 6.400020000016398e+000	 1.011834675629015e+001
0	 4.000000000000000e+000	 6.466690000017617e+000	 1.011325637694401e+001
0	 4.000000000000000e+000	 6.533360000018133e+000	 1.010836751356395e+001
0	 4.000000000000000e+000	 6.600030000017848e+000	 1.010368493964736e+001
0	 4.000000000000000e+000	 6.666700000016665e+000	 1.009921342869160e+001
0	 4.066670000003316e+000	 5.999999999999999e+000	 1.015724428830778e+001
0	 4.066670000003317e+000	 6.066670000003316e+000	 1.015101200362159e+001
0	 4.066670000003316e+000	 6.133340000006532e+000	 1.014494856679094e+001
0	 4.066670000003317e+000	 6.200010000009550e+000	 1.013905773979230e+001
0	 4.066670000003319e+000	 6.266680000012269e+000	 1.013334328460210e+001
0	 4.066670000003316e+000	 6.333350000014583e+000	 1.012780896319678e+001
0	 4.066670000003317e+000	 6.400020000016401e+000	 1.012245853755282e+001
0	 4.066670000003318e+000	 6.466690000017618e+000	 1.011729576964666e+001
0	 4.066670000003317e+000	 6.533360000018134e+000	 1.011232442145476e+001
0	 4.066670000003317e+000	 6.600030000017851e+000	 1.010754825495361e+001
0	 4.066670000003317e+000	 6.666700000016667e+000	 1.010297103211963e+001
0	 4.133340000006532e+000	 6.000000000000000e+000	 1.016125577574303e+001
0	 4.133340000006533e+000	 6.066670000003317e+000	 1.015500316125771e+001
0	 4.133340000006533e+000	 6.133340000006534e+000	 1.014891504587200e+001
0	 4.133340000006533e+000	 6.200010000009551e+000	 1.014299423918616e+001
0	 4.133340000006534e+000	 6.266680000012267e+000	 1.013724355080052e+001
0	 4.133340000006532e+000	 6.333350000014583e+000	 1.013166579031537e+001
0	 4.133340000006535e+000	 6.400020000016401e+000	 1.012626376733100e+001
0	 4.133340000006535e+000	 6.466690000017617e+000	 1.012104029144773e+001
0	 4.133340000006532e+000	 6.533360000018134e+000	 1.011599817226585e+001
0	 4.133340000006533e+000	 6.600030000017849e+000	 1.011114021938568e+001
0	 4.133340000006534e+000	 6.666700000016666e+000	 1.010646924240751e+001
0	 4.200010000009550e+000	 5.999999999999998e+000	 1.016490137315868e+001
0	 4.200010000009548e+000	 6.066670000003315e+000	 1.015864004157480e+001
0	 4.200010000009550e+000	 6.133340000006534e+000	 1.015253861968883e+001
0	 4.200010000009550e+000	 6.200010000009553e+000	 1.014659902386966e+001
0	 4.200010000009551e+000	 6.266680000012268e+000	 1.014082317048614e+001
0	 4.200010000009550e+000	 6.333350000014583e+000	 1.013521297590718e+001
0	 4.200010000009551e+000	 6.400020000016402e+000	 1.012977035650166e+001
0	 4.200010000009550e+000	 6.466690000017617e+000	 1.012449722863850e+001
0	 4.200010000009551e+000	 6.533360000018136e+000	 1.011939550868655e+001
0	 4.200010000009550e+000	 6.600030000017851e+000	 1.011446711301472e+001
0	 4.200010000009549e+000	 6.666700000016665e+000	 1.010971395799191e+001
0	 4.266680000012267e+000	 6.000000000000000e+000	 1.016819443960381e+001
0	 4.266680000012265e+000	 6.066670000003316e+000	 1.016193489313396e+001
0	 4.266680000012268e+000	 6.133340000006534e+000	 1.015583050729831e+001
0	 4.266680000012267e+000	 6.200010000009549e+000	 1.014988236437905e+001
0	 4.266680000012268e+000	 6.266680000012267e+000	 1.014409154665841e+001
0	 4.266680000012268e+000	 6.333350000014584e+000	 1.013845913641858e+001
0	 4.266680000012268e+000	 6.400020000016403e+000	 1.013298621594180e+001
0	 4.266680000012266e+000	 6.466690000017617e+000	 1.012767386751029e+001
0	 4.266680000012266e+000	 6.533360000018135e+000	 1.012252317340624e+001
0	 4.266680000012266e+000	 6.600030000017849e+000	 1.011753521591190e+001
0	 4.266680000012267e+000	 6.666700000016666e+000	 1.011271107730947e+001
0	 4.333350000014585e+000	 6.000000000000001e+000	 1.017114833412757e+001
0	 4.333350000014583e+000	 6.066670000003317e+000	 1.016489996449633e+001
0	 4.333350000014582e+000	 6.133340000006533e+000	 1.015880192775727e+001
0	 4.333350000014582e+000	 6.200010000009551e+000	 1.015285453125065e+001
0	 4.333350000014584e+000	 6.266680000012268e+000	 1.014705808231678e+001
0	 4.333350000014582e+000	 6.333350000014582e+000	 1.014141288829593e+001
0	 4.333350000014584e+000	 6.400020000016401e+000	 1.013591925652836e+001
0	 4.333350000014582e+000	 6.466690000017615e+000	 1.013057749435438e+001
0	 4.333350000014582e+000	 6.533360000018134e+000	 1.012538790911426e+001
0	 4.333350000014584e+000	 6.600030000017850e+000	 1.012035080814831e+001
0	 4.333350000014582e+000	 6.666700000016665e+000	 1.011546649879681e+001
0	 4.400020000016400e+000	 6.000000000000000e+000	 1.017377641577905e+001
0	 4.400020000016399e+000	 6.066670000003317e+000	 1.016754750422302e+001
0	 4.400020000016400e+000	 6.133340000006532e+000	 1.016146410012257e+001
0	 4.400020000016400e+000	 6.200010000009550e+000	 1.015552579502079e+001
0	 4.400020000016399e+000	 6.266680000012267e+000	 1.014973218046076e+001
0	 4.400020000016399e+000	 6.333350000014584e+000	 1.014408284798557e+001
0	 4.400020000016400e+000	 6.400020000016399e+000	 1.013857738913831e+001
0	 4.400020000016398e+000	 6.466690000017617e+000	 1.013321539546209e+001
0	 4.400020000016401e+000	 6.533360000018135e+000	 1.012799645850001e+001
0	 4.400020000016400e+000	 6.600030000017850e+000	 1.012292016979514e+001
0	 4.400020000016401e+000	 6.666700000016666e+000	 1.011798612089059e+001
0	 4.466690000017617e+000	 6.000000000000001e+000	 1.017609204360737e+001
0	 4.466690000017616e+000	 6.066670000003316e+000	 1.016988976087515e+001
0	 4.466690000017617e+000	 6.133340000006532e+000	 1.016382824345106e+001
0	 4.466690000017617e+000	 6.200010000009551e+000	 1.015790642622572e+001
0	 4.466690000017615e+000	 6.266680000012268e+000	 1.015212324408978e+001
0	 4.466690000017616e+000	 6.333350000014584e+000	 1.014647763193387e+001
0	 4.466690000017616e+000	 6.400020000016401e+000	 1.014096852464866e+001
0	 4.466690000017616e+000	 6.466690000017617e+000	 1.013559485712476e+001
0	 4.466690000017616e+000	 6.533360000018133e+000	 1.013035556425283e+001
0	 4.466690000017617e+000	 6.600030000017851e+000	 1.012524958092350e+001
0	 4.466690000017615e+000	 6.666700000016665e+000	 1.012027584202746e+001
0	 4.533360000018132e+000	 6.000000000000000e+000	 1.017810857666165e+001
0	 4.533360000018132e+000	 6.066670000003316e+000	 1.017193898301384e+001
0	 4.533360000018132e+000	 6.133340000006533e+000	 1.016590557679957e+001
0	 4.533360000018130e+000	 6.200010000009550e+000	 1.016000669540176e+001
0	 4.533360000018131e+000	 6.266680000012268e+000	 1.015424067620332e+001
0	 4.533360000018131e+000	 6.333350000014584e+000	 1.014860585658721e+001
0	 4.533360000018133e+000	 6.400020000016402e+000	 1.014310057393635e+001
0	 4.533360000018133e+000	 6.466690000017616e+000	 1.013772316563366e+001
0	 4.533360000018132e+000	 6.533360000018135e+000	 1.013247196906209e+001
0	 4.533360000018134e+000	 6.600030000017852e+000	 1.012734532160457e+001
0	 4.533360000018133e+000	 6.666700000016666e+000	 1.012234156064405e+001
0	 4.600030000017848e+000	 6.000000000000001e+000	 1.017983937399101e+001
0	 4.600030000017849e+000	 6.066670000003317e+000	 1.017370741920023e+001
0	 4.600030000017849e+000	 6.133340000006534e+000	 1.016770731922497e+001
0	 4.600030000017847e+000	 6.200010000009550e+000	 1.016183687308520e+001
0	 4.600030000017848e+000	 6.266680000012268e+000	 1.015609387980088e+001
0	 4.600030000017849e+000	 6.333350000014584e+000	 1.015047613839194e+001
0	 4.600030000017848e+000	 6.400020000016399e+000	 1.014498144787837e+001
0	 4.600030000017848e+000	 6.466690000017617e+000	 1.013960760728014e+001
0	 4.600030000017850e+000	 6.533360000018135e+000	 1.013435241561718e+001
0	 4.600030000017848e+000	 6.600030000017850e+000	 1.012921367190948e+001
0	 4.600030000017849e+000	 6.666700000016666e+000	 1.012418917517702e+001
0	 4.666700000016666e+000	 6.000000000000000e+000	 1.018129779464456e+001
0	 4.666700000016665e+000	 6.066670000003318e+000	 1.017520731799543e+001
0	 4.666700000016667e+000	 6.133340000006533e+000	 1.016924468978412e+001
0	 4.666700000016666e+000	 6.200010000009551e+000	 1.016340722981235e+001
0	 4.666700000016667e+000	 6.266680000012267e+000	 1.015769225788189e+001
0	 4.666700000016667e+000	 6.333350000014587e+000	 1.015209709379442e+001
0	 4.666700000016666e+000	 6.400020000016402e+000	 1.014661905735171e+001
0	 4.666700000016667e+000	 6.466690000017617e+000	 1.014125546835547e+001
0	 4.666700000016666e+000	 6.533360000018133e+000	 1.013600364660744e+001
0	 4.666700000016666e+000	 6.600030000017847e+000	 1.013086091190939e+001
0	 4.666700000016666e+000	 6.666700000016667e+000	 1.012582458406302e+001
0	 4.000000000000000e+000	 6.666700000016665e+000	 1.009921342869160e+001
0	 4.000000000000001e+000	 6.733360000014532e+000	 1.009491100715739e+001
0	 4.000000000000000e+000	 6.800020000011598e+000	 1.009073158778596e+001
0	 4.000000000000000e+000	 6.866680000008068e+000	 1.008667573737187e+001
0	 4.000000000000001e+000	 6.933340000004132e+000	 1.008274402270969e+001
0	 4.000000000000000e+000	 6.999999999999998e+000	 1.007893701059401e+001
0	 4.000000000000000e+000	 7.066659999995868e+000	 1.007525526781936e+001
0	 4.000000000000000e+000	 7.133319999991934e+000	 1.007169936118033e+001
0	 4.000000000000001e+000	 7.199979999988402e+000	 1.006826985747146e+001
0	 4.000000000000001e+000	 7.266639999985467e+000	 1.006496732348732e+001
0	 4.000000000000001e+000	 7.333299999983335e+000	 1.006179232602245e+001
0	 4.066670000003317e+000	 6.666700000016667e+000	 1.010297103211963e+001
0	 4.066670000003318e+000	 6.733360000014534e+000	 1.009855828210663e+001
0	 4.066670000003316e+000	 6.800020000011600e+000	 1.009427179524543e+001
0	 4.066670000003319e+000	 6.866680000008067e+000	 1.009011173960095e+001
0	 4.066670000003318e+000	 6.933340000004136e+000	 1.008607828323812e+001
0	 4.066670000003318e+000	 7.000000000000002e+000	 1.008217159422184e+001
0	 4.066670000003319e+000	 7.066659999995869e+000	 1.007839184061699e+001
0	 4.066670000003319e+000	 7.133319999991935e+000	 1.007473919048852e+001
0	 4.066670000003316e+000	 7.199979999988399e+000	 1.007121381190130e+001
0	 4.066670000003317e+000	 7.266639999985467e+000	 1.006781587292026e+001
0	 4.066670000003317e+000	 7.333299999983334e+000	 1.006454554161025e+001
0	 4.133340000006534e+000	 6.666700000016666e+000	 1.010646924240751e+001
0	 4.133340000006534e+000	 6.733360000014533e+000	 1.010195780467658e+001
0	 4.133340000006533e+000	 6.800020000011598e+000	 1.009757510830653e+001
0	 4.133340000006535e+000	 6.866680000008068e+000	 1.009332098039588e+001
0	 4.133340000006534e+000	 6.933340000004133e+000	 1.008919524804318e+001
0	 4.133340000006534e+000	 6.999999999999997e+000	 1.008519773834698e+001
0	 4.133340000006534e+000	 7.066659999995868e+000	 1.008132827840580e+001
0	 4.133340000006534e+000	 7.133319999991934e+000	 1.007758669531818e+001
0	 4.133340000006533e+000	 7.199979999988399e+000	 1.007397281618266e+001
0	 4.133340000006533e+000	 7.266639999985467e+000	 1.007048646809774e+001
0	 4.133340000006533e+000	 7.333299999983331e+000	 1.006712747816197e+001
0	 4.200010000009549e+000	 6.666700000016665e+000	 1.010971395799191e+001
0	 4.200010000009550e+000	 6.733360000014530e+000	 1.010511514141875e+001
0	 4.200010000009550e+000	 6.800020000011600e+000	 1.010064678004813e+001
0	 4.200010000009551e+000	 6.866680000008067e+000	 1.009630841777549e+001
0	 4.200010000009551e+000	 6.933340000004134e+000	 1.009209959849628e+001
0	 4.200010000009552e+000	 7.000000000000001e+000	 1.008801986610599e+001
0	 4.200010000009552e+000	 7.066659999995866e+000	 1.008406876450003e+001
0	 4.200010000009551e+000	 7.133319999991935e+000	 1.008024583757387e+001
0	 4.200010000009550e+000	 7.199979999988400e+000	 1.007655062922293e+001
0	 4.200010000009550e+000	 7.266639999985467e+000	 1.007298268334266e+001
0	 4.200010000009550e+000	 7.333299999983334e+000	 1.006954154382852e+001
0	 4.266680000012267e+000	 6.666700000016666e+000	 1.011271107730947e+001
0	 4.266680000012267e+000	 6.733360000014534e+000	 1.010803585888458e+001
0	 4.266680000012266e+000	 6.800020000011599e+000	 1.010349206354907e+001
0	 4.266680000012267e+000	 6.866680000008067e+000	 1.009907900975860e+001
0	 4.266680000012266e+000	 6.933340000004132e+000	 1.009479601596883e+001
0	 4.266680000012266e+000	 6.999999999999997e+000	 1.009064240063539e+001
0	 4.266680000012266e+000	 7.066659999995866e+000	 1.008661748221393e+001
0	 4.266680000012268e+000	 7.133319999991934e+000	 1.008272057916011e+001
0	 4.266680000012266e+000	 7.199979999988400e+000	 1.007895100992956e+001
0	 4.266680000012268e+000	 7.266639999985468e+000	 1.007530809297791e+001
0	 4.266680000012265e+000	 7.333299999983333e+000	 1.007179114676081e+001
0	 4.333350000014582e+000	 6.666700000016665e+000	 1.011546649879682e+001
0	 4.333350000014582e+000	 6.733360000014533e+000	 1.011072552362553e+001
0	 4.333350000014582e+000	 6.800020000011600e+000	 1.010611621188824e+001
0	 4.333350000014583e+000	 6.866680000008066e+000	 1.010163771436407e+001
0	 4.333350000014583e+000	 6.933340000004134e+000	 1.009728918183220e+001
0	 4.333350000014583e+000	 7.000000000000000e+000	 1.009306976507171e+001
0	 4.333350000014582e+000	 7.066659999995867e+000	 1.008897861486177e+001
0	 4.333350000014584e+000	 7.133319999991933e+000	 1.008501488198147e+001
0	 4.333350000014582e+000	 7.199979999988400e+000	 1.008117771720998e+001
0	 4.333350000014583e+000	 7.266639999985467e+000	 1.007746627132636e+001
0	 4.333350000014583e+000	 7.333299999983334e+000	 1.007387969510976e+001
0	 4.400020000016401e+000	 6.666700000016666e+000	 1.011798612089059e+001
0	 4.400020000016400e+000	 6.733360000014531e+000	 1.011318970219306e+001
0	 4.400020000016399e+000	 6.800020000011599e+000	 1.010852447814447e+001
0	 4.400020000016398e+000	 6.866680000008064e+000	 1.010398948961076e+001
0	 4.400020000016400e+000	 6.933340000004134e+000	 1.009958377745781e+001
0	 4.400020000016399e+000	 6.999999999999999e+000	 1.009530638255151e+001
0	 4.400020000016400e+000	 7.066659999995868e+000	 1.009115634575778e+001
0	 4.400020000016400e+000	 7.133319999991934e+000	 1.008713270794252e+001
0	 4.400020000016399e+000	 7.199979999988400e+000	 1.008323450997159e+001
0	 4.400020000016401e+000	 7.266639999985467e+000	 1.007946079271090e+001
0	 4.400020000016400e+000	 7.333299999983333e+000	 1.007581059702632e+001
0	 4.466690000017615e+000	 6.666700000016665e+000	 1.012027584202746e+001
0	 4.466690000017616e+000	 6.733360000014533e+000	 1.011543396113864e+001
0	 4.466690000017618e+000	 6.800020000011601e+000	 1.011072211539666e+001
0	 4.466690000017615e+000	 6.866680000008068e+000	 1.010613929351747e+001
0	 4.466690000017615e+000	 6.933340000004133e+000	 1.010168448421704e+001
0	 4.466690000017617e+000	 7.000000000000000e+000	 1.009735667621131e+001
0	 4.466690000017615e+000	 7.066659999995867e+000	 1.009315485821625e+001
0	 4.466690000017616e+000	 7.133319999991935e+000	 1.008907801894778e+001
0	 4.466690000017616e+000	 7.199979999988399e+000	 1.008512514712185e+001
0	 4.466690000017615e+000	 7.266639999985466e+000	 1.008129523145440e+001
0	 4.466690000017616e+000	 7.333299999983335e+000	 1.007758726066138e+001
0	 4.533360000018133e+000	 6.666700000016666e+000	 1.012234156064405e+001
0	 4.533360000018131e+000	 6.733360000014534e+000	 1.011746386701374e+001
0	 4.533360000018134e+000	 6.800020000011600e+000	 1.011271437672363e+001
0	 4.533360000018134e+000	 6.866680000008068e+000	 1.010809208410307e+001
0	 4.533360000018132e+000	 6.933340000004134e+000	 1.010359598348132e+001
0	 4.533360000018132e+000	 6.999999999999998e+000	 1.009922506918767e+001
0	 4.533360000018133e+000	 7.066659999995868e+000	 1.009497833555140e+001
0	 4.533360000018133e+000	 7.133319999991935e+000	 1.009085477690181e+001
0	 4.533360000018132e+000	 7.199979999988400e+000	 1.008685338756818e+001
0	 4.533360000018132e+000	 7.266639999985467e+000	 1.008297316187979e+001
0	 4.533360000018132e+000	 7.333299999983335e+000	 1.007921309416588e+001
0	 4.600030000017849e+000	 6.666700000016666e+000	 1.012418917517702e+001
0	 4.600030000017850e+000	 6.733360000014533e+000	 1.011928498636981e+001
0	 4.600030000017849e+000	 6.800020000011599e+000	 1.011450651520429e+001
0	 4.600030000017849e+000	 6.866680000008067e+000	 1.010985281938640e+001
0	 4.600030000017849e+000	 6.933340000004133e+000	 1.010532295662202e+001
0	 4.600030000017849e+000	 6.999999999999999e+000	 1.010091598461710e+001
0	 4.600030000017848e+000	 7.066659999995867e+000	 1.009663096107751e+001
0	 4.600030000017849e+000	 7.133319999991935e+000	 1.009246694370919e+001
0	 4.600030000017849e+000	 7.199979999988402e+000	 1.008842299021802e+001
0	 4.600030000017848e+000	 7.266639999985467e+000	 1.008449815830990e+001
0	 4.600030000017849e+000	 7.333299999983334e+000	 1.008069150569074e+001
0	 4.666700000016666e+000	 6.666700000016667e+000	 1.012582458406302e+001
0	 4.666700000016666e+000	 6.733360000014533e+000	 1.012090288575833e+001
0	 4.666700000016665e+000	 6.800020000011599e+000	 1.011610378391749e+001
0	 4.666700000016666e+000	 6.866680000008066e+000	 1.011142645738628e+001
0	 4.666700000016666e+000	 6.933340000004132e+000	 1.010687008501057e+001
0	 4.666700000016666e+000	 6.999999999999999e+000	 1.010243384563615e+001
0	 4.666700000016666e+000	 7.066659999995867e+000	 1.009811691810883e+001
0	 4.666700000016667e+000	 7.133319999991935e+000	 1.009391848127445e+001
0	 4.666700000016666e+000	 7.199979999988400e+000	 1.008983771397878e+001
0	 4.666700000016667e+000	 7.266639999985467e+000	 1.008587379506766e+001
0	 4.666700000016665e+000	 7.333299999983333e+000	 1.008202590338687e+001
0	 4.000000000000001e+000	 7.333299999983335e+000	 1.006179232602245e+001
0	 4.000000000000001e+000	 7.399969999982151e+000	 1.005872707669102e+001
0	 4.000000000000000e+000	 7.466639999981866e+000	 1.005575444986848e+001
0	 4.000000000000000e+000	 7.533309999982384e+000	 1.005287460638322e+001
0	 4.000000000000000e+000	 7.599979999983599e+000	 1.005008770706360e+001
0	 4.000000000000001e+000	 7.666649999985416e+000	 1.004739391273801e+001
0	 4.000000000000000e+000	 7.733319999987733e+000	 1.004479338423483e+001
0	 4.000000000000000e+000	 7.799989999990448e+000	 1.004228628238244e+001
0	 4.000000000000000e+000	 7.866659999993465e+000	 1.003987276800922e+001
0	 4.000000000000000e+000	 7.933329999996684e+000	 1.003755300194356e+001
0	 4.000000000000000e+000	 7.999999999999999e+000	 1.003532714501383e+001
0	 4.066670000003317e+000	 7.333299999983334e+000	 1.006454554161025e+001
0	 4.066670000003318e+000	 7.399969999982152e+000	 1.006138376125750e+001
0	 4.066670000003317e+000	 7.466639999981867e+000	 1.005831259338034e+001
0	 4.066670000003317e+000	 7.533309999982385e+000	 1.005533244033538e+001
0	 4.066670000003317e+000	 7.599979999983600e+000	 1.005244370447921e+001
0	 4.066670000003317e+000	 7.666649999985415e+000	 1.004964678816850e+001
0	 4.066670000003318e+000	 7.733319999987733e+000	 1.004694209375987e+001
0	 4.066670000003318e+000	 7.799989999990450e+000	 1.004433002360994e+001
0	 4.066670000003316e+000	 7.866659999993468e+000	 1.004181098007535e+001
0	 4.066670000003318e+000	 7.933329999996684e+000	 1.003938536551270e+001
0	 4.066670000003316e+000	 7.999999999999998e+000	 1.003705358227865e+001
0	 4.133340000006533e+000	 7.333299999983331e+000	 1.006712747816197e+001
0	 4.133340000006533e+000	 7.399969999982151e+000	 1.006387594979038e+001
0	 4.133340000006533e+000	 7.466639999981865e+000	 1.006071347406747e+001
0	 4.133340000006533e+000	 7.533309999982381e+000	 1.005764062653188e+001
0	 4.133340000006533e+000	 7.599979999983600e+000	 1.005465798272223e+001
0	 4.133340000006534e+000	 7.666649999985416e+000	 1.005176611817713e+001
0	 4.133340000006534e+000	 7.733319999987733e+000	 1.004896560843522e+001
0	 4.133340000006532e+000	 7.799989999990447e+000	 1.004625702903510e+001
0	 4.133340000006533e+000	 7.866659999993467e+000	 1.004364095551542e+001
0	 4.133340000006533e+000	 7.933329999996684e+000	 1.004111796341479e+001
0	 4.133340000006533e+000	 7.999999999999998e+000	 1.003868862827186e+001
0	 4.200010000009550e+000	 7.333299999983334e+000	 1.006954154382851e+001
0	 4.200010000009550e+000	 7.399969999982148e+000	 1.006620687925110e+001
0	 4.200010000009551e+000	 7.466639999981867e+000	 1.006296012930156e+001
0	 4.200010000009551e+000	 7.533309999982384e+000	 1.005980197435426e+001
0	 4.200010000009551e+000	 7.599979999983600e+000	 1.005673309478354e+001
0	 4.200010000009550e+000	 7.666649999985415e+000	 1.005375417096379e+001
0	 4.200010000009551e+000	 7.733319999987732e+000	 1.005086588326937e+001
0	 4.200010000009550e+000	 7.799989999990451e+000	 1.004806891207466e+001
0	 4.200010000009550e+000	 7.866659999993466e+000	 1.004536393775402e+001
0	 4.200010000009549e+000	 7.933329999996683e+000	 1.004275164068181e+001
0	 4.200010000009550e+000	 8.000000000000000e+000	 1.004023270123244e+001
0	 4.266680000012265e+000	 7.333299999983333e+000	 1.007179114676080e+001
0	 4.266680000012266e+000	 7.399969999982150e+000	 1.006837978660121e+001
0	 4.266680000012266e+000	 7.466639999981865e+000	 1.006505559645431e+001
0	 4.266680000012267e+000	 7.533309999982383e+000	 1.006181929318396e+001
0	 4.266680000012268e+000	 7.599979999983600e+000	 1.005867159365402e+001
0	 4.266680000012268e+000	 7.666649999985416e+000	 1.005561321472836e+001
0	 4.266680000012267e+000	 7.733319999987732e+000	 1.005264487327083e+001
0	 4.266680000012266e+000	 7.799989999990448e+000	 1.004976728614532e+001
0	 4.266680000012268e+000	 7.866659999993467e+000	 1.004698117021568e+001
0	 4.266680000012267e+000	 7.933329999996684e+000	 1.004428724234576e+001
0	 4.266680000012268e+000	 8.000000000000000e+000	 1.004168621939945e+001
0	 4.333350000014583e+000	 7.333299999983334e+000	 1.007387969510976e+001
0	 4.333350000014583e+000	 7.399969999982148e+000	 1.007039790880219e+001
0	 4.333350000014582e+000	 7.466639999981867e+000	 1.006700291289742e+001
0	 4.333350000014583e+000	 7.533309999982384e+000	 1.006369539240250e+001
0	 4.333350000014584e+000	 7.599979999983599e+000	 1.006047603232458e+001
0	 4.333350000014584e+000	 7.666649999985417e+000	 1.005734551767076e+001
0	 4.333350000014583e+000	 7.733319999987733e+000	 1.005430453344813e+001
0	 4.333350000014582e+000	 7.799989999990448e+000	 1.005135376466383e+001
0	 4.333350000014583e+000	 7.866659999993468e+000	 1.004849389632494e+001
0	 4.333350000014583e+000	 7.933329999996683e+000	 1.004572561343860e+001
0	 4.333350000014584e+000	 8.000000000000000e+000	 1.004304960101191e+001
0	 4.400020000016400e+000	 7.333299999983333e+000	 1.007581059702632e+001
0	 4.400020000016400e+000	 7.399969999982149e+000	 1.007226448281555e+001
0	 4.400020000016401e+000	 7.466639999981867e+000	 1.006880511600253e+001
0	 4.400020000016399e+000	 7.533309999982383e+000	 1.006543308139134e+001
0	 4.400020000016400e+000	 7.599979999983600e+000	 1.006214896378609e+001
0	 4.400020000016399e+000	 7.666649999985414e+000	 1.005895334799086e+001
0	 4.400020000016399e+000	 7.733319999987733e+000	 1.005584681880976e+001
0	 4.400020000016400e+000	 7.799989999990449e+000	 1.005282996104691e+001
0	 4.400020000016401e+000	 7.866659999993468e+000	 1.004990335950640e+001
0	 4.400020000016398e+000	 7.933329999996681e+000	 1.004706759899233e+001
0	 4.400020000016399e+000	 7.999999999999999e+000	 1.004432326430884e+001
0	 4.466690000017616e+000	 7.333299999983335e+000	 1.007758726066138e+001
0	 4.466690000017616e+000	 7.399969999982149e+000	 1.007398274560280e+001
0	 4.466690000017616e+000	 7.466639999981865e+000	 1.007046524314139e+001
0	 4.466690000017615e+000	 7.533309999982382e+000	 1.006703516953199e+001
0	 4.466690000017616e+000	 7.599979999983599e+000	 1.006369294102943e+001
0	 4.466690000017617e+000	 7.666649999985417e+000	 1.006043897388856e+001
0	 4.466690000017615e+000	 7.733319999987733e+000	 1.005727368436424e+001
0	 4.466690000017616e+000	 7.799989999990450e+000	 1.005419748871130e+001
0	 4.466690000017617e+000	 7.866659999993466e+000	 1.005121080318459e+001
0	 4.466690000017616e+000	 7.933329999996684e+000	 1.004831404403895e+001
0	 4.466690000017617e+000	 8.000000000000000e+000	 1.004550762752927e+001
0	 4.533360000018132e+000	 7.333299999983335e+000	 1.007921309416587e+001
0	 4.533360000018132e+000	 7.399969999982149e+000	 1.007555593412543e+001
0	 4.533360000018132e+000	 7.466639999981865e+000	 1.007198633168567e+001
0	 4.533360000018134e+000	 7.533309999982383e+000	 1.006850446620591e+001
0	 4.533360000018132e+000	 7.599979999983598e+000	 1.006511051704550e+001
0	 4.533360000018131e+000	 7.666649999985417e+000	 1.006180466356377e+001
0	 4.533360000018131e+000	 7.733319999987732e+000	 1.005858708512004e+001
0	 4.533360000018131e+000	 7.799989999990449e+000	 1.005545796107371e+001
0	 4.533360000018133e+000	 7.866659999993465e+000	 1.005241747078405e+001
0	 4.533360000018134e+000	 7.933329999996683e+000	 1.004946579361045e+001
0	 4.533360000018131e+000	 8.000000000000000e+000	 1.004660310891222e+001
0	 4.600030000017849e+000	 7.333299999983334e+000	 1.008069150569074e+001
0	 4.600030000017848e+000	 7.399969999982149e+000	 1.007698728534497e+001
0	 4.600030000017851e+000	 7.466639999981866e+000	 1.007337141900706e+001
0	 4.600030000017848e+000	 7.533309999982384e+000	 1.006984378079460e+001
0	 4.600030000017848e+000	 7.599979999983599e+000	 1.006640424482518e+001
0	 4.600030000017848e+000	 7.666649999985416e+000	 1.006305268521637e+001
0	 4.600030000017848e+000	 7.733319999987732e+000	 1.005978897608573e+001
0	 4.600030000017848e+000	 7.799989999990448e+000	 1.005661299155088e+001
0	 4.600030000017849e+000	 7.866659999993466e+000	 1.005352460572937e+001
0	 4.600030000017848e+000	 7.933329999996684e+000	 1.005052369273879e+001
0	 4.600030000017850e+000	 8.000000000000000e+000	 1.004761012669674e+001
0	 4.666700000016665e+000	 7.333299999983333e+000	 1.008202590338687e+001
0	 4.666700000016665e+000	 7.399969999982149e+000	 1.007828003622289e+001
0	 4.666700000016666e+000	 7.466639999981866e+000	 1.007462354247727e+001
0	 4.666700000016665e+000	 7.533309999982382e+000	 1.007105592267958e+001
0	 4.666700000016666e+000	 7.599979999983599e+000	 1.006757667735938e+001
0	 4.666700000016667e+000	 7.666649999985417e+000	 1.006418530704627e+001
0	 4.666700000016667e+000	 7.733319999987733e+000	 1.006088131226981e+001
0	 4.666700000016665e+000	 7.799989999990450e+000	 1.005766419355955e+001
0	 4.666700000016665e+000	 7.866659999993466e+000	 1.005453345144509e+001
0	 4.666700000016666e+000	 7.933329999996682e+000	 1.005148858645599e+001
0	 4.666700000016665e+000	 7.999999999999998e+000	 1.004852909912185e+001
0	 4.000000000000000e+000	 7.999999999999999e+000	 1.003532714501383e+001
0	 4.000000000000001e+000	 8.066670000003319e+000	 1.003318087860276e+001
0	 4.000000000000001e+000	 8.133340000006536e+000	 1.003109989526051e+001
0	 4.000000000000002e+000	 8.200010000009552e+000	 1.002908437256666e+001
0	 4.000000000000000e+000	 8.266680000012267e+000	 1.002713448810078e+001
0	 4.000000000000000e+000	 8.333350000014585e+000	 1.002525041944247e+001
0	 4.000000000000000e+000	 8.400020000016399e+000	 1.002343234417130e+001
0	 4.000000000000000e+000	 8.466690000017618e+000	 1.002168043986688e+001
0	 4.000000000000001e+000	 8.533360000018135e+000	 1.001999488410876e+001
0	 4.000000000000000e+000	 8.600030000017847e+000	 1.001837585447654e+001
0	 4.000000000000000e+000	 8.666700000016666e+000	 1.001682352854982e+001
0	 4.066670000003316e+000	 7.999999999999998e+000	 1.003705358227865e+001
0	 4.066670000003318e+000	 8.066670000003319e+000	 1.003480419910591e+001
0	 4.066670000003316e+000	 8.133340000006532e+000	 1.003262526941443e+001
0	 4.066670000003317e+000	 8.200010000009550e+000	 1.003051642259174e+001
0	 4.066670000003317e+000	 8.266680000012268e+000	 1.002847728802543e+001
0	 4.066670000003318e+000	 8.333350000014583e+000	 1.002650749510299e+001
0	 4.066670000003318e+000	 8.400020000016403e+000	 1.002460667321198e+001
0	 4.066670000003317e+000	 8.466690000017618e+000	 1.002277445173998e+001
0	 4.066670000003316e+000	 8.533360000018135e+000	 1.002101046007446e+001
0	 4.066670000003316e+000	 8.600030000017849e+000	 1.001931432760304e+001
0	 4.066670000003317e+000	 8.666700000016668e+000	 1.001768568371323e+001
0	 4.133340000006533e+000	 7.999999999999998e+000	 1.003868862827186e+001
0	 4.133340000006533e+000	 8.066670000003317e+000	 1.003634398386424e+001
0	 4.133340000006533e+000	 8.133340000006534e+000	 1.003407411353277e+001
0	 4.133340000006533e+000	 8.200010000009549e+000	 1.003187816716091e+001
0	 4.133340000006534e+000	 8.266680000012268e+000	 1.002975529463204e+001
0	 4.133340000006533e+000	 8.333350000014583e+000	 1.002770464582960e+001
0	 4.133340000006534e+000	 8.400020000016401e+000	 1.002572537063701e+001
0	 4.133340000006534e+000	 8.466690000017616e+000	 1.002381661893769e+001
0	 4.133340000006534e+000	 8.533360000018135e+000	 1.002197754061507e+001
0	 4.133340000006533e+000	 8.600030000017847e+000	 1.002020728555258e+001
0	 4.133340000006534e+000	 8.666700000016665e+000	 1.001850500363365e+001
0	 4.200010000009550e+000	 8.000000000000000e+000	 1.004023270123244e+001
0	 4.200010000009548e+000	 8.066670000003319e+000	 1.003780024316934e+001
0	 4.200010000009550e+000	 8.133340000006534e+000	 1.003544609605121e+001
0	 4.200010000009551e+000	 8.200010000009552e+000	 1.003316899894526e+001
0	 4.200010000009550e+000	 8.266680000012265e+000	 1.003096769091872e+001
0	 4.200010000009550e+000	 8.333350000014583e+000	 1.002884091103880e+001
0	 4.200010000009550e+000	 8.400020000016401e+000	 1.002678739837275e+001
0	 4.200010000009552e+000	 8.466690000017620e+000	 1.002480589198778e+001
0	 4.200010000009550e+000	 8.533360000018133e+000	 1.002289513095113e+001
0	 4.200010000009550e+000	 8.600030000017847e+000	 1.002105385433000e+001
0	 4.200010000009550e+000	 8.666700000016666e+000	 1.001928080119165e+001
0	 4.266680000012268e+000	 8.000000000000000e+000	 1.004168621939945e+001
0	 4.266680000012268e+000	 8.066670000003317e+000	 1.003917298731282e+001
0	 4.266680000012268e+000	 8.133340000006534e+000	 1.003674088540534e+001
0	 4.266680000012267e+000	 8.200010000009550e+000	 1.003438831061594e+001
0	 4.266680000012268e+000	 8.266680000012268e+000	 1.003211365988354e+001
0	 4.266680000012268e+000	 8.333350000014582e+000	 1.002991533014714e+001
0	 4.266680000012268e+000	 8.400020000016403e+000	 1.002779171834563e+001
0	 4.266680000012266e+000	 8.466690000017616e+000	 1.002574122141800e+001
0	 4.266680000012268e+000	 8.533360000018137e+000	 1.002376223630318e+001
0	 4.266680000012266e+000	 8.600030000017849e+000	 1.002185315994011e+001
0	 4.266680000012267e+000	 8.666700000016668e+000	 1.002001238926777e+001
0	 4.333350000014584e+000	 8.000000000000000e+000	 1.004304960101191e+001
0	 4.333350000014583e+000	 8.066670000003319e+000	 1.004046222658628e+001
0	 4.333350000014582e+000	 8.133340000006534e+000	 1.003795815003081e+001
0	 4.333350000014582e+000	 8.200010000009550e+000	 1.003553549484406e+001
0	 4.333350000014584e+000	 8.266680000012268e+000	 1.003319238452463e+001
0	 4.333350000014582e+000	 8.333350000014582e+000	 1.003092694257108e+001
0	 4.333350000014584e+000	 8.400020000016401e+000	 1.002873729248204e+001
0	 4.333350000014582e+000	 8.466690000017616e+000	 1.002662155775609e+001
0	 4.333350000014582e+000	 8.533360000018133e+000	 1.002457786189179e+001
0	 4.333350000014583e+000	 8.600030000017849e+000	 1.002260432838776e+001
0	 4.333350000014583e+000	 8.666700000016666e+000	 1.002069908074259e+001
0	 4.400020000016399e+000	 7.999999999999999e+000	 1.004432326430884e+001
0	 4.400020000016399e+000	 8.066670000003317e+000	 1.004166797128132e+001
0	 4.400020000016400e+000	 8.133340000006532e+000	 1.003909755836325e+001
0	 4.400020000016400e+000	 8.200010000009549e+000	 1.003660994430077e+001
0	 4.400020000016400e+000	 8.266680000012267e+000	 1.003420304784004e+001
0	 4.400020000016400e+000	 8.333350000014583e+000	 1.003187478772719e+001
0	 4.400020000016399e+000	 8.400020000016397e+000	 1.002962308270839e+001
0	 4.400020000016399e+000	 8.466690000017618e+000	 1.002744585152979e+001
0	 4.400020000016401e+000	 8.533360000018135e+000	 1.002534101293752e+001
0	 4.400020000016400e+000	 8.600030000017849e+000	 1.002330648567776e+001
0	 4.400020000016401e+000	 8.666700000016666e+000	 1.002134018849666e+001
0	 4.466690000017617e+000	 8.000000000000000e+000	 1.004550762752927e+001
0	 4.466690000017616e+000	 8.066670000003319e+000	 1.004279023168955e+001
0	 4.466690000017617e+000	 8.133340000006534e+000	 1.004015877883832e+001
0	 4.466690000017617e+000	 8.200010000009552e+000	 1.003761105165722e+001
0	 4.466690000017615e+000	 8.266680000012265e+000	 1.003514483282789e+001
0	 4.466690000017617e+000	 8.333350000014587e+000	 1.003275790503198e+001
0	 4.466690000017615e+000	 8.400020000016401e+000	 1.003044805095108e+001
0	 4.466690000017616e+000	 8.466690000017618e+000	 1.002821305326686e+001
0	 4.466690000017616e+000	 8.533360000018135e+000	 1.002605069466094e+001
0	 4.466690000017616e+000	 8.600030000017851e+000	 1.002395875781497e+001
0	 4.466690000017616e+000	 8.666700000016668e+000	 1.002193502541058e+001
0	 4.533360000018131e+000	 8.000000000000000e+000	 1.004660310891222e+001
0	 4.533360000018133e+000	 8.066670000003317e+000	 1.004382901810254e+001
0	 4.533360000018132e+000	 8.133340000006534e+000	 1.004114147989162e+001
0	 4.533360000018130e+000	 8.200010000009549e+000	 1.003853820958453e+001
0	 4.533360000018132e+000	 8.266680000012267e+000	 1.003601692248629e+001
0	 4.533360000018131e+000	 8.333350000014583e+000	 1.003357533390193e+001
0	 4.533360000018133e+000	 8.400020000016399e+000	 1.003121115913651e+001
0	 4.533360000018133e+000	 8.466690000017616e+000	 1.002892211349505e+001
0	 4.533360000018132e+000	 8.533360000018131e+000	 1.002670591228260e+001
0	 4.533360000018133e+000	 8.600030000017849e+000	 1.002456027080419e+001
0	 4.533360000018131e+000	 8.666700000016666e+000	 1.002248290436488e+001
0	 4.600030000017850e+000	 8.000000000000000e+000	 1.004761012669674e+001
0	 4.600030000017848e+000	 8.066670000003315e+000	 1.004478434081191e+001
0	 4.600030000017848e+000	 8.133340000006532e+000	 1.004204532995882e+001
0	 4.600030000017848e+000	 8.200010000009549e+000	 1.003939081075384e+001
0	 4.600030000017849e+000	 8.266680000012267e+000	 1.003681849981331e+001
0	 4.600030000017849e+000	 8.333350000014583e+000	 1.003432611375360e+001
0	 4.600030000017848e+000	 8.400020000016401e+000	 1.003191136919109e+001
0	 4.600030000017850e+000	 8.466690000017618e+000	 1.002957198274211e+001
0	 4.600030000017848e+000	 8.533360000018133e+000	 1.002730567102306e+001
0	 4.600030000017849e+000	 8.600030000017851e+000	 1.002511015065028e+001
0	 4.600030000017849e+000	 8.666700000016668e+000	 1.002298313824013e+001
0	 4.666700000016665e+000	 7.999999999999998e+000	 1.004852909912185e+001
0	 4.666700000016665e+000	 8.066670000003317e+000	 1.004565621010928e+001
0	 4.666700000016666e+000	 8.133340000006532e+000	 1.004286999747555e+001
0	 4.666700000016666e+000	 8.200010000009549e+000	 1.004016824783628e+001
0	 4.666700000016666e+000	 8.266680000012268e+000	 1.003754874780706e+001
0	 4.666700000016667e+000	 8.333350000014585e+000	 1.003500928400350e+001
0	 4.666700000016666e+000	 8.400020000016399e+000	 1.003254764304122e+001
0	 4.666700000016666e+000	 8.466690000017616e+000	 1.003016161153580e+001
0	 4.666700000016666e+000	 8.533360000018133e+000	 1.002784897610288e+001
0	 4.666700000016667e+000	 8.600030000017853e+000	 1.002560752335804e+001
0	 4.666700000016665e+000	 8.666700000016666e+000	 1.002343503991692e+001
0	 4.000000000000000e+000	 8.666700000016666e+000	 1.001682352854982e+001
0	 4.000000000000000e+000	 8.733360002791901e+000	 1.001534102618869e+001
0	 4.000000000000000e+000	 8.800020022230555e+000	 1.001392873437591e+001
0	 4.000000000000000e+000	 8.866680074997040e+000	 1.001258341471332e+001
0	 4.000000000000000e+000	 8.933340177755778e+000	 1.001130182861696e+001
0	 4.000000000000001e+000	 9.000000347171181e+000	 1.001008073731718e+001
0	 4.000000000000000e+000	 9.066660599907667e+000	 1.000891690185848e+001
0	 4.000000000000001e+000	 9.133320952629656e+000	 1.000780708309970e+001
0	 4.000000000000001e+000	 9.199981422001560e+000	 1.000674804171381e+001
0	 4.000000000000001e+000	 9.266642024687796e+000	 1.000573653818808e+001
0	 4.000000000000000e+000	 9.333302777352783e+000	 1.000476933282392e+001
0	 4.066670000003317e+000	 8.666700000016668e+000	 1.001768568371324e+001
0	 4.066670000003318e+000	 8.733360002791907e+000	 1.001612798218610e+001
0	 4.066670000003317e+000	 8.800020022230557e+000	 1.001464241110794e+001
0	 4.066670000003317e+000	 8.866680074997040e+000	 1.001322591890168e+001
0	 4.066670000003319e+000	 8.933340177755778e+000	 1.001187545379456e+001
0	 4.066670000003318e+000	 9.000000347171183e+000	 1.001058796381796e+001
0	 4.066670000003317e+000	 9.066660599907669e+000	 1.000936039680748e+001
0	 4.066670000003317e+000	 9.133320952629655e+000	 1.000818970040294e+001
0	 4.066670000003317e+000	 9.199981422001560e+000	 1.000707282204827e+001
0	 4.066670000003317e+000	 9.266642024687794e+000	 1.000600670899163e+001
0	 4.066670000003317e+000	 9.333302777352783e+000	 1.000498830828538e+001
0	 4.133340000006534e+000	 8.666700000016665e+000	 1.001850500363365e+001
0	 4.133340000006533e+000	 8.733360002791905e+000	 1.001687486128056e+001
0	 4.133340000006533e+000	 8.800020022230553e+000	 1.001531914775925e+001
0	 4.133340000006534e+000	 8.866680074997040e+000	 1.001383494788715e+001
0	 4.133340000006533e+000	 8.933340177755776e+000	 1.001241934627592e+001
0	 4.133340000006534e+000	 9.000000347171183e+000	 1.001106942733144e+001
0	 4.133340000006535e+000	 9.066660599907667e+000	 1.000978227525368e+001
0	 4.133340000006534e+000	 9.133320952629656e+000	 1.000855497403686e+001
0	 4.133340000006533e+000	 9.199981422001560e+000	 1.000738460746937e+001
0	 4.133340000006533e+000	 9.266642024687796e+000	 1.000626825913374e+001
0	 4.133340000006535e+000	 9.333302777352783e+000	 1.000520301240668e+001
0	 4.200010000009550e+000	 8.666700000016666e+000	 1.001928080119165e+001
0	 4.200010000009550e+000	 8.733360002791905e+000	 1.001758116613510e+001
0	 4.200010000009550e+000	 8.800020022230555e+000	 1.001595857656348e+001
0	 4.200010000009550e+000	 8.866680074997040e+000	 1.001441020326194e+001
0	 4.200010000009551e+000	 8.933340177755779e+000	 1.001293321679995e+001
0	 4.200010000009550e+000	 9.000000347171181e+000	 1.001152478753129e+001
0	 4.200010000009551e+000	 9.066660599907671e+000	 1.001018208559406e+001
0	 4.200010000009550e+000	 9.133320952629656e+000	 1.000890228091059e+001
0	 4.200010000009550e+000	 9.199981422001558e+000	 1.000768254318755e+001
0	 4.200010000009550e+000	 9.266642024687796e+000	 1.000652004191585e+001
0	 4.200010000009550e+000	 9.333302777352779e+000	 1.000541194637067e+001
0	 4.266680000012267e+000	 8.666700000016668e+000	 1.002001238926776e+001
0	 4.266680000012268e+000	 8.733360002791903e+000	 1.001824639941285e+001
0	 4.266680000012266e+000	 8.800020022230553e+000	 1.001656032975430e+001
0	 4.266680000012267e+000	 8.866680074997040e+000	 1.001495138661826e+001
0	 4.266680000012266e+000	 8.933340177755779e+000	 1.001341677610545e+001
0	 4.266680000012266e+000	 9.000000347171181e+000	 1.001195370409128e+001
0	 4.266680000012267e+000	 9.066660599907667e+000	 1.001055937622567e+001
0	 4.266680000012266e+000	 9.133320952629655e+000	 1.000923099793326e+001
0	 4.266680000012267e+000	 9.199981422001560e+000	 1.000796577441325e+001
0	 4.266680000012268e+000	 9.266642024687798e+000	 1.000676091063943e+001
0	 4.266680000012267e+000	 9.333302777352785e+000	 1.000561361136019e+001
0	 4.333350000014583e+000	 8.666700000016666e+000	 1.002069908074258e+001
0	 4.333350000014583e+000	 8.733360002791903e+000	 1.001887006377687e+001
0	 4.333350000014582e+000	 8.800020022230555e+000	 1.001712403956537e+001
0	 4.333350000014582e+000	 8.866680074997039e+000	 1.001545819954835e+001
0	 4.333350000014583e+000	 8.933340177755781e+000	 1.001386973493132e+001
0	 4.333350000014583e+000	 9.000000347171181e+000	 1.001235583668506e+001
0	 4.333350000014582e+000	 9.066660599907666e+000	 1.001091369554553e+001
0	 4.333350000014584e+000	 9.133320952629658e+000	 1.000954050201401e+001
0	 4.333350000014582e+000	 9.199981422001557e+000	 1.000823344635693e+001
0	 4.333350000014583e+000	 9.266642024687798e+000	 1.000698971860598e+001
0	 4.333350000014585e+000	 9.333302777352785e+000	 1.000580650855808e+001
0	 4.400020000016401e+000	 8.666700000016666e+000	 1.002134018849666e+001
0	 4.400020000016400e+000	 8.733360002791901e+000	 1.001945166189029e+001
0	 4.400020000016400e+000	 8.800020022230553e+000	 1.001764933823035e+001
0	 4.400020000016401e+000	 8.866680074997042e+000	 1.001593034364444e+001
0	 4.400020000016401e+000	 8.933340177755779e+000	 1.001429180401641e+001
0	 4.400020000016398e+000	 9.000000347171181e+000	 1.001273084498636e+001
0	 4.400020000016399e+000	 9.066660599907667e+000	 1.001124459195066e+001
0	 4.400020000016400e+000	 9.133320952629656e+000	 1.000983017006191e+001
0	 4.400020000016400e+000	 9.199981422001557e+000	 1.000848470422898e+001
0	 4.400020000016400e+000	 9.266642024687796e+000	 1.000720531911696e+001
0	 4.400020000016399e+000	 9.333302777352781e+000	 1.000598913914719e+001
0	 4.466690000017616e+000	 8.666700000016668e+000	 1.002193502541058e+001
0	 4.466690000017615e+000	 8.733360002791899e+000	 1.001999069641616e+001
0	 4.466690000017618e+000	 8.800020022230557e+000	 1.001813585798288e+001
0	 4.466690000017615e+000	 8.866680074997040e+000	 1.001636752049874e+001
0	 4.466690000017616e+000	 8.933340177755776e+000	 1.001468269409957e+001
0	 4.466690000017617e+000	 9.000000347171179e+000	 1.001307838866891e+001
0	 4.466690000017616e+000	 9.066660599907671e+000	 1.001155161383808e+001
0	 4.466690000017617e+000	 9.133320952629656e+000	 1.001009937898613e+001
0	 4.466690000017617e+000	 9.199981422001558e+000	 1.000871869323988e+001
0	 4.466690000017617e+000	 9.266642024687799e+000	 1.000740656547386e+001
0	 4.466690000017616e+000	 9.333302777352783e+000	 1.000616000431035e+001
0	 4.533360000018131e+000	 8.666700000016666e+000	 1.002248290436488e+001
0	 4.533360000018132e+000	 8.733360002791899e+000	 1.002048667001761e+001
0	 4.533360000018134e+000	 8.800020022230559e+000	 1.001858323105661e+001
0	 4.533360000018135e+000	 8.866680074997042e+000	 1.001676943170350e+001
0	 4.533360000018133e+000	 8.933340177755781e+000	 1.001504211591968e+001
0	 4.533360000018134e+000	 9.000000347171181e+000	 1.001339812740641e+001
0	 4.533360000018132e+000	 9.066660599907666e+000	 1.001183430960482e+001
0	 4.533360000018132e+000	 9.133320952629656e+000	 1.001034750569579e+001
0	 4.533360000018132e+000	 9.199981422001558e+000	 1.000893455860006e+001
0	 4.533360000018133e+000	 9.266642024687796e+000	 1.000759231097816e+001
0	 4.533360000018132e+000	 9.333302777352779e+000	 1.000631760523045e+001
0	 4.600030000017849e+000	 8.666700000016668e+000	 1.002298313824013e+001
0	 4.600030000017849e+000	 8.733360002791903e+000	 1.002093908535773e+001
0	 4.600030000017848e+000	 8.800020022230553e+000	 1.001899108968524e+001
0	 4.600030000017848e+000	 8.866680074997042e+000	 1.001713577885091e+001
0	 4.600030000017850e+000	 8.933340177755779e+000	 1.001536978021557e+001
0	 4.600030000017848e+000	 9.000000347171181e+000	 1.001368972087257e+001
0	 4.600030000017849e+000	 9.066660599907667e+000	 1.001209222764789e+001
0	 4.600030000017849e+000	 9.133320952629656e+000	 1.001057392710001e+001
0	 4.600030000017848e+000	 9.199981422001558e+000	 1.000913144551995e+001
0	 4.600030000017848e+000	 9.266642024687796e+000	 1.000776140893133e+001
0	 4.600030000017849e+000	 9.333302777352783e+000	 1.000646044309028e+001
0	 4.666700000016665e+000	 8.666700000016666e+000	 1.002343503991692e+001
0	 4.666700000016665e+000	 8.733360002791901e+000	 1.002134744509958e+001
0	 4.666700000016665e+000	 8.800020022230555e+000	 1.001935906610236e+001
0	 4.666700000016666e+000	 8.866680074997040e+000	 1.001746626353321e+001
0	 4.666700000016666e+000	 8.933340177755778e+000	 1.001566539772612e+001
0	 4.666700000016666e+000	 9.000000347171181e+000	 1.001395282874113e+001
0	 4.666700000016667e+000	 9.066660599907669e+000	 1.001232491636434e+001
0	 4.666700000016666e+000	 9.133320952629655e+000	 1.001077802010791e+001
0	 4.666700000016666e+000	 9.199981422001557e+000	 1.000930849921000e+001
0	 4.666700000016667e+000	 9.266642024687798e+000	 1.000791271263485e+001
0	 4.666700000016665e+000	 9.333302777352781e+000	 1.000658701907272e+001
0	 4.000000000000000e+000	 9.333302777352783e+000	 1.000476933282392e+001
0	 4.000000000000001e+000	 9.399973674588178e+000	 1.000387714728821e+001
0	 4.000000000000001e+000	 9.466644621844623e+000	 1.000308968969570e+001
0	 4.000000000000000e+000	 9.533315502450000e+000	 1.000240177559397e+001
0	 4.000000000000000e+000	 9.599986199732195e+000	 1.000180822255387e+001
0	 4.000000000000000e+000	 9.666656597019095e+000	 1.000130385016916e+001
0	 4.000000000000001e+000	 9.733326577638577e+000	 1.000088348005639e+001
0	 3.999999999999999e+000	 9.799996024918523e+000	 1.000054193585465e+001
0	 4.000000000000000e+000	 9.866664822186824e+000	 1.000027404322552e+001
0	 4.000000000000000e+000	 9.933332852771352e+000	 1.000007462985304e+001
0	 4.000000000000000e+000	 1.000000000000000e+001	 9.999938525443838e+000
0	 4.066670000003317e+000	 9.333302777352783e+000	 1.000498830828538e+001
0	 4.066670000003318e+000	 9.399973674588175e+000	 1.000405023692043e+001
0	 4.066670000003318e+000	 9.466644621844623e+000	 1.000322351902373e+001
0	 4.066670000003317e+000	 9.533315502450000e+000	 1.000250226575673e+001
0	 4.066670000003318e+000	 9.599986199732197e+000	 1.000188059041346e+001
0	 4.066670000003319e+000	 9.666656597019097e+000	 1.000135260842042e+001
0	 4.066670000003317e+000	 9.733326577638575e+000	 1.000091243733638e+001
0	 4.066670000003318e+000	 9.799996024918523e+000	 1.000055419685211e+001
0	 4.066670000003316e+000	 9.866664822186820e+000	 1.000027200879053e+001
0	 4.066670000003316e+000	 9.933332852771352e+000	 1.000005999710645e+001
0	 4.066670000003317e+000	 1.000000000000000e+001	 9.999912287886671e+000
0	 4.133340000006535e+000	 9.333302777352783e+000	 1.000520301240668e+001
0	 4.133340000006534e+000	 9.399973674588178e+000	 1.000422289139632e+001
0	 4.133340000006533e+000	 9.466644621844621e+000	 1.000335984670437e+001
0	 4.133340000006534e+000	 9.533315502450003e+000	 1.000260738462043e+001
0	 4.133340000006533e+000	 9.599986199732195e+000	 1.000195901366628e+001
0	 4.133340000006531e+000	 9.666656597019092e+000	 1.000140824459568e+001
0	 4.133340000006533e+000	 9.733326577638575e+000	 1.000094859039414e+001
0	 4.133340000006532e+000	 9.799996024918521e+000	 1.000057356627880e+001
0	 4.133340000006532e+000	 9.866664822186818e+000	 1.000027668969851e+001
0	 4.133340000006533e+000	 9.933332852771351e+000	 1.000005148033348e+001
0	 4.133340000006534e+000	 1.000000000000000e+001	 9.999891460095805e+000
0	 4.200010000009550e+000	 9.333302777352779e+000	 1.000541194637067e+001
0	 4.200010000009550e+000	 9.399973674588175e+000	 1.000439327362295e+001
0	 4.200010000009551e+000	 9.466644621844621e+000	 1.000349658537719e+001
0	 4.200010000009550e+000	 9.533315502449998e+000	 1.000271488256429e+001
0	 4.200010000009551e+000	 9.599986199732198e+000	 1.000204116843789e+001
0	 4.200010000009550e+000	 9.666656597019090e+000	 1.000146844857402e+001
0	 4.200010000009550e+000	 9.733326577638575e+000	 1.000098973087107e+001
0	 4.200010000009550e+000	 9.799996024918524e+000	 1.000059802554960e+001
0	 4.200010000009550e+000	 9.866664822186822e+000	 1.000028634515224e+001
0	 4.200010000009550e+000	 9.933332852771352e+000	 1.000004770454380e+001
0	 4.200010000009550e+000	 9.999999999999998e+000	 9.999875120911359e+000
0	 4.266680000012267e+000	 9.333302777352785e+000	 1.000561361136019e+001
0	 4.266680000012267e+000	 9.399973674588175e+000	 1.000455954650745e+001
0	 4.266680000012268e+000	 9.466644621844623e+000	 1.000363164768189e+001
0	 4.266680000012266e+000	 9.533315502450000e+000	 1.000282250996762e+001
0	 4.266680000012268e+000	 9.599986199732198e+000	 1.000212473085382e+001
0	 4.266680000012268e+000	 9.666656597019090e+000	 1.000153091023454e+001
0	 4.266680000012268e+000	 9.733326577638575e+000	 1.000103365040854e+001
0	 4.266680000012268e+000	 9.799996024918521e+000	 1.000062555607921e+001
0	 4.266680000012266e+000	 9.866664822186824e+000	 1.000029923435440e+001
0	 4.266680000012268e+000	 9.933332852771356e+000	 1.000004729474676e+001
0	 4.266680000012267e+000	 9.999999999999998e+000	 9.999862349173402e+000
0	 4.333350000014585e+000	 9.333302777352785e+000	 1.000580650855808e+001
0	 4.333350000014583e+000	 9.399973674588175e+000	 1.000471987295686e+001
0	 4.333350000014582e+000	 9.466644621844619e+000	 1.000376294625810e+001
0	 4.333350000014584e+000	 9.533315502450000e+000	 1.000292801720962e+001
0	 4.333350000014584e+000	 9.599986199732198e+000	 1.000220737703962e+001
0	 4.333350000014582e+000	 9.666656597019093e+000	 1.000159331945633e+001
0	 4.333350000014583e+000	 9.733326577638572e+000	 1.000107814064793e+001
0	 4.333350000014583e+000	 9.799996024918523e+000	 1.000065413928251e+001
0	 4.333350000014583e+000	 9.866664822186824e+000	 1.000031361650791e+001
0	 4.333350000014585e+000	 9.933332852771358e+000	 1.000004887595189e+001
0	 4.333350000014584e+000	 1.000000000000000e+001	 9.999852223722201e+000
0	 4.400020000016399e+000	 9.333302777352781e+000	 1.000598913914719e+001
0	 4.400020000016400e+000	 9.399973674588177e+000	 1.000487241587829e+001
0	 4.400020000016400e+000	 9.466644621844621e+000	 1.000388839374543e+001
0	 4.400020000016398e+000	 9.533315502450000e+000	 1.000302915466957e+001
0	 4.400020000016400e+000	 9.599986199732198e+000	 1.000228678312080e+001
0	 4.400020000016400e+000	 9.666656597019092e+000	 1.000165336611846e+001
0	 4.400020000016401e+000	 9.733326577638575e+000	 1.000112099323063e+001
0	 4.400020000016400e+000	 9.799996024918524e+000	 1.000068175657436e+001
0	 4.400020000016400e+000	 9.866664822186820e+000	 1.000032775081551e+001
0	 4.400020000016399e+000	 9.933332852771354e+000	 1.000005107316872e+001
0	 4.400020000016400e+000	 1.000000000000000e+001	 9.999843823397802e+000
0	 4.466690000017616e+000	 9.333302777352783e+000	 1.000616000431035e+001
0	 4.466690000017616e+000	 9.399973674588177e+000	 1.000501533817879e+001
0	 4.466690000017615e+000	 9.466644621844621e+000	 1.000400590278355e+001
0	 4.466690000017617e+000	 9.533315502450000e+000	 1.000312367272666e+001
0	 4.466690000017616e+000	 9.599986199732195e+000	 1.000236062522293e+001
0	 4.466690000017615e+000	 9.666656597019092e+000	 1.000170874009999e+001
0	 4.466690000017616e+000	 9.733326577638577e+000	 1.000115999979798e+001
0	 4.466690000017616e+000	 9.799996024918524e+000	 1.000070638936953e+001
0	 4.466690000017616e+000	 9.866664822186822e+000	 1.000033989647985e+001
0	 4.466690000017616e+000	 9.933332852771354e+000	 1.000005251140667e+001
0	 4.466690000017617e+000	 1.000000000000000e+001	 9.999836227040474e+000
0	 4.533360000018132e+000	 9.333302777352779e+000	 1.000631760523045e+001
0	 4.533360000018131e+000	 9.399973674588173e+000	 1.000514680276546e+001
0	 4.533360000018132e+000	 9.466644621844619e+000	 1.000411338601212e+001
0	 4.533360000018134e+000	 9.533315502450002e+000	 1.000320932176016e+001
0	 4.533360000018131e+000	 9.599986199732197e+000	 1.000242657947152e+001
0	 4.533360000018131e+000	 9.666656597019093e+000	 1.000175713128002e+001
0	 4.533360000018134e+000	 9.733326577638577e+000	 1.000119295199136e+001
0	 4.533360000018132e+000	 9.799996024918528e+000	 1.000072601908289e+001
0	 4.533360000018132e+000	 9.866664822186822e+000	 1.000034831270384e+001
0	 4.533360000018132e+000	 9.933332852771356e+000	 1.000005181567529e+001
0	 4.533360000018132e+000	 1.000000000000000e+001	 9.999828513490291e+000
0	 4.600030000017849e+000	 9.333302777352783e+000	 1.000646044309028e+001
0	 4.600030000017849e+000	 9.399973674588177e+000	 1.000526497254539e+001
0	 4.600030000017849e+000	 9.466644621844619e+000	 1.000420875607074e+001
0	 4.600030000017849e+000	 9.533315502450002e+000	 1.000328385214936e+001
0	 4.600030000017849e+000	 9.599986199732195e+000	 1.000248232199215e+001
0	 4.600030000017847e+000	 9.666656597019092e+000	 1.000179622953767e+001
0	 4.600030000017849e+000	 9.733326577638573e+000	 1.000121764145213e+001
0	 4.600030000017848e+000	 9.799996024918523e+000	 1.000073862712920e+001
0	 4.600030000017849e+000	 9.866664822186822e+000	 1.000035125869021e+001
0	 4.600030000017848e+000	 9.933332852771352e+000	 1.000004761098404e+001
0	 4.600030000017849e+000	 1.000000000000000e+001	 9.999819761587492e+000
0	 4.666700000016665e+000	 9.333302777352781e+000	 1.000658701907272e+001
0	 4.666700000016666e+000	 9.399973674588177e+000	 1.000536801042564e+001
0	 4.666700000016667e+000	 9.466644621844621e+000	 1.000428992559909e+001
0	 4.666700000016667e+000	 9.533315502450000e+000	 1.000334501427348e+001
0	 4.666700000016666e+000	 9.599986199732197e+000	 1.000252552891031e+001
0	 4.666700000016666e+000	 9.666656597019095e+000	 1.000182372475199e+001
0	 4.666700000016666e+000	 9.733326577638573e+000	 1.000123185982169e+001
0	 4.666700000016665e+000	 9.799996024918521e+000	 1.000074219492337e+001
0	 4.666700000016666e+000	 9.866664822186822e+000	 1.000034699364172e+001
0	 4.666700000016666e+000	 9.933332852771352e+000	 1.000003852234238e+001
0	 4.666700000016666e+000	 1.000000000000000e+001	 9.999809050172109e+000
0	 4.666700000016666e+000	 0.000000000000000e+000	 1.066303654770857e+001
0	 4.666700000016666e+000	 6.666714722864757e-002	 1.064608663656312e+001
0	 4.666700000016667e+000	 1.333351778131790e-001	 1.062339940777690e+001
0	 4.666700000016665e+000	 2.000039750814772e-001	 1.059663010537313e+001
0	 4.666700000016666e+000	 2.666734223614256e-001	 1.056743402516258e+001
0	 4.666700000016668e+000	 3.333434029809070e-001	 1.053746651473722e+001
0	 4.666700000016665e+000	 4.000138002678044e-001	 1.050838297346522e+001
0	 4.666700000016666e+000	 4.666844975500011e-001	 1.048183885248726e+001
0	 4.666700000016667e+000	 5.333553781553803e-001	 1.045948965471435e+001
0	 4.666700000016666e+000	 6.000263254118248e-001	 1.044299093482686e+001
0	 4.666700000016667e+000	 6.666972226472179e-001	 1.043399829927493e+001
0	 4.733360000014534e+000	 0.000000000000000e+000	 1.057866842478934e+001
0	 4.733360000014533e+000	 6.666714722864754e-002	 1.056923143591108e+001
0	 4.733360000014533e+000	 1.333351778131789e-001	 1.055512749948353e+001
0	 4.733360000014534e+000	 2.000039750814773e-001	 1.053763017090284e+001
0	 4.733360000014534e+000	 2.666734223614255e-001	 1.051801304381054e+001
0	 4.733360000014533e+000	 3.333434029809068e-001	 1.049754975008923e+001
0	 4.733360000014533e+000	 4.000138002678044e-001	 1.047751395985921e+001
0	 4.733360000014534e+000	 4.666844975500012e-001	 1.045917938147618e+001
0	 4.733360000014533e+000	 5.333553781553801e-001	 1.044381976152989e+001
0	 4.733360000014534e+000	 6.000263254118248e-001	 1.043270888484385e+001
0	 4.733360000014533e+000	 6.666972226472174e-001	 1.042712057447597e+001
0	 4.800020000011600e+000	 0.000000000000000e+000	 1.050637892490828e+001
0	 4.800020000011600e+000	 6.666714722864754e-002	 1.050232581912586e+001
0	 4.800020000011601e+000	 1.333351778131790e-001	 1.049468442410165e+001
0	 4.800020000011601e+000	 2.000039750814772e-001	 1.048439198342898e+001
0	 4.800020000011600e+000	 2.666734223614255e-001	 1.047238576845611e+001
0	 4.800020000011599e+000	 3.333434029809069e-001	 1.045960307828342e+001
0	 4.800020000011599e+000	 4.000138002678044e-001	 1.044698123976139e+001
0	 4.800020000011599e+000	 4.666844975500012e-001	 1.043545760748919e+001
0	 4.800020000011601e+000	 5.333553781553804e-001	 1.042596956381409e+001
0	 4.800020000011601e+000	 6.000263254118247e-001	 1.041945451883158e+001
0	 4.800020000011600e+000	 6.666972226472175e-001	 1.041684991038617e+001
0	 4.866680000008066e+000	 0.000000000000000e+000	 1.044539510377653e+001
0	 4.866680000008067e+000	 6.666714722864757e-002	 1.044490195204124e+001
0	 4.866680000008067e+000	 1.333351778131789e-001	 1.044187235181404e+001
0	 4.866680000008068e+000	 2.000039750814772e-001	 1.043695261443047e+001
0	 4.866680000008065e+000	 2.666734223614256e-001	 1.043078907117359e+001
0	 4.866680000008065e+000	 3.333434029809069e-001	 1.042402807327226e+001
0	 4.866680000008066e+000	 4.000138002678044e-001	 1.041731599189998e+001
0	 4.866680000008067e+000	 4.666844975500011e-001	 1.041129921817423e+001
0	 4.866680000008067e+000	 5.333553781553803e-001	 1.040662416315636e+001
0	 4.866680000008066e+000	 6.000263254118248e-001	 1.040393725785195e+001
0	 4.866680000008067e+000	 6.666972226472177e-001	 1.040388495321179e+001
0	 4.933340000004134e+000	 0.000000000000000e+000	 1.039494401710510e+001
0	 4.933340000004134e+000	 6.666714722864754e-002	 1.039649200049087e+001
0	 4.933340000004133e+000	 1.333351778131789e-001	 1.039649345280331e+001
0	 4.933340000004134e+000	 2.000039750814772e-001	 1.039534913538607e+001
0	 4.933340000004134e+000	 2.666734223614255e-001	 1.039345982403718e+001
0	 4.933340000004134e+000	 3.333434029809070e-001	 1.039122630900810e+001
0	 4.933340000004134e+000	 4.000138002678044e-001	 1.038904939500314e+001
0	 4.933340000004133e+000	 4.666844975500011e-001	 1.038732990117921e+001
0	 4.933340000004133e+000	 5.333553781553803e-001	 1.038646866114608e+001
0	 4.933340000004133e+000	 6.000263254118248e-001	 1.038686652296689e+001
0	 4.933340000004133e+000	 6.666972226472175e-001	 1.038892434915911e+001
0	 5.000000000000000e+000	 0.000000000000000e+000	 1.035425272060491e+001
0	 5.000000000000004e+000	 6.666714722864757e-002	 1.035662813030831e+001
0	 5.000000000000002e+000	 1.333351778131790e-001	 1.035834989725199e+001
0	 5.000000000000001e+000	 2.000039750814772e-001	 1.035961861777442e+001
0	 5.000000000000000e+000	 2.666734223614255e-001	 1.036063489912095e+001
0	 5.000000000000001e+000	 3.333434029809069e-001	 1.036159935944320e+001
0	 5.000000000000001e+000	 4.000138002678044e-001	 1.036271262779892e+001
0	 4.999999999999999e+000	 4.666844975500012e-001	 1.036417534415192e+001
0	 5.000000000000001e+000	 5.333553781553803e-001	 1.036618815937254e+001
0	 4.999999999999999e+000	 6.000263254118246e-001	 1.036895173523821e+001
0	 5.000000000000001e+000	 6.666972226472178e-001	 1.037266674443434e+001
0	 5.066659999995866e+000	 0.000000000000000e+000	 1.032254826998675e+001
0	 5.066659999995868e+000	 6.666714722864757e-002	 1.032484250732697e+001
0	 5.066659999995867e+000	 1.333351778131790e-001	 1.032724385534247e+001
0	 5.066659999995868e+000	 2.000039750814772e-001	 1.032979813307408e+001
0	 5.066659999995867e+000	 2.666734223614256e-001	 1.033255116849888e+001
0	 5.066659999995866e+000	 3.333434029809069e-001	 1.033554879852973e+001
0	 5.066659999995867e+000	 4.000138002678044e-001	 1.033883686901530e+001
0	 5.066659999995866e+000	 4.666844975500011e-001	 1.034246123474013e+001
0	 5.066659999995866e+000	 5.333553781553804e-001	 1.034646775942503e+001
0	 5.066659999995868e+000	 6.000263254118248e-001	 1.035090231572775e+001
0	 5.066659999995868e+000	 6.666972226472178e-001	 1.035581078524371e+001
0	 5.133319999991932e+000	 0.000000000000000e+000	 1.029905772096128e+001
0	 5.133319999991933e+000	 6.666714722864756e-002	 1.030066729738015e+001
0	 5.133319999991933e+000	 1.333351778131789e-001	 1.030297749725702e+001
0	 5.133319999991933e+000	 2.000039750814772e-001	 1.030592475276348e+001
0	 5.133319999991933e+000	 2.666734223614255e-001	 1.030944550424484e+001
0	 5.133319999991933e+000	 3.333434029809069e-001	 1.031347620021976e+001
0	 5.133319999991934e+000	 4.000138002678043e-001	 1.031795329738019e+001
0	 5.133319999991933e+000	 4.666844975500012e-001	 1.032281326059149e+001
0	 5.133319999991935e+000	 5.333553781553804e-001	 1.032799256289273e+001
0	 5.133319999991932e+000	 6.000263254118248e-001	 1.033342768549725e+001
0	 5.133319999991933e+000	 6.666972226472177e-001	 1.033905511779340e+001
0	 5.199979999988400e+000	 0.000000000000000e+000	 1.028300812923906e+001
0	 5.199979999988399e+000	 6.666714722864756e-002	 1.028363466630100e+001
0	 5.199979999988400e+000	 1.333351778131790e-001	 1.028535299317780e+001
0	 5.199979999988400e+000	 2.000039750814773e-001	 1.028803554832094e+001
0	 5.199979999988401e+000	 2.666734223614256e-001	 1.029155477843259e+001
0	 5.199979999988399e+000	 3.333434029809069e-001	 1.029578313846525e+001
0	 5.199979999988399e+000	 4.000138002678044e-001	 1.030059309162142e+001
0	 5.199979999988399e+000	 4.666844975500011e-001	 1.030585710935365e+001
0	 5.199979999988400e+000	 5.333553781553800e-001	 1.031144767136480e+001
0	 5.199979999988400e+000	 6.000263254118249e-001	 1.031723726560845e+001
0	 5.199979999988399e+000	 6.666972226472177e-001	 1.032309838828954e+001
0	 5.266639999985466e+000	 0.000000000000000e+000	 1.027362655053051e+001
0	 5.266639999985466e+000	 6.666714722864756e-002	 1.027327677992261e+001
0	 5.266639999985464e+000	 1.333351778131789e-001	 1.027417251328684e+001
0	 5.266639999985465e+000	 2.000039750814772e-001	 1.027616759122461e+001
0	 5.266639999985465e+000	 2.666734223614255e-001	 1.027911586313580e+001
0	 5.266639999985465e+000	 3.333434029809068e-001	 1.028287118721810e+001
0	 5.266639999985466e+000	 4.000138002678045e-001	 1.028728743046670e+001
0	 5.266639999985465e+000	 4.666844975500011e-001	 1.029221846867413e+001
0	 5.266639999985465e+000	 5.333553781553801e-001	 1.029751818643033e+001
0	 5.266639999985466e+000	 6.000263254118247e-001	 1.030304047712304e+001
0	 5.266639999985466e+000	 6.666972226472178e-001	 1.030863924293828e+001
0	 5.333299999983334e+000	 0.000000000000000e+000	 1.027014004054596e+001
0	 5.333299999983336e+000	 6.666714722864757e-002	 1.026912580407787e+001
0	 5.333299999983333e+000	 1.333351778131789e-001	 1.026923822776604e+001
0	 5.333299999983336e+000	 2.000039750814772e-001	 1.027035795295262e+001
0	 5.333299999983334e+000	 2.666734223614255e-001	 1.027236563042800e+001
0	 5.333299999983334e+000	 3.333434029809068e-001	 1.027514192043007e+001
0	 5.333299999983334e+000	 4.000138002678044e-001	 1.027856749264370e+001
0	 5.333299999983334e+000	 4.666844975500011e-001	 1.028252302620041e+001
0	 5.333299999983333e+000	 5.333553781553803e-001	 1.028688920967838e+001
0	 5.333299999983335e+000	 6.000263254118248e-001	 1.029154674110268e+001
0	 5.333299999983334e+000	 6.666972226472175e-001	 1.029637632794569e+001
0	 4.666700000016667e+000	 6.666972226472179e-001	 1.043399829927493e+001
0	 4.666700000016665e+000	 7.333579753122046e-001	 1.043118735005078e+001
0	 4.666700000016666e+000	 8.000185779984418e-001	 1.043182898560063e+001
0	 4.666700000016665e+000	 8.666790473703452e-001	 1.043547390561729e+001
0	 4.666700000016666e+000	 9.333394000923320e-001	 1.044167281028510e+001
0	 4.666700000016666e+000	 9.999996528288190e-001	 1.044997640028000e+001
0	 4.666700000016665e+000	 1.066659822244222e+000	 1.045993537676957e+001
0	 4.666700000016667e+000	 1.133319925002959e+000	 1.047110044141305e+001
0	 4.666700000016666e+000	 1.199979977769445e+000	 1.048302229636150e+001
0	 4.666700000016667e+000	 1.266639997208098e+000	 1.049525164425773e+001
0	 4.666700000016666e+000	 1.333299999983334e+000	 1.050733918823644e+001
0	 4.733360000014533e+000	 6.666972226472174e-001	 1.042712057447597e+001
0	 4.733360000014534e+000	 7.333579753122049e-001	 1.042602389204617e+001
0	 4.733360000014533e+000	 8.000185779984421e-001	 1.042731174731774e+001
0	 4.733360000014535e+000	 8.666790473703454e-001	 1.043064484575450e+001
0	 4.733360000014532e+000	 9.333394000923320e-001	 1.043568389346509e+001
0	 4.733360000014533e+000	 9.999996528288190e-001	 1.044208959720297e+001
0	 4.733360000014534e+000	 1.066659822244222e+000	 1.044952266436660e+001
0	 4.733360000014534e+000	 1.133319925002959e+000	 1.045764380299933e+001
0	 4.733360000014533e+000	 1.199979977769445e+000	 1.046611372178961e+001
0	 4.733360000014534e+000	 1.266639997208097e+000	 1.047459313007090e+001
0	 4.733360000014534e+000	 1.333299999983334e+000	 1.048274273782180e+001
0	 4.800020000011600e+000	 6.666972226472175e-001	 1.041684991038617e+001
0	 4.800020000011599e+000	 7.333579753122046e-001	 1.041735430727160e+001
0	 4.800020000011600e+000	 8.000185779984415e-001	 1.041937977522009e+001
0	 4.800020000011601e+000	 8.666790473703455e-001	 1.042268417039172e+001
0	 4.800020000011600e+000	 9.333394000923323e-001	 1.042702534960797e+001
0	 4.800020000011599e+000	 9.999996528288186e-001	 1.043216117035171e+001
0	 4.800020000011601e+000	 1.066659822244222e+000	 1.043784949076725e+001
0	 4.800020000011601e+000	 1.133319925002959e+000	 1.044384816966047e+001
0	 4.800020000011601e+000	 1.199979977769445e+000	 1.044991506649872e+001
0	 4.800020000011601e+000	 1.266639997208098e+000	 1.045580804141097e+001
0	 4.800020000011601e+000	 1.333299999983334e+000	 1.046128495518783e+001
0	 4.866680000008067e+000	 6.666972226472177e-001	 1.040388495321179e+001
0	 4.866680000008067e+000	 7.333579753122050e-001	 1.040584058991063e+001
0	 4.866680000008067e+000	 8.000185779984419e-001	 1.040864174299989e+001
0	 4.866680000008067e+000	 8.666790473703453e-001	 1.041213056419501e+001
0	 4.866680000008066e+000	 9.333394000923324e-001	 1.041614920577756e+001
0	 4.866680000008067e+000	 9.999996528288191e-001	 1.042053982059537e+001
0	 4.866680000008066e+000	 1.066659822244222e+000	 1.042514456206246e+001
0	 4.866680000008065e+000	 1.133319925002958e+000	 1.042980558415920e+001
0	 4.866680000008068e+000	 1.199979977769445e+000	 1.043436504143223e+001
0	 4.866680000008066e+000	 1.266639997208098e+000	 1.043866508899461e+001
0	 4.866680000008067e+000	 1.333299999983334e+000	 1.044254788252576e+001
0	 4.933340000004133e+000	 6.666972226472175e-001	 1.038892434915911e+001
0	 4.933340000004135e+000	 7.333579753122049e-001	 1.039214473414677e+001
0	 4.933340000004133e+000	 8.000185779984418e-001	 1.039570632434936e+001
0	 4.933340000004134e+000	 8.666790473703455e-001	 1.039952271183043e+001
0	 4.933340000004133e+000	 9.333394000923323e-001	 1.040350748903768e+001
0	 4.933340000004134e+000	 9.999996528288190e-001	 1.040757424880314e+001
0	 4.933340000004134e+000	 1.066659822244222e+000	 1.041163658434312e+001
0	 4.933340000004135e+000	 1.133319925002959e+000	 1.041560808925825e+001
0	 4.933340000004133e+000	 1.199979977769445e+000	 1.041940235753357e+001
0	 4.933340000004134e+000	 1.266639997208098e+000	 1.042293298353847e+001
0	 4.933340000004134e+000	 1.333299999983334e+000	 1.042611356202683e+001
0	 5.000000000000001e+000	 6.666972226472178e-001	 1.037266674443434e+001
0	 5.000000000000002e+000	 7.333579753122050e-001	 1.037692873416353e+001
0	 5.000000000000002e+000	 8.000185779984418e-001	 1.038118219296074e+001
0	 5.000000000000001e+000	 8.666790473703453e-001	 1.038539929796406e+001
0	 5.000000000000001e+000	 9.333394000923323e-001	 1.038955222645215e+001
0	 5.000000000000000e+000	 9.999996528288190e-001	 1.039361315584422e+001
0	 5.000000000000001e+000	 1.066659822244222e+000	 1.039755426370013e+001
0	 5.000000000000002e+000	 1.133319925002959e+000	 1.040134772772039e+001
0	 5.000000000000001e+000	 1.199979977769445e+000	 1.040496572574613e+001
0	 5.000000000000000e+000	 1.266639997208098e+000	 1.040838043575924e+001
0	 4.999999999999999e+000	 1.333299999983334e+000	 1.041156403588230e+001
0	 5.066659999995868e+000	 6.666972226472178e-001	 1.035581078524371e+001
0	 5.066659999995868e+000	 7.333579753122048e-001	 1.036085458414442e+001
0	 5.066659999995867e+000	 8.000185779984419e-001	 1.036567802252621e+001
0	 5.066659999995865e+000	 8.666790473703453e-001	 1.037029900726198e+001
0	 5.066659999995866e+000	 9.333394000923321e-001	 1.037473544508477e+001
0	 5.066659999995865e+000	 9.999996528288186e-001	 1.037900524258780e+001
0	 5.066659999995867e+000	 1.066659822244222e+000	 1.038312630622446e+001
0	 5.066659999995868e+000	 1.133319925002959e+000	 1.038711654230836e+001
0	 5.066659999995867e+000	 1.199979977769445e+000	 1.039099385701336e+001
0	 5.066659999995866e+000	 1.266639997208098e+000	 1.039477615637358e+001
0	 5.066659999995866e+000	 1.333299999983334e+000	 1.039848134628342e+001
0	 5.133319999991933e+000	 6.666972226472177e-001	 1.033905511779340e+001
0	 5.133319999991933e+000	 7.333579753122048e-001	 1.034458427827290e+001
0	 5.133319999991933e+000	 8.000185779984418e-001	 1.034980248673796e+001
0	 5.133319999991933e+000	 8.666790473703454e-001	 1.035476052439022e+001
0	 5.133319999991933e+000	 9.333394000923322e-001	 1.035950917199937e+001
0	 5.133319999991934e+000	 9.999996528288190e-001	 1.036409920990306e+001
0	 5.133319999991932e+000	 1.066659822244222e+000	 1.036858141800701e+001
0	 5.133319999991933e+000	 1.133319925002959e+000	 1.037300657578494e+001
0	 5.133319999991932e+000	 1.199979977769445e+000	 1.037742546227870e+001
0	 5.133319999991934e+000	 1.266639997208098e+000	 1.038188885609820e+001
0	 5.133319999991933e+000	 1.333299999983334e+000	 1.038644753542145e+001
0	 5.199979999988399e+000	 6.666972226472177e-001	 1.032309838828954e+001
0	 5.199979999988398e+000	 7.333579753122047e-001	 1.032877981073244e+001
0	 5.199979999988399e+000	 8.000185779984419e-001	 1.033416425928818e+001
0	 5.199979999988399e+000	 8.666790473703452e-001	 1.033932253401488e+001
0	 5.199979999988399e+000	 9.333394000923322e-001	 1.034432543425978e+001
0	 5.199979999988399e+000	 9.999996528288189e-001	 1.034924375865923e+001
0	 5.199979999988400e+000	 1.066659822244222e+000	 1.035414830513873e+001
0	 5.199979999988399e+000	 1.133319925002959e+000	 1.035910987091291e+001
0	 5.199979999988399e+000	 1.199979977769445e+000	 1.036419925248561e+001
0	 5.199979999988398e+000	 1.266639997208097e+000	 1.036948724564980e+001
0	 5.199979999988400e+000	 1.333299999983334e+000	 1.037504464548770e+001
0	 5.266639999985466e+000	 6.666972226472178e-001	 1.030863924293828e+001
0	 5.266639999985464e+000	 7.333579753122047e-001	 1.031410317570646e+001
0	 5.266639999985466e+000	 8.000185779984418e-001	 1.031937201386903e+001
0	 5.266639999985464e+000	 8.666790473703451e-001	 1.032452372080199e+001
0	 5.266639999985466e+000	 9.333394000923322e-001	 1.032963625892981e+001
0	 5.266639999985465e+000	 9.999996528288189e-001	 1.033478758972550e+001
0	 5.266639999985464e+000	 1.066659822244222e+000	 1.034005567371058e+001
0	 5.266639999985465e+000	 1.133319925002958e+000	 1.034551847045506e+001
0	 5.266639999985466e+000	 1.199979977769445e+000	 1.035125393857753e+001
0	 5.266639999985465e+000	 1.266639997208098e+000	 1.035734003574510e+001
0	 5.266639999985464e+000	 1.333299999983333e+000	 1.036385471867346e+001
0	 5.333299999983334e+000	 6.666972226472175e-001	 1.029637632794569e+001
0	 5.333299999983334e+000	 7.333579753122048e-001	 1.030121636737840e+001
0	 5.333299999983334e+000	 8.000185779984417e-001	 1.030603442417269e+001
0	 5.333299999983334e+000	 8.666790473703453e-001	 1.031090276941760e+001
0	 5.333299999983335e+000	 9.333394000923322e-001	 1.031589367307329e+001
0	 5.333299999983333e+000	 9.999996528288189e-001	 1.032107940397110e+001
0	 5.333299999983334e+000	 1.066659822244222e+000	 1.032653222981352e+001
0	 5.333299999983335e+000	 1.133319925002959e+000	 1.033232441717419e+001
0	 5.333299999983334e+000	 1.199979977769445e+000	 1.033852823149795e+001
0	 5.333299999983333e+000	 1.266639997208098e+000	 1.034521593710081e+001
0	 5.333299999983335e+000	 1.333299999983334e+000	 1.035245979717002e+001
0	 4.666700000016666e+000	 1.333299999983334e+000	 1.050733918823644e+001
0	 4.666700000016665e+000	 1.399969999982150e+000	 1.051837077865828e+001
0	 4.666700000016666e+000	 1.466639999981866e+000	 1.052778119946211e+001
0	 4.666700000016667e+000	 1.533309999982383e+000	 1.053564989514729e+001
0	 4.666700000016666e+000	 1.599979999983600e+000	 1.054205631021316e+001
0	 4.666700000016665e+000	 1.666649999985416e+000	 1.054707988915907e+001
0	 4.666700000016666e+000	 1.733319999987733e+000	 1.055080007648434e+001
0	 4.666700000016666e+000	 1.799989999990450e+000	 1.055329631668827e+001
0	 4.666700000016666e+000	 1.866659999993466e+000	 1.055464805427018e+001
0	 4.666700000016666e+000	 1.933329999996683e+000	 1.055493473372933e+001
0	 4.666700000016666e+000	 2.000000000000000e+000	 1.055423579956502e+001
0	 4.733360000014534e+000	 1.333299999983334e+000	 1.048274273782180e+001
0	 4.733360000014534e+000	 1.399969999982150e+000	 1.049017439256539e+001
0	 4.733360000014533e+000	 1.466639999981867e+000	 1.049676871592136e+001
0	 4.733360000014533e+000	 1.533309999982383e+000	 1.050259312207621e+001
0	 4.733360000014534e+000	 1.599979999983600e+000	 1.050771502521646e+001
0	 4.733360000014534e+000	 1.666649999985416e+000	 1.051220183952860e+001
0	 4.733360000014533e+000	 1.733319999987733e+000	 1.051612097919914e+001
0	 4.733360000014532e+000	 1.799989999990450e+000	 1.051953985841458e+001
0	 4.733360000014534e+000	 1.866659999993466e+000	 1.052252589136138e+001
0	 4.733360000014534e+000	 1.933329999996683e+000	 1.052514649222604e+001
0	 4.733360000014533e+000	 2.000000000000000e+000	 1.052746907519504e+001
0	 4.800020000011601e+000	 1.333299999983334e+000	 1.046128495518783e+001
0	 4.800020000011600e+000	 1.399969999982150e+000	 1.046630605182386e+001
0	 4.800020000011600e+000	 1.466639999981866e+000	 1.047102941947693e+001
0	 4.800020000011599e+000	 1.533309999982383e+000	 1.047551202058884e+001
0	 4.800020000011599e+000	 1.599979999983599e+000	 1.047981081760145e+001
0	 4.800020000011600e+000	 1.666649999985416e+000	 1.048398277295657e+001
0	 4.800020000011599e+000	 1.733319999987733e+000	 1.048808484909604e+001
0	 4.800020000011599e+000	 1.799989999990449e+000	 1.049217400846169e+001
0	 4.800020000011599e+000	 1.866659999993466e+000	 1.049630721349534e+001
0	 4.800020000011600e+000	 1.933329999996683e+000	 1.050054142663882e+001
0	 4.800020000011601e+000	 2.000000000000000e+000	 1.050493361033395e+001
0	 4.866680000008067e+000	 1.333299999983334e+000	 1.044254788252576e+001
0	 4.866680000008065e+000	 1.399969999982150e+000	 1.044617025974619e+001
0	 4.866680000008065e+000	 1.466639999981866e+000	 1.044982526057626e+001
0	 4.866680000008068e+000	 1.533309999982383e+000	 1.045356097428126e+001
0	 4.866680000008067e+000	 1.599979999983599e+000	 1.045742549012652e+001
0	 4.866680000008066e+000	 1.666649999985416e+000	 1.046146689737735e+001
0	 4.866680000008068e+000	 1.733319999987733e+000	 1.046573328529908e+001
0	 4.866680000008065e+000	 1.799989999990449e+000	 1.047027274315703e+001
0	 4.866680000008067e+000	 1.866659999993467e+000	 1.047513336021650e+001
0	 4.866680000008066e+000	 1.933329999996683e+000	 1.048036322574285e+001
0	 4.866680000008066e+000	 2.000000000000000e+000	 1.048601042900137e+001
0	 4.933340000004134e+000	 1.333299999983334e+000	 1.042611356202683e+001
0	 4.933340000004134e+000	 1.399969999982150e+000	 1.042917151964488e+001
0	 4.933340000004134e+000	 1.466639999981866e+000	 1.043241818966679e+001
0	 4.933340000004133e+000	 1.533309999982383e+000	 1.043589436674954e+001
0	 4.933340000004133e+000	 1.599979999983599e+000	 1.043964084555008e+001
0	 4.933340000004133e+000	 1.666649999985416e+000	 1.044369842072536e+001
0	 4.933340000004133e+000	 1.733319999987733e+000	 1.044810788693235e+001
0	 4.933340000004134e+000	 1.799989999990449e+000	 1.045291003882803e+001
0	 4.933340000004132e+000	 1.866659999993466e+000	 1.045814567106936e+001
0	 4.933340000004134e+000	 1.933329999996684e+000	 1.046385557831331e+001
0	 4.933340000004134e+000	 2.000000000000000e+000	 1.047008055521686e+001
0	 4.999999999999999e+000	 1.333299999983334e+000	 1.041156403588230e+001
0	 5.000000000000001e+000	 1.399969999982150e+000	 1.041471433483243e+001
0	 5.000000000000000e+000	 1.466639999981866e+000	 1.041807015719600e+001
0	 4.999999999999998e+000	 1.533309999982383e+000	 1.042166658158979e+001
0	 5.000000000000000e+000	 1.599979999983600e+000	 1.042553868663053e+001
0	 5.000000000000000e+000	 1.666649999985416e+000	 1.042972155093500e+001
0	 5.000000000000000e+000	 1.733319999987733e+000	 1.043425025311995e+001
0	 5.000000000000002e+000	 1.799989999990450e+000	 1.043915987180215e+001
0	 5.000000000000002e+000	 1.866659999993466e+000	 1.044448548559837e+001
0	 5.000000000000002e+000	 1.933329999996683e+000	 1.045026217312541e+001
0	 5.000000000000001e+000	 2.000000000000000e+000	 1.045652501300001e+001
0	 5.066659999995866e+000	 1.333299999983334e+000	 1.039848134628342e+001
0	 5.066659999995867e+000	 1.399969999982150e+000	 1.040220320862137e+001
0	 5.066659999995868e+000	 1.466639999981866e+000	 1.040604311361137e+001
0	 5.066659999995866e+000	 1.533309999982383e+000	 1.041003200239810e+001
0	 5.066659999995868e+000	 1.599979999983600e+000	 1.041420081612630e+001
0	 5.066659999995866e+000	 1.666649999985416e+000	 1.041858049594067e+001
0	 5.066659999995867e+000	 1.733319999987733e+000	 1.042320198298595e+001
0	 5.066659999995867e+000	 1.799989999990449e+000	 1.042809621840683e+001
0	 5.066659999995868e+000	 1.866659999993466e+000	 1.043329414334806e+001
0	 5.066659999995865e+000	 1.933329999996683e+000	 1.043882669895435e+001
0	 5.066659999995866e+000	 2.000000000000000e+000	 1.044472482637042e+001
0	 5.133319999991933e+000	 1.333299999983334e+000	 1.038644753542146e+001
0	 5.133319999991933e+000	 1.399969999982150e+000	 1.039104264432424e+001
0	 5.133319999991933e+000	 1.466639999981867e+000	 1.039559900936035e+001
0	 5.133319999991933e+000	 1.533309999982383e+000	 1.040014501277060e+001
0	 5.133319999991933e+000	 1.599979999983600e+000	 1.040470903679582e+001
0	 5.133319999991934e+000	 1.666649999985416e+000	 1.040931946367684e+001
0	 5.133319999991933e+000	 1.733319999987733e+000	 1.041400467565447e+001
0	 5.133319999991933e+000	 1.799989999990450e+000	 1.041879305496954e+001
0	 5.133319999991933e+000	 1.866659999993466e+000	 1.042371298386290e+001
0	 5.133319999991933e+000	 1.933329999996683e+000	 1.042879284457535e+001
0	 5.133319999991933e+000	 2.000000000000000e+000	 1.043406101934773e+001
0	 5.199979999988400e+000	 1.333299999983334e+000	 1.037504464548771e+001
0	 5.199979999988398e+000	 1.399969999982150e+000	 1.038063714525359e+001
0	 5.199979999988401e+000	 1.466639999981867e+000	 1.038599979489047e+001
0	 5.199979999988400e+000	 1.533309999982383e+000	 1.039115999630343e+001
0	 5.199979999988399e+000	 1.599979999983599e+000	 1.039614515139755e+001
0	 5.199979999988401e+000	 1.666649999985417e+000	 1.040098266207792e+001
0	 5.199979999988400e+000	 1.733319999987733e+000	 1.040569993024963e+001
0	 5.199979999988400e+000	 1.799989999990450e+000	 1.041032435781777e+001
0	 5.199979999988398e+000	 1.866659999993466e+000	 1.041488334668742e+001
0	 5.199979999988399e+000	 1.933329999996683e+000	 1.041940429876365e+001
0	 5.199979999988400e+000	 2.000000000000000e+000	 1.042391461595156e+001
0	 5.266639999985464e+000	 1.333299999983333e+000	 1.036385471867346e+001
0	 5.266639999985466e+000	 1.399969999982150e+000	 1.037039121472198e+001
0	 5.266639999985465e+000	 1.466639999981866e+000	 1.037650742064922e+001
0	 5.266639999985466e+000	 1.533309999982383e+000	 1.038223133659271e+001
0	 5.266639999985467e+000	 1.599979999983599e+000	 1.038759096268994e+001
0	 5.266639999985467e+000	 1.666649999985417e+000	 1.039261429907839e+001
0	 5.266639999985466e+000	 1.733319999987733e+000	 1.039732934589558e+001
0	 5.266639999985466e+000	 1.799989999990450e+000	 1.040176410327900e+001
0	 5.266639999985466e+000	 1.866659999993466e+000	 1.040594657136614e+001
0	 5.266639999985465e+000	 1.933329999996683e+000	 1.040990475029449e+001
0	 5.266639999985466e+000	 2.000000000000000e+000	 1.041366664020153e+001
0	 5.333299999983335e+000	 1.333299999983334e+000	 1.035245979717002e+001
0	 5.333299999983333e+000	 1.399969999982150e+000	 1.035970935604197e+001
0	 5.333299999983335e+000	 1.466639999981867e+000	 1.036638383708414e+001
0	 5.333299999983333e+000	 1.533309999982383e+000	 1.037251341723461e+001
0	 5.333299999983335e+000	 1.599979999983599e+000	 1.037812827343145e+001
0	 5.333299999983334e+000	 1.666649999985416e+000	 1.038325858261271e+001
0	 5.333299999983334e+000	 1.733319999987733e+000	 1.038793452171646e+001
0	 5.333299999983333e+000	 1.799989999990449e+000	 1.039218626768075e+001
0	 5.333299999983334e+000	 1.866659999993466e+000	 1.039604399744361e+001
0	 5.333299999983334e+000	 1.933329999996684e+000	 1.039953788794311e+001
0	 5.333299999983333e+000	 2.000000000000000e+000	 1.040269811611729e+001
0	 4.666700000016666e+000	 2.000000000000000e+000	 1.055423579956502e+001
0	 4.666700000016665e+000	 2.066670000003317e+000	 1.055316192034511e+001
0	 4.666700000016666e+000	 2.133340000006534e+000	 1.055226181235098e+001
0	 4.666700000016667e+000	 2.200010000009551e+000	 1.055152199165210e+001
0	 4.666700000016666e+000	 2.266680000012268e+000	 1.055092897431796e+001
0	 4.666700000016667e+000	 2.333350000014584e+000	 1.055046927641802e+001
0	 4.666700000016666e+000	 2.400020000016401e+000	 1.055012941402176e+001
0	 4.666700000016668e+000	 2.466690000017617e+000	 1.054989590319866e+001
0	 4.666700000016667e+000	 2.533360000018134e+000	 1.054975526001818e+001
0	 4.666700000016667e+000	 2.600030000017851e+000	 1.054969400054978e+001
0	 4.666700000016666e+000	 2.666700000016666e+000	 1.054969864086293e+001
0	 4.733360000014533e+000	 2.000000000000000e+000	 1.052746907519504e+001
0	 4.733360000014532e+000	 2.066670000003317e+000	 1.052955594756076e+001
0	 4.733360000014533e+000	 2.133340000006534e+000	 1.053142761847376e+001
0	 4.733360000014531e+000	 2.200010000009550e+000	 1.053308880490766e+001
0	 4.733360000014532e+000	 2.266680000012267e+000	 1.053454422383612e+001
0	 4.733360000014534e+000	 2.333350000014585e+000	 1.053579859223278e+001
0	 4.733360000014534e+000	 2.400020000016401e+000	 1.053685662707127e+001
0	 4.733360000014533e+000	 2.466690000017617e+000	 1.053772304532521e+001
0	 4.733360000014534e+000	 2.533360000018134e+000	 1.053840256396822e+001
0	 4.733360000014534e+000	 2.600030000017850e+000	 1.053889989997392e+001
0	 4.733360000014534e+000	 2.666700000016666e+000	 1.053921977031592e+001
0	 4.800020000011601e+000	 2.000000000000000e+000	 1.050493361033395e+001
0	 4.800020000011599e+000	 2.066670000003316e+000	 1.050916812123926e+001
0	 4.800020000011598e+000	 2.133340000006533e+000	 1.051290451941929e+001
0	 4.800020000011600e+000	 2.200010000009550e+000	 1.051616257242496e+001
0	 4.800020000011599e+000	 2.266680000012266e+000	 1.051896204780718e+001
0	 4.800020000011599e+000	 2.333350000014585e+000	 1.052132271311684e+001
0	 4.800020000011599e+000	 2.400020000016400e+000	 1.052326433590483e+001
0	 4.800020000011599e+000	 2.466690000017617e+000	 1.052480668372203e+001
0	 4.800020000011600e+000	 2.533360000018134e+000	 1.052596952411931e+001
0	 4.800020000011601e+000	 2.600030000017851e+000	 1.052677262464753e+001
0	 4.800020000011601e+000	 2.666700000016667e+000	 1.052723575285755e+001
0	 4.866680000008066e+000	 2.000000000000000e+000	 1.048601042900137e+001
0	 4.866680000008067e+000	 2.066670000003316e+000	 1.049152794082685e+001
0	 4.866680000008066e+000	 2.133340000006534e+000	 1.049635778441135e+001
0	 4.866680000008066e+000	 2.200010000009550e+000	 1.050053162755616e+001
0	 4.866680000008066e+000	 2.266680000012267e+000	 1.050408113806250e+001
0	 4.866680000008065e+000	 2.333350000014584e+000	 1.050703798373166e+001
0	 4.866680000008066e+000	 2.400020000016400e+000	 1.050943383236486e+001
0	 4.866680000008067e+000	 2.466690000017617e+000	 1.051130035176333e+001
0	 4.866680000008067e+000	 2.533360000018134e+000	 1.051266920972828e+001
0	 4.866680000008065e+000	 2.600030000017850e+000	 1.051357207406096e+001
0	 4.866680000008069e+000	 2.666700000016667e+000	 1.051404061256254e+001
0	 4.933340000004134e+000	 2.000000000000000e+000	 1.047008055521686e+001
0	 4.933340000004133e+000	 2.066670000003317e+000	 1.047616490576978e+001
0	 4.933340000004133e+000	 2.133340000006534e+000	 1.048145268267372e+001
0	 4.933340000004133e+000	 2.200010000009550e+000	 1.048598430365337e+001
0	 4.933340000004133e+000	 2.266680000012267e+000	 1.048980018643347e+001
0	 4.933340000004134e+000	 2.333350000014584e+000	 1.049294074873870e+001
0	 4.933340000004133e+000	 2.400020000016400e+000	 1.049544640829375e+001
0	 4.933340000004134e+000	 2.466690000017617e+000	 1.049735758282330e+001
0	 4.933340000004133e+000	 2.533360000018133e+000	 1.049871469005202e+001
0	 4.933340000004135e+000	 2.600030000017851e+000	 1.049955814770458e+001
0	 4.933340000004134e+000	 2.666700000016666e+000	 1.049992837350563e+001
0	 5.000000000000001e+000	 2.000000000000000e+000	 1.045652501300001e+001
0	 5.000000000000002e+000	 2.066670000003317e+000	 1.046260851551432e+001
0	 5.000000000000002e+000	 2.133340000006534e+000	 1.046785448343015e+001
0	 5.000000000000002e+000	 2.200010000009550e+000	 1.047230893406879e+001
0	 5.000000000000000e+000	 2.266680000012267e+000	 1.047601788475146e+001
0	 5.000000000000000e+000	 2.333350000014584e+000	 1.047902735279941e+001
0	 5.000000000000000e+000	 2.400020000016401e+000	 1.048138335553391e+001
0	 5.000000000000000e+000	 2.466690000017617e+000	 1.048313191027615e+001
0	 5.000000000000002e+000	 2.533360000018134e+000	 1.048431903434736e+001
0	 5.000000000000000e+000	 2.600030000017850e+000	 1.048499074506875e+001
0	 5.000000000000000e+000	 2.666700000016665e+000	 1.048519305976153e+001
0	 5.066659999995866e+000	 2.000000000000000e+000	 1.044472482637042e+001
0	 5.066659999995867e+000	 2.066670000003317e+000	 1.045038826950673e+001
0	 5.066659999995868e+000	 2.133340000006534e+000	 1.045522845590446e+001
0	 5.066659999995867e+000	 2.200010000009550e+000	 1.045929385215453e+001
0	 5.066659999995867e+000	 2.266680000012268e+000	 1.046263292484784e+001
0	 5.066659999995865e+000	 2.333350000014584e+000	 1.046529414057529e+001
0	 5.066659999995868e+000	 2.400020000016401e+000	 1.046732596592775e+001
0	 5.066659999995866e+000	 2.466690000017617e+000	 1.046877686749609e+001
0	 5.066659999995867e+000	 2.533360000018133e+000	 1.046969531187118e+001
0	 5.066659999995867e+000	 2.600030000017850e+000	 1.047012976564386e+001
0	 5.066659999995867e+000	 2.666700000016666e+000	 1.047012869540498e+001
0	 5.133319999991933e+000	 2.000000000000000e+000	 1.043406101934773e+001
0	 5.133319999991932e+000	 2.066670000003317e+000	 1.043903366719327e+001
0	 5.133319999991933e+000	 2.133340000006534e+000	 1.044323986932041e+001
0	 5.133319999991933e+000	 2.200010000009551e+000	 1.044672739126279e+001
0	 5.133319999991933e+000	 2.266680000012267e+000	 1.044954399855404e+001
0	 5.133319999991933e+000	 2.333350000014584e+000	 1.045173745672780e+001
0	 5.133319999991934e+000	 2.400020000016400e+000	 1.045335553131769e+001
0	 5.133319999991933e+000	 2.466690000017618e+000	 1.045444598785733e+001
0	 5.133319999991930e+000	 2.533360000018133e+000	 1.045505659188032e+001
0	 5.133319999991933e+000	 2.600030000017851e+000	 1.045523510892025e+001
0	 5.133319999991933e+000	 2.666700000016667e+000	 1.045502930451072e+001
0	 5.199979999988400e+000	 2.000000000000000e+000	 1.042391461595156e+001
0	 5.199979999988399e+000	 2.066670000003317e+000	 1.042807420802026e+001
0	 5.199979999988398e+000	 2.133340000006534e+000	 1.043155399290181e+001
0	 5.199979999988400e+000	 2.200010000009550e+000	 1.043439788474571e+001
0	 5.199979999988400e+000	 2.266680000012267e+000	 1.043664979770143e+001
0	 5.199979999988400e+000	 2.333350000014584e+000	 1.043835364591841e+001
0	 5.199979999988399e+000	 2.400020000016401e+000	 1.043955334354615e+001
0	 5.199979999988398e+000	 2.466690000017617e+000	 1.044029280473408e+001
0	 5.199979999988400e+000	 2.533360000018133e+000	 1.044061594363165e+001
0	 5.199979999988398e+000	 2.600030000017850e+000	 1.044056667438830e+001
0	 5.199979999988400e+000	 2.666700000016666e+000	 1.044018891115345e+001
0	 5.266639999985466e+000	 2.000000000000000e+000	 1.041366664020153e+001
0	 5.266639999985465e+000	 2.066670000003317e+000	 1.041703939143397e+001
0	 5.266639999985466e+000	 2.133340000006534e+000	 1.041983609587249e+001
0	 5.266639999985466e+000	 2.200010000009550e+000	 1.042209366595550e+001
0	 5.266639999985467e+000	 2.266680000012267e+000	 1.042384901412141e+001
0	 5.266639999985466e+000	 2.333350000014584e+000	 1.042513905280862e+001
0	 5.266639999985467e+000	 2.400020000016401e+000	 1.042600069445555e+001
0	 5.266639999985466e+000	 2.466690000017617e+000	 1.042647085150055e+001
0	 5.266639999985463e+000	 2.533360000018133e+000	 1.042658643638204e+001
0	 5.266639999985467e+000	 2.600030000017851e+000	 1.042638436153836e+001
0	 5.266639999985465e+000	 2.666700000016666e+000	 1.042590153940791e+001
0	 5.333299999983333e+000	 2.000000000000000e+000	 1.040269811611729e+001
0	 5.333299999983333e+000	 2.066670000003317e+000	 1.040545871688072e+001
0	 5.333299999983333e+000	 2.133340000006534e+000	 1.040775144745625e+001
0	 5.333299999983335e+000	 2.200010000009550e+000	 1.040960306824433e+001
0	 5.333299999983333e+000	 2.266680000012268e+000	 1.041104033964541e+001
0	 5.333299999983335e+000	 2.333350000014584e+000	 1.041209002205992e+001
0	 5.333299999983334e+000	 2.400020000016401e+000	 1.041277887588830e+001
0	 5.333299999983334e+000	 2.466690000017617e+000	 1.041313366153097e+001
0	 5.333299999983335e+000	 2.533360000018134e+000	 1.041318113938833e+001
0	 5.333299999983333e+000	 2.600030000017851e+000	 1.041294806986082e+001
0	 5.333299999983334e+000	 2.666700000016666e+000	 1.041246121334883e+001
0	 4.666700000016666e+000	 2.666700000016666e+000	 1.054969864086293e+001
0	 4.666700000016666e+000	 2.733360000014533e+000	 1.054921012612249e+001
0	 4.666700000016665e+000	 2.800020000011599e+000	 1.054769661348369e+001
0	 4.666700000016666e+000	 2.866680000008067e+000	 1.054518542210922e+001
0	 4.666700000016667e+000	 2.933340000004133e+000	 1.054170387116180e+001
0	 4.666700000016666e+000	 3.000000000000000e+000	 1.053727927980418e+001
0	 4.666700000016665e+000	 3.066659999995866e+000	 1.053193896719914e+001
0	 4.666700000016666e+000	 3.133319999991934e+000	 1.052571025250949e+001
0	 4.666700000016665e+000	 3.199979999988400e+000	 1.051862045489803e+001
0	 4.666700000016665e+000	 3.266639999985467e+000	 1.051069689352765e+001
0	 4.666700000016666e+000	 3.333299999983334e+000	 1.050196688756120e+001
0	 4.733360000014534e+000	 2.666700000016666e+000	 1.053921977031592e+001
0	 4.733360000014534e+000	 2.733360000014534e+000	 1.053895815576320e+001
0	 4.733360000014532e+000	 2.800020000011599e+000	 1.053771454064797e+001
0	 4.733360000014534e+000	 2.866680000008067e+000	 1.053549879257444e+001
0	 4.733360000014534e+000	 2.933340000004133e+000	 1.053232077914687e+001
0	 4.733360000014534e+000	 3.000000000000000e+000	 1.052819036796953e+001
0	 4.733360000014534e+000	 3.066659999995867e+000	 1.052311742664672e+001
0	 4.733360000014534e+000	 3.133319999991934e+000	 1.051711182278279e+001
0	 4.733360000014534e+000	 3.199979999988400e+000	 1.051018342398206e+001
0	 4.733360000014534e+000	 3.266639999985468e+000	 1.050234209784894e+001
0	 4.733360000014534e+000	 3.333299999983334e+000	 1.049359771198782e+001
0	 4.800020000011601e+000	 2.666700000016667e+000	 1.052723575285755e+001
0	 4.800020000011601e+000	 2.733360000014532e+000	 1.052708472725774e+001
0	 4.800020000011600e+000	 2.800020000011599e+000	 1.052602917131218e+001
0	 4.800020000011601e+000	 2.866680000008067e+000	 1.052406442513305e+001
0	 4.800020000011599e+000	 2.933340000004135e+000	 1.052118582883252e+001
0	 4.800020000011600e+000	 3.000000000000000e+000	 1.051738872252280e+001
0	 4.800020000011601e+000	 3.066659999995867e+000	 1.051266844631613e+001
0	 4.800020000011601e+000	 3.133319999991933e+000	 1.050702034032477e+001
0	 4.800020000011600e+000	 3.199979999988401e+000	 1.050043974466101e+001
0	 4.800020000011599e+000	 3.266639999985466e+000	 1.049292199943716e+001
0	 4.800020000011601e+000	 3.333299999983335e+000	 1.048446244476558e+001
0	 4.866680000008069e+000	 2.666700000016667e+000	 1.051404061256254e+001
0	 4.866680000008066e+000	 2.733360000014534e+000	 1.051390716943664e+001
0	 4.866680000008067e+000	 2.800020000011600e+000	 1.051297221338592e+001
0	 4.866680000008065e+000	 2.866680000008066e+000	 1.051121948109688e+001
0	 4.866680000008066e+000	 2.933340000004133e+000	 1.050863270925604e+001
0	 4.866680000008067e+000	 3.000000000000000e+000	 1.050519563454995e+001
0	 4.866680000008066e+000	 3.066659999995866e+000	 1.050089199366521e+001
0	 4.866680000008066e+000	 3.133319999991934e+000	 1.049570552328840e+001
0	 4.866680000008067e+000	 3.199979999988400e+000	 1.048961996010615e+001
0	 4.866680000008066e+000	 3.266639999985467e+000	 1.048261904080512e+001
0	 4.866680000008066e+000	 3.333299999983333e+000	 1.047468650207198e+001
0	 4.933340000004134e+000	 2.666700000016666e+000	 1.049992837350563e+001
0	 4.933340000004135e+000	 2.733360000014533e+000	 1.049974281113050e+001
0	 4.933340000004134e+000	 2.800020000011601e+000	 1.049887537477882e+001
0	 4.933340000004132e+000	 2.866680000008067e+000	 1.049730112177782e+001
0	 4.933340000004133e+000	 2.933340000004133e+000	 1.049499510945479e+001
0	 4.933340000004135e+000	 3.000000000000000e+000	 1.049193239513704e+001
0	 4.933340000004134e+000	 3.066659999995867e+000	 1.048808803615188e+001
0	 4.933340000004134e+000	 3.133319999991934e+000	 1.048343708982666e+001
0	 4.933340000004132e+000	 3.199979999988401e+000	 1.047795461348876e+001
0	 4.933340000004135e+000	 3.266639999985467e+000	 1.047161566446556e+001
0	 4.933340000004134e+000	 3.333299999983334e+000	 1.046439530008449e+001
0	 5.000000000000000e+000	 2.666700000016665e+000	 1.048519305976153e+001
0	 5.000000000000000e+000	 2.733360000014533e+000	 1.048490898116988e+001
0	 5.000000000000000e+000	 2.800020000011600e+000	 1.048407036340048e+001
0	 5.000000000000002e+000	 2.866680000008067e+000	 1.048264650848774e+001
0	 5.000000000000002e+000	 2.933340000004133e+000	 1.048060671846612e+001
0	 5.000000000000000e+000	 3.000000000000000e+000	 1.047792029537004e+001
0	 5.000000000000002e+000	 3.066659999995867e+000	 1.047455654123401e+001
0	 5.000000000000000e+000	 3.133319999991934e+000	 1.047048475809253e+001
0	 5.000000000000002e+000	 3.199979999988401e+000	 1.046567424798010e+001
0	 5.000000000000001e+000	 3.266639999985467e+000	 1.046009431293128e+001
0	 4.999999999999999e+000	 3.333299999983334e+000	 1.045371425498064e+001
0	 5.066659999995867e+000	 2.666700000016666e+000	 1.047012869540498e+001
0	 5.066659999995868e+000	 2.733360000014533e+000	 1.046972300838534e+001
0	 5.066659999995868e+000	 2.800020000011599e+000	 1.046888888716052e+001
0	 5.066659999995866e+000	 2.866680000008067e+000	 1.046759280253852e+001
0	 5.066659999995866e+000	 2.933340000004133e+000	 1.046580122532733e+001
0	 5.066659999995867e+000	 3.000000000000000e+000	 1.046348062633497e+001
0	 5.066659999995866e+000	 3.066659999995866e+000	 1.046059747636950e+001
0	 5.066659999995867e+000	 3.133319999991934e+000	 1.045711824623897e+001
0	 5.066659999995868e+000	 3.199979999988400e+000	 1.045300940675146e+001
0	 5.066659999995868e+000	 3.266639999985467e+000	 1.044823742871506e+001
0	 5.066659999995866e+000	 3.333299999983334e+000	 1.044276878293791e+001
0	 5.133319999991933e+000	 2.666700000016667e+000	 1.045502930451072e+001
0	 5.133319999991935e+000	 2.733360000014533e+000	 1.045450222160746e+001
0	 5.133319999991932e+000	 2.800020000011599e+000	 1.045366265396858e+001
0	 5.133319999991932e+000	 2.866680000008067e+000	 1.045247716524202e+001
0	 5.133319999991933e+000	 2.933340000004133e+000	 1.045091231907577e+001
0	 5.133319999991935e+000	 3.000000000000000e+000	 1.044893467911783e+001
0	 5.133319999991934e+000	 3.066659999995868e+000	 1.044651080901622e+001
0	 5.133319999991932e+000	 3.133319999991933e+000	 1.044360727241896e+001
0	 5.133319999991933e+000	 3.199979999988400e+000	 1.044019063297409e+001
0	 5.133319999991934e+000	 3.266639999985467e+000	 1.043622745432968e+001
0	 5.133319999991931e+000	 3.333299999983333e+000	 1.043168430013381e+001
0	 5.199979999988400e+000	 2.666700000016666e+000	 1.044018891115345e+001
0	 5.199979999988398e+000	 2.733360000014533e+000	 1.043956394966680e+001
0	 5.199979999988401e+000	 2.800020000011600e+000	 1.043872337173422e+001
0	 5.199979999988399e+000	 2.866680000008067e+000	 1.043763675791010e+001
0	 5.199979999988400e+000	 2.933340000004133e+000	 1.043627368874878e+001
0	 5.199979999988399e+000	 3.000000000000000e+000	 1.043460374480464e+001
0	 5.199979999988400e+000	 3.066659999995867e+000	 1.043259650663208e+001
0	 5.199979999988399e+000	 3.133319999991933e+000	 1.043022155478549e+001
0	 5.199979999988400e+000	 3.199979999988401e+000	 1.042744846981929e+001
0	 5.199979999988398e+000	 3.266639999985467e+000	 1.042424683228794e+001
0	 5.199979999988399e+000	 3.333299999983334e+000	 1.042058622274585e+001
0	 5.266639999985465e+000	 2.666700000016666e+000	 1.042590153940791e+001
0	 5.266639999985464e+000	 2.733360000014533e+000	 1.042522552139391e+001
0	 5.266639999985467e+000	 2.800020000011600e+000	 1.042440274836710e+001
0	 5.266639999985466e+000	 2.866680000008066e+000	 1.042340874185464e+001
0	 5.266639999985465e+000	 2.933340000004133e+000	 1.042221902338369e+001
0	 5.266639999985466e+000	 3.000000000000000e+000	 1.042080911448140e+001
0	 5.266639999985466e+000	 3.066659999995868e+000	 1.041915453667495e+001
0	 5.266639999985465e+000	 3.133319999991933e+000	 1.041723081149153e+001
0	 5.266639999985467e+000	 3.199979999988400e+000	 1.041501346045834e+001
0	 5.266639999985465e+000	 3.266639999985467e+000	 1.041247800510261e+001
0	 5.266639999985465e+000	 3.333299999983333e+000	 1.040959996695152e+001
0	 5.333299999983334e+000	 2.666700000016666e+000	 1.041246121334883e+001
0	 5.333299999983334e+000	 2.733360000014532e+000	 1.041180426561937e+001
0	 5.333299999983334e+000	 2.800020000011599e+000	 1.041103249177681e+001
0	 5.333299999983334e+000	 2.866680000008067e+000	 1.041013027838752e+001
0	 5.333299999983335e+000	 2.933340000004133e+000	 1.040908201201783e+001
0	 5.333299999983333e+000	 3.000000000000000e+000	 1.040787207923411e+001
0	 5.333299999983334e+000	 3.066659999995867e+000	 1.040648486660273e+001
0	 5.333299999983334e+000	 3.133319999991934e+000	 1.040490476069006e+001
0	 5.333299999983333e+000	 3.199979999988401e+000	 1.040311614806252e+001
0	 5.333299999983334e+000	 3.266639999985468e+000	 1.040110341528648e+001
0	 5.333299999983335e+000	 3.333299999983334e+000	 1.039885094892835e+001
0	 4.666700000016666e+000	 3.333299999983334e+000	 1.050196688756120e+001
0	 4.666700000016665e+000	 3.399969999982150e+000	 1.049301159002423e+001
0	 4.666700000016666e+000	 3.466639999981866e+000	 1.048435957094781e+001
0	 4.666700000016666e+000	 3.533309999982382e+000	 1.047595516873776e+001
0	 4.666700000016665e+000	 3.599979999983599e+000	 1.046774272179982e+001
0	 4.666700000016667e+000	 3.666649999985417e+000	 1.045966656853979e+001
0	 4.666700000016667e+000	 3.733319999987733e+000	 1.045167104736347e+001
0	 4.666700000016666e+000	 3.799989999990449e+000	 1.044370049667660e+001
0	 4.666700000016667e+000	 3.866659999993467e+000	 1.043569925488497e+001
0	 4.666700000016666e+000	 3.933329999996684e+000	 1.042761166039433e+001
0	 4.666700000016667e+000	 4.000000000000001e+000	 1.041938205161046e+001
0	 4.733360000014534e+000	 3.333299999983334e+000	 1.049359771198782e+001
0	 4.733360000014534e+000	 3.399969999982150e+000	 1.048458133615528e+001
0	 4.733360000014533e+000	 3.466639999981868e+000	 1.047589151911162e+001
0	 4.733360000014533e+000	 3.533309999982383e+000	 1.046748520987122e+001
0	 4.733360000014534e+000	 3.599979999983600e+000	 1.045931935744848e+001
0	 4.733360000014534e+000	 3.666649999985415e+000	 1.045135091085777e+001
0	 4.733360000014534e+000	 3.733319999987733e+000	 1.044353681911349e+001
0	 4.733360000014531e+000	 3.799989999990450e+000	 1.043583403123001e+001
0	 4.733360000014534e+000	 3.866659999993467e+000	 1.042819949622172e+001
0	 4.733360000014534e+000	 3.933329999996684e+000	 1.042059016310302e+001
0	 4.733360000014533e+000	 4.000000000000000e+000	 1.041296298088825e+001
0	 4.800020000011601e+000	 3.333299999983335e+000	 1.048446244476558e+001
0	 4.800020000011601e+000	 3.399969999982150e+000	 1.047569346805407e+001
0	 4.800020000011599e+000	 3.466639999981866e+000	 1.046723187445255e+001
0	 4.800020000011600e+000	 3.533309999982383e+000	 1.045904561087888e+001
0	 4.800020000011598e+000	 3.599979999983599e+000	 1.045110262425088e+001
0	 4.800020000011599e+000	 3.666649999985417e+000	 1.044337086148641e+001
0	 4.800020000011599e+000	 3.733319999987733e+000	 1.043581826950329e+001
0	 4.800020000011600e+000	 3.799989999990451e+000	 1.042841279521936e+001
0	 4.800020000011599e+000	 3.866659999993466e+000	 1.042112238555245e+001
0	 4.800020000011600e+000	 3.933329999996684e+000	 1.041391498742039e+001
0	 4.800020000011600e+000	 4.000000000000000e+000	 1.040675854774101e+001
0	 4.866680000008066e+000	 3.333299999983333e+000	 1.047468650207198e+001
0	 4.866680000008066e+000	 3.399969999982150e+000	 1.046641625608357e+001
0	 4.866680000008066e+000	 3.466639999981866e+000	 1.045840046668602e+001
0	 4.866680000008066e+000	 3.533309999982382e+000	 1.045061646599549e+001
0	 4.866680000008066e+000	 3.599979999983599e+000	 1.044304158612810e+001
0	 4.866680000008067e+000	 3.666649999985417e+000	 1.043565315919997e+001
0	 4.866680000008068e+000	 3.733319999987734e+000	 1.042842851732724e+001
0	 4.866680000008066e+000	 3.799989999990450e+000	 1.042134499262606e+001
0	 4.866680000008066e+000	 3.866659999993467e+000	 1.041437991721253e+001
0	 4.866680000008066e+000	 3.933329999996684e+000	 1.040751062320279e+001
0	 4.866680000008067e+000	 4.000000000000001e+000	 1.040071444271296e+001
0	 4.933340000004134e+000	 3.333299999983334e+000	 1.046439530008450e+001
0	 4.933340000004133e+000	 3.399969999982149e+000	 1.045681797060675e+001
0	 4.933340000004134e+000	 3.466639999981867e+000	 1.044941712552743e+001
0	 4.933340000004134e+000	 3.533309999982384e+000	 1.044217786945579e+001
0	 4.933340000004135e+000	 3.599979999983600e+000	 1.043508530700112e+001
0	 4.933340000004133e+000	 3.666649999985416e+000	 1.042812454277268e+001
0	 4.933340000004134e+000	 3.733319999987733e+000	 1.042128068137973e+001
0	 4.933340000004133e+000	 3.799989999990450e+000	 1.041453882743155e+001
0	 4.933340000004135e+000	 3.866659999993468e+000	 1.040788408553741e+001
0	 4.933340000004135e+000	 3.933329999996684e+000	 1.040130156030656e+001
0	 4.933340000004135e+000	 4.000000000000001e+000	 1.039477635634827e+001
0	 4.999999999999999e+000	 3.333299999983334e+000	 1.045371425498064e+001
0	 5.000000000000000e+000	 3.399969999982150e+000	 1.044696688198663e+001
0	 5.000000000000000e+000	 3.466639999981867e+000	 1.044030168069219e+001
0	 5.000000000000000e+000	 3.533309999982383e+000	 1.043370991549455e+001
0	 5.000000000000001e+000	 3.599979999983600e+000	 1.042718285079100e+001
0	 4.999999999999999e+000	 3.666649999985416e+000	 1.042071175097877e+001
0	 5.000000000000002e+000	 3.733319999987733e+000	 1.041428788045512e+001
0	 5.000000000000002e+000	 3.799989999990450e+000	 1.040790250361728e+001
0	 5.000000000000001e+000	 3.866659999993467e+000	 1.040154688486252e+001
0	 5.000000000000002e+000	 3.933329999996685e+000	 1.039521228858804e+001
0	 5.000000000000000e+000	 4.000000000000001e+000	 1.038888997919113e+001
0	 5.066659999995866e+000	 3.333299999983334e+000	 1.044276878293791e+001
0	 5.066659999995867e+000	 3.399969999982150e+000	 1.043693126058618e+001
0	 5.066659999995867e+000	 3.466639999981866e+000	 1.043107396189570e+001
0	 5.066659999995866e+000	 3.533309999982384e+000	 1.042519269834654e+001
0	 5.066659999995868e+000	 3.599979999983600e+000	 1.041928328141879e+001
0	 5.066659999995867e+000	 3.666649999985416e+000	 1.041334152259252e+001
0	 5.066659999995867e+000	 3.733319999987733e+000	 1.040736323334779e+001
0	 5.066659999995869e+000	 3.799989999990451e+000	 1.040134422516469e+001
0	 5.066659999995866e+000	 3.866659999993466e+000	 1.039528030952327e+001
0	 5.066659999995867e+000	 3.933329999996685e+000	 1.038916729790359e+001
0	 5.066659999995867e+000	 4.000000000000000e+000	 1.038300100178573e+001
0	 5.133319999991931e+000	 3.333299999983333e+000	 1.043168430013381e+001
0	 5.133319999991933e+000	 3.399969999982150e+000	 1.042677937676840e+001
0	 5.133319999991933e+000	 3.466639999981867e+000	 1.042175379885338e+001
0	 5.133319999991932e+000	 3.533309999982383e+000	 1.041660631224650e+001
0	 5.133319999991933e+000	 3.599979999983600e+000	 1.041133566280551e+001
0	 5.133319999991934e+000	 3.666649999985416e+000	 1.040594059638814e+001
0	 5.133319999991934e+000	 3.733319999987733e+000	 1.040041985885213e+001
0	 5.133319999991934e+000	 3.799989999990450e+000	 1.039477219605520e+001
0	 5.133319999991933e+000	 3.866659999993467e+000	 1.038899635385510e+001
0	 5.133319999991932e+000	 3.933329999996683e+000	 1.038309107810954e+001
0	 5.133319999991932e+000	 4.000000000000001e+000	 1.037705511467625e+001
0	 5.199979999988399e+000	 3.333299999983334e+000	 1.042058622274585e+001
0	 5.199979999988398e+000	 3.399969999982150e+000	 1.041657950089628e+001
0	 5.199979999988400e+000	 3.466639999981868e+000	 1.041236102128065e+001
0	 5.199979999988400e+000	 3.533309999982383e+000	 1.040793085142922e+001
0	 5.199979999988400e+000	 3.599979999983599e+000	 1.040328905887221e+001
0	 5.199979999988400e+000	 3.666649999985417e+000	 1.039843571113990e+001
0	 5.199979999988400e+000	 3.733319999987733e+000	 1.039337087576250e+001
0	 5.199979999988400e+000	 3.799989999990451e+000	 1.038809462027027e+001
0	 5.199979999988399e+000	 3.866659999993466e+000	 1.038260701219345e+001
0	 5.199979999988399e+000	 3.933329999996684e+000	 1.037690811906224e+001
0	 5.199979999988400e+000	 4.000000000000001e+000	 1.037099800840688e+001
0	 5.266639999985465e+000	 3.333299999983333e+000	 1.040959996695152e+001
0	 5.266639999985467e+000	 3.399969999982150e+000	 1.040639990333283e+001
0	 5.266639999985465e+000	 3.466639999981867e+000	 1.040291545889293e+001
0	 5.266639999985467e+000	 3.533309999982383e+000	 1.039914641012943e+001
0	 5.266639999985466e+000	 3.599979999983600e+000	 1.039509253353994e+001
0	 5.266639999985466e+000	 3.666649999985417e+000	 1.039075360562204e+001
0	 5.266639999985467e+000	 3.733319999987733e+000	 1.038612940287332e+001
0	 5.266639999985466e+000	 3.799989999990450e+000	 1.038121970179135e+001
0	 5.266639999985466e+000	 3.866659999993467e+000	 1.037602427887373e+001
0	 5.266639999985466e+000	 3.933329999996684e+000	 1.037054291061803e+001
0	 5.266639999985465e+000	 4.000000000000000e+000	 1.036477537352181e+001
0	 5.333299999983335e+000	 3.333299999983334e+000	 1.039885094892835e+001
0	 5.333299999983331e+000	 3.399969999982149e+000	 1.039630885444104e+001
0	 5.333299999983335e+000	 3.466639999981866e+000	 1.039343694140564e+001
0	 5.333299999983334e+000	 3.533309999982383e+000	 1.039023308258195e+001
0	 5.333299999983335e+000	 3.599979999983600e+000	 1.038669515072974e+001
0	 5.333299999983335e+000	 3.666649999985416e+000	 1.038282101860880e+001
0	 5.333299999983334e+000	 3.733319999987733e+000	 1.037860855897893e+001
0	 5.333299999983333e+000	 3.799989999990450e+000	 1.037405564459987e+001
0	 5.333299999983334e+000	 3.866659999993467e+000	 1.036916014823138e+001
0	 5.333299999983335e+000	 3.933329999996684e+000	 1.036391994263325e+001
0	 5.333299999983334e+000	 4.000000000000000e+000	 1.035833290056522e+001
0	 4.666700000016667e+000	 4.000000000000001e+000	 1.041938205161046e+001
0	 4.666700000016666e+000	 4.066670000003317e+000	 1.041102004758905e+001
0	 4.666700000016666e+000	 4.133340000006535e+000	 1.040257719925882e+001
0	 4.666700000016667e+000	 4.200010000009550e+000	 1.039406074283506e+001
0	 4.666700000016666e+000	 4.266680000012268e+000	 1.038547791453308e+001
0	 4.666700000016665e+000	 4.333350000014583e+000	 1.037683595056815e+001
0	 4.666700000016665e+000	 4.400020000016400e+000	 1.036814208715558e+001
0	 4.666700000016667e+000	 4.466690000017618e+000	 1.035940356051067e+001
0	 4.666700000016666e+000	 4.533360000018134e+000	 1.035062760684869e+001
0	 4.666700000016668e+000	 4.600030000017852e+000	 1.034182146238494e+001
0	 4.666700000016666e+000	 4.666700000016666e+000	 1.033299236333471e+001
0	 4.733360000014533e+000	 4.000000000000000e+000	 1.041296298088825e+001
0	 4.733360000014532e+000	 4.066670000003317e+000	 1.040525809184403e+001
0	 4.733360000014533e+000	 4.133340000006534e+000	 1.039744610787216e+001
0	 4.733360000014532e+000	 4.200010000009551e+000	 1.038952968243969e+001
0	 4.733360000014533e+000	 4.266680000012268e+000	 1.038151146901370e+001
0	 4.733360000014534e+000	 4.333350000014584e+000	 1.037339412106128e+001
0	 4.733360000014533e+000	 4.400020000016402e+000	 1.036518029204948e+001
0	 4.733360000014533e+000	 4.466690000017618e+000	 1.035687263544539e+001
0	 4.733360000014533e+000	 4.533360000018131e+000	 1.034847380471606e+001
0	 4.733360000014534e+000	 4.600030000017852e+000	 1.033998645332859e+001
0	 4.733360000014533e+000	 4.666700000016665e+000	 1.033141323475000e+001
0	 4.800020000011600e+000	 4.000000000000000e+000	 1.040675854774102e+001
0	 4.800020000011599e+000	 4.066670000003316e+000	 1.039955853252533e+001
0	 4.800020000011600e+000	 4.133340000006532e+000	 1.039224086107178e+001
0	 4.800020000011601e+000	 4.200010000009550e+000	 1.038480416022934e+001
0	 4.800020000011600e+000	 4.266680000012267e+000	 1.037724705684700e+001
0	 4.800020000011600e+000	 4.333350000014584e+000	 1.036956817777373e+001
0	 4.800020000011600e+000	 4.400020000016401e+000	 1.036176614985851e+001
0	 4.800020000011600e+000	 4.466690000017619e+000	 1.035383959995032e+001
0	 4.800020000011598e+000	 4.533360000018132e+000	 1.034578715489812e+001
0	 4.800020000011601e+000	 4.600030000017850e+000	 1.033760744155089e+001
0	 4.800020000011601e+000	 4.666700000016666e+000	 1.032929908675757e+001
0	 4.866680000008067e+000	 4.000000000000001e+000	 1.040071444271297e+001
0	 4.866680000008067e+000	 4.066670000003319e+000	 1.039389114332732e+001
0	 4.866680000008066e+000	 4.133340000006533e+000	 1.038695237546005e+001
0	 4.866680000008065e+000	 4.200010000009550e+000	 1.037989329547218e+001
0	 4.866680000008066e+000	 4.266680000012268e+000	 1.037270905972470e+001
0	 4.866680000008068e+000	 4.333350000014586e+000	 1.036539482457862e+001
0	 4.866680000008066e+000	 4.400020000016400e+000	 1.035794574639494e+001
0	 4.866680000008068e+000	 4.466690000017619e+000	 1.035035698153465e+001
0	 4.866680000008067e+000	 4.533360000018135e+000	 1.034262368635876e+001
0	 4.866680000008065e+000	 4.600030000017850e+000	 1.033474101722825e+001
0	 4.866680000008067e+000	 4.666700000016666e+000	 1.032670413050412e+001
0	 4.933340000004135e+000	 4.000000000000001e+000	 1.039477635634827e+001
0	 4.933340000004134e+000	 4.066670000003317e+000	 1.038822569794439e+001
0	 4.933340000004133e+000	 4.133340000006534e+000	 1.038157156763937e+001
0	 4.933340000004134e+000	 4.200010000009550e+000	 1.037480620743636e+001
0	 4.933340000004133e+000	 4.266680000012266e+000	 1.036792185933852e+001
0	 4.933340000004133e+000	 4.333350000014583e+000	 1.036091076534901e+001
0	 4.933340000004133e+000	 4.400020000016400e+000	 1.035376516747097e+001
0	 4.933340000004134e+000	 4.466690000017618e+000	 1.034647730770754e+001
0	 4.933340000004134e+000	 4.533360000018133e+000	 1.033903942806188e+001
0	 4.933340000004132e+000	 4.600030000017849e+000	 1.033144377053711e+001
0	 4.933340000004135e+000	 4.666700000016668e+000	 1.032368257713637e+001
0	 5.000000000000000e+000	 4.000000000000001e+000	 1.038888997919113e+001
0	 5.000000000000002e+000	 4.066670000003318e+000	 1.038253197007093e+001
0	 5.000000000000001e+000	 4.133340000006534e+000	 1.037608935421211e+001
0	 5.000000000000002e+000	 4.200010000009551e+000	 1.036955201539005e+001
0	 5.000000000000001e+000	 4.266680000012268e+000	 1.036290983738022e+001
0	 5.000000000000000e+000	 4.333350000014583e+000	 1.035615270395801e+001
0	 5.000000000000001e+000	 4.400020000016402e+000	 1.034927049889886e+001
0	 5.000000000000000e+000	 4.466690000017617e+000	 1.034225310597818e+001
0	 5.000000000000001e+000	 4.533360000018135e+000	 1.033509040897138e+001
0	 4.999999999999999e+000	 4.600030000017849e+000	 1.032777229165387e+001
0	 5.000000000000000e+000	 4.666700000016665e+000	 1.032028863780107e+001
0	 5.066659999995867e+000	 4.000000000000000e+000	 1.038300100178573e+001
0	 5.066659999995867e+000	 4.066670000003318e+000	 1.037677973340135e+001
0	 5.066659999995867e+000	 4.133340000006535e+000	 1.037049665178063e+001
0	 5.066659999995866e+000	 4.200010000009550e+000	 1.036413983860140e+001
0	 5.066659999995867e+000	 4.266680000012268e+000	 1.035769737554150e+001
0	 5.066659999995866e+000	 4.333350000014584e+000	 1.035115734427870e+001
0	 5.066659999995868e+000	 4.400020000016403e+000	 1.034450782649084e+001
0	 5.066659999995866e+000	 4.466690000017617e+000	 1.033773690385573e+001
0	 5.066659999995868e+000	 4.533360000018134e+000	 1.033083265805117e+001
0	 5.066659999995866e+000	 4.600030000017851e+000	 1.032378317075497e+001
0	 5.066659999995866e+000	 4.666700000016666e+000	 1.031657652364492e+001
0	 5.133319999991932e+000	 4.000000000000001e+000	 1.037705511467625e+001
0	 5.133319999991933e+000	 4.066670000003318e+000	 1.037093876163000e+001
0	 5.133319999991933e+000	 4.133340000006535e+000	 1.036478437694734e+001
0	 5.133319999991935e+000	 4.200010000009552e+000	 1.035857879633858e+001
0	 5.133319999991933e+000	 4.266680000012268e+000	 1.035230885551409e+001
0	 5.133319999991934e+000	 4.333350000014585e+000	 1.034596139018416e+001
0	 5.133319999991934e+000	 4.400020000016400e+000	 1.033952323605913e+001
0	 5.133319999991933e+000	 4.466690000017619e+000	 1.033298122884935e+001
0	 5.133319999991932e+000	 4.533360000018133e+000	 1.032632220426513e+001
0	 5.133319999991933e+000	 4.600030000017851e+000	 1.031953299801678e+001
0	 5.133319999991934e+000	 4.666700000016666e+000	 1.031260044581463e+001
0	 5.199979999988400e+000	 4.000000000000001e+000	 1.037099800840688e+001
0	 5.199979999988399e+000	 4.066670000003317e+000	 1.036497882845130e+001
0	 5.199979999988398e+000	 4.133340000006534e+000	 1.035894344631460e+001
0	 5.199979999988399e+000	 4.200010000009550e+000	 1.035287800786974e+001
0	 5.199979999988400e+000	 4.266680000012268e+000	 1.034676865898970e+001
0	 5.199979999988401e+000	 4.333350000014585e+000	 1.034060154554746e+001
0	 5.199979999988400e+000	 4.400020000016402e+000	 1.033436281341598e+001
0	 5.199979999988399e+000	 4.466690000017616e+000	 1.032803860846823e+001
0	 5.199979999988400e+000	 4.533360000018133e+000	 1.032161507657717e+001
0	 5.199979999988399e+000	 4.600030000017850e+000	 1.031507836361575e+001
0	 5.199979999988399e+000	 4.666700000016666e+000	 1.030841461545694e+001
0	 5.266639999985465e+000	 4.000000000000000e+000	 1.036477537352181e+001
0	 5.266639999985466e+000	 4.066670000003318e+000	 1.035886970755962e+001
0	 5.266639999985465e+000	 4.133340000006534e+000	 1.035296477648477e+001
0	 5.266639999985465e+000	 4.200010000009550e+000	 1.034704659246302e+001
0	 5.266639999985466e+000	 4.266680000012267e+000	 1.034110116766008e+001
0	 5.266639999985467e+000	 4.333350000014584e+000	 1.033511451424171e+001
0	 5.266639999985466e+000	 4.400020000016401e+000	 1.032907264437361e+001
0	 5.266639999985466e+000	 4.466690000017618e+000	 1.032296157022151e+001
0	 5.266639999985466e+000	 4.533360000018134e+000	 1.031676730395116e+001
0	 5.266639999985466e+000	 4.600030000017851e+000	 1.031047585772827e+001
0	 5.266639999985466e+000	 4.666700000016667e+000	 1.030407324371856e+001
0	 5.333299999983334e+000	 4.000000000000000e+000	 1.035833290056522e+001
0	 5.333299999983332e+000	 4.066670000003316e+000	 1.035258117264933e+001
0	 5.333299999983334e+000	 4.133340000006534e+000	 1.034683928406025e+001
0	 5.333299999983336e+000	 4.200010000009550e+000	 1.034109366938658e+001
0	 5.333299999983333e+000	 4.266680000012268e+000	 1.033533076321695e+001
0	 5.333299999983335e+000	 4.333350000014584e+000	 1.032953700013995e+001
0	 5.333299999983333e+000	 4.400020000016401e+000	 1.032369881474424e+001
0	 5.333299999983334e+000	 4.466690000017618e+000	 1.031780264161839e+001
0	 5.333299999983334e+000	 4.533360000018134e+000	 1.031183491535103e+001
0	 5.333299999983333e+000	 4.600030000017851e+000	 1.030578207053076e+001
0	 5.333299999983335e+000	 4.666700000016667e+000	 1.029963054174620e+001
0	 4.666700000016666e+000	 4.666700000016666e+000	 1.033299236333471e+001
0	 4.666700000016666e+000	 4.733360000014534e+000	 1.032425089797476e+001
0	 4.666700000016665e+000	 4.800020000011599e+000	 1.031568714190814e+001
0	 4.666700000016666e+000	 4.866680000008067e+000	 1.030728153931463e+001
0	 4.666700000016667e+000	 4.933340000004135e+000	 1.029901453437399e+001
0	 4.666700000016666e+000	 5.000000000000001e+000	 1.029086657126602e+001
0	 4.666700000016667e+000	 5.066659999995867e+000	 1.028281809417049e+001
0	 4.666700000016666e+000	 5.133319999991935e+000	 1.027484954726716e+001
0	 4.666700000016665e+000	 5.199979999988400e+000	 1.026694137473580e+001
0	 4.666700000016667e+000	 5.266639999985468e+000	 1.025907402075620e+001
0	 4.666700000016667e+000	 5.333299999983335e+000	 1.025122792950813e+001
0	 4.733360000014533e+000	 4.666700000016665e+000	 1.033141323475000e+001
0	 4.733360000014534e+000	 4.733360000014534e+000	 1.032288736016535e+001
0	 4.733360000014533e+000	 4.800020000011600e+000	 1.031452571718126e+001
0	 4.733360000014534e+000	 4.866680000008067e+000	 1.030631035057392e+001
0	 4.733360000014534e+000	 4.933340000004135e+000	 1.029822330511948e+001
0	 4.733360000014534e+000	 4.999999999999999e+000	 1.029024662559410e+001
0	 4.733360000014534e+000	 5.066659999995867e+000	 1.028236235677395e+001
0	 4.733360000014534e+000	 5.133319999991935e+000	 1.027455254343518e+001
0	 4.733360000014534e+000	 5.199979999988400e+000	 1.026679923035395e+001
0	 4.733360000014534e+000	 5.266639999985467e+000	 1.025908446230643e+001
0	 4.733360000014534e+000	 5.333299999983335e+000	 1.025139028406878e+001
0	 4.800020000011601e+000	 4.666700000016666e+000	 1.032929908675757e+001
0	 4.800020000011601e+000	 4.733360000014534e+000	 1.032100787343001e+001
0	 4.800020000011601e+000	 4.800020000011601e+000	 1.031286702851742e+001
0	 4.800020000011601e+000	 4.866680000008067e+000	 1.030486011264642e+001
0	 4.800020000011599e+000	 4.933340000004133e+000	 1.029697068644365e+001
0	 4.800020000011601e+000	 5.000000000000001e+000	 1.028918231053569e+001
0	 4.800020000011600e+000	 5.066659999995867e+000	 1.028147854554921e+001
0	 4.800020000011601e+000	 5.133319999991934e+000	 1.027384295211081e+001
0	 4.800020000011600e+000	 5.199979999988400e+000	 1.026625909084710e+001
0	 4.800020000011601e+000	 5.266639999985467e+000	 1.025871052238472e+001
0	 4.800020000011600e+000	 5.333299999983335e+000	 1.025118080735029e+001
0	 4.866680000008067e+000	 4.666700000016666e+000	 1.032670413050412e+001
0	 4.866680000008067e+000	 4.733360000014534e+000	 1.031866287830128e+001
0	 4.866680000008068e+000	 4.800020000011600e+000	 1.031075790175349e+001
0	 4.866680000008065e+000	 4.866680000008067e+000	 1.030297419259188e+001
0	 4.866680000008066e+000	 4.933340000004133e+000	 1.029529674254763e+001
0	 4.866680000008067e+000	 4.999999999999999e+000	 1.028771054335188e+001
0	 4.866680000008066e+000	 5.066659999995866e+000	 1.028020058673579e+001
0	 4.866680000008066e+000	 5.133319999991934e+000	 1.027275186443052e+001
0	 4.866680000008067e+000	 5.199979999988401e+000	 1.026534936816724e+001
0	 4.866680000008067e+000	 5.266639999985467e+000	 1.025797808967708e+001
0	 4.866680000008066e+000	 5.333299999983334e+000	 1.025062302069121e+001
0	 4.933340000004135e+000	 4.666700000016668e+000	 1.032368257713638e+001
0	 4.933340000004135e+000	 4.733360000014533e+000	 1.031590281531169e+001
0	 4.933340000004132e+000	 4.800020000011599e+000	 1.030824516272631e+001
0	 4.933340000004134e+000	 4.866680000008067e+000	 1.030069595747001e+001
0	 4.933340000004135e+000	 4.933340000004134e+000	 1.029324153763253e+001
0	 4.933340000004134e+000	 5.000000000000000e+000	 1.028586824130366e+001
0	 4.933340000004134e+000	 5.066659999995868e+000	 1.027856240657315e+001
0	 4.933340000004134e+000	 5.133319999991934e+000	 1.027131037153078e+001
0	 4.933340000004132e+000	 5.199979999988400e+000	 1.026409847426631e+001
0	 4.933340000004136e+000	 5.266639999985469e+000	 1.025691305286950e+001
0	 4.933340000004134e+000	 5.333299999983335e+000	 1.024974044543012e+001
0	 5.000000000000000e+000	 4.666700000016665e+000	 1.032028863780107e+001
0	 5.000000000000001e+000	 4.733360000014534e+000	 1.031277812499377e+001
0	 5.000000000000001e+000	 4.800020000011600e+000	 1.030537563727278e+001
0	 5.000000000000001e+000	 4.866680000008067e+000	 1.029806877434054e+001
0	 5.000000000000001e+000	 4.933340000004134e+000	 1.029084513589949e+001
0	 5.000000000000001e+000	 5.000000000000000e+000	 1.028369232165210e+001
0	 5.000000000000001e+000	 5.066659999995866e+000	 1.027659793130079e+001
0	 5.000000000000001e+000	 5.133319999991935e+000	 1.026954956454804e+001
0	 5.000000000000001e+000	 5.199979999988400e+000	 1.026253482109627e+001
0	 5.000000000000001e+000	 5.266639999985467e+000	 1.025554130064795e+001
0	 5.000000000000000e+000	 5.333299999983333e+000	 1.024855660290553e+001
0	 5.066659999995866e+000	 4.666700000016666e+000	 1.031657652364492e+001
0	 5.066659999995868e+000	 4.733360000014535e+000	 1.030933924788006e+001
0	 5.066659999995868e+000	 4.800020000011601e+000	 1.030219615122974e+001
0	 5.066659999995866e+000	 4.866680000008067e+000	 1.029513601026321e+001
0	 5.066659999995868e+000	 4.933340000004136e+000	 1.028814760154963e+001
0	 5.066659999995867e+000	 5.000000000000001e+000	 1.028121970165821e+001
0	 5.066659999995867e+000	 5.066659999995867e+000	 1.027434108715818e+001
0	 5.066659999995868e+000	 5.133319999991935e+000	 1.026750053461874e+001
0	 5.066659999995868e+000	 5.199979999988401e+000	 1.026068682060908e+001
0	 5.066659999995868e+000	 5.266639999985467e+000	 1.025388872169843e+001
0	 5.066659999995866e+000	 5.333299999983335e+000	 1.024709501445600e+001
0	 5.133319999991934e+000	 4.666700000016666e+000	 1.031260044581463e+001
0	 5.133319999991934e+000	 4.733360000014534e+000	 1.030563662450307e+001
0	 5.133319999991933e+000	 4.800020000011601e+000	 1.029875353043408e+001
0	 5.133319999991933e+000	 4.866680000008067e+000	 1.029194103229773e+001
0	 5.133319999991934e+000	 4.933340000004135e+000	 1.028518899878405e+001
0	 5.133319999991934e+000	 5.000000000000000e+000	 1.027848729858305e+001
0	 5.133319999991933e+000	 5.066659999995866e+000	 1.027182580038482e+001
0	 5.133319999991933e+000	 5.133319999991934e+000	 1.026519437287935e+001
0	 5.133319999991933e+000	 5.199979999988400e+000	 1.025858288475671e+001
0	 5.133319999991934e+000	 5.266639999985468e+000	 1.025198120470693e+001
0	 5.133319999991933e+000	 5.333299999983334e+000	 1.024537920142007e+001
0	 5.199979999988399e+000	 4.666700000016666e+000	 1.030841461545694e+001
0	 5.199979999988399e+000	 4.733360000014533e+000	 1.030172069539533e+001
0	 5.199979999988399e+000	 4.800020000011600e+000	 1.029509460072265e+001
0	 5.199979999988400e+000	 4.866680000008068e+000	 1.028852720750385e+001
0	 5.199979999988400e+000	 4.933340000004134e+000	 1.028200939180386e+001
0	 5.199979999988400e+000	 5.000000000000000e+000	 1.027553202968765e+001
0	 5.199979999988400e+000	 5.066659999995867e+000	 1.026908599722016e+001
0	 5.199979999988399e+000	 5.133319999991934e+000	 1.026266217046632e+001
0	 5.199979999988400e+000	 5.199979999988401e+000	 1.025625142549110e+001
0	 5.199979999988400e+000	 5.266639999985467e+000	 1.024984463835943e+001
0	 5.199979999988400e+000	 5.333299999983335e+000	 1.024343268513627e+001
0	 5.266639999985466e+000	 4.666700000016667e+000	 1.030407324371856e+001
0	 5.266639999985465e+000	 4.733360000014534e+000	 1.029764190108937e+001
0	 5.266639999985467e+000	 4.800020000011601e+000	 1.029126618793230e+001
0	 5.266639999985467e+000	 4.866680000008067e+000	 1.028493790294126e+001
0	 5.266639999985465e+000	 4.933340000004133e+000	 1.027864884481020e+001
0	 5.266639999985465e+000	 4.999999999999999e+000	 1.027239081223304e+001
0	 5.266639999985465e+000	 5.066659999995867e+000	 1.026615560390370e+001
0	 5.266639999985467e+000	 5.133319999991935e+000	 1.025993501851611e+001
0	 5.266639999985467e+000	 5.199979999988401e+000	 1.025372085476421e+001
0	 5.266639999985466e+000	 5.266639999985468e+000	 1.024750491134191e+001
0	 5.266639999985465e+000	 5.333299999983333e+000	 1.024127898694316e+001
0	 5.333299999983335e+000	 4.666700000016667e+000	 1.029963054174620e+001
0	 5.333299999983333e+000	 4.733360000014533e+000	 1.029345068211770e+001
0	 5.333299999983335e+000	 4.800020000011600e+000	 1.028731511789989e+001
0	 5.333299999983335e+000	 4.866680000008068e+000	 1.028121648566971e+001
0	 5.333299999983335e+000	 4.933340000004134e+000	 1.027514742200417e+001
0	 5.333299999983333e+000	 5.000000000000000e+000	 1.026910056348024e+001
0	 5.333299999983334e+000	 5.066659999995866e+000	 1.026306854667492e+001
0	 5.333299999983335e+000	 5.133319999991934e+000	 1.025704400816516e+001
0	 5.333299999983333e+000	 5.199979999988400e+000	 1.025101958452798e+001
0	 5.333299999983334e+000	 5.266639999985467e+000	 1.024498791234035e+001
0	 5.333299999983333e+000	 5.333299999983333e+000	 1.023894162817926e+001
0	 4.666700000016667e+000	 5.333299999983335e+000	 1.025122792950814e+001
0	 4.666700000016665e+000	 5.399969999982150e+000	 1.024347090674423e+001
0	 4.666700000016666e+000	 5.466639999981867e+000	 1.023588565137151e+001
0	 4.666700000016665e+000	 5.533309999982382e+000	 1.022847141805806e+001
0	 4.666700000016666e+000	 5.599979999983599e+000	 1.022122746147199e+001
0	 4.666700000016665e+000	 5.666649999985416e+000	 1.021415303628141e+001
0	 4.666700000016666e+000	 5.733319999987732e+000	 1.020724739715442e+001
0	 4.666700000016666e+000	 5.799989999990449e+000	 1.020050979875913e+001
0	 4.666700000016666e+000	 5.866659999993467e+000	 1.019393949576365e+001
0	 4.666700000016667e+000	 5.933329999996684e+000	 1.018753574283609e+001
0	 4.666700000016666e+000	 6.000000000000000e+000	 1.018129779464456e+001
0	 4.733360000014534e+000	 5.333299999983335e+000	 1.025139028406878e+001
0	 4.733360000014534e+000	 5.399969999982151e+000	 1.024378067024153e+001
0	 4.733360000014533e+000	 5.466639999981866e+000	 1.023633320890323e+001
0	 4.733360000014532e+000	 5.533309999982382e+000	 1.022904690426019e+001
0	 4.733360000014534e+000	 5.599979999983600e+000	 1.022192076051867e+001
0	 4.733360000014534e+000	 5.666649999985416e+000	 1.021495378188499e+001
0	 4.733360000014534e+000	 5.733319999987733e+000	 1.020814497256545e+001
0	 4.733360000014533e+000	 5.799989999990449e+000	 1.020149333676634e+001
0	 4.733360000014533e+000	 5.866659999993466e+000	 1.019499787869399e+001
0	 4.733360000014533e+000	 5.933329999996683e+000	 1.018865760255468e+001
0	 4.733360000014533e+000	 5.999999999999999e+000	 1.018247151255471e+001
0	 4.800020000011600e+000	 5.333299999983335e+000	 1.025118080735028e+001
0	 4.800020000011600e+000	 5.399969999982150e+000	 1.024373019985275e+001
0	 4.800020000011599e+000	 5.466639999981864e+000	 1.023643132054025e+001
0	 4.800020000011600e+000	 5.533309999982384e+000	 1.022928289291387e+001
0	 4.800020000011600e+000	 5.599979999983599e+000	 1.022228364047469e+001
0	 4.800020000011600e+000	 5.666649999985417e+000	 1.021543228672379e+001
0	 4.800020000011599e+000	 5.733319999987732e+000	 1.020872755516226e+001
0	 4.800020000011600e+000	 5.799989999990451e+000	 1.020216816929117e+001
0	 4.800020000011599e+000	 5.866659999993465e+000	 1.019575285261161e+001
0	 4.800020000011599e+000	 5.933329999996684e+000	 1.018948032862467e+001
0	 4.800020000011601e+000	 6.000000000000000e+000	 1.018334932083143e+001
0	 4.866680000008066e+000	 5.333299999983334e+000	 1.025062302069121e+001
0	 4.866680000008065e+000	 5.399969999982148e+000	 1.024334086535294e+001
0	 4.866680000008066e+000	 5.466639999981866e+000	 1.023619948083042e+001
0	 4.866680000008067e+000	 5.533309999982384e+000	 1.022919727967611e+001
0	 4.866680000008066e+000	 5.599979999983598e+000	 1.022233267444245e+001
0	 4.866680000008066e+000	 5.666649999985416e+000	 1.021560407768190e+001
0	 4.866680000008067e+000	 5.733319999987733e+000	 1.020900990194691e+001
0	 4.866680000008067e+000	 5.799989999990451e+000	 1.020254855978994e+001
0	 4.866680000008065e+000	 5.866659999993467e+000	 1.019621846376343e+001
0	 4.866680000008065e+000	 5.933329999996684e+000	 1.019001802641985e+001
0	 4.866680000008067e+000	 6.000000000000002e+000	 1.018394566031166e+001
0	 4.933340000004134e+000	 5.333299999983335e+000	 1.024974044543012e+001
0	 4.933340000004133e+000	 5.399969999982149e+000	 1.024263403651719e+001
0	 4.933340000004134e+000	 5.466639999981867e+000	 1.023565718432165e+001
0	 4.933340000004134e+000	 5.533309999982382e+000	 1.022880796020390e+001
0	 4.933340000004135e+000	 5.599979999983601e+000	 1.022208443552435e+001
0	 4.933340000004133e+000	 5.666649999985416e+000	 1.021548468164341e+001
0	 4.933340000004133e+000	 5.733319999987733e+000	 1.020900676992149e+001
0	 4.933340000004134e+000	 5.799989999990450e+000	 1.020264877171901e+001
0	 4.933340000004133e+000	 5.866659999993466e+000	 1.019640875839638e+001
0	 4.933340000004134e+000	 5.933329999996683e+000	 1.019028480131401e+001
0	 4.933340000004133e+000	 5.999999999999998e+000	 1.018427497183233e+001
0	 5.000000000000000e+000	 5.333299999983333e+000	 1.024855660290553e+001
0	 5.000000000000000e+000	 5.399969999982149e+000	 1.024163108312057e+001
0	 5.000000000000001e+000	 5.466639999981866e+000	 1.023482392556182e+001
0	 5.000000000000001e+000	 5.533309999982384e+000	 1.022813283015424e+001
0	 5.000000000000000e+000	 5.599979999983601e+000	 1.022155549682278e+001
0	 4.999999999999999e+000	 5.666649999985416e+000	 1.021508962549240e+001
0	 5.000000000000001e+000	 5.733319999987733e+000	 1.020873291608806e+001
0	 5.000000000000001e+000	 5.799989999990450e+000	 1.020248306853473e+001
0	 5.000000000000001e+000	 5.866659999993466e+000	 1.019633778275736e+001
0	 5.000000000000002e+000	 5.933329999996683e+000	 1.019029475868092e+001
0	 5.000000000000001e+000	 6.000000000000000e+000	 1.018435169623038e+001
0	 5.066659999995866e+000	 5.333299999983335e+000	 1.024709501445600e+001
0	 5.066659999995867e+000	 5.399969999982150e+000	 1.024035337493815e+001
0	 5.066659999995867e+000	 5.466639999981866e+000	 1.023371919909882e+001
0	 5.066659999995865e+000	 5.533309999982381e+000	 1.022718978518412e+001
0	 5.066659999995867e+000	 5.599979999983598e+000	 1.022076243144013e+001
0	 5.066659999995866e+000	 5.666649999985416e+000	 1.021443443611296e+001
0	 5.066659999995866e+000	 5.733319999987733e+000	 1.020820309744870e+001
0	 5.066659999995869e+000	 5.799989999990451e+000	 1.020206571369345e+001
0	 5.066659999995866e+000	 5.866659999993466e+000	 1.019601958309331e+001
0	 5.066659999995867e+000	 5.933329999996683e+000	 1.019006200389437e+001
0	 5.066659999995866e+000	 5.999999999999999e+000	 1.018419027434275e+001
0	 5.133319999991933e+000	 5.333299999983334e+000	 1.024537920142007e+001
0	 5.133319999991933e+000	 5.399969999982150e+000	 1.023882228174498e+001
0	 5.133319999991932e+000	 5.466639999981866e+000	 1.023236249948053e+001
0	 5.133319999991933e+000	 5.533309999982383e+000	 1.022599672095053e+001
0	 5.133319999991934e+000	 5.599979999983600e+000	 1.021972181247881e+001
0	 5.133319999991934e+000	 5.666649999985416e+000	 1.021353464038919e+001
0	 5.133319999991934e+000	 5.733319999987732e+000	 1.020743207100548e+001
0	 5.133319999991933e+000	 5.799989999990447e+000	 1.020141097065152e+001
0	 5.133319999991934e+000	 5.866659999993467e+000	 1.019546820565112e+001
0	 5.133319999991933e+000	 5.933329999996683e+000	 1.018960064232812e+001
0	 5.133319999991934e+000	 6.000000000000001e+000	 1.018380514700634e+001
0	 5.199979999988400e+000	 5.333299999983335e+000	 1.024343268513627e+001
0	 5.199979999988400e+000	 5.399969999982149e+000	 1.023705917331614e+001
0	 5.199979999988400e+000	 5.466639999981865e+000	 1.023077332125482e+001
0	 5.199979999988400e+000	 5.533309999982384e+000	 1.022457153311046e+001
0	 5.199979999988398e+000	 5.599979999983598e+000	 1.021845021304118e+001
0	 5.199979999988401e+000	 5.666649999985417e+000	 1.021240576520514e+001
0	 5.199979999988400e+000	 5.733319999987733e+000	 1.020643459376045e+001
0	 5.199979999988399e+000	 5.799989999990449e+000	 1.020053310286527e+001
0	 5.199979999988400e+000	 5.866659999993467e+000	 1.019469769667772e+001
0	 5.199979999988400e+000	 5.933329999996683e+000	 1.018892477935596e+001
0	 5.199979999988400e+000	 6.000000000000002e+000	 1.018321075505811e+001
0	 5.266639999985465e+000	 5.333299999983333e+000	 1.024127898694316e+001
0	 5.266639999985466e+000	 5.399969999982151e+000	 1.023508541942670e+001
0	 5.266639999985467e+000	 5.466639999981866e+000	 1.022897115896959e+001
0	 5.266639999985465e+000	 5.533309999982384e+000	 1.022293211732090e+001
0	 5.266639999985466e+000	 5.599979999983599e+000	 1.021696420622967e+001
0	 5.266639999985466e+000	 5.666649999985417e+000	 1.021106333744492e+001
0	 5.266639999985467e+000	 5.733319999987733e+000	 1.020522542271570e+001
0	 5.266639999985466e+000	 5.799989999990451e+000	 1.019944637379105e+001
0	 5.266639999985466e+000	 5.866659999993466e+000	 1.019372210242003e+001
0	 5.266639999985466e+000	 5.933329999996684e+000	 1.018804852035165e+001
0	 5.266639999985465e+000	 5.999999999999998e+000	 1.018242153933497e+001
0	 5.333299999983333e+000	 5.333299999983333e+000	 1.023894162817926e+001
0	 5.333299999983333e+000	 5.399969999982149e+000	 1.023292238985169e+001
0	 5.333299999983334e+000	 5.466639999981867e+000	 1.022697550717270e+001
0	 5.333299999983334e+000	 5.533309999982384e+000	 1.022109636923884e+001
0	 5.333299999983334e+000	 5.599979999983600e+000	 1.021528036514662e+001
0	 5.333299999983334e+000	 5.666649999985415e+000	 1.020952288399258e+001
0	 5.333299999983335e+000	 5.733319999987733e+000	 1.020381931487328e+001
0	 5.333299999983334e+000	 5.799989999990448e+000	 1.019816504688521e+001
0	 5.333299999983333e+000	 5.866659999993467e+000	 1.019255546912493e+001
0	 5.333299999983335e+000	 5.933329999996684e+000	 1.018698597068897e+001
0	 5.333299999983333e+000	 5.999999999999998e+000	 1.018145194067385e+001
0	 4.666700000016666e+000	 6.000000000000000e+000	 1.018129779464456e+001
0	 4.666700000016665e+000	 6.066670000003318e+000	 1.017520731799543e+001
0	 4.666700000016667e+000	 6.133340000006533e+000	 1.016924468978412e+001
0	 4.666700000016666e+000	 6.200010000009551e+000	 1.016340722981235e+001
0	 4.666700000016667e+000	 6.266680000012267e+000	 1.015769225788189e+001
0	 4.666700000016667e+000	 6.333350000014587e+000	 1.015209709379442e+001
0	 4.666700000016666e+000	 6.400020000016402e+000	 1.014661905735171e+001
0	 4.666700000016667e+000	 6.466690000017617e+000	 1.014125546835547e+001
0	 4.666700000016666e+000	 6.533360000018133e+000	 1.013600364660744e+001
0	 4.666700000016666e+000	 6.600030000017847e+000	 1.013086091190939e+001
0	 4.666700000016666e+000	 6.666700000016667e+000	 1.012582458406302e+001
0	 4.733360000014533e+000	 5.999999999999999e+000	 1.018247151255471e+001
0	 4.733360000014531e+000	 6.066670000003316e+000	 1.017642538697060e+001
0	 4.733360000014533e+000	 6.133340000006532e+000	 1.017050360522241e+001
0	 4.733360000014532e+000	 6.200010000009550e+000	 1.016470307323183e+001
0	 4.733360000014534e+000	 6.266680000012268e+000	 1.015902069692047e+001
0	 4.733360000014533e+000	 6.333350000014584e+000	 1.015345338221003e+001
0	 4.733360000014533e+000	 6.400020000016400e+000	 1.014799803502218e+001
0	 4.733360000014533e+000	 6.466690000017619e+000	 1.014265156127855e+001
0	 4.733360000014533e+000	 6.533360000018132e+000	 1.013741086690083e+001
0	 4.733360000014534e+000	 6.600030000017850e+000	 1.013227285781068e+001
0	 4.733360000014534e+000	 6.666700000016669e+000	 1.012723443992977e+001
0	 4.800020000011601e+000	 6.000000000000000e+000	 1.018334932083143e+001
0	 4.800020000011599e+000	 6.066670000003315e+000	 1.017735046952034e+001
0	 4.800020000011597e+000	 6.133340000006532e+000	 1.017147297493795e+001
0	 4.800020000011599e+000	 6.200010000009551e+000	 1.016571340052258e+001
0	 4.800020000011599e+000	 6.266680000012264e+000	 1.016006830971247e+001
0	 4.800020000011600e+000	 6.333350000014585e+000	 1.015453426594593e+001
0	 4.800020000011601e+000	 6.400020000016402e+000	 1.014910783266127e+001
0	 4.800020000011600e+000	 6.466690000017618e+000	 1.014378557329673e+001
0	 4.800020000011599e+000	 6.533360000018134e+000	 1.013856405129064e+001
0	 4.800020000011601e+000	 6.600030000017850e+000	 1.013343983008126e+001
0	 4.800020000011601e+000	 6.666700000016667e+000	 1.012840947310690e+001
0	 4.866680000008067e+000	 6.000000000000002e+000	 1.018394566031166e+001
0	 4.866680000008066e+000	 6.066670000003316e+000	 1.017799740160088e+001
0	 4.866680000008066e+000	 6.133340000006532e+000	 1.017216787298232e+001
0	 4.866680000008067e+000	 6.200010000009551e+000	 1.016645336680758e+001
0	 4.866680000008067e+000	 6.266680000012268e+000	 1.016085017542825e+001
0	 4.866680000008067e+000	 6.333350000014585e+000	 1.015535459119595e+001
0	 4.866680000008066e+000	 6.400020000016401e+000	 1.014996290646226e+001
0	 4.866680000008068e+000	 6.466690000017618e+000	 1.014467141357880e+001
0	 4.866680000008066e+000	 6.533360000018134e+000	 1.013947640489718e+001
0	 4.866680000008065e+000	 6.600030000017849e+000	 1.013437417276899e+001
0	 4.866680000008068e+000	 6.666700000016667e+000	 1.012936100954585e+001
0	 4.933340000004133e+000	 5.999999999999998e+000	 1.018427497183233e+001
0	 4.933340000004134e+000	 6.066670000003318e+000	 1.017838101916849e+001
0	 4.933340000004133e+000	 6.133340000006531e+000	 1.017260337340712e+001
0	 4.933340000004134e+000	 6.200010000009551e+000	 1.016693812720980e+001
0	 4.933340000004134e+000	 6.266680000012268e+000	 1.016138137323818e+001
0	 4.933340000004135e+000	 6.333350000014584e+000	 1.015592920415386e+001
0	 4.933340000004135e+000	 6.400020000016403e+000	 1.015057771261843e+001
0	 4.933340000004134e+000	 6.466690000017617e+000	 1.014532299129352e+001
0	 4.933340000004133e+000	 6.533360000018134e+000	 1.014016113284075e+001
0	 4.933340000004134e+000	 6.600030000017849e+000	 1.013508822992171e+001
0	 4.933340000004135e+000	 6.666700000016668e+000	 1.013010037519806e+001
0	 5.000000000000001e+000	 6.000000000000000e+000	 1.018435169623038e+001
0	 5.000000000000003e+000	 6.066670000003318e+000	 1.017851615817941e+001
0	 5.000000000000000e+000	 6.133340000006531e+000	 1.017279455026393e+001
0	 5.000000000000002e+000	 6.200010000009551e+000	 1.016718283685223e+001
0	 5.000000000000001e+000	 6.266680000012268e+000	 1.016167698231266e+001
0	 5.000000000000000e+000	 6.333350000014584e+000	 1.015627295101349e+001
0	 5.000000000000001e+000	 6.400020000016401e+000	 1.015096670732305e+001
0	 4.999999999999999e+000	 6.466690000017617e+000	 1.014575421560967e+001
0	 5.000000000000000e+000	 6.533360000018134e+000	 1.014063144024165e+001
0	 4.999999999999998e+000	 6.600030000017848e+000	 1.013559434558732e+001
0	 4.999999999999999e+000	 6.666700000016665e+000	 1.013063889601498e+001
0	 5.066659999995866e+000	 5.999999999999999e+000	 1.018419027434275e+001
0	 5.066659999995866e+000	 6.066670000003317e+000	 1.017841765458989e+001
0	 5.066659999995866e+000	 6.133340000006534e+000	 1.017275647760435e+001
0	 5.066659999995867e+000	 6.200010000009553e+000	 1.016720265085782e+001
0	 5.066659999995867e+000	 6.266680000012268e+000	 1.016175208182201e+001
0	 5.066659999995866e+000	 6.333350000014583e+000	 1.015640067796864e+001
0	 5.066659999995868e+000	 6.400020000016402e+000	 1.015114434676940e+001
0	 5.066659999995866e+000	 6.466690000017616e+000	 1.014597899569601e+001
0	 5.066659999995868e+000	 6.533360000018134e+000	 1.014090053222017e+001
0	 5.066659999995866e+000	 6.600030000017849e+000	 1.013590486381361e+001
0	 5.066659999995866e+000	 6.666700000016666e+000	 1.013098789794802e+001
0	 5.133319999991934e+000	 6.000000000000001e+000	 1.018380514700634e+001
0	 5.133319999991932e+000	 6.066670000003318e+000	 1.017810034435617e+001
0	 5.133319999991935e+000	 6.133340000006536e+000	 1.017250422947997e+001
0	 5.133319999991934e+000	 6.200010000009552e+000	 1.016701272434952e+001
0	 5.133319999991933e+000	 6.266680000012267e+000	 1.016162175093665e+001
0	 5.133319999991933e+000	 6.333350000014583e+000	 1.015632723121312e+001
0	 5.133319999991933e+000	 6.400020000016400e+000	 1.015112508715075e+001
0	 5.133319999991933e+000	 6.466690000017620e+000	 1.014601124072131e+001
0	 5.133319999991932e+000	 6.533360000018132e+000	 1.014098161389662e+001
0	 5.133319999991933e+000	 6.600030000017851e+000	 1.013603212864845e+001
0	 5.133319999991932e+000	 6.666700000016667e+000	 1.013115870694864e+001
0	 5.199979999988400e+000	 6.000000000000002e+000	 1.018321075505811e+001
0	 5.199979999988400e+000	 6.066670000003317e+000	 1.017757906343449e+001
0	 5.199979999988400e+000	 6.133340000006535e+000	 1.017205287994237e+001
0	 5.199979999988400e+000	 6.200010000009552e+000	 1.016662821245033e+001
0	 5.199979999988400e+000	 6.266680000012268e+000	 1.016130106882693e+001
0	 5.199979999988400e+000	 6.333350000014584e+000	 1.015606745694074e+001
0	 5.199979999988400e+000	 6.400020000016402e+000	 1.015092338466035e+001
0	 5.199979999988400e+000	 6.466690000017617e+000	 1.014586485985434e+001
0	 5.199979999988400e+000	 6.533360000018134e+000	 1.014088789039125e+001
0	 5.199979999988398e+000	 6.600030000017849e+000	 1.013598848413971e+001
0	 5.199979999988400e+000	 6.666700000016667e+000	 1.013116264896826e+001
0	 5.266639999985465e+000	 5.999999999999998e+000	 1.018242153933497e+001
0	 5.266639999985466e+000	 6.066670000003317e+000	 1.017686864778110e+001
0	 5.266639999985466e+000	 6.133340000006534e+000	 1.017141750304315e+001
0	 5.266639999985466e+000	 6.200010000009551e+000	 1.016606427028317e+001
0	 5.266639999985467e+000	 6.266680000012267e+000	 1.016080511466321e+001
0	 5.266639999985467e+000	 6.333350000014585e+000	 1.015563620134529e+001
0	 5.266639999985464e+000	 6.400020000016398e+000	 1.015055369549149e+001
0	 5.266639999985466e+000	 6.466690000017616e+000	 1.014555376226384e+001
0	 5.266639999985466e+000	 6.533360000018135e+000	 1.014063256682439e+001
0	 5.266639999985466e+000	 6.600030000017850e+000	 1.013578627433519e+001
0	 5.266639999985466e+000	 6.666700000016667e+000	 1.013101104995831e+001
0	 5.333299999983333e+000	 5.999999999999998e+000	 1.018145194067385e+001
0	 5.333299999983334e+000	 6.066670000003317e+000	 1.017598393335224e+001
0	 5.333299999983333e+000	 6.133340000006530e+000	 1.017061317283389e+001
0	 5.333299999983334e+000	 6.200010000009550e+000	 1.016533605297102e+001
0	 5.333299999983335e+000	 6.266680000012268e+000	 1.016014896761585e+001
0	 5.333299999983334e+000	 6.333350000014584e+000	 1.015504831062058e+001
0	 5.333299999983335e+000	 6.400020000016401e+000	 1.015003047583742e+001
0	 5.333299999983334e+000	 6.466690000017618e+000	 1.014509185711860e+001
0	 5.333299999983333e+000	 6.533360000018132e+000	 1.014022884831631e+001
0	 5.333299999983333e+000	 6.600030000017849e+000	 1.013543784328278e+001
0	 5.333299999983334e+000	 6.666700000016665e+000	 1.013071523587023e+001
0	 4.666700000016666e+000	 6.666700000016667e+000	 1.012582458406302e+001
0	 4.666700000016666e+000	 6.733360000014533e+000	 1.012090288575833e+001
0	 4.666700000016665e+000	 6.800020000011599e+000	 1.011610378391749e+001
0	 4.666700000016666e+000	 6.866680000008066e+000	 1.011142645738628e+001
0	 4.666700000016666e+000	 6.933340000004132e+000	 1.010687008501057e+001
0	 4.666700000016666e+000	 6.999999999999999e+000	 1.010243384563615e+001
0	 4.666700000016666e+000	 7.066659999995867e+000	 1.009811691810883e+001
0	 4.666700000016667e+000	 7.133319999991935e+000	 1.009391848127445e+001
0	 4.666700000016666e+000	 7.199979999988400e+000	 1.008983771397878e+001
0	 4.666700000016667e+000	 7.266639999985467e+000	 1.008587379506766e+001
0	 4.666700000016665e+000	 7.333299999983333e+000	 1.008202590338687e+001
0	 4.733360000014534e+000	 6.666700000016669e+000	 1.012723443992977e+001
0	 4.733360000014534e+000	 6.733360000014533e+000	 1.012230526983967e+001
0	 4.733360000014533e+000	 6.800020000011599e+000	 1.011749510761958e+001
0	 4.733360000014535e+000	 6.866680000008067e+000	 1.011280325966956e+001
0	 4.733360000014534e+000	 6.933340000004134e+000	 1.010822903238959e+001
0	 4.733360000014534e+000	 6.999999999999999e+000	 1.010377173217972e+001
0	 4.733360000014534e+000	 7.066659999995869e+000	 1.009943066543994e+001
0	 4.733360000014534e+000	 7.133319999991936e+000	 1.009520513857028e+001
0	 4.733360000014533e+000	 7.199979999988400e+000	 1.009109445797073e+001
0	 4.733360000014534e+000	 7.266639999985467e+000	 1.008709793004130e+001
0	 4.733360000014534e+000	 7.333299999983334e+000	 1.008321486118199e+001
0	 4.800020000011601e+000	 6.666700000016667e+000	 1.012840947310690e+001
0	 4.800020000011602e+000	 6.733360000014534e+000	 1.012348343646148e+001
0	 4.800020000011601e+000	 6.800020000011601e+000	 1.011867256469343e+001
0	 4.800020000011601e+000	 6.866680000008066e+000	 1.011397624686728e+001
0	 4.800020000011600e+000	 6.933340000004134e+000	 1.010939387204751e+001
0	 4.800020000011601e+000	 7.000000000000001e+000	 1.010492482929868e+001
0	 4.800020000011600e+000	 7.066659999995865e+000	 1.010056850768527e+001
0	 4.800020000011600e+000	 7.133319999991935e+000	 1.009632429627184e+001
0	 4.800020000011601e+000	 7.199979999988401e+000	 1.009219158412286e+001
0	 4.800020000011600e+000	 7.266639999985466e+000	 1.008816976030285e+001
0	 4.800020000011600e+000	 7.333299999983334e+000	 1.008425821387633e+001
0	 4.866680000008068e+000	 6.666700000016667e+000	 1.012936100954585e+001
0	 4.866680000008067e+000	 6.733360000014533e+000	 1.012444765882522e+001
0	 4.866680000008068e+000	 6.800020000011601e+000	 1.011964546297820e+001
0	 4.866680000008068e+000	 6.866680000008069e+000	 1.011495384884412e+001
0	 4.866680000008067e+000	 6.933340000004133e+000	 1.011037224326231e+001
0	 4.866680000008066e+000	 6.999999999999997e+000	 1.010590007307208e+001
0	 4.866680000008066e+000	 7.066659999995866e+000	 1.010153676511275e+001
0	 4.866680000008066e+000	 7.133319999991934e+000	 1.009728174622365e+001
0	 4.866680000008067e+000	 7.199979999988402e+000	 1.009313444324410e+001
0	 4.866680000008068e+000	 7.266639999985467e+000	 1.008909428301340e+001
0	 4.866680000008069e+000	 7.333299999983334e+000	 1.008516069237089e+001
0	 4.933340000004135e+000	 6.666700000016668e+000	 1.013010037519806e+001
0	 4.933340000004136e+000	 6.733360000014533e+000	 1.012520821013228e+001
0	 4.933340000004133e+000	 6.800020000011601e+000	 1.012042311031304e+001
0	 4.933340000004134e+000	 6.866680000008068e+000	 1.011574449546479e+001
0	 4.933340000004133e+000	 6.933340000004134e+000	 1.011117178531194e+001
0	 4.933340000004135e+000	 7.000000000000001e+000	 1.010670439957895e+001
0	 4.933340000004134e+000	 7.066659999995870e+000	 1.010234175799024e+001
0	 4.933340000004133e+000	 7.133319999991933e+000	 1.009808328027023e+001
0	 4.933340000004133e+000	 7.199979999988400e+000	 1.009392838614337e+001
0	 4.933340000004136e+000	 7.266639999985467e+000	 1.008987649533406e+001
0	 4.933340000004134e+000	 7.333299999983335e+000	 1.008592702756672e+001
0	 4.999999999999999e+000	 6.666700000016665e+000	 1.013063889601498e+001
0	 5.000000000000002e+000	 6.733360000014533e+000	 1.012577536358407e+001
0	 5.000000000000001e+000	 6.800020000011600e+000	 1.012101481453711e+001
0	 5.000000000000000e+000	 6.866680000008067e+000	 1.011635661659394e+001
0	 5.000000000000002e+000	 6.933340000004133e+000	 1.011180013747442e+001
0	 5.000000000000000e+000	 7.000000000000000e+000	 1.010734474489838e+001
0	 5.000000000000001e+000	 7.066659999995868e+000	 1.010298980658567e+001
0	 5.000000000000002e+000	 7.133319999991935e+000	 1.009873469025612e+001
0	 5.000000000000001e+000	 7.199979999988400e+000	 1.009457876362959e+001
0	 5.000000000000003e+000	 7.266639999985468e+000	 1.009052139442590e+001
0	 5.000000000000000e+000	 7.333299999983335e+000	 1.008656195036488e+001
0	 5.066659999995866e+000	 6.666700000016666e+000	 1.013098789794802e+001
0	 5.066659999995868e+000	 6.733360000014533e+000	 1.012615939238200e+001
0	 5.066659999995868e+000	 6.800020000011601e+000	 1.012142988348955e+001
0	 5.066659999995868e+000	 6.866680000008066e+000	 1.011679864209626e+001
0	 5.066659999995868e+000	 6.933340000004133e+000	 1.011226493902769e+001
0	 5.066659999995868e+000	 7.000000000000001e+000	 1.010782804510939e+001
0	 5.066659999995867e+000	 7.066659999995867e+000	 1.010348723116691e+001
0	 5.066659999995867e+000	 7.133319999991936e+000	 1.009924176802582e+001
0	 5.066659999995867e+000	 7.199979999988400e+000	 1.009509092651168e+001
0	 5.066659999995867e+000	 7.266639999985467e+000	 1.009103397745001e+001
0	 5.066659999995866e+000	 7.333299999983335e+000	 1.008707019166639e+001
0	 5.133319999991932e+000	 6.666700000016667e+000	 1.013115870694864e+001
0	 5.133319999991935e+000	 6.733360000014533e+000	 1.012637056972747e+001
0	 5.133319999991933e+000	 6.800020000011601e+000	 1.012167762500954e+001
0	 5.133319999991932e+000	 6.866680000008067e+000	 1.011707900183643e+001
0	 5.133319999991933e+000	 6.933340000004133e+000	 1.011257382924972e+001
0	 5.133319999991935e+000	 7.000000000000000e+000	 1.010816123629103e+001
0	 5.133319999991934e+000	 7.066659999995866e+000	 1.010384035200187e+001
0	 5.133319999991933e+000	 7.133319999991934e+000	 1.009961030542385e+001
0	 5.133319999991932e+000	 7.199979999988401e+000	 1.009547022559853e+001
0	 5.133319999991934e+000	 7.266639999985467e+000	 1.009141924156750e+001
0	 5.133319999991932e+000	 7.333299999983334e+000	 1.008745648237231e+001
0	 5.199979999988400e+000	 6.666700000016667e+000	 1.013116264896826e+001
0	 5.199979999988399e+000	 6.733360000014533e+000	 1.012641916882189e+001
0	 5.199979999988400e+000	 6.800020000011601e+000	 1.012176734693620e+001
0	 5.199979999988399e+000	 6.866680000008066e+000	 1.011720612567912e+001
0	 5.199979999988399e+000	 6.933340000004133e+000	 1.011273444741853e+001
0	 5.199979999988399e+000	 6.999999999999998e+000	 1.010835125452233e+001
0	 5.199979999988399e+000	 7.066659999995867e+000	 1.010405548935843e+001
0	 5.199979999988399e+000	 7.133319999991933e+000	 1.009984609429472e+001
0	 5.199979999988400e+000	 7.199979999988400e+000	 1.009572201169909e+001
0	 5.199979999988399e+000	 7.266639999985465e+000	 1.009168218393943e+001
0	 5.199979999988399e+000	 7.333299999983332e+000	 1.008772555338364e+001
0	 5.266639999985466e+000	 6.666700000016667e+000	 1.013101104995831e+001
0	 5.266639999985465e+000	 6.733360000014532e+000	 1.012631546286668e+001
0	 5.266639999985467e+000	 6.800020000011600e+000	 1.012170835710872e+001
0	 5.266639999985466e+000	 6.866680000008068e+000	 1.011718844348900e+001
0	 5.266639999985466e+000	 6.933340000004134e+000	 1.011275443281205e+001
0	 5.266639999985466e+000	 7.000000000000000e+000	 1.010840503588236e+001
0	 5.266639999985467e+000	 7.066659999995866e+000	 1.010413896350449e+001
0	 5.266639999985466e+000	 7.133319999991934e+000	 1.009995492648294e+001
0	 5.266639999985467e+000	 7.199979999988402e+000	 1.009585163562224e+001
0	 5.266639999985466e+000	 7.266639999985467e+000	 1.009182780172690e+001
0	 5.266639999985465e+000	 7.333299999983333e+000	 1.008788213560144e+001
0	 5.333299999983334e+000	 6.666700000016665e+000	 1.013071523587023e+001
0	 5.333299999983335e+000	 6.733360000014533e+000	 1.012606972506320e+001
0	 5.333299999983335e+000	 6.800020000011599e+000	 1.012150996336624e+001
0	 5.333299999983333e+000	 6.866680000008065e+000	 1.011703438513076e+001
0	 5.333299999983336e+000	 6.933340000004135e+000	 1.011264142470825e+001
0	 5.333299999983333e+000	 6.999999999999998e+000	 1.010832951645017e+001
0	 5.333299999983335e+000	 7.066659999995868e+000	 1.010409709470795e+001
0	 5.333299999983334e+000	 7.133319999991935e+000	 1.009994259383305e+001
0	 5.333299999983335e+000	 7.199979999988400e+000	 1.009586444817692e+001
0	 5.333299999983336e+000	 7.266639999985467e+000	 1.009186109209100e+001
0	 5.333299999983334e+000	 7.333299999983334e+000	 1.008793095992673e+001
0	 4.666700000016665e+000	 7.333299999983333e+000	 1.008202590338687e+001
0	 4.666700000016665e+000	 7.399969999982149e+000	 1.007828003622289e+001
0	 4.666700000016666e+000	 7.466639999981866e+000	 1.007462354247727e+001
0	 4.666700000016665e+000	 7.533309999982382e+000	 1.007105592267957e+001
0	 4.666700000016666e+000	 7.599979999983599e+000	 1.006757667735938e+001
0	 4.666700000016667e+000	 7.666649999985417e+000	 1.006418530704627e+001
0	 4.666700000016667e+000	 7.733319999987733e+000	 1.006088131226981e+001
0	 4.666700000016665e+000	 7.799989999990450e+000	 1.005766419355955e+001
0	 4.666700000016665e+000	 7.866659999993466e+000	 1.005453345144509e+001
0	 4.666700000016666e+000	 7.933329999996682e+000	 1.005148858645599e+001
0	 4.666700000016665e+000	 7.999999999999998e+000	 1.004852909912185e+001
0	 4.733360000014534e+000	 7.333299999983334e+000	 1.008321486118199e+001
0	 4.733360000014534e+000	 7.399969999982149e+000	 1.007943317452586e+001
0	 4.733360000014534e+000	 7.466639999981867e+000	 1.007574181427479e+001
0	 4.733360000014533e+000	 7.533309999982382e+000	 1.007213989630320e+001
0	 4.733360000014534e+000	 7.599979999983600e+000	 1.006862653648540e+001
0	 4.733360000014534e+000	 7.666649999985416e+000	 1.006520085069576e+001
0	 4.733360000014534e+000	 7.733319999987734e+000	 1.006186195480867e+001
0	 4.733360000014532e+000	 7.799989999990450e+000	 1.005860896469848e+001
0	 4.733360000014533e+000	 7.866659999993467e+000	 1.005544099623957e+001
0	 4.733360000014532e+000	 7.933329999996682e+000	 1.005235716530632e+001
0	 4.733360000014533e+000	 8.000000000000000e+000	 1.004935658777308e+001
0	 4.800020000011600e+000	 7.333299999983334e+000	 1.008425821387633e+001
0	 4.800020000011601e+000	 7.399969999982149e+000	 1.008044690620091e+001
0	 4.800020000011600e+000	 7.466639999981866e+000	 1.007672654789619e+001
0	 4.800020000011601e+000	 7.533309999982384e+000	 1.007309591627087e+001
0	 4.800020000011599e+000	 7.599979999983602e+000	 1.006955378863361e+001
0	 4.800020000011599e+000	 7.666649999985416e+000	 1.006609894229312e+001
0	 4.800020000011600e+000	 7.733319999987733e+000	 1.006273015455809e+001
0	 4.800020000011601e+000	 7.799989999990450e+000	 1.005944620273719e+001
0	 4.800020000011600e+000	 7.866659999993466e+000	 1.005624586413915e+001
0	 4.800020000011601e+000	 7.933329999996683e+000	 1.005312791607267e+001
0	 4.800020000011601e+000	 8.000000000000002e+000	 1.005009113584640e+001
0	 4.866680000008069e+000	 7.333299999983334e+000	 1.008516069237089e+001
0	 4.866680000008065e+000	 7.399969999982149e+000	 1.008132574446932e+001
0	 4.866680000008067e+000	 7.466639999981865e+000	 1.007758204872254e+001
0	 4.866680000008067e+000	 7.533309999982384e+000	 1.007392808996308e+001
0	 4.866680000008066e+000	 7.599979999983600e+000	 1.007036235302348e+001
0	 4.866680000008067e+000	 7.666649999985417e+000	 1.006688332273631e+001
0	 4.866680000008068e+000	 7.733319999987733e+000	 1.006348948393411e+001
0	 4.866680000008066e+000	 7.799989999990448e+000	 1.006017932144942e+001
0	 4.866680000008066e+000	 7.866659999993466e+000	 1.005695132011481e+001
0	 4.866680000008067e+000	 7.933329999996682e+000	 1.005380396476284e+001
0	 4.866680000008066e+000	 8.000000000000000e+000	 1.005073574022607e+001
0	 4.933340000004134e+000	 7.333299999983335e+000	 1.008592702756672e+001
0	 4.933340000004133e+000	 7.399969999982149e+000	 1.008207420255238e+001
0	 4.933340000004133e+000	 7.466639999981867e+000	 1.007831262213492e+001
0	 4.933340000004134e+000	 7.533309999982383e+000	 1.007464052476030e+001
0	 4.933340000004135e+000	 7.599979999983601e+000	 1.007105614887444e+001
0	 4.933340000004134e+000	 7.666649999985417e+000	 1.006755773292328e+001
0	 4.933340000004134e+000	 7.733319999987733e+000	 1.006414351535280e+001
0	 4.933340000004134e+000	 7.799989999990447e+000	 1.006081173460892e+001
0	 4.933340000004133e+000	 7.866659999993469e+000	 1.005756062913758e+001
0	 4.933340000004135e+000	 7.933329999996683e+000	 1.005438843738474e+001
0	 4.933340000004134e+000	 7.999999999999999e+000	 1.005129339779632e+001
0	 5.000000000000000e+000	 7.333299999983335e+000	 1.008656195036488e+001
0	 5.000000000000001e+000	 7.399969999982150e+000	 1.008269679367133e+001
0	 5.000000000000000e+000	 7.466639999981868e+000	 1.007892257351441e+001
0	 5.000000000000000e+000	 7.533309999982383e+000	 1.007523732804297e+001
0	 5.000000000000000e+000	 7.599979999983600e+000	 1.007163909540588e+001
0	 4.999999999999999e+000	 7.666649999985415e+000	 1.006812591375202e+001
0	 5.000000000000001e+000	 7.733319999987733e+000	 1.006469582123026e+001
0	 5.000000000000000e+000	 7.799989999990450e+000	 1.006134685598943e+001
0	 5.000000000000002e+000	 7.866659999993467e+000	 1.005807705617844e+001
0	 5.000000000000001e+000	 7.933329999996683e+000	 1.005488445994617e+001
0	 5.000000000000001e+000	 8.000000000000000e+000	 1.005176710544145e+001
0	 5.066659999995866e+000	 7.333299999983335e+000	 1.008707019166639e+001
0	 5.066659999995867e+000	 7.399969999982150e+000	 1.008319803104747e+001
0	 5.066659999995867e+000	 7.466639999981866e+000	 1.007941620824208e+001
0	 5.066659999995865e+000	 7.533309999982383e+000	 1.007572260719159e+001
0	 5.066659999995868e+000	 7.599979999983601e+000	 1.007211511183727e+001
0	 5.066659999995867e+000	 7.666649999985416e+000	 1.006859160612047e+001
0	 5.066659999995867e+000	 7.733319999987733e+000	 1.006514997398253e+001
0	 5.066659999995869e+000	 7.799989999990449e+000	 1.006178809936475e+001
0	 5.066659999995867e+000	 7.866659999993466e+000	 1.005850386620847e+001
0	 5.066659999995867e+000	 7.933329999996684e+000	 1.005529515845498e+001
0	 5.066659999995867e+000	 8.000000000000000e+000	 1.005215986004567e+001
0	 5.133319999991932e+000	 7.333299999983334e+000	 1.008745648237230e+001
0	 5.133319999991933e+000	 7.399969999982151e+000	 1.008358242790206e+001
0	 5.133319999991933e+000	 7.466639999981866e+000	 1.007979783169905e+001
0	 5.133319999991933e+000	 7.533309999982384e+000	 1.007610046958660e+001
0	 5.133319999991933e+000	 7.599979999983600e+000	 1.007248811738801e+001
0	 5.133319999991934e+000	 7.666649999985417e+000	 1.006895855092660e+001
0	 5.133319999991933e+000	 7.733319999987732e+000	 1.006550954602569e+001
0	 5.133319999991934e+000	 7.799989999990449e+000	 1.006213887850858e+001
0	 5.133319999991933e+000	 7.866659999993467e+000	 1.005884432419859e+001
0	 5.133319999991933e+000	 7.933329999996683e+000	 1.005562365891904e+001
0	 5.133319999991933e+000	 8.000000000000000e+000	 1.005247465849325e+001
0	 5.199979999988399e+000	 7.333299999983332e+000	 1.008772555338364e+001
0	 5.199979999988399e+000	 7.399969999982150e+000	 1.008385449745636e+001
0	 5.199979999988400e+000	 7.466639999981866e+000	 1.008007174926637e+001
0	 5.199979999988400e+000	 7.533309999982384e+000	 1.007637502260847e+001
0	 5.199979999988399e+000	 7.599979999983598e+000	 1.007276203127752e+001
0	 5.199979999988400e+000	 7.666649999985417e+000	 1.006923048906836e+001
0	 5.199979999988400e+000	 7.733319999987733e+000	 1.006577810977580e+001
0	 5.199979999988399e+000	 7.799989999990448e+000	 1.006240260719469e+001
0	 5.199979999988400e+000	 7.866659999993468e+000	 1.005910169511988e+001
0	 5.199979999988400e+000	 7.933329999996683e+000	 1.005587308734617e+001
0	 5.199979999988399e+000	 7.999999999999999e+000	 1.005271449766843e+001
0	 5.266639999985465e+000	 7.333299999983333e+000	 1.008788213560144e+001
0	 5.266639999985466e+000	 7.399969999982149e+000	 1.008401875293166e+001
0	 5.266639999985466e+000	 7.466639999981866e+000	 1.008024226632511e+001
0	 5.266639999985465e+000	 7.533309999982383e+000	 1.007655037363768e+001
0	 5.266639999985466e+000	 7.599979999983600e+000	 1.007294077272525e+001
0	 5.266639999985466e+000	 7.666649999985416e+000	 1.006941116144370e+001
0	 5.266639999985467e+000	 7.733319999987731e+000	 1.006595923764893e+001
0	 5.266639999985466e+000	 7.799989999990449e+000	 1.006258269919684e+001
0	 5.266639999985466e+000	 7.866659999993467e+000	 1.005927924394331e+001
0	 5.266639999985467e+000	 7.933329999996684e+000	 1.005604656974422e+001
0	 5.266639999985466e+000	 8.000000000000000e+000	 1.005288237445548e+001
0	 5.333299999983334e+000	 7.333299999983334e+000	 1.008793095992673e+001
0	 5.333299999983332e+000	 7.399969999982149e+000	 1.008407970754922e+001
0	 5.333299999983333e+000	 7.466639999981864e+000	 1.008031368825638e+001
0	 5.333299999983333e+000	 7.533309999982383e+000	 1.007663063005468e+001
0	 5.333299999983335e+000	 7.599979999983600e+000	 1.007302826095059e+001
0	 5.333299999983334e+000	 7.666649999985416e+000	 1.006950430895058e+001
0	 5.333299999983334e+000	 7.733319999987733e+000	 1.006605650206116e+001
0	 5.333299999983334e+000	 7.799989999990449e+000	 1.006268256828877e+001
0	 5.333299999983333e+000	 7.866659999993466e+000	 1.005938023563989e+001
0	 5.333299999983335e+000	 7.933329999996684e+000	 1.005614723212102e+001
0	 5.333299999983334e+000	 8.000000000000000e+000	 1.005298128573862e+001
0	 4.666700000016665e+000	 7.999999999999998e+000	 1.004852909912185e+001
0	 4.666700000016665e+000	 8.066670000003317e+000	 1.004565621010928e+001
0	 4.666700000016666e+000	 8.133340000006532e+000	 1.004286999747555e+001
0	 4.666700000016666e+000	 8.200010000009549e+000	 1.004016824783628e+001
0	 4.666700000016666e+000	 8.266680000012268e+000	 1.003754874780706e+001
0	 4.666700000016667e+000	 8.333350000014585e+000	 1.003500928400350e+001
0	 4.666700000016666e+000	 8.400020000016399e+000	 1.003254764304122e+001
0	 4.666700000016666e+000	 8.466690000017616e+000	 1.003016161153580e+001
0	 4.666700000016666e+000	 8.533360000018133e+000	 1.002784897610288e+001
0	 4.666700000016667e+000	 8.600030000017853e+000	 1.002560752335804e+001
0	 4.666700000016665e+000	 8.666700000016666e+000	 1.002343503991692e+001
0	 4.733360000014533e+000	 8.000000000000000e+000	 1.004935658777308e+001
0	 4.733360000014532e+000	 8.066670000003317e+000	 1.004644130395509e+001
0	 4.733360000014532e+000	 8.133340000006532e+000	 1.004361252853102e+001
0	 4.733360000014533e+000	 8.200010000009552e+000	 1.004086813892049e+001
0	 4.733360000014534e+000	 8.266680000012268e+000	 1.003820601254310e+001
0	 4.733360000014533e+000	 8.333350000014582e+000	 1.003562402681844e+001
0	 4.733360000014534e+000	 8.400020000016403e+000	 1.003312005916611e+001
0	 4.733360000014533e+000	 8.466690000017618e+000	 1.003069198700573e+001
0	 4.733360000014533e+000	 8.533360000018133e+000	 1.002833768775689e+001
0	 4.733360000014534e+000	 8.600030000017853e+000	 1.002605503883918e+001
0	 4.733360000014534e+000	 8.666700000016665e+000	 1.002384191767223e+001
0	 4.800020000011601e+000	 8.000000000000002e+000	 1.005009113584640e+001
0	 4.800020000011598e+000	 8.066670000003315e+000	 1.004713845119009e+001
0	 4.800020000011598e+000	 8.133340000006532e+000	 1.004427223241191e+001
0	 4.800020000011601e+000	 8.200010000009552e+000	 1.004149042068838e+001
0	 4.800020000011600e+000	 8.266680000012265e+000	 1.003879095719593e+001
0	 4.800020000011601e+000	 8.333350000014585e+000	 1.003617178311105e+001
0	 4.800020000011599e+000	 8.400020000016397e+000	 1.003363083961023e+001
0	 4.800020000011600e+000	 8.466690000017618e+000	 1.003116606786992e+001
0	 4.800020000011600e+000	 8.533360000018135e+000	 1.002877540906662e+001
0	 4.800020000011601e+000	 8.600030000017851e+000	 1.002645680437681e+001
0	 4.800020000011600e+000	 8.666700000016668e+000	 1.002420819497695e+001
0	 4.866680000008066e+000	 8.000000000000000e+000	 1.005073574022607e+001
0	 4.866680000008067e+000	 8.066670000003320e+000	 1.004775051487930e+001
0	 4.866680000008066e+000	 8.133340000006532e+000	 1.004485181913317e+001
0	 4.866680000008066e+000	 8.200010000009547e+000	 1.004203763087389e+001
0	 4.866680000008067e+000	 8.266680000012265e+000	 1.003930592798769e+001
0	 4.866680000008066e+000	 8.333350000014585e+000	 1.003665468836080e+001
0	 4.866680000008066e+000	 8.400020000016401e+000	 1.003408188987945e+001
0	 4.866680000008069e+000	 8.466690000017620e+000	 1.003158551042988e+001
0	 4.866680000008067e+000	 8.533360000018133e+000	 1.002916352789831e+001
0	 4.866680000008065e+000	 8.600030000017851e+000	 1.002681392017100e+001
0	 4.866680000008067e+000	 8.666700000016663e+000	 1.002453466513417e+001
0	 4.933340000004134e+000	 7.999999999999999e+000	 1.005129339779632e+001
0	 4.933340000004135e+000	 8.066670000003319e+000	 1.004828035808776e+001
0	 4.933340000004133e+000	 8.133340000006534e+000	 1.004535399870969e+001
0	 4.933340000004135e+000	 8.200010000009550e+000	 1.004251230721098e+001
0	 4.933340000004134e+000	 8.266680000012267e+000	 1.003975327114050e+001
0	 4.933340000004135e+000	 8.333350000014585e+000	 1.003707487804712e+001
0	 4.933340000004132e+000	 8.400020000016399e+000	 1.003447511547968e+001
0	 4.933340000004135e+000	 8.466690000017618e+000	 1.003195197098709e+001
0	 4.933340000004134e+000	 8.533360000018133e+000	 1.002950343211819e+001
0	 4.933340000004133e+000	 8.600030000017851e+000	 1.002712748642187e+001
0	 4.933340000004134e+000	 8.666700000016668e+000	 1.002482212144698e+001
0	 5.000000000000001e+000	 8.000000000000000e+000	 1.005176710544145e+001
0	 5.000000000000001e+000	 8.066670000003319e+000	 1.004873084388047e+001
0	 5.000000000000001e+000	 8.133340000006532e+000	 1.004578148115640e+001
0	 5.000000000000001e+000	 8.200010000009552e+000	 1.004291698743362e+001
0	 5.000000000000001e+000	 8.266680000012267e+000	 1.004013533287652e+001
0	 5.000000000000000e+000	 8.333350000014582e+000	 1.003743448764947e+001
0	 5.000000000000002e+000	 8.400020000016403e+000	 1.003481242191685e+001
0	 5.000000000000000e+000	 8.466690000017616e+000	 1.003226710584306e+001
0	 4.999999999999999e+000	 8.533360000018131e+000	 1.002979650959247e+001
0	 4.999999999999999e+000	 8.600030000017847e+000	 1.002739860332949e+001
0	 4.999999999999999e+000	 8.666700000016665e+000	 1.002507135721849e+001
0	 5.066659999995867e+000	 8.000000000000000e+000	 1.005215986004567e+001
0	 5.066659999995866e+000	 8.066670000003319e+000	 1.004910483532245e+001
0	 5.066659999995867e+000	 8.133340000006532e+000	 1.004613697648822e+001
0	 5.066659999995868e+000	 8.200010000009552e+000	 1.004325420927578e+001
0	 5.066659999995866e+000	 8.266680000012268e+000	 1.004045445941787e+001
0	 5.066659999995865e+000	 8.333350000014585e+000	 1.003773565264730e+001
0	 5.066659999995867e+000	 8.400020000016401e+000	 1.003509571469685e+001
0	 5.066659999995866e+000	 8.466690000017618e+000	 1.003253257129928e+001
0	 5.066659999995867e+000	 8.533360000018133e+000	 1.003004414818739e+001
0	 5.066659999995866e+000	 8.600030000017849e+000	 1.002762837109397e+001
0	 5.066659999995866e+000	 8.666700000016666e+000	 1.002528316575178e+001
0	 5.133319999991933e+000	 8.000000000000000e+000	 1.005247465849325e+001
0	 5.133319999991933e+000	 8.066670000003317e+000	 1.004940519547871e+001
0	 5.133319999991933e+000	 8.133340000006534e+000	 1.004642319472006e+001
0	 5.133319999991933e+000	 8.200010000009550e+000	 1.004352651047137e+001
0	 5.133319999991934e+000	 8.266680000012267e+000	 1.004071299698668e+001
0	 5.133319999991933e+000	 8.333350000014583e+000	 1.003798050852006e+001
0	 5.133319999991935e+000	 8.400020000016403e+000	 1.003532689932556e+001
0	 5.133319999991933e+000	 8.466690000017618e+000	 1.003275002365724e+001
0	 5.133319999991932e+000	 8.533360000018131e+000	 1.003024773576915e+001
0	 5.133319999991934e+000	 8.600030000017853e+000	 1.002781788991537e+001
0	 5.133319999991932e+000	 8.666700000016668e+000	 1.002545834034995e+001
0	 5.199979999988399e+000	 7.999999999999999e+000	 1.005271449766843e+001
0	 5.199979999988400e+000	 8.066670000003315e+000	 1.004963478741427e+001
0	 5.199979999988400e+000	 8.133340000006532e+000	 1.004664284586685e+001
0	 5.199979999988399e+000	 8.200010000009552e+000	 1.004373642875439e+001
0	 5.199979999988399e+000	 8.266680000012268e+000	 1.004091329180510e+001
0	 5.199979999988400e+000	 8.333350000014585e+000	 1.003817119074721e+001
0	 5.199979999988399e+000	 8.400020000016401e+000	 1.003550788130891e+001
0	 5.199979999988399e+000	 8.466690000017616e+000	 1.003292111921843e+001
0	 5.199979999988400e+000	 8.533360000018131e+000	 1.003040866020398e+001
0	 5.199979999988399e+000	 8.600030000017849e+000	 1.002796825999380e+001
0	 5.199979999988400e+000	 8.666700000016665e+000	 1.002559767431609e+001
0	 5.266639999985466e+000	 8.000000000000000e+000	 1.005288237445548e+001
0	 5.266639999985466e+000	 8.066670000003319e+000	 1.004979647419414e+001
0	 5.266639999985466e+000	 8.133340000006532e+000	 1.004679863994350e+001
0	 5.266639999985465e+000	 8.200010000009552e+000	 1.004388650185878e+001
0	 5.266639999985467e+000	 8.266680000012270e+000	 1.004105769009526e+001
0	 5.266639999985466e+000	 8.333350000014583e+000	 1.003830983480817e+001
0	 5.266639999985466e+000	 8.400020000016401e+000	 1.003564056615279e+001
0	 5.266639999985466e+000	 8.466690000017618e+000	 1.003304751428435e+001
0	 5.266639999985467e+000	 8.533360000018133e+000	 1.003052830935811e+001
0	 5.266639999985466e+000	 8.600030000017849e+000	 1.002808058152933e+001
0	 5.266639999985465e+000	 8.666700000016665e+000	 1.002570196095329e+001
0	 5.333299999983334e+000	 8.000000000000000e+000	 1.005298128573862e+001
0	 5.333299999983333e+000	 8.066670000003317e+000	 1.004989311888334e+001
0	 5.333299999983333e+000	 8.133340000006532e+000	 1.004689328696491e+001
0	 5.333299999983335e+000	 8.200010000009550e+000	 1.004397926751850e+001
0	 5.333299999983336e+000	 8.266680000012268e+000	 1.004114853807930e+001
0	 5.333299999983334e+000	 8.333350000014585e+000	 1.003839857618242e+001
0	 5.333299999983333e+000	 8.400020000016399e+000	 1.003572685936309e+001
0	 5.333299999983332e+000	 8.466690000017616e+000	 1.003313086515647e+001
0	 5.333299999983334e+000	 8.533360000018135e+000	 1.003060807109774e+001
0	 5.333299999983335e+000	 8.600030000017851e+000	 1.002815595472206e+001
0	 5.333299999983334e+000	 8.666700000016666e+000	 1.002577199356461e+001
0	 4.666700000016665e+000	 8.666700000016666e+000	 1.002343503991692e+001
0	 4.666700000016665e+000	 8.733360002791901e+000	 1.002134744509958e+001
0	 4.666700000016665e+000	 8.800020022230555e+000	 1.001935906610236e+001
0	 4.666700000016666e+000	 8.866680074997040e+000	 1.001746626353321e+001
0	 4.666700000016666e+000	 8.933340177755778e+000	 1.001566539772612e+001
0	 4.666700000016666e+000	 9.000000347171181e+000	 1.001395282874113e+001
0	 4.666700000016667e+000	 9.066660599907669e+000	 1.001232491636434e+001
0	 4.666700000016666e+000	 9.133320952629655e+000	 1.001077802010791e+001
0	 4.666700000016666e+000	 9.199981422001557e+000	 1.000930849921000e+001
0	 4.666700000016667e+000	 9.266642024687798e+000	 1.000791271263485e+001
0	 4.666700000016665e+000	 9.333302777352781e+000	 1.000658701907272e+001
0	 4.733360000014534e+000	 8.666700000016665e+000	 1.002384191767223e+001
0	 4.733360000014534e+000	 8.733360002791903e+000	 1.002171550425539e+001
0	 4.733360000014533e+000	 8.800020022230553e+000	 1.001969113118948e+001
0	 4.733360000014534e+000	 8.866680074997042e+000	 1.001776488511668e+001
0	 4.733360000014534e+000	 8.933340177755778e+000	 1.001593285239959e+001
0	 4.733360000014532e+000	 9.000000347171181e+000	 1.001419111912116e+001
0	 4.733360000014533e+000	 9.066660599907667e+000	 1.001253577108469e+001
0	 4.733360000014534e+000	 9.133320952629655e+000	 1.001096289381383e+001
0	 4.733360000014533e+000	 9.199981422001558e+000	 1.000946857255260e+001
0	 4.733360000014534e+000	 9.266642024687798e+000	 1.000804889226531e+001
0	 4.733360000014534e+000	 9.333302777352785e+000	 1.000669993763670e+001
0	 4.800020000011600e+000	 8.666700000016668e+000	 1.002420819497695e+001
0	 4.800020000011601e+000	 8.733360002791903e+000	 1.002204779744298e+001
0	 4.800020000011601e+000	 8.800020022230557e+000	 1.001999176953598e+001
0	 4.800020000011601e+000	 8.866680074997042e+000	 1.001803596038099e+001
0	 4.800020000011601e+000	 8.933340177755781e+000	 1.001617621881853e+001
0	 4.800020000011601e+000	 9.000000347171183e+000	 1.001440839340454e+001
0	 4.800020000011600e+000	 9.066660599907667e+000	 1.001272833241043e+001
0	 4.800020000011601e+000	 9.133320952629655e+000	 1.001113188382306e+001
0	 4.800020000011601e+000	 9.199981422001558e+000	 1.000961489534469e+001
0	 4.800020000011600e+000	 9.266642024687796e+000	 1.000817321439306e+001
0	 4.800020000011601e+000	 9.333302777352783e+000	 1.000680268810133e+001
0	 4.866680000008067e+000	 8.666700000016663e+000	 1.002453466513416e+001
0	 4.866680000008065e+000	 8.733360002791903e+000	 1.002234482296791e+001
0	 4.866680000008068e+000	 8.800020022230555e+000	 1.002026122738476e+001
0	 4.866680000008066e+000	 8.866680074997040e+000	 1.001827952644133e+001
0	 4.866680000008066e+000	 8.933340177755779e+000	 1.001639536790551e+001
0	 4.866680000008067e+000	 9.000000347171183e+000	 1.001460439925635e+001
0	 4.866680000008068e+000	 9.066660599907669e+000	 1.001290226768426e+001
0	 4.866680000008068e+000	 9.133320952629656e+000	 1.001128462009082e+001
0	 4.866680000008067e+000	 9.199981422001558e+000	 1.000974710308888e+001
0	 4.866680000008066e+000	 9.266642024687796e+000	 1.000828536300250e+001
0	 4.866680000008067e+000	 9.333302777352781e+000	 1.000689504586703e+001
0	 4.933340000004134e+000	 8.666700000016668e+000	 1.002482212144698e+001
0	 4.933340000004135e+000	 8.733360002791905e+000	 1.002260707913565e+001
0	 4.933340000004133e+000	 8.800020022230559e+000	 1.002049975097860e+001
0	 4.933340000004134e+000	 8.866680074997044e+000	 1.001849562041286e+001
0	 4.933340000004133e+000	 8.933340177755776e+000	 1.001659017058310e+001
0	 4.933340000004134e+000	 9.000000347171181e+000	 1.001477888434176e+001
0	 4.933340000004131e+000	 9.066660599907666e+000	 1.001305724424892e+001
0	 4.933340000004132e+000	 9.133320952629653e+000	 1.001142073257241e+001
0	 4.933340000004131e+000	 9.199981422001557e+000	 1.000986483128771e+001
0	 4.933340000004134e+000	 9.266642024687796e+000	 1.000838502207803e+001
0	 4.933340000004134e+000	 9.333302777352783e+000	 1.000697678633425e+001
0	 4.999999999999999e+000	 8.666700000016665e+000	 1.002507135721849e+001
0	 5.000000000000001e+000	 8.733360002791901e+000	 1.002283506425171e+001
0	 5.000000000000001e+000	 8.800020022230555e+000	 1.002070758656034e+001
0	 5.000000000000002e+000	 8.866680074997042e+000	 1.001868427941070e+001
0	 5.000000000000000e+000	 8.933340177755776e+000	 1.001676049777391e+001
0	 4.999999999999999e+000	 9.000000347171181e+000	 1.001493159632586e+001
0	 5.000000000000001e+000	 9.066660599907666e+000	 1.001319292944714e+001
0	 5.000000000000001e+000	 9.133320952629656e+000	 1.001153985122309e+001
0	 5.000000000000001e+000	 9.199981422001558e+000	 1.000996771544379e+001
0	 5.000000000000001e+000	 9.266642024687794e+000	 1.000847187560403e+001
0	 5.000000000000000e+000	 9.333302777352783e+000	 1.000704768490336e+001
0	 5.066659999995866e+000	 8.666700000016666e+000	 1.002528316575178e+001
0	 5.066659999995867e+000	 8.733360002791903e+000	 1.002302927662168e+001
0	 5.066659999995868e+000	 8.800020022230557e+000	 1.002088498037282e+001
0	 5.066659999995868e+000	 8.866680074997040e+000	 1.001884554055003e+001
0	 5.066659999995866e+000	 8.933340177755779e+000	 1.001690622040053e+001
0	 5.066659999995865e+000	 9.000000347171179e+000	 1.001506228287380e+001
0	 5.066659999995866e+000	 9.066660599907666e+000	 1.001330899062164e+001
0	 5.066659999995866e+000	 9.133320952629655e+000	 1.001164160599813e+001
0	 5.066659999995867e+000	 9.199981422001558e+000	 1.001005539105966e+001
0	 5.066659999995867e+000	 9.266642024687796e+000	 1.000854560756489e+001
0	 5.066659999995866e+000	 9.333302777352785e+000	 1.000710751697481e+001
0	 5.133319999991932e+000	 8.666700000016668e+000	 1.002545834034995e+001
0	 5.133319999991934e+000	 8.733360002791903e+000	 1.002319021455103e+001
0	 5.133319999991934e+000	 8.800020022230557e+000	 1.002103217865883e+001
0	 5.133319999991933e+000	 8.866680074997040e+000	 1.001897944094600e+001
0	 5.133319999991933e+000	 8.933340177755778e+000	 1.001702720938553e+001
0	 5.133319999991935e+000	 9.000000347171181e+000	 1.001517069165071e+001
0	 5.133319999991933e+000	 9.066660599907667e+000	 1.001340509511515e+001
0	 5.133319999991934e+000	 9.133320952629656e+000	 1.001172562685280e+001
0	 5.133319999991931e+000	 9.199981422001555e+000	 1.001012749363790e+001
0	 5.133319999991933e+000	 9.266642024687794e+000	 1.000860590194502e+001
0	 5.133319999991933e+000	 9.333302777352785e+000	 1.000715605794900e+001
0	 5.199979999988400e+000	 8.666700000016665e+000	 1.002559767431609e+001
0	 5.199979999988400e+000	 8.733360002791905e+000	 1.002331837634528e+001
0	 5.199979999988400e+000	 8.800020022230555e+000	 1.002114942766123e+001
0	 5.199979999988400e+000	 8.866680074997042e+000	 1.001908601771377e+001
0	 5.199979999988399e+000	 8.933340177755778e+000	 1.001712333565149e+001
0	 5.199979999988400e+000	 9.000000347171183e+000	 1.001525657032169e+001
0	 5.199979999988399e+000	 9.066660599907667e+000	 1.001348091027039e+001
0	 5.199979999988399e+000	 9.133320952629653e+000	 1.001179154374237e+001
0	 5.199979999988400e+000	 9.199981422001560e+000	 1.001018365868110e+001
0	 5.199979999988399e+000	 9.266642024687794e+000	 1.000865244272878e+001
0	 5.199979999988399e+000	 9.333302777352783e+000	 1.000719308322635e+001
0	 5.266639999985465e+000	 8.666700000016665e+000	 1.002570196095328e+001
0	 5.266639999985465e+000	 8.733360002791901e+000	 1.002341426030992e+001
0	 5.266639999985467e+000	 8.800020022230555e+000	 1.002123697362282e+001
0	 5.266639999985465e+000	 8.866680074997042e+000	 1.001916530796851e+001
0	 5.266639999985465e+000	 8.933340177755778e+000	 1.001719447012103e+001
0	 5.266639999985466e+000	 9.000000347171183e+000	 1.001531966655188e+001
0	 5.266639999985465e+000	 9.066660599907667e+000	 1.001353610343010e+001
0	 5.266639999985466e+000	 9.133320952629656e+000	 1.001183898662210e+001
0	 5.266639999985466e+000	 9.199981422001558e+000	 1.001022352169180e+001
0	 5.266639999985466e+000	 9.266642024687796e+000	 1.000868491390058e+001
0	 5.266639999985466e+000	 9.333302777352781e+000	 1.000721836820727e+001
0	 5.333299999983334e+000	 8.666700000016666e+000	 1.002577199356461e+001
0	 5.333299999983334e+000	 8.733360002791903e+000	 1.002347836475051e+001
0	 5.333299999983332e+000	 8.800020022230553e+000	 1.002129506278642e+001
0	 5.333299999983335e+000	 8.866680074997040e+000	 1.001921734882531e+001
0	 5.333299999983334e+000	 8.933340177755779e+000	 1.001724048371667e+001
0	 5.333299999983332e+000	 9.000000347171179e+000	 1.001535972800643e+001
0	 5.333299999983335e+000	 9.066660599907667e+000	 1.001357034193699e+001
0	 5.333299999983334e+000	 9.133320952629655e+000	 1.001186758544726e+001
0	 5.333299999983334e+000	 9.199981422001560e+000	 1.001024671817259e+001
0	 5.333299999983335e+000	 9.266642024687798e+000	 1.000870299944477e+001
0	 5.333299999983335e+000	 9.333302777352785e+000	 1.000723168829213e+001
0	 4.666700000016665e+000	 9.333302777352781e+000	 1.000658701907272e+001
0	 4.666700000016666e+000	 9.399973674588177e+000	 1.000536801042564e+001
0	 4.666700000016667e+000	 9.466644621844621e+000	 1.000428992559909e+001
0	 4.666700000016667e+000	 9.533315502450000e+000	 1.000334501427348e+001
0	 4.666700000016666e+000	 9.599986199732197e+000	 1.000252552891031e+001
0	 4.666700000016666e+000	 9.666656597019095e+000	 1.000182372475199e+001
0	 4.666700000016666e+000	 9.733326577638573e+000	 1.000123185982169e+001
0	 4.666700000016665e+000	 9.799996024918521e+000	 1.000074219492337e+001
0	 4.666700000016666e+000	 9.866664822186822e+000	 1.000034699364172e+001
0	 4.666700000016666e+000	 9.933332852771352e+000	 1.000003852234238e+001
0	 4.666700000016666e+000	 1.000000000000000e+001	 9.999809050172109e+000
0	 4.733360000014534e+000	 9.333302777352785e+000	 1.000669993763670e+001
0	 4.733360000014533e+000	 9.399973674588173e+000	 1.000545865124729e+001
0	 4.733360000014533e+000	 9.466644621844621e+000	 1.000435996102393e+001
0	 4.733360000014532e+000	 9.533315502450000e+000	 1.000339633982256e+001
0	 4.733360000014533e+000	 9.599986199732197e+000	 1.000256026333157e+001
0	 4.733360000014534e+000	 9.666656597019095e+000	 1.000184421007153e+001
0	 4.733360000014534e+000	 9.733326577638577e+000	 1.000124066139514e+001
0	 4.733360000014533e+000	 9.799996024918524e+000	 1.000074210148710e+001
0	 4.733360000014533e+000	 9.866664822186822e+000	 1.000034101736445e+001
0	 4.733360000014534e+000	 9.933332852771356e+000	 1.000002989887623e+001
0	 4.733360000014534e+000	 1.000000000000000e+001	 9.999801238704322e+000
0	 4.800020000011601e+000	 9.333302777352783e+000	 1.000680268810133e+001
0	 4.800020000011600e+000	 9.399973674588173e+000	 1.000554079263978e+001
0	 4.800020000011599e+000	 9.466644621844619e+000	 1.000442327943614e+001
0	 4.800020000011599e+000	 9.533315502450000e+000	 1.000344280904725e+001
0	 4.800020000011600e+000	 9.599986199732195e+000	 1.000259204491156e+001
0	 4.800020000011601e+000	 9.666656597019093e+000	 1.000186365334892e+001
0	 4.800020000011600e+000	 9.733326577638577e+000	 1.000125030356050e+001
0	 4.800020000011601e+000	 9.799996024918523e+000	 1.000074466762872e+001
0	 4.800020000011601e+000	 9.866664822186820e+000	 1.000033942051744e+001
0	 4.800020000011599e+000	 9.933332852771352e+000	 1.000002724007191e+001
0	 4.800020000011600e+000	 1.000000000000000e+001	 9.999800807019096e+000
0	 4.866680000008067e+000	 9.333302777352781e+000	 1.000689504586703e+001
0	 4.866680000008065e+000	 9.399973674588177e+000	 1.000561429900818e+001
0	 4.866680000008066e+000	 9.466644621844619e+000	 1.000447978645507e+001
0	 4.866680000008066e+000	 9.533315502450002e+000	 1.000348432099105e+001
0	 4.866680000008068e+000	 9.599986199732198e+000	 1.000262071832758e+001
0	 4.866680000008067e+000	 9.666656597019093e+000	 1.000188179710413e+001
0	 4.866680000008065e+000	 9.733326577638573e+000	 1.000126037888792e+001
0	 4.866680000008068e+000	 9.799996024918524e+000	 1.000074928817413e+001
0	 4.866680000008066e+000	 9.866664822186824e+000	 1.000034135238575e+001
0	 4.866680000008065e+000	 9.933332852771352e+000	 1.000002940187403e+001
0	 4.866680000008066e+000	 1.000000000000000e+001	 9.999806269918414e+000
0	 4.933340000004134e+000	 9.333302777352783e+000	 1.000697678633425e+001
0	 4.933340000004132e+000	 9.399973674588177e+000	 1.000567903475743e+001
0	 4.933340000004132e+000	 9.466644621844619e+000	 1.000452938769998e+001
0	 4.933340000004132e+000	 9.533315502450002e+000	 1.000352077469750e+001
0	 4.933340000004134e+000	 9.599986199732195e+000	 1.000264612825707e+001
0	 4.933340000004134e+000	 9.666656597019095e+000	 1.000189838385715e+001
0	 4.933340000004133e+000	 9.733326577638575e+000	 1.000127047994748e+001
0	 4.933340000004134e+000	 9.799996024918523e+000	 1.000075535794910e+001
0	 4.933340000004133e+000	 9.866664822186822e+000	 1.000034596225440e+001
0	 4.933340000004134e+000	 9.933332852771354e+000	 1.000003524022733e+001
0	 4.933340000004134e+000	 1.000000000000000e+001	 9.999816142203674e+000
0	 5.000000000000000e+000	 9.333302777352783e+000	 1.000704768490336e+001
0	 5.000000000000001e+000	 9.399973674588180e+000	 1.000573486429262e+001
0	 5.000000000000000e+000	 9.466644621844619e+000	 1.000457198879028e+001
0	 4.999999999999999e+000	 9.533315502450000e+000	 1.000355206921015e+001
0	 5.000000000000001e+000	 9.599986199732198e+000	 1.000266811937731e+001
0	 5.000000000000000e+000	 9.666656597019092e+000	 1.000191315612793e+001
0	 5.000000000000000e+000	 9.733326577638575e+000	 1.000128019930922e+001
0	 5.000000000000000e+000	 9.799996024918523e+000	 1.000076227177955e+001
0	 5.000000000000001e+000	 9.866664822186824e+000	 1.000035239940842e+001
0	 5.000000000000002e+000	 9.933332852771352e+000	 1.000004361107661e+001
0	 5.000000000000000e+000	 1.000000000000000e+001	 9.999828938676583e+000
0	 5.066659999995866e+000	 9.333302777352785e+000	 1.000710751697481e+001
0	 5.066659999995867e+000	 9.399973674588178e+000	 1.000578165201872e+001
0	 5.066659999995866e+000	 9.466644621844619e+000	 1.000460749534526e+001
0	 5.066659999995865e+000	 9.533315502449998e+000	 1.000357810357257e+001
0	 5.066659999995866e+000	 9.599986199732197e+000	 1.000268653636568e+001
0	 5.066659999995866e+000	 9.666656597019095e+000	 1.000192585643642e+001
0	 5.066659999995866e+000	 9.733326577638577e+000	 1.000128912954325e+001
0	 5.066659999995867e+000	 9.799996024918524e+000	 1.000076942449131e+001
0	 5.066659999995867e+000	 9.866664822186824e+000	 1.000035981313275e+001
0	 5.066659999995866e+000	 9.933332852771354e+000	 1.000005337036651e+001
0	 5.066659999995866e+000	 1.000000000000000e+001	 9.999843174138924e+000
0	 5.133319999991933e+000	 9.333302777352785e+000	 1.000715605794900e+001
0	 5.133319999991931e+000	 9.399973674588177e+000	 1.000581926234076e+001
0	 5.133319999991932e+000	 9.466644621844619e+000	 1.000463581298421e+001
0	 5.133319999991932e+000	 9.533315502450002e+000	 1.000359877682824e+001
0	 5.133319999991934e+000	 9.599986199732197e+000	 1.000270122389957e+001
0	 5.133319999991933e+000	 9.666656597019095e+000	 1.000193622730263e+001
0	 5.133319999991932e+000	 9.733326577638575e+000	 1.000129686321956e+001
0	 5.133319999991933e+000	 9.799996024918521e+000	 1.000077621091028e+001
0	 5.133319999991934e+000	 9.866664822186822e+000	 1.000036735271245e+001
0	 5.133319999991933e+000	 9.933332852771358e+000	 1.000006337404185e+001
0	 5.133319999991932e+000	 1.000000000000000e+001	 9.999857363392406e+000
0	 5.199979999988399e+000	 9.333302777352783e+000	 1.000719308322635e+001
0	 5.199979999988400e+000	 9.399973674588175e+000	 1.000584755966375e+001
0	 5.199979999988399e+000	 9.466644621844617e+000	 1.000465684732652e+001
0	 5.199979999988400e+000	 9.533315502450002e+000	 1.000361398802076e+001
0	 5.199979999988397e+000	 9.599986199732193e+000	 1.000271202665628e+001
0	 5.199979999988399e+000	 9.666656597019092e+000	 1.000194401124648e+001
0	 5.199979999988400e+000	 9.733326577638573e+000	 1.000130299290831e+001
0	 5.199979999988400e+000	 9.799996024918523e+000	 1.000078202586226e+001
0	 5.199979999988400e+000	 9.866664822186822e+000	 1.000037416743252e+001
0	 5.199979999988400e+000	 9.933332852771354e+000	 1.000007247804724e+001
0	 5.199979999988400e+000	 1.000000000000000e+001	 9.999870021238595e+000
0	 5.266639999985466e+000	 9.333302777352781e+000	 1.000721836820727e+001
0	 5.266639999985467e+000	 9.399973674588178e+000	 1.000586640839271e+001
0	 5.266639999985467e+000	 9.466644621844619e+000	 1.000467050399145e+001
0	 5.266639999985466e+000	 9.533315502450002e+000	 1.000362363619360e+001
0	 5.266639999985467e+000	 9.599986199732197e+000	 1.000271878931319e+001
0	 5.266639999985465e+000	 9.666656597019097e+000	 1.000194895078801e+001
0	 5.266639999985467e+000	 9.733326577638577e+000	 1.000130711117953e+001
0	 5.266639999985466e+000	 9.799996024918524e+000	 1.000078626417316e+001
0	 5.266639999985466e+000	 9.866664822186822e+000	 1.000037940657802e+001
0	 5.266639999985466e+000	 9.933332852771354e+000	 1.000007953832752e+001
0	 5.266639999985466e+000	 1.000000000000000e+001	 9.999879662479239e+000
0	 5.333299999983335e+000	 9.333302777352785e+000	 1.000723168829213e+001
0	 5.333299999983335e+000	 9.399973674588175e+000	 1.000587567293266e+001
0	 5.333299999983333e+000	 9.466644621844619e+000	 1.000467668859834e+001
0	 5.333299999983335e+000	 9.533315502450002e+000	 1.000362762039035e+001
0	 5.333299999983334e+000	 9.599986199732197e+000	 1.000272135654764e+001
0	 5.333299999983335e+000	 9.666656597019097e+000	 1.000195078844710e+001
0	 5.333299999983334e+000	 9.733326577638577e+000	 1.000130881060333e+001
0	 5.333299999983334e+000	 9.799996024918524e+000	 1.000078832066879e+001
0	 5.333299999983334e+000	 9.866664822186822e+000	 1.000038221943391e+001
0	 5.333299999983334e+000	 9.933332852771354e+000	 1.000008341082728e+001
0	 5.333299999983334e+000	 1.000000000000000e+001	 9.999884801916023e+000
0	 5.333299999983334e+000	 0.000000000000000e+000	 1.027014004054596e+001
0	 5.333299999983336e+000	 6.666714722864757e-002	 1.026912580407787e+001
0	 5.333299999983333e+000	 1.333351778131789e-001	 1.026923822776604e+001
0	 5.333299999983336e+000	 2.000039750814772e-001	 1.027035795295262e+001
0	 5.333299999983334e+000	 2.666734223614255e-001	 1.027236563042800e+001
0	 5.333299999983334e+000	 3.333434029809068e-001	 1.027514192043007e+001
0	 5.333299999983334e+000	 4.000138002678044e-001	 1.027856749264370e+001
0	 5.333299999983334e+000	 4.666844975500011e-001	 1.028252302620041e+001
0	 5.333299999983333e+000	 5.333553781553803e-001	 1.028688920967838e+001
0	 5.333299999983335e+000	 6.000263254118248e-001	 1.029154674110268e+001
0	 5.333299999983334e+000	 6.666972226472175e-001	 1.029637632794569e+001
0	 5.399969999982149e+000	 0.000000000000000e+000	 1.026839158580503e+001
0	 5.399969999982148e+000	 6.666714722864756e-002	 1.026711059974364e+001
0	 5.399969999982151e+000	 1.333351778131789e-001	 1.026670025451307e+001
0	 5.399969999982150e+000	 2.000039750814772e-001	 1.026708742492568e+001
0	 5.399969999982148e+000	 2.666734223614254e-001	 1.026819899569206e+001
0	 5.399969999982150e+000	 3.333434029809069e-001	 1.026996186142010e+001
0	 5.399969999982151e+000	 4.000138002678045e-001	 1.027230292661440e+001
0	 5.399969999982149e+000	 4.666844975500012e-001	 1.027514910567583e+001
0	 5.399969999982152e+000	 5.333553781553801e-001	 1.027842732290143e+001
0	 5.399969999982148e+000	 6.000263254118247e-001	 1.028206451248460e+001
0	 5.399969999982150e+000	 6.666972226472177e-001	 1.028598761851543e+001
0	 5.466639999981866e+000	 0.000000000000000e+000	 1.026487563824516e+001
0	 5.466639999981866e+000	 6.666714722864756e-002	 1.026357352601311e+001
0	 5.466639999981866e+000	 1.333351778131789e-001	 1.026290974272941e+001
0	 5.466639999981866e+000	 2.000039750814772e-001	 1.026285084663280e+001
0	 5.466639999981865e+000	 2.666734223614255e-001	 1.026336340607529e+001
0	 5.466639999981866e+000	 3.333434029809069e-001	 1.026441399952107e+001
0	 5.466639999981865e+000	 4.000138002678044e-001	 1.026596921554592e+001
0	 5.466639999981866e+000	 4.666844975500011e-001	 1.026799565283665e+001
0	 5.466639999981867e+000	 5.333553781553804e-001	 1.027045992019106e+001
0	 5.466639999981865e+000	 6.000263254118247e-001	 1.027332863651792e+001
0	 5.466639999981865e+000	 6.666972226472178e-001	 1.027656843083737e+001
0	 5.533309999982383e+000	 0.000000000000000e+000	 1.025979609318677e+001
0	 5.533309999982382e+000	 6.666714722864757e-002	 1.025866645428003e+001
0	 5.533309999982382e+000	 1.333351778131789e-001	 1.025796956475883e+001
0	 5.533309999982384e+000	 2.000039750814772e-001	 1.025770511587496e+001
0	 5.533309999982381e+000	 2.666734223614256e-001	 1.025787280900523e+001
0	 5.533309999982382e+000	 3.333434029809069e-001	 1.025847235565046e+001
0	 5.533309999982384e+000	 4.000138002678045e-001	 1.025950347743478e+001
0	 5.533309999982382e+000	 4.666844975500011e-001	 1.026096590610514e+001
0	 5.533309999982382e+000	 5.333553781553803e-001	 1.026285938353112e+001
0	 5.533309999982383e+000	 6.000263254118247e-001	 1.026518366170499e+001
0	 5.533309999982381e+000	 6.666972226472175e-001	 1.026793850274205e+001
0	 5.599979999983598e+000	 0.000000000000000e+000	 1.025335684595027e+001
0	 5.599979999983598e+000	 6.666714722864756e-002	 1.025254125593815e+001
0	 5.599979999983597e+000	 1.333351778131789e-001	 1.025198259294515e+001
0	 5.599979999983599e+000	 2.000039750814772e-001	 1.025170713045315e+001
0	 5.599979999983599e+000	 2.666734223614256e-001	 1.025174115190943e+001
0	 5.599979999983599e+000	 3.333434029809068e-001	 1.025211095072575e+001
0	 5.599979999983598e+000	 4.000138002678044e-001	 1.025284283027755e+001
0	 5.599979999983598e+000	 4.666844975500013e-001	 1.025396310390354e+001
0	 5.599979999983598e+000	 5.333553781553804e-001	 1.025549809490546e+001
0	 5.599979999983598e+000	 6.000263254118246e-001	 1.025747413654817e+001
0	 5.599979999983600e+000	 6.666972226472177e-001	 1.025991757205997e+001
0	 5.666649999985415e+000	 0.000000000000000e+000	 1.024576179185607e+001
0	 5.666649999985414e+000	 6.666714722864756e-002	 1.024534980238124e+001
0	 5.666649999985417e+000	 1.333351778131789e-001	 1.024505169963217e+001
0	 5.666649999985416e+000	 2.000039750814772e-001	 1.024491378816834e+001
0	 5.666649999985414e+000	 2.666734223614254e-001	 1.024498238221544e+001
0	 5.666649999985414e+000	 3.333434029809069e-001	 1.024530380566440e+001
0	 5.666649999985414e+000	 4.000138002678043e-001	 1.024592439207074e+001
0	 5.666649999985415e+000	 4.666844975500012e-001	 1.024689048465405e+001
0	 5.666649999985416e+000	 5.333553781553803e-001	 1.024824843629789e+001
0	 5.666649999985415e+000	 6.000263254118247e-001	 1.025004460954980e+001
0	 5.666649999985415e+000	 6.666972226472177e-001	 1.025232537662162e+001
0	 5.733319999987732e+000	 0.000000000000000e+000	 1.023721482622456e+001
0	 5.733319999987730e+000	 6.666714722864754e-002	 1.023724396500304e+001
0	 5.733319999987733e+000	 1.333351778131789e-001	 1.023727975716365e+001
0	 5.733319999987733e+000	 2.000039750814772e-001	 1.023738198682149e+001
0	 5.733319999987731e+000	 2.666734223614255e-001	 1.023761044735077e+001
0	 5.733319999987730e+000	 3.333434029809068e-001	 1.023802494138390e+001
0	 5.733319999987731e+000	 4.000138002678044e-001	 1.023868528081089e+001
0	 5.733319999987732e+000	 4.666844975500011e-001	 1.023965128677895e+001
0	 5.733319999987732e+000	 5.333553781553803e-001	 1.024098278969227e+001
0	 5.733319999987731e+000	 6.000263254118247e-001	 1.024273962921220e+001
0	 5.733319999987732e+000	 6.666972226472178e-001	 1.024498165425751e+001
0	 5.799989999990449e+000	 0.000000000000000e+000	 1.022791984437614e+001
0	 5.799989999990448e+000	 6.666714722864756e-002	 1.022837561519729e+001
0	 5.799989999990449e+000	 1.333351778131790e-001	 1.022876963788340e+001
0	 5.799989999990448e+000	 2.000039750814772e-001	 1.022916862421359e+001
0	 5.799989999990447e+000	 2.666734223614255e-001	 1.022963929474295e+001
0	 5.799989999990451e+000	 3.333434029809069e-001	 1.023024837880168e+001
0	 5.799989999990449e+000	 4.000138002678044e-001	 1.023106261449452e+001
0	 5.799989999990448e+000	 4.666844975500012e-001	 1.023214874870043e+001
0	 5.799989999990448e+000	 5.333553781553804e-001	 1.023357353707243e+001
0	 5.799989999990448e+000	 6.000263254118247e-001	 1.023540374403775e+001
0	 5.799989999990448e+000	 6.666972226472177e-001	 1.023770614279814e+001
0	 5.866659999993464e+000	 0.000000000000000e+000	 1.021808074163121e+001
0	 5.866659999993465e+000	 6.666714722864756e-002	 1.021889662435775e+001
0	 5.866659999993465e+000	 1.333351778131789e-001	 1.021962421413518e+001
0	 5.866659999993463e+000	 2.000039750814772e-001	 1.022033059814559e+001
0	 5.866659999993466e+000	 2.666734223614256e-001	 1.022108287181952e+001
0	 5.866659999993464e+000	 3.333434029809069e-001	 1.022194813883521e+001
0	 5.866659999993465e+000	 4.000138002678045e-001	 1.022299351111816e+001
0	 5.866659999993464e+000	 4.666844975500011e-001	 1.022428610884073e+001
0	 5.866659999993465e+000	 5.333553781553801e-001	 1.022589306042219e+001
0	 5.866659999993465e+000	 6.000263254118248e-001	 1.022788150252876e+001
0	 5.866659999993466e+000	 6.666972226472178e-001	 1.023031858007402e+001
0	 5.933329999996681e+000	 0.000000000000000e+000	 1.020790141331014e+001
0	 5.933329999996681e+000	 6.666714722864756e-002	 1.020895886387813e+001
0	 5.933329999996682e+000	 1.333351778131789e-001	 1.020994635826277e+001
0	 5.933329999996682e+000	 2.000039750814773e-001	 1.021092480641844e+001
0	 5.933329999996681e+000	 2.666734223614256e-001	 1.021195512600797e+001
0	 5.933329999996682e+000	 3.333434029809069e-001	 1.021309824240194e+001
0	 5.933329999996681e+000	 4.000138002678044e-001	 1.021441508867829e+001
0	 5.933329999996681e+000	 4.666844975500012e-001	 1.021596660562207e+001
0	 5.933329999996682e+000	 5.333553781553803e-001	 1.021781374172538e+001
0	 5.933329999996682e+000	 6.000263254118248e-001	 1.022001745318758e+001
0	 5.933329999996681e+000	 6.666972226472175e-001	 1.022263870391563e+001
0	 6.000000000000000e+000	 0.000000000000000e+000	 1.019758575473333e+001
0	 6.000000000000001e+000	 6.666714722864757e-002	 1.019871420515216e+001
0	 6.000000000000000e+000	 1.333351778131789e-001	 1.019983894260992e+001
0	 6.000000000000000e+000	 2.000039750814772e-001	 1.020100814683310e+001
0	 6.000000000000001e+000	 2.666734223614256e-001	 1.020227000473582e+001
0	 6.000000000000000e+000	 3.333434029809069e-001	 1.020367271041931e+001
0	 6.000000000000001e+000	 4.000138002678044e-001	 1.020526446517146e+001
0	 5.999999999999998e+000	 4.666844975500010e-001	 1.020709347746666e+001
0	 6.000000000000000e+000	 5.333553781553804e-001	 1.020920796296583e+001
0	 6.000000000000000e+000	 6.000263254118248e-001	 1.021165614451654e+001
0	 6.000000000000000e+000	 6.666972226472177e-001	 1.021448625215346e+001
0	 5.333299999983334e+000	 6.666972226472175e-001	 1.029637632794569e+001
0	 5.333299999983334e+000	 7.333579753122048e-001	 1.030121636737840e+001
0	 5.333299999983334e+000	 8.000185779984417e-001	 1.030603442417269e+001
0	 5.333299999983334e+000	 8.666790473703453e-001	 1.031090276941760e+001
0	 5.333299999983335e+000	 9.333394000923322e-001	 1.031589367307329e+001
0	 5.333299999983333e+000	 9.999996528288189e-001	 1.032107940397110e+001
0	 5.333299999983334e+000	 1.066659822244222e+000	 1.032653222981352e+001
0	 5.333299999983335e+000	 1.133319925002959e+000	 1.033232441717419e+001
0	 5.333299999983334e+000	 1.199979977769445e+000	 1.033852823149795e+001
0	 5.333299999983333e+000	 1.266639997208098e+000	 1.034521593710081e+001
0	 5.333299999983335e+000	 1.333299999983334e+000	 1.035245979717002e+001
0	 5.399969999982150e+000	 6.666972226472177e-001	 1.028598761851543e+001
0	 5.399969999982149e+000	 7.333579753122046e-001	 1.029008218350175e+001
0	 5.399969999982150e+000	 8.000185779984418e-001	 1.029432418130659e+001
0	 5.399969999982149e+000	 8.666790473703453e-001	 1.029877439087677e+001
0	 5.399969999982148e+000	 9.333394000923320e-001	 1.030349358993482e+001
0	 5.399969999982149e+000	 9.999996528288190e-001	 1.030854255497898e+001
0	 5.399969999982151e+000	 1.066659822244222e+000	 1.031398206128318e+001
0	 5.399969999982148e+000	 1.133319925002958e+000	 1.031987288289708e+001
0	 5.399969999982149e+000	 1.199979977769445e+000	 1.032627579264606e+001
0	 5.399969999982150e+000	 1.266639997208098e+000	 1.033325156213121e+001
0	 5.399969999982150e+000	 1.333299999983334e+000	 1.034086096172941e+001
0	 5.466639999981865e+000	 6.666972226472178e-001	 1.027656843083738e+001
0	 5.466639999981867e+000	 7.333579753122050e-001	 1.028009284581775e+001
0	 5.466639999981864e+000	 8.000185779984415e-001	 1.028387238884072e+001
0	 5.466639999981866e+000	 8.666790473703452e-001	 1.028795760632829e+001
0	 5.466639999981865e+000	 9.333394000923321e-001	 1.029239904345778e+001
0	 5.466639999981866e+000	 9.999996528288188e-001	 1.029724724416195e+001
0	 5.466639999981865e+000	 1.066659822244222e+000	 1.030255275112891e+001
0	 5.466639999981866e+000	 1.133319925002959e+000	 1.030836610580216e+001
0	 5.466639999981867e+000	 1.199979977769445e+000	 1.031473784838058e+001
0	 5.466639999981866e+000	 1.266639997208098e+000	 1.032171851781849e+001
0	 5.466639999981866e+000	 1.333299999983334e+000	 1.032935865182562e+001
0	 5.533309999982381e+000	 6.666972226472175e-001	 1.026793850274205e+001
0	 5.533309999982381e+000	 7.333579753122048e-001	 1.027104918690800e+001
0	 5.533309999982382e+000	 8.000185779984415e-001	 1.027446975528591e+001
0	 5.533309999982384e+000	 8.666790473703456e-001	 1.027824178145384e+001
0	 5.533309999982382e+000	 9.333394000923322e-001	 1.028240683778682e+001
0	 5.533309999982383e+000	 9.999996528288191e-001	 1.028700649545691e+001
0	 5.533309999982382e+000	 1.066659822244222e+000	 1.029208232443318e+001
0	 5.533309999982381e+000	 1.133319925002958e+000	 1.029767589348171e+001
0	 5.533309999982381e+000	 1.199979977769445e+000	 1.030382877016559e+001
0	 5.533309999982383e+000	 1.266639997208098e+000	 1.031058252084499e+001
0	 5.533309999982381e+000	 1.333299999983334e+000	 1.031797871067710e+001
0	 5.599979999983600e+000	 6.666972226472177e-001	 1.025991757205997e+001
0	 5.599979999983598e+000	 7.333579753122048e-001	 1.026275203935414e+001
0	 5.599979999983598e+000	 8.000185779984416e-001	 1.026590698915301e+001
0	 5.599979999983598e+000	 8.666790473703452e-001	 1.026941628193517e+001
0	 5.599979999983597e+000	 9.333394000923319e-001	 1.027331377706661e+001
0	 5.599979999983599e+000	 9.999996528288191e-001	 1.027763333280076e+001
0	 5.599979999983598e+000	 1.066659822244222e+000	 1.028240880627847e+001
0	 5.599979999983600e+000	 1.133319925002959e+000	 1.028767405352802e+001
0	 5.599979999983598e+000	 1.199979977769445e+000	 1.029346292946514e+001
0	 5.599979999983599e+000	 1.266639997208098e+000	 1.029980928789303e+001
0	 5.599979999983598e+000	 1.333299999983334e+000	 1.030674698150230e+001
0	 5.666649999985415e+000	 6.666972226472177e-001	 1.025232537662162e+001
0	 5.666649999985416e+000	 7.333579753122049e-001	 1.025500223573778e+001
0	 5.666649999985413e+000	 8.000185779984415e-001	 1.025797479895284e+001
0	 5.666649999985414e+000	 8.666790473703451e-001	 1.026127047345398e+001
0	 5.666649999985414e+000	 9.333394000923319e-001	 1.026491666544181e+001
0	 5.666649999985416e+000	 9.999996528288189e-001	 1.026894078013040e+001
0	 5.666649999985416e+000	 1.066659822244222e+000	 1.027337022174727e+001
0	 5.666649999985414e+000	 1.133319925002959e+000	 1.027823239353342e+001
0	 5.666649999985418e+000	 1.199979977769445e+000	 1.028355469774333e+001
0	 5.666649999985416e+000	 1.266639997208098e+000	 1.028936453564492e+001
0	 5.666649999985414e+000	 1.333299999983334e+000	 1.029568930751966e+001
0	 5.733319999987732e+000	 6.666972226472178e-001	 1.024498165425751e+001
0	 5.733319999987732e+000	 7.333579753122048e-001	 1.024760060864057e+001
0	 5.733319999987729e+000	 8.000185779984415e-001	 1.025046389319627e+001
0	 5.733319999987730e+000	 8.666790473703452e-001	 1.025359372169201e+001
0	 5.733319999987731e+000	 9.333394000923322e-001	 1.025701230705708e+001
0	 5.733319999987732e+000	 9.999996528288190e-001	 1.026074186138272e+001
0	 5.733319999987732e+000	 1.066659822244222e+000	 1.026480459592206e+001
0	 5.733319999987732e+000	 1.133319925002959e+000	 1.026922272109021e+001
0	 5.733319999987732e+000	 1.199979977769445e+000	 1.027401844646420e+001
0	 5.733319999987731e+000	 1.266639997208098e+000	 1.027921398078301e+001
0	 5.733319999987731e+000	 1.333299999983334e+000	 1.028483153194763e+001
0	 5.799989999990448e+000	 6.666972226472177e-001	 1.023770614279814e+001
0	 5.799989999990448e+000	 7.333579753122048e-001	 1.024034799064411e+001
0	 5.799989999990449e+000	 8.000185779984417e-001	 1.024316498039411e+001
0	 5.799989999990448e+000	 8.666790473703451e-001	 1.024617539233096e+001
0	 5.799989999990448e+000	 9.333394000923323e-001	 1.024939750605709e+001
0	 5.799989999990447e+000	 9.999996528288188e-001	 1.025284960049461e+001
0	 5.799989999990448e+000	 1.066659822244222e+000	 1.025654995388532e+001
0	 5.799989999990448e+000	 1.133319925002958e+000	 1.026051684379068e+001
0	 5.799989999990449e+000	 1.199979977769445e+000	 1.026476854709182e+001
0	 5.799989999990447e+000	 1.266639997208098e+000	 1.026932333998962e+001
0	 5.799989999990449e+000	 1.333299999983334e+000	 1.027419949800465e+001
0	 5.866659999993466e+000	 6.666972226472178e-001	 1.023031858007402e+001
0	 5.866659999993463e+000	 7.333579753122048e-001	 1.023304521433002e+001
0	 5.866659999993465e+000	 8.000185779984417e-001	 1.023586876905721e+001
0	 5.866659999993464e+000	 8.666790473703452e-001	 1.023880485105254e+001
0	 5.866659999993464e+000	 9.333394000923323e-001	 1.024186906658648e+001
0	 5.866659999993464e+000	 9.999996528288189e-001	 1.024507702140300e+001
0	 5.866659999993465e+000	 1.066659822244222e+000	 1.024844432071954e+001
0	 5.866659999993465e+000	 1.133319925002959e+000	 1.025198656922713e+001
0	 5.866659999993466e+000	 1.199979977769445e+000	 1.025571937109028e+001
0	 5.866659999993464e+000	 1.266639997208098e+000	 1.025965832994709e+001
0	 5.866659999993464e+000	 1.333299999983334e+000	 1.026381904890917e+001
0	 5.933329999996681e+000	 6.666972226472175e-001	 1.022263870391563e+001
0	 5.933329999996681e+000	 7.333579753122046e-001	 1.022549311227993e+001
0	 5.933329999996682e+000	 8.000185779984416e-001	 1.022836596769639e+001
0	 5.933329999996682e+000	 8.666790473703454e-001	 1.023127146353849e+001
0	 5.933329999996682e+000	 9.333394000923322e-001	 1.023422379278994e+001
0	 5.933329999996681e+000	 9.999996528288190e-001	 1.023723714804474e+001
0	 5.933329999996681e+000	 1.066659822244222e+000	 1.024032572150720e+001
0	 5.933329999996682e+000	 1.133319925002959e+000	 1.024350370499187e+001
0	 5.933329999996682e+000	 1.199979977769445e+000	 1.024678528992364e+001
0	 5.933329999996682e+000	 1.266639997208098e+000	 1.025018466733772e+001
0	 5.933329999996681e+000	 1.333299999983334e+000	 1.025371602787964e+001
0	 6.000000000000000e+000	 6.666972226472177e-001	 1.021448625215346e+001
0	 6.000000000000000e+000	 7.333579753122046e-001	 1.021749251707545e+001
0	 6.000000000000000e+000	 8.000185779984417e-001	 1.022044728482250e+001
0	 6.000000000000002e+000	 8.666790473703454e-001	 1.022336459547051e+001
0	 6.000000000000000e+000	 9.333394000923323e-001	 1.022625848881211e+001
0	 5.999999999999999e+000	 9.999996528288190e-001	 1.022914300435678e+001
0	 6.000000000000000e+000	 1.066659822244222e+000	 1.023203218133078e+001
0	 6.000000000000001e+000	 1.133319925002959e+000	 1.023494005867721e+001
0	 6.000000000000000e+000	 1.199979977769445e+000	 1.023788067505598e+001
0	 6.000000000000000e+000	 1.266639997208098e+000	 1.024086806884387e+001
0	 6.000000000000000e+000	 1.333299999983334e+000	 1.024391627813451e+001
0	 5.333299999983335e+000	 1.333299999983334e+000	 1.035245979717002e+001
0	 5.333299999983333e+000	 1.399969999982150e+000	 1.035970935604197e+001
0	 5.333299999983335e+000	 1.466639999981867e+000	 1.036638383708414e+001
0	 5.333299999983333e+000	 1.533309999982383e+000	 1.037251341723462e+001
0	 5.333299999983335e+000	 1.599979999983599e+000	 1.037812827343145e+001
0	 5.333299999983334e+000	 1.666649999985416e+000	 1.038325858261271e+001
0	 5.333299999983334e+000	 1.733319999987733e+000	 1.038793452171646e+001
0	 5.333299999983333e+000	 1.799989999990449e+000	 1.039218626768075e+001
0	 5.333299999983334e+000	 1.866659999993466e+000	 1.039604399744361e+001
0	 5.333299999983334e+000	 1.933329999996684e+000	 1.039953788794311e+001
0	 5.333299999983333e+000	 2.000000000000000e+000	 1.040269811611729e+001
0	 5.399969999982150e+000	 1.333299999983334e+000	 1.034086096172942e+001
0	 5.399969999982148e+000	 1.399969999982150e+000	 1.034846423383869e+001
0	 5.399969999982150e+000	 1.466639999981866e+000	 1.035540057982307e+001
0	 5.399969999982149e+000	 1.533309999982383e+000	 1.036170278385987e+001
0	 5.399969999982148e+000	 1.599979999983599e+000	 1.036740363012642e+001
0	 5.399969999982151e+000	 1.666649999985416e+000	 1.037253590280002e+001
0	 5.399969999982149e+000	 1.733319999987733e+000	 1.037713238605799e+001
0	 5.399969999982148e+000	 1.799989999990450e+000	 1.038122586407761e+001
0	 5.399969999982151e+000	 1.866659999993466e+000	 1.038484912103621e+001
0	 5.399969999982151e+000	 1.933329999996683e+000	 1.038803494111106e+001
0	 5.399969999982148e+000	 2.000000000000000e+000	 1.039081610847946e+001
0	 5.466639999981866e+000	 1.333299999983334e+000	 1.032935865182562e+001
0	 5.466639999981865e+000	 1.399969999982150e+000	 1.033698567499792e+001
0	 5.466639999981866e+000	 1.466639999981867e+000	 1.034391403971786e+001
0	 5.466639999981866e+000	 1.533309999982383e+000	 1.035017841882133e+001
0	 5.466639999981867e+000	 1.599979999983599e+000	 1.035581348514422e+001
0	 5.466639999981866e+000	 1.666649999985416e+000	 1.036085391152240e+001
0	 5.466639999981864e+000	 1.733319999987733e+000	 1.036533437079176e+001
0	 5.466639999981867e+000	 1.799989999990450e+000	 1.036928953578816e+001
0	 5.466639999981866e+000	 1.866659999993466e+000	 1.037275407934746e+001
0	 5.466639999981868e+000	 1.933329999996684e+000	 1.037576267430552e+001
0	 5.466639999981868e+000	 2.000000000000000e+000	 1.037834999349820e+001
0	 5.533309999982381e+000	 1.333299999983334e+000	 1.031797871067711e+001
0	 5.533309999982382e+000	 1.399969999982150e+000	 1.032535893147899e+001
0	 5.533309999982381e+000	 1.466639999981866e+000	 1.033205864122899e+001
0	 5.533309999982382e+000	 1.533309999982383e+000	 1.033811368284088e+001
0	 5.533309999982382e+000	 1.599979999983600e+000	 1.034355989922843e+001
0	 5.533309999982382e+000	 1.666649999985416e+000	 1.034843313330541e+001
0	 5.533309999982383e+000	 1.733319999987733e+000	 1.035276922798554e+001
0	 5.533309999982381e+000	 1.799989999990450e+000	 1.035660402618261e+001
0	 5.533309999982381e+000	 1.866659999993466e+000	 1.035997337081036e+001
0	 5.533309999982383e+000	 1.933329999996683e+000	 1.036291310478251e+001
0	 5.533309999982382e+000	 2.000000000000000e+000	 1.036545907101282e+001
0	 5.599979999983598e+000	 1.333299999983334e+000	 1.030674698150230e+001
0	 5.599979999983598e+000	 1.399969999982150e+000	 1.031366925524124e+001
0	 5.599979999983599e+000	 1.466639999981866e+000	 1.031996880881697e+001
0	 5.599979999983599e+000	 1.533309999982383e+000	 1.032568193664046e+001
0	 5.599979999983598e+000	 1.599979999983599e+000	 1.033084493312266e+001
0	 5.599979999983598e+000	 1.666649999985416e+000	 1.033549409267456e+001
0	 5.599979999983598e+000	 1.733319999987733e+000	 1.033966570970710e+001
0	 5.599979999983598e+000	 1.799989999990449e+000	 1.034339607863123e+001
0	 5.599979999983598e+000	 1.866659999993467e+000	 1.034672149385790e+001
0	 5.599979999983598e+000	 1.933329999996683e+000	 1.034967824979805e+001
0	 5.599979999983599e+000	 2.000000000000000e+000	 1.035230264086261e+001
0	 5.666649999985414e+000	 1.333299999983334e+000	 1.029568930751966e+001
0	 5.666649999985417e+000	 1.399969999982150e+000	 1.030200189824400e+001
0	 5.666649999985416e+000	 1.466639999981867e+000	 1.030777896694227e+001
0	 5.666649999985414e+000	 1.533309999982383e+000	 1.031305654094194e+001
0	 5.666649999985414e+000	 1.599979999983599e+000	 1.031787064757050e+001
0	 5.666649999985415e+000	 1.666649999985416e+000	 1.032225731415542e+001
0	 5.666649999985414e+000	 1.733319999987733e+000	 1.032625256802419e+001
0	 5.666649999985415e+000	 1.799989999990449e+000	 1.032989243650425e+001
0	 5.666649999985417e+000	 1.866659999993466e+000	 1.033321294692309e+001
0	 5.666649999985414e+000	 1.933329999996683e+000	 1.033625012660814e+001
0	 5.666649999985415e+000	 2.000000000000000e+000	 1.033904000288688e+001
0	 5.733319999987731e+000	 1.333299999983334e+000	 1.028483153194763e+001
0	 5.733319999987732e+000	 1.399969999982150e+000	 1.029044211244661e+001
0	 5.733319999987733e+000	 1.466639999981866e+000	 1.029562354006539e+001
0	 5.733319999987733e+000	 1.533309999982383e+000	 1.030041085646725e+001
0	 5.733319999987730e+000	 1.599979999983600e+000	 1.030483910331554e+001
0	 5.733319999987731e+000	 1.666649999985416e+000	 1.030894332227354e+001
0	 5.733319999987731e+000	 1.733319999987733e+000	 1.031275855500458e+001
0	 5.733319999987732e+000	 1.799989999990450e+000	 1.031631984317193e+001
0	 5.733319999987731e+000	 1.866659999993466e+000	 1.031966222843891e+001
0	 5.733319999987733e+000	 1.933329999996683e+000	 1.032282075246880e+001
0	 5.733319999987732e+000	 2.000000000000000e+000	 1.032583045692491e+001
0	 5.799989999990449e+000	 1.333299999983334e+000	 1.027419949800465e+001
0	 5.799989999990447e+000	 1.399969999982150e+000	 1.027907514980841e+001
0	 5.799989999990447e+000	 1.466639999981866e+000	 1.028363695264681e+001
0	 5.799989999990448e+000	 1.533309999982383e+000	 1.028791824393831e+001
0	 5.799989999990448e+000	 1.599979999983600e+000	 1.029195236110137e+001
0	 5.799989999990449e+000	 1.666649999985416e+000	 1.029577264155446e+001
0	 5.799989999990448e+000	 1.733319999987733e+000	 1.029941242271601e+001
0	 5.799989999990449e+000	 1.799989999990450e+000	 1.030290504200450e+001
0	 5.799989999990447e+000	 1.866659999993466e+000	 1.030628383683836e+001
0	 5.799989999990449e+000	 1.933329999996683e+000	 1.030958214463604e+001
0	 5.799989999990447e+000	 2.000000000000000e+000	 1.031283330281601e+001
0	 5.866659999993464e+000	 1.333299999983334e+000	 1.026381904890917e+001
0	 5.866659999993464e+000	 1.399969999982150e+000	 1.026798626228873e+001
0	 5.866659999993465e+000	 1.466639999981866e+000	 1.027195362914704e+001
0	 5.866659999993463e+000	 1.533309999982383e+000	 1.027575206407702e+001
0	 5.866659999993464e+000	 1.599979999983599e+000	 1.027941248167160e+001
0	 5.866659999993466e+000	 1.666649999985416e+000	 1.028296579652371e+001
0	 5.866659999993465e+000	 1.733319999987733e+000	 1.028644292322628e+001
0	 5.866659999993464e+000	 1.799989999990449e+000	 1.028987477637221e+001
0	 5.866659999993465e+000	 1.866659999993466e+000	 1.029329227055444e+001
0	 5.866659999993464e+000	 1.933329999996683e+000	 1.029672632036588e+001
0	 5.866659999993463e+000	 2.000000000000000e+000	 1.030020784039946e+001
0	 5.933329999996681e+000	 1.333299999983334e+000	 1.025371602787964e+001
0	 5.933329999996681e+000	 1.399969999982150e+000	 1.025726070184691e+001
0	 5.933329999996682e+000	 1.466639999981866e+000	 1.026070799402656e+001
0	 5.933329999996682e+000	 1.533309999982383e+000	 1.026408567760529e+001
0	 5.933329999996680e+000	 1.599979999983600e+000	 1.026742152576982e+001
0	 5.933329999996681e+000	 1.666649999985416e+000	 1.027074331170687e+001
0	 5.933329999996680e+000	 1.733319999987733e+000	 1.027407880860313e+001
0	 5.933329999996682e+000	 1.799989999990450e+000	 1.027745578964531e+001
0	 5.933329999996682e+000	 1.866659999993466e+000	 1.028090202802015e+001
0	 5.933329999996682e+000	 1.933329999996683e+000	 1.028444529691433e+001
0	 5.933329999996681e+000	 2.000000000000000e+000	 1.028811336951457e+001
0	 6.000000000000000e+000	 1.333299999983334e+000	 1.024391627813452e+001
0	 5.999999999999999e+000	 1.399969999982150e+000	 1.024698372044230e+001
0	 6.000000000000000e+000	 1.466639999981866e+000	 1.025003447174587e+001
0	 6.000000000000000e+000	 1.533309999982383e+000	 1.025309244524504e+001
0	 6.000000000000001e+000	 1.599979999983600e+000	 1.025618155413964e+001
0	 6.000000000000000e+000	 1.666649999985416e+000	 1.025932571162946e+001
0	 6.000000000000002e+000	 1.733319999987733e+000	 1.026254883091434e+001
0	 6.000000000000000e+000	 1.799989999990450e+000	 1.026587482519406e+001
0	 5.999999999999998e+000	 1.866659999993466e+000	 1.026932760766849e+001
0	 6.000000000000000e+000	 1.933329999996683e+000	 1.027293109153740e+001
0	 5.999999999999999e+000	 2.000000000000000e+000	 1.027670919000063e+001
0	 5.333299999983333e+000	 2.000000000000000e+000	 1.040269811611729e+001
0	 5.333299999983333e+000	 2.066670000003317e+000	 1.040545871688072e+001
0	 5.333299999983333e+000	 2.133340000006534e+000	 1.040775144745625e+001
0	 5.333299999983335e+000	 2.200010000009550e+000	 1.040960306824433e+001
0	 5.333299999983333e+000	 2.266680000012268e+000	 1.041104033964541e+001
0	 5.333299999983335e+000	 2.333350000014584e+000	 1.041209002205992e+001
0	 5.333299999983334e+000	 2.400020000016401e+000	 1.041277887588830e+001
0	 5.333299999983334e+000	 2.466690000017617e+000	 1.041313366153097e+001
0	 5.333299999983335e+000	 2.533360000018134e+000	 1.041318113938833e+001
0	 5.333299999983333e+000	 2.600030000017851e+000	 1.041294806986082e+001
0	 5.333299999983334e+000	 2.666700000016666e+000	 1.041246121334883e+001
0	 5.399969999982148e+000	 2.000000000000000e+000	 1.039081610847946e+001
0	 5.399969999982150e+000	 2.066670000003317e+000	 1.039321382688845e+001
0	 5.399969999982151e+000	 2.133340000006534e+000	 1.039523809109364e+001
0	 5.399969999982150e+000	 2.200010000009551e+000	 1.039690487178515e+001
0	 5.399969999982149e+000	 2.266680000012267e+000	 1.039823013965305e+001
0	 5.399969999982151e+000	 2.333350000014584e+000	 1.039922986538744e+001
0	 5.399969999982149e+000	 2.400020000016401e+000	 1.039992001967841e+001
0	 5.399969999982149e+000	 2.466690000017617e+000	 1.040031657321603e+001
0	 5.399969999982150e+000	 2.533360000018133e+000	 1.040043549669038e+001
0	 5.399969999982149e+000	 2.600030000017851e+000	 1.040029276079152e+001
0	 5.399969999982149e+000	 2.666700000016667e+000	 1.039990433620954e+001
0	 5.466639999981868e+000	 2.000000000000000e+000	 1.037834999349820e+001
0	 5.466639999981867e+000	 2.066670000003318e+000	 1.038058535988062e+001
0	 5.466639999981867e+000	 2.133340000006534e+000	 1.038251968750433e+001
0	 5.466639999981867e+000	 2.200010000009550e+000	 1.038416003584971e+001
0	 5.466639999981865e+000	 2.266680000012267e+000	 1.038551346439719e+001
0	 5.466639999981867e+000	 2.333350000014584e+000	 1.038658703262714e+001
0	 5.466639999981866e+000	 2.400020000016401e+000	 1.038738780001997e+001
0	 5.466639999981866e+000	 2.466690000017617e+000	 1.038792282605606e+001
0	 5.466639999981864e+000	 2.533360000018134e+000	 1.038819917021580e+001
0	 5.466639999981865e+000	 2.600030000017849e+000	 1.038822389197957e+001
0	 5.466639999981866e+000	 2.666700000016666e+000	 1.038800405082773e+001
0	 5.533309999982382e+000	 2.000000000000000e+000	 1.036545907101282e+001
0	 5.533309999982382e+000	 2.066670000003316e+000	 1.036769590390966e+001
0	 5.533309999982381e+000	 2.133340000006534e+000	 1.036968436045319e+001
0	 5.533309999982383e+000	 2.200010000009550e+000	 1.037142446741478e+001
0	 5.533309999982383e+000	 2.266680000012267e+000	 1.037291625156579e+001
0	 5.533309999982382e+000	 2.333350000014584e+000	 1.037415973967756e+001
0	 5.533309999982384e+000	 2.400020000016401e+000	 1.037515495852149e+001
0	 5.533309999982381e+000	 2.466690000017617e+000	 1.037590193486889e+001
0	 5.533309999982381e+000	 2.533360000018134e+000	 1.037640069549113e+001
0	 5.533309999982381e+000	 2.600030000017849e+000	 1.037665126715953e+001
0	 5.533309999982382e+000	 2.666700000016666e+000	 1.037665367664545e+001
0	 5.599979999983599e+000	 2.000000000000000e+000	 1.035230264086261e+001
0	 5.599979999983598e+000	 2.066670000003316e+000	 1.035466804702794e+001
0	 5.599979999983598e+000	 2.133340000006534e+000	 1.035682023370508e+001
0	 5.599979999983598e+000	 2.200010000009550e+000	 1.035875407345704e+001
0	 5.599979999983598e+000	 2.266680000012268e+000	 1.036046443884676e+001
0	 5.599979999983599e+000	 2.333350000014584e+000	 1.036194620243724e+001
0	 5.599979999983599e+000	 2.400020000016400e+000	 1.036319423679144e+001
0	 5.599979999983598e+000	 2.466690000017617e+000	 1.036420341447233e+001
0	 5.599979999983598e+000	 2.533360000018133e+000	 1.036496860804288e+001
0	 5.599979999983598e+000	 2.600030000017850e+000	 1.036548469006604e+001
0	 5.599979999983598e+000	 2.666700000016666e+000	 1.036574653310475e+001
0	 5.666649999985415e+000	 2.000000000000000e+000	 1.033904000288688e+001
0	 5.666649999985413e+000	 2.066670000003316e+000	 1.034162437728787e+001
0	 5.666649999985417e+000	 2.133340000006535e+000	 1.034401543102490e+001
0	 5.666649999985415e+000	 2.200010000009550e+000	 1.034620476095321e+001
0	 5.666649999985414e+000	 2.266680000012267e+000	 1.034818396392806e+001
0	 5.666649999985415e+000	 2.333350000014583e+000	 1.034994463680469e+001
0	 5.666649999985416e+000	 2.400020000016401e+000	 1.035147837643833e+001
0	 5.666649999985415e+000	 2.466690000017617e+000	 1.035277677968422e+001
0	 5.666649999985417e+000	 2.533360000018134e+000	 1.035383144339758e+001
0	 5.666649999985416e+000	 2.600030000017851e+000	 1.035463396443366e+001
0	 5.666649999985415e+000	 2.666700000016666e+000	 1.035517593964767e+001
0	 5.733319999987732e+000	 2.000000000000000e+000	 1.032583045692491e+001
0	 5.733319999987732e+000	 2.066670000003317e+000	 1.032868748274185e+001
0	 5.733319999987731e+000	 2.133340000006534e+000	 1.033135807617751e+001
0	 5.733319999987732e+000	 2.200010000009550e+000	 1.033383243688004e+001
0	 5.733319999987730e+000	 2.266680000012267e+000	 1.033610076449764e+001
0	 5.733319999987731e+000	 2.333350000014583e+000	 1.033815325867845e+001
0	 5.733319999987730e+000	 2.400020000016400e+000	 1.033998011907063e+001
0	 5.733319999987733e+000	 2.466690000017617e+000	 1.034157154532235e+001
0	 5.733319999987733e+000	 2.533360000018134e+000	 1.034291773708177e+001
0	 5.733319999987732e+000	 2.600030000017851e+000	 1.034400889399701e+001
0	 5.733319999987732e+000	 2.666700000016666e+000	 1.034483521571624e+001
0	 5.799989999990447e+000	 2.000000000000000e+000	 1.031283330281601e+001
0	 5.799989999990448e+000	 2.066670000003317e+000	 1.031597995144227e+001
0	 5.799989999990448e+000	 2.133340000006534e+000	 1.031893629292777e+001
0	 5.799989999990450e+000	 2.200010000009551e+000	 1.032169300821423e+001
0	 5.799989999990448e+000	 2.266680000012268e+000	 1.032424077824341e+001
0	 5.799989999990449e+000	 2.333350000014584e+000	 1.032657028395703e+001
0	 5.799989999990449e+000	 2.400020000016400e+000	 1.032867220629684e+001
0	 5.799989999990449e+000	 2.466690000017618e+000	 1.033053722620456e+001
0	 5.799989999990448e+000	 2.533360000018134e+000	 1.033215602462193e+001
0	 5.799989999990447e+000	 2.600030000017850e+000	 1.033351928249067e+001
0	 5.799989999990448e+000	 2.666700000016666e+000	 1.033461768075251e+001
0	 5.866659999993463e+000	 2.000000000000000e+000	 1.030020784039946e+001
0	 5.866659999993463e+000	 2.066670000003316e+000	 1.030362437144155e+001
0	 5.866659999993465e+000	 2.133340000006534e+000	 1.030683820504058e+001
0	 5.866659999993464e+000	 2.200010000009550e+000	 1.030984238193250e+001
0	 5.866659999993466e+000	 2.266680000012267e+000	 1.031262994285331e+001
0	 5.866659999993466e+000	 2.333350000014584e+000	 1.031519392853896e+001
0	 5.866659999993464e+000	 2.400020000016400e+000	 1.031752737972543e+001
0	 5.866659999993464e+000	 2.466690000017618e+000	 1.031962333714866e+001
0	 5.866659999993464e+000	 2.533360000018133e+000	 1.032147484154461e+001
0	 5.866659999993465e+000	 2.600030000017850e+000	 1.032307493364923e+001
0	 5.866659999993464e+000	 2.666700000016666e+000	 1.032441665419849e+001
0	 5.933329999996681e+000	 2.000000000000000e+000	 1.028811336951457e+001
0	 5.933329999996682e+000	 2.066670000003318e+000	 1.029174333079206e+001
0	 5.933329999996681e+000	 2.133340000006534e+000	 1.029515193628078e+001
0	 5.933329999996682e+000	 2.200010000009550e+000	 1.029833646501157e+001
0	 5.933329999996681e+000	 2.266680000012267e+000	 1.030129419601529e+001
0	 5.933329999996681e+000	 2.333350000014583e+000	 1.030402240832278e+001
0	 5.933329999996680e+000	 2.400020000016401e+000	 1.030651838096488e+001
0	 5.933329999996681e+000	 2.466690000017616e+000	 1.030877939297245e+001
0	 5.933329999996681e+000	 2.533360000018134e+000	 1.031080272337630e+001
0	 5.933329999996681e+000	 2.600030000017850e+000	 1.031258565120729e+001
0	 5.933329999996681e+000	 2.666700000016666e+000	 1.031412545549622e+001
0	 5.999999999999999e+000	 2.000000000000000e+000	 1.027670919000063e+001
0	 6.000000000000000e+000	 2.066670000003318e+000	 1.028045941754622e+001
0	 5.999999999999999e+000	 2.133340000006534e+000	 1.028396561041326e+001
0	 6.000000000000001e+000	 2.200010000009551e+000	 1.028723116442815e+001
0	 6.000000000000002e+000	 2.266680000012268e+000	 1.029025947541726e+001
0	 6.000000000000000e+000	 2.333350000014584e+000	 1.029305393920698e+001
0	 6.000000000000000e+000	 2.400020000016401e+000	 1.029561795162368e+001
0	 6.000000000000000e+000	 2.466690000017617e+000	 1.029795490849374e+001
0	 6.000000000000001e+000	 2.533360000018133e+000	 1.030006820564352e+001
0	 5.999999999999998e+000	 2.600030000017850e+000	 1.030196123889940e+001
0	 6.000000000000000e+000	 2.666700000016666e+000	 1.030363740408774e+001
0	 5.333299999983334e+000	 2.666700000016666e+000	 1.041246121334883e+001
0	 5.333299999983334e+000	 2.733360000014532e+000	 1.041180426561937e+001
0	 5.333299999983334e+000	 2.800020000011599e+000	 1.041103249177681e+001
0	 5.333299999983334e+000	 2.866680000008067e+000	 1.041013027838752e+001
0	 5.333299999983335e+000	 2.933340000004133e+000	 1.040908201201783e+001
0	 5.333299999983333e+000	 3.000000000000000e+000	 1.040787207923411e+001
0	 5.333299999983334e+000	 3.066659999995867e+000	 1.040648486660273e+001
0	 5.333299999983334e+000	 3.133319999991934e+000	 1.040490476069006e+001
0	 5.333299999983333e+000	 3.199979999988401e+000	 1.040311614806252e+001
0	 5.333299999983334e+000	 3.266639999985468e+000	 1.040110341528648e+001
0	 5.333299999983335e+000	 3.333299999983334e+000	 1.039885094892835e+001
0	 5.399969999982149e+000	 2.666700000016667e+000	 1.039990433620954e+001
0	 5.399969999982151e+000	 2.733360000014533e+000	 1.039934341514184e+001
0	 5.399969999982148e+000	 2.800020000011598e+000	 1.039866834961479e+001
0	 5.399969999982149e+000	 2.866680000008067e+000	 1.039787307772589e+001
0	 5.399969999982151e+000	 2.933340000004134e+000	 1.039695153757261e+001
0	 5.399969999982150e+000	 3.000000000000000e+000	 1.039589766725247e+001
0	 5.399969999982149e+000	 3.066659999995868e+000	 1.039470540486297e+001
0	 5.399969999982148e+000	 3.133319999991934e+000	 1.039336868850163e+001
0	 5.399969999982150e+000	 3.199979999988400e+000	 1.039188145626598e+001
0	 5.399969999982151e+000	 3.266639999985468e+000	 1.039023764625357e+001
0	 5.399969999982149e+000	 3.333299999983333e+000	 1.038843119656192e+001
0	 5.466639999981866e+000	 2.666700000016666e+000	 1.038800405082773e+001
0	 5.466639999981867e+000	 2.733360000014533e+000	 1.038759858185489e+001
0	 5.466639999981864e+000	 2.800020000011599e+000	 1.038706290220809e+001
0	 5.466639999981865e+000	 2.866680000008066e+000	 1.038639894733504e+001
0	 5.466639999981865e+000	 2.933340000004133e+000	 1.038560865268340e+001
0	 5.466639999981864e+000	 2.999999999999999e+000	 1.038469395370089e+001
0	 5.466639999981865e+000	 3.066659999995866e+000	 1.038365678583520e+001
0	 5.466639999981866e+000	 3.133319999991934e+000	 1.038249908453404e+001
0	 5.466639999981865e+000	 3.199979999988400e+000	 1.038122278524514e+001
0	 5.466639999981867e+000	 3.266639999985467e+000	 1.037982982341623e+001
0	 5.466639999981866e+000	 3.333299999983334e+000	 1.037832213449504e+001
0	 5.533309999982382e+000	 2.666700000016666e+000	 1.037665367664545e+001
0	 5.533309999982382e+000	 2.733360000014533e+000	 1.037644987705080e+001
0	 5.533309999982382e+000	 2.800020000011600e+000	 1.037608735287761e+001
0	 5.533309999982384e+000	 2.866680000008067e+000	 1.037557448274279e+001
0	 5.533309999982381e+000	 2.933340000004133e+000	 1.037491964526329e+001
0	 5.533309999982381e+000	 3.000000000000000e+000	 1.037413121905605e+001
0	 5.533309999982382e+000	 3.066659999995867e+000	 1.037321758273802e+001
0	 5.533309999982383e+000	 3.133319999991935e+000	 1.037218711492617e+001
0	 5.533309999982382e+000	 3.199979999988400e+000	 1.037104819423746e+001
0	 5.533309999982382e+000	 3.266639999985468e+000	 1.036980919928886e+001
0	 5.533309999982383e+000	 3.333299999983334e+000	 1.036847850869735e+001
0	 5.599979999983598e+000	 2.666700000016666e+000	 1.036574653310475e+001
0	 5.599979999983598e+000	 2.733360000014533e+000	 1.036577741202191e+001
0	 5.599979999983598e+000	 2.800020000011600e+000	 1.036561290494425e+001
0	 5.599979999983598e+000	 2.866680000008066e+000	 1.036526627947699e+001
0	 5.599979999983598e+000	 2.933340000004133e+000	 1.036475080322536e+001
0	 5.599979999983598e+000	 3.000000000000000e+000	 1.036407974379464e+001
0	 5.599979999983598e+000	 3.066659999995866e+000	 1.036326636879005e+001
0	 5.599979999983598e+000	 3.133319999991934e+000	 1.036232394581689e+001
0	 5.599979999983598e+000	 3.199979999988401e+000	 1.036126574248039e+001
0	 5.599979999983598e+000	 3.266639999985467e+000	 1.036010502638583e+001
0	 5.599979999983598e+000	 3.333299999983334e+000	 1.035885506513852e+001
0	 5.666649999985415e+000	 2.666700000016666e+000	 1.035517593964767e+001
0	 5.666649999985416e+000	 2.733360000014533e+000	 1.035546129806051e+001
0	 5.666649999985415e+000	 2.800020000011600e+000	 1.035551076172890e+001
0	 5.666649999985414e+000	 2.866680000008066e+000	 1.035534093306544e+001
0	 5.666649999985416e+000	 2.933340000004133e+000	 1.035496841448271e+001
0	 5.666649999985417e+000	 3.000000000000000e+000	 1.035440980839332e+001
0	 5.666649999985416e+000	 3.066659999995867e+000	 1.035368171720990e+001
0	 5.666649999985415e+000	 3.133319999991934e+000	 1.035280074334504e+001
0	 5.666649999985415e+000	 3.199979999988401e+000	 1.035178348921138e+001
0	 5.666649999985416e+000	 3.266639999985468e+000	 1.035064655722154e+001
0	 5.666649999985415e+000	 3.333299999983333e+000	 1.034940654978817e+001
0	 5.733319999987732e+000	 2.666700000016666e+000	 1.034483521571624e+001
0	 5.733319999987731e+000	 2.733360000014533e+000	 1.034538164645889e+001
0	 5.733319999987731e+000	 2.800020000011599e+000	 1.034565212655247e+001
0	 5.733319999987731e+000	 2.866680000008067e+000	 1.034566503903597e+001
0	 5.733319999987730e+000	 2.933340000004133e+000	 1.034543876694842e+001
0	 5.733319999987732e+000	 2.999999999999999e+000	 1.034499169332881e+001
0	 5.733319999987732e+000	 3.066659999995868e+000	 1.034434220121617e+001
0	 5.733319999987731e+000	 3.133319999991933e+000	 1.034350867364952e+001
0	 5.733319999987732e+000	 3.199979999988401e+000	 1.034250949366790e+001
0	 5.733319999987732e+000	 3.266639999985467e+000	 1.034136304431036e+001
0	 5.733319999987731e+000	 3.333299999983334e+000	 1.034008770861596e+001
0	 5.799989999990448e+000	 2.666700000016666e+000	 1.033461768075250e+001
0	 5.799989999990447e+000	 2.733360000014533e+000	 1.033541856850936e+001
0	 5.799989999990448e+000	 2.800020000011600e+000	 1.033590820273584e+001
0	 5.799989999990449e+000	 2.866680000008066e+000	 1.033610519291642e+001
0	 5.799989999990449e+000	 2.933340000004134e+000	 1.033602814853555e+001
0	 5.799989999990447e+000	 3.000000000000000e+000	 1.033569567907773e+001
0	 5.799989999990448e+000	 3.066659999995867e+000	 1.033512639402744e+001
0	 5.799989999990449e+000	 3.133319999991934e+000	 1.033433890286916e+001
0	 5.799989999990448e+000	 3.199979999988400e+000	 1.033335181508741e+001
0	 5.799989999990448e+000	 3.266639999985468e+000	 1.033218374016669e+001
0	 5.799989999990448e+000	 3.333299999983334e+000	 1.033085328759151e+001
0	 5.866659999993464e+000	 2.666700000016666e+000	 1.032441665419849e+001
0	 5.866659999993464e+000	 2.733360000014533e+000	 1.032545217550420e+001
0	 5.866659999993467e+000	 2.800020000011601e+000	 1.032615019359990e+001
0	 5.866659999993463e+000	 2.866680000008066e+000	 1.032652799023458e+001
0	 5.866659999993464e+000	 2.933340000004133e+000	 1.032660284715721e+001
0	 5.866659999993466e+000	 3.000000000000000e+000	 1.032639204611680e+001
0	 5.866659999993465e+000	 3.066659999995867e+000	 1.032591286886234e+001
0	 5.866659999993465e+000	 3.133319999991934e+000	 1.032518259714284e+001
0	 5.866659999993464e+000	 3.199979999988400e+000	 1.032421851270736e+001
0	 5.866659999993464e+000	 3.266639999985467e+000	 1.032303789730489e+001
0	 5.866659999993464e+000	 3.333299999983334e+000	 1.032165803268447e+001
0	 5.933329999996681e+000	 2.666700000016666e+000	 1.031412545549623e+001
0	 5.933329999996680e+000	 2.733360000014533e+000	 1.031536257873571e+001
0	 5.933329999996682e+000	 2.800020000011600e+000	 1.031624930246554e+001
0	 5.933329999996683e+000	 2.866680000008067e+000	 1.031680002651827e+001
0	 5.933329999996681e+000	 2.933340000004134e+000	 1.031702915072644e+001
0	 5.933329999996681e+000	 3.000000000000000e+000	 1.031695107492264e+001
0	 5.933329999996680e+000	 3.066659999995866e+000	 1.031658019893944e+001
0	 5.933329999996682e+000	 3.133319999991933e+000	 1.031593092260942e+001
0	 5.933329999996682e+000	 3.199979999988401e+000	 1.031501764576519e+001
0	 5.933329999996682e+000	 3.266639999985468e+000	 1.031385476823934e+001
0	 5.933329999996681e+000	 3.333299999983334e+000	 1.031245668986449e+001
0	 6.000000000000000e+000	 2.666700000016666e+000	 1.030363740408774e+001
0	 6.000000000000000e+000	 2.733360000014533e+000	 1.030502988949618e+001
0	 5.999999999999998e+000	 2.800020000011600e+000	 1.030607673265364e+001
0	 6.000000000000002e+000	 2.866680000008067e+000	 1.030678789729529e+001
0	 5.999999999999998e+000	 2.933340000004133e+000	 1.030717334715634e+001
0	 6.000000000000003e+000	 3.000000000000000e+000	 1.030724304597195e+001
0	 5.999999999999998e+000	 3.066659999995867e+000	 1.030700695747735e+001
0	 6.000000000000001e+000	 3.133319999991934e+000	 1.030647504540774e+001
0	 5.999999999999999e+000	 3.199979999988400e+000	 1.030565727349835e+001
0	 6.000000000000000e+000	 3.266639999985467e+000	 1.030456360548442e+001
0	 6.000000000000000e+000	 3.333299999983334e+000	 1.030320400510119e+001
0	 5.333299999983335e+000	 3.333299999983334e+000	 1.039885094892835e+001
0	 5.333299999983331e+000	 3.399969999982149e+000	 1.039630885444104e+001
0	 5.333299999983335e+000	 3.466639999981866e+000	 1.039343694140564e+001
0	 5.333299999983334e+000	 3.533309999982383e+000	 1.039023308258195e+001
0	 5.333299999983335e+000	 3.599979999983600e+000	 1.038669515072974e+001
0	 5.333299999983335e+000	 3.666649999985416e+000	 1.038282101860880e+001
0	 5.333299999983334e+000	 3.733319999987733e+000	 1.037860855897893e+001
0	 5.333299999983333e+000	 3.799989999990450e+000	 1.037405564459987e+001
0	 5.333299999983334e+000	 3.866659999993467e+000	 1.036916014823139e+001
0	 5.333299999983335e+000	 3.933329999996684e+000	 1.036391994263325e+001
0	 5.333299999983334e+000	 4.000000000000000e+000	 1.035833290056522e+001
0	 5.399969999982149e+000	 3.333299999983333e+000	 1.038843119656192e+001
0	 5.399969999982149e+000	 3.399969999982150e+000	 1.038636858925261e+001
0	 5.399969999982149e+000	 3.466639999981867e+000	 1.038395783847355e+001
0	 5.399969999982150e+000	 3.533309999982384e+000	 1.038119432996114e+001
0	 5.399969999982149e+000	 3.599979999983601e+000	 1.037807344945180e+001
0	 5.399969999982151e+000	 3.666649999985416e+000	 1.037459058268192e+001
0	 5.399969999982150e+000	 3.733319999987733e+000	 1.037074111538791e+001
0	 5.399969999982150e+000	 3.799989999990450e+000	 1.036652043330615e+001
0	 5.399969999982151e+000	 3.866659999993466e+000	 1.036192392217302e+001
0	 5.399969999982150e+000	 3.933329999996684e+000	 1.035694696772493e+001
0	 5.399969999982149e+000	 4.000000000000000e+000	 1.035158495569820e+001
0	 5.466639999981866e+000	 3.333299999983334e+000	 1.037832213449504e+001
0	 5.466639999981866e+000	 3.399969999982150e+000	 1.037658587613812e+001
0	 5.466639999981866e+000	 3.466639999981867e+000	 1.037450194884611e+001
0	 5.466639999981865e+000	 3.533309999982383e+000	 1.037206369827918e+001
0	 5.466639999981867e+000	 3.599979999983600e+000	 1.036926447009751e+001
0	 5.466639999981866e+000	 3.666649999985417e+000	 1.036609760996122e+001
0	 5.466639999981865e+000	 3.733319999987733e+000	 1.036255646353048e+001
0	 5.466639999981866e+000	 3.799989999990451e+000	 1.035863437646543e+001
0	 5.466639999981866e+000	 3.866659999993466e+000	 1.035432469442621e+001
0	 5.466639999981868e+000	 3.933329999996684e+000	 1.034962076307294e+001
0	 5.466639999981867e+000	 4.000000000000001e+000	 1.034451592806577e+001
0	 5.533309999982383e+000	 3.333299999983334e+000	 1.036847850869735e+001
0	 5.533309999982381e+000	 3.399969999982151e+000	 1.036694127420975e+001
0	 5.533309999982382e+000	 3.466639999981867e+000	 1.036507197568044e+001
0	 5.533309999982382e+000	 3.533309999982383e+000	 1.036286236564047e+001
0	 5.533309999982382e+000	 3.599979999983599e+000	 1.036030419662089e+001
0	 5.533309999982381e+000	 3.666649999985415e+000	 1.035738922115273e+001
0	 5.533309999982382e+000	 3.733319999987733e+000	 1.035410919176704e+001
0	 5.533309999982382e+000	 3.799989999990451e+000	 1.035045586099485e+001
0	 5.533309999982382e+000	 3.866659999993467e+000	 1.034642098136718e+001
0	 5.533309999982385e+000	 3.933329999996684e+000	 1.034199630541504e+001
0	 5.533309999982381e+000	 4.000000000000001e+000	 1.033717358566946e+001
0	 5.599979999983598e+000	 3.333299999983334e+000	 1.035885506513852e+001
0	 5.599979999983598e+000	 3.399969999982150e+000	 1.035741534257972e+001
0	 5.599979999983599e+000	 3.466639999981867e+000	 1.035567062213365e+001
0	 5.599979999983598e+000	 3.533309999982383e+000	 1.035361151014938e+001
0	 5.599979999983598e+000	 3.599979999983600e+000	 1.035122861297598e+001
0	 5.599979999983599e+000	 3.666649999985416e+000	 1.034851253696251e+001
0	 5.599979999983598e+000	 3.733319999987733e+000	 1.034545388845802e+001
0	 5.599979999983598e+000	 3.799989999990449e+000	 1.034204327381156e+001
0	 5.599979999983599e+000	 3.866659999993468e+000	 1.033827129937217e+001
0	 5.599979999983598e+000	 3.933329999996684e+000	 1.033412857148889e+001
0	 5.599979999983599e+000	 4.000000000000000e+000	 1.032960569651076e+001
0	 5.666649999985415e+000	 3.333299999983333e+000	 1.034940654978817e+001
0	 5.666649999985417e+000	 3.399969999982150e+000	 1.034798864036021e+001
0	 5.666649999985416e+000	 3.466639999981867e+000	 1.034630059136284e+001
0	 5.666649999985415e+000	 3.533309999982382e+000	 1.034433230991031e+001
0	 5.666649999985416e+000	 3.599979999983600e+000	 1.034207370311682e+001
0	 5.666649999985414e+000	 3.666649999985416e+000	 1.033951467809658e+001
0	 5.666649999985413e+000	 3.733319999987733e+000	 1.033664514196381e+001
0	 5.666649999985415e+000	 3.799989999990450e+000	 1.033345500183270e+001
0	 5.666649999985416e+000	 3.866659999993467e+000	 1.032993416481743e+001
0	 5.666649999985415e+000	 3.933329999996684e+000	 1.032607253803222e+001
0	 5.666649999985415e+000	 4.000000000000001e+000	 1.032186002859123e+001
0	 5.733319999987731e+000	 3.333299999983334e+000	 1.034008770861596e+001
0	 5.733319999987733e+000	 3.399969999982150e+000	 1.033864172666342e+001
0	 5.733319999987733e+000	 3.466639999981867e+000	 1.033696458652515e+001
0	 5.733319999987732e+000	 3.533309999982382e+000	 1.033504594302766e+001
0	 5.733319999987732e+000	 3.599979999983600e+000	 1.033287545099744e+001
0	 5.733319999987730e+000	 3.666649999985416e+000	 1.033044276526100e+001
0	 5.733319999987731e+000	 3.733319999987733e+000	 1.032773754064482e+001
0	 5.733319999987732e+000	 3.799989999990450e+000	 1.032474943197539e+001
0	 5.733319999987731e+000	 3.866659999993465e+000	 1.032146809407919e+001
0	 5.733319999987732e+000	 3.933329999996684e+000	 1.031788318178270e+001
0	 5.733319999987731e+000	 4.000000000000000e+000	 1.031398434991239e+001
0	 5.799989999990448e+000	 3.333299999983334e+000	 1.033085328759151e+001
0	 5.799989999990447e+000	 3.399969999982150e+000	 1.032935516060154e+001
0	 5.799989999990447e+000	 3.466639999981866e+000	 1.032766531077766e+001
0	 5.799989999990448e+000	 3.533309999982383e+000	 1.032577358760580e+001
0	 5.799989999990448e+000	 3.599979999983600e+000	 1.032366984057187e+001
0	 5.799989999990448e+000	 3.666649999985417e+000	 1.032134391916179e+001
0	 5.799989999990447e+000	 3.733319999987733e+000	 1.031878567286146e+001
0	 5.799989999990449e+000	 3.799989999990450e+000	 1.031598495115679e+001
0	 5.799989999990448e+000	 3.866659999993467e+000	 1.031293160353369e+001
0	 5.799989999990449e+000	 3.933329999996684e+000	 1.030961547947805e+001
0	 5.799989999990448e+000	 4.000000000000000e+000	 1.030602642847575e+001
0	 5.866659999993464e+000	 3.333299999983334e+000	 1.032165803268447e+001
0	 5.866659999993465e+000	 3.399969999982150e+000	 1.032010950128677e+001
0	 5.866659999993464e+000	 3.466639999981866e+000	 1.031840546727750e+001
0	 5.866659999993464e+000	 3.533309999982384e+000	 1.031653642174912e+001
0	 5.866659999993466e+000	 3.599979999983601e+000	 1.031449285579413e+001
0	 5.866659999993465e+000	 3.666649999985416e+000	 1.031226526050498e+001
0	 5.866659999993465e+000	 3.733319999987733e+000	 1.030984412697413e+001
0	 5.866659999993464e+000	 3.799989999990450e+000	 1.030721994629403e+001
0	 5.866659999993464e+000	 3.866659999993466e+000	 1.030438320955716e+001
0	 5.866659999993464e+000	 3.933329999996684e+000	 1.030132440785594e+001
0	 5.866659999993464e+000	 4.000000000000001e+000	 1.029803403228283e+001
0	 5.933329999996681e+000	 3.333299999983334e+000	 1.031245668986449e+001
0	 5.933329999996682e+000	 3.399969999982150e+000	 1.031088530783129e+001
0	 5.933329999996681e+000	 3.466639999981867e+000	 1.030918775918175e+001
0	 5.933329999996682e+000	 3.533309999982383e+000	 1.030735562356202e+001
0	 5.933329999996682e+000	 3.599979999983600e+000	 1.030538048061826e+001
0	 5.933329999996681e+000	 3.666649999985416e+000	 1.030325390999663e+001
0	 5.933329999996681e+000	 3.733319999987733e+000	 1.030096749134324e+001
0	 5.933329999996683e+000	 3.799989999990450e+000	 1.029851280430426e+001
0	 5.933329999996681e+000	 3.866659999993466e+000	 1.029588142852584e+001
0	 5.933329999996681e+000	 3.933329999996684e+000	 1.029306494365409e+001
0	 5.933329999996682e+000	 4.000000000000001e+000	 1.029005492933517e+001
0	 6.000000000000000e+000	 3.333299999983334e+000	 1.030320400510119e+001
0	 6.000000000000001e+000	 3.399969999982151e+000	 1.030166313934730e+001
0	 6.000000000000000e+000	 3.466639999981866e+000	 1.030001488964754e+001
0	 6.000000000000000e+000	 3.533309999982383e+000	 1.029825237114888e+001
0	 6.000000000000001e+000	 3.599979999983601e+000	 1.029636869899829e+001
0	 6.000000000000000e+000	 3.666649999985416e+000	 1.029435698834274e+001
0	 6.000000000000000e+000	 3.733319999987733e+000	 1.029221035432919e+001
0	 5.999999999999998e+000	 3.799989999990450e+000	 1.028992191210461e+001
0	 6.000000000000001e+000	 3.866659999993467e+000	 1.028748477681596e+001
0	 6.000000000000000e+000	 3.933329999996683e+000	 1.028489206361019e+001
0	 6.000000000000001e+000	 4.000000000000000e+000	 1.028213688763426e+001
0	 5.333299999983334e+000	 4.000000000000000e+000	 1.035833290056522e+001
0	 5.333299999983332e+000	 4.066670000003316e+000	 1.035258117264933e+001
0	 5.333299999983334e+000	 4.133340000006534e+000	 1.034683928406025e+001
0	 5.333299999983336e+000	 4.200010000009550e+000	 1.034109366938658e+001
0	 5.333299999983333e+000	 4.266680000012268e+000	 1.033533076321695e+001
0	 5.333299999983335e+000	 4.333350000014584e+000	 1.032953700013995e+001
0	 5.333299999983333e+000	 4.400020000016401e+000	 1.032369881474424e+001
0	 5.333299999983334e+000	 4.466690000017618e+000	 1.031780264161839e+001
0	 5.333299999983334e+000	 4.533360000018134e+000	 1.031183491535103e+001
0	 5.333299999983333e+000	 4.600030000017851e+000	 1.030578207053076e+001
0	 5.333299999983335e+000	 4.666700000016667e+000	 1.029963054174620e+001
0	 5.399969999982149e+000	 4.000000000000000e+000	 1.035158495569820e+001
0	 5.399969999982150e+000	 4.066670000003317e+000	 1.034603871445875e+001
0	 5.399969999982150e+000	 4.133340000006534e+000	 1.034050357703703e+001
0	 5.399969999982151e+000	 4.200010000009551e+000	 1.033496668616629e+001
0	 5.399969999982150e+000	 4.266680000012268e+000	 1.032941518457974e+001
0	 5.399969999982150e+000	 4.333350000014584e+000	 1.032383621501065e+001
0	 5.399969999982149e+000	 4.400020000016402e+000	 1.031821692019222e+001
0	 5.399969999982148e+000	 4.466690000017615e+000	 1.031254444285770e+001
0	 5.399969999982148e+000	 4.533360000018132e+000	 1.030680592574031e+001
0	 5.399969999982148e+000	 4.600030000017850e+000	 1.030098851157327e+001
0	 5.399969999982150e+000	 4.666700000016666e+000	 1.029507934308982e+001
0	 5.466639999981867e+000	 4.000000000000001e+000	 1.034451592806577e+001
0	 5.466639999981868e+000	 4.066670000003319e+000	 1.033921602817411e+001
0	 5.466639999981866e+000	 4.133340000006534e+000	 1.033392324904803e+001
0	 5.466639999981866e+000	 4.200010000009551e+000	 1.032862545666855e+001
0	 5.466639999981866e+000	 4.266680000012267e+000	 1.032331051701670e+001
0	 5.466639999981865e+000	 4.333350000014583e+000	 1.031796629607352e+001
0	 5.466639999981866e+000	 4.400020000016403e+000	 1.031258065982003e+001
0	 5.466639999981867e+000	 4.466690000017618e+000	 1.030714147423727e+001
0	 5.466639999981865e+000	 4.533360000018134e+000	 1.030163660530625e+001
0	 5.466639999981866e+000	 4.600030000017851e+000	 1.029605391900800e+001
0	 5.466639999981866e+000	 4.666700000016666e+000	 1.029038128132353e+001
0	 5.533309999982381e+000	 4.000000000000001e+000	 1.033717358566945e+001
0	 5.533309999982383e+000	 4.066670000003317e+000	 1.033215231913142e+001
0	 5.533309999982382e+000	 4.133340000006534e+000	 1.032712990400262e+001
0	 5.533309999982382e+000	 4.200010000009551e+000	 1.032209494461507e+001
0	 5.533309999982382e+000	 4.266680000012267e+000	 1.031703604530077e+001
0	 5.533309999982381e+000	 4.333350000014583e+000	 1.031194181039172e+001
0	 5.533309999982384e+000	 4.400020000016402e+000	 1.030680084421994e+001
0	 5.533309999982382e+000	 4.466690000017616e+000	 1.030160175111740e+001
0	 5.533309999982382e+000	 4.533360000018134e+000	 1.029633313541612e+001
0	 5.533309999982381e+000	 4.600030000017849e+000	 1.029098360144808e+001
0	 5.533309999982381e+000	 4.666700000016666e+000	 1.028554175354529e+001
0	 5.599979999983599e+000	 4.000000000000000e+000	 1.032960569651076e+001
0	 5.599979999983598e+000	 4.066670000003317e+000	 1.032488679266665e+001
0	 5.599979999983600e+000	 4.133340000006534e+000	 1.032015514581020e+001
0	 5.599979999983598e+000	 4.200010000009550e+000	 1.031540011372757e+001
0	 5.599979999983598e+000	 4.266680000012268e+000	 1.031061105420493e+001
0	 5.599979999983599e+000	 4.333350000014583e+000	 1.030577732502842e+001
0	 5.599979999983598e+000	 4.400020000016402e+000	 1.030088828398418e+001
0	 5.599979999983598e+000	 4.466690000017617e+000	 1.029593328885840e+001
0	 5.599979999983598e+000	 4.533360000018133e+000	 1.029090169743718e+001
0	 5.599979999983598e+000	 4.600030000017853e+000	 1.028578286750670e+001
0	 5.599979999983598e+000	 4.666700000016667e+000	 1.028056615685309e+001
0	 5.666649999985415e+000	 4.000000000000001e+000	 1.032186002859123e+001
0	 5.666649999985413e+000	 4.066670000003317e+000	 1.031745865411582e+001
0	 5.666649999985416e+000	 4.133340000006534e+000	 1.031303057838018e+001
0	 5.666649999985415e+000	 4.200010000009551e+000	 1.030856592772780e+001
0	 5.666649999985415e+000	 4.266680000012268e+000	 1.030405482850215e+001
0	 5.666649999985415e+000	 4.333350000014582e+000	 1.029948740704675e+001
0	 5.666649999985415e+000	 4.400020000016400e+000	 1.029485378970506e+001
0	 5.666649999985414e+000	 4.466690000017616e+000	 1.029014410282054e+001
0	 5.666649999985417e+000	 4.533360000018134e+000	 1.028534847273670e+001
0	 5.666649999985416e+000	 4.600030000017851e+000	 1.028045702579698e+001
0	 5.666649999985415e+000	 4.666700000016666e+000	 1.027545988834488e+001
0	 5.733319999987731e+000	 4.000000000000000e+000	 1.031398434991239e+001
0	 5.733319999987732e+000	 4.066670000003318e+000	 1.030990710881491e+001
0	 5.733319999987733e+000	 4.133340000006535e+000	 1.030578780562193e+001
0	 5.733319999987732e+000	 4.200010000009550e+000	 1.030161735033743e+001
0	 5.733319999987731e+000	 4.266680000012268e+000	 1.029738665296543e+001
0	 5.733319999987731e+000	 4.333350000014583e+000	 1.029308662350988e+001
0	 5.733319999987731e+000	 4.400020000016402e+000	 1.028870817197479e+001
0	 5.733319999987733e+000	 4.466690000017617e+000	 1.028424220836414e+001
0	 5.733319999987733e+000	 4.533360000018135e+000	 1.027967964268193e+001
0	 5.733319999987733e+000	 4.600030000017851e+000	 1.027501138493210e+001
0	 5.733319999987732e+000	 4.666700000016667e+000	 1.027022834511865e+001
0	 5.799989999990448e+000	 4.000000000000000e+000	 1.030602642847575e+001
0	 5.799989999990449e+000	 4.066670000003317e+000	 1.030227136209991e+001
0	 5.799989999990448e+000	 4.133340000006534e+000	 1.029845843144484e+001
0	 5.799989999990450e+000	 4.200010000009551e+000	 1.029457934527821e+001
0	 5.799989999990448e+000	 4.266680000012268e+000	 1.029062581236768e+001
0	 5.799989999990448e+000	 4.333350000014583e+000	 1.028658954148095e+001
0	 5.799989999990448e+000	 4.400020000016401e+000	 1.028246224138566e+001
0	 5.799989999990448e+000	 4.466690000017618e+000	 1.027823562084950e+001
0	 5.799989999990448e+000	 4.533360000018133e+000	 1.027390138864012e+001
0	 5.799989999990447e+000	 4.600030000017850e+000	 1.026945125352519e+001
0	 5.799989999990448e+000	 4.666700000016667e+000	 1.026487692427237e+001
0	 5.866659999993464e+000	 4.000000000000001e+000	 1.029803403228283e+001
0	 5.866659999993464e+000	 4.066670000003317e+000	 1.029459061930683e+001
0	 5.866659999993464e+000	 4.133340000006535e+000	 1.029107405975831e+001
0	 5.866659999993464e+000	 4.200010000009551e+000	 1.028747687627183e+001
0	 5.866659999993465e+000	 4.266680000012268e+000	 1.028379159148193e+001
0	 5.866659999993466e+000	 4.333350000014585e+000	 1.028001072802312e+001
0	 5.866659999993464e+000	 4.400020000016401e+000	 1.027612680852994e+001
0	 5.866659999993464e+000	 4.466690000017617e+000	 1.027213235563692e+001
0	 5.866659999993464e+000	 4.533360000018132e+000	 1.026801989197857e+001
0	 5.866659999993463e+000	 4.600030000017850e+000	 1.026378194018942e+001
0	 5.866659999993464e+000	 4.666700000016665e+000	 1.025941102290400e+001
0	 5.933329999996682e+000	 4.000000000000001e+000	 1.029005492933517e+001
0	 5.933329999996681e+000	 4.066670000003317e+000	 1.028690408577164e+001
0	 5.933329999996682e+000	 4.133340000006534e+000	 1.028366629447174e+001
0	 5.933329999996682e+000	 4.200010000009550e+000	 1.028033490704005e+001
0	 5.933329999996681e+000	 4.266680000012268e+000	 1.027690327508112e+001
0	 5.933329999996681e+000	 4.333350000014584e+000	 1.027336475019954e+001
0	 5.933329999996680e+000	 4.400020000016400e+000	 1.026971268399987e+001
0	 5.933329999996682e+000	 4.466690000017618e+000	 1.026594042808667e+001
0	 5.933329999996681e+000	 4.533360000018133e+000	 1.026204133406452e+001
0	 5.933329999996682e+000	 4.600030000017850e+000	 1.025800875353795e+001
0	 5.933329999996681e+000	 4.666700000016667e+000	 1.025383603811156e+001
0	 6.000000000000001e+000	 4.000000000000000e+000	 1.028213688763426e+001
0	 6.000000000000001e+000	 4.066670000003318e+000	 1.027925096683035e+001
0	 6.000000000000000e+000	 4.133340000006534e+000	 1.027626673949451e+001
0	 6.000000000000000e+000	 4.200010000009550e+000	 1.027317840130454e+001
0	 6.000000000000002e+000	 4.266680000012268e+000	 1.026998014793823e+001
0	 6.000000000000000e+000	 4.333350000014584e+000	 1.026666617507336e+001
0	 5.999999999999998e+000	 4.400020000016401e+000	 1.026323067838772e+001
0	 5.999999999999999e+000	 4.466690000017617e+000	 1.025966785355908e+001
0	 6.000000000000001e+000	 4.533360000018134e+000	 1.025597189626522e+001
0	 6.000000000000000e+000	 4.600030000017850e+000	 1.025213700218392e+001
0	 6.000000000000000e+000	 4.666700000016666e+000	 1.024815736699295e+001
0	 5.333299999983335e+000	 4.666700000016667e+000	 1.029963054174620e+001
0	 5.333299999983333e+000	 4.733360000014533e+000	 1.029345068211770e+001
0	 5.333299999983335e+000	 4.800020000011600e+000	 1.028731511789989e+001
0	 5.333299999983335e+000	 4.866680000008068e+000	 1.028121648566971e+001
0	 5.333299999983335e+000	 4.933340000004134e+000	 1.027514742200417e+001
0	 5.333299999983333e+000	 5.000000000000000e+000	 1.026910056348024e+001
0	 5.333299999983334e+000	 5.066659999995866e+000	 1.026306854667492e+001
0	 5.333299999983335e+000	 5.133319999991934e+000	 1.025704400816516e+001
0	 5.333299999983333e+000	 5.199979999988400e+000	 1.025101958452798e+001
0	 5.333299999983334e+000	 5.266639999985467e+000	 1.024498791234035e+001
0	 5.333299999983333e+000	 5.333299999983333e+000	 1.023894162817926e+001
0	 5.399969999982150e+000	 4.666700000016666e+000	 1.029507934308982e+001
0	 5.399969999982150e+000	 4.733360000014534e+000	 1.028914001000031e+001
0	 5.399969999982149e+000	 4.800020000011600e+000	 1.028323446668401e+001
0	 5.399969999982148e+000	 4.866680000008066e+000	 1.027735608444259e+001
0	 5.399969999982149e+000	 4.933340000004132e+000	 1.027149823457764e+001
0	 5.399969999982150e+000	 5.000000000000000e+000	 1.026565428839086e+001
0	 5.399969999982148e+000	 5.066659999995867e+000	 1.025981761718384e+001
0	 5.399969999982150e+000	 5.133319999991936e+000	 1.025398159225829e+001
0	 5.399969999982151e+000	 5.199979999988400e+000	 1.024813958491581e+001
0	 5.399969999982150e+000	 5.266639999985468e+000	 1.024228496645808e+001
0	 5.399969999982150e+000	 5.333299999983332e+000	 1.023641110818674e+001
0	 5.466639999981866e+000	 4.666700000016666e+000	 1.029038128132353e+001
0	 5.466639999981866e+000	 4.733360000014533e+000	 1.028467449255220e+001
0	 5.466639999981865e+000	 4.800020000011599e+000	 1.027899171540557e+001
0	 5.466639999981865e+000	 4.866680000008065e+000	 1.027332693410044e+001
0	 5.466639999981867e+000	 4.933340000004135e+000	 1.026767413285356e+001
0	 5.466639999981863e+000	 4.999999999999999e+000	 1.026202729588170e+001
0	 5.466639999981865e+000	 5.066659999995865e+000	 1.025638040740163e+001
0	 5.466639999981865e+000	 5.133319999991933e+000	 1.025072745163015e+001
0	 5.466639999981866e+000	 5.199979999988402e+000	 1.024506241278401e+001
0	 5.466639999981867e+000	 5.266639999985468e+000	 1.023937927507998e+001
0	 5.466639999981866e+000	 5.333299999983335e+000	 1.023367202273487e+001
0	 5.533309999982381e+000	 4.666700000016666e+000	 1.028554175354529e+001
0	 5.533309999982381e+000	 4.733360000014533e+000	 1.028006012078001e+001
0	 5.533309999982382e+000	 4.800020000011600e+000	 1.027459349875943e+001
0	 5.533309999982383e+000	 4.866680000008068e+000	 1.026913636280589e+001
0	 5.533309999982381e+000	 4.933340000004133e+000	 1.026368318824177e+001
0	 5.533309999982383e+000	 5.000000000000000e+000	 1.025822845038942e+001
0	 5.533309999982381e+000	 5.066659999995867e+000	 1.025276662457121e+001
0	 5.533309999982384e+000	 5.133319999991935e+000	 1.024729218610949e+001
0	 5.533309999982381e+000	 5.199979999988400e+000	 1.024179961032664e+001
0	 5.533309999982382e+000	 5.266639999985468e+000	 1.023628337254502e+001
0	 5.533309999982382e+000	 5.333299999983334e+000	 1.023073794808701e+001
0	 5.599979999983598e+000	 4.666700000016667e+000	 1.028056615685309e+001
0	 5.599979999983598e+000	 4.733360000014533e+000	 1.027530288569040e+001
0	 5.599979999983598e+000	 4.800020000011600e+000	 1.027004645144042e+001
0	 5.599979999983598e+000	 4.866680000008065e+000	 1.026479169872151e+001
0	 5.599979999983598e+000	 4.933340000004134e+000	 1.025953347215211e+001
0	 5.599979999983599e+000	 5.000000000000000e+000	 1.025426661635062e+001
0	 5.599979999983597e+000	 5.066659999995865e+000	 1.024898597593548e+001
0	 5.599979999983598e+000	 5.133319999991935e+000	 1.024368639552507e+001
0	 5.599979999983598e+000	 5.199979999988400e+000	 1.023836271973782e+001
0	 5.599979999983598e+000	 5.266639999985467e+000	 1.023300979319218e+001
0	 5.599979999983598e+000	 5.333299999983333e+000	 1.022762246050652e+001
0	 5.666649999985415e+000	 4.666700000016666e+000	 1.027545988834488e+001
0	 5.666649999985414e+000	 4.733360000014534e+000	 1.027040877829005e+001
0	 5.666649999985416e+000	 4.800020000011601e+000	 1.026535720814342e+001
0	 5.666649999985415e+000	 4.866680000008066e+000	 1.026030027000991e+001
0	 5.666649999985416e+000	 4.933340000004134e+000	 1.025523305599445e+001
0	 5.666649999985416e+000	 5.000000000000001e+000	 1.025015065820196e+001
0	 5.666649999985416e+000	 5.066659999995865e+000	 1.024504816873737e+001
0	 5.666649999985417e+000	 5.133319999991937e+000	 1.023992067970563e+001
0	 5.666649999985415e+000	 5.199979999988400e+000	 1.023476328321166e+001
0	 5.666649999985416e+000	 5.266639999985468e+000	 1.022957107136040e+001
0	 5.666649999985413e+000	 5.333299999983332e+000	 1.022433913625678e+001
0	 5.733319999987732e+000	 4.666700000016667e+000	 1.027022834511865e+001
0	 5.733319999987731e+000	 4.733360000014532e+000	 1.026538378958560e+001
0	 5.733319999987730e+000	 4.800020000011599e+000	 1.026053240356330e+001
0	 5.733319999987731e+000	 4.866680000008066e+000	 1.025566940483368e+001
0	 5.733319999987730e+000	 4.933340000004131e+000	 1.025079001117862e+001
0	 5.733319999987733e+000	 5.000000000000000e+000	 1.024588944038003e+001
0	 5.733319999987731e+000	 5.066659999995867e+000	 1.024096291021983e+001
0	 5.733319999987730e+000	 5.133319999991935e+000	 1.023600563847993e+001
0	 5.733319999987732e+000	 5.199979999988402e+000	 1.023101284294223e+001
0	 5.733319999987732e+000	 5.266639999985467e+000	 1.022597974138867e+001
0	 5.733319999987732e+000	 5.333299999983335e+000	 1.022090155160115e+001
0	 5.799989999990448e+000	 4.666700000016667e+000	 1.026487692427237e+001
0	 5.799989999990448e+000	 4.733360000014532e+000	 1.026023391058369e+001
0	 5.799989999990448e+000	 4.800020000011599e+000	 1.025557867239494e+001
0	 5.799989999990448e+000	 4.866680000008066e+000	 1.025090643135541e+001
0	 5.799989999990450e+000	 4.933340000004135e+000	 1.024621240911448e+001
0	 5.799989999990448e+000	 5.000000000000000e+000	 1.024149182732148e+001
0	 5.799989999990448e+000	 5.066659999995866e+000	 1.023673990762577e+001
0	 5.799989999990448e+000	 5.133319999991935e+000	 1.023195187167671e+001
0	 5.799989999990447e+000	 5.199979999988400e+000	 1.022712294112366e+001
0	 5.799989999990449e+000	 5.266639999985468e+000	 1.022224833761595e+001
0	 5.799989999990448e+000	 5.333299999983334e+000	 1.021732328280298e+001
0	 5.866659999993464e+000	 4.666700000016665e+000	 1.025941102290400e+001
0	 5.866659999993464e+000	 4.733360000014534e+000	 1.025496513229102e+001
0	 5.866659999993465e+000	 4.800020000011601e+000	 1.025050264933316e+001
0	 5.866659999993464e+000	 4.866680000008066e+000	 1.024601867773770e+001
0	 5.866659999993464e+000	 4.933340000004132e+000	 1.024150832121186e+001
0	 5.866659999993465e+000	 4.999999999999999e+000	 1.023696668346292e+001
0	 5.866659999993465e+000	 5.066659999995866e+000	 1.023238886819813e+001
0	 5.866659999993465e+000	 5.133319999991936e+000	 1.022776997912473e+001
0	 5.866659999993465e+000	 5.199979999988400e+000	 1.022310511995001e+001
0	 5.866659999993464e+000	 5.266639999985467e+000	 1.021838939438123e+001
0	 5.866659999993464e+000	 5.333299999983334e+000	 1.021361790612565e+001
0	 5.933329999996681e+000	 4.666700000016667e+000	 1.025383603811156e+001
0	 5.933329999996682e+000	 4.733360000014532e+000	 1.024958344571421e+001
0	 5.933329999996681e+000	 4.800020000011600e+000	 1.024531096907287e+001
0	 5.933329999996682e+000	 4.866680000008066e+000	 1.024101347214313e+001
0	 5.933329999996680e+000	 4.933340000004133e+000	 1.023668581888063e+001
0	 5.933329999996682e+000	 5.000000000000000e+000	 1.023232287324099e+001
0	 5.933329999996681e+000	 5.066659999995866e+000	 1.022791949917981e+001
0	 5.933329999996680e+000	 5.133319999991933e+000	 1.022347056065274e+001
0	 5.933329999996682e+000	 5.199979999988400e+000	 1.021897092161541e+001
0	 5.933329999996682e+000	 5.266639999985468e+000	 1.021441544602346e+001
0	 5.933329999996682e+000	 5.333299999983334e+000	 1.020979899783250e+001
0	 6.000000000000000e+000	 4.666700000016666e+000	 1.024815736699295e+001
0	 5.999999999999998e+000	 4.733360000014531e+000	 1.024409484185993e+001
0	 5.999999999999998e+000	 4.800020000011600e+000	 1.024001026630891e+001
0	 6.000000000000002e+000	 4.866680000008068e+000	 1.023589814273432e+001
0	 5.999999999999998e+000	 4.933340000004132e+000	 1.023175297353063e+001
0	 6.000000000000002e+000	 5.000000000000002e+000	 1.022756926109229e+001
0	 5.999999999999999e+000	 5.066659999995866e+000	 1.022334150781376e+001
0	 6.000000000000000e+000	 5.133319999991934e+000	 1.021906421608949e+001
0	 5.999999999999998e+000	 5.199979999988400e+000	 1.021473188831395e+001
0	 6.000000000000000e+000	 5.266639999985468e+000	 1.021033902688160e+001
0	 6.000000000000000e+000	 5.333299999983334e+000	 1.020588013418693e+001
0	 5.333299999983333e+000	 5.333299999983333e+000	 1.023894162817926e+001
0	 5.333299999983333e+000	 5.399969999982149e+000	 1.023292238985169e+001
0	 5.333299999983334e+000	 5.466639999981867e+000	 1.022697550717270e+001
0	 5.333299999983334e+000	 5.533309999982384e+000	 1.022109636923884e+001
0	 5.333299999983334e+000	 5.599979999983600e+000	 1.021528036514662e+001
0	 5.333299999983334e+000	 5.666649999985415e+000	 1.020952288399258e+001
0	 5.333299999983335e+000	 5.733319999987733e+000	 1.020381931487328e+001
0	 5.333299999983334e+000	 5.799989999990448e+000	 1.019816504688521e+001
0	 5.333299999983333e+000	 5.866659999993467e+000	 1.019255546912493e+001
0	 5.333299999983335e+000	 5.933329999996684e+000	 1.018698597068897e+001
0	 5.333299999983333e+000	 5.999999999999998e+000	 1.018145194067385e+001
0	 5.399969999982150e+000	 5.333299999983332e+000	 1.023641110818674e+001
0	 5.399969999982149e+000	 5.399969999982149e+000	 1.023055960105382e+001
0	 5.399969999982148e+000	 5.466639999981865e+000	 1.022477482199273e+001
0	 5.399969999982151e+000	 5.533309999982383e+000	 1.021905167245272e+001
0	 5.399969999982149e+000	 5.599979999983599e+000	 1.021338505388311e+001
0	 5.399969999982151e+000	 5.666649999985417e+000	 1.020776986773317e+001
0	 5.399969999982152e+000	 5.733319999987733e+000	 1.020220101545223e+001
0	 5.399969999982149e+000	 5.799989999990448e+000	 1.019667339848953e+001
0	 5.399969999982151e+000	 5.866659999993467e+000	 1.019118191829442e+001
0	 5.399969999982149e+000	 5.933329999996683e+000	 1.018572147631615e+001
0	 5.399969999982150e+000	 6.000000000000000e+000	 1.018028697400404e+001
0	 5.466639999981866e+000	 5.333299999983335e+000	 1.023367202273487e+001
0	 5.466639999981866e+000	 5.399969999982149e+000	 1.022798268949071e+001
0	 5.466639999981865e+000	 5.466639999981866e+000	 1.022235537898939e+001
0	 5.466639999981866e+000	 5.533309999982382e+000	 1.021678460544829e+001
0	 5.466639999981865e+000	 5.599979999983598e+000	 1.021126488308473e+001
0	 5.466639999981866e+000	 5.666649999985416e+000	 1.020579072611607e+001
0	 5.466639999981867e+000	 5.733319999987733e+000	 1.020035664875966e+001
0	 5.466639999981866e+000	 5.799989999990450e+000	 1.019495716523286e+001
0	 5.466639999981866e+000	 5.866659999993467e+000	 1.018958678975301e+001
0	 5.466639999981869e+000	 5.933329999996686e+000	 1.018424003653746e+001
0	 5.466639999981868e+000	 6.000000000000002e+000	 1.017891141980357e+001
0	 5.533309999982382e+000	 5.333299999983334e+000	 1.023073794808701e+001
0	 5.533309999982382e+000	 5.399969999982149e+000	 1.022520619208355e+001
0	 5.533309999982382e+000	 5.466639999981866e+000	 1.021973246310916e+001
0	 5.533309999982382e+000	 5.533309999982383e+000	 1.021431098856457e+001
0	 5.533309999982383e+000	 5.599979999983600e+000	 1.020893599585047e+001
0	 5.533309999982383e+000	 5.666649999985417e+000	 1.020360171236755e+001
0	 5.533309999982382e+000	 5.733319999987732e+000	 1.019830236551654e+001
0	 5.533309999982382e+000	 5.799989999990451e+000	 1.019303218269812e+001
0	 5.533309999982382e+000	 5.866659999993466e+000	 1.018778539131302e+001
0	 5.533309999982383e+000	 5.933329999996683e+000	 1.018255621876193e+001
0	 5.533309999982382e+000	 6.000000000000001e+000	 1.017733889244555e+001
0	 5.599979999983598e+000	 5.333299999983333e+000	 1.022762246050652e+001
0	 5.599979999983598e+000	 5.399969999982149e+000	 1.022224464575359e+001
0	 5.599979999983598e+000	 5.466639999981866e+000	 1.021692135929851e+001
0	 5.599979999983598e+000	 5.533309999982382e+000	 1.021164664214063e+001
0	 5.599979999983598e+000	 5.599979999983599e+000	 1.020641453527931e+001
0	 5.599979999983598e+000	 5.666649999985416e+000	 1.020121907971391e+001
0	 5.599979999983597e+000	 5.733319999987733e+000	 1.019605431644377e+001
0	 5.599979999983598e+000	 5.799989999990449e+000	 1.019091428646827e+001
0	 5.599979999983598e+000	 5.866659999993467e+000	 1.018579303078675e+001
0	 5.599979999983598e+000	 5.933329999996684e+000	 1.018068459039858e+001
0	 5.599979999983600e+000	 6.000000000000002e+000	 1.017558300630309e+001
0	 5.666649999985413e+000	 5.333299999983332e+000	 1.022433913625678e+001
0	 5.666649999985417e+000	 5.399969999982151e+000	 1.021911258742208e+001
0	 5.666649999985415e+000	 5.466639999981865e+000	 1.021393735250389e+001
0	 5.666649999985416e+000	 5.533309999982385e+000	 1.020880738651551e+001
0	 5.666649999985415e+000	 5.599979999983600e+000	 1.020371664447026e+001
0	 5.666649999985415e+000	 5.666649999985415e+000	 1.019865908138143e+001
0	 5.666649999985413e+000	 5.733319999987733e+000	 1.019362865226232e+001
0	 5.666649999985415e+000	 5.799989999990450e+000	 1.018861931212627e+001
0	 5.666649999985414e+000	 5.866659999993467e+000	 1.018362501598655e+001
0	 5.666649999985415e+000	 5.933329999996685e+000	 1.017863971885646e+001
0	 5.666649999985415e+000	 5.999999999999998e+000	 1.017365737574933e+001
0	 5.733319999987732e+000	 5.333299999983335e+000	 1.022090155160115e+001
0	 5.733319999987731e+000	 5.399969999982148e+000	 1.021582455401024e+001
0	 5.733319999987733e+000	 5.466639999981866e+000	 1.021079572767176e+001
0	 5.733319999987733e+000	 5.533309999982385e+000	 1.020580904202826e+001
0	 5.733319999987730e+000	 5.599979999983598e+000	 1.020085846652229e+001
0	 5.733319999987731e+000	 5.666649999985414e+000	 1.019593797059639e+001
0	 5.733319999987731e+000	 5.733319999987733e+000	 1.019104152369313e+001
0	 5.733319999987732e+000	 5.799989999990450e+000	 1.018616309525505e+001
0	 5.733319999987731e+000	 5.866659999993467e+000	 1.018129665472469e+001
0	 5.733319999987733e+000	 5.933329999996685e+000	 1.017643617154461e+001
0	 5.733319999987731e+000	 6.000000000000000e+000	 1.017157561515736e+001
0	 5.799989999990448e+000	 5.333299999983334e+000	 1.021732328280297e+001
0	 5.799989999990448e+000	 5.399969999982149e+000	 1.021239508243932e+001
0	 5.799989999990449e+000	 5.466639999981866e+000	 1.020751176974861e+001
0	 5.799989999990448e+000	 5.533309999982382e+000	 1.020266742901794e+001
0	 5.799989999990449e+000	 5.599979999983600e+000	 1.019785614453441e+001
0	 5.799989999990448e+000	 5.666649999985417e+000	 1.019307200058510e+001
0	 5.799989999990447e+000	 5.733319999987733e+000	 1.018830908145714e+001
0	 5.799989999990449e+000	 5.799989999990448e+000	 1.018356147143757e+001
0	 5.799989999990448e+000	 5.866659999993467e+000	 1.017882325481352e+001
0	 5.799989999990450e+000	 5.933329999996684e+000	 1.017408851587207e+001
0	 5.799989999990447e+000	 5.999999999999999e+000	 1.016935133890030e+001
0	 5.866659999993464e+000	 5.333299999983334e+000	 1.021361790612564e+001
0	 5.866659999993465e+000	 5.399969999982149e+000	 1.020883870963054e+001
0	 5.866659999993465e+000	 5.466639999981866e+000	 1.020410076368088e+001
0	 5.866659999993466e+000	 5.533309999982383e+000	 1.019939836782358e+001
0	 5.866659999993465e+000	 5.599979999983599e+000	 1.019472582160560e+001
0	 5.866659999993466e+000	 5.666649999985418e+000	 1.019007742457384e+001
0	 5.866659999993465e+000	 5.733319999987733e+000	 1.018544747627526e+001
0	 5.866659999993463e+000	 5.799989999990449e+000	 1.018083027625678e+001
0	 5.866659999993465e+000	 5.866659999993467e+000	 1.017622012406534e+001
0	 5.866659999993465e+000	 5.933329999996685e+000	 1.017161131924786e+001
0	 5.866659999993464e+000	 6.000000000000000e+000	 1.016699816135129e+001
0	 5.933329999996682e+000	 5.333299999983334e+000	 1.020979899783250e+001
0	 5.933329999996682e+000	 5.399969999982150e+000	 1.020516997250514e+001
0	 5.933329999996681e+000	 5.466639999981866e+000	 1.020057799441504e+001
0	 5.933329999996682e+000	 5.533309999982383e+000	 1.019601767878424e+001
0	 5.933329999996682e+000	 5.599979999983599e+000	 1.019148364083484e+001
0	 5.933329999996681e+000	 5.666649999985418e+000	 1.018697049578889e+001
0	 5.933329999996682e+000	 5.733319999987733e+000	 1.018247285886847e+001
0	 5.933329999996681e+000	 5.799989999990450e+000	 1.017798534529565e+001
0	 5.933329999996682e+000	 5.866659999993467e+000	 1.017350257029249e+001
0	 5.933329999996682e+000	 5.933329999996683e+000	 1.016901914908105e+001
0	 5.933329999996680e+000	 5.999999999999998e+000	 1.016452969688343e+001
0	 6.000000000000000e+000	 5.333299999983334e+000	 1.020588013418692e+001
0	 6.000000000000000e+000	 5.399969999982150e+000	 1.020140340798438e+001
0	 6.000000000000001e+000	 5.466639999981868e+000	 1.019695874689756e+001
0	 6.000000000000000e+000	 5.533309999982383e+000	 1.019254118223899e+001
0	 6.000000000000000e+000	 5.599979999983598e+000	 1.018814574532114e+001
0	 5.999999999999998e+000	 5.666649999985416e+000	 1.018376746745654e+001
0	 5.999999999999998e+000	 5.733319999987732e+000	 1.017940137995770e+001
0	 5.999999999999999e+000	 5.799989999990449e+000	 1.017504251413710e+001
0	 5.999999999999998e+000	 5.866659999993467e+000	 1.017068590130725e+001
0	 6.000000000000000e+000	 5.933329999996683e+000	 1.016632657278067e+001
0	 5.999999999999999e+000	 5.999999999999999e+000	 1.016195955986984e+001
0	 5.333299999983333e+000	 5.999999999999998e+000	 1.018145194067385e+001
0	 5.333299999983334e+000	 6.066670000003317e+000	 1.017598393335224e+001
0	 5.333299999983333e+000	 6.133340000006530e+000	 1.017061317283389e+001
0	 5.333299999983334e+000	 6.200010000009550e+000	 1.016533605297102e+001
0	 5.333299999983335e+000	 6.266680000012268e+000	 1.016014896761585e+001
0	 5.333299999983334e+000	 6.333350000014584e+000	 1.015504831062058e+001
0	 5.333299999983335e+000	 6.400020000016401e+000	 1.015003047583742e+001
0	 5.333299999983334e+000	 6.466690000017618e+000	 1.014509185711860e+001
0	 5.333299999983333e+000	 6.533360000018132e+000	 1.014022884831631e+001
0	 5.333299999983333e+000	 6.600030000017849e+000	 1.013543784328278e+001
0	 5.333299999983334e+000	 6.666700000016665e+000	 1.013071523587023e+001
0	 5.399969999982150e+000	 6.000000000000000e+000	 1.018028697400404e+001
0	 5.399969999982148e+000	 6.066670000003314e+000	 1.017491093956575e+001
0	 5.399969999982149e+000	 6.133340000006533e+000	 1.016962705823596e+001
0	 5.399969999982150e+000	 6.200010000009552e+000	 1.016443196700448e+001
0	 5.399969999982151e+000	 6.266680000012269e+000	 1.015932230286109e+001
0	 5.399969999982150e+000	 6.333350000014584e+000	 1.015429470279561e+001
0	 5.399969999982149e+000	 6.400020000016399e+000	 1.014934580379781e+001
0	 5.399969999982151e+000	 6.466690000017619e+000	 1.014447224285751e+001
0	 5.399969999982148e+000	 6.533360000018132e+000	 1.013967065696450e+001
0	 5.399969999982149e+000	 6.600030000017852e+000	 1.013493768310859e+001
0	 5.399969999982151e+000	 6.666700000016668e+000	 1.013026995827958e+001
0	 5.466639999981868e+000	 6.000000000000002e+000	 1.017891141980357e+001
0	 5.466639999981866e+000	 6.066670000003318e+000	 1.017363449003956e+001
0	 5.466639999981866e+000	 6.133340000006531e+000	 1.016844434661954e+001
0	 5.466639999981867e+000	 6.200010000009551e+000	 1.016333782708976e+001
0	 5.466639999981865e+000	 6.266680000012267e+000	 1.015831176899641e+001
0	 5.466639999981865e+000	 6.333350000014584e+000	 1.015336300988568e+001
0	 5.466639999981866e+000	 6.400020000016399e+000	 1.014848838730380e+001
0	 5.466639999981867e+000	 6.466690000017617e+000	 1.014368473879698e+001
0	 5.466639999981864e+000	 6.533360000018134e+000	 1.013894890191143e+001
0	 5.466639999981865e+000	 6.600030000017852e+000	 1.013427771419335e+001
0	 5.466639999981866e+000	 6.666700000016667e+000	 1.012966801318896e+001
0	 5.533309999982382e+000	 6.000000000000001e+000	 1.017733889244555e+001
0	 5.533309999982383e+000	 6.066670000003317e+000	 1.017216719187310e+001
0	 5.533309999982381e+000	 6.133340000006533e+000	 1.016707674196762e+001
0	 5.533309999982382e+000	 6.200010000009551e+000	 1.016206453825056e+001
0	 5.533309999982383e+000	 6.266680000012268e+000	 1.015712757624336e+001
0	 5.533309999982382e+000	 6.333350000014585e+000	 1.015226285146747e+001
0	 5.533309999982381e+000	 6.400020000016398e+000	 1.014746735944433e+001
0	 5.533309999982381e+000	 6.466690000017614e+000	 1.014273809569538e+001
0	 5.533309999982381e+000	 6.533360000018135e+000	 1.013807205574208e+001
0	 5.533309999982381e+000	 6.600030000017847e+000	 1.013346623510586e+001
0	 5.533309999982382e+000	 6.666700000016665e+000	 1.012891762930818e+001
0	 5.599979999983600e+000	 6.000000000000002e+000	 1.017558300630309e+001
0	 5.599979999983598e+000	 6.066670000003318e+000	 1.017052165216586e+001
0	 5.599979999983598e+000	 6.133340000006532e+000	 1.016553594826319e+001
0	 5.599979999983599e+000	 6.200010000009551e+000	 1.016062300551059e+001
0	 5.599979999983598e+000	 6.266680000012267e+000	 1.015577993482359e+001
0	 5.599979999983599e+000	 6.333350000014585e+000	 1.015100384711766e+001
0	 5.599979999983598e+000	 6.400020000016400e+000	 1.014629185330832e+001
0	 5.599979999983598e+000	 6.466690000017618e+000	 1.014164106431108e+001
0	 5.599979999983598e+000	 6.533360000018133e+000	 1.013704859104143e+001
0	 5.599979999983598e+000	 6.600030000017851e+000	 1.013251154441491e+001
0	 5.599979999983598e+000	 6.666700000016666e+000	 1.012802703534700e+001
0	 5.666649999985415e+000	 5.999999999999998e+000	 1.017365737574933e+001
0	 5.666649999985414e+000	 6.066670000003317e+000	 1.016871047801729e+001
0	 5.666649999985415e+000	 6.133340000006534e+000	 1.016383366948926e+001
0	 5.666649999985414e+000	 6.200010000009551e+000	 1.015902413389358e+001
0	 5.666649999985414e+000	 6.266680000012268e+000	 1.015427905495866e+001
0	 5.666649999985415e+000	 6.333350000014585e+000	 1.014959561641291e+001
0	 5.666649999985415e+000	 6.400020000016399e+000	 1.014497100198470e+001
0	 5.666649999985415e+000	 6.466690000017617e+000	 1.014040239540244e+001
0	 5.666649999985415e+000	 6.533360000018133e+000	 1.013588698039451e+001
0	 5.666649999985415e+000	 6.600030000017850e+000	 1.013142194068931e+001
0	 5.666649999985415e+000	 6.666700000016665e+000	 1.012700446001523e+001
0	 5.733319999987731e+000	 6.000000000000000e+000	 1.017157561515736e+001
0	 5.733319999987733e+000	 6.066670000003317e+000	 1.016674627652687e+001
0	 5.733319999987732e+000	 6.133340000006533e+000	 1.016198160962877e+001
0	 5.733319999987733e+000	 6.200010000009552e+000	 1.015727882842318e+001
0	 5.733319999987731e+000	 6.266680000012267e+000	 1.015263514687019e+001
0	 5.733319999987731e+000	 6.333350000014584e+000	 1.014804777892990e+001
0	 5.733319999987732e+000	 6.400020000016402e+000	 1.014351393856243e+001
0	 5.733319999987733e+000	 6.466690000017618e+000	 1.013903083972785e+001
0	 5.733319999987733e+000	 6.533360000018135e+000	 1.013459569638629e+001
0	 5.733319999987731e+000	 6.600030000017848e+000	 1.013020572249785e+001
0	 5.733319999987732e+000	 6.666700000016666e+000	 1.012585813202264e+001
0	 5.799989999990447e+000	 5.999999999999999e+000	 1.016935133890030e+001
0	 5.799989999990450e+000	 6.066670000003319e+000	 1.016464165479404e+001
0	 5.799989999990447e+000	 6.133340000006533e+000	 1.015999147266478e+001
0	 5.799989999990449e+000	 6.200010000009551e+000	 1.015539799412314e+001
0	 5.799989999990447e+000	 6.266680000012269e+000	 1.015085842077978e+001
0	 5.799989999990449e+000	 6.333350000014585e+000	 1.014636995424531e+001
0	 5.799989999990448e+000	 6.400020000016403e+000	 1.014192979613040e+001
0	 5.799989999990448e+000	 6.466690000017615e+000	 1.013753514804567e+001
0	 5.799989999990449e+000	 6.533360000018136e+000	 1.013318321160177e+001
0	 5.799989999990448e+000	 6.600030000017851e+000	 1.012887118840933e+001
0	 5.799989999990448e+000	 6.666700000016665e+000	 1.012459628007900e+001
0	 5.866659999993464e+000	 6.000000000000000e+000	 1.016699816135129e+001
0	 5.866659999993464e+000	 6.066670000003316e+000	 1.016240921991829e+001
0	 5.866659999993465e+000	 6.133340000006532e+000	 1.015787496258023e+001
0	 5.866659999993465e+000	 6.200010000009550e+000	 1.015339253601714e+001
0	 5.866659999993465e+000	 6.266680000012269e+000	 1.014895908690901e+001
0	 5.866659999993465e+000	 6.333350000014585e+000	 1.014457176193582e+001
0	 5.866659999993465e+000	 6.400020000016402e+000	 1.014022770777757e+001
0	 5.866659999993464e+000	 6.466690000017616e+000	 1.013592407111428e+001
0	 5.866659999993466e+000	 6.533360000018134e+000	 1.013165799862594e+001
0	 5.866659999993464e+000	 6.600030000017848e+000	 1.012742663699256e+001
0	 5.866659999993465e+000	 6.666700000016666e+000	 1.012322713289412e+001
0	 5.933329999996680e+000	 5.999999999999998e+000	 1.016452969688343e+001
0	 5.933329999996682e+000	 6.066670000003318e+000	 1.016006157899906e+001
0	 5.933329999996680e+000	 6.133340000006534e+000	 1.015564378335816e+001
0	 5.933329999996681e+000	 6.200010000009551e+000	 1.015127335912891e+001
0	 5.933329999996682e+000	 6.266680000012268e+000	 1.014694735547949e+001
0	 5.933329999996682e+000	 6.333350000014585e+000	 1.014266282157808e+001
0	 5.933329999996682e+000	 6.400020000016402e+000	 1.013841680659287e+001
0	 5.933329999996682e+000	 6.466690000017616e+000	 1.013420635969205e+001
0	 5.933329999996681e+000	 6.533360000018134e+000	 1.013002853004380e+001
0	 5.933329999996681e+000	 6.600030000017850e+000	 1.012588036681631e+001
0	 5.933329999996682e+000	 6.666700000016665e+000	 1.012175891917777e+001
0	 5.999999999999999e+000	 5.999999999999999e+000	 1.016195955986984e+001
0	 6.000000000000000e+000	 6.066670000003318e+000	 1.015761133913584e+001
0	 6.000000000000000e+000	 6.133340000006533e+000	 1.015330963898154e+001
0	 5.999999999999996e+000	 6.200010000009550e+000	 1.014905136848213e+001
0	 5.999999999999998e+000	 6.266680000012267e+000	 1.014483343671281e+001
0	 6.000000000000000e+000	 6.333350000014585e+000	 1.014065275274878e+001
0	 5.999999999999998e+000	 6.400020000016399e+000	 1.013650622566523e+001
0	 6.000000000000001e+000	 6.466690000017618e+000	 1.013239076453735e+001
0	 6.000000000000002e+000	 6.533360000018136e+000	 1.012830327844036e+001
0	 6.000000000000001e+000	 6.600030000017850e+000	 1.012424067644943e+001
0	 6.000000000000002e+000	 6.666700000016668e+000	 1.012019986763976e+001
0	 5.333299999983334e+000	 6.666700000016665e+000	 1.013071523587023e+001
0	 5.333299999983335e+000	 6.733360000014533e+000	 1.012606972506320e+001
0	 5.333299999983335e+000	 6.800020000011599e+000	 1.012150996336624e+001
0	 5.333299999983333e+000	 6.866680000008065e+000	 1.011703438513076e+001
0	 5.333299999983336e+000	 6.933340000004135e+000	 1.011264142470825e+001
0	 5.333299999983333e+000	 6.999999999999998e+000	 1.010832951645017e+001
0	 5.333299999983335e+000	 7.066659999995868e+000	 1.010409709470795e+001
0	 5.333299999983334e+000	 7.133319999991935e+000	 1.009994259383305e+001
0	 5.333299999983335e+000	 7.199979999988400e+000	 1.009586444817692e+001
0	 5.333299999983336e+000	 7.266639999985467e+000	 1.009186109209100e+001
0	 5.333299999983334e+000	 7.333299999983334e+000	 1.008793095992673e+001
0	 5.399969999982151e+000	 6.666700000016668e+000	 1.013026995827958e+001
0	 5.399969999982152e+000	 6.733360000014532e+000	 1.012567670586209e+001
0	 5.399969999982149e+000	 6.800020000011599e+000	 1.012116676951798e+001
0	 5.399969999982149e+000	 6.866680000008067e+000	 1.011673830284808e+001
0	 5.399969999982148e+000	 6.933340000004132e+000	 1.011238945945327e+001
0	 5.399969999982149e+000	 6.999999999999999e+000	 1.010811839293441e+001
0	 5.399969999982149e+000	 7.066659999995866e+000	 1.010392325689235e+001
0	 5.399969999982148e+000	 7.133319999991933e+000	 1.009980220492796e+001
0	 5.399969999982150e+000	 7.199979999988400e+000	 1.009575339064208e+001
0	 5.399969999982151e+000	 7.266639999985467e+000	 1.009177496763560e+001
0	 5.399969999982150e+000	 7.333299999983335e+000	 1.008786508950933e+001
0	 5.466639999981866e+000	 6.666700000016667e+000	 1.012966801318896e+001
0	 5.466639999981865e+000	 6.733360000014533e+000	 1.012512986457255e+001
0	 5.466639999981865e+000	 6.800020000011599e+000	 1.012067267454246e+001
0	 5.466639999981865e+000	 6.866680000008066e+000	 1.011629435233332e+001
0	 5.466639999981867e+000	 6.933340000004134e+000	 1.011199280717971e+001
0	 5.466639999981865e+000	 6.999999999999997e+000	 1.010776594831624e+001
0	 5.466639999981864e+000	 7.066659999995866e+000	 1.010361168497752e+001
0	 5.466639999981865e+000	 7.133319999991934e+000	 1.009952792639813e+001
0	 5.466639999981865e+000	 7.199979999988400e+000	 1.009551258181267e+001
0	 5.466639999981866e+000	 7.266639999985466e+000	 1.009156356045574e+001
0	 5.466639999981865e+000	 7.333299999983331e+000	 1.008767877156193e+001
0	 5.533309999982382e+000	 6.666700000016665e+000	 1.012891762930818e+001
0	 5.533309999982382e+000	 6.733360000014533e+000	 1.012443739667157e+001
0	 5.533309999982381e+000	 6.800020000011600e+000	 1.012003580977389e+001
0	 5.533309999982383e+000	 6.866680000008068e+000	 1.011571056986781e+001
0	 5.533309999982382e+000	 6.933340000004133e+000	 1.011145937820602e+001
0	 5.533309999982384e+000	 7.000000000000001e+000	 1.010727993604119e+001
0	 5.533309999982381e+000	 7.066659999995866e+000	 1.010316994462600e+001
0	 5.533309999982383e+000	 7.133319999991936e+000	 1.009912710521309e+001
0	 5.533309999982381e+000	 7.199979999988400e+000	 1.009514911905516e+001
0	 5.533309999982381e+000	 7.266639999985467e+000	 1.009123368740486e+001
0	 5.533309999982383e+000	 7.333299999983335e+000	 1.008737851151487e+001
0	 5.599979999983598e+000	 6.666700000016666e+000	 1.012802703534700e+001
0	 5.599979999983598e+000	 6.733360000014533e+000	 1.012360749763618e+001
0	 5.599979999983598e+000	 6.800020000011600e+000	 1.011926430654644e+001
0	 5.599979999983598e+000	 6.866680000008066e+000	 1.011499499173292e+001
0	 5.599979999983595e+000	 6.933340000004131e+000	 1.011079708285068e+001
0	 5.599979999983598e+000	 6.999999999999997e+000	 1.010666810955478e+001
0	 5.599979999983596e+000	 7.066659999995864e+000	 1.010260560150034e+001
0	 5.599979999983599e+000	 7.133319999991935e+000	 1.009860708834241e+001
0	 5.599979999983598e+000	 7.199979999988400e+000	 1.009467009973606e+001
0	 5.599979999983598e+000	 7.266639999985468e+000	 1.009079216533638e+001
0	 5.599979999983599e+000	 7.333299999983335e+000	 1.008697081479844e+001
0	 5.666649999985415e+000	 6.666700000016665e+000	 1.012700446001523e+001
0	 5.666649999985416e+000	 6.733360000014533e+000	 1.012264836294336e+001
0	 5.666649999985417e+000	 6.800020000011601e+000	 1.011836629619433e+001
0	 5.666649999985415e+000	 6.866680000008065e+000	 1.011415565420996e+001
0	 5.666649999985417e+000	 6.933340000004132e+000	 1.011001383143211e+001
0	 5.666649999985416e+000	 6.999999999999998e+000	 1.010593822230256e+001
0	 5.666649999985416e+000	 7.066659999995867e+000	 1.010192622126312e+001
0	 5.666649999985415e+000	 7.133319999991937e+000	 1.009797522275562e+001
0	 5.666649999985417e+000	 7.199979999988401e+000	 1.009408262122189e+001
0	 5.666649999985416e+000	 7.266639999985468e+000	 1.009024581110372e+001
0	 5.666649999985413e+000	 7.333299999983332e+000	 1.008646218684294e+001
0	 5.733319999987732e+000	 6.666700000016666e+000	 1.012585813202264e+001
0	 5.733319999987732e+000	 6.733360000014533e+000	 1.012156818807014e+001
0	 5.733319999987730e+000	 6.800020000011598e+000	 1.011734991005174e+001
0	 5.733319999987731e+000	 6.866680000008068e+000	 1.011320059358032e+001
0	 5.733319999987731e+000	 6.933340000004134e+000	 1.010911753426877e+001
0	 5.733319999987733e+000	 6.999999999999998e+000	 1.010509802773000e+001
0	 5.733319999987733e+000	 7.066659999995868e+000	 1.010113936957688e+001
0	 5.733319999987730e+000	 7.133319999991933e+000	 1.009723885542231e+001
0	 5.733319999987731e+000	 7.199979999988401e+000	 1.009339378087916e+001
0	 5.733319999987731e+000	 7.266639999985466e+000	 1.008960144156032e+001
0	 5.733319999987732e+000	 7.333299999983334e+000	 1.008585913307868e+001
0	 5.799989999990448e+000	 6.666700000016665e+000	 1.012459628007900e+001
0	 5.799989999990449e+000	 6.733360000014534e+000	 1.012037516849353e+001
0	 5.799989999990448e+000	 6.800020000011601e+000	 1.011622327945287e+001
0	 5.799989999990448e+000	 6.866680000008067e+000	 1.011213784612531e+001
0	 5.799989999990449e+000	 6.933340000004134e+000	 1.010811610167915e+001
0	 5.799989999990447e+000	 7.000000000000000e+000	 1.010415527928268e+001
0	 5.799989999990448e+000	 7.066659999995869e+000	 1.010025261210419e+001
0	 5.799989999990450e+000	 7.133319999991936e+000	 1.009640533331199e+001
0	 5.799989999990448e+000	 7.199979999988400e+000	 1.009261067607437e+001
0	 5.799989999990448e+000	 7.266639999985467e+000	 1.008886587355960e+001
0	 5.799989999990449e+000	 7.333299999983336e+000	 1.008516815893597e+001
0	 5.866659999993465e+000	 6.666700000016666e+000	 1.012322713289412e+001
0	 5.866659999993465e+000	 6.733360000014533e+000	 1.011907749969054e+001
0	 5.866659999993465e+000	 6.800020000011599e+000	 1.011499453573191e+001
0	 5.866659999993464e+000	 6.866680000008067e+000	 1.011097544812628e+001
0	 5.866659999993464e+000	 6.933340000004133e+000	 1.010701744398165e+001
0	 5.866659999993465e+000	 6.999999999999999e+000	 1.010311773040609e+001
0	 5.866659999993464e+000	 7.066659999995867e+000	 1.009927351450762e+001
0	 5.866659999993463e+000	 7.133319999991936e+000	 1.009548200339425e+001
0	 5.866659999993465e+000	 7.199979999988400e+000	 1.009174040417403e+001
0	 5.866659999993465e+000	 7.266639999985465e+000	 1.008804592395497e+001
0	 5.866659999993466e+000	 7.333299999983335e+000	 1.008439576984510e+001
0	 5.933329999996682e+000	 6.666700000016665e+000	 1.012175891917777e+001
0	 5.933329999996681e+000	 6.733360000014534e+000	 1.011768337713819e+001
0	 5.933329999996681e+000	 6.800020000011600e+000	 1.011367181022308e+001
0	 5.933329999996682e+000	 6.866680000008067e+000	 1.010972143586458e+001
0	 5.933329999996681e+000	 6.933340000004132e+000	 1.010582947149478e+001
0	 5.933329999996682e+000	 7.000000000000000e+000	 1.010199313454578e+001
0	 5.933329999996680e+000	 7.066659999995866e+000	 1.009820964244971e+001
0	 5.933329999996681e+000	 7.133319999991934e+000	 1.009447621263863e+001
0	 5.933329999996682e+000	 7.199979999988401e+000	 1.009079006254465e+001
0	 5.933329999996683e+000	 7.266639999985467e+000	 1.008714840959988e+001
0	 5.933329999996682e+000	 7.333299999983334e+000	 1.008354847123641e+001
0	 6.000000000000002e+000	 6.666700000016668e+000	 1.012019986763976e+001
0	 6.000000000000000e+000	 6.733360000014532e+000	 1.011620099631347e+001
0	 6.000000000000000e+000	 6.800020000011600e+000	 1.011226323426056e+001
0	 6.000000000000000e+000	 6.866680000008066e+000	 1.010838384562156e+001
0	 6.000000000000001e+000	 6.933340000004134e+000	 1.010456009453696e+001
0	 6.000000000000000e+000	 6.999999999999998e+000	 1.010078924514728e+001
0	 6.000000000000001e+000	 7.066659999995868e+000	 1.009706856159302e+001
0	 6.000000000000000e+000	 7.133319999991935e+000	 1.009339530801467e+001
0	 6.000000000000000e+000	 7.199979999988401e+000	 1.008976674855276e+001
0	 6.000000000000000e+000	 7.266639999985465e+000	 1.008618014734776e+001
0	 6.000000000000000e+000	 7.333299999983332e+000	 1.008263276854019e+001
0	 5.333299999983334e+000	 7.333299999983334e+000	 1.008793095992673e+001
0	 5.333299999983332e+000	 7.399969999982149e+000	 1.008407970754922e+001
0	 5.333299999983333e+000	 7.466639999981864e+000	 1.008031368825638e+001
0	 5.333299999983333e+000	 7.533309999982383e+000	 1.007663063005468e+001
0	 5.333299999983335e+000	 7.599979999983600e+000	 1.007302826095059e+001
0	 5.333299999983334e+000	 7.666649999985416e+000	 1.006950430895058e+001
0	 5.333299999983334e+000	 7.733319999987733e+000	 1.006605650206116e+001
0	 5.333299999983334e+000	 7.799989999990449e+000	 1.006268256828877e+001
0	 5.333299999983333e+000	 7.866659999993466e+000	 1.005938023563989e+001
0	 5.333299999983335e+000	 7.933329999996684e+000	 1.005614723212103e+001
0	 5.333299999983334e+000	 8.000000000000000e+000	 1.005298128573862e+001
0	 5.399969999982150e+000	 7.333299999983335e+000	 1.008786508950932e+001
0	 5.399969999982147e+000	 7.399969999982148e+000	 1.008403075393412e+001
0	 5.399969999982148e+000	 7.466639999981865e+000	 1.008027986886241e+001
0	 5.399969999982152e+000	 7.533309999982385e+000	 1.007661020884352e+001
0	 5.399969999982149e+000	 7.599979999983599e+000	 1.007301954842673e+001
0	 5.399969999982150e+000	 7.666649999985416e+000	 1.006950566216136e+001
0	 5.399969999982150e+000	 7.733319999987732e+000	 1.006606632459670e+001
0	 5.399969999982150e+000	 7.799989999990451e+000	 1.006269931028206e+001
0	 5.399969999982151e+000	 7.866659999993468e+000	 1.005940239376675e+001
0	 5.399969999982149e+000	 7.933329999996682e+000	 1.005617334960006e+001
0	 5.399969999982149e+000	 8.000000000000000e+000	 1.005300995233132e+001
0	 5.466639999981865e+000	 7.333299999983331e+000	 1.008767877156193e+001
0	 5.466639999981865e+000	 7.399969999982149e+000	 1.008386639280524e+001
0	 5.466639999981866e+000	 7.466639999981866e+000	 1.008013569034386e+001
0	 5.466639999981866e+000	 7.533309999982383e+000	 1.007648447194889e+001
0	 5.466639999981866e+000	 7.599979999983600e+000	 1.007291054539146e+001
0	 5.466639999981866e+000	 7.666649999985416e+000	 1.006941171844266e+001
0	 5.466639999981866e+000	 7.733319999987733e+000	 1.006598579887364e+001
0	 5.466639999981868e+000	 7.799989999990451e+000	 1.006263059445547e+001
0	 5.466639999981866e+000	 7.866659999993467e+000	 1.005934391295931e+001
0	 5.466639999981867e+000	 7.933329999996683e+000	 1.005612356215628e+001
0	 5.466639999981868e+000	 8.000000000000000e+000	 1.005296734981747e+001
0	 5.533309999982383e+000	 7.333299999983335e+000	 1.008737851151487e+001
0	 5.533309999982381e+000	 7.399969999982148e+000	 1.008359280438904e+001
0	 5.533309999982381e+000	 7.466639999981865e+000	 1.007988701116978e+001
0	 5.533309999982381e+000	 7.533309999982384e+000	 1.007625895952901e+001
0	 5.533309999982382e+000	 7.599979999983598e+000	 1.007270647713864e+001
0	 5.533309999982382e+000	 7.666649999985417e+000	 1.006922739167060e+001
0	 5.533309999982382e+000	 7.733319999987733e+000	 1.006581953079680e+001
0	 5.533309999982381e+000	 7.799989999990448e+000	 1.006248072218916e+001
0	 5.533309999982382e+000	 7.866659999993467e+000	 1.005920879351959e+001
0	 5.533309999982383e+000	 7.933329999996684e+000	 1.005600157246002e+001
0	 5.533309999982382e+000	 8.000000000000000e+000	 1.005285688668237e+001
0	 5.599979999983599e+000	 7.333299999983335e+000	 1.008697081479843e+001
0	 5.599979999983598e+000	 7.399969999982151e+000	 1.008321616891186e+001
0	 5.599979999983600e+000	 7.466639999981866e+000	 1.007953968980916e+001
0	 5.599979999983599e+000	 7.533309999982384e+000	 1.007593921174203e+001
0	 5.599979999983598e+000	 7.599979999983600e+000	 1.007241256896217e+001
0	 5.599979999983599e+000	 7.666649999985416e+000	 1.006895759572130e+001
0	 5.599979999983598e+000	 7.733319999987733e+000	 1.006557212627110e+001
0	 5.599979999983598e+000	 7.799989999990450e+000	 1.006225399486330e+001
0	 5.599979999983598e+000	 7.866659999993465e+000	 1.005900103574959e+001
0	 5.599979999983598e+000	 7.933329999996682e+000	 1.005581108318168e+001
0	 5.599979999983598e+000	 8.000000000000004e+000	 1.005268197141129e+001
0	 5.666649999985413e+000	 7.333299999983332e+000	 1.008646218684293e+001
0	 5.666649999985415e+000	 7.399969999982151e+000	 1.008274266660012e+001
0	 5.666649999985415e+000	 7.466639999981866e+000	 1.007909958473103e+001
0	 5.666649999985415e+000	 7.533309999982384e+000	 1.007553076874613e+001
0	 5.666649999985415e+000	 7.599979999983599e+000	 1.007203404615590e+001
0	 5.666649999985414e+000	 7.666649999985416e+000	 1.006860724447084e+001
0	 5.666649999985414e+000	 7.733319999987733e+000	 1.006524819120140e+001
0	 5.666649999985415e+000	 7.799989999990449e+000	 1.006195471385807e+001
0	 5.666649999985416e+000	 7.866659999993467e+000	 1.005872463995132e+001
0	 5.666649999985415e+000	 7.933329999996682e+000	 1.005555579699165e+001
0	 5.666649999985415e+000	 7.999999999999998e+000	 1.005244601248953e+001
0	 5.733319999987732e+000	 7.333299999983334e+000	 1.008585913307868e+001
0	 5.733319999987732e+000	 7.399969999982150e+000	 1.008217847768023e+001
0	 5.733319999987732e+000	 7.466639999981866e+000	 1.007857255440442e+001
0	 5.733319999987732e+000	 7.533309999982384e+000	 1.007503917069951e+001
0	 5.733319999987732e+000	 7.599979999983599e+000	 1.007157613401375e+001
0	 5.733319999987731e+000	 7.666649999985417e+000	 1.006818125179534e+001
0	 5.733319999987732e+000	 7.733319999987733e+000	 1.006485233149254e+001
0	 5.733319999987732e+000	 7.799989999990451e+000	 1.006158718055362e+001
0	 5.733319999987731e+000	 7.866659999993466e+000	 1.005838360642679e+001
0	 5.733319999987733e+000	 7.933329999996683e+000	 1.005523941656029e+001
0	 5.733319999987732e+000	 8.000000000000000e+000	 1.005215241840239e+001
0	 5.799989999990449e+000	 7.333299999983336e+000	 1.008516815893597e+001
0	 5.799989999990448e+000	 7.399969999982151e+000	 1.008152978237855e+001
0	 5.799989999990448e+000	 7.466639999981866e+000	 1.007796445729834e+001
0	 5.799989999990449e+000	 7.533309999982384e+000	 1.007446995776036e+001
0	 5.799989999990448e+000	 7.599979999983599e+000	 1.007104405782955e+001
0	 5.799989999990448e+000	 7.666649999985416e+000	 1.006768453157094e+001
0	 5.799989999990447e+000	 7.733319999987733e+000	 1.006438915304946e+001
0	 5.799989999990448e+000	 7.799989999990451e+000	 1.006115569633016e+001
0	 5.799989999990448e+000	 7.866659999993467e+000	 1.005798193547802e+001
0	 5.799989999990449e+000	 7.933329999996683e+000	 1.005486564455801e+001
0	 5.799989999990447e+000	 8.000000000000000e+000	 1.005180459763513e+001
0	 5.866659999993466e+000	 7.333299999983335e+000	 1.008439576984510e+001
0	 5.866659999993464e+000	 7.399969999982149e+000	 1.008080276092151e+001
0	 5.866659999993466e+000	 7.466639999981867e+000	 1.007728115188184e+001
0	 5.866659999993464e+000	 7.533309999982382e+000	 1.007382867008683e+001
0	 5.866659999993466e+000	 7.599979999983601e+000	 1.007044304289721e+001
0	 5.866659999993466e+000	 7.666649999985418e+000	 1.006712199767369e+001
0	 5.866659999993465e+000	 7.733319999987734e+000	 1.006386326177700e+001
0	 5.866659999993463e+000	 7.799989999990448e+000	 1.006066456256786e+001
0	 5.866659999993465e+000	 7.866659999993467e+000	 1.005752362740701e+001
0	 5.866659999993464e+000	 7.933329999996683e+000	 1.005443818365517e+001
0	 5.866659999993464e+000	 8.000000000000002e+000	 1.005140595867305e+001
0	 5.933329999996682e+000	 7.333299999983334e+000	 1.008354847123641e+001
0	 5.933329999996681e+000	 7.399969999982150e+000	 1.008000359353548e+001
0	 5.933329999996681e+000	 7.466639999981865e+000	 1.007652849662391e+001
0	 5.933329999996682e+000	 7.533309999982383e+000	 1.007312084783714e+001
0	 5.933329999996683e+000	 7.599979999983601e+000	 1.006977831451060e+001
0	 5.933329999996681e+000	 7.666649999985416e+000	 1.006649856397975e+001
0	 5.933329999996682e+000	 7.733319999987733e+000	 1.006327926358003e+001
0	 5.933329999996681e+000	 7.799989999990449e+000	 1.006011808064689e+001
0	 5.933329999996681e+000	 7.866659999993468e+000	 1.005701268251578e+001
0	 5.933329999996682e+000	 7.933329999996685e+000	 1.005396073652215e+001
0	 5.933329999996681e+000	 8.000000000000000e+000	 1.005095991000143e+001
0	 6.000000000000000e+000	 7.333299999983332e+000	 1.008263276854019e+001
0	 6.000000000000001e+000	 7.399969999982152e+000	 1.007913846044689e+001
0	 6.000000000000002e+000	 7.466639999981867e+000	 1.007571234999359e+001
0	 6.000000000000001e+000	 7.533309999982384e+000	 1.007235203116944e+001
0	 6.000000000000000e+000	 7.599979999983600e+000	 1.006905509796360e+001
0	 6.000000000000000e+000	 7.666649999985416e+000	 1.006581914436521e+001
0	 6.000000000000000e+000	 7.733319999987733e+000	 1.006264176436343e+001
0	 5.999999999999998e+000	 7.799989999990449e+000	 1.005952055194742e+001
0	 5.999999999999998e+000	 7.866659999993466e+000	 1.005645310110634e+001
0	 6.000000000000000e+000	 7.933329999996684e+000	 1.005343700582934e+001
0	 6.000000000000000e+000	 8.000000000000000e+000	 1.005046986010560e+001
0	 5.333299999983334e+000	 8.000000000000000e+000	 1.005298128573862e+001
0	 5.333299999983333e+000	 8.066670000003317e+000	 1.004989311888334e+001
0	 5.333299999983333e+000	 8.133340000006532e+000	 1.004689328696491e+001
0	 5.333299999983335e+000	 8.200010000009550e+000	 1.004397926751850e+001
0	 5.333299999983336e+000	 8.266680000012268e+000	 1.004114853807930e+001
0	 5.333299999983334e+000	 8.333350000014585e+000	 1.003839857618242e+001
0	 5.333299999983333e+000	 8.400020000016399e+000	 1.003572685936309e+001
0	 5.333299999983332e+000	 8.466690000017616e+000	 1.003313086515647e+001
0	 5.333299999983334e+000	 8.533360000018135e+000	 1.003060807109774e+001
0	 5.333299999983335e+000	 8.600030000017851e+000	 1.002815595472206e+001
0	 5.333299999983334e+000	 8.666700000016666e+000	 1.002577199356461e+001
0	 5.399969999982149e+000	 8.000000000000000e+000	 1.005300995233132e+001
0	 5.399969999982150e+000	 8.066670000003317e+000	 1.004992375106431e+001
0	 5.399969999982149e+000	 8.133340000006530e+000	 1.004692599268931e+001
0	 5.399969999982149e+000	 8.200010000009549e+000	 1.004401399843525e+001
0	 5.399969999982151e+000	 8.266680000012267e+000	 1.004118508953107e+001
0	 5.399969999982150e+000	 8.333350000014583e+000	 1.003843658720574e+001
0	 5.399969999982149e+000	 8.400020000016401e+000	 1.003576581268820e+001
0	 5.399969999982149e+000	 8.466690000017614e+000	 1.003317008720740e+001
0	 5.399969999982149e+000	 8.533360000018133e+000	 1.003064673199234e+001
0	 5.399969999982150e+000	 8.600030000017853e+000	 1.002819306827194e+001
0	 5.399969999982150e+000	 8.666700000016668e+000	 1.002580641727516e+001
0	 5.466639999981868e+000	 8.000000000000000e+000	 1.005296734981747e+001
0	 5.466639999981866e+000	 8.066670000003319e+000	 1.004988755781348e+001
0	 5.466639999981867e+000	 8.133340000006532e+000	 1.004689605259911e+001
0	 5.466639999981867e+000	 8.200010000009554e+000	 1.004399001882178e+001
0	 5.466639999981865e+000	 8.266680000012265e+000	 1.004116664112892e+001
0	 5.466639999981867e+000	 8.333350000014583e+000	 1.003842310416796e+001
0	 5.466639999981865e+000	 8.400020000016401e+000	 1.003575659258631e+001
0	 5.466639999981864e+000	 8.466690000017616e+000	 1.003316429103141e+001
0	 5.466639999981867e+000	 8.533360000018137e+000	 1.003064338415073e+001
0	 5.466639999981865e+000	 8.600030000017849e+000	 1.002819105659165e+001
0	 5.466639999981867e+000	 8.666700000016668e+000	 1.002580449300165e+001
0	 5.533309999982382e+000	 8.000000000000000e+000	 1.005285688668237e+001
0	 5.533309999982385e+000	 8.066670000003317e+000	 1.004978766772482e+001
0	 5.533309999982381e+000	 8.133340000006529e+000	 1.004680634053806e+001
0	 5.533309999982381e+000	 8.200010000009552e+000	 1.004390997291265e+001
0	 5.533309999982382e+000	 8.266680000012267e+000	 1.004109563263922e+001
0	 5.533309999982383e+000	 8.333350000014583e+000	 1.003836038750834e+001
0	 5.533309999982383e+000	 8.400020000016401e+000	 1.003570130531063e+001
0	 5.533309999982383e+000	 8.466690000017616e+000	 1.003311545383670e+001
0	 5.533309999982382e+000	 8.533360000018138e+000	 1.003059990087715e+001
0	 5.533309999982381e+000	 8.600030000017851e+000	 1.002815171422255e+001
0	 5.533309999982382e+000	 8.666700000016668e+000	 1.002576796166357e+001
0	 5.599979999983598e+000	 8.000000000000004e+000	 1.005268197141129e+001
0	 5.599979999983599e+000	 8.066670000003315e+000	 1.004962720939232e+001
0	 5.599979999983598e+000	 8.133340000006534e+000	 1.004665973034986e+001
0	 5.599979999983598e+000	 8.200010000009550e+000	 1.004377650494238e+001
0	 5.599979999983598e+000	 8.266680000012265e+000	 1.004097450382832e+001
0	 5.599979999983599e+000	 8.333350000014587e+000	 1.003825069766618e+001
0	 5.599979999983597e+000	 8.400020000016401e+000	 1.003560205711441e+001
0	 5.599979999983598e+000	 8.466690000017616e+000	 1.003302555283148e+001
0	 5.599979999983599e+000	 8.533360000018133e+000	 1.003051815547585e+001
0	 5.599979999983598e+000	 8.600030000017851e+000	 1.002807683570600e+001
0	 5.599979999983599e+000	 8.666700000016668e+000	 1.002569856418042e+001
0	 5.666649999985415e+000	 7.999999999999998e+000	 1.005244601248953e+001
0	 5.666649999985414e+000	 8.066670000003315e+000	 1.004940931140997e+001
0	 5.666649999985417e+000	 8.133340000006536e+000	 1.004645909587828e+001
0	 5.666649999985415e+000	 8.200010000009550e+000	 1.004359225914549e+001
0	 5.666649999985414e+000	 8.266680000012268e+000	 1.004080569446263e+001
0	 5.666649999985415e+000	 8.333350000014583e+000	 1.003809629508073e+001
0	 5.666649999985415e+000	 8.400020000016403e+000	 1.003546095425083e+001
0	 5.666649999985415e+000	 8.466690000017618e+000	 1.003289656522393e+001
0	 5.666649999985415e+000	 8.533360000018135e+000	 1.003040002125108e+001
0	 5.666649999985416e+000	 8.600030000017851e+000	 1.002796821558331e+001
0	 5.666649999985415e+000	 8.666700000016666e+000	 1.002559804147166e+001
0	 5.733319999987732e+000	 8.000000000000000e+000	 1.005215241840239e+001
0	 5.733319999987732e+000	 8.066670000003317e+000	 1.004913710237172e+001
0	 5.733319999987731e+000	 8.133340000006532e+000	 1.004620731096701e+001
0	 5.733319999987732e+000	 8.200010000009552e+000	 1.004335987975651e+001
0	 5.733319999987731e+000	 8.266680000012268e+000	 1.004059164430849e+001
0	 5.733319999987731e+000	 8.333350000014583e+000	 1.003789944019127e+001
0	 5.733319999987732e+000	 8.400020000016399e+000	 1.003528010297311e+001
0	 5.733319999987732e+000	 8.466690000017616e+000	 1.003273046822230e+001
0	 5.733319999987732e+000	 8.533360000018131e+000	 1.003024737150712e+001
0	 5.733319999987732e+000	 8.600030000017849e+000	 1.002782764839584e+001
0	 5.733319999987731e+000	 8.666700000016666e+000	 1.002546813445678e+001
0	 5.799989999990447e+000	 8.000000000000000e+000	 1.005180459763513e+001
0	 5.799989999990449e+000	 8.066670000003317e+000	 1.004881371087160e+001
0	 5.799989999990448e+000	 8.133340000006534e+000	 1.004590724945981e+001
0	 5.799989999990450e+000	 8.200010000009554e+000	 1.004308201100997e+001
0	 5.799989999990447e+000	 8.266680000012267e+000	 1.004033479313231e+001
0	 5.799989999990449e+000	 8.333350000014585e+000	 1.003766239343708e+001
0	 5.799989999990448e+000	 8.400020000016403e+000	 1.003506160953447e+001
0	 5.799989999990448e+000	 8.466690000017616e+000	 1.003252923903478e+001
0	 5.799989999990448e+000	 8.533360000018133e+000	 1.003006207954818e+001
0	 5.799989999990447e+000	 8.600030000017851e+000	 1.002765692868495e+001
0	 5.799989999990448e+000	 8.666700000016668e+000	 1.002531058405531e+001
0	 5.866659999993464e+000	 8.000000000000002e+000	 1.005140595867305e+001
0	 5.866659999993464e+000	 8.066670000003317e+000	 1.004844226550357e+001
0	 5.866659999993464e+000	 8.133340000006532e+000	 1.004556178520041e+001
0	 5.866659999993465e+000	 8.200010000009550e+000	 1.004276129714040e+001
0	 5.866659999993464e+000	 8.266680000012268e+000	 1.004003758070044e+001
0	 5.866659999993465e+000	 8.333350000014585e+000	 1.003738741525739e+001
0	 5.866659999993465e+000	 8.400020000016401e+000	 1.003480758018813e+001
0	 5.866659999993464e+000	 8.466690000017618e+000	 1.003229485486958e+001
0	 5.866659999993463e+000	 8.533360000018133e+000	 1.002984601867855e+001
0	 5.866659999993464e+000	 8.600030000017851e+000	 1.002745785099194e+001
0	 5.866659999993464e+000	 8.666700000016668e+000	 1.002512713118666e+001
0	 5.933329999996681e+000	 8.000000000000000e+000	 1.005095991000143e+001
0	 5.933329999996682e+000	 8.066670000003317e+000	 1.004802589486163e+001
0	 5.933329999996680e+000	 8.133340000006532e+000	 1.004517379203252e+001
0	 5.933329999996682e+000	 8.200010000009550e+000	 1.004240038238234e+001
0	 5.933329999996681e+000	 8.266680000012267e+000	 1.003970244677924e+001
0	 5.933329999996681e+000	 8.333350000014585e+000	 1.003707676609151e+001
0	 5.933329999996680e+000	 8.400020000016397e+000	 1.003452012118731e+001
0	 5.933329999996682e+000	 8.466690000017616e+000	 1.003202929293488e+001
0	 5.933329999996681e+000	 8.533360000018135e+000	 1.002960106220244e+001
0	 5.933329999996681e+000	 8.600030000017849e+000	 1.002723220985820e+001
0	 5.933329999996682e+000	 8.666700000016666e+000	 1.002491951677039e+001
0	 6.000000000000000e+000	 8.000000000000000e+000	 1.005046986010560e+001
0	 5.999999999999999e+000	 8.066670000003319e+000	 1.004756772753977e+001
0	 6.000000000000001e+000	 8.133340000006534e+000	 1.004474614379992e+001
0	 5.999999999999998e+000	 8.200010000009549e+000	 1.004200191097029e+001
0	 6.000000000000000e+000	 8.266680000012267e+000	 1.003933183113514e+001
0	 6.000000000000001e+000	 8.333350000014583e+000	 1.003673270637869e+001
0	 6.000000000000000e+000	 8.400020000016401e+000	 1.003420133878522e+001
0	 6.000000000000000e+000	 8.466690000017616e+000	 1.003173453043895e+001
0	 6.000000000000000e+000	 8.533360000018133e+000	 1.002932908342415e+001
0	 5.999999999999998e+000	 8.600030000017849e+000	 1.002698179982508e+001
0	 6.000000000000000e+000	 8.666700000016666e+000	 1.002468948172595e+001
0	 5.333299999983334e+000	 8.666700000016666e+000	 1.002577199356461e+001
0	 5.333299999983334e+000	 8.733360002791903e+000	 1.002347836475051e+001
0	 5.333299999983332e+000	 8.800020022230553e+000	 1.002129506278642e+001
0	 5.333299999983335e+000	 8.866680074997040e+000	 1.001921734882531e+001
0	 5.333299999983334e+000	 8.933340177755779e+000	 1.001724048371667e+001
0	 5.333299999983332e+000	 9.000000347171179e+000	 1.001535972800643e+001
0	 5.333299999983335e+000	 9.066660599907667e+000	 1.001357034193699e+001
0	 5.333299999983334e+000	 9.133320952629655e+000	 1.001186758544726e+001
0	 5.333299999983334e+000	 9.199981422001560e+000	 1.001024671817259e+001
0	 5.333299999983335e+000	 9.266642024687798e+000	 1.000870299944477e+001
0	 5.333299999983335e+000	 9.333302777352785e+000	 1.000723168829213e+001
0	 5.399969999982150e+000	 8.666700000016668e+000	 1.002580641727516e+001
0	 5.399969999982150e+000	 8.733360002791905e+000	 1.002350938389117e+001
0	 5.399969999982150e+000	 8.800020022230559e+000	 1.002132253914664e+001
0	 5.399969999982150e+000	 8.866680074997046e+000	 1.001924121251254e+001
0	 5.399969999982150e+000	 8.933340177755778e+000	 1.001726073315553e+001
0	 5.399969999982149e+000	 9.000000347171181e+000	 1.001537642993799e+001
0	 5.399969999982149e+000	 9.066660599907667e+000	 1.001358363141795e+001
0	 5.399969999982148e+000	 9.133320952629653e+000	 1.001187766584917e+001
0	 5.399969999982150e+000	 9.199981422001560e+000	 1.001025386118108e+001
0	 5.399969999982149e+000	 9.266642024687794e+000	 1.000870754505882e+001
0	 5.399969999982151e+000	 9.333302777352785e+000	 1.000723404482312e+001
0	 5.466639999981867e+000	 8.666700000016668e+000	 1.002580449300165e+001
0	 5.466639999981866e+000	 8.733360002791901e+000	 1.002350679340735e+001
0	 5.466639999981866e+000	 8.800020022230552e+000	 1.002131915507254e+001
0	 5.466639999981867e+000	 8.866680074997040e+000	 1.001923696779791e+001
0	 5.466639999981868e+000	 8.933340177755783e+000	 1.001725562107925e+001
0	 5.466639999981866e+000	 9.000000347171183e+000	 1.001537050410746e+001
0	 5.466639999981865e+000	 9.066660599907667e+000	 1.001357700576862e+001
0	 5.466639999981866e+000	 9.133320952629653e+000	 1.001187051464393e+001
0	 5.466639999981864e+000	 9.199981422001557e+000	 1.001024641900972e+001
0	 5.466639999981865e+000	 9.266642024687798e+000	 1.000870010683742e+001
0	 5.466639999981866e+000	 9.333302777352785e+000	 1.000722696579359e+001
0	 5.533309999982382e+000	 8.666700000016668e+000	 1.002576796166357e+001
0	 5.533309999982381e+000	 8.733360002791899e+000	 1.002347228555496e+001
0	 5.533309999982382e+000	 8.800020022230557e+000	 1.002128653891984e+001
0	 5.533309999982382e+000	 8.866680074997042e+000	 1.001920616390032e+001
0	 5.533309999982383e+000	 8.933340177755779e+000	 1.001722660233328e+001
0	 5.533309999982382e+000	 9.000000347171184e+000	 1.001534329575052e+001
0	 5.533309999982382e+000	 9.066660599907669e+000	 1.001355168537860e+001
0	 5.533309999982383e+000	 9.133320952629658e+000	 1.001184721213890e+001
0	 5.533309999982384e+000	 9.199981422001558e+000	 1.001022531664763e+001
0	 5.533309999982381e+000	 9.266642024687794e+000	 1.000868143921581e+001
0	 5.533309999982381e+000	 9.333302777352785e+000	 1.000721101984925e+001
0	 5.599979999983599e+000	 8.666700000016668e+000	 1.002569856418042e+001
0	 5.599979999983598e+000	 8.733360002791901e+000	 1.002340755259000e+001
0	 5.599979999983597e+000	 8.800020022230555e+000	 1.002122631904427e+001
0	 5.599979999983598e+000	 8.866680074997040e+000	 1.001915035003860e+001
0	 5.599979999983597e+000	 8.933340177755779e+000	 1.001717513176316e+001
0	 5.599979999983598e+000	 9.000000347171183e+000	 1.001529615010288e+001
0	 5.599979999983598e+000	 9.066660599907666e+000	 1.001350889063748e+001
0	 5.599979999983599e+000	 9.133320952629658e+000	 1.001180883864144e+001
0	 5.599979999983598e+000	 9.199981422001558e+000	 1.001019147908402e+001
0	 5.599979999983600e+000	 9.266642024687799e+000	 1.000865229662922e+001
0	 5.599979999983599e+000	 9.333302777352785e+000	 1.000718677563589e+001
0	 5.666649999985415e+000	 8.666700000016666e+000	 1.002559804147166e+001
0	 5.666649999985416e+000	 8.733360002791903e+000	 1.002331428676840e+001
0	 5.666649999985416e+000	 8.800020022230557e+000	 1.002114012380156e+001
0	 5.666649999985415e+000	 8.866680074997044e+000	 1.001907107543169e+001
0	 5.666649999985416e+000	 8.933340177755778e+000	 1.001710266421438e+001
0	 5.666649999985416e+000	 9.000000347171183e+000	 1.001523041240022e+001
0	 5.666649999985415e+000	 9.066660599907667e+000	 1.001344984193485e+001
0	 5.666649999985417e+000	 9.133320952629656e+000	 1.001175647445889e+001
0	 5.666649999985414e+000	 9.199981422001560e+000	 1.001014583130803e+001
0	 5.666649999985415e+000	 9.266642024687796e+000	 1.000861343351292e+001
0	 5.666649999985415e+000	 9.333302777352783e+000	 1.000715480179924e+001
0	 5.733319999987731e+000	 8.666700000016666e+000	 1.002546813445678e+001
0	 5.733319999987731e+000	 8.733360002791903e+000	 1.002319418034610e+001
0	 5.733319999987732e+000	 8.800020022230555e+000	 1.002102958154741e+001
0	 5.733319999987732e+000	 8.866680074997042e+000	 1.001896988929843e+001
0	 5.733319999987732e+000	 8.933340177755776e+000	 1.001701065453241e+001
0	 5.733319999987733e+000	 9.000000347171181e+000	 1.001514742787822e+001
0	 5.733319999987732e+000	 9.066660599907671e+000	 1.001337575966029e+001
0	 5.733319999987732e+000	 9.133320952629656e+000	 1.001169119989863e+001
0	 5.733319999987731e+000	 9.199981422001558e+000	 1.001008929830883e+001
0	 5.733319999987732e+000	 9.266642024687796e+000	 1.000856560430206e+001
0	 5.733319999987731e+000	 9.333302777352783e+000	 1.000711566698506e+001
0	 5.799989999990448e+000	 8.666700000016668e+000	 1.002531058405531e+001
0	 5.799989999990447e+000	 8.733360002791901e+000	 1.002304892557905e+001
0	 5.799989999990448e+000	 8.800020022230555e+000	 1.002089632063757e+001
0	 5.799989999990448e+000	 8.866680074997042e+000	 1.001884834085772e+001
0	 5.799989999990448e+000	 8.933340177755779e+000	 1.001690055756278e+001
0	 5.799989999990448e+000	 9.000000347171177e+000	 1.001504854177260e+001
0	 5.799989999990449e+000	 9.066660599907667e+000	 1.001328786420341e+001
0	 5.799989999990448e+000	 9.133320952629656e+000	 1.001161409526800e+001
0	 5.799989999990449e+000	 9.199981422001558e+000	 1.001002280507562e+001
0	 5.799989999990449e+000	 9.266642024687796e+000	 1.000850956343193e+001
0	 5.799989999990448e+000	 9.333302777352783e+000	 1.000706993983916e+001
0	 5.866659999993464e+000	 8.666700000016668e+000	 1.002512713118665e+001
0	 5.866659999993465e+000	 8.733360002791903e+000	 1.002288021472322e+001
0	 5.866659999993465e+000	 8.800020022230553e+000	 1.002074196942778e+001
0	 5.866659999993465e+000	 8.866680074997042e+000	 1.001870797932842e+001
0	 5.866659999993464e+000	 8.933340177755778e+000	 1.001677382815096e+001
0	 5.866659999993465e+000	 9.000000347171184e+000	 1.001493509931898e+001
0	 5.866659999993465e+000	 9.066660599907669e+000	 1.001318737595376e+001
0	 5.866659999993464e+000	 9.133320952629656e+000	 1.001152624087436e+001
0	 5.866659999993465e+000	 9.199981422001558e+000	 1.000994727659752e+001
0	 5.866659999993464e+000	 9.266642024687796e+000	 1.000844606533774e+001
0	 5.866659999993465e+000	 9.333302777352783e+000	 1.000701818900726e+001
0	 5.933329999996682e+000	 8.666700000016666e+000	 1.002491951677039e+001
0	 5.933329999996682e+000	 8.733360002791901e+000	 1.002268974003455e+001
0	 5.933329999996682e+000	 8.800020022230557e+000	 1.002056815627374e+001
0	 5.933329999996681e+000	 8.866680074997040e+000	 1.001855035392941e+001
0	 5.933329999996682e+000	 8.933340177755778e+000	 1.001663192114246e+001
0	 5.933329999996682e+000	 9.000000347171183e+000	 1.001480844575312e+001
0	 5.933329999996681e+000	 9.066660599907667e+000	 1.001307551530097e+001
0	 5.933329999996681e+000	 9.133320952629655e+000	 1.001142871702507e+001
0	 5.933329999996682e+000	 9.199981422001558e+000	 1.000986363786374e+001
0	 5.933329999996682e+000	 9.266642024687796e+000	 1.000837586445470e+001
0	 5.933329999996681e+000	 9.333302777352781e+000	 1.000696098313509e+001
0	 6.000000000000000e+000	 8.666700000016666e+000	 1.002468948172595e+001
0	 6.000000000000000e+000	 8.733360002791903e+000	 1.002247919376899e+001
0	 6.000000000000000e+000	 8.800020022230555e+000	 1.002037650953118e+001
0	 6.000000000000000e+000	 8.866680074997040e+000	 1.001837701387960e+001
0	 6.000000000000000e+000	 8.933340177755781e+000	 1.001647629138278e+001
0	 6.000000000000000e+000	 9.000000347171181e+000	 1.001466992631068e+001
0	 6.000000000000001e+000	 9.066660599907667e+000	 1.001295350263465e+001
0	 5.999999999999998e+000	 9.133320952629655e+000	 1.001132260402751e+001
0	 6.000000000000000e+000	 9.199981422001558e+000	 1.000977281386344e+001
0	 5.999999999999998e+000	 9.266642024687796e+000	 1.000829971521807e+001
0	 6.000000000000000e+000	 9.333302777352783e+000	 1.000689889086847e+001
0	 5.333299999983335e+000	 9.333302777352785e+000	 1.000723168829213e+001
0	 5.333299999983335e+000	 9.399973674588175e+000	 1.000587567293266e+001
0	 5.333299999983333e+000	 9.466644621844619e+000	 1.000467668859834e+001
0	 5.333299999983335e+000	 9.533315502450002e+000	 1.000362762039035e+001
0	 5.333299999983334e+000	 9.599986199732197e+000	 1.000272135654764e+001
0	 5.333299999983335e+000	 9.666656597019097e+000	 1.000195078844710e+001
0	 5.333299999983334e+000	 9.733326577638577e+000	 1.000130881060333e+001
0	 5.333299999983334e+000	 9.799996024918524e+000	 1.000078832066879e+001
0	 5.333299999983334e+000	 9.866664822186822e+000	 1.000038221943391e+001
0	 5.333299999983334e+000	 9.933332852771354e+000	 1.000008341082728e+001
0	 5.333299999983334e+000	 1.000000000000000e+001	 9.999884801916023e+000
0	 5.399969999982151e+000	 9.333302777352785e+000	 1.000723404482312e+001
0	 5.399969999982150e+000	 9.399973674588175e+000	 1.000587638802524e+001
0	 5.399969999982151e+000	 9.466644621844621e+000	 1.000467633919341e+001
0	 5.399969999982151e+000	 9.533315502449996e+000	 1.000362668580809e+001
0	 5.399969999982152e+000	 9.599986199732198e+000	 1.000272021849506e+001
0	 5.399969999982150e+000	 9.666656597019093e+000	 1.000194973102554e+001
0	 5.399969999982148e+000	 9.733326577638573e+000	 1.000130802031615e+001
0	 5.399969999982150e+000	 9.799996024918521e+000	 1.000078788642889e+001
0	 5.399969999982150e+000	 9.866664822186824e+000	 1.000038213257120e+001
0	 5.399969999982150e+000	 9.933332852771352e+000	 1.000008356509649e+001
0	 5.399969999982149e+000	 1.000000000000000e+001	 9.999884993504100e+000
0	 5.466639999981866e+000	 9.333302777352785e+000	 1.000722696579359e+001
0	 5.466639999981865e+000	 9.399973674588175e+000	 1.000586994418185e+001
0	 5.466639999981866e+000	 9.466644621844617e+000	 1.000467064344666e+001
0	 5.466639999981866e+000	 9.533315502449996e+000	 1.000362178589082e+001
0	 5.466639999981865e+000	 9.599986199732198e+000	 1.000271609696418e+001
0	 5.466639999981867e+000	 9.666656597019093e+000	 1.000194630526332e+001
0	 5.466639999981867e+000	 9.733326577638577e+000	 1.000130514253161e+001
0	 5.466639999981867e+000	 9.799996024918523e+000	 1.000078534365935e+001
0	 5.466639999981866e+000	 9.866664822186820e+000	 1.000037964668371e+001
0	 5.466639999981867e+000	 9.933332852771352e+000	 1.000008079278916e+001
0	 5.466639999981866e+000	 1.000000000000000e+001	 9.999881526307803e+000
0	 5.533309999982381e+000	 9.333302777352785e+000	 1.000721101984925e+001
0	 5.533309999982384e+000	 9.399973674588178e+000	 1.000585674145464e+001
0	 5.533309999982383e+000	 9.466644621844624e+000	 1.000465988250083e+001
0	 5.533309999982382e+000	 9.533315502450002e+000	 1.000361313255585e+001
0	 5.533309999982383e+000	 9.599986199732197e+000	 1.000270918433046e+001
0	 5.533309999982381e+000	 9.666656597019092e+000	 1.000194073367808e+001
0	 5.533309999982381e+000	 9.733326577638572e+000	 1.000130047959476e+001
0	 5.533309999982383e+000	 9.799996024918526e+000	 1.000078112421912e+001
0	 5.533309999982384e+000	 9.866664822186825e+000	 1.000037537283273e+001
0	 5.533309999982382e+000	 9.933332852771352e+000	 1.000007593386029e+001
0	 5.533309999982383e+000	 1.000000000000000e+001	 9.999875518869700e+000
0	 5.599979999983599e+000	 9.333302777352785e+000	 1.000718677563589e+001
0	 5.599979999983598e+000	 9.399973674588177e+000	 1.000583717989571e+001
0	 5.599979999983598e+000	 9.466644621844619e+000	 1.000464433749884e+001
0	 5.599979999983598e+000	 9.533315502450002e+000	 1.000360093772046e+001
0	 5.599979999983598e+000	 9.599986199732197e+000	 1.000269967296938e+001
0	 5.599979999983598e+000	 9.666656597019093e+000	 1.000193323878759e+001
0	 5.599979999983599e+000	 9.733326577638577e+000	 1.000129433385055e+001
0	 5.599979999983598e+000	 9.799996024918526e+000	 1.000077565996712e+001
0	 5.599979999983600e+000	 9.866664822186820e+000	 1.000036992207972e+001
0	 5.599979999983598e+000	 9.933332852771351e+000	 1.000006982826465e+001
0	 5.599979999983598e+000	 1.000000000000000e+001	 9.999868089732335e+000
0	 5.666649999985415e+000	 9.333302777352783e+000	 1.000715480179923e+001
0	 5.666649999985416e+000	 9.399973674588177e+000	 1.000581165955714e+001
0	 5.666649999985415e+000	 9.466644621844619e+000	 1.000462428958342e+001
0	 5.666649999985415e+000	 9.533315502450000e+000	 1.000358541330198e+001
0	 5.666649999985414e+000	 9.599986199732197e+000	 1.000268775525632e+001
0	 5.666649999985413e+000	 9.666656597019092e+000	 1.000192404310949e+001
0	 5.666649999985414e+000	 9.733326577638577e+000	 1.000128700764407e+001
0	 5.666649999985416e+000	 9.799996024918523e+000	 1.000076938276222e+001
0	 5.666649999985417e+000	 9.866664822186827e+000	 1.000036390548593e+001
0	 5.666649999985414e+000	 9.933332852771354e+000	 1.000006331595715e+001
0	 5.666649999985415e+000	 1.000000000000000e+001	 9.999860357438140e+000
0	 5.733319999987731e+000	 9.333302777352783e+000	 1.000711566698506e+001
0	 5.733319999987730e+000	 9.399973674588175e+000	 1.000578058049105e+001
0	 5.733319999987733e+000	 9.466644621844621e+000	 1.000460001989747e+001
0	 5.733319999987731e+000	 9.533315502449998e+000	 1.000356677121768e+001
0	 5.733319999987731e+000	 9.599986199732197e+000	 1.000267362356676e+001
0	 5.733319999987731e+000	 9.666656597019093e+000	 1.000191336916152e+001
0	 5.733319999987730e+000	 9.733326577638575e+000	 1.000127880332036e+001
0	 5.733319999987732e+000	 9.799996024918523e+000	 1.000076272446343e+001
0	 5.733319999987732e+000	 9.866664822186822e+000	 1.000035793411281e+001
0	 5.733319999987733e+000	 9.933332852771356e+000	 1.000005723689269e+001
0	 5.733319999987732e+000	 1.000000000000000e+001	 9.999853440529808e+000
0	 5.799989999990448e+000	 9.333302777352783e+000	 1.000706993983916e+001
0	 5.799989999990448e+000	 9.399973674588178e+000	 1.000574434274954e+001
0	 5.799989999990448e+000	 9.466644621844621e+000	 1.000457180958375e+001
0	 5.799989999990449e+000	 9.533315502450002e+000	 1.000354522338481e+001
0	 5.799989999990450e+000	 9.599986199732200e+000	 1.000265747027614e+001
0	 5.799989999990449e+000	 9.666656597019097e+000	 1.000190143946139e+001
0	 5.799989999990448e+000	 9.733326577638575e+000	 1.000127002322442e+001
0	 5.799989999990448e+000	 9.799996024918526e+000	 1.000075611692959e+001
0	 5.799989999990448e+000	 9.866664822186824e+000	 1.000035261902166e+001
0	 5.799989999990448e+000	 9.933332852771352e+000	 1.000005243102615e+001
0	 5.799989999990449e+000	 1.000000000000000e+001	 9.999848457549749e+000
0	 5.866659999993465e+000	 9.333302777352783e+000	 1.000701818900726e+001
0	 5.866659999993463e+000	 9.399973674588175e+000	 1.000570334638475e+001
0	 5.866659999993466e+000	 9.466644621844624e+000	 1.000453993978510e+001
0	 5.866659999993463e+000	 9.533315502450002e+000	 1.000352098172072e+001
0	 5.866659999993465e+000	 9.599986199732197e+000	 1.000263948775987e+001
0	 5.866659999993464e+000	 9.666656597019095e+000	 1.000188847652673e+001
0	 5.866659999993464e+000	 9.733326577638575e+000	 1.000126096970134e+001
0	 5.866659999993464e+000	 9.799996024918523e+000	 1.000074999201968e+001
0	 5.866659999993464e+000	 9.866664822186822e+000	 1.000034857127393e+001
0	 5.866659999993464e+000	 9.933332852771354e+000	 1.000004973831246e+001
0	 5.866659999993464e+000	 1.000000000000000e+001	 9.999846527040615e+000
0	 5.933329999996681e+000	 9.333302777352781e+000	 1.000696098313509e+001
0	 5.933329999996682e+000	 9.399973674588177e+000	 1.000565799144875e+001
0	 5.933329999996681e+000	 9.466644621844619e+000	 1.000450469164439e+001
0	 5.933329999996681e+000	 9.533315502450000e+000	 1.000349425814270e+001
0	 5.933329999996682e+000	 9.599986199732197e+000	 1.000261986839341e+001
0	 5.933329999996682e+000	 9.666656597019093e+000	 1.000187470287535e+001
0	 5.933329999996681e+000	 9.733326577638575e+000	 1.000125194509613e+001
0	 5.933329999996681e+000	 9.799996024918523e+000	 1.000074478159266e+001
0	 5.933329999996682e+000	 9.866664822186820e+000	 1.000034640193087e+001
0	 5.933329999996682e+000	 9.933332852771354e+000	 1.000004999870651e+001
0	 5.933329999996681e+000	 9.999999999999998e+000	 9.999848767544856e+000
0	 6.000000000000000e+000	 9.333302777352783e+000	 1.000689889086847e+001
0	 6.000000000000002e+000	 9.399973674588175e+000	 1.000560867799365e+001
0	 5.999999999999998e+000	 9.466644621844619e+000	 1.000446634630436e+001
0	 6.000000000000001e+000	 9.533315502450000e+000	 1.000346526456802e+001
0	 6.000000000000001e+000	 9.599986199732197e+000	 1.000259880455225e+001
0	 6.000000000000001e+000	 9.666656597019093e+000	 1.000186034102488e+001
0	 6.000000000000002e+000	 9.733326577638577e+000	 1.000124325175384e+001
0	 6.000000000000000e+000	 9.799996024918523e+000	 1.000074091750732e+001
0	 6.000000000000000e+000	 9.866664822186824e+000	 1.000034672205396e+001
0	 6.000000000000000e+000	 9.933332852771352e+000	 1.000005405216306e+001
0	 6.000000000000000e+000	 1.000000000000000e+001	 9.999856297605041e+000
0	 6.000000000000000e+000	 0.000000000000000e+000	 1.019758575473333e+001
0	 6.000000000000001e+000	 6.666714722864757e-002	 1.019871420515216e+001
0	 6.000000000000000e+000	 1.333351778131789e-001	 1.019983894260992e+001
0	 6.000000000000000e+000	 2.000039750814772e-001	 1.020100814683310e+001
0	 6.000000000000001e+000	 2.666734223614256e-001	 1.020227000473582e+001
0	 6.000000000000000e+000	 3.333434029809069e-001	 1.020367271041931e+001
0	 6.000000000000001e+000	 4.000138002678044e-001	 1.020526446517146e+001
0	 5.999999999999998e+000	 4.666844975500010e-001	 1.020709347746666e+001
0	 6.000000000000000e+000	 5.333553781553804e-001	 1.020920796296583e+001
0	 6.000000000000000e+000	 6.000263254118248e-001	 1.021165614451654e+001
0	 6.000000000000000e+000	 6.666972226472177e-001	 1.021448625215346e+001
0	 6.066670000003317e+000	 0.000000000000000e+000	 1.018769664592974e+001
0	 6.066670000003317e+000	 6.666714722864756e-002	 1.018875688462765e+001
0	 6.066670000003318e+000	 1.333351778131789e-001	 1.018989845305049e+001
0	 6.066670000003317e+000	 2.000039750814773e-001	 1.019115455747294e+001
0	 6.066670000003315e+000	 2.666734223614255e-001	 1.019255841088172e+001
0	 6.066670000003317e+000	 3.333434029809069e-001	 1.019414323297510e+001
0	 6.066670000003316e+000	 4.000138002678045e-001	 1.019594225016249e+001
0	 6.066670000003315e+000	 4.666844975500010e-001	 1.019798869556441e+001
0	 6.066670000003319e+000	 5.333553781553804e-001	 1.020031580901239e+001
0	 6.066670000003317e+000	 6.000263254118247e-001	 1.020295683704927e+001
0	 6.066670000003317e+000	 6.666972226472177e-001	 1.020594503292949e+001
0	 6.133340000006534e+000	 0.000000000000000e+000	 1.017859589314063e+001
0	 6.133340000006531e+000	 6.666714722864754e-002	 1.017952605744338e+001
0	 6.133340000006535e+000	 1.333351778131790e-001	 1.018061006709747e+001
0	 6.133340000006532e+000	 2.000039750814772e-001	 1.018186822179035e+001
0	 6.133340000006532e+000	 2.666734223614256e-001	 1.018332082749368e+001
0	 6.133340000006531e+000	 3.333434029809068e-001	 1.018498819646294e+001
0	 6.133340000006532e+000	 4.000138002678043e-001	 1.018689064723705e+001
0	 6.133340000006533e+000	 4.666844975500012e-001	 1.018904850463835e+001
0	 6.133340000006534e+000	 5.333553781553803e-001	 1.019148209977251e+001
0	 6.133340000006532e+000	 6.000263254118246e-001	 1.019421177002884e+001
0	 6.133340000006532e+000	 6.666972226472175e-001	 1.019725785908060e+001
0	 6.200010000009550e+000	 0.000000000000000e+000	 1.017018578100485e+001
0	 6.200010000009550e+000	 6.666714722864758e-002	 1.017094097302959e+001
0	 6.200010000009550e+000	 1.333351778131789e-001	 1.017190969455338e+001
0	 6.200010000009549e+000	 2.000039750814772e-001	 1.017310140563973e+001
0	 6.200010000009550e+000	 2.666734223614256e-001	 1.017452557225321e+001
0	 6.200010000009550e+000	 3.333434029809069e-001	 1.017619166625905e+001
0	 6.200010000009551e+000	 4.000138002678044e-001	 1.017810916542283e+001
0	 6.200010000009549e+000	 4.666844975500010e-001	 1.018028755341039e+001
0	 6.200010000009550e+000	 5.333553781553801e-001	 1.018273631978782e+001
0	 6.200010000009551e+000	 6.000263254118248e-001	 1.018546496002178e+001
0	 6.200010000009549e+000	 6.666972226472177e-001	 1.018848297547968e+001
0	 6.266680000012268e+000	 0.000000000000000e+000	 1.016236859416122e+001
0	 6.266680000012266e+000	 6.666714722864753e-002	 1.016292088081650e+001
0	 6.266680000012265e+000	 1.333351778131789e-001	 1.016373324522069e+001
0	 6.266680000012266e+000	 2.000039750814772e-001	 1.016480637487548e+001
0	 6.266680000012265e+000	 2.666734223614255e-001	 1.016614096284186e+001
0	 6.266680000012265e+000	 3.333434029809068e-001	 1.016773770773971e+001
0	 6.266680000012268e+000	 4.000138002678045e-001	 1.016959731374755e+001
0	 6.266680000012266e+000	 4.666844975500011e-001	 1.017172049060244e+001
0	 6.266680000012268e+000	 5.333553781553803e-001	 1.017410795359998e+001
0	 6.266680000012265e+000	 6.000263254118247e-001	 1.017676042359455e+001
0	 6.266680000012268e+000	 6.666972226472177e-001	 1.017967862699959e+001
0	 6.333350000014583e+000	 0.000000000000000e+000	 1.015504661724859e+001
0	 6.333350000014582e+000	 6.666714722864756e-002	 1.015538503023435e+001
0	 6.333350000014583e+000	 1.333351778131790e-001	 1.015601662890192e+001
0	 6.333350000014582e+000	 2.000039750814773e-001	 1.015693539535202e+001
0	 6.333350000014582e+000	 2.666734223614257e-001	 1.015813531694115e+001
0	 6.333350000014582e+000	 3.333434029809068e-001	 1.015961038628114e+001
0	 6.333350000014582e+000	 4.000138002678044e-001	 1.016135460123893e+001
0	 6.333350000014582e+000	 4.666844975500012e-001	 1.016336196493643e+001
0	 6.333350000014582e+000	 5.333553781553800e-001	 1.016562648575063e+001
0	 6.333350000014583e+000	 6.000263254118248e-001	 1.016814217731368e+001
0	 6.333350000014584e+000	 6.666972226472179e-001	 1.017090305851325e+001
0	 6.400020000016400e+000	 0.000000000000000e+000	 1.014812213490579e+001
0	 6.400020000016401e+000	 6.666714722864756e-002	 1.014825267071338e+001
0	 6.400020000016398e+000	 1.333351778131789e-001	 1.014869575539955e+001
0	 6.400020000016401e+000	 2.000039750814772e-001	 1.014944073292377e+001
0	 6.400020000016400e+000	 2.666734223614256e-001	 1.015047695223263e+001
0	 6.400020000016399e+000	 3.333434029809069e-001	 1.015179376725959e+001
0	 6.400020000016401e+000	 4.000138002678044e-001	 1.015338053692465e+001
0	 6.400020000016400e+000	 4.666844975500012e-001	 1.015522662513428e+001
0	 6.400020000016396e+000	 5.333553781553801e-001	 1.015732140078144e+001
0	 6.400020000016400e+000	 6.000263254118248e-001	 1.015965423774570e+001
0	 6.400020000016400e+000	 6.666972226472179e-001	 1.016221451489354e+001
0	 6.466690000017615e+000	 0.000000000000000e+000	 1.014149743177168e+001
0	 6.466690000017613e+000	 6.666714722864756e-002	 1.014144305168379e+001
0	 6.466690000017615e+000	 1.333351778131790e-001	 1.014170653451611e+001
0	 6.466690000017614e+000	 2.000039750814772e-001	 1.014227465344514e+001
0	 6.466690000017617e+000	 2.666734223614255e-001	 1.014313418639785e+001
0	 6.466690000017617e+000	 3.333434029809070e-001	 1.014427191605132e+001
0	 6.466690000017615e+000	 4.000138002678044e-001	 1.014567462983247e+001
0	 6.466690000017615e+000	 4.666844975500011e-001	 1.014732911991792e+001
0	 6.466690000017615e+000	 5.333553781553801e-001	 1.014922218323406e+001
0	 6.466690000017616e+000	 6.000263254118248e-001	 1.015134062145708e+001
0	 6.466690000017614e+000	 6.666972226472175e-001	 1.015367124101335e+001
0	 6.533360000018132e+000	 0.000000000000000e+000	 1.013507479248509e+001
0	 6.533360000018130e+000	 6.666714722864756e-002	 1.013487542257588e+001
0	 6.533360000018132e+000	 1.333351778131789e-001	 1.013498487605411e+001
0	 6.533360000018132e+000	 2.000039750814772e-001	 1.013538942277055e+001
0	 6.533360000018133e+000	 2.666734223614256e-001	 1.013607533711834e+001
0	 6.533360000018132e+000	 3.333434029809069e-001	 1.013702889803257e+001
0	 6.533360000018131e+000	 4.000138002678044e-001	 1.013823638899007e+001
0	 6.533360000018132e+000	 4.666844975500012e-001	 1.013968409800926e+001
0	 6.533360000018133e+000	 5.333553781553801e-001	 1.014135831765013e+001
0	 6.533360000018131e+000	 6.000263254118248e-001	 1.014324534501437e+001
0	 6.533360000018131e+000	 6.666972226472177e-001	 1.014533148174559e+001
0	 6.600030000017848e+000	 0.000000000000000e+000	 1.012875650168489e+001
0	 6.600030000017849e+000	 6.666714722864757e-002	 1.012846903281986e+001
0	 6.600030000017847e+000	 1.333351778131789e-001	 1.012846668981605e+001
0	 6.600030000017847e+000	 2.000039750814772e-001	 1.012873730675444e+001
0	 6.600030000017848e+000	 2.666734223614255e-001	 1.012926872207566e+001
0	 6.600030000017847e+000	 3.333434029809069e-001	 1.013004877857962e+001
0	 6.600030000017848e+000	 4.000138002678044e-001	 1.013106532342522e+001
0	 6.600030000017848e+000	 4.666844975500012e-001	 1.013230620813024e+001
0	 6.600030000017847e+000	 5.333553781553803e-001	 1.013375928857134e+001
0	 6.600030000017847e+000	 6.000263254118248e-001	 1.013541242498407e+001
0	 6.600030000017847e+000	 6.666972226472178e-001	 1.013725348196314e+001
0	 6.666700000016666e+000	 0.000000000000000e+000	 1.012244484400991e+001
0	 6.666700000016668e+000	 6.666714722864757e-002	 1.012214313184599e+001
0	 6.666700000016666e+000	 1.333351778131790e-001	 1.012208788560446e+001
0	 6.666700000016665e+000	 2.000039750814772e-001	 1.012227057125122e+001
0	 6.666700000016667e+000	 2.666734223614256e-001	 1.012268265895136e+001
0	 6.666700000016667e+000	 3.333434029809069e-001	 1.012331562306871e+001
0	 6.666700000016666e+000	 4.000138002678044e-001	 1.012416094216562e+001
0	 6.666700000016665e+000	 4.666844975500010e-001	 1.012521009900280e+001
0	 6.666700000016668e+000	 5.333553781553803e-001	 1.012645458053934e+001
0	 6.666700000016667e+000	 6.000263254118248e-001	 1.012788587793268e+001
0	 6.666700000016666e+000	 6.666972226472178e-001	 1.012949548653890e+001
0	 6.000000000000000e+000	 6.666972226472177e-001	 1.021448625215346e+001
0	 6.000000000000000e+000	 7.333579753122046e-001	 1.021749251707545e+001
0	 6.000000000000000e+000	 8.000185779984417e-001	 1.022044728482250e+001
0	 6.000000000000002e+000	 8.666790473703454e-001	 1.022336459547051e+001
0	 6.000000000000000e+000	 9.333394000923323e-001	 1.022625848881211e+001
0	 5.999999999999999e+000	 9.999996528288190e-001	 1.022914300435678e+001
0	 6.000000000000000e+000	 1.066659822244222e+000	 1.023203218133078e+001
0	 6.000000000000001e+000	 1.133319925002959e+000	 1.023494005867721e+001
0	 6.000000000000000e+000	 1.199979977769445e+000	 1.023788067505598e+001
0	 6.000000000000000e+000	 1.266639997208098e+000	 1.024086806884387e+001
0	 6.000000000000000e+000	 1.333299999983334e+000	 1.024391627813451e+001
0	 6.066670000003317e+000	 6.666972226472177e-001	 1.020594503292950e+001
0	 6.066670000003316e+000	 7.333579753122046e-001	 1.020906270971364e+001
0	 6.066670000003316e+000	 8.000185779984416e-001	 1.021208060009647e+001
0	 6.066670000003316e+000	 8.666790473703451e-001	 1.021501316393696e+001
0	 6.066670000003317e+000	 9.333394000923321e-001	 1.021787486087722e+001
0	 6.066670000003318e+000	 9.999996528288190e-001	 1.022068015034258e+001
0	 6.066670000003317e+000	 1.066659822244222e+000	 1.022344349154151e+001
0	 6.066670000003319e+000	 1.133319925002959e+000	 1.022617934346575e+001
0	 6.066670000003316e+000	 1.199979977769445e+000	 1.022890216489021e+001
0	 6.066670000003317e+000	 1.266639997208098e+000	 1.023162641437305e+001
0	 6.066670000003319e+000	 1.333299999983334e+000	 1.023436655025566e+001
0	 6.133340000006532e+000	 6.666972226472175e-001	 1.019725785908060e+001
0	 6.133340000006531e+000	 7.333579753122045e-001	 1.020040252988878e+001
0	 6.133340000006534e+000	 8.000185779984415e-001	 1.020342518693528e+001
0	 6.133340000006532e+000	 8.666790473703452e-001	 1.020634059583315e+001
0	 6.133340000006530e+000	 9.333394000923321e-001	 1.020916352200803e+001
0	 6.133340000006535e+000	 9.999996528288190e-001	 1.021190873069815e+001
0	 6.133340000006534e+000	 1.066659822244222e+000	 1.021459098695432e+001
0	 6.133340000006535e+000	 1.133319925002959e+000	 1.021722505564004e+001
0	 6.133340000006535e+000	 1.199979977769445e+000	 1.021982570143135e+001
0	 6.133340000006533e+000	 1.266639997208098e+000	 1.022240768881700e+001
0	 6.133340000006530e+000	 1.333299999983334e+000	 1.022498578209839e+001
0	 6.200010000009549e+000	 6.666972226472177e-001	 1.018848297547968e+001
0	 6.200010000009550e+000	 7.333579753122048e-001	 1.019158214822831e+001
0	 6.200010000009550e+000	 8.000185779984417e-001	 1.019455884448381e+001
0	 6.200010000009550e+000	 8.666790473703455e-001	 1.019742802155121e+001
0	 6.200010000009551e+000	 9.333394000923322e-001	 1.020020463654702e+001
0	 6.200010000009550e+000	 9.999996528288186e-001	 1.020290364639921e+001
0	 6.200010000009550e+000	 1.066659822244222e+000	 1.020554000784729e+001
0	 6.200010000009550e+000	 1.133319925002959e+000	 1.020812867744226e+001
0	 6.200010000009549e+000	 1.199979977769445e+000	 1.021068461154662e+001
0	 6.200010000009551e+000	 1.266639997208098e+000	 1.021322276633444e+001
0	 6.200010000009550e+000	 1.333299999983334e+000	 1.021575809779132e+001
0	 6.266680000012268e+000	 6.666972226472177e-001	 1.017967862699959e+001
0	 6.266680000012268e+000	 7.333579753122048e-001	 1.018267173535966e+001
0	 6.266680000012267e+000	 8.000185779984417e-001	 1.018555937188696e+001
0	 6.266680000012267e+000	 8.666790473703454e-001	 1.018835657148325e+001
0	 6.266680000012265e+000	 9.333394000923319e-001	 1.019107836883664e+001
0	 6.266680000012265e+000	 9.999996528288190e-001	 1.019373979842147e+001
0	 6.266680000012266e+000	 1.066659822244222e+000	 1.019635589449846e+001
0	 6.266680000012266e+000	 1.133319925002959e+000	 1.019894169111459e+001
0	 6.266680000012266e+000	 1.199979977769445e+000	 1.020151222210322e+001
0	 6.266680000012266e+000	 1.266639997208098e+000	 1.020408252108405e+001
0	 6.266680000012264e+000	 1.333299999983334e+000	 1.020666762146309e+001
0	 6.333350000014584e+000	 6.666972226472179e-001	 1.017090305851325e+001
0	 6.333350000014582e+000	 7.333579753122047e-001	 1.017374146191028e+001
0	 6.333350000014582e+000	 8.000185779984416e-001	 1.017650456828960e+001
0	 6.333350000014582e+000	 8.666790473703452e-001	 1.017920737602141e+001
0	 6.333350000014582e+000	 9.333394000923322e-001	 1.018186488321938e+001
0	 6.333350000014582e+000	 9.999996528288190e-001	 1.018449208774065e+001
0	 6.333350000014582e+000	 1.066659822244222e+000	 1.018710398718589e+001
0	 6.333350000014585e+000	 1.133319925002959e+000	 1.018971557889925e+001
0	 6.333350000014584e+000	 1.199979977769445e+000	 1.019234185996839e+001
0	 6.333350000014583e+000	 1.266639997208098e+000	 1.019499782722451e+001
0	 6.333350000014582e+000	 1.333299999983334e+000	 1.019769847724232e+001
0	 6.400020000016400e+000	 6.666972226472179e-001	 1.016221451489354e+001
0	 6.400020000016400e+000	 7.333579753122049e-001	 1.016486149850760e+001
0	 6.400020000016401e+000	 8.000185779984418e-001	 1.016747223283663e+001
0	 6.400020000016400e+000	 8.666790473703454e-001	 1.017006156555779e+001
0	 6.400020000016401e+000	 9.333394000923323e-001	 1.017264434403769e+001
0	 6.400020000016400e+000	 9.999996528288190e-001	 1.017523541533245e+001
0	 6.400020000016400e+000	 1.066659822244222e+000	 1.017784962618766e+001
0	 6.400020000016401e+000	 1.133319925002959e+000	 1.018050182303841e+001
0	 6.400020000016400e+000	 1.199979977769445e+000	 1.018320685200932e+001
0	 6.400020000016399e+000	 1.266639997208098e+000	 1.018597955891451e+001
0	 6.400020000016399e+000	 1.333299999983334e+000	 1.018883478925761e+001
0	 6.466690000017614e+000	 6.666972226472175e-001	 1.015367124101335e+001
0	 6.466690000017617e+000	 7.333579753122049e-001	 1.015610201577908e+001
0	 6.466690000017615e+000	 8.000185779984416e-001	 1.015854016467296e+001
0	 6.466690000017614e+000	 8.666790473703451e-001	 1.016100027048454e+001
0	 6.466690000017615e+000	 9.333394000923321e-001	 1.016349691563407e+001
0	 6.466690000017617e+000	 9.999996528288190e-001	 1.016604468217257e+001
0	 6.466690000017616e+000	 1.066659822244222e+000	 1.016865815178181e+001
0	 6.466690000017616e+000	 1.133319925002959e+000	 1.017135190577426e+001
0	 6.466690000017617e+000	 1.199979977769445e+000	 1.017414052509322e+001
0	 6.466690000017614e+000	 1.266639997208098e+000	 1.017703859031274e+001
0	 6.466690000017616e+000	 1.333299999983334e+000	 1.018006068163760e+001
0	 6.533360000018131e+000	 6.666972226472177e-001	 1.014533148174558e+001
0	 6.533360000018132e+000	 7.333579753122047e-001	 1.014753318435216e+001
0	 6.533360000018133e+000	 8.000185779984416e-001	 1.014978616294347e+001
0	 6.533360000018130e+000	 8.666790473703452e-001	 1.015210462119378e+001
0	 6.533360000018132e+000	 9.333394000923322e-001	 1.015450276235099e+001
0	 6.533360000018133e+000	 9.999996528288193e-001	 1.015699478923675e+001
0	 6.533360000018132e+000	 1.066659822244222e+000	 1.015959490424640e+001
0	 6.533360000018131e+000	 1.133319925002959e+000	 1.016231730934900e+001
0	 6.533360000018132e+000	 1.199979977769445e+000	 1.016517620608733e+001
0	 6.533360000018132e+000	 1.266639997208098e+000	 1.016818579557788e+001
0	 6.533360000018132e+000	 1.333299999983334e+000	 1.017136027851090e+001
0	 6.600030000017847e+000	 6.666972226472178e-001	 1.013725348196314e+001
0	 6.600030000017847e+000	 7.333579753122049e-001	 1.013922517485428e+001
0	 6.600030000017847e+000	 8.000185779984416e-001	 1.014128802679306e+001
0	 6.600030000017847e+000	 8.666790473703452e-001	 1.014345574807763e+001
0	 6.600030000017847e+000	 9.333394000923322e-001	 1.014574204853091e+001
0	 6.600030000017849e+000	 9.999996528288190e-001	 1.014816063750067e+001
0	 6.600030000017849e+000	 1.066659822244222e+000	 1.015072522385951e+001
0	 6.600030000017849e+000	 1.133319925002959e+000	 1.015344951600481e+001
0	 6.600030000017847e+000	 1.199979977769445e+000	 1.015634722185883e+001
0	 6.600030000017848e+000	 1.266639997208098e+000	 1.015943204886863e+001
0	 6.600030000017847e+000	 1.333299999983334e+000	 1.016271770400612e+001
0	 6.666700000016666e+000	 6.666972226472178e-001	 1.012949548653890e+001
0	 6.666700000016667e+000	 7.333579753122047e-001	 1.013124815791291e+001
0	 6.666700000016665e+000	 8.000185779984416e-001	 1.013312355536664e+001
0	 6.666700000016667e+000	 8.666790473703454e-001	 1.013513478152823e+001
0	 6.666700000016666e+000	 9.333394000923321e-001	 1.013729493851631e+001
0	 6.666700000016667e+000	 9.999996528288189e-001	 1.013961712794006e+001
0	 6.666700000016666e+000	 1.066659822244222e+000	 1.014211445089919e+001
0	 6.666700000016666e+000	 1.133319925002959e+000	 1.014480000798389e+001
0	 6.666700000016666e+000	 1.199979977769445e+000	 1.014768689927496e+001
0	 6.666700000016665e+000	 1.266639997208098e+000	 1.015078822434367e+001
0	 6.666700000016665e+000	 1.333299999983334e+000	 1.015411708225188e+001
0	 6.000000000000000e+000	 1.333299999983334e+000	 1.024391627813452e+001
0	 5.999999999999999e+000	 1.399969999982150e+000	 1.024698372044230e+001
0	 6.000000000000000e+000	 1.466639999981866e+000	 1.025003447174587e+001
0	 6.000000000000000e+000	 1.533309999982383e+000	 1.025309244524504e+001
0	 6.000000000000001e+000	 1.599979999983600e+000	 1.025618155413964e+001
0	 6.000000000000000e+000	 1.666649999985416e+000	 1.025932571162946e+001
0	 6.000000000000002e+000	 1.733319999987733e+000	 1.026254883091434e+001
0	 6.000000000000000e+000	 1.799989999990450e+000	 1.026587482519406e+001
0	 5.999999999999998e+000	 1.866659999993466e+000	 1.026932760766849e+001
0	 6.000000000000000e+000	 1.933329999996683e+000	 1.027293109153740e+001
0	 5.999999999999999e+000	 2.000000000000000e+000	 1.027670919000063e+001
0	 6.066670000003319e+000	 1.333299999983334e+000	 1.023436655025566e+001
0	 6.066670000003316e+000	 1.399969999982150e+000	 1.023713090433649e+001
0	 6.066670000003318e+000	 1.466639999981867e+000	 1.023993066166655e+001
0	 6.066670000003318e+000	 1.533309999982383e+000	 1.024278579923167e+001
0	 6.066670000003317e+000	 1.599979999983599e+000	 1.024571629401772e+001
0	 6.066670000003314e+000	 1.666649999985416e+000	 1.024874212301053e+001
0	 6.066670000003318e+000	 1.733319999987733e+000	 1.025188326319597e+001
0	 6.066670000003318e+000	 1.799989999990450e+000	 1.025515969155988e+001
0	 6.066670000003316e+000	 1.866659999993467e+000	 1.025859138508814e+001
0	 6.066670000003319e+000	 1.933329999996683e+000	 1.026219832076659e+001
0	 6.066670000003317e+000	 2.000000000000000e+000	 1.026600047558108e+001
0	 6.133340000006530e+000	 1.333299999983334e+000	 1.022498578209839e+001
0	 6.133340000006534e+000	 1.399969999982150e+000	 1.022759260182053e+001
0	 6.133340000006535e+000	 1.466639999981866e+000	 1.023026122262247e+001
0	 6.133340000006532e+000	 1.533309999982383e+000	 1.023300825140265e+001
0	 6.133340000006532e+000	 1.599979999983599e+000	 1.023585029505948e+001
0	 6.133340000006535e+000	 1.666649999985416e+000	 1.023880396049142e+001
0	 6.133340000006533e+000	 1.733319999987733e+000	 1.024188585459690e+001
0	 6.133340000006532e+000	 1.799989999990450e+000	 1.024511258427437e+001
0	 6.133340000006534e+000	 1.866659999993467e+000	 1.024850075642227e+001
0	 6.133340000006535e+000	 1.933329999996683e+000	 1.025206697793905e+001
0	 6.133340000006534e+000	 2.000000000000000e+000	 1.025582785572314e+001
0	 6.200010000009550e+000	 1.333299999983334e+000	 1.021575809779132e+001
0	 6.200010000009550e+000	 1.399969999982150e+000	 1.021832620789788e+001
0	 6.200010000009550e+000	 1.466639999981866e+000	 1.022096116828258e+001
0	 6.200010000009551e+000	 1.533309999982383e+000	 1.022367678188298e+001
0	 6.200010000009549e+000	 1.599979999983599e+000	 1.022648685163666e+001
0	 6.200010000009550e+000	 1.666649999985416e+000	 1.022940518048119e+001
0	 6.200010000009550e+000	 1.733319999987733e+000	 1.023244557135415e+001
0	 6.200010000009550e+000	 1.799989999990450e+000	 1.023562182719311e+001
0	 6.200010000009550e+000	 1.866659999993467e+000	 1.023894775093562e+001
0	 6.200010000009549e+000	 1.933329999996683e+000	 1.024243714551931e+001
0	 6.200010000009550e+000	 2.000000000000000e+000	 1.024610381388173e+001
0	 6.266680000012264e+000	 1.333299999983334e+000	 1.020666762146309e+001
0	 6.266680000012269e+000	 1.399969999982150e+000	 1.020928911757201e+001
0	 6.266680000012268e+000	 1.466639999981866e+000	 1.021196551231579e+001
0	 6.266680000012267e+000	 1.533309999982383e+000	 1.021470837079770e+001
0	 6.266680000012265e+000	 1.599979999983599e+000	 1.021752925812098e+001
0	 6.266680000012267e+000	 1.666649999985416e+000	 1.022043973938889e+001
0	 6.266680000012267e+000	 1.733319999987733e+000	 1.022345137970467e+001
0	 6.266680000012267e+000	 1.799989999990450e+000	 1.022657574417159e+001
0	 6.266680000012267e+000	 1.866659999993466e+000	 1.022982439789291e+001
0	 6.266680000012268e+000	 1.933329999996683e+000	 1.023320890597188e+001
0	 6.266680000012268e+000	 2.000000000000000e+000	 1.023674083351176e+001
0	 6.333350000014582e+000	 1.333299999983334e+000	 1.019769847724232e+001
0	 6.333350000014584e+000	 1.399969999982150e+000	 1.020043872584638e+001
0	 6.333350000014583e+000	 1.466639999981867e+000	 1.020320926839105e+001
0	 6.333350000014582e+000	 1.533309999982383e+000	 1.020601999827182e+001
0	 6.333350000014583e+000	 1.599979999983599e+000	 1.020888080888415e+001
0	 6.333350000014582e+000	 1.666649999985416e+000	 1.021180159362354e+001
0	 6.333350000014583e+000	 1.733319999987733e+000	 1.021479224588547e+001
0	 6.333350000014583e+000	 1.799989999990449e+000	 1.021786265906540e+001
0	 6.333350000014583e+000	 1.866659999993466e+000	 1.022102272655885e+001
0	 6.333350000014583e+000	 1.933329999996683e+000	 1.022428234176128e+001
0	 6.333350000014583e+000	 2.000000000000000e+000	 1.022765139806819e+001
0	 6.400020000016399e+000	 1.333299999983334e+000	 1.018883478925761e+001
0	 6.400020000016400e+000	 1.399969999982150e+000	 1.019173242772446e+001
0	 6.400020000016400e+000	 1.466639999981866e+000	 1.019462745017729e+001
0	 6.400020000016397e+000	 1.533309999982382e+000	 1.019752864443035e+001
0	 6.400020000016400e+000	 1.599979999983600e+000	 1.020044479829791e+001
0	 6.400020000016399e+000	 1.666649999985416e+000	 1.020338469959421e+001
0	 6.400020000016400e+000	 1.733319999987733e+000	 1.020635713613351e+001
0	 6.400020000016399e+000	 1.799989999990449e+000	 1.020937089573008e+001
0	 6.400020000016399e+000	 1.866659999993466e+000	 1.021243476619816e+001
0	 6.400020000016398e+000	 1.933329999996683e+000	 1.021555753535202e+001
0	 6.400020000016399e+000	 2.000000000000000e+000	 1.021874799100592e+001
0	 6.466690000017616e+000	 1.333299999983334e+000	 1.018006068163760e+001
0	 6.466690000017616e+000	 1.399969999982150e+000	 1.018312761820971e+001
0	 6.466690000017615e+000	 1.466639999981867e+000	 1.018615507134344e+001
0	 6.466690000017616e+000	 1.533309999982383e+000	 1.018915128939831e+001
0	 6.466690000017615e+000	 1.599979999983599e+000	 1.019212452073395e+001
0	 6.466690000017615e+000	 1.666649999985416e+000	 1.019508301370992e+001
0	 6.466690000017618e+000	 1.733319999987733e+000	 1.019803501668578e+001
0	 6.466690000017617e+000	 1.799989999990450e+000	 1.020098877802113e+001
0	 6.466690000017615e+000	 1.866659999993466e+000	 1.020395254607555e+001
0	 6.466690000017616e+000	 1.933329999996683e+000	 1.020693456920860e+001
0	 6.466690000017616e+000	 2.000000000000000e+000	 1.020994309577988e+001
0	 6.533360000018132e+000	 1.333299999983334e+000	 1.017136027851090e+001
0	 6.533360000018130e+000	 1.399969999982150e+000	 1.017458169230561e+001
0	 6.533360000018133e+000	 1.466639999981867e+000	 1.017772714555841e+001
0	 6.533360000018131e+000	 1.533309999982383e+000	 1.018080491330072e+001
0	 6.533360000018132e+000	 1.599979999983600e+000	 1.018382327056401e+001
0	 6.533360000018132e+000	 1.666649999985416e+000	 1.018679049237971e+001
0	 6.533360000018131e+000	 1.733319999987733e+000	 1.018971485377927e+001
0	 6.533360000018131e+000	 1.799989999990449e+000	 1.019260462979412e+001
0	 6.533360000018131e+000	 1.866659999993466e+000	 1.019546809545573e+001
0	 6.533360000018131e+000	 1.933329999996683e+000	 1.019831352579554e+001
0	 6.533360000018132e+000	 2.000000000000000e+000	 1.020114919584499e+001
0	 6.600030000017847e+000	 1.333299999983334e+000	 1.016271770400612e+001
0	 6.600030000017847e+000	 1.399969999982150e+000	 1.016605204501562e+001
0	 6.600030000017849e+000	 1.466639999981867e+000	 1.016927868649116e+001
0	 6.600030000017848e+000	 1.533309999982383e+000	 1.017240649626259e+001
0	 6.600030000017848e+000	 1.599979999983599e+000	 1.017544434215980e+001
0	 6.600030000017847e+000	 1.666649999985416e+000	 1.017840109201262e+001
0	 6.600030000017850e+000	 1.733319999987733e+000	 1.018128561365093e+001
0	 6.600030000017847e+000	 1.799989999990449e+000	 1.018410677490458e+001
0	 6.600030000017849e+000	 1.866659999993467e+000	 1.018687344360343e+001
0	 6.600030000017848e+000	 1.933329999996683e+000	 1.018959448757734e+001
0	 6.600030000017847e+000	 2.000000000000000e+000	 1.019227877465618e+001
0	 6.666700000016665e+000	 1.333299999983334e+000	 1.015411708225189e+001
0	 6.666700000016666e+000	 1.399969999982150e+000	 1.015749607134319e+001
0	 6.666700000016666e+000	 1.466639999981866e+000	 1.016074470781060e+001
0	 6.666700000016667e+000	 1.533309999982383e+000	 1.016387301840894e+001
0	 6.666700000016667e+000	 1.599979999983599e+000	 1.016689102989303e+001
0	 6.666700000016665e+000	 1.666649999985416e+000	 1.016980876901770e+001
0	 6.666700000016667e+000	 1.733319999987733e+000	 1.017263626253776e+001
0	 6.666700000016665e+000	 1.799989999990449e+000	 1.017538353720804e+001
0	 6.666700000016665e+000	 1.866659999993466e+000	 1.017806061978335e+001
0	 6.666700000016666e+000	 1.933329999996683e+000	 1.018067753701852e+001
0	 6.666700000016668e+000	 2.000000000000000e+000	 1.018324431566836e+001
0	 5.999999999999999e+000	 2.000000000000000e+000	 1.027670919000063e+001
0	 6.000000000000000e+000	 2.066670000003318e+000	 1.028045941754622e+001
0	 5.999999999999999e+000	 2.133340000006534e+000	 1.028396561041326e+001
0	 6.000000000000001e+000	 2.200010000009551e+000	 1.028723116442815e+001
0	 6.000000000000002e+000	 2.266680000012268e+000	 1.029025947541726e+001
0	 6.000000000000000e+000	 2.333350000014584e+000	 1.029305393920698e+001
0	 6.000000000000000e+000	 2.400020000016401e+000	 1.029561795162368e+001
0	 6.000000000000000e+000	 2.466690000017617e+000	 1.029795490849374e+001
0	 6.000000000000001e+000	 2.533360000018133e+000	 1.030006820564352e+001
0	 5.999999999999998e+000	 2.600030000017850e+000	 1.030196123889940e+001
0	 6.000000000000000e+000	 2.666700000016666e+000	 1.030363740408774e+001
0	 6.066670000003317e+000	 2.000000000000000e+000	 1.026600047558108e+001
0	 6.066670000003316e+000	 2.066670000003317e+000	 1.026977174310610e+001
0	 6.066670000003318e+000	 2.133340000006534e+000	 1.027327927365823e+001
0	 6.066670000003319e+000	 2.200010000009550e+000	 1.027653292933650e+001
0	 6.066670000003318e+000	 2.266680000012268e+000	 1.027954257224001e+001
0	 6.066670000003313e+000	 2.333350000014583e+000	 1.028231806446777e+001
0	 6.066670000003317e+000	 2.400020000016401e+000	 1.028486926811885e+001
0	 6.066670000003317e+000	 2.466690000017616e+000	 1.028720604529228e+001
0	 6.066670000003316e+000	 2.533360000018133e+000	 1.028933825808711e+001
0	 6.066670000003317e+000	 2.600030000017851e+000	 1.029127576860237e+001
0	 6.066670000003318e+000	 2.666700000016666e+000	 1.029302843893711e+001
0	 6.133340000006534e+000	 2.000000000000000e+000	 1.025582785572314e+001
0	 6.133340000006535e+000	 2.066670000003317e+000	 1.025954884388477e+001
0	 6.133340000006534e+000	 2.133340000006535e+000	 1.026299442448543e+001
0	 6.133340000006531e+000	 2.200010000009551e+000	 1.026617974635047e+001
0	 6.133340000006531e+000	 2.266680000012267e+000	 1.026911995830523e+001
0	 6.133340000006535e+000	 2.333350000014585e+000	 1.027183020917503e+001
0	 6.133340000006533e+000	 2.400020000016401e+000	 1.027432564778524e+001
0	 6.133340000006533e+000	 2.466690000017617e+000	 1.027662142296117e+001
0	 6.133340000006535e+000	 2.533360000018134e+000	 1.027873268352816e+001
0	 6.133340000006532e+000	 2.600030000017850e+000	 1.028067457831154e+001
0	 6.133340000006530e+000	 2.666700000016666e+000	 1.028246225613662e+001
0	 6.200010000009550e+000	 2.000000000000000e+000	 1.024610381388173e+001
0	 6.200010000009549e+000	 2.066670000003317e+000	 1.024971744545111e+001
0	 6.200010000009550e+000	 2.133340000006534e+000	 1.025305136503416e+001
0	 6.200010000009550e+000	 2.200010000009550e+000	 1.025612482863615e+001
0	 6.200010000009550e+000	 2.266680000012268e+000	 1.025895709226230e+001
0	 6.200010000009550e+000	 2.333350000014584e+000	 1.026156741191788e+001
0	 6.200010000009548e+000	 2.400020000016400e+000	 1.026397504360812e+001
0	 6.200010000009550e+000	 2.466690000017618e+000	 1.026619924333828e+001
0	 6.200010000009550e+000	 2.533360000018134e+000	 1.026825926711360e+001
0	 6.200010000009550e+000	 2.600030000017851e+000	 1.027017437093931e+001
0	 6.200010000009550e+000	 2.666700000016666e+000	 1.027196381082064e+001
0	 6.266680000012268e+000	 2.000000000000000e+000	 1.023674083351176e+001
0	 6.266680000012266e+000	 2.066670000003317e+000	 1.024020427337400e+001
0	 6.266680000012266e+000	 2.133340000006534e+000	 1.024339039744369e+001
0	 6.266680000012267e+000	 2.200010000009550e+000	 1.024632138935962e+001
0	 6.266680000012266e+000	 2.266680000012267e+000	 1.024901943276059e+001
0	 6.266680000012267e+000	 2.333350000014584e+000	 1.025150671128537e+001
0	 6.266680000012267e+000	 2.400020000016401e+000	 1.025380540857274e+001
0	 6.266680000012265e+000	 2.466690000017617e+000	 1.025593770826146e+001
0	 6.266680000012268e+000	 2.533360000018133e+000	 1.025792579399032e+001
0	 6.266680000012268e+000	 2.600030000017851e+000	 1.025979184939808e+001
0	 6.266680000012267e+000	 2.666700000016667e+000	 1.026155805812351e+001
0	 6.333350000014583e+000	 2.000000000000000e+000	 1.022765139806819e+001
0	 6.333350000014582e+000	 2.066670000003317e+000	 1.023093605322229e+001
0	 6.333350000014583e+000	 2.133340000006534e+000	 1.023395182385324e+001
0	 6.333350000014583e+000	 2.200010000009551e+000	 1.023672264168698e+001
0	 6.333350000014583e+000	 2.266680000012267e+000	 1.023927243844947e+001
0	 6.333350000014582e+000	 2.333350000014584e+000	 1.024162514586661e+001
0	 6.333350000014583e+000	 2.400020000016401e+000	 1.024380469566434e+001
0	 6.333350000014583e+000	 2.466690000017617e+000	 1.024583501956858e+001
0	 6.333350000014582e+000	 2.533360000018133e+000	 1.024774004930525e+001
0	 6.333350000014584e+000	 2.600030000017851e+000	 1.024954371660027e+001
0	 6.333350000014584e+000	 2.666700000016667e+000	 1.025126995317957e+001
0	 6.400020000016399e+000	 2.000000000000000e+000	 1.021874799100592e+001
0	 6.400020000016398e+000	 2.066670000003317e+000	 1.022183951056484e+001
0	 6.400020000016399e+000	 2.133340000006534e+000	 1.022467594640208e+001
0	 6.400020000016400e+000	 2.200010000009550e+000	 1.022728179878433e+001
0	 6.400020000016399e+000	 2.266680000012267e+000	 1.022968156797830e+001
0	 6.400020000016397e+000	 2.333350000014584e+000	 1.023189975425068e+001
0	 6.400020000016397e+000	 2.400020000016401e+000	 1.023396085786817e+001
0	 6.400020000016400e+000	 2.466690000017618e+000	 1.023588937909748e+001
0	 6.400020000016399e+000	 2.533360000018134e+000	 1.023770981820528e+001
0	 6.400020000016399e+000	 2.600030000017851e+000	 1.023944667545828e+001
0	 6.400020000016399e+000	 2.666700000016666e+000	 1.024112445112316e+001
0	 6.466690000017616e+000	 2.000000000000000e+000	 1.020994309577988e+001
0	 6.466690000017614e+000	 2.066670000003316e+000	 1.021284137097056e+001
0	 6.466690000017615e+000	 2.133340000006533e+000	 1.021550306722948e+001
0	 6.466690000017617e+000	 2.200010000009551e+000	 1.021795207381774e+001
0	 6.466690000017618e+000	 2.266680000012268e+000	 1.022021227999645e+001
0	 6.466690000017616e+000	 2.333350000014585e+000	 1.022230757502666e+001
0	 6.466690000017616e+000	 2.400020000016400e+000	 1.022426184816950e+001
0	 6.466690000017617e+000	 2.466690000017617e+000	 1.022609898868603e+001
0	 6.466690000017615e+000	 2.533360000018134e+000	 1.022784288583735e+001
0	 6.466690000017615e+000	 2.600030000017850e+000	 1.022951742888452e+001
0	 6.466690000017616e+000	 2.666700000016667e+000	 1.023114650708865e+001
0	 6.533360000018132e+000	 2.000000000000000e+000	 1.020114919584499e+001
0	 6.533360000018130e+000	 2.066670000003317e+000	 1.020386836000828e+001
0	 6.533360000018131e+000	 2.133340000006534e+000	 1.020637348847468e+001
0	 6.533360000018130e+000	 2.200010000009550e+000	 1.020868667995331e+001
0	 6.533360000018131e+000	 2.266680000012267e+000	 1.021083003315326e+001
0	 6.533360000018132e+000	 2.333350000014583e+000	 1.021282564678365e+001
0	 6.533360000018133e+000	 2.400020000016401e+000	 1.021469561955355e+001
0	 6.533360000018133e+000	 2.466690000017617e+000	 1.021646205017209e+001
0	 6.533360000018132e+000	 2.533360000018134e+000	 1.021814703734833e+001
0	 6.533360000018133e+000	 2.600030000017850e+000	 1.021977267979139e+001
0	 6.533360000018133e+000	 2.666700000016666e+000	 1.022136107621036e+001
0	 6.600030000017847e+000	 2.000000000000000e+000	 1.019227877465618e+001
0	 6.600030000017847e+000	 2.066670000003317e+000	 1.019484720324687e+001
0	 6.600030000017849e+000	 2.133340000006534e+000	 1.019722751227694e+001
0	 6.600030000017848e+000	 2.200010000009550e+000	 1.019943883035711e+001
0	 6.600030000017849e+000	 2.266680000012268e+000	 1.020150028609813e+001
0	 6.600030000017848e+000	 2.333350000014584e+000	 1.020343100811070e+001
0	 6.600030000017849e+000	 2.400020000016400e+000	 1.020525012500558e+001
0	 6.600030000017847e+000	 2.466690000017618e+000	 1.020697676539350e+001
0	 6.600030000017847e+000	 2.533360000018134e+000	 1.020863005788516e+001
0	 6.600030000017849e+000	 2.600030000017851e+000	 1.021022913109130e+001
0	 6.600030000017847e+000	 2.666700000016666e+000	 1.021179311362265e+001
0	 6.666700000016668e+000	 2.000000000000000e+000	 1.018324431566836e+001
0	 6.666700000016665e+000	 2.066670000003317e+000	 1.018570462625521e+001
0	 6.666700000016665e+000	 2.133340000006534e+000	 1.018800544077550e+001
0	 6.666700000016666e+000	 2.200010000009551e+000	 1.019016173819523e+001
0	 6.666700000016668e+000	 2.266680000012268e+000	 1.019218849748038e+001
0	 6.666700000016666e+000	 2.333350000014584e+000	 1.019410069759692e+001
0	 6.666700000016667e+000	 2.400020000016400e+000	 1.019591331751084e+001
0	 6.666700000016665e+000	 2.466690000017617e+000	 1.019764133618812e+001
0	 6.666700000016667e+000	 2.533360000018134e+000	 1.019929973259473e+001
0	 6.666700000016666e+000	 2.600030000017851e+000	 1.020090348569665e+001
0	 6.666700000016667e+000	 2.666700000016667e+000	 1.020246757445986e+001
0	 6.000000000000000e+000	 2.666700000016666e+000	 1.030363740408774e+001
0	 6.000000000000000e+000	 2.733360000014533e+000	 1.030502988949618e+001
0	 5.999999999999998e+000	 2.800020000011600e+000	 1.030607673265364e+001
0	 6.000000000000002e+000	 2.866680000008067e+000	 1.030678789729529e+001
0	 5.999999999999998e+000	 2.933340000004133e+000	 1.030717334715634e+001
0	 6.000000000000003e+000	 3.000000000000000e+000	 1.030724304597195e+001
0	 5.999999999999998e+000	 3.066659999995867e+000	 1.030700695747735e+001
0	 6.000000000000001e+000	 3.133319999991934e+000	 1.030647504540774e+001
0	 5.999999999999999e+000	 3.199979999988400e+000	 1.030565727349835e+001
0	 6.000000000000000e+000	 3.266639999985467e+000	 1.030456360548442e+001
0	 6.000000000000000e+000	 3.333299999983334e+000	 1.030320400510119e+001
0	 6.066670000003318e+000	 2.666700000016666e+000	 1.029302843893711e+001
0	 6.066670000003317e+000	 2.733360000014534e+000	 1.029452636814318e+001
0	 6.066670000003313e+000	 2.800020000011600e+000	 1.029569702068231e+001
0	 6.066670000003318e+000	 2.866680000008067e+000	 1.029654555821372e+001
0	 6.066670000003319e+000	 2.933340000004133e+000	 1.029707714239672e+001
0	 6.066670000003320e+000	 3.000000000000000e+000	 1.029729693489059e+001
0	 6.066670000003319e+000	 3.066659999995867e+000	 1.029721009735462e+001
0	 6.066670000003319e+000	 3.133319999991934e+000	 1.029682179144810e+001
0	 6.066670000003313e+000	 3.199979999988400e+000	 1.029613717883036e+001
0	 6.066670000003318e+000	 3.266639999985467e+000	 1.029516142116072e+001
0	 6.066670000003317e+000	 3.333299999983333e+000	 1.029389968009850e+001
0	 6.133340000006530e+000	 2.666700000016666e+000	 1.028246225613662e+001
0	 6.133340000006534e+000	 2.733360000014533e+000	 1.028402552961635e+001
0	 6.133340000006532e+000	 2.800020000011599e+000	 1.028528541467817e+001
0	 6.133340000006533e+000	 2.866680000008067e+000	 1.028624309312934e+001
0	 6.133340000006531e+000	 2.933340000004133e+000	 1.028689974677706e+001
0	 6.133340000006533e+000	 3.000000000000000e+000	 1.028725655742860e+001
0	 6.133340000006534e+000	 3.066659999995868e+000	 1.028731470689121e+001
0	 6.133340000006533e+000	 3.133319999991933e+000	 1.028707537697213e+001
0	 6.133340000006533e+000	 3.199979999988400e+000	 1.028653974947865e+001
0	 6.133340000006532e+000	 3.266639999985467e+000	 1.028570900621806e+001
0	 6.133340000006530e+000	 3.333299999983333e+000	 1.028458432899764e+001
0	 6.200010000009550e+000	 2.666700000016666e+000	 1.027196381082065e+001
0	 6.200010000009550e+000	 2.733360000014533e+000	 1.027355936708100e+001
0	 6.200010000009552e+000	 2.800020000011600e+000	 1.027487918537494e+001
0	 6.200010000009550e+000	 2.866680000008067e+000	 1.027592128988152e+001
0	 6.200010000009551e+000	 2.933340000004133e+000	 1.027668370477980e+001
0	 6.200010000009550e+000	 3.000000000000000e+000	 1.027716445424888e+001
0	 6.200010000009550e+000	 3.066659999995867e+000	 1.027736156246780e+001
0	 6.200010000009550e+000	 3.133319999991933e+000	 1.027727305361568e+001
0	 6.200010000009551e+000	 3.199979999988401e+000	 1.027689695187162e+001
0	 6.200010000009550e+000	 3.266639999985467e+000	 1.027623128141472e+001
0	 6.200010000009550e+000	 3.333299999983333e+000	 1.027527406642409e+001
0	 6.266680000012267e+000	 2.666700000016667e+000	 1.026155805812351e+001
0	 6.266680000012268e+000	 2.733360000014533e+000	 1.026315987370247e+001
0	 6.266680000012265e+000	 2.800020000011599e+000	 1.026451560350627e+001
0	 6.266680000012266e+000	 2.866680000008067e+000	 1.026562093630966e+001
0	 6.266680000012265e+000	 2.933340000004133e+000	 1.026647156088741e+001
0	 6.266680000012264e+000	 2.999999999999999e+000	 1.026706316601432e+001
0	 6.266680000012267e+000	 3.066659999995866e+000	 1.026739144046512e+001
0	 6.266680000012267e+000	 3.133319999991934e+000	 1.026745207301463e+001
0	 6.266680000012266e+000	 3.199979999988401e+000	 1.026724075243764e+001
0	 6.266680000012268e+000	 3.266639999985467e+000	 1.026675316750896e+001
0	 6.266680000012265e+000	 3.333299999983333e+000	 1.026598500700340e+001
0	 6.333350000014584e+000	 2.666700000016667e+000	 1.025126995317956e+001
0	 6.333350000014584e+000	 2.733360000014533e+000	 1.025285904264609e+001
0	 6.333350000014582e+000	 2.800020000011599e+000	 1.025423193980585e+001
0	 6.333350000014581e+000	 2.866680000008066e+000	 1.025538282025316e+001
0	 6.333350000014582e+000	 2.933340000004133e+000	 1.025630585958238e+001
0	 6.333350000014582e+000	 3.000000000000000e+000	 1.025699523338782e+001
0	 6.333350000014583e+000	 3.066659999995867e+000	 1.025744511726384e+001
0	 6.333350000014582e+000	 3.133319999991934e+000	 1.025764968680482e+001
0	 6.333350000014582e+000	 3.199979999988400e+000	 1.025760311760509e+001
0	 6.333350000014583e+000	 3.266639999985467e+000	 1.025729958525904e+001
0	 6.333350000014582e+000	 3.333299999983334e+000	 1.025673326536105e+001
0	 6.400020000016399e+000	 2.666700000016666e+000	 1.024112445112316e+001
0	 6.400020000016400e+000	 2.733360000014533e+000	 1.024268886707720e+001
0	 6.400020000016399e+000	 2.800020000011600e+000	 1.024406546500735e+001
0	 6.400020000016400e+000	 2.866680000008067e+000	 1.024524772955141e+001
0	 6.400020000016400e+000	 2.933340000004134e+000	 1.024622914534712e+001
0	 6.400020000016399e+000	 2.999999999999999e+000	 1.024700319703229e+001
0	 6.400020000016399e+000	 3.066659999995868e+000	 1.024756336924468e+001
0	 6.400020000016401e+000	 3.133319999991935e+000	 1.024790314662210e+001
0	 6.400020000016401e+000	 3.199979999988401e+000	 1.024801601380234e+001
0	 6.400020000016401e+000	 3.266639999985467e+000	 1.024789545542322e+001
0	 6.400020000016399e+000	 3.333299999983334e+000	 1.024753495612256e+001
0	 6.466690000017616e+000	 2.666700000016667e+000	 1.023114650708864e+001
0	 6.466690000017616e+000	 2.733360000014533e+000	 1.023268134016112e+001
0	 6.466690000017616e+000	 2.800020000011600e+000	 1.023405344984448e+001
0	 6.466690000017616e+000	 2.866680000008067e+000	 1.023525645204379e+001
0	 6.466690000017616e+000	 2.933340000004134e+000	 1.023628396266414e+001
0	 6.466690000017615e+000	 3.000000000000000e+000	 1.023712959761063e+001
0	 6.466690000017616e+000	 3.066659999995867e+000	 1.023778697278832e+001
0	 6.466690000017617e+000	 3.133319999991933e+000	 1.023824970410234e+001
0	 6.466690000017616e+000	 3.199979999988400e+000	 1.023851140745778e+001
0	 6.466690000017614e+000	 3.266639999985467e+000	 1.023856569875979e+001
0	 6.466690000017617e+000	 3.333299999983334e+000	 1.023840619391345e+001
0	 6.533360000018133e+000	 2.666700000016666e+000	 1.022136107621036e+001
0	 6.533360000018132e+000	 2.733360000014533e+000	 1.022286845506319e+001
0	 6.533360000018133e+000	 2.800020000011600e+000	 1.022423316505089e+001
0	 6.533360000018132e+000	 2.866680000008067e+000	 1.022544977556970e+001
0	 6.533360000018133e+000	 2.933340000004134e+000	 1.022651285601589e+001
0	 6.533360000018132e+000	 3.000000000000000e+000	 1.022741697578572e+001
0	 6.533360000018132e+000	 3.066659999995866e+000	 1.022815670427545e+001
0	 6.533360000018133e+000	 3.133319999991934e+000	 1.022872661088139e+001
0	 6.533360000018130e+000	 3.199979999988400e+000	 1.022912126499980e+001
0	 6.533360000018132e+000	 3.266639999985468e+000	 1.022933523602698e+001
0	 6.533360000018132e+000	 3.333299999983333e+000	 1.022936309335922e+001
0	 6.600030000017847e+000	 2.666700000016666e+000	 1.021179311362265e+001
0	 6.600030000017849e+000	 2.733360000014533e+000	 1.021328220494874e+001
0	 6.600030000017847e+000	 2.800020000011599e+000	 1.021464188136027e+001
0	 6.600030000017847e+000	 2.866680000008066e+000	 1.021586848796853e+001
0	 6.600030000017848e+000	 2.933340000004134e+000	 1.021695836988482e+001
0	 6.600030000017850e+000	 3.000000000000000e+000	 1.021790787222046e+001
0	 6.600030000017848e+000	 3.066659999995868e+000	 1.021871334008678e+001
0	 6.600030000017849e+000	 3.133319999991934e+000	 1.021937111859509e+001
0	 6.600030000017849e+000	 3.199979999988401e+000	 1.021987755285674e+001
0	 6.600030000017848e+000	 3.266639999985468e+000	 1.022022898798305e+001
0	 6.600030000017847e+000	 3.333299999983333e+000	 1.022042176908538e+001
0	 6.666700000016667e+000	 2.666700000016667e+000	 1.020246757445986e+001
0	 6.666700000016668e+000	 2.733360000014533e+000	 1.020395458298311e+001
0	 6.666700000016665e+000	 2.800020000011599e+000	 1.020531686950630e+001
0	 6.666700000016666e+000	 2.866680000008067e+000	 1.020655337707965e+001
0	 6.666700000016667e+000	 2.933340000004133e+000	 1.020766304875340e+001
0	 6.666700000016666e+000	 3.000000000000000e+000	 1.020864482757777e+001
0	 6.666700000016667e+000	 3.066659999995868e+000	 1.020949765660299e+001
0	 6.666700000016665e+000	 3.133319999991933e+000	 1.021022047887932e+001
0	 6.666700000016665e+000	 3.199979999988401e+000	 1.021081223745700e+001
0	 6.666700000016668e+000	 3.266639999985468e+000	 1.021127187538629e+001
0	 6.666700000016665e+000	 3.333299999983333e+000	 1.021159833571743e+001
0	 6.000000000000000e+000	 3.333299999983334e+000	 1.030320400510119e+001
0	 6.000000000000001e+000	 3.399969999982151e+000	 1.030166313934730e+001
0	 6.000000000000000e+000	 3.466639999981866e+000	 1.030001488964754e+001
0	 6.000000000000000e+000	 3.533309999982383e+000	 1.029825237114888e+001
0	 6.000000000000001e+000	 3.599979999983601e+000	 1.029636869899829e+001
0	 6.000000000000000e+000	 3.666649999985416e+000	 1.029435698834274e+001
0	 6.000000000000000e+000	 3.733319999987733e+000	 1.029221035432919e+001
0	 5.999999999999998e+000	 3.799989999990450e+000	 1.028992191210461e+001
0	 6.000000000000001e+000	 3.866659999993467e+000	 1.028748477681596e+001
0	 6.000000000000000e+000	 3.933329999996683e+000	 1.028489206361019e+001
0	 6.000000000000001e+000	 4.000000000000000e+000	 1.028213688763426e+001
0	 6.066670000003317e+000	 3.333299999983333e+000	 1.029389968009850e+001
0	 6.066670000003315e+000	 3.399969999982150e+000	 1.029244872668394e+001
0	 6.066670000003318e+000	 3.466639999981867e+000	 1.029089882342088e+001
0	 6.066670000003316e+000	 3.533309999982382e+000	 1.028924473774547e+001
0	 6.066670000003319e+000	 3.599979999983600e+000	 1.028748123709387e+001
0	 6.066670000003315e+000	 3.666649999985415e+000	 1.028560308890221e+001
0	 6.066670000003318e+000	 3.733319999987733e+000	 1.028360506060663e+001
0	 6.066670000003318e+000	 3.799989999990450e+000	 1.028148191964326e+001
0	 6.066670000003317e+000	 3.866659999993467e+000	 1.027922843344826e+001
0	 6.066670000003318e+000	 3.933329999996685e+000	 1.027683936945772e+001
0	 6.066670000003318e+000	 4.000000000000001e+000	 1.027430949510779e+001
0	 6.133340000006530e+000	 3.333299999983333e+000	 1.028458432899763e+001
0	 6.133340000006534e+000	 3.399969999982150e+000	 1.028326551175491e+001
0	 6.133340000006533e+000	 3.466639999981866e+000	 1.028184941287236e+001
0	 6.133340000006531e+000	 3.533309999982382e+000	 1.028033223870489e+001
0	 6.133340000006531e+000	 3.599979999983600e+000	 1.027871019560739e+001
0	 6.133340000006534e+000	 3.666649999985416e+000	 1.027697948993475e+001
0	 6.133340000006533e+000	 3.733319999987733e+000	 1.027513632804184e+001
0	 6.133340000006531e+000	 3.799989999990449e+000	 1.027317691628356e+001
0	 6.133340000006533e+000	 3.866659999993467e+000	 1.027109746101479e+001
0	 6.133340000006535e+000	 3.933329999996684e+000	 1.026889416859041e+001
0	 6.133340000006534e+000	 4.000000000000001e+000	 1.026656324536526e+001
0	 6.200010000009550e+000	 3.333299999983333e+000	 1.027527406642409e+001
0	 6.200010000009550e+000	 3.399969999982150e+000	 1.027412062026926e+001
0	 6.200010000009550e+000	 3.466639999981867e+000	 1.027286619259598e+001
0	 6.200010000009552e+000	 3.533309999982383e+000	 1.027150821530748e+001
0	 6.200010000009550e+000	 3.599979999983600e+000	 1.027004412030697e+001
0	 6.200010000009550e+000	 3.666649999985416e+000	 1.026847133949764e+001
0	 6.200010000009550e+000	 3.733319999987733e+000	 1.026678730478273e+001
0	 6.200010000009550e+000	 3.799989999990450e+000	 1.026498944806540e+001
0	 6.200010000009550e+000	 3.866659999993467e+000	 1.026307520124889e+001
0	 6.200010000009550e+000	 3.933329999996684e+000	 1.026104199623637e+001
0	 6.200010000009550e+000	 4.000000000000000e+000	 1.025888726493106e+001
0	 6.266680000012265e+000	 3.333299999983333e+000	 1.026598500700340e+001
0	 6.266680000012268e+000	 3.399969999982150e+000	 1.026502117793603e+001
0	 6.266680000012268e+000	 3.466639999981867e+000	 1.026394869718572e+001
0	 6.266680000012268e+000	 3.533309999982383e+000	 1.026276600883358e+001
0	 6.266680000012268e+000	 3.599979999983600e+000	 1.026147155696071e+001
0	 6.266680000012267e+000	 3.666649999985417e+000	 1.026006378564820e+001
0	 6.266680000012268e+000	 3.733319999987733e+000	 1.025854113897716e+001
0	 6.266680000012268e+000	 3.799989999990450e+000	 1.025690206102867e+001
0	 6.266680000012266e+000	 3.866659999993466e+000	 1.025514499588385e+001
0	 6.266680000012267e+000	 3.933329999996684e+000	 1.025326838762377e+001
0	 6.266680000012268e+000	 4.000000000000001e+000	 1.025127068032952e+001
0	 6.333350000014582e+000	 3.333299999983334e+000	 1.025673326536105e+001
0	 6.333350000014582e+000	 3.399969999982149e+000	 1.025597431046429e+001
0	 6.333350000014582e+000	 3.466639999981866e+000	 1.025509646123559e+001
0	 6.333350000014582e+000	 3.533309999982383e+000	 1.025409896056357e+001
0	 6.333350000014582e+000	 3.599979999983599e+000	 1.025298105133675e+001
0	 6.333350000014583e+000	 3.666649999985416e+000	 1.025174197644370e+001
0	 6.333350000014582e+000	 3.733319999987732e+000	 1.025038097877302e+001
0	 6.333350000014585e+000	 3.799989999990451e+000	 1.024889730121324e+001
0	 6.333350000014585e+000	 3.866659999993467e+000	 1.024729018665294e+001
0	 6.333350000014584e+000	 3.933329999996684e+000	 1.024555887798067e+001
0	 6.333350000014583e+000	 4.000000000000001e+000	 1.024370261808500e+001
0	 6.400020000016399e+000	 3.333299999983334e+000	 1.024753495612256e+001
0	 6.400020000016400e+000	 3.399969999982150e+000	 1.024698714356307e+001
0	 6.400020000016400e+000	 3.466639999981867e+000	 1.024630901933960e+001
0	 6.400020000016398e+000	 3.533309999982383e+000	 1.024550041177777e+001
0	 6.400020000016401e+000	 3.599979999983600e+000	 1.024456114920319e+001
0	 6.400020000016398e+000	 3.666649999985415e+000	 1.024349105994147e+001
0	 6.400020000016398e+000	 3.733319999987733e+000	 1.024228997231822e+001
0	 6.400020000016401e+000	 3.799989999990450e+000	 1.024095771465901e+001
0	 6.400020000016398e+000	 3.866659999993467e+000	 1.023949411528949e+001
0	 6.400020000016400e+000	 3.933329999996683e+000	 1.023789900253523e+001
0	 6.400020000016398e+000	 4.000000000000000e+000	 1.023617220472183e+001
0	 6.466690000017617e+000	 3.333299999983334e+000	 1.023840619391345e+001
0	 6.466690000017614e+000	 3.399969999982150e+000	 1.023806680294141e+001
0	 6.466690000017615e+000	 3.466639999981867e+000	 1.023758590609169e+001
0	 6.466690000017614e+000	 3.533309999982382e+000	 1.023696370375653e+001
0	 6.466690000017614e+000	 3.599979999983599e+000	 1.023620039632814e+001
0	 6.466690000017616e+000	 3.666649999985417e+000	 1.023529618419876e+001
0	 6.466690000017617e+000	 3.733319999987733e+000	 1.023425126776059e+001
0	 6.466690000017617e+000	 3.799989999990451e+000	 1.023306584740586e+001
0	 6.466690000017615e+000	 3.866659999993467e+000	 1.023174012352678e+001
0	 6.466690000017617e+000	 3.933329999996683e+000	 1.023027429651555e+001
0	 6.466690000017615e+000	 4.000000000000000e+000	 1.022866856676440e+001
0	 6.533360000018132e+000	 3.333299999983333e+000	 1.022936309335922e+001
0	 6.533360000018129e+000	 3.399969999982149e+000	 1.022922041430836e+001
0	 6.533360000018133e+000	 3.466639999981867e+000	 1.022892665608588e+001
0	 6.533360000018133e+000	 3.533309999982382e+000	 1.022848217778020e+001
0	 6.533360000018132e+000	 3.599979999983600e+000	 1.022788733847974e+001
0	 6.533360000018132e+000	 3.666649999985416e+000	 1.022714249727289e+001
0	 6.533360000018130e+000	 3.733319999987733e+000	 1.022624801324807e+001
0	 6.533360000018132e+000	 3.799989999990450e+000	 1.022520424549368e+001
0	 6.533360000018131e+000	 3.866659999993466e+000	 1.022401155309810e+001
0	 6.533360000018132e+000	 3.933329999996684e+000	 1.022267029514976e+001
0	 6.533360000018133e+000	 4.000000000000001e+000	 1.022118083073703e+001
0	 6.600030000017847e+000	 3.333299999983333e+000	 1.022042176908538e+001
0	 6.600030000017847e+000	 3.399969999982150e+000	 1.022045510337295e+001
0	 6.600030000017848e+000	 3.466639999981867e+000	 1.022033080391615e+001
0	 6.600030000017849e+000	 3.533309999982384e+000	 1.022004917512914e+001
0	 6.600030000017847e+000	 3.599979999983599e+000	 1.021961052142608e+001
0	 6.600030000017847e+000	 3.666649999985415e+000	 1.021901514722114e+001
0	 6.600030000017848e+000	 3.733319999987733e+000	 1.021826335692850e+001
0	 6.600030000017847e+000	 3.799989999990450e+000	 1.021735545496232e+001
0	 6.600030000017847e+000	 3.866659999993466e+000	 1.021629174573676e+001
0	 6.600030000017847e+000	 3.933329999996684e+000	 1.021507253366596e+001
0	 6.600030000017847e+000	 4.000000000000000e+000	 1.021369812316408e+001
0	 6.666700000016665e+000	 3.333299999983333e+000	 1.021159833571743e+001
0	 6.666700000016666e+000	 3.399969999982149e+000	 1.021177799584425e+001
0	 6.666700000016666e+000	 3.466639999981866e+000	 1.021179788417648e+001
0	 6.666700000016665e+000	 3.533309999982383e+000	 1.021165803708366e+001
0	 6.666700000016665e+000	 3.599979999983599e+000	 1.021135849093527e+001
0	 6.666700000016665e+000	 3.666649999985415e+000	 1.021089928210081e+001
0	 6.666700000016666e+000	 3.733319999987733e+000	 1.021028044694978e+001
0	 6.666700000016665e+000	 3.799989999990449e+000	 1.020950202185170e+001
0	 6.666700000016668e+000	 3.866659999993467e+000	 1.020856404317603e+001
0	 6.666700000016665e+000	 3.933329999996683e+000	 1.020746654729227e+001
0	 6.666700000016667e+000	 4.000000000000001e+000	 1.020620957056991e+001
0	 6.000000000000001e+000	 4.000000000000000e+000	 1.028213688763426e+001
0	 6.000000000000001e+000	 4.066670000003318e+000	 1.027925096683035e+001
0	 6.000000000000000e+000	 4.133340000006534e+000	 1.027626673949451e+001
0	 6.000000000000000e+000	 4.200010000009550e+000	 1.027317840130454e+001
0	 6.000000000000002e+000	 4.266680000012268e+000	 1.026998014793823e+001
0	 6.000000000000000e+000	 4.333350000014584e+000	 1.026666617507336e+001
0	 5.999999999999998e+000	 4.400020000016401e+000	 1.026323067838772e+001
0	 5.999999999999999e+000	 4.466690000017617e+000	 1.025966785355908e+001
0	 6.000000000000001e+000	 4.533360000018134e+000	 1.025597189626522e+001
0	 6.000000000000000e+000	 4.600030000017850e+000	 1.025213700218392e+001
0	 6.000000000000000e+000	 4.666700000016666e+000	 1.024815736699295e+001
0	 6.066670000003318e+000	 4.000000000000001e+000	 1.027430949510779e+001
0	 6.066670000003318e+000	 4.066670000003318e+000	 1.027165589463761e+001
0	 6.066670000003317e+000	 4.133340000006533e+000	 1.026889580242009e+001
0	 6.066670000003319e+000	 4.200010000009550e+000	 1.026602421109199e+001
0	 6.066670000003318e+000	 4.266680000012268e+000	 1.026303611329011e+001
0	 6.066670000003317e+000	 4.333350000014584e+000	 1.025992650165118e+001
0	 6.066670000003318e+000	 4.400020000016401e+000	 1.025669036881200e+001
0	 6.066670000003319e+000	 4.466690000017619e+000	 1.025332270740932e+001
0	 6.066670000003318e+000	 4.533360000018135e+000	 1.024981851007990e+001
0	 6.066670000003316e+000	 4.600030000017850e+000	 1.024617276946050e+001
0	 6.066670000003319e+000	 4.666700000016667e+000	 1.024238047818787e+001
0	 6.133340000006534e+000	 4.000000000000001e+000	 1.026656324536527e+001
0	 6.133340000006535e+000	 4.066670000003317e+000	 1.026411284452427e+001
0	 6.133340000006535e+000	 4.133340000006536e+000	 1.026155076852508e+001
0	 6.133340000006531e+000	 4.200010000009550e+000	 1.025887269763184e+001
0	 6.133340000006533e+000	 4.266680000012269e+000	 1.025607431210865e+001
0	 6.133340000006533e+000	 4.333350000014584e+000	 1.025315129221963e+001
0	 6.133340000006532e+000	 4.400020000016402e+000	 1.025009931822889e+001
0	 6.133340000006533e+000	 4.466690000017618e+000	 1.024691407040053e+001
0	 6.133340000006535e+000	 4.533360000018134e+000	 1.024359122899865e+001
0	 6.133340000006534e+000	 4.600030000017852e+000	 1.024012647428735e+001
0	 6.133340000006533e+000	 4.666700000016667e+000	 1.023651548653075e+001
0	 6.200010000009550e+000	 4.000000000000000e+000	 1.025888726493106e+001
0	 6.200010000009549e+000	 4.066670000003317e+000	 1.025661503659056e+001
0	 6.200010000009551e+000	 4.133340000006534e+000	 1.025422855824357e+001
0	 6.200010000009551e+000	 4.200010000009550e+000	 1.025172408844991e+001
0	 6.200010000009550e+000	 4.266680000012268e+000	 1.024909788576940e+001
0	 6.200010000009550e+000	 4.333350000014582e+000	 1.024634620876186e+001
0	 6.200010000009550e+000	 4.400020000016402e+000	 1.024346531598707e+001
0	 6.200010000009550e+000	 4.466690000017619e+000	 1.024045146600488e+001
0	 6.200010000009551e+000	 4.533360000018135e+000	 1.023730091737506e+001
0	 6.200010000009550e+000	 4.600030000017851e+000	 1.023400992865743e+001
0	 6.200010000009550e+000	 4.666700000016666e+000	 1.023057475841179e+001
0	 6.266680000012268e+000	 4.000000000000001e+000	 1.025127068032952e+001
0	 6.266680000012268e+000	 4.066670000003317e+000	 1.024915569093676e+001
0	 6.266680000012265e+000	 4.133340000006533e+000	 1.024692609200964e+001
0	 6.266680000012266e+000	 4.200010000009551e+000	 1.024457861107207e+001
0	 6.266680000012266e+000	 4.266680000012268e+000	 1.024210997564791e+001
0	 6.266680000012267e+000	 4.333350000014584e+000	 1.023951691326100e+001
0	 6.266680000012267e+000	 4.400020000016402e+000	 1.023679615143527e+001
0	 6.266680000012265e+000	 4.466690000017618e+000	 1.023394441769456e+001
0	 6.266680000012268e+000	 4.533360000018134e+000	 1.023095843956273e+001
0	 6.266680000012268e+000	 4.600030000017851e+000	 1.022783494456365e+001
0	 6.266680000012267e+000	 4.666700000016667e+000	 1.022457066022119e+001
0	 6.333350000014583e+000	 4.000000000000001e+000	 1.024370261808500e+001
0	 6.333350000014582e+000	 4.066670000003318e+000	 1.024172802766311e+001
0	 6.333350000014582e+000	 4.133340000006534e+000	 1.023964029025740e+001
0	 6.333350000014584e+000	 4.200010000009551e+000	 1.023743649302415e+001
0	 6.333350000014583e+000	 4.266680000012268e+000	 1.023511372311968e+001
0	 6.333350000014582e+000	 4.333350000014584e+000	 1.023266906770026e+001
0	 6.333350000014582e+000	 4.400020000016402e+000	 1.023009961392220e+001
0	 6.333350000014582e+000	 4.466690000017616e+000	 1.022740244894176e+001
0	 6.333350000014583e+000	 4.533360000018133e+000	 1.022457465991525e+001
0	 6.333350000014582e+000	 4.600030000017850e+000	 1.022161333399894e+001
0	 6.333350000014582e+000	 4.666700000016666e+000	 1.021851555834913e+001
0	 6.400020000016398e+000	 4.000000000000000e+000	 1.023617220472184e+001
0	 6.400020000016399e+000	 4.066670000003317e+000	 1.023432526686987e+001
0	 6.400020000016399e+000	 4.133340000006534e+000	 1.023236807342092e+001
0	 6.400020000016399e+000	 4.200010000009550e+000	 1.023029796183203e+001
0	 6.400020000016398e+000	 4.266680000012267e+000	 1.022811226956028e+001
0	 6.400020000016401e+000	 4.333350000014583e+000	 1.022580833406277e+001
0	 6.400020000016398e+000	 4.400020000016401e+000	 1.022338349279654e+001
0	 6.400020000016399e+000	 4.466690000017618e+000	 1.022083508321865e+001
0	 6.400020000016400e+000	 4.533360000018134e+000	 1.021816044278621e+001
0	 6.400020000016400e+000	 4.600030000017852e+000	 1.021535690895625e+001
0	 6.400020000016399e+000	 4.666700000016666e+000	 1.021242181918582e+001
0	 6.466690000017615e+000	 4.000000000000000e+000	 1.022866856676440e+001
0	 6.466690000017616e+000	 4.066670000003317e+000	 1.022694062865732e+001
0	 6.466690000017616e+000	 4.133340000006535e+000	 1.022510636193428e+001
0	 6.466690000017614e+000	 4.200010000009551e+000	 1.022316324502152e+001
0	 6.466690000017617e+000	 4.266680000012267e+000	 1.022110875634525e+001
0	 6.466690000017614e+000	 4.333350000014582e+000	 1.021894037433168e+001
0	 6.466690000017616e+000	 4.400020000016400e+000	 1.021665557740701e+001
0	 6.466690000017616e+000	 4.466690000017618e+000	 1.021425184399745e+001
0	 6.466690000017615e+000	 4.533360000018133e+000	 1.021172665252921e+001
0	 6.466690000017615e+000	 4.600030000017848e+000	 1.020907748142846e+001
0	 6.466690000017616e+000	 4.666700000016667e+000	 1.020630180912143e+001
0	 6.533360000018133e+000	 4.000000000000001e+000	 1.022118083073704e+001
0	 6.533360000018131e+000	 4.066670000003318e+000	 1.021956733312566e+001
0	 6.533360000018133e+000	 4.133340000006535e+000	 1.021785207623158e+001
0	 6.533360000018130e+000	 4.200010000009551e+000	 1.021603257011849e+001
0	 6.533360000018131e+000	 4.266680000012267e+000	 1.021410632485012e+001
0	 6.533360000018130e+000	 4.333350000014582e+000	 1.021207085049016e+001
0	 6.533360000018132e+000	 4.400020000016402e+000	 1.020992365710233e+001
0	 6.533360000018133e+000	 4.466690000017618e+000	 1.020766225475032e+001
0	 6.533360000018133e+000	 4.533360000018134e+000	 1.020528415349783e+001
0	 6.533360000018131e+000	 4.600030000017850e+000	 1.020278686340854e+001
0	 6.533360000018133e+000	 4.666700000016666e+000	 1.020016789454618e+001
0	 6.600030000017847e+000	 4.000000000000000e+000	 1.021369812316408e+001
0	 6.600030000017848e+000	 4.066670000003318e+000	 1.021219860037519e+001
0	 6.600030000017847e+000	 4.133340000006534e+000	 1.021060213674690e+001
0	 6.600030000017849e+000	 4.200010000009551e+000	 1.020890616464878e+001
0	 6.600030000017849e+000	 4.266680000012268e+000	 1.020710811645043e+001
0	 6.600030000017847e+000	 4.333350000014583e+000	 1.020520542452138e+001
0	 6.600030000017848e+000	 4.400020000016402e+000	 1.020319552123119e+001
0	 6.600030000017849e+000	 4.466690000017619e+000	 1.020107583894943e+001
0	 6.600030000017851e+000	 4.533360000018134e+000	 1.019884381004565e+001
0	 6.600030000017849e+000	 4.600030000017851e+000	 1.019649686688940e+001
0	 6.600030000017847e+000	 4.666700000016665e+000	 1.019403244185024e+001
0	 6.666700000016667e+000	 4.000000000000001e+000	 1.020620957056991e+001
0	 6.666700000016666e+000	 4.066670000003316e+000	 1.020482765050613e+001
0	 6.666700000016667e+000	 4.133340000006536e+000	 1.020335346391432e+001
0	 6.666700000016667e+000	 4.200010000009551e+000	 1.020178425613825e+001
0	 6.666700000016667e+000	 4.266680000012268e+000	 1.020011727252172e+001
0	 6.666700000016665e+000	 4.333350000014583e+000	 1.019834975840847e+001
0	 6.666700000016665e+000	 4.400020000016400e+000	 1.019647895914231e+001
0	 6.666700000016667e+000	 4.466690000017618e+000	 1.019450212006699e+001
0	 6.666700000016667e+000	 4.533360000018134e+000	 1.019241648652629e+001
0	 6.666700000016666e+000	 4.600030000017851e+000	 1.019021930386398e+001
0	 6.666700000016667e+000	 4.666700000016667e+000	 1.018790781742381e+001
0	 6.000000000000000e+000	 4.666700000016666e+000	 1.024815736699295e+001
0	 5.999999999999998e+000	 4.733360000014531e+000	 1.024409484185993e+001
0	 5.999999999999998e+000	 4.800020000011600e+000	 1.024001026630891e+001
0	 6.000000000000002e+000	 4.866680000008068e+000	 1.023589814273432e+001
0	 5.999999999999998e+000	 4.933340000004132e+000	 1.023175297353063e+001
0	 6.000000000000002e+000	 5.000000000000002e+000	 1.022756926109229e+001
0	 5.999999999999999e+000	 5.066659999995866e+000	 1.022334150781376e+001
0	 6.000000000000000e+000	 5.133319999991934e+000	 1.021906421608949e+001
0	 5.999999999999998e+000	 5.199979999988400e+000	 1.021473188831395e+001
0	 6.000000000000000e+000	 5.266639999985468e+000	 1.021033902688160e+001
0	 6.000000000000000e+000	 5.333299999983334e+000	 1.020588013418693e+001
0	 6.066670000003319e+000	 4.666700000016667e+000	 1.024238047818787e+001
0	 6.066670000003315e+000	 4.733360000014533e+000	 1.023850402027155e+001
0	 6.066670000003315e+000	 4.800020000011599e+000	 1.023460404580061e+001
0	 6.066670000003317e+000	 4.866680000008066e+000	 1.023067468670011e+001
0	 6.066670000003319e+000	 4.933340000004134e+000	 1.022671007489516e+001
0	 6.066670000003320e+000	 5.000000000000000e+000	 1.022270434231087e+001
0	 6.066670000003319e+000	 5.066659999995867e+000	 1.021865162087231e+001
0	 6.066670000003319e+000	 5.133319999991934e+000	 1.021454604250459e+001
0	 6.066670000003314e+000	 5.199979999988400e+000	 1.021038173913283e+001
0	 6.066670000003316e+000	 5.266639999985467e+000	 1.020615284268213e+001
0	 6.066670000003317e+000	 5.333299999983335e+000	 1.020185348507760e+001
0	 6.133340000006533e+000	 4.666700000016667e+000	 1.023651548653075e+001
0	 6.133340000006535e+000	 4.733360000014534e+000	 1.023282013722120e+001
0	 6.133340000006534e+000	 4.800020000011599e+000	 1.022909998236628e+001
0	 6.133340000006533e+000	 4.866680000008066e+000	 1.022534888741489e+001
0	 6.133340000006533e+000	 4.933340000004134e+000	 1.022156071781593e+001
0	 6.133340000006535e+000	 5.000000000000002e+000	 1.021772933901828e+001
0	 6.133340000006533e+000	 5.066659999995866e+000	 1.021384861647083e+001
0	 6.133340000006534e+000	 5.133319999991934e+000	 1.020991241562253e+001
0	 6.133340000006533e+000	 5.199979999988400e+000	 1.020591460192224e+001
0	 6.133340000006531e+000	 5.266639999985468e+000	 1.020184904081889e+001
0	 6.133340000006531e+000	 5.333299999983334e+000	 1.019770959776137e+001
0	 6.200010000009550e+000	 4.666700000016666e+000	 1.023057475841180e+001
0	 6.200010000009550e+000	 4.733360000014532e+000	 1.022705586880861e+001
0	 6.200010000009551e+000	 4.800020000011600e+000	 1.022351096578924e+001
0	 6.200010000009550e+000	 4.866680000008065e+000	 1.021993375231953e+001
0	 6.200010000009551e+000	 4.933340000004134e+000	 1.021631793136533e+001
0	 6.200010000009551e+000	 5.000000000000000e+000	 1.021265720589250e+001
0	 6.200010000009550e+000	 5.066659999995867e+000	 1.020894527886687e+001
0	 6.200010000009549e+000	 5.133319999991935e+000	 1.020517585325436e+001
0	 6.200010000009551e+000	 5.199979999988400e+000	 1.020134263202077e+001
0	 6.200010000009550e+000	 5.266639999985468e+000	 1.019743931813200e+001
0	 6.200010000009550e+000	 5.333299999983334e+000	 1.019345961455391e+001
0	 6.266680000012267e+000	 4.666700000016667e+000	 1.022457066022119e+001
0	 6.266680000012268e+000	 4.733360000014534e+000	 1.022122389113357e+001
0	 6.266680000012265e+000	 4.800020000011599e+000	 1.021784988585281e+001
0	 6.266680000012268e+000	 4.866680000008066e+000	 1.021444228885490e+001
0	 6.266680000012266e+000	 4.933340000004133e+000	 1.021099474461581e+001
0	 6.266680000012265e+000	 4.999999999999999e+000	 1.020750089761149e+001
0	 6.266680000012267e+000	 5.066659999995865e+000	 1.020395439231793e+001
0	 6.266680000012267e+000	 5.133319999991934e+000	 1.020034887321111e+001
0	 6.266680000012267e+000	 5.199979999988400e+000	 1.019667798476699e+001
0	 6.266680000012266e+000	 5.266639999985468e+000	 1.019293537146158e+001
0	 6.266680000012265e+000	 5.333299999983333e+000	 1.018911467777086e+001
0	 6.333350000014582e+000	 4.666700000016666e+000	 1.021851555834913e+001
0	 6.333350000014584e+000	 4.733360000014533e+000	 1.021533688029580e+001
0	 6.333350000014582e+000	 4.800020000011600e+000	 1.021212963234030e+001
0	 6.333350000014582e+000	 4.866680000008067e+000	 1.020888750446188e+001
0	 6.333350000014580e+000	 4.933340000004133e+000	 1.020560418663977e+001
0	 6.333350000014582e+000	 4.999999999999999e+000	 1.020227336885324e+001
0	 6.333350000014583e+000	 5.066659999995868e+000	 1.019888874108153e+001
0	 6.333350000014582e+000	 5.133319999991935e+000	 1.019544399330387e+001
0	 6.333350000014582e+000	 5.199979999988400e+000	 1.019193281549954e+001
0	 6.333350000014583e+000	 5.266639999985467e+000	 1.018834889764778e+001
0	 6.333350000014584e+000	 5.333299999983334e+000	 1.018468592972785e+001
0	 6.400020000016399e+000	 4.666700000016666e+000	 1.021242181918582e+001
0	 6.400020000016401e+000	 4.733360000014534e+000	 1.020940751239508e+001
0	 6.400020000016399e+000	 4.800020000011601e+000	 1.020636309503503e+001
0	 6.400020000016401e+000	 4.866680000008067e+000	 1.020328240658133e+001
0	 6.400020000016399e+000	 4.933340000004133e+000	 1.020015928650967e+001
0	 6.400020000016398e+000	 5.000000000000000e+000	 1.019698757429572e+001
0	 6.400020000016399e+000	 5.066659999995868e+000	 1.019376110941516e+001
0	 6.400020000016401e+000	 5.133319999991935e+000	 1.019047373134369e+001
0	 6.400020000016400e+000	 5.199979999988400e+000	 1.018711927955695e+001
0	 6.400020000016401e+000	 5.266639999985467e+000	 1.018369159353069e+001
0	 6.400020000016398e+000	 5.333299999983333e+000	 1.018018451274057e+001
0	 6.466690000017616e+000	 4.666700000016667e+000	 1.020630180912143e+001
0	 6.466690000017616e+000	 4.733360000014533e+000	 1.020344846353117e+001
0	 6.466690000017616e+000	 4.800020000011600e+000	 1.020056316372030e+001
0	 6.466690000017617e+000	 4.866680000008068e+000	 1.019764000265414e+001
0	 6.466690000017615e+000	 4.933340000004133e+000	 1.019467307329790e+001
0	 6.466690000017616e+000	 5.000000000000001e+000	 1.019165646861689e+001
0	 6.466690000017614e+000	 5.066659999995867e+000	 1.018858428157636e+001
0	 6.466690000017617e+000	 5.133319999991934e+000	 1.018545060514159e+001
0	 6.466690000017614e+000	 5.199979999988400e+000	 1.018224953227787e+001
0	 6.466690000017617e+000	 5.266639999985468e+000	 1.017897515595045e+001
0	 6.466690000017616e+000	 5.333299999983333e+000	 1.017562156912463e+001
0	 6.533360000018133e+000	 4.666700000016666e+000	 1.020016789454618e+001
0	 6.533360000018132e+000	 4.733360000014533e+000	 1.019747240980381e+001
0	 6.533360000018134e+000	 4.800020000011601e+000	 1.019474272817946e+001
0	 6.533360000018132e+000	 4.866680000008067e+000	 1.019197330012116e+001
0	 6.533360000018132e+000	 4.933340000004135e+000	 1.018915857607690e+001
0	 6.533360000018133e+000	 5.000000000000001e+000	 1.018629300649474e+001
0	 6.533360000018131e+000	 5.066659999995865e+000	 1.018337104182264e+001
0	 6.533360000018133e+000	 5.133319999991936e+000	 1.018038713250867e+001
0	 6.533360000018130e+000	 5.199979999988400e+000	 1.017733572900083e+001
0	 6.533360000018131e+000	 5.266639999985467e+000	 1.017421128174717e+001
0	 6.533360000018134e+000	 5.333299999983335e+000	 1.017100824119570e+001
0	 6.600030000017847e+000	 4.666700000016665e+000	 1.019403244185024e+001
0	 6.600030000017849e+000	 4.733360000014534e+000	 1.019149202731276e+001
0	 6.600030000017847e+000	 4.800020000011600e+000	 1.018891467819580e+001
0	 6.600030000017848e+000	 4.866680000008065e+000	 1.018629530642328e+001
0	 6.600030000017847e+000	 4.933340000004133e+000	 1.018362882391911e+001
0	 6.600030000017849e+000	 4.999999999999999e+000	 1.018091014260721e+001
0	 6.600030000017847e+000	 5.066659999995868e+000	 1.017813417441152e+001
0	 6.600030000017848e+000	 5.133319999991934e+000	 1.017529583125596e+001
0	 6.600030000017849e+000	 5.199979999988400e+000	 1.017239002506447e+001
0	 6.600030000017848e+000	 5.266639999985467e+000	 1.016941166776098e+001
0	 6.600030000017847e+000	 5.333299999983335e+000	 1.016635567126942e+001
0	 6.666700000016667e+000	 4.666700000016667e+000	 1.018790781742382e+001
0	 6.666700000016668e+000	 4.733360000014534e+000	 1.018551999215780e+001
0	 6.666700000016665e+000	 4.800020000011600e+000	 1.018309190355265e+001
0	 6.666700000016667e+000	 4.866680000008067e+000	 1.018061902900137e+001
0	 6.666700000016669e+000	 4.933340000004135e+000	 1.017809684589692e+001
0	 6.666700000016666e+000	 5.000000000000001e+000	 1.017552083163231e+001
0	 6.666700000016667e+000	 5.066659999995867e+000	 1.017288646360051e+001
0	 6.666700000016666e+000	 5.133319999991935e+000	 1.017018921919453e+001
0	 6.666700000016666e+000	 5.199979999988400e+000	 1.016742457580735e+001
0	 6.666700000016665e+000	 5.266639999985468e+000	 1.016458801083200e+001
0	 6.666700000016665e+000	 5.333299999983334e+000	 1.016167500166145e+001
0	 6.000000000000000e+000	 5.333299999983334e+000	 1.020588013418692e+001
0	 6.000000000000000e+000	 5.399969999982150e+000	 1.020140340798438e+001
0	 6.000000000000001e+000	 5.466639999981868e+000	 1.019695874689756e+001
0	 6.000000000000000e+000	 5.533309999982383e+000	 1.019254118223899e+001
0	 6.000000000000000e+000	 5.599979999983598e+000	 1.018814574532114e+001
0	 5.999999999999998e+000	 5.666649999985416e+000	 1.018376746745654e+001
0	 5.999999999999998e+000	 5.733319999987732e+000	 1.017940137995770e+001
0	 5.999999999999999e+000	 5.799989999990449e+000	 1.017504251413710e+001
0	 5.999999999999998e+000	 5.866659999993467e+000	 1.017068590130725e+001
0	 6.000000000000000e+000	 5.933329999996683e+000	 1.016632657278067e+001
0	 5.999999999999999e+000	 5.999999999999999e+000	 1.016195955986984e+001
0	 6.066670000003317e+000	 5.333299999983335e+000	 1.020185348507759e+001
0	 6.066670000003316e+000	 5.399969999982148e+000	 1.019753111346193e+001
0	 6.066670000003318e+000	 5.466639999981866e+000	 1.019323536713537e+001
0	 6.066670000003319e+000	 5.533309999982384e+000	 1.018896171461926e+001
0	 6.066670000003316e+000	 5.599979999983599e+000	 1.018470562443499e+001
0	 6.066670000003313e+000	 5.666649999985414e+000	 1.018046256510384e+001
0	 6.066670000003316e+000	 5.733319999987732e+000	 1.017622800514721e+001
0	 6.066670000003319e+000	 5.799989999990450e+000	 1.017199741308643e+001
0	 6.066670000003316e+000	 5.866659999993466e+000	 1.016776625744282e+001
0	 6.066670000003319e+000	 5.933329999996684e+000	 1.016353000673778e+001
0	 6.066670000003318e+000	 6.000000000000000e+000	 1.015928412949263e+001
0	 6.133340000006531e+000	 5.333299999983334e+000	 1.019770959776137e+001
0	 6.133340000006536e+000	 5.399969999982150e+000	 1.019354254647659e+001
0	 6.133340000006532e+000	 5.466639999981864e+000	 1.018939673574738e+001
0	 6.133340000006530e+000	 5.533309999982381e+000	 1.018526801312544e+001
0	 6.133340000006533e+000	 5.599979999983601e+000	 1.018115222616246e+001
0	 6.133340000006535e+000	 5.666649999985417e+000	 1.017704522241019e+001
0	 6.133340000006533e+000	 5.733319999987734e+000	 1.017294284942033e+001
0	 6.133340000006533e+000	 5.799989999990449e+000	 1.016884095474459e+001
0	 6.133340000006534e+000	 5.866659999993467e+000	 1.016473538593471e+001
0	 6.133340000006535e+000	 5.933329999996684e+000	 1.016062199054237e+001
0	 6.133340000006534e+000	 6.000000000000000e+000	 1.015649661611929e+001
0	 6.200010000009550e+000	 5.333299999983334e+000	 1.019345961455391e+001
0	 6.200010000009550e+000	 5.399969999982150e+000	 1.018944828416733e+001
0	 6.200010000009551e+000	 5.466639999981866e+000	 1.018545293959809e+001
0	 6.200010000009551e+000	 5.533309999982384e+000	 1.018146974924980e+001
0	 6.200010000009550e+000	 5.599979999983599e+000	 1.017749488152606e+001
0	 6.200010000009550e+000	 5.666649999985416e+000	 1.017352450483047e+001
0	 6.200010000009550e+000	 5.733319999987734e+000	 1.016955478756665e+001
0	 6.200010000009550e+000	 5.799989999990450e+000	 1.016558189813820e+001
0	 6.200010000009551e+000	 5.866659999993467e+000	 1.016160200494871e+001
0	 6.200010000009550e+000	 5.933329999996683e+000	 1.015761127640179e+001
0	 6.200010000009550e+000	 6.000000000000001e+000	 1.015360588090104e+001
0	 6.266680000012265e+000	 5.333299999983333e+000	 1.018911467777085e+001
0	 6.266680000012268e+000	 5.399969999982151e+000	 1.018525890367304e+001
0	 6.266680000012266e+000	 5.466639999981866e+000	 1.018141406555198e+001
0	 6.266680000012264e+000	 5.533309999982383e+000	 1.017757659448471e+001
0	 6.266680000012267e+000	 5.599979999983600e+000	 1.017374292154824e+001
0	 6.266680000012268e+000	 5.666649999985417e+000	 1.016990947781958e+001
0	 6.266680000012268e+000	 5.733319999987733e+000	 1.016607269437575e+001
0	 6.266680000012266e+000	 5.799989999990450e+000	 1.016222900229377e+001
0	 6.266680000012265e+000	 5.866659999993466e+000	 1.015837483265065e+001
0	 6.266680000012268e+000	 5.933329999996684e+000	 1.015450661652343e+001
0	 6.266680000012266e+000	 5.999999999999998e+000	 1.015062078498908e+001
0	 6.333350000014584e+000	 5.333299999983334e+000	 1.018468592972785e+001
0	 6.333350000014582e+000	 5.399969999982148e+000	 1.018098498213265e+001
0	 6.333350000014584e+000	 5.466639999981868e+000	 1.017729020047355e+001
0	 6.333350000014582e+000	 5.533309999982383e+000	 1.017359822032250e+001
0	 6.333350000014582e+000	 5.599979999983598e+000	 1.016990567725146e+001
0	 6.333350000014582e+000	 5.666649999985416e+000	 1.016620920683237e+001
0	 6.333350000014583e+000	 5.733319999987734e+000	 1.016250544463719e+001
0	 6.333350000014585e+000	 5.799989999990450e+000	 1.015879102623787e+001
0	 6.333350000014583e+000	 5.866659999993468e+000	 1.015506258720637e+001
0	 6.333350000014582e+000	 5.933329999996683e+000	 1.015131676311464e+001
0	 6.333350000014583e+000	 6.000000000000000e+000	 1.014755018953462e+001
0	 6.400020000016398e+000	 5.333299999983333e+000	 1.018018451274057e+001
0	 6.400020000016399e+000	 5.399969999982150e+000	 1.017663709668510e+001
0	 6.400020000016398e+000	 5.466639999981866e+000	 1.017309143122727e+001
0	 6.400020000016401e+000	 5.533309999982384e+000	 1.016954429825548e+001
0	 6.400020000016400e+000	 5.599979999983600e+000	 1.016599247965817e+001
0	 6.400020000016397e+000	 5.666649999985414e+000	 1.016243275732372e+001
0	 6.400020000016398e+000	 5.733319999987731e+000	 1.015886191314056e+001
0	 6.400020000016399e+000	 5.799989999990449e+000	 1.015527672899707e+001
0	 6.400020000016399e+000	 5.866659999993467e+000	 1.015167398678170e+001
0	 6.400020000016398e+000	 5.933329999996683e+000	 1.014805046838282e+001
0	 6.400020000016399e+000	 6.000000000000000e+000	 1.014440295568886e+001
0	 6.466690000017616e+000	 5.333299999983333e+000	 1.017562156912463e+001
0	 6.466690000017615e+000	 5.399969999982149e+000	 1.017222582446932e+001
0	 6.466690000017614e+000	 5.466639999981866e+000	 1.016882784467765e+001
0	 6.466690000017616e+000	 5.533309999982383e+000	 1.016542449977603e+001
0	 6.466690000017615e+000	 5.599979999983599e+000	 1.016201265979086e+001
0	 6.466690000017614e+000	 5.666649999985416e+000	 1.015858919474852e+001
0	 6.466690000017617e+000	 5.733319999987733e+000	 1.015515097467540e+001
0	 6.466690000017616e+000	 5.799989999990450e+000	 1.015169486959791e+001
0	 6.466690000017615e+000	 5.866659999993465e+000	 1.014821774954242e+001
0	 6.466690000017618e+000	 5.933329999996684e+000	 1.014471648453533e+001
0	 6.466690000017616e+000	 6.000000000000001e+000	 1.014118794460300e+001
0	 6.533360000018134e+000	 5.333299999983335e+000	 1.017100824119570e+001
0	 6.533360000018129e+000	 5.399969999982148e+000	 1.016776174262421e+001
0	 6.533360000018130e+000	 5.466639999981864e+000	 1.016450952768916e+001
0	 6.533360000018132e+000	 5.533309999982382e+000	 1.016124849637644e+001
0	 6.533360000018130e+000	 5.599979999983598e+000	 1.015797554867198e+001
0	 6.533360000018132e+000	 5.666649999985417e+000	 1.015468758456165e+001
0	 6.533360000018130e+000	 5.733319999987733e+000	 1.015138150403134e+001
0	 6.533360000018131e+000	 5.799989999990448e+000	 1.014805420706695e+001
0	 6.533360000018131e+000	 5.866659999993468e+000	 1.014470259365438e+001
0	 6.533360000018129e+000	 5.933329999996682e+000	 1.014132356377952e+001
0	 6.533360000018134e+000	 6.000000000000001e+000	 1.013791401742827e+001
0	 6.600030000017847e+000	 5.333299999983335e+000	 1.016635567126942e+001
0	 6.600030000017848e+000	 5.399969999982150e+000	 1.016325542828872e+001
0	 6.600030000017849e+000	 5.466639999981868e+000	 1.016014656712629e+001
0	 6.600030000017848e+000	 5.533309999982385e+000	 1.015702595954907e+001
0	 6.600030000017847e+000	 5.599979999983598e+000	 1.015389047732399e+001
0	 6.600030000017847e+000	 5.666649999985416e+000	 1.015073699221797e+001
0	 6.600030000017850e+000	 5.733319999987733e+000	 1.014756237599791e+001
0	 6.600030000017848e+000	 5.799989999990450e+000	 1.014436350043074e+001
0	 6.600030000017848e+000	 5.866659999993467e+000	 1.014113723728341e+001
0	 6.600030000017847e+000	 5.933329999996683e+000	 1.013788045832280e+001
0	 6.600030000017847e+000	 5.999999999999998e+000	 1.013459003531585e+001
0	 6.666700000016665e+000	 5.333299999983334e+000	 1.016167500166145e+001
0	 6.666700000016668e+000	 5.399969999982151e+000	 1.015871745860177e+001
0	 6.666700000016667e+000	 5.466639999981866e+000	 1.015574904985354e+001
0	 6.666700000016667e+000	 5.533309999982384e+000	 1.015276656078625e+001
0	 6.666700000016667e+000	 5.599979999983600e+000	 1.014976677676937e+001
0	 6.666700000016665e+000	 5.666649999985416e+000	 1.014674648317236e+001
0	 6.666700000016665e+000	 5.733319999987732e+000	 1.014370246536470e+001
0	 6.666700000016665e+000	 5.799989999990448e+000	 1.014063150871587e+001
0	 6.666700000016665e+000	 5.866659999993468e+000	 1.013753039859531e+001
0	 6.666700000016665e+000	 5.933329999996682e+000	 1.013439592037252e+001
0	 6.666700000016668e+000	 6.000000000000002e+000	 1.013122485941696e+001
0	 5.999999999999999e+000	 5.999999999999999e+000	 1.016195955986984e+001
0	 6.000000000000000e+000	 6.066670000003318e+000	 1.015761133913584e+001
0	 6.000000000000000e+000	 6.133340000006533e+000	 1.015330963898154e+001
0	 5.999999999999996e+000	 6.200010000009550e+000	 1.014905136848213e+001
0	 5.999999999999998e+000	 6.266680000012267e+000	 1.014483343671281e+001
0	 6.000000000000000e+000	 6.333350000014585e+000	 1.014065275274878e+001
0	 5.999999999999998e+000	 6.400020000016399e+000	 1.013650622566523e+001
0	 6.000000000000001e+000	 6.466690000017618e+000	 1.013239076453735e+001
0	 6.000000000000002e+000	 6.533360000018136e+000	 1.012830327844036e+001
0	 6.000000000000001e+000	 6.600030000017850e+000	 1.012424067644943e+001
0	 6.000000000000002e+000	 6.666700000016668e+000	 1.012019986763976e+001
0	 6.066670000003318e+000	 6.000000000000000e+000	 1.015928412949263e+001
0	 6.066670000003316e+000	 6.066670000003316e+000	 1.015505459107593e+001
0	 6.066670000003316e+000	 6.133340000006532e+000	 1.015086821999045e+001
0	 6.066670000003319e+000	 6.200010000009550e+000	 1.014672177945882e+001
0	 6.066670000003319e+000	 6.266680000012269e+000	 1.014261203270367e+001
0	 6.066670000003316e+000	 6.333350000014583e+000	 1.013853574294763e+001
0	 6.066670000003319e+000	 6.400020000016401e+000	 1.013448967341334e+001
0	 6.066670000003318e+000	 6.466690000017617e+000	 1.013047058732342e+001
0	 6.066670000003316e+000	 6.533360000018132e+000	 1.012647524790050e+001
0	 6.066670000003317e+000	 6.600030000017850e+000	 1.012250041836722e+001
0	 6.066670000003319e+000	 6.666700000016667e+000	 1.011854286194622e+001
0	 6.133340000006534e+000	 6.000000000000000e+000	 1.015649661611929e+001
0	 6.133340000006535e+000	 6.066670000003318e+000	 1.015238501078828e+001
0	 6.133340000006534e+000	 6.133340000006534e+000	 1.014831345659238e+001
0	 6.133340000006533e+000	 6.200010000009551e+000	 1.014427860196369e+001
0	 6.133340000006533e+000	 6.266680000012268e+000	 1.014027709533430e+001
0	 6.133340000006533e+000	 6.333350000014583e+000	 1.013630558513629e+001
0	 6.133340000006533e+000	 6.400020000016401e+000	 1.013236071980176e+001
0	 6.133340000006532e+000	 6.466690000017617e+000	 1.012843914776281e+001
0	 6.133340000006533e+000	 6.533360000018134e+000	 1.012453751745153e+001
0	 6.133340000006534e+000	 6.600030000017851e+000	 1.012065247729998e+001
0	 6.133340000006531e+000	 6.666700000016665e+000	 1.011678067574030e+001
0	 6.200010000009550e+000	 6.000000000000001e+000	 1.015360588090104e+001
0	 6.200010000009550e+000	 6.066670000003318e+000	 1.014961158320482e+001
0	 6.200010000009551e+000	 6.133340000006533e+000	 1.014565441227148e+001
0	 6.200010000009551e+000	 6.200010000009551e+000	 1.014173093280457e+001
0	 6.200010000009550e+000	 6.266680000012268e+000	 1.013783770950770e+001
0	 6.200010000009550e+000	 6.333350000014583e+000	 1.013397130708442e+001
0	 6.200010000009549e+000	 6.400020000016401e+000	 1.013012829023832e+001
0	 6.200010000009552e+000	 6.466690000017619e+000	 1.012630522367299e+001
0	 6.200010000009551e+000	 6.533360000018135e+000	 1.012249867209199e+001
0	 6.200010000009549e+000	 6.600030000017850e+000	 1.011870520019889e+001
0	 6.200010000009550e+000	 6.666700000016667e+000	 1.011492137269728e+001
0	 6.266680000012266e+000	 5.999999999999998e+000	 1.015062078498908e+001
0	 6.266680000012268e+000	 6.066670000003319e+000	 1.014674329325749e+001
0	 6.266680000012265e+000	 6.133340000006531e+000	 1.014290015051185e+001
0	 6.266680000012265e+000	 6.200010000009550e+000	 1.013908786878930e+001
0	 6.266680000012268e+000	 6.266680000012268e+000	 1.013530296012688e+001
0	 6.266680000012267e+000	 6.333350000014585e+000	 1.013154193656169e+001
0	 6.266680000012268e+000	 6.400020000016402e+000	 1.012780131013084e+001
0	 6.266680000012265e+000	 6.466690000017616e+000	 1.012407759287139e+001
0	 6.266680000012266e+000	 6.533360000018133e+000	 1.012036729682045e+001
0	 6.266680000012267e+000	 6.600030000017852e+000	 1.011666693401509e+001
0	 6.266680000012268e+000	 6.666700000016667e+000	 1.011297301649240e+001
0	 6.333350000014583e+000	 6.000000000000000e+000	 1.014755018953462e+001
0	 6.333350000014582e+000	 6.066670000003317e+000	 1.014378912587819e+001
0	 6.333350000014582e+000	 6.133340000006532e+000	 1.014005973479766e+001
0	 6.333350000014584e+000	 6.200010000009550e+000	 1.013635850672566e+001
0	 6.333350000014582e+000	 6.266680000012268e+000	 1.013268193209482e+001
0	 6.333350000014583e+000	 6.333350000014583e+000	 1.012902650133775e+001
0	 6.333350000014584e+000	 6.400020000016402e+000	 1.012538870488709e+001
0	 6.333350000014582e+000	 6.466690000017616e+000	 1.012176503317545e+001
0	 6.333350000014582e+000	 6.533360000018134e+000	 1.011815197663546e+001
0	 6.333350000014582e+000	 6.600030000017848e+000	 1.011454602569974e+001
0	 6.333350000014583e+000	 6.666700000016667e+000	 1.011094367080092e+001
0	 6.400020000016399e+000	 6.000000000000000e+000	 1.014440295568886e+001
0	 6.400020000016399e+000	 6.066670000003318e+000	 1.014075806599885e+001
0	 6.400020000016398e+000	 6.133340000006531e+000	 1.013714222861300e+001
0	 6.400020000016399e+000	 6.200010000009551e+000	 1.013355194342150e+001
0	 6.400020000016400e+000	 6.266680000012267e+000	 1.012998371031452e+001
0	 6.400020000016400e+000	 6.333350000014583e+000	 1.012643402918226e+001
0	 6.400020000016401e+000	 6.400020000016402e+000	 1.012289939991491e+001
0	 6.400020000016401e+000	 6.466690000017618e+000	 1.011937632240262e+001
0	 6.400020000016399e+000	 6.533360000018136e+000	 1.011586129653560e+001
0	 6.400020000016400e+000	 6.600030000017852e+000	 1.011235082220404e+001
0	 6.400020000016401e+000	 6.666700000016666e+000	 1.010884139929810e+001
0	 6.466690000017616e+000	 6.000000000000001e+000	 1.014118794460300e+001
0	 6.466690000017617e+000	 6.066670000003318e+000	 1.013765909855140e+001
0	 6.466690000017616e+000	 6.133340000006533e+000	 1.013415669544202e+001
0	 6.466690000017615e+000	 6.200010000009551e+000	 1.013067727568462e+001
0	 6.466690000017616e+000	 6.266680000012268e+000	 1.012721737968899e+001
0	 6.466690000017617e+000	 6.333350000014584e+000	 1.012377354786487e+001
0	 6.466690000017616e+000	 6.400020000016400e+000	 1.012034232062207e+001
0	 6.466690000017617e+000	 6.466690000017617e+000	 1.011692023837034e+001
0	 6.466690000017615e+000	 6.533360000018134e+000	 1.011350384151944e+001
0	 6.466690000017616e+000	 6.600030000017850e+000	 1.011008967047912e+001
0	 6.466690000017615e+000	 6.666700000016666e+000	 1.010667426565921e+001
0	 6.533360000018134e+000	 6.000000000000001e+000	 1.013791401742827e+001
0	 6.533360000018130e+000	 6.066670000003315e+000	 1.013450120846776e+001
0	 6.533360000018130e+000	 6.133340000006532e+000	 1.013111219876884e+001
0	 6.533360000018132e+000	 6.200010000009550e+000	 1.012774360032286e+001
0	 6.533360000018130e+000	 6.266680000012266e+000	 1.012439202512122e+001
0	 6.533360000018132e+000	 6.333350000014583e+000	 1.012105408515528e+001
0	 6.533360000018132e+000	 6.400020000016400e+000	 1.011772639241642e+001
0	 6.533360000018130e+000	 6.466690000017617e+000	 1.011440555889604e+001
0	 6.533360000018131e+000	 6.533360000018136e+000	 1.011108819658549e+001
0	 6.533360000018131e+000	 6.600030000017850e+000	 1.010777091747618e+001
0	 6.533360000018131e+000	 6.666700000016665e+000	 1.010445033355949e+001
0	 6.600030000017847e+000	 5.999999999999998e+000	 1.013459003531585e+001
0	 6.600030000017847e+000	 6.066670000003319e+000	 1.013129338067988e+001
0	 6.600030000017850e+000	 6.133340000006535e+000	 1.012801780207759e+001
0	 6.600030000017848e+000	 6.200010000009552e+000	 1.012476001414403e+001
0	 6.600030000017848e+000	 6.266680000012269e+000	 1.012151673151419e+001
0	 6.600030000017848e+000	 6.333350000014584e+000	 1.011828466882309e+001
0	 6.600030000017847e+000	 6.400020000016398e+000	 1.011506054070575e+001
0	 6.600030000017849e+000	 6.466690000017618e+000	 1.011184106179716e+001
0	 6.600030000017847e+000	 6.533360000018134e+000	 1.010862294673237e+001
0	 6.600030000017847e+000	 6.600030000017849e+000	 1.010540291014638e+001
0	 6.600030000017847e+000	 6.666700000016665e+000	 1.010217766667419e+001
0	 6.666700000016668e+000	 6.000000000000002e+000	 1.013122485941696e+001
0	 6.666700000016667e+000	 6.066670000003318e+000	 1.012804460011964e+001
0	 6.666700000016665e+000	 6.133340000006532e+000	 1.012488256885242e+001
0	 6.666700000016666e+000	 6.200010000009550e+000	 1.012173561395595e+001
0	 6.666700000016666e+000	 6.266680000012267e+000	 1.011860058377092e+001
0	 6.666700000016667e+000	 6.333350000014586e+000	 1.011547432663799e+001
0	 6.666700000016667e+000	 6.400020000016401e+000	 1.011235369089785e+001
0	 6.666700000016667e+000	 6.466690000017616e+000	 1.010923552489116e+001
0	 6.666700000016666e+000	 6.533360000018132e+000	 1.010611667695860e+001
0	 6.666700000016667e+000	 6.600030000017851e+000	 1.010299399544087e+001
0	 6.666700000016666e+000	 6.666700000016667e+000	 1.009986432867861e+001
0	 6.000000000000002e+000	 6.666700000016668e+000	 1.012019986763976e+001
0	 6.000000000000000e+000	 6.733360000014532e+000	 1.011620099631347e+001
0	 6.000000000000000e+000	 6.800020000011600e+000	 1.011226323426056e+001
0	 6.000000000000000e+000	 6.866680000008066e+000	 1.010838384562156e+001
0	 6.000000000000001e+000	 6.933340000004134e+000	 1.010456009453696e+001
0	 6.000000000000000e+000	 6.999999999999998e+000	 1.010078924514728e+001
0	 6.000000000000001e+000	 7.066659999995868e+000	 1.009706856159302e+001
0	 6.000000000000000e+000	 7.133319999991935e+000	 1.009339530801467e+001
0	 6.000000000000000e+000	 7.199979999988401e+000	 1.008976674855276e+001
0	 6.000000000000000e+000	 7.266639999985465e+000	 1.008618014734776e+001
0	 6.000000000000000e+000	 7.333299999983332e+000	 1.008263276854019e+001
0	 6.066670000003319e+000	 6.666700000016667e+000	 1.011854286194622e+001
0	 6.066670000003317e+000	 6.733360000014534e+000	 1.011462342997123e+001
0	 6.066670000003314e+000	 6.800020000011598e+000	 1.011076216337683e+001
0	 6.066670000003317e+000	 6.866680000008065e+000	 1.010695638719753e+001
0	 6.066670000003320e+000	 6.933340000004136e+000	 1.010320342646778e+001
0	 6.066670000003319e+000	 7.000000000000000e+000	 1.009950060622207e+001
0	 6.066670000003319e+000	 7.066659999995868e+000	 1.009584525149487e+001
0	 6.066670000003319e+000	 7.133319999991935e+000	 1.009223468732066e+001
0	 6.066670000003317e+000	 7.199979999988400e+000	 1.008866623873391e+001
0	 6.066670000003315e+000	 7.266639999985465e+000	 1.008513723076909e+001
0	 6.066670000003317e+000	 7.333299999983333e+000	 1.008164498846069e+001
0	 6.133340000006531e+000	 6.666700000016665e+000	 1.011678067574031e+001
0	 6.133340000006534e+000	 6.733360000014532e+000	 1.011294346175390e+001
0	 6.133340000006533e+000	 6.800020000011599e+000	 1.010916151081245e+001
0	 6.133340000006533e+000	 6.866680000008065e+000	 1.010543220083121e+001
0	 6.133340000006531e+000	 6.933340000004131e+000	 1.010175290972545e+001
0	 6.133340000006532e+000	 6.999999999999997e+000	 1.009812101541042e+001
0	 6.133340000006534e+000	 7.066659999995868e+000	 1.009453389580136e+001
0	 6.133340000006535e+000	 7.133319999991934e+000	 1.009098892881352e+001
0	 6.133340000006535e+000	 7.199979999988401e+000	 1.008748349236218e+001
0	 6.133340000006532e+000	 7.266639999985466e+000	 1.008401496436255e+001
0	 6.133340000006531e+000	 7.333299999983332e+000	 1.008058072272989e+001
0	 6.200010000009550e+000	 6.666700000016667e+000	 1.011492137269728e+001
0	 6.200010000009550e+000	 6.733360000014531e+000	 1.011116885346985e+001
0	 6.200010000009551e+000	 6.800020000011601e+000	 1.010746874446367e+001
0	 6.200010000009551e+000	 6.866680000008067e+000	 1.010381846846158e+001
0	 6.200010000009551e+000	 6.933340000004134e+000	 1.010021544824642e+001
0	 6.200010000009552e+000	 7.000000000000000e+000	 1.009665710660104e+001
0	 6.200010000009551e+000	 7.066659999995867e+000	 1.009314086630824e+001
0	 6.200010000009551e+000	 7.133319999991936e+000	 1.008966415015088e+001
0	 6.200010000009552e+000	 7.199979999988400e+000	 1.008622438091179e+001
0	 6.200010000009550e+000	 7.266639999985466e+000	 1.008281898137378e+001
0	 6.200010000009550e+000	 7.333299999983334e+000	 1.007944537431970e+001
0	 6.266680000012268e+000	 6.666700000016667e+000	 1.011297301649241e+001
0	 6.266680000012267e+000	 6.733360000014534e+000	 1.010930736692743e+001
0	 6.266680000012267e+000	 6.800020000011600e+000	 1.010569133222675e+001
0	 6.266680000012268e+000	 6.866680000008067e+000	 1.010212237202758e+001
0	 6.266680000012267e+000	 6.933340000004133e+000	 1.009859794596713e+001
0	 6.266680000012264e+000	 6.999999999999997e+000	 1.009511551368263e+001
0	 6.266680000012265e+000	 7.066659999995864e+000	 1.009167253481129e+001
0	 6.266680000012267e+000	 7.133319999991935e+000	 1.008826646899035e+001
0	 6.266680000012266e+000	 7.199979999988402e+000	 1.008489477585699e+001
0	 6.266680000012268e+000	 7.266639999985467e+000	 1.008155491504847e+001
0	 6.266680000012266e+000	 7.333299999983333e+000	 1.007824434620198e+001
0	 6.333350000014583e+000	 6.666700000016667e+000	 1.011094367080092e+001
0	 6.333350000014583e+000	 6.733360000014533e+000	 1.010736676393503e+001
0	 6.333350000014582e+000	 6.800020000011598e+000	 1.010383674199797e+001
0	 6.333350000014583e+000	 6.866680000008065e+000	 1.010035109346815e+001
0	 6.333350000014582e+000	 6.933340000004131e+000	 1.009690730682400e+001
0	 6.333350000014583e+000	 7.000000000000000e+000	 1.009350287054390e+001
0	 6.333350000014582e+000	 7.066659999995867e+000	 1.009013527310626e+001
0	 6.333350000014583e+000	 7.133319999991935e+000	 1.008680200298952e+001
0	 6.333350000014583e+000	 7.199979999988400e+000	 1.008350054867205e+001
0	 6.333350000014583e+000	 7.266639999985467e+000	 1.008022839863229e+001
0	 6.333350000014582e+000	 7.333299999983334e+000	 1.007698304134861e+001
0	 6.400020000016401e+000	 6.666700000016666e+000	 1.010884139929810e+001
0	 6.400020000016401e+000	 6.733360000014534e+000	 1.010535480630101e+001
0	 6.400020000016399e+000	 6.800020000011600e+000	 1.010191244167361e+001
0	 6.400020000016398e+000	 6.866680000008065e+000	 1.009851181472229e+001
0	 6.400020000016401e+000	 6.933340000004134e+000	 1.009515043475347e+001
0	 6.400020000016398e+000	 6.999999999999998e+000	 1.009182581107355e+001
0	 6.400020000016400e+000	 7.066659999995867e+000	 1.008853545298892e+001
0	 6.400020000016399e+000	 7.133319999991935e+000	 1.008527686980601e+001
0	 6.400020000016401e+000	 7.199979999988401e+000	 1.008204757083120e+001
0	 6.400020000016401e+000	 7.266639999985468e+000	 1.007884506537089e+001
0	 6.400020000016400e+000	 7.333299999983335e+000	 1.007566686273149e+001
0	 6.466690000017615e+000	 6.666700000016666e+000	 1.010667426565921e+001
0	 6.466690000017616e+000	 6.733360000014533e+000	 1.010327925583375e+001
0	 6.466690000017616e+000	 6.800020000011600e+000	 1.009992589914992e+001
0	 6.466690000017616e+000	 6.866680000008067e+000	 1.009661171772893e+001
0	 6.466690000017615e+000	 6.933340000004134e+000	 1.009333423369199e+001
0	 6.466690000017616e+000	 7.000000000000001e+000	 1.009009096916028e+001
0	 6.466690000017614e+000	 7.066659999995867e+000	 1.008687944625503e+001
0	 6.466690000017618e+000	 7.133319999991935e+000	 1.008369718709743e+001
0	 6.466690000017618e+000	 7.199979999988401e+000	 1.008054171380868e+001
0	 6.466690000017615e+000	 7.266639999985467e+000	 1.007741054850997e+001
0	 6.466690000017615e+000	 7.333299999983335e+000	 1.007430121332251e+001
0	 6.533360000018131e+000	 6.666700000016665e+000	 1.010445033355949e+001
0	 6.533360000018131e+000	 6.733360000014533e+000	 1.010114787434159e+001
0	 6.533360000018133e+000	 6.800020000011599e+000	 1.009788458232317e+001
0	 6.533360000018133e+000	 6.866680000008068e+000	 1.009465798442704e+001
0	 6.533360000018132e+000	 6.933340000004133e+000	 1.009146560757598e+001
0	 6.533360000018133e+000	 7.000000000000001e+000	 1.008830497869281e+001
0	 6.533360000018132e+000	 7.066659999995867e+000	 1.008517362470034e+001
0	 6.533360000018132e+000	 7.133319999991934e+000	 1.008206907252138e+001
0	 6.533360000018132e+000	 7.199979999988400e+000	 1.007898884907871e+001
0	 6.533360000018131e+000	 7.266639999985466e+000	 1.007593048129516e+001
0	 6.533360000018132e+000	 7.333299999983335e+000	 1.007289149609353e+001
0	 6.600030000017847e+000	 6.666700000016665e+000	 1.010217766667419e+001
0	 6.600030000017850e+000	 6.733360000014533e+000	 1.009896842363294e+001
0	 6.600030000017847e+000	 6.800020000011597e+000	 1.009579595908966e+001
0	 6.600030000017847e+000	 6.866680000008067e+000	 1.009265779675557e+001
0	 6.600030000017847e+000	 6.933340000004133e+000	 1.008955146034190e+001
0	 6.600030000017847e+000	 6.999999999999998e+000	 1.008647447355986e+001
0	 6.600030000017849e+000	 7.066659999995868e+000	 1.008342436012065e+001
0	 6.600030000017849e+000	 7.133319999991934e+000	 1.008039864373548e+001
0	 6.600030000017849e+000	 7.199979999988401e+000	 1.007739484811559e+001
0	 6.600030000017849e+000	 7.266639999985467e+000	 1.007441049697217e+001
0	 6.600030000017847e+000	 7.333299999983334e+000	 1.007144311401644e+001
0	 6.666700000016666e+000	 6.666700000016667e+000	 1.009986432867861e+001
0	 6.666700000016667e+000	 6.733360000014533e+000	 1.009674866551614e+001
0	 6.666700000016665e+000	 6.800020000011598e+000	 1.009366749734562e+001
0	 6.666700000016666e+000	 6.866680000008067e+000	 1.009061833665349e+001
0	 6.666700000016667e+000	 6.933340000004133e+000	 1.008759869592617e+001
0	 6.666700000016665e+000	 6.999999999999999e+000	 1.008460608765008e+001
0	 6.666700000016667e+000	 7.066659999995868e+000	 1.008163802431167e+001
0	 6.666700000016665e+000	 7.133319999991936e+000	 1.007869201839735e+001
0	 6.666700000016666e+000	 7.199979999988400e+000	 1.007576558239353e+001
0	 6.666700000016666e+000	 7.266639999985467e+000	 1.007285622878666e+001
0	 6.666700000016665e+000	 7.333299999983333e+000	 1.006996147006314e+001
0	 6.000000000000000e+000	 7.333299999983332e+000	 1.008263276854019e+001
0	 6.000000000000001e+000	 7.399969999982152e+000	 1.007913846044689e+001
0	 6.000000000000002e+000	 7.466639999981867e+000	 1.007571234999359e+001
0	 6.000000000000001e+000	 7.533309999982384e+000	 1.007235203116944e+001
0	 6.000000000000000e+000	 7.599979999983600e+000	 1.006905509796360e+001
0	 6.000000000000000e+000	 7.666649999985416e+000	 1.006581914436521e+001
0	 6.000000000000000e+000	 7.733319999987733e+000	 1.006264176436343e+001
0	 5.999999999999998e+000	 7.799989999990449e+000	 1.005952055194742e+001
0	 5.999999999999998e+000	 7.866659999993466e+000	 1.005645310110634e+001
0	 6.000000000000000e+000	 7.933329999996684e+000	 1.005343700582934e+001
0	 6.000000000000000e+000	 8.000000000000000e+000	 1.005046986010560e+001
0	 6.066670000003317e+000	 7.333299999983333e+000	 1.008164498846069e+001
0	 6.066670000003317e+000	 7.399969999982152e+000	 1.007820383572615e+001
0	 6.066670000003316e+000	 7.466639999981865e+000	 1.007482926892669e+001
0	 6.066670000003319e+000	 7.533309999982385e+000	 1.007151880796800e+001
0	 6.066670000003319e+000	 7.599979999983599e+000	 1.006826997275572e+001
0	 6.066670000003317e+000	 7.666649999985416e+000	 1.006508028319553e+001
0	 6.066670000003318e+000	 7.733319999987733e+000	 1.006194725919314e+001
0	 6.066670000003319e+000	 7.799989999990449e+000	 1.005886842065420e+001
0	 6.066670000003318e+000	 7.866659999993468e+000	 1.005584128748439e+001
0	 6.066670000003319e+000	 7.933329999996684e+000	 1.005286337958938e+001
0	 6.066670000003318e+000	 8.000000000000002e+000	 1.004993221687488e+001
0	 6.133340000006531e+000	 7.333299999983332e+000	 1.008058072272989e+001
0	 6.133340000006534e+000	 7.399969999982149e+000	 1.007719552785740e+001
0	 6.133340000006534e+000	 7.466639999981867e+000	 1.007387521880157e+001
0	 6.133340000006530e+000	 7.533309999982381e+000	 1.007061725323125e+001
0	 6.133340000006533e+000	 7.599979999983598e+000	 1.006741908881525e+001
0	 6.133340000006534e+000	 7.666649999985415e+000	 1.006427818322241e+001
0	 6.133340000006534e+000	 7.733319999987733e+000	 1.006119199412158e+001
0	 6.133340000006533e+000	 7.799989999990449e+000	 1.005815797918156e+001
0	 6.133340000006534e+000	 7.866659999993468e+000	 1.005517359607122e+001
0	 6.133340000006535e+000	 7.933329999996683e+000	 1.005223630245935e+001
0	 6.133340000006534e+000	 7.999999999999999e+000	 1.004934355601482e+001
0	 6.200010000009550e+000	 7.333299999983334e+000	 1.007944537431970e+001
0	 6.200010000009547e+000	 7.399969999982147e+000	 1.007611871868757e+001
0	 6.200010000009551e+000	 7.466639999981868e+000	 1.007285517075106e+001
0	 6.200010000009551e+000	 7.533309999982385e+000	 1.006965213778877e+001
0	 6.200010000009549e+000	 7.599979999983599e+000	 1.006650702707930e+001
0	 6.200010000009550e+000	 7.666649999985415e+000	 1.006341724590129e+001
0	 6.200010000009549e+000	 7.733319999987732e+000	 1.006038020153337e+001
0	 6.200010000009550e+000	 7.799989999990451e+000	 1.005739330125416e+001
0	 6.200010000009550e+000	 7.866659999993466e+000	 1.005445395234227e+001
0	 6.200010000009550e+000	 7.933329999996684e+000	 1.005155956207634e+001
0	 6.200010000009550e+000	 8.000000000000000e+000	 1.004870753773498e+001
0	 6.266680000012266e+000	 7.333299999983333e+000	 1.007824434620198e+001
0	 6.266680000012268e+000	 7.399969999982152e+000	 1.007497859006365e+001
0	 6.266680000012267e+000	 7.466639999981866e+000	 1.007177409590802e+001
0	 6.266680000012265e+000	 7.533309999982382e+000	 1.006862823247010e+001
0	 6.266680000012268e+000	 7.599979999983600e+000	 1.006553836848495e+001
0	 6.266680000012267e+000	 7.666649999985416e+000	 1.006250187268763e+001
0	 6.266680000012268e+000	 7.733319999987733e+000	 1.005951611381314e+001
0	 6.266680000012266e+000	 7.799989999990449e+000	 1.005657846059658e+001
0	 6.266680000012265e+000	 7.866659999993466e+000	 1.005368628177299e+001
0	 6.266680000012268e+000	 7.933329999996685e+000	 1.005083694607741e+001
0	 6.266680000012268e+000	 8.000000000000000e+000	 1.004802782224486e+001
0	 6.333350000014582e+000	 7.333299999983334e+000	 1.007698304134861e+001
0	 6.333350000014582e+000	 7.399969999982148e+000	 1.007378032383258e+001
0	 6.333350000014582e+000	 7.466639999981865e+000	 1.007063696540528e+001
0	 6.333350000014583e+000	 7.533309999982384e+000	 1.006755030810482e+001
0	 6.333350000014582e+000	 7.599979999983599e+000	 1.006451769396931e+001
0	 6.333350000014583e+000	 7.666649999985416e+000	 1.006153646503685e+001
0	 6.333350000014583e+000	 7.733319999987733e+000	 1.005860396334553e+001
0	 6.333350000014584e+000	 7.799989999990449e+000	 1.005571753093348e+001
0	 6.333350000014584e+000	 7.866659999993467e+000	 1.005287450983879e+001
0	 6.333350000014583e+000	 7.933329999996684e+000	 1.005007224209960e+001
0	 6.333350000014584e+000	 8.000000000000000e+000	 1.004730806975400e+001
0	 6.400020000016400e+000	 7.333299999983335e+000	 1.007566686273149e+001
0	 6.400020000016399e+000	 7.399969999982150e+000	 1.007252910184132e+001
0	 6.400020000016399e+000	 7.466639999981867e+000	 1.006944875037572e+001
0	 6.400020000016400e+000	 7.533309999982382e+000	 1.006642313552250e+001
0	 6.400020000016401e+000	 7.599979999983601e+000	 1.006344958446946e+001
0	 6.400020000016400e+000	 7.666649999985417e+000	 1.006052542440439e+001
0	 6.400020000016399e+000	 7.733319999987734e+000	 1.005764798251514e+001
0	 6.400020000016400e+000	 7.799989999990449e+000	 1.005481458598944e+001
0	 6.400020000016398e+000	 7.866659999993465e+000	 1.005202256201515e+001
0	 6.400020000016398e+000	 7.933329999996682e+000	 1.004926923778004e+001
0	 6.400020000016399e+000	 8.000000000000000e+000	 1.004655194047193e+001
0	 6.466690000017615e+000	 7.333299999983335e+000	 1.007430121332250e+001
0	 6.466690000017614e+000	 7.399969999982149e+000	 1.007123010593682e+001
0	 6.466690000017614e+000	 7.466639999981864e+000	 1.006821442195215e+001
0	 6.466690000017617e+000	 7.533309999982384e+000	 1.006525148555267e+001
0	 6.466690000017613e+000	 7.599979999983598e+000	 1.006233862092250e+001
0	 6.466690000017616e+000	 7.666649999985416e+000	 1.005947315224576e+001
0	 6.466690000017616e+000	 7.733319999987733e+000	 1.005665240370658e+001
0	 6.466690000017615e+000	 7.799989999990448e+000	 1.005387369948910e+001
0	 6.466690000017616e+000	 7.866659999993468e+000	 1.005113436377746e+001
0	 6.466690000017618e+000	 7.933329999996683e+000	 1.004843172075578e+001
0	 6.466690000017616e+000	 8.000000000000000e+000	 1.004576309460820e+001
0	 6.533360000018132e+000	 7.333299999983335e+000	 1.007289149609352e+001
0	 6.533360000018130e+000	 7.399969999982148e+000	 1.006988851796602e+001
0	 6.533360000018130e+000	 7.466639999981864e+000	 1.006693895126745e+001
0	 6.533360000018131e+000	 7.533309999982383e+000	 1.006404012902491e+001
0	 6.533360000018132e+000	 7.599979999983599e+000	 1.006118938426553e+001
0	 6.533360000018132e+000	 7.666649999985417e+000	 1.005838405001636e+001
0	 6.533360000018132e+000	 7.733319999987733e+000	 1.005562145930451e+001
0	 6.533360000018131e+000	 7.799989999990448e+000	 1.005289894515708e+001
0	 6.533360000018131e+000	 7.866659999993466e+000	 1.005021384060119e+001
0	 6.533360000018132e+000	 7.933329999996684e+000	 1.004756347866389e+001
0	 6.533360000018131e+000	 7.999999999999999e+000	 1.004494519237232e+001
0	 6.600030000017847e+000	 7.333299999983334e+000	 1.007144311401644e+001
0	 6.600030000017848e+000	 7.399969999982151e+000	 1.006850951977590e+001
0	 6.600030000017848e+000	 7.466639999981866e+000	 1.006562730945445e+001
0	 6.600030000017849e+000	 7.533309999982385e+000	 1.006279383676879e+001
0	 6.600030000017847e+000	 7.599979999983599e+000	 1.006000645543562e+001
0	 6.600030000017847e+000	 7.666649999985415e+000	 1.005726251917165e+001
0	 6.600030000017848e+000	 7.733319999987733e+000	 1.005455938169353e+001
0	 6.600030000017847e+000	 7.799989999990449e+000	 1.005189439671800e+001
0	 6.600030000017847e+000	 7.866659999993465e+000	 1.004926491796174e+001
0	 6.600030000017846e+000	 7.933329999996682e+000	 1.004666829914146e+001
0	 6.600030000017848e+000	 8.000000000000000e+000	 1.004410189397383e+001
0	 6.666700000016665e+000	 7.333299999983333e+000	 1.006996147006314e+001
0	 6.666700000016665e+000	 7.399969999982150e+000	 1.006709829321341e+001
0	 6.666700000016668e+000	 7.466639999981867e+000	 1.006428446764601e+001
0	 6.666700000016667e+000	 7.533309999982384e+000	 1.006151737961386e+001
0	 6.666700000016665e+000	 7.599979999983599e+000	 1.005879441536991e+001
0	 6.666700000016666e+000	 7.666649999985416e+000	 1.005611296116707e+001
0	 6.666700000016665e+000	 7.733319999987731e+000	 1.005347040325828e+001
0	 6.666700000016665e+000	 7.799989999990450e+000	 1.005086412789649e+001
0	 6.666700000016665e+000	 7.866659999993465e+000	 1.004829152133459e+001
0	 6.666700000016666e+000	 7.933329999996684e+000	 1.004574996982553e+001
0	 6.666700000016668e+000	 8.000000000000000e+000	 1.004323685962225e+001
0	 6.000000000000000e+000	 8.000000000000000e+000	 1.005046986010560e+001
0	 5.999999999999999e+000	 8.066670000003319e+000	 1.004756772753977e+001
0	 6.000000000000001e+000	 8.133340000006534e+000	 1.004474614379992e+001
0	 5.999999999999998e+000	 8.200010000009549e+000	 1.004200191097029e+001
0	 6.000000000000000e+000	 8.266680000012267e+000	 1.003933183113514e+001
0	 6.000000000000001e+000	 8.333350000014583e+000	 1.003673270637869e+001
0	 6.000000000000000e+000	 8.400020000016401e+000	 1.003420133878522e+001
0	 6.000000000000000e+000	 8.466690000017616e+000	 1.003173453043895e+001
0	 6.000000000000000e+000	 8.533360000018133e+000	 1.002932908342415e+001
0	 5.999999999999998e+000	 8.600030000017849e+000	 1.002698179982508e+001
0	 6.000000000000000e+000	 8.666700000016666e+000	 1.002468948172595e+001
0	 6.066670000003318e+000	 8.000000000000002e+000	 1.004993221687488e+001
0	 6.066670000003318e+000	 8.066670000003317e+000	 1.004706424368662e+001
0	 6.066670000003315e+000	 8.133340000006532e+000	 1.004427544590568e+001
0	 6.066670000003318e+000	 8.200010000009552e+000	 1.004156265574079e+001
0	 6.066670000003316e+000	 8.266680000012267e+000	 1.003892270540070e+001
0	 6.066670000003314e+000	 8.333350000014582e+000	 1.003635242709409e+001
0	 6.066670000003317e+000	 8.400020000016399e+000	 1.003384865302970e+001
0	 6.066670000003319e+000	 8.466690000017620e+000	 1.003140821541623e+001
0	 6.066670000003316e+000	 8.533360000018133e+000	 1.002902794646243e+001
0	 6.066670000003317e+000	 8.600030000017849e+000	 1.002670467837700e+001
0	 6.066670000003318e+000	 8.666700000016668e+000	 1.002443524336869e+001
0	 6.133340000006534e+000	 7.999999999999999e+000	 1.004934355601482e+001
0	 6.133340000006533e+000	 8.066670000003315e+000	 1.004651219380815e+001
0	 6.133340000006532e+000	 8.133340000006534e+000	 1.004375865474754e+001
0	 6.133340000006533e+000	 8.200010000009549e+000	 1.004107979925836e+001
0	 6.133340000006532e+000	 8.266680000012268e+000	 1.003847248776599e+001
0	 6.133340000006535e+000	 8.333350000014583e+000	 1.003593358069580e+001
0	 6.133340000006534e+000	 8.400020000016401e+000	 1.003345993847319e+001
0	 6.133340000006533e+000	 8.466690000017618e+000	 1.003104842152353e+001
0	 6.133340000006533e+000	 8.533360000018135e+000	 1.002869589027219e+001
0	 6.133340000006536e+000	 8.600030000017849e+000	 1.002639920514455e+001
0	 6.133340000006533e+000	 8.666700000016665e+000	 1.002415522656602e+001
0	 6.200010000009550e+000	 8.000000000000000e+000	 1.004870753773498e+001
0	 6.200010000009549e+000	 8.066670000003319e+000	 1.004591511203439e+001
0	 6.200010000009550e+000	 8.133340000006536e+000	 1.004319917066113e+001
0	 6.200010000009550e+000	 8.200010000009550e+000	 1.004055660034943e+001
0	 6.200010000009550e+000	 8.266680000012267e+000	 1.003798428783351e+001
0	 6.200010000009550e+000	 8.333350000014583e+000	 1.003547911984757e+001
0	 6.200010000009549e+000	 8.400020000016403e+000	 1.003303798312585e+001
0	 6.200010000009550e+000	 8.466690000017618e+000	 1.003065776440256e+001
0	 6.200010000009550e+000	 8.533360000018137e+000	 1.002833535041193e+001
0	 6.200010000009551e+000	 8.600030000017851e+000	 1.002606762788817e+001
0	 6.200010000009551e+000	 8.666700000016666e+000	 1.002385148356551e+001
0	 6.266680000012268e+000	 8.000000000000000e+000	 1.004802782224486e+001
0	 6.266680000012268e+000	 8.066670000003315e+000	 1.004527653249530e+001
0	 6.266680000012265e+000	 8.133340000006532e+000	 1.004260039398210e+001
0	 6.266680000012265e+000	 8.200010000009550e+000	 1.003999631784049e+001
0	 6.266680000012267e+000	 8.266680000012268e+000	 1.003746121520575e+001
0	 6.266680000012267e+000	 8.333350000014582e+000	 1.003499199721308e+001
0	 6.266680000012267e+000	 8.400020000016401e+000	 1.003258557499775e+001
0	 6.266680000012266e+000	 8.466690000017616e+000	 1.003023885969501e+001
0	 6.266680000012268e+000	 8.533360000018135e+000	 1.002794876244009e+001
0	 6.266680000012266e+000	 8.600030000017849e+000	 1.002571219436825e+001
0	 6.266680000012265e+000	 8.666700000016666e+000	 1.002352606661476e+001
0	 6.333350000014584e+000	 8.000000000000000e+000	 1.004730806975400e+001
0	 6.333350000014583e+000	 8.066670000003317e+000	 1.004459998932089e+001
0	 6.333350000014583e+000	 8.133340000006534e+000	 1.004196572504610e+001
0	 6.333350000014583e+000	 8.200010000009552e+000	 1.003940221055805e+001
0	 6.333350000014582e+000	 8.266680000012268e+000	 1.003690637948522e+001
0	 6.333350000014583e+000	 8.333350000014583e+000	 1.003447516545605e+001
0	 6.333350000014582e+000	 8.400020000016401e+000	 1.003210550209901e+001
0	 6.333350000014583e+000	 8.466690000017620e+000	 1.002979432304255e+001
0	 6.333350000014582e+000	 8.533360000018133e+000	 1.002753856191516e+001
0	 6.333350000014584e+000	 8.600030000017851e+000	 1.002533515234526e+001
0	 6.333350000014583e+000	 8.666700000016668e+000	 1.002318102796134e+001
0	 6.400020000016399e+000	 8.000000000000000e+000	 1.004655194047193e+001
0	 6.400020000016400e+000	 8.066670000003319e+000	 1.004388901664116e+001
0	 6.400020000016399e+000	 8.133340000006534e+000	 1.004129856418876e+001
0	 6.400020000016399e+000	 8.200010000009550e+000	 1.003877753732856e+001
0	 6.400020000016399e+000	 8.266680000012267e+000	 1.003632289027443e+001
0	 6.400020000016397e+000	 8.333350000014582e+000	 1.003393157724021e+001
0	 6.400020000016399e+000	 8.400020000016399e+000	 1.003160055243977e+001
0	 6.400020000016399e+000	 8.466690000017618e+000	 1.002932677008696e+001
0	 6.400020000016397e+000	 8.533360000018133e+000	 1.002710718439562e+001
0	 6.400020000016400e+000	 8.600030000017851e+000	 1.002493874957962e+001
0	 6.400020000016399e+000	 8.666700000016666e+000	 1.002281841985283e+001
0	 6.466690000017616e+000	 8.000000000000000e+000	 1.004576309460820e+001
0	 6.466690000017618e+000	 8.066670000003319e+000	 1.004314714858610e+001
0	 6.466690000017615e+000	 8.133340000006532e+000	 1.004060231174572e+001
0	 6.466690000017614e+000	 8.200010000009552e+000	 1.003812555697851e+001
0	 6.466690000017617e+000	 8.266680000012268e+000	 1.003571385717588e+001
0	 6.466690000017615e+000	 8.333350000014587e+000	 1.003336418522926e+001
0	 6.466690000017616e+000	 8.400020000016401e+000	 1.003107351403012e+001
0	 6.466690000017616e+000	 8.466690000017618e+000	 1.002883881646986e+001
0	 6.466690000017614e+000	 8.533360000018133e+000	 1.002665706543992e+001
0	 6.466690000017617e+000	 8.600030000017853e+000	 1.002452523383177e+001
0	 6.466690000017617e+000	 8.666700000016666e+000	 1.002244029453680e+001
0	 6.533360000018131e+000	 7.999999999999999e+000	 1.004494519237232e+001
0	 6.533360000018131e+000	 8.066670000003317e+000	 1.004237791928570e+001
0	 6.533360000018131e+000	 8.133340000006534e+000	 1.003988036805264e+001
0	 6.533360000018131e+000	 8.200010000009549e+000	 1.003744952833437e+001
0	 6.533360000018132e+000	 8.266680000012265e+000	 1.003508238979208e+001
0	 6.533360000018132e+000	 8.333350000014585e+000	 1.003277594208694e+001
0	 6.533360000018132e+000	 8.400020000016399e+000	 1.003052717488019e+001
0	 6.533360000018133e+000	 8.466690000017616e+000	 1.002833307783300e+001
0	 6.533360000018130e+000	 8.533360000018133e+000	 1.002619064060657e+001
0	 6.533360000018130e+000	 8.600030000017849e+000	 1.002409685286212e+001
0	 6.533360000018133e+000	 8.666700000016665e+000	 1.002204870426085e+001
0	 6.600030000017848e+000	 8.000000000000000e+000	 1.004410189397383e+001
0	 6.600030000017848e+000	 8.066670000003317e+000	 1.004158486286995e+001
0	 6.600030000017850e+000	 8.133340000006534e+000	 1.003913613344517e+001
0	 6.600030000017847e+000	 8.200010000009550e+000	 1.003675271022265e+001
0	 6.600030000017848e+000	 8.266680000012267e+000	 1.003443159772553e+001
0	 6.600030000017848e+000	 8.333350000014583e+000	 1.003216980047696e+001
0	 6.600030000017848e+000	 8.400020000016399e+000	 1.002996432300007e+001
0	 6.600030000017849e+000	 8.466690000017620e+000	 1.002781216981804e+001
0	 6.600030000017848e+000	 8.533360000018135e+000	 1.002571034545400e+001
0	 6.600030000017847e+000	 8.600030000017849e+000	 1.002365585443114e+001
0	 6.600030000017849e+000	 8.666700000016666e+000	 1.002164570127257e+001
0	 6.666700000016668e+000	 8.000000000000000e+000	 1.004323685962225e+001
0	 6.666700000016666e+000	 8.066670000003317e+000	 1.004077151346884e+001
0	 6.666700000016665e+000	 8.133340000006532e+000	 1.003837300825893e+001
0	 6.666700000016666e+000	 8.200010000009550e+000	 1.003603836146979e+001
0	 6.666700000016665e+000	 8.266680000012267e+000	 1.003376459057873e+001
0	 6.666700000016666e+000	 8.333350000014583e+000	 1.003154871306299e+001
0	 6.666700000016667e+000	 8.400020000016401e+000	 1.002938774639990e+001
0	 6.666700000016667e+000	 8.466690000017618e+000	 1.002727870806672e+001
0	 6.666700000016665e+000	 8.533360000018133e+000	 1.002521861554073e+001
0	 6.666700000016666e+000	 8.600030000017851e+000	 1.002320448629925e+001
0	 6.666700000016666e+000	 8.666700000016666e+000	 1.002123333781951e+001
0	 6.000000000000000e+000	 8.666700000016666e+000	 1.002468948172595e+001
0	 6.000000000000000e+000	 8.733360002791903e+000	 1.002247919376899e+001
0	 6.000000000000000e+000	 8.800020022230555e+000	 1.002037650953118e+001
0	 6.000000000000000e+000	 8.866680074997040e+000	 1.001837701387960e+001
0	 6.000000000000000e+000	 8.933340177755781e+000	 1.001647629138278e+001
0	 6.000000000000000e+000	 9.000000347171181e+000	 1.001466992631068e+001
0	 6.000000000000001e+000	 9.066660599907667e+000	 1.001295350263465e+001
0	 5.999999999999998e+000	 9.133320952629655e+000	 1.001132260402751e+001
0	 6.000000000000000e+000	 9.199981422001558e+000	 1.000977281386344e+001
0	 5.999999999999998e+000	 9.266642024687796e+000	 1.000829971521807e+001
0	 6.000000000000000e+000	 9.333302777352783e+000	 1.000689889086847e+001
0	 6.066670000003318e+000	 8.666700000016668e+000	 1.002443524336869e+001
0	 6.066670000003316e+000	 8.733360002791903e+000	 1.002224689770789e+001
0	 6.066670000003314e+000	 8.800020022230555e+000	 1.002016539160785e+001
0	 6.066670000003318e+000	 8.866680074997040e+000	 1.001818630752744e+001
0	 6.066670000003318e+000	 8.933340177755778e+000	 1.001630522762941e+001
0	 6.066670000003319e+000	 9.000000347171183e+000	 1.001451773378044e+001
0	 6.066670000003319e+000	 9.066660599907669e+000	 1.001281940755104e+001
0	 6.066670000003317e+000	 9.133320952629656e+000	 1.001120583021566e+001
0	 6.066670000003318e+000	 9.199981422001562e+000	 1.000967258275259e+001
0	 6.066670000003316e+000	 9.266642024687796e+000	 1.000821524584402e+001
0	 6.066670000003316e+000	 9.333302777352783e+000	 1.000682939987601e+001
0	 6.133340000006533e+000	 8.666700000016665e+000	 1.002415522656601e+001
0	 6.133340000006531e+000	 8.733360002791903e+000	 1.002199128813490e+001
0	 6.133340000006533e+000	 8.800020022230553e+000	 1.001993321132482e+001
0	 6.133340000006534e+000	 8.866680074997040e+000	 1.001797658650652e+001
0	 6.133340000006534e+000	 8.933340177755776e+000	 1.001611700375756e+001
0	 6.133340000006535e+000	 9.000000347171183e+000	 1.001435005286215e+001
0	 6.133340000006532e+000	 9.066660599907666e+000	 1.001267132331136e+001
0	 6.133340000006534e+000	 9.133320952629656e+000	 1.001107640430291e+001
0	 6.133340000006534e+000	 9.199981422001560e+000	 1.000956088474126e+001
0	 6.133340000006532e+000	 9.266642024687798e+000	 1.000812035323770e+001
0	 6.133340000006533e+000	 9.333302777352783e+000	 1.000675039811020e+001
0	 6.200010000009551e+000	 8.666700000016666e+000	 1.002385148356551e+001
0	 6.200010000009551e+000	 8.733360002791905e+000	 1.002171422905942e+001
0	 6.200010000009549e+000	 8.800020022230555e+000	 1.001968166665776e+001
0	 6.200010000009550e+000	 8.866680074997042e+000	 1.001774940496342e+001
0	 6.200010000009550e+000	 8.933340177755779e+000	 1.001591305228922e+001
0	 6.200010000009550e+000	 9.000000347171179e+000	 1.001416821665801e+001
0	 6.200010000009551e+000	 9.066660599907669e+000	 1.001251050580253e+001
0	 6.200010000009549e+000	 9.133320952629655e+000	 1.001093552716557e+001
0	 6.200010000009550e+000	 9.199981422001558e+000	 1.000943888789978e+001
0	 6.200010000009550e+000	 9.266642024687799e+000	 1.000801619486789e+001
0	 6.200010000009550e+000	 9.333302777352781e+000	 1.000666305464250e+001
0	 6.266680000012265e+000	 8.666700000016666e+000	 1.002352606661476e+001
0	 6.266680000012266e+000	 8.733360002791901e+000	 1.002141758449088e+001
0	 6.266680000012265e+000	 8.800020022230552e+000	 1.001941245558241e+001
0	 6.266680000012267e+000	 8.866680074997042e+000	 1.001750631704467e+001
0	 6.266680000012268e+000	 8.933340177755781e+000	 1.001569480574647e+001
0	 6.266680000012267e+000	 9.000000347171183e+000	 1.001397355827014e+001
0	 6.266680000012264e+000	 9.066660599907666e+000	 1.001233821091154e+001
0	 6.266680000012266e+000	 9.133320952629656e+000	 1.001078439968002e+001
0	 6.266680000012265e+000	 9.199981422001558e+000	 1.000930776029848e+001
0	 6.266680000012268e+000	 9.266642024687798e+000	 1.000790392820329e+001
0	 6.266680000012267e+000	 9.333302777352783e+000	 1.000656853854435e+001
0	 6.333350000014583e+000	 8.666700000016668e+000	 1.002318102796134e+001
0	 6.333350000014584e+000	 8.733360002791903e+000	 1.002110321843868e+001
0	 6.333350000014582e+000	 8.800020022230555e+000	 1.001912727607447e+001
0	 6.333350000014583e+000	 8.866680074997040e+000	 1.001724887689685e+001
0	 6.333350000014582e+000	 8.933340177755781e+000	 1.001546369665129e+001
0	 6.333350000014583e+000	 9.000000347171183e+000	 1.001376741080071e+001
0	 6.333350000014582e+000	 9.066660599907669e+000	 1.001215569452528e+001
0	 6.333350000014582e+000	 9.133320952629653e+000	 1.001062422272261e+001
0	 6.333350000014582e+000	 9.199981422001558e+000	 1.000916867000763e+001
0	 6.333350000014584e+000	 9.266642024687798e+000	 1.000778471071265e+001
0	 6.333350000014585e+000	 9.333302777352783e+000	 1.000646801888730e+001
0	 6.400020000016399e+000	 8.666700000016666e+000	 1.002281841985283e+001
0	 6.400020000016399e+000	 8.733360002791903e+000	 1.002077299491223e+001
0	 6.400020000016400e+000	 8.800020022230557e+000	 1.001882782610962e+001
0	 6.400020000016401e+000	 8.866680074997042e+000	 1.001697863866647e+001
0	 6.400020000016399e+000	 8.933340177755779e+000	 1.001522115752574e+001
0	 6.400020000016397e+000	 9.000000347171179e+000	 1.001355110735186e+001
0	 6.400020000016400e+000	 9.066660599907669e+000	 1.001196421253071e+001
0	 6.400020000016400e+000	 9.133320952629656e+000	 1.001045619716969e+001
0	 6.400020000016399e+000	 9.199981422001558e+000	 1.000902278509758e+001
0	 6.400020000016398e+000	 9.266642024687796e+000	 1.000765969986471e+001
0	 6.400020000016399e+000	 9.333302777352783e+000	 1.000636266474278e+001
0	 6.466690000017617e+000	 8.666700000016666e+000	 1.002244029453680e+001
0	 6.466690000017616e+000	 8.733360002791899e+000	 1.002042877792097e+001
0	 6.466690000017617e+000	 8.800020022230559e+000	 1.001851580366361e+001
0	 6.466690000017616e+000	 8.866680074997042e+000	 1.001669715650013e+001
0	 6.466690000017613e+000	 8.933340177755776e+000	 1.001496862089183e+001
0	 6.466690000017617e+000	 9.000000347171181e+000	 1.001332598102575e+001
0	 6.466690000017615e+000	 9.066660599907673e+000	 1.001176502081479e+001
0	 6.466690000017614e+000	 9.133320952629656e+000	 1.001028152389761e+001
0	 6.466690000017616e+000	 9.199981422001557e+000	 1.000887127363865e+001
0	 6.466690000017616e+000	 9.266642024687796e+000	 1.000753005312821e+001
0	 6.466690000017616e+000	 9.333302777352783e+000	 1.000625364518231e+001
0	 6.533360000018133e+000	 8.666700000016665e+000	 1.002204870426085e+001
0	 6.533360000018132e+000	 8.733360002791901e+000	 1.002007243147430e+001
0	 6.533360000018132e+000	 8.800020022230555e+000	 1.001819290671209e+001
0	 6.533360000018132e+000	 8.866680074997044e+000	 1.001640598454436e+001
0	 6.533360000018130e+000	 8.933340177755779e+000	 1.001470751927159e+001
0	 6.533360000018133e+000	 9.000000347171184e+000	 1.001309336492458e+001
0	 6.533360000018130e+000	 9.066660599907664e+000	 1.001155937526447e+001
0	 6.533360000018132e+000	 9.133320952629655e+000	 1.001010140378271e+001
0	 6.533360000018130e+000	 9.199981422001557e+000	 1.000871530370113e+001
0	 6.533360000018131e+000	 9.266642024687796e+000	 1.000739692797187e+001
0	 6.533360000018131e+000	 9.333302777352781e+000	 1.000614212927733e+001
0	 6.600030000017849e+000	 8.666700000016666e+000	 1.002164570127256e+001
0	 6.600030000017848e+000	 8.733360002791901e+000	 1.001970581958164e+001
0	 6.600030000017847e+000	 8.800020022230555e+000	 1.001786083323081e+001
0	 6.600030000017849e+000	 8.866680074997040e+000	 1.001610667694573e+001
0	 6.600030000017848e+000	 8.933340177755778e+000	 1.001443928518705e+001
0	 6.600030000017850e+000	 9.000000347171184e+000	 1.001285459215045e+001
0	 6.600030000017849e+000	 9.066660599907669e+000	 1.001134853176666e+001
0	 6.600030000017847e+000	 9.133320952629655e+000	 1.000991703770136e+001
0	 6.600030000017847e+000	 9.199981422001558e+000	 1.000855604335538e+001
0	 6.600030000017847e+000	 9.266642024687796e+000	 1.000726148186444e+001
0	 6.600030000017848e+000	 9.333302777352783e+000	 1.000602928609937e+001
0	 6.666700000016666e+000	 8.666700000016666e+000	 1.002123333781951e+001
0	 6.666700000016665e+000	 8.733360002791899e+000	 1.001933080625237e+001
0	 6.666700000016665e+000	 8.800020022230555e+000	 1.001752128119546e+001
0	 6.666700000016666e+000	 8.866680074997040e+000	 1.001580078785078e+001
0	 6.666700000016667e+000	 8.933340177755779e+000	 1.001416535116023e+001
0	 6.666700000016666e+000	 9.000000347171179e+000	 1.001261099580554e+001
0	 6.666700000016667e+000	 9.066660599907669e+000	 1.001113374620830e+001
0	 6.666700000016666e+000	 9.133320952629658e+000	 1.000972962652994e+001
0	 6.666700000016665e+000	 9.199981422001558e+000	 1.000839466067169e+001
0	 6.666700000016667e+000	 9.266642024687796e+000	 1.000712487227467e+001
0	 6.666700000016665e+000	 9.333302777352781e+000	 1.000591628471985e+001
0	 6.000000000000000e+000	 9.333302777352783e+000	 1.000689889086847e+001
0	 6.000000000000002e+000	 9.399973674588175e+000	 1.000560867799365e+001
0	 5.999999999999998e+000	 9.466644621844619e+000	 1.000446634630436e+001
0	 6.000000000000001e+000	 9.533315502450000e+000	 1.000346526456802e+001
0	 6.000000000000001e+000	 9.599986199732197e+000	 1.000259880455225e+001
0	 6.000000000000001e+000	 9.666656597019093e+000	 1.000186034102488e+001
0	 6.000000000000002e+000	 9.733326577638577e+000	 1.000124325175384e+001
0	 6.000000000000000e+000	 9.799996024918523e+000	 1.000074091750732e+001
0	 6.000000000000000e+000	 9.866664822186824e+000	 1.000034672205396e+001
0	 6.000000000000000e+000	 9.933332852771352e+000	 1.000005405216306e+001
0	 6.000000000000000e+000	 1.000000000000000e+001	 9.999856297605041e+000
0	 6.066670000003316e+000	 9.333302777352783e+000	 1.000682939987601e+001
0	 6.066670000003318e+000	 9.399973674588177e+000	 1.000555279090955e+001
0	 6.066670000003318e+000	 9.466644621844623e+000	 1.000442223144018e+001
0	 6.066670000003317e+000	 9.533315502450000e+000	 1.000343129524218e+001
0	 6.066670000003315e+000	 9.599986199732195e+000	 1.000257355905963e+001
0	 6.066670000003318e+000	 9.666656597019097e+000	 1.000184260260633e+001
0	 6.066670000003316e+000	 9.733326577638573e+000	 1.000123200856592e+001
0	 6.066670000003315e+000	 9.799996024918524e+000	 1.000073536259192e+001
0	 6.066670000003316e+000	 9.866664822186820e+000	 1.000034625330787e+001
0	 6.066670000003318e+000	 9.933332852771354e+000	 1.000005827230772e+001
0	 6.066670000003317e+000	 1.000000000000000e+001	 9.999865014156002e+000
0	 6.133340000006533e+000	 9.333302777352783e+000	 1.000675039811020e+001
0	 6.133340000006534e+000	 9.399973674588177e+000	 1.000548823968065e+001
0	 6.133340000006533e+000	 9.466644621844623e+000	 1.000437028406017e+001
0	 6.133340000006535e+000	 9.533315502450003e+000	 1.000339029891200e+001
0	 6.133340000006533e+000	 9.599986199732195e+000	 1.000254205483729e+001
0	 6.133340000006532e+000	 9.666656597019093e+000	 1.000181932537500e+001
0	 6.133340000006534e+000	 9.733326577638575e+000	 1.000121588700201e+001
0	 6.133340000006531e+000	 9.799996024918521e+000	 1.000072551913311e+001
0	 6.133340000006532e+000	 9.866664822186820e+000	 1.000034200412141e+001
0	 6.133340000006532e+000	 9.933332852771351e+000	 1.000005912725816e+001
0	 6.133340000006534e+000	 1.000000000000000e+001	 9.999870676773709e+000
0	 6.200010000009550e+000	 9.333302777352781e+000	 1.000666305464249e+001
0	 6.200010000009551e+000	 9.399973674588177e+000	 1.000541621125031e+001
0	 6.200010000009549e+000	 9.466644621844621e+000	 1.000431169930689e+001
0	 6.200010000009549e+000	 9.533315502450000e+000	 1.000334346924669e+001
0	 6.200010000009550e+000	 9.599986199732197e+000	 1.000250547440843e+001
0	 6.200010000009551e+000	 9.666656597019095e+000	 1.000179167103519e+001
0	 6.200010000009550e+000	 9.733326577638575e+000	 1.000119601827440e+001
0	 6.200010000009550e+000	 9.799996024918523e+000	 1.000071247817783e+001
0	 6.200010000009550e+000	 9.866664822186822e+000	 1.000033501570193e+001
0	 6.200010000009550e+000	 9.933332852771352e+000	 1.000005759870795e+001
0	 6.200010000009550e+000	 1.000000000000000e+001	 9.999874197962452e+000
0	 6.266680000012267e+000	 9.333302777352783e+000	 1.000656853854435e+001
0	 6.266680000012266e+000	 9.399973674588173e+000	 1.000533789256192e+001
0	 6.266680000012268e+000	 9.466644621844623e+000	 1.000424767232300e+001
0	 6.266680000012266e+000	 9.533315502450000e+000	 1.000329199991545e+001
0	 6.266680000012265e+000	 9.599986199732197e+000	 1.000246500029624e+001
0	 6.266680000012267e+000	 9.666656597019092e+000	 1.000176080129121e+001
0	 6.266680000012268e+000	 9.733326577638573e+000	 1.000117353359537e+001
0	 6.266680000012267e+000	 9.799996024918524e+000	 1.000069733077273e+001
0	 6.266680000012265e+000	 9.866664822186824e+000	 1.000032632925680e+001
0	 6.266680000012268e+000	 9.933332852771356e+000	 1.000005466835046e+001
0	 6.266680000012268e+000	 1.000000000000000e+001	 9.999876490226685e+000
0	 6.333350000014585e+000	 9.333302777352783e+000	 1.000646801888730e+001
0	 6.333350000014582e+000	 9.399973674588177e+000	 1.000525447055885e+001
0	 6.333350000014581e+000	 9.466644621844619e+000	 1.000417939825105e+001
0	 6.333350000014582e+000	 9.533315502449998e+000	 1.000323708458757e+001
0	 6.333350000014584e+000	 9.599986199732195e+000	 1.000242181502385e+001
0	 6.333350000014583e+000	 9.666656597019095e+000	 1.000172787784732e+001
0	 6.333350000014583e+000	 9.733326577638575e+000	 1.000114956417720e+001
0	 6.333350000014583e+000	 9.799996024918524e+000	 1.000068116796479e+001
0	 6.333350000014582e+000	 9.866664822186822e+000	 1.000031698599352e+001
0	 6.333350000014581e+000	 9.933332852771352e+000	 1.000005131787927e+001
0	 6.333350000014583e+000	 1.000000000000000e+001	 9.999878466070774e+000
0	 6.400020000016399e+000	 9.333302777352783e+000	 1.000636266474278e+001
0	 6.400020000016398e+000	 9.399973674588177e+000	 1.000516713218445e+001
0	 6.400020000016398e+000	 9.466644621844623e+000	 1.000410807223369e+001
0	 6.400020000016399e+000	 9.533315502449998e+000	 1.000317991693222e+001
0	 6.400020000016401e+000	 9.599986199732197e+000	 1.000237710111451e+001
0	 6.400020000016398e+000	 9.666656597019092e+000	 1.000169406240781e+001
0	 6.400020000016398e+000	 9.733326577638573e+000	 1.000112524123217e+001
0	 6.400020000016400e+000	 9.799996024918523e+000	 1.000066508080068e+001
0	 6.400020000016398e+000	 9.866664822186820e+000	 1.000030802711938e+001
0	 6.400020000016398e+000	 9.933332852771351e+000	 1.000004852898778e+001
0	 6.400020000016400e+000	 1.000000000000000e+001	 9.999881037999094e+000
0	 6.466690000017616e+000	 9.333302777352783e+000	 1.000625364518231e+001
0	 6.466690000017616e+000	 9.399973674588178e+000	 1.000507706438211e+001
0	 6.466690000017616e+000	 9.466644621844623e+000	 1.000403488941352e+001
0	 6.466690000017616e+000	 9.533315502450002e+000	 1.000312169061867e+001
0	 6.466690000017615e+000	 9.599986199732195e+000	 1.000233204109133e+001
0	 6.466690000017615e+000	 9.666656597019095e+000	 1.000166051667692e+001
0	 6.466690000017617e+000	 9.733326577638577e+000	 1.000110169597260e+001
0	 6.466690000017616e+000	 9.799996024918526e+000	 1.000065016032725e+001
0	 6.466690000017615e+000	 9.866664822186818e+000	 1.000030049384181e+001
0	 6.466690000017617e+000	 9.933332852771354e+000	 1.000004728336945e+001
0	 6.466690000017615e+000	 1.000000000000000e+001	 9.999885118515925e+000
0	 6.533360000018131e+000	 9.333302777352781e+000	 1.000614212927733e+001
0	 6.533360000018132e+000	 9.399973674588177e+000	 1.000498545409520e+001
0	 6.533360000018130e+000	 9.466644621844619e+000	 1.000396104493317e+001
0	 6.533360000018132e+000	 9.533315502450000e+000	 1.000306359931617e+001
0	 6.533360000018130e+000	 9.599986199732195e+000	 1.000228781747755e+001
0	 6.533360000018132e+000	 9.666656597019093e+000	 1.000162840235902e+001
0	 6.533360000018133e+000	 9.733326577638575e+000	 1.000108005961075e+001
0	 6.533360000018131e+000	 9.799996024918521e+000	 1.000063749759138e+001
0	 6.533360000018132e+000	 9.866664822186822e+000	 1.000029542736832e+001
0	 6.533360000018130e+000	 9.933332852771352e+000	 1.000004856271787e+001
0	 6.533360000018132e+000	 1.000000000000000e+001	 9.999891620125773e+000
0	 6.600030000017848e+000	 9.333302777352783e+000	 1.000602928609937e+001
0	 6.600030000017847e+000	 9.399973674588177e+000	 1.000489348826709e+001
0	 6.600030000017848e+000	 9.466644621844621e+000	 1.000388773393519e+001
0	 6.600030000017849e+000	 9.533315502450003e+000	 1.000300683669390e+001
0	 6.600030000017847e+000	 9.599986199732198e+000	 1.000224561279628e+001
0	 6.600030000017849e+000	 9.666656597019093e+000	 1.000159888115833e+001
0	 6.600030000017850e+000	 9.733326577638577e+000	 1.000106146335886e+001
0	 6.600030000017848e+000	 9.799996024918523e+000	 1.000062818363976e+001
0	 6.600030000017848e+000	 9.866664822186824e+000	 1.000029386890611e+001
0	 6.600030000017847e+000	 9.933332852771352e+000	 1.000005334872643e+001
0	 6.600030000017848e+000	 1.000000000000000e+001	 9.999901455333008e+000
0	 6.666700000016665e+000	 9.333302777352781e+000	 1.000591628471985e+001
0	 6.666700000016666e+000	 9.399973674588177e+000	 1.000480235384116e+001
0	 6.666700000016665e+000	 9.466644621844619e+000	 1.000381615156224e+001
0	 6.666700000016667e+000	 9.533315502449998e+000	 1.000295259642114e+001
0	 6.666700000016666e+000	 9.599986199732198e+000	 1.000220660957077e+001
0	 6.666700000016665e+000	 9.666656597019093e+000	 1.000157311477915e+001
0	 6.666700000016666e+000	 9.733326577638575e+000	 1.000104703842929e+001
0	 6.666700000016666e+000	 9.799996024918521e+000	 1.000062330951935e+001
0	 6.666700000016666e+000	 9.866664822186822e+000	 1.000029685966277e+001
0	 6.666700000016665e+000	 9.933332852771352e+000	 1.000006262308858e+001
0	 6.666700000016666e+000	 1.000000000000000e+001	 9.999915536641780e+000
0	 6.666700000016666e+000	 0.000000000000000e+000	 1.012244484400990e+001
0	 6.666700000016668e+000	 6.666714722864757e-002	 1.012214313184599e+001
0	 6.666700000016666e+000	 1.333351778131790e-001	 1.012208788560446e+001
0	 6.666700000016665e+000	 2.000039750814772e-001	 1.012227057125122e+001
0	 6.666700000016667e+000	 2.666734223614256e-001	 1.012268265895136e+001
0	 6.666700000016667e+000	 3.333434029809069e-001	 1.012331562306871e+001
0	 6.666700000016666e+000	 4.000138002678044e-001	 1.012416094216562e+001
0	 6.666700000016665e+000	 4.666844975500010e-001	 1.012521009900280e+001
0	 6.666700000016668e+000	 5.333553781553803e-001	 1.012645458053934e+001
0	 6.666700000016667e+000	 6.000263254118248e-001	 1.012788587793268e+001
0	 6.666700000016666e+000	 6.666972226472178e-001	 1.012949548653890e+001
0	 6.733360000014533e+000	 0.000000000000000e+000	 1.011592467091784e+001
0	 6.733360000014532e+000	 6.666714722864756e-002	 1.011566303160862e+001
0	 6.733360000014533e+000	 1.333351778131789e-001	 1.011560522656543e+001
0	 6.733360000014533e+000	 2.000039750814772e-001	 1.011574707697882e+001
0	 6.733360000014531e+000	 2.666734223614255e-001	 1.011608440809702e+001
0	 6.733360000014531e+000	 3.333434029809069e-001	 1.011661304922566e+001
0	 6.733360000014531e+000	 4.000138002678044e-001	 1.011732883372744e+001
0	 6.733360000014534e+000	 4.666844975500011e-001	 1.011822759902199e+001
0	 6.733360000014532e+000	 5.333553781553803e-001	 1.011930518658587e+001
0	 6.733360000014532e+000	 6.000263254118247e-001	 1.012055744195259e+001
0	 6.733360000014532e+000	 6.666972226472175e-001	 1.012198021471278e+001
0	 6.800020000011600e+000	 0.000000000000000e+000	 1.010907346346171e+001
0	 6.800020000011600e+000	 6.666714722864754e-002	 1.010887125911748e+001
0	 6.800020000011601e+000	 1.333351778131790e-001	 1.010883727589214e+001
0	 6.800020000011600e+000	 2.000039750814772e-001	 1.010897107054375e+001
0	 6.800020000011599e+000	 2.666734223614255e-001	 1.010927220376272e+001
0	 6.800020000011599e+000	 3.333434029809069e-001	 1.010974024017141e+001
0	 6.800020000011600e+000	 4.000138002678044e-001	 1.011037474832385e+001
0	 6.800020000011601e+000	 4.666844975500012e-001	 1.011117530070565e+001
0	 6.800020000011601e+000	 5.333553781553804e-001	 1.011214147373390e+001
0	 6.800020000011600e+000	 6.000263254118249e-001	 1.011327284775725e+001
0	 6.800020000011598e+000	 6.666972226472175e-001	 1.011456900705608e+001
0	 6.866680000008066e+000	 0.000000000000000e+000	 1.010193530394157e+001
0	 6.866680000008066e+000	 6.666714722864754e-002	 1.010180572690192e+001
0	 6.866680000008065e+000	 1.333351778131790e-001	 1.010181549202971e+001
0	 6.866680000008067e+000	 2.000039750814773e-001	 1.010196727197017e+001
0	 6.866680000008067e+000	 2.666734223614256e-001	 1.010226374318848e+001
0	 6.866680000008066e+000	 3.333434029809069e-001	 1.010270758596938e+001
0	 6.866680000008066e+000	 4.000138002678044e-001	 1.010330148441701e+001
0	 6.866680000008067e+000	 4.666844975500010e-001	 1.010404812645467e+001
0	 6.866680000008068e+000	 5.333553781553801e-001	 1.010495020382482e+001
0	 6.866680000008068e+000	 6.000263254118248e-001	 1.010601041208910e+001
0	 6.866680000008065e+000	 6.666972226472177e-001	 1.010723145062854e+001
0	 6.933340000004134e+000	 0.000000000000000e+000	 1.009455427465744e+001
0	 6.933340000004134e+000	 6.666714722864757e-002	 1.009450434749124e+001
0	 6.933340000004135e+000	 1.333351778131790e-001	 1.009457133342328e+001
0	 6.933340000004134e+000	 2.000039750814772e-001	 1.009476040128221e+001
0	 6.933340000004135e+000	 2.666734223614256e-001	 1.009507672361426e+001
0	 6.933340000004135e+000	 3.333434029809069e-001	 1.009552547668302e+001
0	 6.933340000004135e+000	 4.000138002678044e-001	 1.009611184046907e+001
0	 6.933340000004134e+000	 4.666844975500011e-001	 1.009684099866995e+001
0	 6.933340000004135e+000	 5.333553781553804e-001	 1.009771813870002e+001
0	 6.933340000004135e+000	 6.000263254118247e-001	 1.009874845169055e+001
0	 6.933340000004136e+000	 6.666972226472178e-001	 1.009993713248990e+001
0	 7.000000000000002e+000	 0.000000000000000e+000	 1.008697445790936e+001
0	 7.000000000000000e+000	 6.666714722864756e-002	 1.008700503341478e+001
0	 7.000000000000001e+000	 1.333351778131789e-001	 1.008713625851800e+001
0	 7.000000000000003e+000	 2.000039750814773e-001	 1.008737517850397e+001
0	 7.000000000000002e+000	 2.666734223614256e-001	 1.008772884228008e+001
0	 7.000000000000001e+000	 3.333434029809069e-001	 1.008820430237574e+001
0	 7.000000000000003e+000	 4.000138002678044e-001	 1.008880861494219e+001
0	 7.000000000000002e+000	 4.666844975500011e-001	 1.008954883975239e+001
0	 7.000000000000003e+000	 5.333553781553801e-001	 1.009043204020091e+001
0	 7.000000000000001e+000	 6.000263254118248e-001	 1.009146528330405e+001
0	 7.000000000000001e+000	 6.666972226472177e-001	 1.009265563969990e+001
0	 7.066659999995869e+000	 0.000000000000000e+000	 1.007923993599735e+001
0	 7.066659999995870e+000	 6.666714722864757e-002	 1.007934569720188e+001
0	 7.066659999995870e+000	 1.333351778131789e-001	 1.007954172575899e+001
0	 7.066659999995871e+000	 2.000039750814773e-001	 1.007983632365962e+001
0	 7.066659999995869e+000	 2.666734223614255e-001	 1.008023779642593e+001
0	 7.066659999995869e+000	 3.333434029809068e-001	 1.008075445311096e+001
0	 7.066659999995870e+000	 4.000138002678044e-001	 1.008139460629851e+001
0	 7.066659999995869e+000	 4.666844975500011e-001	 1.008216657210287e+001
0	 7.066659999995869e+000	 5.333553781553803e-001	 1.008307867016890e+001
0	 7.066659999995870e+000	 6.000263254118247e-001	 1.008413922367199e+001
0	 7.066659999995869e+000	 6.666972226472177e-001	 1.008535655931829e+001
0	 7.133319999991937e+000	 0.000000000000000e+000	 1.007139479122147e+001
0	 7.133319999991938e+000	 6.666714722864754e-002	 1.007156425138186e+001
0	 7.133319999991937e+000	 1.333351778131790e-001	 1.007181919359141e+001
0	 7.133319999991937e+000	 2.000039750814772e-001	 1.007216855677327e+001
0	 7.133319999991936e+000	 2.666734223614257e-001	 1.007262128329179e+001
0	 7.133319999991937e+000	 3.333434029809069e-001	 1.007318631895215e+001
0	 7.133319999991937e+000	 4.000138002678044e-001	 1.007387261300019e+001
0	 7.133319999991937e+000	 4.666844975500012e-001	 1.007468911812230e+001
0	 7.133319999991937e+000	 5.333553781553801e-001	 1.007564479044536e+001
0	 7.133319999991937e+000	 6.000263254118247e-001	 1.007674858953683e+001
0	 7.133319999991937e+000	 6.666972226472178e-001	 1.007800947840481e+001
0	 7.199979999988405e+000	 0.000000000000000e+000	 1.006348310588172e+001
0	 7.199979999988403e+000	 6.666714722864756e-002	 1.006369860848404e+001
0	 7.199979999988405e+000	 1.333351778131790e-001	 1.006400012046038e+001
0	 7.199979999988403e+000	 2.000039750814772e-001	 1.006439659786908e+001
0	 7.199979999988404e+000	 2.666734223614256e-001	 1.006489700011768e+001
0	 7.199979999988404e+000	 3.333434029809069e-001	 1.006551028996271e+001
0	 7.199979999988404e+000	 4.000138002678045e-001	 1.006624543350938e+001
0	 7.199979999988404e+000	 4.666844975500012e-001	 1.006711140021157e+001
0	 7.199979999988404e+000	 5.333553781553803e-001	 1.006811716287173e+001
0	 7.199979999988405e+000	 6.000263254118248e-001	 1.006927169764097e+001
0	 7.199979999988403e+000	 6.666972226472177e-001	 1.007058398401919e+001
0	 7.266639999985471e+000	 0.000000000000000e+000	 1.005554896227816e+001
0	 7.266639999985472e+000	 6.666714722864757e-002	 1.005578668103777e+001
0	 7.266639999985472e+000	 1.333351778131790e-001	 1.005611596481106e+001
0	 7.266639999985470e+000	 2.000039750814772e-001	 1.005654516697115e+001
0	 7.266639999985472e+000	 2.666734223614256e-001	 1.005708264414359e+001
0	 7.266639999985472e+000	 3.333434029809068e-001	 1.005773675620608e+001
0	 7.266639999985471e+000	 4.000138002678044e-001	 1.005851586628825e+001
0	 7.266639999985472e+000	 4.666844975500011e-001	 1.005942834077158e+001
0	 7.266639999985471e+000	 5.333553781553803e-001	 1.006048254928938e+001
0	 7.266639999985472e+000	 6.000263254118248e-001	 1.006168686472684e+001
0	 7.266639999985470e+000	 6.666972226472175e-001	 1.006304966322120e+001
0	 7.333299999983335e+000	 0.000000000000000e+000	 1.004763644271080e+001
0	 7.333299999983334e+000	 6.666714722864756e-002	 1.004786638157236e+001
0	 7.333299999983334e+000	 1.333351778131789e-001	 1.004819818508857e+001
0	 7.333299999983335e+000	 2.000039750814772e-001	 1.004863898410364e+001
0	 7.333299999983333e+000	 2.666734223614256e-001	 1.004919591260952e+001
0	 7.333299999983336e+000	 3.333434029809069e-001	 1.004987610774570e+001
0	 7.333299999983335e+000	 4.000138002678045e-001	 1.005068670979894e+001
0	 7.333299999983333e+000	 4.666844975500011e-001	 1.005163486220322e+001
0	 7.333299999983335e+000	 5.333553781553803e-001	 1.005272771153972e+001
0	 7.333299999983335e+000	 6.000263254118248e-001	 1.005397240753688e+001
0	 7.333299999983332e+000	 6.666972226472178e-001	 1.005537610307057e+001
0	 6.666700000016666e+000	 6.666972226472178e-001	 1.012949548653890e+001
0	 6.666700000016667e+000	 7.333579753122047e-001	 1.013124815791291e+001
0	 6.666700000016665e+000	 8.000185779984416e-001	 1.013312355536664e+001
0	 6.666700000016667e+000	 8.666790473703454e-001	 1.013513478152823e+001
0	 6.666700000016666e+000	 9.333394000923321e-001	 1.013729493851631e+001
0	 6.666700000016667e+000	 9.999996528288189e-001	 1.013961712794006e+001
0	 6.666700000016666e+000	 1.066659822244222e+000	 1.014211445089919e+001
0	 6.666700000016666e+000	 1.133319925002959e+000	 1.014480000798389e+001
0	 6.666700000016666e+000	 1.199979977769445e+000	 1.014768689927496e+001
0	 6.666700000016665e+000	 1.266639997208098e+000	 1.015078822434367e+001
0	 6.666700000016665e+000	 1.333299999983334e+000	 1.015411708225188e+001
0	 6.733360000014532e+000	 6.666972226472175e-001	 1.012198021471278e+001
0	 6.733360000014534e+000	 7.333579753122049e-001	 1.012355348930256e+001
0	 6.733360000014532e+000	 8.000185779984417e-001	 1.012526875888774e+001
0	 6.733360000014532e+000	 8.666790473703452e-001	 1.012713846084517e+001
0	 6.733360000014532e+000	 9.333394000923321e-001	 1.012917503202739e+001
0	 6.733360000014531e+000	 9.999996528288191e-001	 1.013139090876259e+001
0	 6.733360000014534e+000	 1.066659822244222e+000	 1.013379852685465e+001
0	 6.733360000014533e+000	 1.133319925002959e+000	 1.013641032158311e+001
0	 6.733360000014534e+000	 1.199979977769445e+000	 1.013923872770320e+001
0	 6.733360000014533e+000	 1.266639997208098e+000	 1.014229617944585e+001
0	 6.733360000014534e+000	 1.333299999983334e+000	 1.014559511051766e+001
0	 6.800020000011598e+000	 6.666972226472175e-001	 1.011456900705608e+001
0	 6.800020000011600e+000	 7.333579753122048e-001	 1.011601792298833e+001
0	 6.800020000011600e+000	 8.000185779984418e-001	 1.011761610325097e+001
0	 6.800020000011600e+000	 8.666790473703454e-001	 1.011937531893546e+001
0	 6.800020000011602e+000	 9.333394000923323e-001	 1.012130734061194e+001
0	 6.800020000011599e+000	 9.999996528288190e-001	 1.012342393832922e+001
0	 6.800020000011600e+000	 1.066659822244222e+000	 1.012573688161483e+001
0	 6.800020000011600e+000	 1.133319925002959e+000	 1.012825793947499e+001
0	 6.800020000011600e+000	 1.199979977769445e+000	 1.013099888039460e+001
0	 6.800020000011600e+000	 1.266639997208098e+000	 1.013397147233726e+001
0	 6.800020000011600e+000	 1.333299999983334e+000	 1.013718748274531e+001
0	 6.866680000008065e+000	 6.666972226472177e-001	 1.010723145062854e+001
0	 6.866680000008068e+000	 7.333579753122048e-001	 1.010860323136699e+001
0	 6.866680000008066e+000	 8.000185779984417e-001	 1.011012165819619e+001
0	 6.866680000008067e+000	 8.666790473703454e-001	 1.011179783490579e+001
0	 6.866680000008066e+000	 9.333394000923324e-001	 1.011364286478187e+001
0	 6.866680000008068e+000	 9.999996528288190e-001	 1.011566785060689e+001
0	 6.866680000008066e+000	 1.066659822244222e+000	 1.011788389465970e+001
0	 6.866680000008066e+000	 1.133319925002958e+000	 1.012030209871559e+001
0	 6.866680000008067e+000	 1.199979977769445e+000	 1.012293356404625e+001
0	 6.866680000008067e+000	 1.266639997208098e+000	 1.012578939141978e+001
0	 6.866680000008065e+000	 1.333299999983334e+000	 1.012888068110072e+001
0	 6.933340000004136e+000	 6.666972226472178e-001	 1.009993713248990e+001
0	 6.933340000004135e+000	 7.333579753122047e-001	 1.010127118683530e+001
0	 6.933340000004135e+000	 8.000185779984417e-001	 1.010274149346322e+001
0	 6.933340000004134e+000	 8.666790473703454e-001	 1.010435848786289e+001
0	 6.933340000004134e+000	 9.333394000923324e-001	 1.010613260504918e+001
0	 6.933340000004131e+000	 9.999996528288186e-001	 1.010807427956255e+001
0	 6.933340000004134e+000	 1.066659822244222e+000	 1.011019394546919e+001
0	 6.933340000004136e+000	 1.133319925002959e+000	 1.011250203636093e+001
0	 6.933340000004134e+000	 1.199979977769445e+000	 1.011500898535523e+001
0	 6.933340000004135e+000	 1.266639997208098e+000	 1.011772522509524e+001
0	 6.933340000004135e+000	 1.333299999983334e+000	 1.012066118774978e+001
0	 7.000000000000001e+000	 6.666972226472177e-001	 1.009265563969990e+001
0	 7.000000000000003e+000	 7.333579753122048e-001	 1.009398356179002e+001
0	 7.000000000000003e+000	 8.000185779984418e-001	 1.009543167879193e+001
0	 7.000000000000002e+000	 8.666790473703454e-001	 1.009700975691347e+001
0	 7.000000000000000e+000	 9.333394000923321e-001	 1.009872756192575e+001
0	 7.000000000000003e+000	 9.999996528288190e-001	 1.010059485916314e+001
0	 7.000000000000001e+000	 1.066659822244222e+000	 1.010262141352327e+001
0	 7.000000000000000e+000	 1.133319925002959e+000	 1.010481698946705e+001
0	 7.000000000000003e+000	 1.199979977769445e+000	 1.010719135101864e+001
0	 7.000000000000002e+000	 1.266639997208098e+000	 1.010975426176551e+001
0	 7.000000000000002e+000	 1.333299999983334e+000	 1.011251548485837e+001
0	 7.066659999995869e+000	 6.666972226472177e-001	 1.008535655931829e+001
0	 7.066659999995871e+000	 7.333579753122049e-001	 1.008670212862794e+001
0	 7.066659999995869e+000	 8.000185779984417e-001	 1.008814828392214e+001
0	 7.066659999995869e+000	 8.666790473703454e-001	 1.008970412116423e+001
0	 7.066659999995870e+000	 9.333394000923322e-001	 1.009137873592356e+001
0	 7.066659999995870e+000	 9.999996528288188e-001	 1.009318122337560e+001
0	 7.066659999995870e+000	 1.066659822244222e+000	 1.009512067830187e+001
0	 7.066659999995870e+000	 1.133319925002959e+000	 1.009720619508996e+001
0	 7.066659999995870e+000	 1.199979977769445e+000	 1.009944686773356e+001
0	 7.066659999995869e+000	 1.266639997208098e+000	 1.010185178983241e+001
0	 7.066659999995870e+000	 1.333299999983334e+000	 1.010443005459240e+001
0	 7.133319999991937e+000	 6.666972226472178e-001	 1.007800947840481e+001
0	 7.133319999991937e+000	 7.333579753122049e-001	 1.007938865974581e+001
0	 7.133319999991937e+000	 8.000185779984416e-001	 1.008084737859371e+001
0	 7.133319999991935e+000	 8.666790473703451e-001	 1.008239405972188e+001
0	 7.133319999991937e+000	 9.333394000923323e-001	 1.008403712755455e+001
0	 7.133319999991937e+000	 9.999996528288189e-001	 1.008578500616688e+001
0	 7.133319999991935e+000	 1.066659822244222e+000	 1.008764611928494e+001
0	 7.133319999991937e+000	 1.133319925002959e+000	 1.008962889028571e+001
0	 7.133319999991937e+000	 1.199979977769445e+000	 1.009174174219706e+001
0	 7.133319999991936e+000	 1.266639997208098e+000	 1.009399309769781e+001
0	 7.133319999991937e+000	 1.333299999983334e+000	 1.009639137911772e+001
0	 7.199979999988403e+000	 6.666972226472177e-001	 1.007058398401920e+001
0	 7.199979999988404e+000	 7.333579753122048e-001	 1.007200492754039e+001
0	 7.199979999988403e+000	 8.000185779984418e-001	 1.007348503254647e+001
0	 7.199979999988404e+000	 8.666790473703453e-001	 1.007503205169313e+001
0	 7.199979999988403e+000	 9.333394000923321e-001	 1.007665373733065e+001
0	 7.199979999988403e+000	 9.999996528288186e-001	 1.007835784150393e+001
0	 7.199979999988403e+000	 1.066659822244222e+000	 1.008015211595245e+001
0	 7.199979999988403e+000	 1.133319925002958e+000	 1.008204431211031e+001
0	 7.199979999988404e+000	 1.199979977769445e+000	 1.008404218110623e+001
0	 7.199979999988404e+000	 1.266639997208098e+000	 1.008615347376357e+001
0	 7.199979999988404e+000	 1.333299999983334e+000	 1.008838594060023e+001
0	 7.266639999985470e+000	 6.666972226472175e-001	 1.006304966322120e+001
0	 7.266639999985471e+000	 7.333579753122049e-001	 1.006451270440847e+001
0	 7.266639999985471e+000	 8.000185779984417e-001	 1.006601731552028e+001
0	 7.266639999985471e+000	 8.666790473703456e-001	 1.006757057618471e+001
0	 7.266639999985471e+000	 9.333394000923323e-001	 1.006917956576383e+001
0	 7.266639999985471e+000	 9.999996528288189e-001	 1.007085136335369e+001
0	 7.266639999985469e+000	 1.066659822244222e+000	 1.007259304778433e+001
0	 7.266639999985471e+000	 1.133319925002958e+000	 1.007441169761982e+001
0	 7.266639999985471e+000	 1.199979977769445e+000	 1.007631439115819e+001
0	 7.266639999985470e+000	 1.266639997208098e+000	 1.007830820643150e+001
0	 7.266639999985472e+000	 1.333299999983334e+000	 1.008040022120582e+001
0	 7.333299999983332e+000	 6.666972226472178e-001	 1.005537610307057e+001
0	 7.333299999983334e+000	 7.333579753122048e-001	 1.005687376274680e+001
0	 7.333299999983334e+000	 8.000185779984417e-001	 1.005840029725496e+001
0	 7.333299999983334e+000	 8.666790473703454e-001	 1.005996211230331e+001
0	 7.333299999983335e+000	 9.333394000923323e-001	 1.006156561336600e+001
0	 7.333299999983334e+000	 9.999996528288190e-001	 1.006321720568309e+001
0	 7.333299999983335e+000	 1.066659822244222e+000	 1.006492329426054e+001
0	 7.333299999983335e+000	 1.133319925002959e+000	 1.006669028387024e+001
0	 7.333299999983333e+000	 1.199979977769445e+000	 1.006852457904997e+001
0	 7.333299999983335e+000	 1.266639997208098e+000	 1.007043258410347e+001
0	 7.333299999983335e+000	 1.333299999983334e+000	 1.007242070310036e+001
0	 6.666700000016665e+000	 1.333299999983334e+000	 1.015411708225188e+001
0	 6.666700000016666e+000	 1.399969999982150e+000	 1.015749607134319e+001
0	 6.666700000016666e+000	 1.466639999981866e+000	 1.016074470781060e+001
0	 6.666700000016667e+000	 1.533309999982383e+000	 1.016387301840894e+001
0	 6.666700000016667e+000	 1.599979999983599e+000	 1.016689102989303e+001
0	 6.666700000016665e+000	 1.666649999985416e+000	 1.016980876901770e+001
0	 6.666700000016667e+000	 1.733319999987733e+000	 1.017263626253776e+001
0	 6.666700000016665e+000	 1.799989999990449e+000	 1.017538353720804e+001
0	 6.666700000016665e+000	 1.866659999993466e+000	 1.017806061978335e+001
0	 6.666700000016666e+000	 1.933329999996683e+000	 1.018067753701852e+001
0	 6.666700000016668e+000	 2.000000000000000e+000	 1.018324431566836e+001
0	 6.733360000014534e+000	 1.333299999983334e+000	 1.014559511051766e+001
0	 6.733360000014531e+000	 1.399969999982150e+000	 1.014894503092146e+001
0	 6.733360000014534e+000	 1.466639999981867e+000	 1.015215367883310e+001
0	 6.733360000014534e+000	 1.533309999982383e+000	 1.015523237069646e+001
0	 6.733360000014534e+000	 1.599979999983600e+000	 1.015819242295539e+001
0	 6.733360000014533e+000	 1.666649999985416e+000	 1.016104515205380e+001
0	 6.733360000014533e+000	 1.733319999987733e+000	 1.016380187443555e+001
0	 6.733360000014533e+000	 1.799989999990450e+000	 1.016647390654452e+001
0	 6.733360000014532e+000	 1.866659999993466e+000	 1.016907256482458e+001
0	 6.733360000014534e+000	 1.933329999996684e+000	 1.017160916571959e+001
0	 6.733360000014532e+000	 2.000000000000000e+000	 1.017409502567344e+001
0	 6.800020000011600e+000	 1.333299999983334e+000	 1.013718748274531e+001
0	 6.800020000011600e+000	 1.399969999982150e+000	 1.014045456826008e+001
0	 6.800020000011600e+000	 1.466639999981866e+000	 1.014357973954060e+001
0	 6.800020000011601e+000	 1.533309999982383e+000	 1.014657529855400e+001
0	 6.800020000011600e+000	 1.599979999983599e+000	 1.014945354726743e+001
0	 6.800020000011599e+000	 1.666649999985416e+000	 1.015222678764803e+001
0	 6.800020000011598e+000	 1.733319999987733e+000	 1.015490732166295e+001
0	 6.800020000011601e+000	 1.799989999990450e+000	 1.015750745127931e+001
0	 6.800020000011601e+000	 1.866659999993466e+000	 1.016003947846428e+001
0	 6.800020000011599e+000	 1.933329999996683e+000	 1.016251570518497e+001
0	 6.800020000011601e+000	 2.000000000000000e+000	 1.016494843340855e+001
0	 6.866680000008065e+000	 1.333299999983334e+000	 1.012888068110072e+001
0	 6.866680000008068e+000	 1.399969999982150e+000	 1.013202251798652e+001
0	 6.866680000008068e+000	 1.466639999981866e+000	 1.013503027868722e+001
0	 6.866680000008064e+000	 1.533309999982382e+000	 1.013791694652740e+001
0	 6.866680000008065e+000	 1.599979999983599e+000	 1.014069550483172e+001
0	 6.866680000008067e+000	 1.666649999985416e+000	 1.014337893692479e+001
0	 6.866680000008066e+000	 1.733319999987733e+000	 1.014598022613124e+001
0	 6.866680000008067e+000	 1.799989999990450e+000	 1.014851235577568e+001
0	 6.866680000008068e+000	 1.866659999993466e+000	 1.015098830918274e+001
0	 6.866680000008067e+000	 1.933329999996683e+000	 1.015342106967704e+001
0	 6.866680000008066e+000	 2.000000000000000e+000	 1.015582362058319e+001
0	 6.933340000004135e+000	 1.333299999983334e+000	 1.012066118774978e+001
0	 6.933340000004133e+000	 1.399969999982150e+000	 1.012364671472826e+001
0	 6.933340000004135e+000	 1.466639999981867e+000	 1.012651268502708e+001
0	 6.933340000004135e+000	 1.533309999982383e+000	 1.012927245916250e+001
0	 6.933340000004135e+000	 1.599979999983599e+000	 1.013193939765088e+001
0	 6.933340000004134e+000	 1.666649999985416e+000	 1.013452686100852e+001
0	 6.933340000004134e+000	 1.733319999987733e+000	 1.013704820975175e+001
0	 6.933340000004133e+000	 1.799989999990449e+000	 1.013951680439689e+001
0	 6.933340000004134e+000	 1.866659999993467e+000	 1.014194600546025e+001
0	 6.933340000004135e+000	 1.933329999996683e+000	 1.014434917345813e+001
0	 6.933340000004134e+000	 2.000000000000000e+000	 1.014673966890686e+001
0	 7.000000000000002e+000	 1.333299999983334e+000	 1.011251548485837e+001
0	 7.000000000000001e+000	 1.399969999982150e+000	 1.011532499311277e+001
0	 7.000000000000000e+000	 1.466639999981866e+000	 1.011803434731429e+001
0	 7.000000000000003e+000	 1.533309999982383e+000	 1.012065698100512e+001
0	 7.000000000000002e+000	 1.599979999983599e+000	 1.012320632772750e+001
0	 7.000000000000004e+000	 1.666649999985416e+000	 1.012569582102366e+001
0	 7.000000000000002e+000	 1.733319999987733e+000	 1.012813889443582e+001
0	 7.000000000000004e+000	 1.799989999990450e+000	 1.013054898150622e+001
0	 7.000000000000002e+000	 1.866659999993466e+000	 1.013293951577708e+001
0	 7.000000000000001e+000	 1.933329999996683e+000	 1.013532393079061e+001
0	 7.000000000000003e+000	 2.000000000000000e+000	 1.013771566008906e+001
0	 7.066659999995870e+000	 1.333299999983334e+000	 1.010443005459240e+001
0	 7.066659999995870e+000	 1.399969999982150e+000	 1.010705518776753e+001
0	 7.066659999995870e+000	 1.466639999981866e+000	 1.010960265430297e+001
0	 7.066659999995869e+000	 1.533309999982383e+000	 1.011208565660107e+001
0	 7.066659999995869e+000	 1.599979999983599e+000	 1.011451739706416e+001
0	 7.066659999995869e+000	 1.666649999985416e+000	 1.011691107809459e+001
0	 7.066659999995870e+000	 1.733319999987733e+000	 1.011927990209474e+001
0	 7.066659999995869e+000	 1.799989999990450e+000	 1.012163707146694e+001
0	 7.066659999995870e+000	 1.866659999993466e+000	 1.012399578861352e+001
0	 7.066659999995869e+000	 1.933329999996683e+000	 1.012636925593685e+001
0	 7.066659999995870e+000	 2.000000000000000e+000	 1.012877067583928e+001
0	 7.133319999991937e+000	 1.333299999983334e+000	 1.009639137911772e+001
0	 7.133319999991937e+000	 1.399969999982150e+000	 1.009883513331999e+001
0	 7.133319999991937e+000	 1.466639999981866e+000	 1.010122499474725e+001
0	 7.133319999991937e+000	 1.533309999982383e+000	 1.010357363049618e+001
0	 7.133319999991936e+000	 1.599979999983599e+000	 1.010589370766345e+001
0	 7.133319999991937e+000	 1.666649999985416e+000	 1.010819789334578e+001
0	 7.133319999991937e+000	 1.733319999987733e+000	 1.011049885463983e+001
0	 7.133319999991936e+000	 1.799989999990449e+000	 1.011280925864230e+001
0	 7.133319999991937e+000	 1.866659999993467e+000	 1.011514177244986e+001
0	 7.133319999991937e+000	 1.933329999996683e+000	 1.011750906315921e+001
0	 7.133319999991936e+000	 2.000000000000000e+000	 1.011992379786702e+001
0	 7.199979999988404e+000	 1.333299999983334e+000	 1.008838594060023e+001
0	 7.199979999988403e+000	 1.399969999982150e+000	 1.009066266439763e+001
0	 7.199979999988404e+000	 1.466639999981867e+000	 1.009290875740122e+001
0	 7.199979999988404e+000	 1.533309999982383e+000	 1.009513604723626e+001
0	 7.199979999988405e+000	 1.599979999983600e+000	 1.009735636152799e+001
0	 7.199979999988403e+000	 1.666649999985416e+000	 1.009958152790162e+001
0	 7.199979999988405e+000	 1.733319999987733e+000	 1.010182337398241e+001
0	 7.199979999988403e+000	 1.799989999990449e+000	 1.010409372739558e+001
0	 7.199979999988405e+000	 1.866659999993466e+000	 1.010640441576637e+001
0	 7.199979999988404e+000	 1.933329999996683e+000	 1.010876726672002e+001
0	 7.199979999988403e+000	 2.000000000000000e+000	 1.011119410788177e+001
0	 7.266639999985472e+000	 1.333299999983334e+000	 1.008040022120582e+001
0	 7.266639999985471e+000	 1.399969999982150e+000	 1.008253561562791e+001
0	 7.266639999985469e+000	 1.466639999981866e+000	 1.008466133101902e+001
0	 7.266639999985472e+000	 1.533309999982383e+000	 1.008678805136716e+001
0	 7.266639999985470e+000	 1.599979999983599e+000	 1.008892646066035e+001
0	 7.266639999985471e+000	 1.666649999985416e+000	 1.009108724288654e+001
0	 7.266639999985470e+000	 1.733319999987733e+000	 1.009328108203377e+001
0	 7.266639999985471e+000	 1.799989999990450e+000	 1.009551866209004e+001
0	 7.266639999985470e+000	 1.866659999993466e+000	 1.009781066704333e+001
0	 7.266639999985471e+000	 1.933329999996683e+000	 1.010016778088166e+001
0	 7.266639999985471e+000	 2.000000000000000e+000	 1.010260068759303e+001
0	 7.333299999983335e+000	 1.333299999983334e+000	 1.007242070310036e+001
0	 7.333299999983334e+000	 1.399969999982150e+000	 1.007445182163830e+001
0	 7.333299999983335e+000	 1.466639999981867e+000	 1.007649010435475e+001
0	 7.333299999983334e+000	 1.533309999982383e+000	 1.007854478743469e+001
0	 7.333299999983334e+000	 1.599979999983599e+000	 1.008062510706310e+001
0	 7.333299999983334e+000	 1.666649999985416e+000	 1.008274029942495e+001
0	 7.333299999983335e+000	 1.733319999987733e+000	 1.008489960070525e+001
0	 7.333299999983335e+000	 1.799989999990450e+000	 1.008711224708894e+001
0	 7.333299999983334e+000	 1.866659999993466e+000	 1.008938747476102e+001
0	 7.333299999983335e+000	 1.933329999996683e+000	 1.009173451990648e+001
0	 7.333299999983335e+000	 2.000000000000000e+000	 1.009416261871030e+001
0	 6.666700000016668e+000	 2.000000000000000e+000	 1.018324431566836e+001
0	 6.666700000016665e+000	 2.066670000003317e+000	 1.018570462625521e+001
0	 6.666700000016665e+000	 2.133340000006534e+000	 1.018800544077550e+001
0	 6.666700000016666e+000	 2.200010000009551e+000	 1.019016173819523e+001
0	 6.666700000016668e+000	 2.266680000012268e+000	 1.019218849748038e+001
0	 6.666700000016666e+000	 2.333350000014584e+000	 1.019410069759692e+001
0	 6.666700000016667e+000	 2.400020000016400e+000	 1.019591331751084e+001
0	 6.666700000016665e+000	 2.466690000017617e+000	 1.019764133618812e+001
0	 6.666700000016667e+000	 2.533360000018134e+000	 1.019929973259473e+001
0	 6.666700000016666e+000	 2.600030000017851e+000	 1.020090348569665e+001
0	 6.666700000016667e+000	 2.666700000016667e+000	 1.020246757445986e+001
0	 6.733360000014532e+000	 2.000000000000000e+000	 1.017409502567344e+001
0	 6.733360000014533e+000	 2.066670000003317e+000	 1.017648959657393e+001
0	 6.733360000014532e+000	 2.133340000006534e+000	 1.017875184340431e+001
0	 6.733360000014533e+000	 2.200010000009550e+000	 1.018089235225165e+001
0	 6.733360000014533e+000	 2.266680000012267e+000	 1.018292170920300e+001
0	 6.733360000014531e+000	 2.333350000014584e+000	 1.018485050034540e+001
0	 6.733360000014534e+000	 2.400020000016401e+000	 1.018668931176590e+001
0	 6.733360000014533e+000	 2.466690000017618e+000	 1.018844872955157e+001
0	 6.733360000014532e+000	 2.533360000018134e+000	 1.019013933978944e+001
0	 6.733360000014532e+000	 2.600030000017851e+000	 1.019177172856656e+001
0	 6.733360000014533e+000	 2.666700000016666e+000	 1.019335648196999e+001
0	 6.800020000011601e+000	 2.000000000000000e+000	 1.016494843340855e+001
0	 6.800020000011599e+000	 2.066670000003316e+000	 1.016730617770486e+001
0	 6.800020000011601e+000	 2.133340000006534e+000	 1.016955384124193e+001
0	 6.800020000011599e+000	 2.200010000009550e+000	 1.017169830888415e+001
0	 6.800020000011599e+000	 2.266680000012266e+000	 1.017374646549590e+001
0	 6.800020000011600e+000	 2.333350000014585e+000	 1.017570519594158e+001
0	 6.800020000011601e+000	 2.400020000016400e+000	 1.017758138508555e+001
0	 6.800020000011600e+000	 2.466690000017617e+000	 1.017938191779222e+001
0	 6.800020000011601e+000	 2.533360000018134e+000	 1.018111367892594e+001
0	 6.800020000011601e+000	 2.600030000017851e+000	 1.018278355335111e+001
0	 6.800020000011599e+000	 2.666700000016666e+000	 1.018439842593209e+001
0	 6.866680000008066e+000	 2.000000000000000e+000	 1.015582362058319e+001
0	 6.866680000008067e+000	 2.066670000003316e+000	 1.015816789142140e+001
0	 6.866680000008067e+000	 2.133340000006534e+000	 1.016041973969408e+001
0	 6.866680000008067e+000	 2.200010000009550e+000	 1.016258304069921e+001
0	 6.866680000008067e+000	 2.266680000012267e+000	 1.016466166973479e+001
0	 6.866680000008067e+000	 2.333350000014585e+000	 1.016665950209880e+001
0	 6.866680000008066e+000	 2.400020000016400e+000	 1.016858041308919e+001
0	 6.866680000008067e+000	 2.466690000017617e+000	 1.017042827800397e+001
0	 6.866680000008067e+000	 2.533360000018134e+000	 1.017220697214111e+001
0	 6.866680000008067e+000	 2.600030000017850e+000	 1.017392037079857e+001
0	 6.866680000008067e+000	 2.666700000016666e+000	 1.017557234927433e+001
0	 6.933340000004134e+000	 2.000000000000000e+000	 1.014673966890686e+001
0	 6.933340000004135e+000	 2.066670000003317e+000	 1.014908825949692e+001
0	 6.933340000004133e+000	 2.133340000006534e+000	 1.015135784416646e+001
0	 6.933340000004134e+000	 2.200010000009550e+000	 1.015354998030332e+001
0	 6.933340000004136e+000	 2.266680000012268e+000	 1.015566622529535e+001
0	 6.933340000004134e+000	 2.333350000014584e+000	 1.015770813653038e+001
0	 6.933340000004134e+000	 2.400020000016401e+000	 1.015967727139624e+001
0	 6.933340000004135e+000	 2.466690000017617e+000	 1.016157518728079e+001
0	 6.933340000004135e+000	 2.533360000018134e+000	 1.016340344157185e+001
0	 6.933340000004134e+000	 2.600030000017851e+000	 1.016516359165726e+001
0	 6.933340000004134e+000	 2.666700000016666e+000	 1.016685719492485e+001
0	 7.000000000000003e+000	 2.000000000000000e+000	 1.013771566008906e+001
0	 7.000000000000002e+000	 2.066670000003317e+000	 1.014008080370482e+001
0	 7.000000000000001e+000	 2.133340000006534e+000	 1.014237646006479e+001
0	 7.000000000000003e+000	 2.200010000009551e+000	 1.014460256030295e+001
0	 7.000000000000002e+000	 2.266680000012267e+000	 1.014675903555325e+001
0	 7.000000000000000e+000	 2.333350000014584e+000	 1.014884581694966e+001
0	 7.000000000000003e+000	 2.400020000016401e+000	 1.015086283562613e+001
0	 7.000000000000002e+000	 2.466690000017617e+000	 1.015281002271661e+001
0	 7.000000000000002e+000	 2.533360000018134e+000	 1.015468730935508e+001
0	 7.000000000000002e+000	 2.600030000017851e+000	 1.015649462667548e+001
0	 7.000000000000002e+000	 2.666700000016666e+000	 1.015823190581178e+001
0	 7.066659999995870e+000	 2.000000000000000e+000	 1.012877067583928e+001
0	 7.066659999995870e+000	 2.066670000003317e+000	 1.013115904581848e+001
0	 7.066659999995869e+000	 2.133340000006534e+000	 1.013348389279480e+001
0	 7.066659999995870e+000	 2.200010000009550e+000	 1.013574421330459e+001
0	 7.066659999995871e+000	 2.266680000012267e+000	 1.013793900388420e+001
0	 7.066659999995871e+000	 2.333350000014583e+000	 1.014006726106997e+001
0	 7.066659999995870e+000	 2.400020000016401e+000	 1.014212798139824e+001
0	 7.066659999995870e+000	 2.466690000017617e+000	 1.014412016140537e+001
0	 7.066659999995870e+000	 2.533360000018134e+000	 1.014604279762769e+001
0	 7.066659999995869e+000	 2.600030000017851e+000	 1.014789488660156e+001
0	 7.066659999995871e+000	 2.666700000016666e+000	 1.014967542486329e+001
0	 7.133319999991936e+000	 2.000000000000000e+000	 1.011992379786702e+001
0	 7.133319999991937e+000	 2.066670000003317e+000	 1.012233650761128e+001
0	 7.133319999991937e+000	 2.133340000006534e+000	 1.012468844776217e+001
0	 7.133319999991936e+000	 2.200010000009551e+000	 1.012697837191471e+001
0	 7.133319999991936e+000	 2.266680000012267e+000	 1.012920503366386e+001
0	 7.133319999991937e+000	 2.333350000014584e+000	 1.013136718660462e+001
0	 7.133319999991937e+000	 2.400020000016401e+000	 1.013346358433202e+001
0	 7.133319999991936e+000	 2.466690000017617e+000	 1.013549298044101e+001
0	 7.133319999991937e+000	 2.533360000018133e+000	 1.013745412852660e+001
0	 7.133319999991937e+000	 2.600030000017850e+000	 1.013934578218379e+001
0	 7.133319999991937e+000	 2.666700000016667e+000	 1.014116669500755e+001
0	 7.199979999988403e+000	 2.000000000000000e+000	 1.011119410788177e+001
0	 7.199979999988404e+000	 2.066670000003317e+000	 1.011362671085662e+001
0	 7.199979999988404e+000	 2.133340000006534e+000	 1.011599843037264e+001
0	 7.199979999988404e+000	 2.200010000009550e+000	 1.011830846873978e+001
0	 7.199979999988404e+000	 2.266680000012267e+000	 1.012055602826793e+001
0	 7.199979999988405e+000	 2.333350000014585e+000	 1.012274031126699e+001
0	 7.199979999988405e+000	 2.400020000016401e+000	 1.012486052004687e+001
0	 7.199979999988404e+000	 2.466690000017618e+000	 1.012691585691749e+001
0	 7.199979999988403e+000	 2.533360000018134e+000	 1.012890552418872e+001
0	 7.199979999988405e+000	 2.600030000017851e+000	 1.013082872417049e+001
0	 7.199979999988404e+000	 2.666700000016666e+000	 1.013268465917268e+001
0	 7.266639999985471e+000	 2.000000000000000e+000	 1.010260068759303e+001
0	 7.266639999985470e+000	 2.066670000003317e+000	 1.010504317732785e+001
0	 7.266639999985471e+000	 2.133340000006534e+000	 1.010742214603192e+001
0	 7.266639999985472e+000	 2.200010000009550e+000	 1.010973793638630e+001
0	 7.266639999985470e+000	 2.266680000012267e+000	 1.011199089107210e+001
0	 7.266639999985471e+000	 2.333350000014583e+000	 1.011418135277039e+001
0	 7.266639999985471e+000	 2.400020000016401e+000	 1.011630966416223e+001
0	 7.266639999985471e+000	 2.466690000017617e+000	 1.011837616792873e+001
0	 7.266639999985473e+000	 2.533360000018134e+000	 1.012038120675095e+001
0	 7.266639999985472e+000	 2.600030000017851e+000	 1.012232512330997e+001
0	 7.266639999985470e+000	 2.666700000016666e+000	 1.012420826028687e+001
0	 7.333299999983335e+000	 2.000000000000000e+000	 1.009416261871030e+001
0	 7.333299999983334e+000	 2.066670000003317e+000	 1.009659942879839e+001
0	 7.333299999983335e+000	 2.133340000006534e+000	 1.009896790014570e+001
0	 7.333299999983334e+000	 2.200010000009550e+000	 1.010127020746075e+001
0	 7.333299999983333e+000	 2.266680000012267e+000	 1.010350852545206e+001
0	 7.333299999983335e+000	 2.333350000014584e+000	 1.010568502882814e+001
0	 7.333299999983335e+000	 2.400020000016401e+000	 1.010780189229751e+001
0	 7.333299999983333e+000	 2.466690000017616e+000	 1.010986129056870e+001
0	 7.333299999983334e+000	 2.533360000018134e+000	 1.011186539835020e+001
0	 7.333299999983335e+000	 2.600030000017851e+000	 1.011381639035055e+001
0	 7.333299999983335e+000	 2.666700000016666e+000	 1.011571644127826e+001
0	 6.666700000016667e+000	 2.666700000016667e+000	 1.020246757445986e+001
0	 6.666700000016668e+000	 2.733360000014533e+000	 1.020395458298311e+001
0	 6.666700000016665e+000	 2.800020000011599e+000	 1.020531686950630e+001
0	 6.666700000016666e+000	 2.866680000008067e+000	 1.020655337707965e+001
0	 6.666700000016667e+000	 2.933340000004133e+000	 1.020766304875340e+001
0	 6.666700000016666e+000	 3.000000000000000e+000	 1.020864482757777e+001
0	 6.666700000016667e+000	 3.066659999995868e+000	 1.020949765660299e+001
0	 6.666700000016665e+000	 3.133319999991933e+000	 1.021022047887932e+001
0	 6.666700000016665e+000	 3.199979999988401e+000	 1.021081223745700e+001
0	 6.666700000016668e+000	 3.266639999985468e+000	 1.021127187538629e+001
0	 6.666700000016665e+000	 3.333299999983333e+000	 1.021159833571743e+001
0	 6.733360000014533e+000	 2.666700000016666e+000	 1.019335648196999e+001
0	 6.733360000014532e+000	 2.733360000014533e+000	 1.019485722278930e+001
0	 6.733360000014534e+000	 2.800020000011600e+000	 1.019623213059138e+001
0	 6.733360000014534e+000	 2.866680000008067e+000	 1.019748292265537e+001
0	 6.733360000014532e+000	 2.933340000004133e+000	 1.019861131626049e+001
0	 6.733360000014532e+000	 3.000000000000000e+000	 1.019961902868587e+001
0	 6.733360000014531e+000	 3.066659999995867e+000	 1.020050777721071e+001
0	 6.733360000014533e+000	 3.133319999991935e+000	 1.020127927911420e+001
0	 6.733360000014533e+000	 3.199979999988400e+000	 1.020193525167550e+001
0	 6.733360000014532e+000	 3.266639999985468e+000	 1.020247741217383e+001
0	 6.733360000014533e+000	 3.333299999983333e+000	 1.020290747788839e+001
0	 6.800020000011599e+000	 2.666700000016666e+000	 1.018439842593210e+001
0	 6.800020000011598e+000	 2.733360000014533e+000	 1.018592231910568e+001
0	 6.800020000011598e+000	 2.800020000011599e+000	 1.018731782411983e+001
0	 6.800020000011601e+000	 2.866680000008066e+000	 1.018858896374150e+001
0	 6.800020000011600e+000	 2.933340000004135e+000	 1.018973976073766e+001
0	 6.800020000011600e+000	 3.000000000000000e+000	 1.019077423787526e+001
0	 6.800020000011600e+000	 3.066659999995867e+000	 1.019169641792130e+001
0	 6.800020000011600e+000	 3.133319999991933e+000	 1.019251032364272e+001
0	 6.800020000011600e+000	 3.199979999988401e+000	 1.019321997780653e+001
0	 6.800020000011597e+000	 3.266639999985466e+000	 1.019382940317968e+001
0	 6.800020000011600e+000	 3.333299999983334e+000	 1.019434262252918e+001
0	 6.866680000008067e+000	 2.666700000016666e+000	 1.017557234927433e+001
0	 6.866680000008068e+000	 2.733360000014533e+000	 1.017712684100350e+001
0	 6.866680000008068e+000	 2.800020000011600e+000	 1.017854958897532e+001
0	 6.866680000008065e+000	 2.866680000008066e+000	 1.017984645270338e+001
0	 6.866680000008068e+000	 2.933340000004134e+000	 1.018102329170127e+001
0	 6.866680000008066e+000	 3.000000000000000e+000	 1.018208596548261e+001
0	 6.866680000008067e+000	 3.066659999995867e+000	 1.018304033356101e+001
0	 6.866680000008068e+000	 3.133319999991934e+000	 1.018389225545007e+001
0	 6.866680000008067e+000	 3.199979999988401e+000	 1.018464759066343e+001
0	 6.866680000008069e+000	 3.266639999985468e+000	 1.018531219871470e+001
0	 6.866680000008067e+000	 3.333299999983333e+000	 1.018589193911752e+001
0	 6.933340000004134e+000	 2.666700000016666e+000	 1.016685719492485e+001
0	 6.933340000004135e+000	 2.733360000014533e+000	 1.016844775755402e+001
0	 6.933340000004135e+000	 2.800020000011600e+000	 1.016990306404150e+001
0	 6.933340000004134e+000	 2.866680000008067e+000	 1.017123034190634e+001
0	 6.933340000004133e+000	 2.933340000004133e+000	 1.017243681866766e+001
0	 6.933340000004134e+000	 3.000000000000000e+000	 1.017352972184455e+001
0	 6.933340000004135e+000	 3.066659999995867e+000	 1.017451627895610e+001
0	 6.933340000004134e+000	 3.133319999991934e+000	 1.017540371752143e+001
0	 6.933340000004135e+000	 3.199979999988400e+000	 1.017619926505961e+001
0	 6.933340000004135e+000	 3.266639999985468e+000	 1.017691014908980e+001
0	 6.933340000004135e+000	 3.333299999983334e+000	 1.017754359713108e+001
0	 7.000000000000002e+000	 2.666700000016666e+000	 1.015823190581178e+001
0	 7.000000000000003e+000	 2.733360000014534e+000	 1.015986203782849e+001
0	 7.000000000000002e+000	 2.800020000011599e+000	 1.016135388820200e+001
0	 7.000000000000000e+000	 2.866680000008066e+000	 1.016271558371577e+001
0	 7.000000000000002e+000	 2.933340000004133e+000	 1.016395525115322e+001
0	 7.000000000000003e+000	 3.000000000000000e+000	 1.016508101729777e+001
0	 7.000000000000002e+000	 3.066659999995866e+000	 1.016610100893287e+001
0	 7.000000000000001e+000	 3.133319999991934e+000	 1.016702335284195e+001
0	 7.000000000000003e+000	 3.199979999988400e+000	 1.016785617580846e+001
0	 7.000000000000001e+000	 3.266639999985467e+000	 1.016860760461585e+001
0	 7.000000000000003e+000	 3.333299999983334e+000	 1.016928576604757e+001
0	 7.066659999995871e+000	 2.666700000016666e+000	 1.014967542486330e+001
0	 7.066659999995871e+000	 2.733360000014533e+000	 1.015134665089814e+001
0	 7.066659999995870e+000	 2.800020000011600e+000	 1.015287770034051e+001
0	 7.066659999995869e+000	 2.866680000008066e+000	 1.015427713049702e+001
0	 7.066659999995870e+000	 2.933340000004133e+000	 1.015555349867428e+001
0	 7.066659999995869e+000	 3.000000000000000e+000	 1.015671536217891e+001
0	 7.066659999995869e+000	 3.066659999995866e+000	 1.015777127831755e+001
0	 7.066659999995870e+000	 3.133319999991933e+000	 1.015872980439681e+001
0	 7.066659999995870e+000	 3.199979999988400e+000	 1.015959949772333e+001
0	 7.066659999995870e+000	 3.266639999985467e+000	 1.016038891560374e+001
0	 7.066659999995870e+000	 3.333299999983334e+000	 1.016110661534468e+001
0	 7.133319999991937e+000	 2.666700000016667e+000	 1.014116669500755e+001
0	 7.133319999991937e+000	 2.733360000014533e+000	 1.014287856583425e+001
0	 7.133319999991937e+000	 2.800020000011599e+000	 1.014445013934065e+001
0	 7.133319999991936e+000	 2.866680000008067e+000	 1.014588993461543e+001
0	 7.133319999991936e+000	 2.933340000004133e+000	 1.014720647074721e+001
0	 7.133319999991936e+000	 3.000000000000000e+000	 1.014840826682467e+001
0	 7.133319999991937e+000	 3.066659999995867e+000	 1.014950384193644e+001
0	 7.133319999991937e+000	 3.133319999991934e+000	 1.015050171517121e+001
0	 7.133319999991937e+000	 3.199979999988400e+000	 1.015141040561763e+001
0	 7.133319999991935e+000	 3.266639999985468e+000	 1.015223843236439e+001
0	 7.133319999991937e+000	 3.333299999983333e+000	 1.015299431450013e+001
0	 7.199979999988404e+000	 2.666700000016666e+000	 1.013268465917268e+001
0	 7.199979999988404e+000	 2.733360000014533e+000	 1.013443475170806e+001
0	 7.199979999988403e+000	 2.800020000011599e+000	 1.013604684408612e+001
0	 7.199979999988404e+000	 2.866680000008067e+000	 1.013752894843638e+001
0	 7.199979999988402e+000	 2.933340000004133e+000	 1.013888907688839e+001
0	 7.199979999988404e+000	 3.000000000000000e+000	 1.014013524157168e+001
0	 7.199979999988406e+000	 3.066659999995867e+000	 1.014127545461582e+001
0	 7.199979999988406e+000	 3.133319999991933e+000	 1.014231772815031e+001
0	 7.199979999988405e+000	 3.199979999988401e+000	 1.014327007430475e+001
0	 7.199979999988403e+000	 3.266639999985467e+000	 1.014414050520865e+001
0	 7.199979999988403e+000	 3.333299999983333e+000	 1.014493703299161e+001
0	 7.266639999985470e+000	 2.666700000016666e+000	 1.012420826028687e+001
0	 7.266639999985471e+000	 2.733360000014533e+000	 1.012599217759085e+001
0	 7.266639999985471e+000	 2.800020000011600e+000	 1.012764345346055e+001
0	 7.266639999985470e+000	 2.866680000008067e+000	 1.012916912432524e+001
0	 7.266639999985473e+000	 2.933340000004134e+000	 1.013057622661418e+001
0	 7.266639999985472e+000	 3.000000000000000e+000	 1.013187179675665e+001
0	 7.266639999985471e+000	 3.066659999995866e+000	 1.013306287118193e+001
0	 7.266639999985470e+000	 3.133319999991934e+000	 1.013415648631931e+001
0	 7.266639999985471e+000	 3.199979999988400e+000	 1.013515967859806e+001
0	 7.266639999985470e+000	 3.266639999985468e+000	 1.013607948444746e+001
0	 7.266639999985472e+000	 3.333299999983335e+000	 1.013692294029683e+001
0	 7.333299999983335e+000	 2.666700000016666e+000	 1.011571644127826e+001
0	 7.333299999983334e+000	 2.733360000014533e+000	 1.011752781255386e+001
0	 7.333299999983333e+000	 2.800020000011599e+000	 1.011921560634761e+001
0	 7.333299999983333e+000	 2.866680000008067e+000	 1.012078541464736e+001
0	 7.333299999983334e+000	 2.933340000004133e+000	 1.012224282944094e+001
0	 7.333299999983333e+000	 2.999999999999999e+000	 1.012359344271624e+001
0	 7.333299999983335e+000	 3.066659999995867e+000	 1.012484284646109e+001
0	 7.333299999983335e+000	 3.133319999991934e+000	 1.012599663266338e+001
0	 7.333299999983334e+000	 3.199979999988400e+000	 1.012706039331095e+001
0	 7.333299999983334e+000	 3.266639999985468e+000	 1.012803972039170e+001
0	 7.333299999983335e+000	 3.333299999983335e+000	 1.012894020589347e+001
0	 6.666700000016665e+000	 3.333299999983333e+000	 1.021159833571743e+001
0	 6.666700000016666e+000	 3.399969999982149e+000	 1.021177799584425e+001
0	 6.666700000016666e+000	 3.466639999981866e+000	 1.021179788417648e+001
0	 6.666700000016665e+000	 3.533309999982383e+000	 1.021165803708366e+001
0	 6.666700000016665e+000	 3.599979999983599e+000	 1.021135849093527e+001
0	 6.666700000016665e+000	 3.666649999985415e+000	 1.021089928210081e+001
0	 6.666700000016666e+000	 3.733319999987733e+000	 1.021028044694978e+001
0	 6.666700000016665e+000	 3.799989999990449e+000	 1.020950202185170e+001
0	 6.666700000016668e+000	 3.866659999993467e+000	 1.020856404317603e+001
0	 6.666700000016665e+000	 3.933329999996683e+000	 1.020746654729227e+001
0	 6.666700000016667e+000	 4.000000000000001e+000	 1.020620957056991e+001
0	 6.733360000014533e+000	 3.333299999983333e+000	 1.020290747788839e+001
0	 6.733360000014531e+000	 3.399969999982150e+000	 1.020320324531538e+001
0	 6.733360000014534e+000	 3.466639999981868e+000	 1.020334105181890e+001
0	 6.733360000014531e+000	 3.533309999982382e+000	 1.020332059456259e+001
0	 6.733360000014532e+000	 3.599979999983600e+000	 1.020314157071013e+001
0	 6.733360000014532e+000	 3.666649999985416e+000	 1.020280367742515e+001
0	 6.733360000014533e+000	 3.733319999987733e+000	 1.020230661187132e+001
0	 6.733360000014533e+000	 3.799989999990450e+000	 1.020165007121230e+001
0	 6.733360000014533e+000	 3.866659999993467e+000	 1.020083375261171e+001
0	 6.733360000014529e+000	 3.933329999996683e+000	 1.019985735323322e+001
0	 6.733360000014530e+000	 4.000000000000000e+000	 1.019872057024045e+001
0	 6.800020000011600e+000	 3.333299999983334e+000	 1.019434262252918e+001
0	 6.800020000011599e+000	 3.399969999982150e+000	 1.019473237957833e+001
0	 6.800020000011600e+000	 3.466639999981867e+000	 1.019496821551693e+001
0	 6.800020000011601e+000	 3.533309999982383e+000	 1.019504955923843e+001
0	 6.800020000011600e+000	 3.599979999983600e+000	 1.019497583963631e+001
0	 6.800020000011599e+000	 3.666649999985417e+000	 1.019474648560405e+001
0	 6.800020000011599e+000	 3.733319999987733e+000	 1.019436092603512e+001
0	 6.800020000011601e+000	 3.799989999990451e+000	 1.019381858982296e+001
0	 6.800020000011601e+000	 3.866659999993467e+000	 1.019311890586106e+001
0	 6.800020000011601e+000	 3.933329999996684e+000	 1.019226130304287e+001
0	 6.800020000011598e+000	 4.000000000000000e+000	 1.019124521026185e+001
0	 6.866680000008067e+000	 3.333299999983333e+000	 1.018589193911751e+001
0	 6.866680000008066e+000	 3.399969999982150e+000	 1.018635746922993e+001
0	 6.866680000008067e+000	 3.466639999981866e+000	 1.018667486597946e+001
0	 6.866680000008064e+000	 3.533309999982382e+000	 1.018684336092503e+001
0	 6.866680000008065e+000	 3.599979999983599e+000	 1.018686218562562e+001
0	 6.866680000008068e+000	 3.666649999985417e+000	 1.018673057164015e+001
0	 6.866680000008068e+000	 3.733319999987733e+000	 1.018644775052757e+001
0	 6.866680000008066e+000	 3.799989999990449e+000	 1.018601295384682e+001
0	 6.866680000008067e+000	 3.866659999993467e+000	 1.018542541315683e+001
0	 6.866680000008067e+000	 3.933329999996684e+000	 1.018468436001652e+001
0	 6.866680000008067e+000	 4.000000000000000e+000	 1.018378902598485e+001
0	 6.933340000004135e+000	 3.333299999983334e+000	 1.017754359713108e+001
0	 6.933340000004134e+000	 3.399969999982150e+000	 1.017807058486699e+001
0	 6.933340000004135e+000	 3.466639999981867e+000	 1.017845649391537e+001
0	 6.933340000004136e+000	 3.533309999982383e+000	 1.017870042943630e+001
0	 6.933340000004135e+000	 3.599979999983600e+000	 1.017880149658985e+001
0	 6.933340000004135e+000	 3.666649999985416e+000	 1.017875880053609e+001
0	 6.933340000004134e+000	 3.733319999987733e+000	 1.017857144643511e+001
0	 6.933340000004134e+000	 3.799989999990449e+000	 1.017823853944697e+001
0	 6.933340000004135e+000	 3.866659999993467e+000	 1.017775918473174e+001
0	 6.933340000004134e+000	 3.933329999996683e+000	 1.017713248744947e+001
0	 6.933340000004133e+000	 4.000000000000000e+000	 1.017635755276025e+001
0	 7.000000000000003e+000	 3.333299999983334e+000	 1.016928576604757e+001
0	 7.000000000000002e+000	 3.399969999982150e+000	 1.016986379708636e+001
0	 7.000000000000001e+000	 3.466639999981866e+000	 1.017030859003359e+001
0	 7.000000000000001e+000	 3.533309999982382e+000	 1.017061919458611e+001
0	 7.000000000000003e+000	 3.599979999983601e+000	 1.017079466044080e+001
0	 7.000000000000000e+000	 3.666649999985416e+000	 1.017083403729452e+001
0	 7.000000000000001e+000	 3.733319999987733e+000	 1.017073637484415e+001
0	 7.000000000000001e+000	 3.799989999990450e+000	 1.017050072278653e+001
0	 7.000000000000002e+000	 3.866659999993466e+000	 1.017012613081853e+001
0	 7.000000000000003e+000	 3.933329999996684e+000	 1.016961164863700e+001
0	 7.000000000000001e+000	 4.000000000000000e+000	 1.016895632593881e+001
0	 7.066659999995870e+000	 3.333299999983334e+000	 1.016110661534468e+001
0	 7.066659999995869e+000	 3.399969999982150e+000	 1.016172917648487e+001
0	 7.066659999995869e+000	 3.466639999981866e+000	 1.016222664504298e+001
0	 7.066659999995870e+000	 3.533309999982383e+000	 1.016259808618834e+001
0	 7.066659999995867e+000	 3.599979999983599e+000	 1.016284256509027e+001
0	 7.066659999995870e+000	 3.666649999985417e+000	 1.016295914691809e+001
0	 7.066659999995868e+000	 3.733319999987732e+000	 1.016294689684110e+001
0	 7.066659999995868e+000	 3.799989999990450e+000	 1.016280488002862e+001
0	 7.066659999995869e+000	 3.866659999993466e+000	 1.016253216164996e+001
0	 7.066659999995870e+000	 3.933329999996685e+000	 1.016212780687441e+001
0	 7.066659999995869e+000	 4.000000000000000e+000	 1.016159088087130e+001
0	 7.133319999991937e+000	 3.333299999983333e+000	 1.015299431450013e+001
0	 7.133319999991937e+000	 3.399969999982150e+000	 1.015365879365935e+001
0	 7.133319999991937e+000	 3.466639999981867e+000	 1.015420614965246e+001
0	 7.133319999991935e+000	 3.533309999982383e+000	 1.015463553405688e+001
0	 7.133319999991937e+000	 3.599979999983600e+000	 1.015494609845007e+001
0	 7.133319999991936e+000	 3.666649999985417e+000	 1.015513699440942e+001
0	 7.133319999991936e+000	 3.733319999987733e+000	 1.015520737351238e+001
0	 7.133319999991937e+000	 3.799989999990450e+000	 1.015515638733634e+001
0	 7.133319999991937e+000	 3.866659999993467e+000	 1.015498318745874e+001
0	 7.133319999991937e+000	 3.933329999996684e+000	 1.015468692545700e+001
0	 7.133319999991937e+000	 4.000000000000000e+000	 1.015426675290852e+001
0	 7.199979999988403e+000	 3.333299999983333e+000	 1.014493703299161e+001
0	 7.199979999988402e+000	 3.399969999982149e+000	 1.014564471920663e+001
0	 7.199979999988406e+000	 3.466639999981867e+000	 1.014624259457091e+001
0	 7.199979999988402e+000	 3.533309999982383e+000	 1.014672996800563e+001
0	 7.199979999988403e+000	 3.599979999983599e+000	 1.014710614843198e+001
0	 7.199979999988404e+000	 3.666649999985416e+000	 1.014737044477118e+001
0	 7.199979999988404e+000	 3.733319999987733e+000	 1.014752216594440e+001
0	 7.199979999988401e+000	 3.799989999990448e+000	 1.014756062087282e+001
0	 7.199979999988404e+000	 3.866659999993466e+000	 1.014748511847765e+001
0	 7.199979999988405e+000	 3.933329999996684e+000	 1.014729496768006e+001
0	 7.199979999988402e+000	 4.000000000000000e+000	 1.014698947740122e+001
0	 7.266639999985472e+000	 3.333299999983335e+000	 1.013692294029683e+001
0	 7.266639999985469e+000	 3.399969999982150e+000	 1.013767902372357e+001
0	 7.266639999985470e+000	 3.466639999981866e+000	 1.013833147050725e+001
0	 7.266639999985471e+000	 3.533309999982383e+000	 1.013887981784846e+001
0	 7.266639999985471e+000	 3.599979999983601e+000	 1.013932360294785e+001
0	 7.266639999985471e+000	 3.666649999985415e+000	 1.013966236300602e+001
0	 7.266639999985471e+000	 3.733319999987733e+000	 1.013989563522360e+001
0	 7.266639999985472e+000	 3.799989999990451e+000	 1.014002295680119e+001
0	 7.266639999985470e+000	 3.866659999993466e+000	 1.014004386493941e+001
0	 7.266639999985471e+000	 3.933329999996683e+000	 1.013995789683888e+001
0	 7.266639999985472e+000	 4.000000000000001e+000	 1.013976458970020e+001
0	 7.333299999983335e+000	 3.333299999983335e+000	 1.012894020589348e+001
0	 7.333299999983333e+000	 3.399969999982149e+000	 1.012975377780700e+001
0	 7.333299999983333e+000	 3.466639999981866e+000	 1.013046826817036e+001
0	 7.333299999983333e+000	 3.533309999982382e+000	 1.013108351339928e+001
0	 7.333299999983335e+000	 3.599979999983599e+000	 1.013159934990944e+001
0	 7.333299999983335e+000	 3.666649999985416e+000	 1.013201561411658e+001
0	 7.333299999983335e+000	 3.733319999987733e+000	 1.013233214243638e+001
0	 7.333299999983334e+000	 3.799989999990450e+000	 1.013254877128454e+001
0	 7.333299999983336e+000	 3.866659999993467e+000	 1.013266533707677e+001
0	 7.333299999983332e+000	 3.933329999996682e+000	 1.013268167622876e+001
0	 7.333299999983335e+000	 4.000000000000001e+000	 1.013259762515622e+001
0	 6.666700000016667e+000	 4.000000000000001e+000	 1.020620957056991e+001
0	 6.666700000016666e+000	 4.066670000003316e+000	 1.020482765050613e+001
0	 6.666700000016667e+000	 4.133340000006536e+000	 1.020335346391432e+001
0	 6.666700000016667e+000	 4.200010000009551e+000	 1.020178425613825e+001
0	 6.666700000016667e+000	 4.266680000012268e+000	 1.020011727252172e+001
0	 6.666700000016665e+000	 4.333350000014583e+000	 1.019834975840847e+001
0	 6.666700000016665e+000	 4.400020000016400e+000	 1.019647895914231e+001
0	 6.666700000016667e+000	 4.466690000017618e+000	 1.019450212006699e+001
0	 6.666700000016667e+000	 4.533360000018134e+000	 1.019241648652629e+001
0	 6.666700000016666e+000	 4.600030000017851e+000	 1.019021930386398e+001
0	 6.666700000016667e+000	 4.666700000016667e+000	 1.018790781742381e+001
0	 6.733360000014530e+000	 4.000000000000000e+000	 1.019872057024046e+001
0	 6.733360000014534e+000	 4.066670000003317e+000	 1.019746036421025e+001
0	 6.733360000014532e+000	 4.133340000006534e+000	 1.019611192106090e+001
0	 6.733360000014532e+000	 4.200010000009551e+000	 1.019467227596827e+001
0	 6.733360000014534e+000	 4.266680000012269e+000	 1.019313846410822e+001
0	 6.733360000014532e+000	 4.333350000014584e+000	 1.019150752065663e+001
0	 6.733360000014534e+000	 4.400020000016402e+000	 1.018977648078936e+001
0	 6.733360000014533e+000	 4.466690000017618e+000	 1.018794237968226e+001
0	 6.733360000014533e+000	 4.533360000018133e+000	 1.018600225251119e+001
0	 6.733360000014532e+000	 4.600030000017851e+000	 1.018395313445202e+001
0	 6.733360000014534e+000	 4.666700000016666e+000	 1.018179206068058e+001
0	 6.800020000011598e+000	 4.000000000000000e+000	 1.019124521026185e+001
0	 6.800020000011600e+000	 4.066670000003316e+000	 1.019010820175046e+001
0	 6.800020000011599e+000	 4.133340000006532e+000	 1.018888615780076e+001
0	 6.800020000011601e+000	 4.200010000009550e+000	 1.018757596639559e+001
0	 6.800020000011601e+000	 4.266680000012267e+000	 1.018617451551779e+001
0	 6.800020000011600e+000	 4.333350000014584e+000	 1.018467869315020e+001
0	 6.800020000011601e+000	 4.400020000016401e+000	 1.018308538727563e+001
0	 6.800020000011601e+000	 4.466690000017618e+000	 1.018139148587694e+001
0	 6.800020000011600e+000	 4.533360000018133e+000	 1.017959387693692e+001
0	 6.800020000011598e+000	 4.600030000017850e+000	 1.017768944843843e+001
0	 6.800020000011601e+000	 4.666700000016666e+000	 1.017567508836428e+001
0	 6.866680000008067e+000	 4.000000000000000e+000	 1.018378902598485e+001
0	 6.866680000008068e+000	 4.066670000003318e+000	 1.018277607086115e+001
0	 6.866680000008065e+000	 4.133340000006533e+000	 1.018168053591527e+001
0	 6.866680000008065e+000	 4.200010000009550e+000	 1.018049922491190e+001
0	 6.866680000008067e+000	 4.266680000012268e+000	 1.017922894161574e+001
0	 6.866680000008066e+000	 4.333350000014585e+000	 1.017786648979146e+001
0	 6.866680000008067e+000	 4.400020000016401e+000	 1.017640867320376e+001
0	 6.866680000008065e+000	 4.466690000017615e+000	 1.017485229561732e+001
0	 6.866680000008066e+000	 4.533360000018134e+000	 1.017319416079680e+001
0	 6.866680000008069e+000	 4.600030000017852e+000	 1.017143107250693e+001
0	 6.866680000008066e+000	 4.666700000016666e+000	 1.016955983451232e+001
0	 6.933340000004133e+000	 4.000000000000000e+000	 1.017635755276025e+001
0	 6.933340000004135e+000	 4.066670000003316e+000	 1.017546887927671e+001
0	 6.933340000004135e+000	 4.133340000006534e+000	 1.017449941718577e+001
0	 6.933340000004133e+000	 4.200010000009550e+000	 1.017344594900884e+001
0	 6.933340000004136e+000	 4.266680000012268e+000	 1.017230525726735e+001
0	 6.933340000004135e+000	 4.333350000014584e+000	 1.017107412448272e+001
0	 6.933340000004136e+000	 4.400020000016401e+000	 1.016974933317638e+001
0	 6.933340000004135e+000	 4.466690000017618e+000	 1.016832766586972e+001
0	 6.933340000004135e+000	 4.533360000018134e+000	 1.016680590508419e+001
0	 6.933340000004133e+000	 4.600030000017850e+000	 1.016518083334118e+001
0	 6.933340000004136e+000	 4.666700000016667e+000	 1.016344923316211e+001
0	 7.000000000000001e+000	 4.000000000000000e+000	 1.016895632593881e+001
0	 7.000000000000003e+000	 4.066670000003317e+000	 1.016819153473155e+001
0	 7.000000000000000e+000	 4.133340000006533e+000	 1.016734716339361e+001
0	 7.000000000000001e+000	 4.200010000009551e+000	 1.016642003617806e+001
0	 7.000000000000002e+000	 4.266680000012267e+000	 1.016540697733793e+001
0	 7.000000000000001e+000	 4.333350000014583e+000	 1.016430481112625e+001
0	 7.000000000000004e+000	 4.400020000016402e+000	 1.016311036179608e+001
0	 7.000000000000003e+000	 4.466690000017617e+000	 1.016182045360043e+001
0	 7.000000000000001e+000	 4.533360000018133e+000	 1.016043191079236e+001
0	 7.000000000000001e+000	 4.600030000017851e+000	 1.015894155762489e+001
0	 7.000000000000001e+000	 4.666700000016665e+000	 1.015734621835105e+001
0	 7.066659999995869e+000	 4.000000000000000e+000	 1.016159088087130e+001
0	 7.066659999995870e+000	 4.066670000003318e+000	 1.016094894496003e+001
0	 7.066659999995870e+000	 4.133340000006536e+000	 1.016022813632015e+001
0	 7.066659999995870e+000	 4.200010000009551e+000	 1.015942538391122e+001
0	 7.066659999995870e+000	 4.266680000012267e+000	 1.015853761669278e+001
0	 7.066659999995870e+000	 4.333350000014582e+000	 1.015756176362437e+001
0	 7.066659999995871e+000	 4.400020000016401e+000	 1.015649475366552e+001
0	 7.066659999995868e+000	 4.466690000017617e+000	 1.015533351577578e+001
0	 7.066659999995869e+000	 4.533360000018133e+000	 1.015407497891468e+001
0	 7.066659999995869e+000	 4.600030000017850e+000	 1.015271607204176e+001
0	 7.066659999995868e+000	 4.666700000016665e+000	 1.015125372411654e+001
0	 7.133319999991937e+000	 4.000000000000000e+000	 1.015426675290852e+001
0	 7.133319999991937e+000	 4.066670000003317e+000	 1.015374601769657e+001
0	 7.133319999991935e+000	 4.133340000006533e+000	 1.015314669774674e+001
0	 7.133319999991937e+000	 4.200010000009550e+000	 1.015246588969999e+001
0	 7.133319999991936e+000	 4.266680000012267e+000	 1.015170069019721e+001
0	 7.133319999991936e+000	 4.333350000014584e+000	 1.015084819587936e+001
0	 7.133319999991937e+000	 4.400020000016400e+000	 1.014990550338734e+001
0	 7.133319999991937e+000	 4.466690000017618e+000	 1.014886970936207e+001
0	 7.133319999991936e+000	 4.533360000018132e+000	 1.014773791044448e+001
0	 7.133319999991937e+000	 4.600030000017851e+000	 1.014650720327548e+001
0	 7.133319999991937e+000	 4.666700000016667e+000	 1.014517468449598e+001
0	 7.199979999988402e+000	 4.000000000000000e+000	 1.014698947740122e+001
0	 7.199979999988405e+000	 4.066670000003319e+000	 1.014658766067555e+001
0	 7.199979999988404e+000	 4.133340000006535e+000	 1.014610720945473e+001
0	 7.199979999988403e+000	 4.200010000009551e+000	 1.014554545103600e+001
0	 7.199979999988405e+000	 4.266680000012268e+000	 1.014489971271653e+001
0	 7.199979999988403e+000	 4.333350000014583e+000	 1.014416732179351e+001
0	 7.199979999988403e+000	 4.400020000016400e+000	 1.014334560556414e+001
0	 7.199979999988401e+000	 4.466690000017618e+000	 1.014243189132560e+001
0	 7.199979999988402e+000	 4.533360000018133e+000	 1.014142350637506e+001
0	 7.199979999988404e+000	 4.600030000017850e+000	 1.014031777800972e+001
0	 7.199979999988404e+000	 4.666700000016666e+000	 1.013911203352678e+001
0	 7.266639999985472e+000	 4.000000000000001e+000	 1.013976458970020e+001
0	 7.266639999985472e+000	 4.066670000003318e+000	 1.013947878163135e+001
0	 7.266639999985469e+000	 4.133340000006534e+000	 1.013911403322549e+001
0	 7.266639999985470e+000	 4.200010000009550e+000	 1.013866796541092e+001
0	 7.266639999985470e+000	 4.266680000012267e+000	 1.013813819911603e+001
0	 7.266639999985471e+000	 4.333350000014583e+000	 1.013752235526914e+001
0	 7.266639999985472e+000	 4.400020000016402e+000	 1.013681805479858e+001
0	 7.266639999985471e+000	 4.466690000017617e+000	 1.013602291863268e+001
0	 7.266639999985470e+000	 4.533360000018134e+000	 1.013513456769979e+001
0	 7.266639999985471e+000	 4.600030000017850e+000	 1.013415062292823e+001
0	 7.266639999985471e+000	 4.666700000016665e+000	 1.013306870524634e+001
0	 7.333299999983335e+000	 4.000000000000001e+000	 1.013259762515622e+001
0	 7.333299999983335e+000	 4.066670000003317e+000	 1.013242428829840e+001
0	 7.333299999983334e+000	 4.133340000006534e+000	 1.013217153084034e+001
0	 7.333299999983335e+000	 4.200010000009550e+000	 1.013183733031644e+001
0	 7.333299999983333e+000	 4.266680000012268e+000	 1.013141966426104e+001
0	 7.333299999983333e+000	 4.333350000014583e+000	 1.013091651020853e+001
0	 7.333299999983334e+000	 4.400020000016402e+000	 1.013032584569327e+001
0	 7.333299999983334e+000	 4.466690000017617e+000	 1.012964564824963e+001
0	 7.333299999983334e+000	 4.533360000018134e+000	 1.012887389541198e+001
0	 7.333299999983334e+000	 4.600030000017849e+000	 1.012800856471467e+001
0	 7.333299999983333e+000	 4.666700000016665e+000	 1.012704763369208e+001
0	 6.666700000016667e+000	 4.666700000016667e+000	 1.018790781742382e+001
0	 6.666700000016668e+000	 4.733360000014534e+000	 1.018551999215780e+001
0	 6.666700000016665e+000	 4.800020000011600e+000	 1.018309190355265e+001
0	 6.666700000016667e+000	 4.866680000008067e+000	 1.018061902900137e+001
0	 6.666700000016669e+000	 4.933340000004135e+000	 1.017809684589692e+001
0	 6.666700000016666e+000	 5.000000000000001e+000	 1.017552083163231e+001
0	 6.666700000016667e+000	 5.066659999995867e+000	 1.017288646360051e+001
0	 6.666700000016666e+000	 5.133319999991935e+000	 1.017018921919453e+001
0	 6.666700000016666e+000	 5.199979999988400e+000	 1.016742457580735e+001
0	 6.666700000016665e+000	 5.266639999985468e+000	 1.016458801083200e+001
0	 6.666700000016665e+000	 5.333299999983334e+000	 1.016167500166145e+001
0	 6.733360000014534e+000	 4.666700000016666e+000	 1.018179206068057e+001
0	 6.733360000014531e+000	 4.733360000014534e+000	 1.017955378828194e+001
0	 6.733360000014534e+000	 4.800020000011601e+000	 1.017727175791192e+001
0	 6.733360000014533e+000	 4.866680000008067e+000	 1.017494202817056e+001
0	 6.733360000014532e+000	 4.933340000004134e+000	 1.017256065765792e+001
0	 6.733360000014532e+000	 5.000000000000000e+000	 1.017012370497403e+001
0	 6.733360000014532e+000	 5.066659999995868e+000	 1.016762722871894e+001
0	 6.733360000014533e+000	 5.133319999991935e+000	 1.016506728749271e+001
0	 6.733360000014534e+000	 5.199979999988400e+000	 1.016243993989538e+001
0	 6.733360000014534e+000	 5.266639999985468e+000	 1.015974124452703e+001
0	 6.733360000014532e+000	 5.333299999983334e+000	 1.015696725998770e+001
0	 6.800020000011601e+000	 4.666700000016666e+000	 1.017567508836428e+001
0	 6.800020000011600e+000	 4.733360000014534e+000	 1.017358272217581e+001
0	 6.800020000011599e+000	 4.800020000011600e+000	 1.017144344058468e+001
0	 6.800020000011601e+000	 4.866680000008067e+000	 1.016925381106603e+001
0	 6.800020000011601e+000	 4.933340000004133e+000	 1.016701040109505e+001
0	 6.800020000011601e+000	 5.000000000000001e+000	 1.016470977814691e+001
0	 6.800020000011600e+000	 5.066659999995867e+000	 1.016234850969674e+001
0	 6.800020000011602e+000	 5.133319999991935e+000	 1.015992316321975e+001
0	 6.800020000011599e+000	 5.199979999988400e+000	 1.015743030619109e+001
0	 6.800020000011597e+000	 5.266639999985467e+000	 1.015486650608594e+001
0	 6.800020000011599e+000	 5.333299999983335e+000	 1.015222833037948e+001
0	 6.866680000008066e+000	 4.666700000016666e+000	 1.016955983451232e+001
0	 6.866680000008068e+000	 4.733360000014534e+000	 1.016760988726263e+001
0	 6.866680000008068e+000	 4.800020000011600e+000	 1.016561022682528e+001
0	 6.866680000008068e+000	 4.866680000008068e+000	 1.016355785721863e+001
0	 6.866680000008067e+000	 4.933340000004132e+000	 1.016144978246101e+001
0	 6.866680000008067e+000	 4.999999999999999e+000	 1.015928300657076e+001
0	 6.866680000008067e+000	 5.066659999995867e+000	 1.015705453356624e+001
0	 6.866680000008066e+000	 5.133319999991933e+000	 1.015476136746580e+001
0	 6.866680000008066e+000	 5.199979999988400e+000	 1.015240051228776e+001
0	 6.866680000008068e+000	 5.266639999985467e+000	 1.014996897205050e+001
0	 6.866680000008065e+000	 5.333299999983332e+000	 1.014746375077239e+001
0	 6.933340000004136e+000	 4.666700000016667e+000	 1.016344923316211e+001
0	 6.933340000004135e+000	 4.733360000014534e+000	 1.016163837696562e+001
0	 6.933340000004135e+000	 4.800020000011599e+000	 1.015977539188812e+001
0	 6.933340000004135e+000	 4.866680000008066e+000	 1.015785764615921e+001
0	 6.933340000004132e+000	 4.933340000004131e+000	 1.015588250800847e+001
0	 6.933340000004133e+000	 4.999999999999999e+000	 1.015384734566544e+001
0	 6.933340000004135e+000	 5.066659999995867e+000	 1.015174952735977e+001
0	 6.933340000004135e+000	 5.133319999991935e+000	 1.014958642132099e+001
0	 6.933340000004136e+000	 5.199979999988400e+000	 1.014735539577871e+001
0	 6.933340000004133e+000	 5.266639999985467e+000	 1.014505381896252e+001
0	 6.933340000004134e+000	 5.333299999983333e+000	 1.014267905910200e+001
0	 7.000000000000001e+000	 4.666700000016665e+000	 1.015734621835105e+001
0	 7.000000000000002e+000	 4.733360000014534e+000	 1.015567128470800e+001
0	 7.000000000000002e+000	 4.800020000011600e+000	 1.015394221102757e+001
0	 7.000000000000000e+000	 4.866680000008066e+000	 1.015215665741865e+001
0	 7.000000000000001e+000	 4.933340000004132e+000	 1.015031228399010e+001
0	 7.000000000000002e+000	 4.999999999999999e+000	 1.014840675085079e+001
0	 7.000000000000002e+000	 5.066659999995867e+000	 1.014643771810962e+001
0	 7.000000000000002e+000	 5.133319999991934e+000	 1.014440284587546e+001
0	 7.000000000000003e+000	 5.199979999988400e+000	 1.014229979425721e+001
0	 7.000000000000001e+000	 5.266639999985467e+000	 1.014012622336374e+001
0	 7.000000000000002e+000	 5.333299999983335e+000	 1.013787979330395e+001
0	 7.066659999995868e+000	 4.666700000016665e+000	 1.015125372411654e+001
0	 7.066659999995870e+000	 4.733360000014534e+000	 1.014971170391300e+001
0	 7.066659999995871e+000	 4.800020000011601e+000	 1.014811395949800e+001
0	 7.066659999995870e+000	 4.866680000008066e+000	 1.014645837052780e+001
0	 7.066659999995871e+000	 4.933340000004133e+000	 1.014474281665859e+001
0	 7.066659999995870e+000	 5.000000000000000e+000	 1.014296517754663e+001
0	 7.066659999995869e+000	 5.066659999995866e+000	 1.014112333284814e+001
0	 7.066659999995869e+000	 5.133319999991935e+000	 1.013921516221937e+001
0	 7.066659999995871e+000	 5.199979999988401e+000	 1.013723854531656e+001
0	 7.066659999995870e+000	 5.266639999985467e+000	 1.013519136179595e+001
0	 7.066659999995871e+000	 5.333299999983334e+000	 1.013307149131379e+001
0	 7.133319999991937e+000	 4.666700000016667e+000	 1.014517468449597e+001
0	 7.133319999991937e+000	 4.733360000014534e+000	 1.014376272800385e+001
0	 7.133319999991937e+000	 4.800020000011600e+000	 1.014229391255382e+001
0	 7.133319999991936e+000	 4.866680000008067e+000	 1.014076626501754e+001
0	 7.133319999991937e+000	 4.933340000004133e+000	 1.013917781226664e+001
0	 7.133319999991937e+000	 4.999999999999999e+000	 1.013752658117280e+001
0	 7.133319999991937e+000	 5.066659999995867e+000	 1.013581059860765e+001
0	 7.133319999991937e+000	 5.133319999991935e+000	 1.013402789144285e+001
0	 7.133319999991937e+000	 5.199979999988400e+000	 1.013217648655006e+001
0	 7.133319999991937e+000	 5.266639999985468e+000	 1.013025441080094e+001
0	 7.133319999991937e+000	 5.333299999983334e+000	 1.012825969106714e+001
0	 7.199979999988404e+000	 4.666700000016666e+000	 1.013911203352678e+001
0	 7.199979999988404e+000	 4.733360000014532e+000	 1.013782745040376e+001
0	 7.199979999988403e+000	 4.800020000011600e+000	 1.013648534544937e+001
0	 7.199979999988404e+000	 4.866680000008066e+000	 1.013508382041872e+001
0	 7.199979999988403e+000	 4.933340000004133e+000	 1.013362097706694e+001
0	 7.199979999988403e+000	 4.999999999999999e+000	 1.013209491714914e+001
0	 7.199979999988406e+000	 5.066659999995866e+000	 1.013050374242046e+001
0	 7.199979999988405e+000	 5.133319999991934e+000	 1.012884555463603e+001
0	 7.199979999988405e+000	 5.199979999988401e+000	 1.012711845555099e+001
0	 7.199979999988403e+000	 5.266639999985467e+000	 1.012532054692045e+001
0	 7.199979999988404e+000	 5.333299999983335e+000	 1.012344993049958e+001
0	 7.266639999985471e+000	 4.666700000016665e+000	 1.013306870524634e+001
0	 7.266639999985471e+000	 4.733360000014534e+000	 1.013190896453598e+001
0	 7.266639999985471e+000	 4.800020000011601e+000	 1.013069153343906e+001
0	 7.266639999985471e+000	 4.866680000008067e+000	 1.012941451626223e+001
0	 7.266639999985473e+000	 4.933340000004134e+000	 1.012807601731215e+001
0	 7.266639999985472e+000	 5.000000000000000e+000	 1.012667414089549e+001
0	 7.266639999985472e+000	 5.066659999995866e+000	 1.012520699131891e+001
0	 7.266639999985470e+000	 5.133319999991934e+000	 1.012367267288906e+001
0	 7.266639999985471e+000	 5.199979999988400e+000	 1.012206928991265e+001
0	 7.266639999985471e+000	 5.266639999985467e+000	 1.012039494669632e+001
0	 7.266639999985469e+000	 5.333299999983333e+000	 1.011864774754673e+001
0	 7.333299999983333e+000	 4.666700000016665e+000	 1.012704763369209e+001
0	 7.333299999983334e+000	 4.733360000014534e+000	 1.012601036382372e+001
0	 7.333299999983334e+000	 4.800020000011600e+000	 1.012491575177724e+001
0	 7.333299999983334e+000	 4.866680000008068e+000	 1.012376183207891e+001
0	 7.333299999983335e+000	 4.933340000004134e+000	 1.012254663925498e+001
0	 7.333299999983335e+000	 4.999999999999999e+000	 1.012126820783169e+001
0	 7.333299999983336e+000	 5.066659999995867e+000	 1.011992457233531e+001
0	 7.333299999983335e+000	 5.133319999991935e+000	 1.011851376729211e+001
0	 7.333299999983335e+000	 5.199979999988400e+000	 1.011703382722833e+001
0	 7.333299999983333e+000	 5.266639999985469e+000	 1.011548278667027e+001
0	 7.333299999983334e+000	 5.333299999983333e+000	 1.011385868014417e+001
0	 6.666700000016665e+000	 5.333299999983334e+000	 1.016167500166145e+001
0	 6.666700000016668e+000	 5.399969999982151e+000	 1.015871745860177e+001
0	 6.666700000016667e+000	 5.466639999981866e+000	 1.015574904985354e+001
0	 6.666700000016667e+000	 5.533309999982384e+000	 1.015276656078625e+001
0	 6.666700000016667e+000	 5.599979999983600e+000	 1.014976677676937e+001
0	 6.666700000016665e+000	 5.666649999985416e+000	 1.014674648317236e+001
0	 6.666700000016665e+000	 5.733319999987732e+000	 1.014370246536470e+001
0	 6.666700000016665e+000	 5.799989999990448e+000	 1.014063150871587e+001
0	 6.666700000016665e+000	 5.866659999993468e+000	 1.013753039859531e+001
0	 6.666700000016665e+000	 5.933329999996682e+000	 1.013439592037252e+001
0	 6.666700000016668e+000	 6.000000000000002e+000	 1.013122485941696e+001
0	 6.733360000014532e+000	 5.333299999983334e+000	 1.015696725998770e+001
0	 6.733360000014532e+000	 5.399969999982151e+000	 1.015414867394277e+001
0	 6.733360000014532e+000	 5.466639999981866e+000	 1.015131743657176e+001
0	 6.733360000014530e+000	 5.533309999982382e+000	 1.014847023429501e+001
0	 6.733360000014530e+000	 5.599979999983599e+000	 1.014560375353285e+001
0	 6.733360000014532e+000	 5.666649999985415e+000	 1.014271468070564e+001
0	 6.733360000014531e+000	 5.733319999987733e+000	 1.013979970223371e+001
0	 6.733360000014533e+000	 5.799989999990450e+000	 1.013685550453742e+001
0	 6.733360000014533e+000	 5.866659999993468e+000	 1.013387877403708e+001
0	 6.733360000014532e+000	 5.933329999996683e+000	 1.013086619715308e+001
0	 6.733360000014532e+000	 6.000000000000000e+000	 1.012781446030572e+001
0	 6.800020000011599e+000	 5.333299999983335e+000	 1.015222833037948e+001
0	 6.800020000011599e+000	 5.399969999982150e+000	 1.014954542256767e+001
0	 6.800020000011599e+000	 5.466639999981864e+000	 1.014684826453678e+001
0	 6.800020000011601e+000	 5.533309999982385e+000	 1.014413347679851e+001
0	 6.800020000011601e+000	 5.599979999983599e+000	 1.014139767986453e+001
0	 6.800020000011599e+000	 5.666649999985417e+000	 1.013863749424653e+001
0	 6.800020000011601e+000	 5.733319999987733e+000	 1.013584954045623e+001
0	 6.800020000011600e+000	 5.799989999990451e+000	 1.013303043900530e+001
0	 6.800020000011601e+000	 5.866659999993466e+000	 1.013017681040544e+001
0	 6.800020000011601e+000	 5.933329999996684e+000	 1.012728527516835e+001
0	 6.800020000011599e+000	 6.000000000000000e+000	 1.012435245380570e+001
0	 6.866680000008065e+000	 5.333299999983332e+000	 1.014746375077238e+001
0	 6.866680000008067e+000	 5.399969999982150e+000	 1.014491359095003e+001
0	 6.866680000008067e+000	 5.466639999981866e+000	 1.014234772049131e+001
0	 6.866680000008065e+000	 5.533309999982381e+000	 1.013976272703975e+001
0	 6.866680000008065e+000	 5.599979999983598e+000	 1.013715519823884e+001
0	 6.866680000008067e+000	 5.666649999985416e+000	 1.013452172173214e+001
0	 6.866680000008067e+000	 5.733319999987732e+000	 1.013185888516316e+001
0	 6.866680000008067e+000	 5.799989999990450e+000	 1.012916327617540e+001
0	 6.866680000008065e+000	 5.866659999993467e+000	 1.012643148241240e+001
0	 6.866680000008066e+000	 5.933329999996683e+000	 1.012366009151768e+001
0	 6.866680000008067e+000	 6.000000000000000e+000	 1.012084569113473e+001
0	 6.933340000004134e+000	 5.333299999983333e+000	 1.014267905910200e+001
0	 6.933340000004134e+000	 5.399969999982148e+000	 1.014025906556339e+001
0	 6.933340000004135e+000	 5.466639999981866e+000	 1.013782199117802e+001
0	 6.933340000004135e+000	 5.533309999982381e+000	 1.013536442376171e+001
0	 6.933340000004136e+000	 5.599979999983600e+000	 1.013288295113030e+001
0	 6.933340000004135e+000	 5.666649999985418e+000	 1.013037416109960e+001
0	 6.933340000004135e+000	 5.733319999987732e+000	 1.012783464148544e+001
0	 6.933340000004135e+000	 5.799989999990449e+000	 1.012526098010365e+001
0	 6.933340000004134e+000	 5.866659999993468e+000	 1.012264976477005e+001
0	 6.933340000004136e+000	 5.933329999996682e+000	 1.011999758330046e+001
0	 6.933340000004135e+000	 5.999999999999999e+000	 1.011730102351070e+001
0	 7.000000000000002e+000	 5.333299999983335e+000	 1.013787979330395e+001
0	 7.000000000000003e+000	 5.399969999982150e+000	 1.013558773288133e+001
0	 7.000000000000001e+000	 5.466639999981865e+000	 1.013327726333962e+001
0	 7.000000000000002e+000	 5.533309999982384e+000	 1.013094500570742e+001
0	 7.000000000000002e+000	 5.599979999983599e+000	 1.012858758101335e+001
0	 7.000000000000002e+000	 5.666649999985417e+000	 1.012620161028601e+001
0	 7.000000000000002e+000	 5.733319999987733e+000	 1.012378371455400e+001
0	 7.000000000000003e+000	 5.799989999990449e+000	 1.012133051484594e+001
0	 7.000000000000002e+000	 5.866659999993467e+000	 1.011883863219041e+001
0	 7.000000000000002e+000	 5.933329999996682e+000	 1.011630468761605e+001
0	 7.000000000000002e+000	 6.000000000000000e+000	 1.011372530215145e+001
0	 7.066659999995871e+000	 5.333299999983334e+000	 1.013307149131379e+001
0	 7.066659999995871e+000	 5.399969999982151e+000	 1.013090547937740e+001
0	 7.066659999995870e+000	 5.466639999981867e+000	 1.012871972371881e+001
0	 7.066659999995869e+000	 5.533309999982382e+000	 1.012651091161988e+001
0	 7.066659999995868e+000	 5.599979999983598e+000	 1.012427573036248e+001
0	 7.066659999995871e+000	 5.666649999985417e+000	 1.012201086722848e+001
0	 7.066659999995869e+000	 5.733319999987732e+000	 1.011971300949975e+001
0	 7.066659999995869e+000	 5.799989999990451e+000	 1.011737884445815e+001
0	 7.066659999995870e+000	 5.866659999993467e+000	 1.011500505938555e+001
0	 7.066659999995871e+000	 5.933329999996683e+000	 1.011258834156381e+001
0	 7.066659999995868e+000	 5.999999999999998e+000	 1.011012537827481e+001
0	 7.133319999991937e+000	 5.333299999983334e+000	 1.012825969106714e+001
0	 7.133319999991936e+000	 5.399969999982148e+000	 1.012621819152517e+001
0	 7.133319999991937e+000	 5.466639999981866e+000	 1.012415555905829e+001
0	 7.133319999991937e+000	 5.533309999982383e+000	 1.012206858024208e+001
0	 7.133319999991936e+000	 5.599979999983598e+000	 1.011995404165216e+001
0	 7.133319999991937e+000	 5.666649999985417e+000	 1.011780872986414e+001
0	 7.133319999991935e+000	 5.733319999987732e+000	 1.011562943145362e+001
0	 7.133319999991938e+000	 5.799989999990449e+000	 1.011341293299621e+001
0	 7.133319999991937e+000	 5.866659999993467e+000	 1.011115602106751e+001
0	 7.133319999991937e+000	 5.933329999996683e+000	 1.010885548224312e+001
0	 7.133319999991937e+000	 6.000000000000000e+000	 1.010650810309865e+001
0	 7.199979999988404e+000	 5.333299999983335e+000	 1.012344993049958e+001
0	 7.199979999988404e+000	 5.399969999982150e+000	 1.012153175579820e+001
0	 7.199979999988403e+000	 5.466639999981866e+000	 1.011959095610074e+001
0	 7.199979999988404e+000	 5.533309999982383e+000	 1.011762445031701e+001
0	 7.199979999988405e+000	 5.599979999983601e+000	 1.011562915735685e+001
0	 7.199979999988403e+000	 5.666649999985415e+000	 1.011360199613009e+001
0	 7.199979999988403e+000	 5.733319999987732e+000	 1.011153988554653e+001
0	 7.199979999988404e+000	 5.799989999990449e+000	 1.010943974451600e+001
0	 7.199979999988404e+000	 5.866659999993468e+000	 1.010729849194832e+001
0	 7.199979999988405e+000	 5.933329999996684e+000	 1.010511304675334e+001
0	 7.199979999988402e+000	 6.000000000000000e+000	 1.010288032784082e+001
0	 7.266639999985469e+000	 5.333299999983333e+000	 1.011864774754673e+001
0	 7.266639999985471e+000	 5.399969999982150e+000	 1.011685205867004e+001
0	 7.266639999985472e+000	 5.466639999981868e+000	 1.011503210158885e+001
0	 7.266639999985470e+000	 5.533309999982383e+000	 1.011318496058768e+001
0	 7.266639999985471e+000	 5.599979999983599e+000	 1.011130771995104e+001
0	 7.266639999985472e+000	 5.666649999985416e+000	 1.010939746396344e+001
0	 7.266639999985471e+000	 5.733319999987733e+000	 1.010745127690941e+001
0	 7.266639999985471e+000	 5.799989999990450e+000	 1.010546624307345e+001
0	 7.266639999985471e+000	 5.866659999993466e+000	 1.010343944674007e+001
0	 7.266639999985472e+000	 5.933329999996683e+000	 1.010136797219382e+001
0	 7.266639999985472e+000	 6.000000000000001e+000	 1.009924890371915e+001
0	 7.333299999983334e+000	 5.333299999983333e+000	 1.011385868014417e+001
0	 7.333299999983335e+000	 5.399969999982150e+000	 1.011218498661427e+001
0	 7.333299999983333e+000	 5.466639999981867e+000	 1.011048518226535e+001
0	 7.333299999983334e+000	 5.533309999982385e+000	 1.010875654979710e+001
0	 7.333299999983335e+000	 5.599979999983599e+000	 1.010699637190920e+001
0	 7.333299999983334e+000	 5.666649999985417e+000	 1.010520193130132e+001
0	 7.333299999983336e+000	 5.733319999987733e+000	 1.010337051067317e+001
0	 7.333299999983334e+000	 5.799989999990449e+000	 1.010149939272444e+001
0	 7.333299999983333e+000	 5.866659999993468e+000	 1.009958586015479e+001
0	 7.333299999983334e+000	 5.933329999996684e+000	 1.009762719566393e+001
0	 7.333299999983334e+000	 6.000000000000002e+000	 1.009562068195152e+001
0	 6.666700000016668e+000	 6.000000000000002e+000	 1.013122485941696e+001
0	 6.666700000016667e+000	 6.066670000003318e+000	 1.012804460011964e+001
0	 6.666700000016665e+000	 6.133340000006532e+000	 1.012488256885242e+001
0	 6.666700000016666e+000	 6.200010000009550e+000	 1.012173561395595e+001
0	 6.666700000016666e+000	 6.266680000012267e+000	 1.011860058377092e+001
0	 6.666700000016667e+000	 6.333350000014586e+000	 1.011547432663799e+001
0	 6.666700000016667e+000	 6.400020000016401e+000	 1.011235369089785e+001
0	 6.666700000016667e+000	 6.466690000017616e+000	 1.010923552489116e+001
0	 6.666700000016666e+000	 6.533360000018132e+000	 1.010611667695860e+001
0	 6.666700000016667e+000	 6.600030000017851e+000	 1.010299399544087e+001
0	 6.666700000016666e+000	 6.666700000016667e+000	 1.009986432867861e+001
0	 6.733360000014532e+000	 6.000000000000000e+000	 1.012781446030572e+001
0	 6.733360000014534e+000	 6.066670000003316e+000	 1.012475072179970e+001
0	 6.733360000014533e+000	 6.133340000006534e+000	 1.012170234343481e+001
0	 6.733360000014533e+000	 6.200010000009552e+000	 1.011866631687409e+001
0	 6.733360000014532e+000	 6.266680000012268e+000	 1.011563963378058e+001
0	 6.733360000014531e+000	 6.333350000014582e+000	 1.011261928581728e+001
0	 6.733360000014532e+000	 6.400020000016401e+000	 1.010960226464721e+001
0	 6.733360000014532e+000	 6.466690000017618e+000	 1.010658556193341e+001
0	 6.733360000014531e+000	 6.533360000018131e+000	 1.010356616933890e+001
0	 6.733360000014532e+000	 6.600030000017852e+000	 1.010054107852670e+001
0	 6.733360000014532e+000	 6.666700000016667e+000	 1.009750728115982e+001
0	 6.800020000011599e+000	 6.000000000000000e+000	 1.012435245380570e+001
0	 6.800020000011599e+000	 6.066670000003315e+000	 1.012140512532066e+001
0	 6.800020000011600e+000	 6.133340000006532e+000	 1.011847040384296e+001
0	 6.800020000011601e+000	 6.200010000009552e+000	 1.011554541257407e+001
0	 6.800020000011598e+000	 6.266680000012264e+000	 1.011262727471551e+001
0	 6.800020000011599e+000	 6.333350000014585e+000	 1.010971311346875e+001
0	 6.800020000011601e+000	 6.400020000016402e+000	 1.010680005203528e+001
0	 6.800020000011601e+000	 6.466690000017619e+000	 1.010388521361660e+001
0	 6.800020000011600e+000	 6.533360000018136e+000	 1.010096572141419e+001
0	 6.800020000011600e+000	 6.600030000017851e+000	 1.009803869862957e+001
0	 6.800020000011599e+000	 6.666700000016666e+000	 1.009510126846420e+001
0	 6.866680000008067e+000	 6.000000000000000e+000	 1.012084569113473e+001
0	 6.866680000008066e+000	 6.066670000003317e+000	 1.011801455224094e+001
0	 6.866680000008067e+000	 6.133340000006534e+000	 1.011519338268873e+001
0	 6.866680000008067e+000	 6.200010000009553e+000	 1.011237942543415e+001
0	 6.866680000008067e+000	 6.266680000012267e+000	 1.010956992343331e+001
0	 6.866680000008068e+000	 6.333350000014585e+000	 1.010676211964228e+001
0	 6.866680000008067e+000	 6.400020000016401e+000	 1.010395325701712e+001
0	 6.866680000008068e+000	 6.466690000017618e+000	 1.010114057851395e+001
0	 6.866680000008065e+000	 6.533360000018133e+000	 1.009832132708882e+001
0	 6.866680000008067e+000	 6.600030000017850e+000	 1.009549274569783e+001
0	 6.866680000008066e+000	 6.666700000016666e+000	 1.009265207729705e+001
0	 6.933340000004135e+000	 5.999999999999999e+000	 1.011730102351070e+001
0	 6.933340000004135e+000	 6.066670000003317e+000	 1.011458574411894e+001
0	 6.933340000004134e+000	 6.133340000006533e+000	 1.011187791258397e+001
0	 6.933340000004134e+000	 6.200010000009551e+000	 1.010917487983259e+001
0	 6.933340000004134e+000	 6.266680000012267e+000	 1.010647399679158e+001
0	 6.933340000004135e+000	 6.333350000014587e+000	 1.010377261438774e+001
0	 6.933340000004134e+000	 6.400020000016400e+000	 1.010106808354785e+001
0	 6.933340000004135e+000	 6.466690000017616e+000	 1.009835775519871e+001
0	 6.933340000004133e+000	 6.533360000018133e+000	 1.009563898026711e+001
0	 6.933340000004133e+000	 6.600030000017850e+000	 1.009290910967983e+001
0	 6.933340000004135e+000	 6.666700000016667e+000	 1.009016549436367e+001
0	 7.000000000000002e+000	 6.000000000000000e+000	 1.011372530215145e+001
0	 7.000000000000001e+000	 6.066670000003315e+000	 1.011112544251302e+001
0	 7.000000000000001e+000	 6.133340000006533e+000	 1.010853062614055e+001
0	 7.000000000000002e+000	 6.200010000009550e+000	 1.010593830014766e+001
0	 7.000000000000001e+000	 6.266680000012267e+000	 1.010334591164794e+001
0	 6.999999999999999e+000	 6.333350000014583e+000	 1.010075090775504e+001
0	 7.000000000000003e+000	 6.400020000016401e+000	 1.009815073558256e+001
0	 7.000000000000001e+000	 6.466690000017617e+000	 1.009554284224414e+001
0	 7.000000000000003e+000	 6.533360000018134e+000	 1.009292467485339e+001
0	 6.999999999999999e+000	 6.600030000017848e+000	 1.009029368052390e+001
0	 7.000000000000003e+000	 6.666700000016667e+000	 1.008764730636934e+001
0	 7.066659999995868e+000	 5.999999999999998e+000	 1.011012537827481e+001
0	 7.066659999995870e+000	 6.066670000003318e+000	 1.010764038898159e+001
0	 7.066659999995870e+000	 6.133340000006535e+000	 1.010515815597033e+001
0	 7.066659999995870e+000	 6.200010000009553e+000	 1.010267621075760e+001
0	 7.066659999995871e+000	 6.266680000012268e+000	 1.010019208485998e+001
0	 7.066659999995869e+000	 6.333350000014583e+000	 1.009770330979404e+001
0	 7.066659999995869e+000	 6.400020000016400e+000	 1.009520741707635e+001
0	 7.066659999995870e+000	 6.466690000017619e+000	 1.009270193822346e+001
0	 7.066659999995870e+000	 6.533360000018135e+000	 1.009018440475195e+001
0	 7.066659999995870e+000	 6.600030000017852e+000	 1.008765234817839e+001
0	 7.066659999995870e+000	 6.666700000016668e+000	 1.008510330001936e+001
0	 7.133319999991937e+000	 6.000000000000000e+000	 1.010650810309865e+001
0	 7.133319999991937e+000	 6.066670000003318e+000	 1.010413732508302e+001
0	 7.133319999991937e+000	 6.133340000006534e+000	 1.010176713468516e+001
0	 7.133319999991937e+000	 6.200010000009551e+000	 1.009939513604073e+001
0	 7.133319999991937e+000	 6.266680000012268e+000	 1.009701893328533e+001
0	 7.133319999991937e+000	 6.333350000014583e+000	 1.009463613055465e+001
0	 7.133319999991937e+000	 6.400020000016401e+000	 1.009224433198428e+001
0	 7.133319999991937e+000	 6.466690000017618e+000	 1.008984114170991e+001
0	 7.133319999991936e+000	 6.533360000018134e+000	 1.008742416386716e+001
0	 7.133319999991937e+000	 6.600030000017851e+000	 1.008499100259163e+001
0	 7.133319999991937e+000	 6.666700000016666e+000	 1.008253926201901e+001
0	 7.199979999988402e+000	 6.000000000000000e+000	 1.010288032784082e+001
0	 7.199979999988403e+000	 6.066670000003315e+000	 1.010062299237571e+001
0	 7.199979999988403e+000	 6.133340000006532e+000	 1.009836419489691e+001
0	 7.199979999988404e+000	 6.200010000009550e+000	 1.009610160037526e+001
0	 7.199979999988403e+000	 6.266680000012268e+000	 1.009383287378159e+001
0	 7.199979999988404e+000	 6.333350000014582e+000	 1.009155568008673e+001
0	 7.199979999988403e+000	 6.400020000016398e+000	 1.008926768426151e+001
0	 7.199979999988405e+000	 6.466690000017617e+000	 1.008696655127676e+001
0	 7.199979999988401e+000	 6.533360000018133e+000	 1.008464994610329e+001
0	 7.199979999988405e+000	 6.600030000017851e+000	 1.008231553371197e+001
0	 7.199979999988403e+000	 6.666700000016665e+000	 1.007996097907359e+001
0	 7.266639999985472e+000	 6.000000000000001e+000	 1.009924890371915e+001
0	 7.266639999985472e+000	 6.066670000003317e+000	 1.009710413241803e+001
0	 7.266639999985470e+000	 6.133340000006532e+000	 1.009495596921742e+001
0	 7.266639999985472e+000	 6.200010000009552e+000	 1.009280212813949e+001
0	 7.266639999985471e+000	 6.266680000012268e+000	 1.009064032320635e+001
0	 7.266639999985471e+000	 6.333350000014582e+000	 1.008846826844019e+001
0	 7.266639999985472e+000	 6.400020000016402e+000	 1.008628367786310e+001
0	 7.266639999985471e+000	 6.466690000017617e+000	 1.008408426549722e+001
0	 7.266639999985472e+000	 6.533360000018135e+000	 1.008186774536473e+001
0	 7.266639999985471e+000	 6.600030000017851e+000	 1.007963183148774e+001
0	 7.266639999985470e+000	 6.666700000016665e+000	 1.007737423788839e+001
0	 7.333299999983334e+000	 6.000000000000002e+000	 1.009562068195152e+001
0	 7.333299999983334e+000	 6.066670000003316e+000	 1.009358748676838e+001
0	 7.333299999983332e+000	 6.133340000006531e+000	 1.009154909025858e+001
0	 7.333299999983334e+000	 6.200010000009550e+000	 1.008950324371169e+001
0	 7.333299999983334e+000	 6.266680000012268e+000	 1.008744769841726e+001
0	 7.333299999983335e+000	 6.333350000014586e+000	 1.008538020566488e+001
0	 7.333299999983336e+000	 6.400020000016400e+000	 1.008329851674414e+001
0	 7.333299999983333e+000	 6.466690000017615e+000	 1.008120038294458e+001
0	 7.333299999983334e+000	 6.533360000018135e+000	 1.007908355555577e+001
0	 7.333299999983335e+000	 6.600030000017851e+000	 1.007694578586730e+001
0	 7.333299999983333e+000	 6.666700000016665e+000	 1.007478482516870e+001
0	 6.666700000016666e+000	 6.666700000016667e+000	 1.009986432867861e+001
0	 6.666700000016667e+000	 6.733360000014533e+000	 1.009674866551614e+001
0	 6.666700000016665e+000	 6.800020000011598e+000	 1.009366749734562e+001
0	 6.666700000016666e+000	 6.866680000008067e+000	 1.009061833665349e+001
0	 6.666700000016667e+000	 6.933340000004133e+000	 1.008759869592617e+001
0	 6.666700000016665e+000	 6.999999999999999e+000	 1.008460608765008e+001
0	 6.666700000016667e+000	 7.066659999995868e+000	 1.008163802431167e+001
0	 6.666700000016665e+000	 7.133319999991936e+000	 1.007869201839735e+001
0	 6.666700000016666e+000	 7.199979999988400e+000	 1.007576558239353e+001
0	 6.666700000016666e+000	 7.266639999985467e+000	 1.007285622878666e+001
0	 6.666700000016665e+000	 7.333299999983333e+000	 1.006996147006314e+001
0	 6.733360000014532e+000	 6.666700000016667e+000	 1.009750728115982e+001
0	 6.733360000014534e+000	 6.733360000014534e+000	 1.009448555685380e+001
0	 6.733360000014534e+000	 6.800020000011599e+000	 1.009149611338365e+001
0	 6.733360000014532e+000	 6.866680000008068e+000	 1.008853645220234e+001
0	 6.733360000014532e+000	 6.933340000004133e+000	 1.008560407476278e+001
0	 6.733360000014533e+000	 7.000000000000000e+000	 1.008269648251792e+001
0	 6.733360000014532e+000	 7.066659999995870e+000	 1.007981117692068e+001
0	 6.733360000014534e+000	 7.133319999991937e+000	 1.007694565942401e+001
0	 6.733360000014534e+000	 7.199979999988401e+000	 1.007409743148083e+001
0	 6.733360000014532e+000	 7.266639999985467e+000	 1.007126399454410e+001
0	 6.733360000014532e+000	 7.333299999983334e+000	 1.006844285006673e+001
0	 6.800020000011599e+000	 6.666700000016666e+000	 1.009510126846420e+001
0	 6.800020000011600e+000	 6.733360000014534e+000	 1.009217399754641e+001
0	 6.800020000011600e+000	 6.800020000011601e+000	 1.008927681987694e+001
0	 6.800020000011601e+000	 6.866680000008067e+000	 1.008640723426647e+001
0	 6.800020000011600e+000	 6.933340000004134e+000	 1.008356273952566e+001
0	 6.800020000011599e+000	 7.000000000000001e+000	 1.008074083446518e+001
0	 6.800020000011599e+000	 7.066659999995865e+000	 1.007793901789569e+001
0	 6.800020000011600e+000	 7.133319999991935e+000	 1.007515478862788e+001
0	 6.800020000011601e+000	 7.199979999988401e+000	 1.007238564547239e+001
0	 6.800020000011598e+000	 7.266639999985466e+000	 1.006962908723990e+001
0	 6.800020000011599e+000	 7.333299999983334e+000	 1.006688261274106e+001
0	 6.866680000008066e+000	 6.666700000016666e+000	 1.009265207729706e+001
0	 6.866680000008067e+000	 6.733360000014532e+000	 1.008981967070491e+001
0	 6.866680000008068e+000	 6.800020000011601e+000	 1.008701519489562e+001
0	 6.866680000008065e+000	 6.866680000008065e+000	 1.008423615442883e+001
0	 6.866680000008067e+000	 6.933340000004134e+000	 1.008148005386412e+001
0	 6.866680000008066e+000	 6.999999999999998e+000	 1.007874439776114e+001
0	 6.866680000008067e+000	 7.066659999995866e+000	 1.007602669067951e+001
0	 6.866680000008067e+000	 7.133319999991934e+000	 1.007332443717882e+001
0	 6.866680000008066e+000	 7.199979999988402e+000	 1.007063514181872e+001
0	 6.866680000008068e+000	 7.266639999985467e+000	 1.006795630915882e+001
0	 6.866680000008064e+000	 7.333299999983331e+000	 1.006528544375874e+001
0	 6.933340000004135e+000	 6.666700000016667e+000	 1.009016549436367e+001
0	 6.933340000004135e+000	 6.733360000014533e+000	 1.008742825944023e+001
0	 6.933340000004135e+000	 6.800020000011600e+000	 1.008471681650984e+001
0	 6.933340000004135e+000	 6.866680000008066e+000	 1.008202868427233e+001
0	 6.933340000004134e+000	 6.933340000004133e+000	 1.007936138142746e+001
0	 6.933340000004135e+000	 6.999999999999999e+000	 1.007671242667503e+001
0	 6.933340000004134e+000	 7.066659999995865e+000	 1.007407933871486e+001
0	 6.933340000004136e+000	 7.133319999991936e+000	 1.007145963624670e+001
0	 6.933340000004134e+000	 7.199979999988400e+000	 1.006885083797037e+001
0	 6.933340000004135e+000	 7.266639999985467e+000	 1.006625046258566e+001
0	 6.933340000004135e+000	 7.333299999983335e+000	 1.006365602879236e+001
0	 7.000000000000003e+000	 6.666700000016667e+000	 1.008764730636934e+001
0	 7.000000000000003e+000	 6.733360000014531e+000	 1.008500544686329e+001
0	 7.000000000000002e+000	 6.800020000011599e+000	 1.008238726278976e+001
0	 7.000000000000002e+000	 6.866680000008066e+000	 1.007979029537992e+001
0	 7.000000000000002e+000	 6.933340000004133e+000	 1.007721208586498e+001
0	 7.000000000000004e+000	 7.000000000000000e+000	 1.007465017547610e+001
0	 7.000000000000002e+000	 7.066659999995866e+000	 1.007210210544451e+001
0	 7.000000000000003e+000	 7.133319999991936e+000	 1.006956541700137e+001
0	 7.000000000000001e+000	 7.199979999988400e+000	 1.006703765137786e+001
0	 7.000000000000001e+000	 7.266639999985466e+000	 1.006451634980520e+001
0	 7.000000000000001e+000	 7.333299999983334e+000	 1.006199905351455e+001
0	 7.066659999995870e+000	 6.666700000016668e+000	 1.008510330001936e+001
0	 7.066659999995871e+000	 6.733360000014533e+000	 1.008255691608504e+001
0	 7.066659999995871e+000	 6.800020000011601e+000	 1.008003211180551e+001
0	 7.066659999995869e+000	 6.866680000008066e+000	 1.007752645933455e+001
0	 7.066659999995870e+000	 6.933340000004133e+000	 1.007503753082600e+001
0	 7.066659999995870e+000	 7.000000000000000e+000	 1.007256289843363e+001
0	 7.066659999995870e+000	 7.066659999995866e+000	 1.007010013431125e+001
0	 7.066659999995870e+000	 7.133319999991935e+000	 1.006764681061269e+001
0	 7.066659999995869e+000	 7.199979999988401e+000	 1.006520049949173e+001
0	 7.066659999995869e+000	 7.266639999985467e+000	 1.006275877310221e+001
0	 7.066659999995870e+000	 7.333299999983335e+000	 1.006031920359788e+001
0	 7.133319999991937e+000	 6.666700000016666e+000	 1.008253926201901e+001
0	 7.133319999991937e+000	 6.733360000014534e+000	 1.008008835021641e+001
0	 7.133319999991937e+000	 6.800020000011600e+000	 1.007765694162724e+001
0	 7.133319999991936e+000	 6.866680000008067e+000	 1.007524264771916e+001
0	 7.133319999991937e+000	 6.933340000004133e+000	 1.007284307995980e+001
0	 7.133319999991937e+000	 6.999999999999999e+000	 1.007045584981682e+001
0	 7.133319999991937e+000	 7.066659999995865e+000	 1.006807856875784e+001
0	 7.133319999991937e+000	 7.133319999991935e+000	 1.006570884825053e+001
0	 7.133319999991937e+000	 7.199979999988401e+000	 1.006334429976253e+001
0	 7.133319999991937e+000	 7.266639999985466e+000	 1.006098253476147e+001
0	 7.133319999991937e+000	 7.333299999983333e+000	 1.005862116471498e+001
0	 7.199979999988403e+000	 6.666700000016665e+000	 1.007996097907359e+001
0	 7.199979999988403e+000	 6.733360000014533e+000	 1.007760543236831e+001
0	 7.199979999988404e+000	 6.800020000011600e+000	 1.007526733032508e+001
0	 7.199979999988404e+000	 6.866680000008068e+000	 1.007294433211667e+001
0	 7.199979999988404e+000	 6.933340000004134e+000	 1.007063409691570e+001
0	 7.199979999988402e+000	 6.999999999999997e+000	 1.006833428389493e+001
0	 7.199979999988404e+000	 7.066659999995867e+000	 1.006604255222704e+001
0	 7.199979999988404e+000	 7.133319999991935e+000	 1.006375656108476e+001
0	 7.199979999988404e+000	 7.199979999988401e+000	 1.006147396964074e+001
0	 7.199979999988406e+000	 7.266639999985467e+000	 1.005919243706775e+001
0	 7.199979999988405e+000	 7.333299999983335e+000	 1.005690962253844e+001
0	 7.266639999985470e+000	 6.666700000016665e+000	 1.007737423788839e+001
0	 7.266639999985472e+000	 6.733360000014533e+000	 1.007511384565168e+001
0	 7.266639999985471e+000	 6.800020000011600e+000	 1.007286885596922e+001
0	 7.266639999985471e+000	 6.866680000008067e+000	 1.007063698411001e+001
0	 7.266639999985471e+000	 6.933340000004134e+000	 1.006841594534301e+001
0	 7.266639999985470e+000	 7.000000000000000e+000	 1.006620345493722e+001
0	 7.266639999985470e+000	 7.066659999995866e+000	 1.006399722816162e+001
0	 7.266639999985471e+000	 7.133319999991934e+000	 1.006179498028521e+001
0	 7.266639999985471e+000	 7.199979999988401e+000	 1.005959442657695e+001
0	 7.266639999985470e+000	 7.266639999985465e+000	 1.005739328230583e+001
0	 7.266639999985471e+000	 7.333299999983332e+000	 1.005518926274083e+001
0	 7.333299999983333e+000	 6.666700000016665e+000	 1.007478482516871e+001
0	 7.333299999983335e+000	 6.733360000014533e+000	 1.007261927317746e+001
0	 7.333299999983334e+000	 6.800020000011600e+000	 1.007046709662977e+001
0	 7.333299999983332e+000	 6.866680000008064e+000	 1.006832607528212e+001
0	 7.333299999983334e+000	 6.933340000004134e+000	 1.006619398889101e+001
0	 7.333299999983332e+000	 6.999999999999998e+000	 1.006406861721292e+001
0	 7.333299999983334e+000	 7.066659999995866e+000	 1.006194774000435e+001
0	 7.333299999983333e+000	 7.133319999991934e+000	 1.005982913702177e+001
0	 7.333299999983334e+000	 7.199979999988401e+000	 1.005771058802165e+001
0	 7.333299999983335e+000	 7.266639999985467e+000	 1.005558987276051e+001
0	 7.333299999983336e+000	 7.333299999983336e+000	 1.005346477099481e+001
0	 6.666700000016665e+000	 7.333299999983333e+000	 1.006996147006314e+001
0	 6.666700000016665e+000	 7.399969999982150e+000	 1.006709829321341e+001
0	 6.666700000016668e+000	 7.466639999981867e+000	 1.006428446764601e+001
0	 6.666700000016667e+000	 7.533309999982384e+000	 1.006151737961386e+001
0	 6.666700000016665e+000	 7.599979999983599e+000	 1.005879441536991e+001
0	 6.666700000016666e+000	 7.666649999985416e+000	 1.005611296116707e+001
0	 6.666700000016665e+000	 7.733319999987731e+000	 1.005347040325828e+001
0	 6.666700000016665e+000	 7.799989999990450e+000	 1.005086412789649e+001
0	 6.666700000016665e+000	 7.866659999993465e+000	 1.004829152133459e+001
0	 6.666700000016666e+000	 7.933329999996684e+000	 1.004574996982553e+001
0	 6.666700000016668e+000	 8.000000000000000e+000	 1.004323685962225e+001
0	 6.733360000014532e+000	 7.333299999983334e+000	 1.006844285006672e+001
0	 6.733360000014531e+000	 7.399969999982149e+000	 1.006565112841659e+001
0	 6.733360000014531e+000	 7.466639999981864e+000	 1.006290675359542e+001
0	 6.733360000014533e+000	 7.533309999982383e+000	 1.006020715025631e+001
0	 6.733360000014532e+000	 7.599979999983601e+000	 1.005754974305235e+001
0	 6.733360000014532e+000	 7.666649999985416e+000	 1.005493195663657e+001
0	 6.733360000014533e+000	 7.733319999987734e+000	 1.005235121566208e+001
0	 6.733360000014532e+000	 7.799989999990450e+000	 1.004980494478196e+001
0	 6.733360000014533e+000	 7.866659999993466e+000	 1.004729056864926e+001
0	 6.733360000014531e+000	 7.933329999996682e+000	 1.004480551191707e+001
0	 6.733360000014532e+000	 7.999999999999999e+000	 1.004234719923846e+001
0	 6.800020000011599e+000	 7.333299999983334e+000	 1.006688261274106e+001
0	 6.800020000011598e+000	 7.399969999982149e+000	 1.006416347691884e+001
0	 6.800020000011598e+000	 7.466639999981866e+000	 1.006148973356852e+001
0	 6.800020000011601e+000	 7.533309999982384e+000	 1.005885884563608e+001
0	 6.800020000011600e+000	 7.599979999983600e+000	 1.005626827606743e+001
0	 6.800020000011599e+000	 7.666649999985415e+000	 1.005371548780852e+001
0	 6.800020000011600e+000	 7.733319999987733e+000	 1.005119794380530e+001
0	 6.800020000011601e+000	 7.799989999990449e+000	 1.004871310700368e+001
0	 6.800020000011600e+000	 7.866659999993466e+000	 1.004625844034963e+001
0	 6.800020000011600e+000	 7.933329999996683e+000	 1.004383140678907e+001
0	 6.800020000011600e+000	 8.000000000000000e+000	 1.004142946926798e+001
0	 6.866680000008064e+000	 7.333299999983331e+000	 1.006528544375874e+001
0	 6.866680000008066e+000	 7.399969999982150e+000	 1.006263990415418e+001
0	 6.866680000008066e+000	 7.466639999981864e+000	 1.006003784698959e+001
0	 6.866680000008067e+000	 7.533309999982383e+000	 1.005747677339650e+001
0	 6.866680000008068e+000	 7.599979999983600e+000	 1.005495418450642e+001
0	 6.866680000008068e+000	 7.666649999985416e+000	 1.005246758145087e+001
0	 6.866680000008067e+000	 7.733319999987733e+000	 1.005001446536140e+001
0	 6.866680000008067e+000	 7.799989999990450e+000	 1.004759233736952e+001
0	 6.866680000008065e+000	 7.866659999993466e+000	 1.004519869860675e+001
0	 6.866680000008067e+000	 7.933329999996683e+000	 1.004283105020465e+001
0	 6.866680000008066e+000	 7.999999999999999e+000	 1.004048689329472e+001
0	 6.933340000004135e+000	 7.333299999983335e+000	 1.006365602879236e+001
0	 6.933340000004134e+000	 7.399969999982151e+000	 1.006108497555666e+001
0	 6.933340000004134e+000	 7.466639999981865e+000	 1.005855553328291e+001
0	 6.933340000004135e+000	 7.533309999982382e+000	 1.005606524118091e+001
0	 6.933340000004136e+000	 7.599979999983599e+000	 1.005361163846052e+001
0	 6.933340000004136e+000	 7.666649999985417e+000	 1.005119226433157e+001
0	 6.933340000004135e+000	 7.733319999987733e+000	 1.004880465800390e+001
0	 6.933340000004134e+000	 7.799989999990448e+000	 1.004644635868734e+001
0	 6.933340000004134e+000	 7.866659999993467e+000	 1.004411490559172e+001
0	 6.933340000004135e+000	 7.933329999996683e+000	 1.004180783792689e+001
0	 6.933340000004137e+000	 8.000000000000000e+000	 1.003952269490266e+001
0	 7.000000000000001e+000	 7.333299999983334e+000	 1.006199905351455e+001
0	 7.000000000000003e+000	 7.399969999982150e+000	 1.005950325656030e+001
0	 7.000000000000002e+000	 7.466639999981865e+000	 1.005704723187270e+001
0	 7.000000000000002e+000	 7.533309999982384e+000	 1.005462855663265e+001
0	 7.000000000000003e+000	 7.599979999983599e+000	 1.005224480802099e+001
0	 7.000000000000002e+000	 7.666649999985417e+000	 1.004989356321859e+001
0	 7.000000000000003e+000	 7.733319999987733e+000	 1.004757239940632e+001
0	 7.000000000000002e+000	 7.799989999990450e+000	 1.004527889376502e+001
0	 7.000000000000002e+000	 7.866659999993466e+000	 1.004301062347559e+001
0	 7.000000000000002e+000	 7.933329999996682e+000	 1.004076516571886e+001
0	 7.000000000000002e+000	 8.000000000000000e+000	 1.003854009767574e+001
0	 7.066659999995870e+000	 7.333299999983335e+000	 1.006031920359788e+001
0	 7.066659999995869e+000	 7.399969999982151e+000	 1.005789931259909e+001
0	 7.066659999995868e+000	 7.466639999981865e+000	 1.005551738218328e+001
0	 7.066659999995871e+000	 7.533309999982383e+000	 1.005317102739506e+001
0	 7.066659999995867e+000	 7.599979999983598e+000	 1.005085786327906e+001
0	 7.066659999995870e+000	 7.666649999985416e+000	 1.004857550487989e+001
0	 7.066659999995870e+000	 7.733319999987732e+000	 1.004632156724215e+001
0	 7.066659999995869e+000	 7.799989999990450e+000	 1.004409366541045e+001
0	 7.066659999995868e+000	 7.866659999993466e+000	 1.004188941442943e+001
0	 7.066659999995870e+000	 7.933329999996683e+000	 1.003970642934370e+001
0	 7.066659999995870e+000	 7.999999999999999e+000	 1.003754232519787e+001
0	 7.133319999991937e+000	 7.333299999983333e+000	 1.005862116471498e+001
0	 7.133319999991937e+000	 7.399969999982150e+000	 1.005627770910709e+001
0	 7.133319999991937e+000	 7.466639999981867e+000	 1.005397042363890e+001
0	 7.133319999991937e+000	 7.533309999982383e+000	 1.005169696111150e+001
0	 7.133319999991937e+000	 7.599979999983598e+000	 1.004945497432598e+001
0	 7.133319999991936e+000	 7.666649999985416e+000	 1.004724211608341e+001
0	 7.133319999991937e+000	 7.733319999987733e+000	 1.004505603918489e+001
0	 7.133319999991937e+000	 7.799989999990448e+000	 1.004289439643150e+001
0	 7.133319999991935e+000	 7.866659999993466e+000	 1.004075484062433e+001
0	 7.133319999991937e+000	 7.933329999996682e+000	 1.003863502456447e+001
0	 7.133319999991937e+000	 7.999999999999999e+000	 1.003653260105300e+001
0	 7.199979999988405e+000	 7.333299999983335e+000	 1.005690962253844e+001
0	 7.199979999988402e+000	 7.399969999982148e+000	 1.005464301151830e+001
0	 7.199979999988403e+000	 7.466639999981866e+000	 1.005241079566383e+001
0	 7.199979999988403e+000	 7.533309999982382e+000	 1.005021066542529e+001
0	 7.199979999988403e+000	 7.599979999983599e+000	 1.004804031125296e+001
0	 7.199979999988404e+000	 7.666649999985416e+000	 1.004589742359712e+001
0	 7.199979999988405e+000	 7.733319999987733e+000	 1.004377969290805e+001
0	 7.199979999988404e+000	 7.799989999990448e+000	 1.004168480963604e+001
0	 7.199979999988403e+000	 7.866659999993466e+000	 1.003961046423134e+001
0	 7.199979999988405e+000	 7.933329999996683e+000	 1.003755434714427e+001
0	 7.199979999988405e+000	 8.000000000000000e+000	 1.003551414882509e+001
0	 7.266639999985471e+000	 7.333299999983332e+000	 1.005518926274083e+001
0	 7.266639999985469e+000	 7.399969999982150e+000	 1.005299978526676e+001
0	 7.266639999985471e+000	 7.466639999981865e+000	 1.005084293768234e+001
0	 7.266639999985471e+000	 7.533309999982383e+000	 1.004871644797978e+001
0	 7.266639999985471e+000	 7.599979999983600e+000	 1.004661804415126e+001
0	 7.266639999985471e+000	 7.666649999985413e+000	 1.004454545418898e+001
0	 7.266639999985471e+000	 7.733319999987733e+000	 1.004249640608514e+001
0	 7.266639999985471e+000	 7.799989999990449e+000	 1.004046862783195e+001
0	 7.266639999985472e+000	 7.866659999993468e+000	 1.003845984742154e+001
0	 7.266639999985471e+000	 7.933329999996683e+000	 1.003646779284619e+001
0	 7.266639999985470e+000	 8.000000000000000e+000	 1.003449019209804e+001
0	 7.333299999983336e+000	 7.333299999983336e+000	 1.005346477099481e+001
0	 7.333299999983333e+000	 7.399969999982150e+000	 1.005135259578648e+001
0	 7.333299999983334e+000	 7.466639999981866e+000	 1.004927128911870e+001
0	 7.333299999983335e+000	 7.533309999982384e+000	 1.004721861641829e+001
0	 7.333299999983334e+000	 7.599979999983599e+000	 1.004519234311209e+001
0	 7.333299999983335e+000	 7.666649999985417e+000	 1.004319023462694e+001
0	 7.333299999983335e+000	 7.733319999987733e+000	 1.004121005638965e+001
0	 7.333299999983334e+000	 7.799989999990448e+000	 1.003924957382707e+001
0	 7.333299999983332e+000	 7.866659999993465e+000	 1.003730655236601e+001
0	 7.333299999983333e+000	 7.933329999996682e+000	 1.003537875743332e+001
0	 7.333299999983335e+000	 8.000000000000000e+000	 1.003346395445581e+001
0	 6.666700000016668e+000	 8.000000000000000e+000	 1.004323685962225e+001
0	 6.666700000016666e+000	 8.066670000003317e+000	 1.004077151346884e+001
0	 6.666700000016665e+000	 8.133340000006532e+000	 1.003837300825893e+001
0	 6.666700000016666e+000	 8.200010000009550e+000	 1.003603836146979e+001
0	 6.666700000016665e+000	 8.266680000012267e+000	 1.003376459057873e+001
0	 6.666700000016666e+000	 8.333350000014583e+000	 1.003154871306299e+001
0	 6.666700000016667e+000	 8.400020000016401e+000	 1.002938774639990e+001
0	 6.666700000016667e+000	 8.466690000017618e+000	 1.002727870806672e+001
0	 6.666700000016665e+000	 8.533360000018133e+000	 1.002521861554073e+001
0	 6.666700000016666e+000	 8.600030000017851e+000	 1.002320448629925e+001
0	 6.666700000016666e+000	 8.666700000016666e+000	 1.002123333781951e+001
0	 6.733360000014532e+000	 7.999999999999999e+000	 1.004234719923846e+001
0	 6.733360000014533e+000	 8.066670000003317e+000	 1.003993504465739e+001
0	 6.733360000014531e+000	 8.133340000006530e+000	 1.003758820047457e+001
0	 6.733360000014533e+000	 8.200010000009550e+000	 1.003530369872821e+001
0	 6.733360000014531e+000	 8.266680000012268e+000	 1.003307857145649e+001
0	 6.733360000014533e+000	 8.333350000014582e+000	 1.003090985069765e+001
0	 6.733360000014533e+000	 8.400020000016401e+000	 1.002879456848989e+001
0	 6.733360000014534e+000	 8.466690000017616e+000	 1.002672975687141e+001
0	 6.733360000014533e+000	 8.533360000018133e+000	 1.002471244788043e+001
0	 6.733360000014533e+000	 8.600030000017853e+000	 1.002273967355517e+001
0	 6.733360000014533e+000	 8.666700000016666e+000	 1.002080846593381e+001
0	 6.800020000011600e+000	 8.000000000000000e+000	 1.004142946926798e+001
0	 6.800020000011600e+000	 8.066670000003317e+000	 1.003907206342434e+001
0	 6.800020000011599e+000	 8.133340000006530e+000	 1.003677835074834e+001
0	 6.800020000011601e+000	 8.200010000009554e+000	 1.003454538296410e+001
0	 6.800020000011601e+000	 8.266680000012265e+000	 1.003237021179576e+001
0	 6.800020000011600e+000	 8.333350000014585e+000	 1.003024988896744e+001
0	 6.800020000011599e+000	 8.400020000016397e+000	 1.002818146620326e+001
0	 6.800020000011599e+000	 8.466690000017618e+000	 1.002616199522737e+001
0	 6.800020000011601e+000	 8.533360000018135e+000	 1.002418852776390e+001
0	 6.800020000011600e+000	 8.600030000017853e+000	 1.002225811553698e+001
0	 6.800020000011599e+000	 8.666700000016668e+000	 1.002036781027074e+001
0	 6.866680000008066e+000	 7.999999999999999e+000	 1.004048689329472e+001
0	 6.866680000008068e+000	 8.066670000003319e+000	 1.003818562404486e+001
0	 6.866680000008069e+000	 8.133340000006536e+000	 1.003594635555863e+001
0	 6.866680000008066e+000	 8.200010000009549e+000	 1.003376616437106e+001
0	 6.866680000008067e+000	 8.266680000012268e+000	 1.003164212701721e+001
0	 6.866680000008067e+000	 8.333350000014585e+000	 1.002957132003214e+001
0	 6.866680000008067e+000	 8.400020000016399e+000	 1.002755081995087e+001
0	 6.866680000008066e+000	 8.466690000017614e+000	 1.002557770330849e+001
0	 6.866680000008068e+000	 8.533360000018133e+000	 1.002364904664002e+001
0	 6.866680000008067e+000	 8.600030000017849e+000	 1.002176192648052e+001
0	 6.866680000008068e+000	 8.666700000016668e+000	 1.001991341936504e+001
0	 6.933340000004137e+000	 8.000000000000000e+000	 1.003952269490266e+001
0	 6.933340000004134e+000	 8.066670000003317e+000	 1.003727878079414e+001
0	 6.933340000004132e+000	 8.133340000006532e+000	 1.003509511138381e+001
0	 6.933340000004134e+000	 8.200010000009550e+000	 1.003296879314262e+001
0	 6.933340000004134e+000	 8.266680000012267e+000	 1.003089693254155e+001
0	 6.933340000004133e+000	 8.333350000014583e+000	 1.002887663605156e+001
0	 6.933340000004135e+000	 8.400020000016401e+000	 1.002690501014361e+001
0	 6.933340000004134e+000	 8.466690000017616e+000	 1.002497916128865e+001
0	 6.933340000004134e+000	 8.533360000018133e+000	 1.002309619595768e+001
0	 6.933340000004134e+000	 8.600030000017851e+000	 1.002125322062164e+001
0	 6.933340000004135e+000	 8.666700000016666e+000	 1.001944734175150e+001
0	 7.000000000000002e+000	 8.000000000000000e+000	 1.003854009767574e+001
0	 7.000000000000002e+000	 8.066670000003315e+000	 1.003635458794736e+001
0	 7.000000000000000e+000	 8.133340000006530e+000	 1.003422751470228e+001
0	 7.000000000000002e+000	 8.200010000009554e+000	 1.003215601947236e+001
0	 7.000000000000000e+000	 8.266680000012265e+000	 1.003013724378946e+001
0	 7.000000000000002e+000	 8.333350000014585e+000	 1.002816832918549e+001
0	 7.000000000000003e+000	 8.400020000016401e+000	 1.002624641719229e+001
0	 7.000000000000002e+000	 8.466690000017616e+000	 1.002436864934174e+001
0	 7.000000000000002e+000	 8.533360000018133e+000	 1.002253216716575e+001
0	 7.000000000000000e+000	 8.600030000017851e+000	 1.002073411219617e+001
0	 7.000000000000003e+000	 8.666700000016666e+000	 1.001897162596488e+001
0	 7.066659999995870e+000	 7.999999999999999e+000	 1.003754232519787e+001
0	 7.066659999995869e+000	 8.066670000003317e+000	 1.003541609977971e+001
0	 7.066659999995871e+000	 8.133340000006534e+000	 1.003334646199243e+001
0	 7.066659999995870e+000	 8.200010000009554e+000	 1.003133059355382e+001
0	 7.066659999995870e+000	 8.266680000012267e+000	 1.002936567618165e+001
0	 7.066659999995871e+000	 8.333350000014583e+000	 1.002744889159372e+001
0	 7.066659999995869e+000	 8.400020000016399e+000	 1.002557742150780e+001
0	 7.066659999995870e+000	 8.466690000017618e+000	 1.002374844764167e+001
0	 7.066659999995870e+000	 8.533360000018137e+000	 1.002195915171314e+001
0	 7.066659999995870e+000	 8.600030000017851e+000	 1.002020671543997e+001
0	 7.066659999995869e+000	 8.666700000016668e+000	 1.001848832053996e+001
0	 7.133319999991937e+000	 7.999999999999999e+000	 1.003653260105300e+001
0	 7.133319999991937e+000	 8.066670000003319e+000	 1.003446637056635e+001
0	 7.133319999991937e+000	 8.133340000006534e+000	 1.003245484973263e+001
0	 7.133319999991937e+000	 8.200010000009554e+000	 1.003049526558055e+001
0	 7.133319999991937e+000	 8.266680000012268e+000	 1.002858484513879e+001
0	 7.133319999991937e+000	 8.333350000014583e+000	 1.002672081543604e+001
0	 7.133319999991937e+000	 8.400020000016403e+000	 1.002490040350098e+001
0	 7.133319999991935e+000	 8.466690000017620e+000	 1.002312083636230e+001
0	 7.133319999991937e+000	 8.533360000018135e+000	 1.002137934104871e+001
0	 7.133319999991937e+000	 8.600030000017851e+000	 1.001967314458888e+001
0	 7.133319999991937e+000	 8.666700000016668e+000	 1.001799947401151e+001
0	 7.199979999988405e+000	 8.000000000000000e+000	 1.003551414882509e+001
0	 7.199979999988403e+000	 8.066670000003315e+000	 1.003350845458247e+001
0	 7.199979999988404e+000	 8.133340000006532e+000	 1.003155557440129e+001
0	 7.199979999988405e+000	 8.200010000009550e+000	 1.002965278574613e+001
0	 7.199979999988405e+000	 8.266680000012267e+000	 1.002779736608159e+001
0	 7.199979999988406e+000	 8.333350000014583e+000	 1.002598659287224e+001
0	 7.199979999988403e+000	 8.400020000016399e+000	 1.002421774358270e+001
0	 7.199979999988404e+000	 8.466690000017616e+000	 1.002248809567753e+001
0	 7.199979999988404e+000	 8.533360000018135e+000	 1.002079492662136e+001
0	 7.199979999988404e+000	 8.600030000017851e+000	 1.001913551387872e+001
0	 7.199979999988403e+000	 8.666700000016666e+000	 1.001750713491428e+001
0	 7.266639999985470e+000	 8.000000000000000e+000	 1.003449019209804e+001
0	 7.266639999985472e+000	 8.066670000003319e+000	 1.003254540610325e+001
0	 7.266639999985471e+000	 8.133340000006534e+000	 1.003065153247677e+001
0	 7.266639999985472e+000	 8.200010000009552e+000	 1.002880590424409e+001
0	 7.266639999985472e+000	 8.266680000012267e+000	 1.002700585443071e+001
0	 7.266639999985473e+000	 8.333350000014585e+000	 1.002524871606213e+001
0	 7.266639999985472e+000	 8.400020000016403e+000	 1.002353182216381e+001
0	 7.266639999985472e+000	 8.466690000017618e+000	 1.002185250576125e+001
0	 7.266639999985470e+000	 8.533360000018133e+000	 1.002020809987995e+001
0	 7.266639999985472e+000	 8.600030000017851e+000	 1.001859593754536e+001
0	 7.266639999985471e+000	 8.666700000016668e+000	 1.001701335178304e+001
0	 7.333299999983335e+000	 8.000000000000000e+000	 1.003346395445581e+001
0	 7.333299999983335e+000	 8.066670000003317e+000	 1.003158027940385e+001
0	 7.333299999983332e+000	 8.133340000006532e+000	 1.002974562043744e+001
0	 7.333299999983334e+000	 8.200010000009550e+000	 1.002795737126800e+001
0	 7.333299999983334e+000	 8.266680000012268e+000	 1.002621292560688e+001
0	 7.333299999983335e+000	 8.333350000014585e+000	 1.002450967716548e+001
0	 7.333299999983333e+000	 8.400020000016399e+000	 1.002284501965516e+001
0	 7.333299999983334e+000	 8.466690000017620e+000	 1.002121634678734e+001
0	 7.333299999983332e+000	 8.533360000018135e+000	 1.001962105227337e+001
0	 7.333299999983335e+000	 8.600030000017853e+000	 1.001805652982465e+001
0	 7.333299999983334e+000	 8.666700000016665e+000	 1.001652017315256e+001
0	 6.666700000016666e+000	 8.666700000016666e+000	 1.002123333781951e+001
0	 6.666700000016665e+000	 8.733360002791899e+000	 1.001933080625237e+001
0	 6.666700000016665e+000	 8.800020022230555e+000	 1.001752128119546e+001
0	 6.666700000016666e+000	 8.866680074997040e+000	 1.001580078785078e+001
0	 6.666700000016667e+000	 8.933340177755779e+000	 1.001416535116023e+001
0	 6.666700000016666e+000	 9.000000347171179e+000	 1.001261099580554e+001
0	 6.666700000016667e+000	 9.066660599907669e+000	 1.001113374620830e+001
0	 6.666700000016666e+000	 9.133320952629658e+000	 1.000972962652994e+001
0	 6.666700000016665e+000	 9.199981422001558e+000	 1.000839466067169e+001
0	 6.666700000016667e+000	 9.266642024687796e+000	 1.000712487227467e+001
0	 6.666700000016665e+000	 9.333302777352781e+000	 1.000591628471985e+001
0	 6.733360000014533e+000	 8.666700000016666e+000	 1.002080846593382e+001
0	 6.733360000014534e+000	 8.733360002791903e+000	 1.001894418271783e+001
0	 6.733360000014534e+000	 8.800020022230553e+000	 1.001717100021243e+001
0	 6.733360000014532e+000	 8.866680074997042e+000	 1.001548503826327e+001
0	 6.733360000014532e+000	 8.933340177755776e+000	 1.001388241646071e+001
0	 6.733360000014532e+000	 9.000000347171183e+000	 1.001235925413994e+001
0	 6.733360000014532e+000	 9.066660599907669e+000	 1.001091167038086e+001
0	 6.733360000014533e+000	 9.133320952629656e+000	 1.000953578400819e+001
0	 6.733360000014533e+000	 9.199981422001558e+000	 1.000822771359140e+001
0	 6.733360000014532e+000	 9.266642024687798e+000	 1.000698357744469e+001
0	 6.733360000014532e+000	 9.333302777352783e+000	 1.000579949362706e+001
0	 6.800020000011599e+000	 8.666700000016668e+000	 1.002036781027074e+001
0	 6.800020000011601e+000	 8.733360002791905e+000	 1.001854270939264e+001
0	 6.800020000011600e+000	 8.800020022230557e+000	 1.001680678965109e+001
0	 6.800020000011601e+000	 8.866680074997042e+000	 1.001515626357741e+001
0	 6.800020000011600e+000	 8.933340177755781e+000	 1.001358734345267e+001
0	 6.800020000011600e+000	 9.000000347171183e+000	 1.001209624130781e+001
0	 6.800020000011601e+000	 9.066660599907669e+000	 1.001067916892346e+001
0	 6.800020000011601e+000	 9.133320952629655e+000	 1.000933233783010e+001
0	 6.800020000011601e+000	 9.199981422001558e+000	 1.000805195930798e+001
0	 6.800020000011599e+000	 9.266642024687796e+000	 1.000683424438711e+001
0	 6.800020000011601e+000	 9.333302777352783e+000	 1.000567540384732e+001
0	 6.866680000008068e+000	 8.666700000016668e+000	 1.001991341936504e+001
0	 6.866680000008066e+000	 8.733360002791903e+000	 1.001812837441956e+001
0	 6.866680000008068e+000	 8.800020022230553e+000	 1.001643057635028e+001
0	 6.866680000008067e+000	 8.866680074997044e+000	 1.001481632841635e+001
0	 6.866680000008067e+000	 8.933340177755781e+000	 1.001328193363183e+001
0	 6.866680000008067e+000	 9.000000347171181e+000	 1.001182369476568e+001
0	 6.866680000008067e+000	 9.066660599907667e+000	 1.001043791434180e+001
0	 6.866680000008067e+000	 9.133320952629655e+000	 1.000912089463894e+001
0	 6.866680000008067e+000	 9.199981422001557e+000	 1.000786893769076e+001
0	 6.866680000008068e+000	 9.266642024687796e+000	 1.000667834528582e+001
0	 6.866680000008068e+000	 9.333302777352783e+000	 1.000554541896762e+001
0	 6.933340000004135e+000	 8.666700000016666e+000	 1.001944734175150e+001
0	 6.933340000004134e+000	 8.733360002791901e+000	 1.001770316594131e+001
0	 6.933340000004134e+000	 8.800020022230557e+000	 1.001604428714880e+001
0	 6.933340000004135e+000	 8.866680074997042e+000	 1.001446709740322e+001
0	 6.933340000004134e+000	 8.933340177755776e+000	 1.001296798849384e+001
0	 6.933340000004135e+000	 9.000000347171181e+000	 1.001154335197010e+001
0	 6.933340000004135e+000	 9.066660599907667e+000	 1.001018957914161e+001
0	 6.933340000004135e+000	 9.133320952629655e+000	 1.000890306107800e+001
0	 6.933340000004134e+000	 9.199981422001558e+000	 1.000768018860905e+001
0	 6.933340000004133e+000	 9.266642024687796e+000	 1.000651735232470e+001
0	 6.933340000004136e+000	 9.333302777352786e+000	 1.000541094257495e+001
0	 7.000000000000003e+000	 8.666700000016666e+000	 1.001897162596488e+001
0	 7.000000000000002e+000	 8.733360002791903e+000	 1.001726907210062e+001
0	 7.000000000000003e+000	 8.800020022230557e+000	 1.001564984888553e+001
0	 7.000000000000002e+000	 8.866680074997042e+000	 1.001411043516115e+001
0	 7.000000000000004e+000	 8.933340177755778e+000	 1.001264730953438e+001
0	 7.000000000000003e+000	 9.000000347171181e+000	 1.001125695037758e+001
0	 7.000000000000002e+000	 9.066660599907667e+000	 1.000993583582857e+001
0	 7.000000000000002e+000	 9.133320952629658e+000	 1.000868044379057e+001
0	 7.000000000000002e+000	 9.199981422001558e+000	 1.000748725193224e+001
0	 7.000000000000004e+000	 9.266642024687796e+000	 1.000635273768762e+001
0	 7.000000000000002e+000	 9.333302777352783e+000	 1.000527337825630e+001
0	 7.066659999995869e+000	 8.666700000016668e+000	 1.001848832053996e+001
0	 7.066659999995869e+000	 8.733360002791901e+000	 1.001682808104021e+001
0	 7.066659999995870e+000	 8.800020022230555e+000	 1.001524918839929e+001
0	 7.066659999995870e+000	 8.866680074997042e+000	 1.001374820631328e+001
0	 7.066659999995870e+000	 8.933340177755781e+000	 1.001232169824917e+001
0	 7.066659999995869e+000	 9.000000347171181e+000	 1.001096622744467e+001
0	 7.066659999995871e+000	 9.066660599907667e+000	 1.000967835690846e+001
0	 7.066659999995871e+000	 9.133320952629656e+000	 1.000845464941999e+001
0	 7.066659999995870e+000	 9.199981422001558e+000	 1.000729166752960e+001
0	 7.066659999995869e+000	 9.266642024687794e+000	 1.000618597355847e+001
0	 7.066659999995870e+000	 9.333302777352783e+000	 1.000513412959865e+001
0	 7.133319999991937e+000	 8.666700000016668e+000	 1.001799947401151e+001
0	 7.133319999991937e+000	 8.733360002791903e+000	 1.001638218090278e+001
0	 7.133319999991937e+000	 8.800020022230553e+000	 1.001484423252888e+001
0	 7.133319999991937e+000	 8.866680074997039e+000	 1.001338227548278e+001
0	 7.133319999991936e+000	 8.933340177755776e+000	 1.001199295613385e+001
0	 7.133319999991937e+000	 9.000000347171181e+000	 1.001067292062785e+001
0	 7.133319999991936e+000	 9.066660599907671e+000	 1.000941881488693e+001
0	 7.133319999991936e+000	 9.133320952629656e+000	 1.000822728460952e+001
0	 7.133319999991937e+000	 9.199981422001560e+000	 1.000709497527051e+001
0	 7.133319999991937e+000	 9.266642024687801e+000	 1.000601853212112e+001
0	 7.133319999991937e+000	 9.333302777352781e+000	 1.000499460018897e+001
0	 7.199979999988403e+000	 8.666700000016666e+000	 1.001750713491428e+001
0	 7.199979999988404e+000	 8.733360002791903e+000	 1.001593335983112e+001
0	 7.199979999988405e+000	 8.800020022230557e+000	 1.001443690811315e+001
0	 7.199979999988404e+000	 8.866680074997042e+000	 1.001301450729273e+001
0	 7.199979999988404e+000	 8.933340177755779e+000	 1.001166288468414e+001
0	 7.199979999988405e+000	 9.000000347171183e+000	 1.001037876738369e+001
0	 7.199979999988404e+000	 9.066660599907666e+000	 1.000915888226971e+001
0	 7.199979999988404e+000	 9.133320952629655e+000	 1.000799995600247e+001
0	 7.199979999988404e+000	 9.199981422001560e+000	 1.000689871502429e+001
0	 7.199979999988403e+000	 9.266642024687796e+000	 1.000585188555945e+001
0	 7.199979999988404e+000	 9.333302777352785e+000	 1.000485619361429e+001
0	 7.266639999985471e+000	 8.666700000016668e+000	 1.001701335178304e+001
0	 7.266639999985470e+000	 8.733360002791899e+000	 1.001548360596789e+001
0	 7.266639999985471e+000	 8.800020022230555e+000	 1.001402914199097e+001
0	 7.266639999985473e+000	 8.866680074997042e+000	 1.001264676636631e+001
0	 7.266639999985470e+000	 8.933340177755778e+000	 1.001133328539571e+001
0	 7.266639999985471e+000	 9.000000347171179e+000	 1.001008550516870e+001
0	 7.266639999985472e+000	 9.066660599907667e+000	 1.000890023156252e+001
0	 7.266639999985472e+000	 9.133320952629658e+000	 1.000777427024214e+001
0	 7.266639999985472e+000	 9.199981422001558e+000	 1.000670442666026e+001
0	 7.266639999985473e+000	 9.266642024687798e+000	 1.000568750605734e+001
0	 7.266639999985471e+000	 9.333302777352783e+000	 1.000472031346153e+001
0	 7.333299999983334e+000	 8.666700000016665e+000	 1.001652017315256e+001
0	 7.333299999983335e+000	 8.733360002791903e+000	 1.001503490745584e+001
0	 7.333299999983333e+000	 8.800020022230555e+000	 1.001362286100110e+001
0	 7.333299999983335e+000	 8.866680074997040e+000	 1.001228091732662e+001
0	 7.333299999983334e+000	 8.933340177755779e+000	 1.001100595976423e+001
0	 7.333299999983333e+000	 9.000000347171179e+000	 1.000979487143940e+001
0	 7.333299999983335e+000	 9.066660599907667e+000	 1.000864453527106e+001
0	 7.333299999983334e+000	 9.133320952629655e+000	 1.000755183397181e+001
0	 7.333299999983333e+000	 9.199981422001558e+000	 1.000651365004777e+001
0	 7.333299999983333e+000	 9.266642024687794e+000	 1.000552686579865e+001
0	 7.333299999983334e+000	 9.333302777352781e+000	 1.000458836331772e+001
0	 6.666700000016665e+000	 9.333302777352781e+000	 1.000591628471985e+001
0	 6.666700000016666e+000	 9.399973674588177e+000	 1.000480235384116e+001
0	 6.666700000016665e+000	 9.466644621844619e+000	 1.000381615156224e+001
0	 6.666700000016667e+000	 9.533315502449998e+000	 1.000295259642114e+001
0	 6.666700000016666e+000	 9.599986199732198e+000	 1.000220660957077e+001
0	 6.666700000016665e+000	 9.666656597019093e+000	 1.000157311477915e+001
0	 6.666700000016666e+000	 9.733326577638575e+000	 1.000104703842929e+001
0	 6.666700000016666e+000	 9.799996024918521e+000	 1.000062330951935e+001
0	 6.666700000016666e+000	 9.866664822186822e+000	 1.000029685966277e+001
0	 6.666700000016665e+000	 9.933332852771352e+000	 1.000006262308858e+001
0	 6.666700000016666e+000	 1.000000000000000e+001	 9.999915536641780e+000
0	 6.733360000014532e+000	 9.333302777352783e+000	 1.000579949362706e+001
0	 6.733360000014532e+000	 9.399973674588175e+000	 1.000470826485737e+001
0	 6.733360000014532e+000	 9.466644621844621e+000	 1.000374230868127e+001
0	 6.733360000014534e+000	 9.533315502450002e+000	 1.000289664716988e+001
0	 6.733360000014530e+000	 9.599986199732195e+000	 1.000216630495904e+001
0	 6.733360000014533e+000	 9.666656597019095e+000	 1.000154630924930e+001
0	 6.733360000014531e+000	 9.733326577638575e+000	 1.000103168980606e+001
0	 6.733360000014533e+000	 9.799996024918523e+000	 1.000061747895950e+001
0	 6.733360000014532e+000	 9.866664822186824e+000	 1.000029871160494e+001
0	 6.733360000014534e+000	 9.933332852771352e+000	 1.000007042520303e+001
0	 6.733360000014533e+000	 1.000000000000000e+001	 9.999927659780033e+000
0	 6.800020000011601e+000	 9.333302777352783e+000	 1.000567540384732e+001
0	 6.800020000011597e+000	 9.399973674588173e+000	 1.000460751458795e+001
0	 6.800020000011599e+000	 9.466644621844619e+000	 1.000366227370603e+001
0	 6.800020000011599e+000	 9.533315502450000e+000	 1.000283481512369e+001
0	 6.800020000011599e+000	 9.599986199732195e+000	 1.000212027527531e+001
0	 6.800020000011601e+000	 9.666656597019093e+000	 1.000151379310759e+001
0	 6.800020000011600e+000	 9.733326577638577e+000	 1.000101051007945e+001
0	 6.800020000011601e+000	 9.799996024918523e+000	 1.000060557016231e+001
0	 6.800020000011600e+000	 9.866664822186820e+000	 1.000029411984021e+001
0	 6.800020000011599e+000	 9.933332852771351e+000	 1.000007130810999e+001
0	 6.800020000011600e+000	 1.000000000000000e+001	 9.999932286481815e+000
0	 6.866680000008068e+000	 9.333302777352783e+000	 1.000554541896761e+001
0	 6.866680000008066e+000	 9.399973674588178e+000	 1.000450144946799e+001
0	 6.866680000008066e+000	 9.466644621844617e+000	 1.000357735974163e+001
0	 6.866680000008067e+000	 9.533315502450000e+000	 1.000276840387939e+001
0	 6.866680000008065e+000	 9.599986199732195e+000	 1.000206983842999e+001
0	 6.866680000008066e+000	 9.666656597019095e+000	 1.000147692239998e+001
0	 6.866680000008066e+000	 9.733326577638573e+000	 1.000098491725390e+001
0	 6.866680000008066e+000	 9.799996024918523e+000	 1.000058908691415e+001
0	 6.866680000008066e+000	 9.866664822186824e+000	 1.000028469776150e+001
0	 6.866680000008068e+000	 9.933332852771352e+000	 1.000006701863503e+001
0	 6.866680000008066e+000	 9.999999999999998e+000	 9.999931320832697e+000
0	 6.933340000004136e+000	 9.333302777352786e+000	 1.000541094257495e+001
0	 6.933340000004133e+000	 9.399973674588173e+000	 1.000439141593257e+001
0	 6.933340000004133e+000	 9.466644621844619e+000	 1.000348887989313e+001
0	 6.933340000004132e+000	 9.533315502449998e+000	 1.000269871703379e+001
0	 6.933340000004134e+000	 9.599986199732197e+000	 1.000201631233337e+001
0	 6.933340000004136e+000	 9.666656597019095e+000	 1.000143705317257e+001
0	 6.933340000004136e+000	 9.733326577638575e+000	 1.000095632933377e+001
0	 6.933340000004134e+000	 9.799996024918521e+000	 1.000056953300136e+001
0	 6.933340000004135e+000	 9.866664822186822e+000	 1.000027205876174e+001
0	 6.933340000004135e+000	 9.933332852771352e+000	 1.000005930360361e+001
0	 6.933340000004134e+000	 9.999999999999998e+000	 9.999926666918535e+000
0	 7.000000000000002e+000	 9.333302777352783e+000	 1.000527337825630e+001
0	 7.000000000000002e+000	 9.399973674588177e+000	 1.000427876041682e+001
0	 7.000000000000003e+000	 9.466644621844621e+000	 1.000339814726568e+001
0	 7.000000000000002e+000	 9.533315502449998e+000	 1.000262705818369e+001
0	 7.000000000000000e+000	 9.599986199732197e+000	 1.000196101489583e+001
0	 7.000000000000001e+000	 9.666656597019093e+000	 1.000139554147131e+001
0	 7.000000000000003e+000	 9.733326577638577e+000	 1.000092616432352e+001
0	 7.000000000000001e+000	 9.799996024918524e+000	 1.000054841221028e+001
0	 7.000000000000003e+000	 9.866664822186825e+000	 1.000025781623389e+001
0	 7.000000000000001e+000	 9.933332852771354e+000	 1.000004990984139e+001
0	 7.000000000000002e+000	 1.000000000000000e+001	 9.999920228824848e+000
0	 7.066659999995870e+000	 9.333302777352783e+000	 1.000513412959865e+001
0	 7.066659999995868e+000	 9.399973674588175e+000	 1.000416482935584e+001
0	 7.066659999995871e+000	 9.466644621844621e+000	 1.000330647496436e+001
0	 7.066659999995871e+000	 9.533315502450002e+000	 1.000255473092593e+001
0	 7.066659999995870e+000	 9.599986199732197e+000	 1.000190526402770e+001
0	 7.066659999995869e+000	 9.666656597019095e+000	 1.000135374334219e+001
0	 7.066659999995870e+000	 9.733326577638573e+000	 1.000089584022755e+001
0	 7.066659999995870e+000	 9.799996024918524e+000	 1.000052722832731e+001
0	 7.066659999995870e+000	 9.866664822186824e+000	 1.000024358357094e+001
0	 7.066659999995870e+000	 9.933332852771356e+000	 1.000004058417375e+001
0	 7.066659999995869e+000	 9.999999999999998e+000	 9.999913910637444e+000
0	 7.133319999991937e+000	 9.333302777352781e+000	 1.000499460018897e+001
0	 7.133319999991936e+000	 9.399973674588177e+000	 1.000405096918468e+001
0	 7.133319999991937e+000	 9.466644621844619e+000	 1.000321517609424e+001
0	 7.133319999991936e+000	 9.533315502450002e+000	 1.000248303885731e+001
0	 7.133319999991937e+000	 9.599986199732202e+000	 1.000185037763933e+001
0	 7.133319999991937e+000	 9.666656597019095e+000	 1.000131301483134e+001
0	 7.133319999991936e+000	 9.733326577638577e+000	 1.000086677505026e+001
0	 7.133319999991937e+000	 9.799996024918523e+000	 1.000050748513880e+001
0	 7.133319999991937e+000	 9.866664822186824e+000	 1.000023097416580e+001
0	 7.133319999991937e+000	 9.933332852771354e+000	 1.000003307342630e+001
0	 7.133319999991937e+000	 1.000000000000000e+001	 9.999909616441901e+000
0	 7.199979999988404e+000	 9.333302777352785e+000	 1.000485619361429e+001
0	 7.199979999988403e+000	 9.399973674588175e+000	 1.000393852633850e+001
0	 7.199979999988403e+000	 9.466644621844617e+000	 1.000312556376043e+001
0	 7.199979999988404e+000	 9.533315502450000e+000	 1.000241328557467e+001
0	 7.199979999988403e+000	 9.599986199732197e+000	 1.000179767364103e+001
0	 7.199979999988402e+000	 9.666656597019093e+000	 1.000127471198465e+001
0	 7.199979999988403e+000	 9.733326577638575e+000	 1.000084038679601e+001
0	 7.199979999988405e+000	 9.799996024918523e+000	 1.000049068643105e+001
0	 7.199979999988403e+000	 9.866664822186822e+000	 1.000022160141143e+001
0	 7.199979999988404e+000	 9.933332852771354e+000	 1.000002912442451e+001
0	 7.199979999988405e+000	 1.000000000000000e+001	 9.999909250323963e+000
0	 7.266639999985471e+000	 9.333302777352783e+000	 1.000472031346154e+001
0	 7.266639999985473e+000	 9.399973674588177e+000	 1.000382884725231e+001
0	 7.266639999985470e+000	 9.466644621844619e+000	 1.000303895106802e+001
0	 7.266639999985472e+000	 9.533315502449998e+000	 1.000234677467481e+001
0	 7.266639999985472e+000	 9.599986199732197e+000	 1.000174846994318e+001
0	 7.266639999985471e+000	 9.666656597019095e+000	 1.000124019084817e+001
0	 7.266639999985470e+000	 9.733326577638575e+000	 1.000081809346926e+001
0	 7.266639999985471e+000	 9.799996024918524e+000	 1.000047833599053e+001
0	 7.266639999985471e+000	 9.866664822186822e+000	 1.000021707870081e+001
0	 7.266639999985471e+000	 9.933332852771352e+000	 1.000003048399401e+001
0	 7.266639999985471e+000	 1.000000000000000e+001	 9.999914716369167e+000
0	 7.333299999983334e+000	 9.333302777352781e+000	 1.000458836331772e+001
0	 7.333299999983336e+000	 9.399973674588173e+000	 1.000372327836128e+001
0	 7.333299999983334e+000	 9.466644621844624e+000	 1.000295665112214e+001
0	 7.333299999983333e+000	 9.533315502449998e+000	 1.000228480975452e+001
0	 7.333299999983335e+000	 9.599986199732195e+000	 1.000170408445612e+001
0	 7.333299999983334e+000	 9.666656597019097e+000	 1.000121080746792e+001
0	 7.333299999983333e+000	 9.733326577638573e+000	 1.000080131307441e+001
0	 7.333299999983335e+000	 9.799996024918523e+000	 1.000047193760351e+001
0	 7.333299999983333e+000	 9.866664822186822e+000	 1.000021901942692e+001
0	 7.333299999983333e+000	 9.933332852771354e+000	 1.000003889896023e+001
0	 7.333299999983335e+000	 1.000000000000000e+001	 9.999927918663284e+000
0	 7.333299999983335e+000	 0.000000000000000e+000	 1.004763644271080e+001
0	 7.333299999983334e+000	 6.666714722864756e-002	 1.004786638157236e+001
0	 7.333299999983334e+000	 1.333351778131789e-001	 1.004819818508857e+001
0	 7.333299999983335e+000	 2.000039750814772e-001	 1.004863898410364e+001
0	 7.333299999983333e+000	 2.666734223614256e-001	 1.004919591260952e+001
0	 7.333299999983336e+000	 3.333434029809069e-001	 1.004987610774570e+001
0	 7.333299999983335e+000	 4.000138002678045e-001	 1.005068670979894e+001
0	 7.333299999983333e+000	 4.666844975500011e-001	 1.005163486220322e+001
0	 7.333299999983335e+000	 5.333553781553803e-001	 1.005272771153972e+001
0	 7.333299999983335e+000	 6.000263254118248e-001	 1.005397240753688e+001
0	 7.333299999983332e+000	 6.666972226472178e-001	 1.005537610307057e+001
0	 7.399969999982150e+000	 0.000000000000000e+000	 1.003980973362829e+001
0	 7.399969999982149e+000	 6.666714722864757e-002	 1.004001270685684e+001
0	 7.399969999982151e+000	 1.333351778131789e-001	 1.004032848682050e+001
0	 7.399969999982151e+000	 2.000039750814772e-001	 1.004076275653948e+001
0	 7.399969999982151e+000	 2.666734223614254e-001	 1.004132120206720e+001
0	 7.399969999982149e+000	 3.333434029809069e-001	 1.004200951249007e+001
0	 7.399969999982150e+000	 4.000138002678045e-001	 1.004283337992732e+001
0	 7.399969999982149e+000	 4.666844975500011e-001	 1.004379849953093e+001
0	 7.399969999982151e+000	 5.333553781553801e-001	 1.004491056948553e+001
0	 7.399969999982150e+000	 6.000263254118246e-001	 1.004617529100862e+001
0	 7.399969999982150e+000	 6.666972226472177e-001	 1.004759836835056e+001
0	 7.466639999981865e+000	 0.000000000000000e+000	 1.003208742400789e+001
0	 7.466639999981864e+000	 6.666714722864756e-002	 1.003226034561027e+001
0	 7.466639999981866e+000	 1.333351778131789e-001	 1.003255393591416e+001
0	 7.466639999981867e+000	 2.000039750814773e-001	 1.003297259984452e+001
0	 7.466639999981864e+000	 2.666734223614254e-001	 1.003352074523721e+001
0	 7.466639999981866e+000	 3.333434029809069e-001	 1.003420278283881e+001
0	 7.466639999981865e+000	 4.000138002678043e-001	 1.003502312630641e+001
0	 7.466639999981865e+000	 4.666844975500011e-001	 1.003598619220750e+001
0	 7.466639999981864e+000	 5.333553781553803e-001	 1.003709640002008e+001
0	 7.466639999981865e+000	 6.000263254118248e-001	 1.003835817213259e+001
0	 7.466639999981865e+000	 6.666972226472177e-001	 1.003977593384415e+001
0	 7.533309999982381e+000	 0.000000000000000e+000	 1.002444165043158e+001
0	 7.533309999982382e+000	 6.666714722864756e-002	 1.002458318759950e+001
0	 7.533309999982382e+000	 1.333351778131790e-001	 1.002485046518017e+001
0	 7.533309999982382e+000	 2.000039750814773e-001	 1.002524677973206e+001
0	 7.533309999982383e+000	 2.666734223614256e-001	 1.002577543059748e+001
0	 7.533309999982381e+000	 3.333434029809068e-001	 1.002643971990240e+001
0	 7.533309999982381e+000	 4.000138002678044e-001	 1.002724295255624e+001
0	 7.533309999982382e+000	 4.666844975500011e-001	 1.002818843625183e+001
0	 7.533309999982384e+000	 5.333553781553801e-001	 1.002927948146541e+001
0	 7.533309999982381e+000	 6.000263254118246e-001	 1.003051940145664e+001
0	 7.533309999982381e+000	 6.666972226472175e-001	 1.003191151226884e+001
0	 7.599979999983598e+000	 0.000000000000000e+000	 1.001684454948130e+001
0	 7.599979999983597e+000	 6.666714722864754e-002	 1.001695512259134e+001
0	 7.599979999983598e+000	 1.333351778131789e-001	 1.001719400742914e+001
0	 7.599979999983599e+000	 2.000039750814772e-001	 1.001756356191541e+001
0	 7.599979999983599e+000	 2.666734223614256e-001	 1.001806614662591e+001
0	 7.599979999983598e+000	 3.333434029809069e-001	 1.001870412479128e+001
0	 7.599979999983601e+000	 4.000138002678044e-001	 1.001947986229691e+001
0	 7.599979999983598e+000	 4.666844975500011e-001	 1.002039572768280e+001
0	 7.599979999983599e+000	 5.333553781553801e-001	 1.002145409214358e+001
0	 7.599979999983598e+000	 6.000263254118244e-001	 1.002265732952864e+001
0	 7.599979999983598e+000	 6.666972226472177e-001	 1.002400781634215e+001
0	 7.666649999985414e+000	 0.000000000000000e+000	 1.000926825773902e+001
0	 7.666649999985414e+000	 6.666714722864756e-002	 1.000935004035263e+001
0	 7.666649999985416e+000	 1.333351778131789e-001	 1.000956049547171e+001
0	 7.666649999985417e+000	 2.000039750814773e-001	 1.000990121210787e+001
0	 7.666649999985414e+000	 2.666734223614254e-001	 1.001037378180039e+001
0	 7.666649999985414e+000	 3.333434029809068e-001	 1.001097979861594e+001
0	 7.666649999985417e+000	 4.000138002678044e-001	 1.001172085914850e+001
0	 7.666649999985415e+000	 4.666844975500012e-001	 1.001259856251928e+001
0	 7.666649999985415e+000	 5.333553781553803e-001	 1.001361451037668e+001
0	 7.666649999985413e+000	 6.000263254118246e-001	 1.001477030689640e+001
0	 7.666649999985416e+000	 6.666972226472177e-001	 1.001606755878155e+001
0	 7.733319999987730e+000	 0.000000000000000e+000	 1.000168491178670e+001
0	 7.733319999987733e+000	 6.666714722864756e-002	 1.000174183065017e+001
0	 7.733319999987733e+000	 1.333351778131789e-001	 1.000192586211846e+001
0	 7.733319999987730e+000	 2.000039750814772e-001	 1.000223799602277e+001
0	 7.733319999987731e+000	 2.666734223614256e-001	 1.000267922459886e+001
0	 7.733319999987732e+000	 3.333434029809069e-001	 1.000325054248684e+001
0	 7.733319999987733e+000	 4.000138002678044e-001	 1.000395294673110e+001
0	 7.733319999987730e+000	 4.666844975500011e-001	 1.000478743678016e+001
0	 7.733319999987731e+000	 5.333553781553803e-001	 1.000575501448676e+001
0	 7.733319999987732e+000	 6.000263254118247e-001	 1.000685668410780e+001
0	 7.733319999987733e+000	 6.666972226472177e-001	 1.000809345230457e+001
0	 7.799989999990447e+000	 0.000000000000000e+000	 9.994066648206315e+000
0	 7.799989999990450e+000	 6.666714722864757e-002	 9.994104383250804e+000
0	 7.799989999990449e+000	 1.333351778131790e-001	 9.994266040180047e+000
0	 7.799989999990447e+000	 2.000039750814772e-001	 9.994552179373414e+000
0	 7.799989999990448e+000	 2.666734223614256e-001	 9.994963363499201e+000
0	 7.799989999990450e+000	 3.333434029809069e-001	 9.995500157514444e+000
0	 7.799989999990448e+000	 4.000138002678043e-001	 9.996163128664767e+000
0	 7.799989999990447e+000	 4.666844975500011e-001	 9.996952846484343e+000
0	 7.799989999990449e+000	 5.333553781553804e-001	 9.997869882795868e+000
0	 7.799989999990449e+000	 6.000263254118248e-001	 9.998914811710666e+000
0	 7.799989999990450e+000	 6.666972226472179e-001	 1.000008820962871e+001
0	 7.866659999993463e+000	 0.000000000000000e+000	 9.986385603579828e+000
0	 7.866659999993464e+000	 6.666714722864754e-002	 9.986411587921360e+000
0	 7.866659999993464e+000	 1.333351778131789e-001	 9.986556962467072e+000
0	 7.866659999993465e+000	 2.000039750814773e-001	 9.986822027873101e+000
0	 7.866659999993465e+000	 2.666734223614255e-001	 9.987207086979344e+000
0	 7.866659999993464e+000	 3.333434029809069e-001	 9.987712444809215e+000
0	 7.866659999993463e+000	 4.000138002678044e-001	 9.988338408569584e+000
0	 7.866659999993464e+000	 4.666844975500012e-001	 9.989085287650687e+000
0	 7.866659999993464e+000	 5.333553781553801e-001	 9.989953393626101e+000
0	 7.866659999993465e+000	 6.000263254118247e-001	 9.990943040252855e+000
0	 7.866659999993464e+000	 6.666972226472177e-001	 9.992054543471475e+000
0	 7.933329999996681e+000	 0.000000000000000e+000	 9.978613914489197e+000
0	 7.933329999996681e+000	 6.666714722864756e-002	 9.978637334428655e+000
0	 7.933329999996682e+000	 1.333351778131790e-001	 9.978774561790157e+000
0	 7.933329999996682e+000	 2.000039750814772e-001	 9.979025807235171e+000
0	 7.933329999996683e+000	 2.666734223614256e-001	 9.979391283517197e+000
0	 7.933329999996680e+000	 3.333434029809068e-001	 9.979871205481638e+000
0	 7.933329999996681e+000	 4.000138002678044e-001	 9.980465790065644e+000
0	 7.933329999996680e+000	 4.666844975500011e-001	 9.981175256298084e+000
0	 7.933329999996679e+000	 5.333553781553800e-001	 9.981999825299516e+000
0	 7.933329999996682e+000	 6.000263254118248e-001	 9.982939720282225e+000
0	 7.933329999996682e+000	 6.666972226472177e-001	 9.983995166550358e+000
0	 8.000000000000000e+000	 0.000000000000000e+000	 9.970723717516394e+000
0	 8.000000000000002e+000	 6.666714722864757e-002	 9.970755512539526e+000
0	 8.000000000000000e+000	 1.333351778131789e-001	 9.970894770959934e+000
0	 8.000000000000000e+000	 2.000039750814773e-001	 9.971141783172907e+000
0	 8.000000000000002e+000	 2.666734223614256e-001	 9.971496841590671e+000
0	 8.000000000000000e+000	 3.333434029809069e-001	 9.971960240642165e+000
0	 8.000000000000000e+000	 4.000138002678044e-001	 9.972532276773025e+000
0	 8.000000000000000e+000	 4.666844975500011e-001	 9.973213248445436e+000
0	 7.999999999999999e+000	 5.333553781553803e-001	 9.974003456138169e+000
0	 8.000000000000000e+000	 6.000263254118246e-001	 9.974903202346615e+000
0	 7.999999999999999e+000	 6.666972226472177e-001	 9.975912791582891e+000
0	 7.333299999983332e+000	 6.666972226472178e-001	 1.005537610307057e+001
0	 7.333299999983334e+000	 7.333579753122048e-001	 1.005687376274680e+001
0	 7.333299999983334e+000	 8.000185779984417e-001	 1.005840029725496e+001
0	 7.333299999983334e+000	 8.666790473703454e-001	 1.005996211230331e+001
0	 7.333299999983335e+000	 9.333394000923323e-001	 1.006156561336600e+001
0	 7.333299999983334e+000	 9.999996528288190e-001	 1.006321720568309e+001
0	 7.333299999983335e+000	 1.066659822244222e+000	 1.006492329426054e+001
0	 7.333299999983335e+000	 1.133319925002959e+000	 1.006669028387024e+001
0	 7.333299999983333e+000	 1.199979977769445e+000	 1.006852457904997e+001
0	 7.333299999983335e+000	 1.266639997208098e+000	 1.007043258410347e+001
0	 7.333299999983335e+000	 1.333299999983334e+000	 1.007242070310036e+001
0	 7.399969999982150e+000	 6.666972226472177e-001	 1.004759836835056e+001
0	 7.399969999982151e+000	 7.333579753122047e-001	 1.004911155027477e+001
0	 7.399969999982151e+000	 8.000185779984417e-001	 1.005064707745550e+001
0	 7.399969999982151e+000	 8.666790473703451e-001	 1.005221071728804e+001
0	 7.399969999982150e+000	 9.333394000923321e-001	 1.005380823695572e+001
0	 7.399969999982149e+000	 9.999996528288190e-001	 1.005544540342977e+001
0	 7.399969999982150e+000	 1.066659822244222e+000	 1.005712798346942e+001
0	 7.399969999982148e+000	 1.133319925002958e+000	 1.005886174362181e+001
0	 7.399969999982151e+000	 1.199979977769445e+000	 1.006065245022210e+001
0	 7.399969999982150e+000	 1.266639997208098e+000	 1.006250586939338e+001
0	 7.399969999982149e+000	 1.333299999983334e+000	 1.006442776704675e+001
0	 7.466639999981865e+000	 6.666972226472177e-001	 1.003977593384415e+001
0	 7.466639999981864e+000	 7.333579753122048e-001	 1.004128179874185e+001
0	 7.466639999981866e+000	 8.000185779984416e-001	 1.004280884558698e+001
0	 7.466639999981865e+000	 8.666790473703453e-001	 1.004436227575278e+001
0	 7.466639999981867e+000	 9.333394000923321e-001	 1.004594729041333e+001
0	 7.466639999981865e+000	 9.999996528288189e-001	 1.004756909054357e+001
0	 7.466639999981866e+000	 1.066659822244222e+000	 1.004923287691929e+001
0	 7.466639999981866e+000	 1.133319925002959e+000	 1.005094385011714e+001
0	 7.466639999981865e+000	 1.199979977769445e+000	 1.005270721051462e+001
0	 7.466639999981866e+000	 1.266639997208098e+000	 1.005452815829011e+001
0	 7.466639999981866e+000	 1.333299999983334e+000	 1.005641189342285e+001
0	 7.533309999982381e+000	 6.666972226472175e-001	 1.003191151226884e+001
0	 7.533309999982382e+000	 7.333579753122047e-001	 1.003339122997266e+001
0	 7.533309999982382e+000	 8.000185779984415e-001	 1.003489533784217e+001
0	 7.533309999982384e+000	 8.666790473703456e-001	 1.003642854351075e+001
0	 7.533309999982383e+000	 9.333394000923321e-001	 1.003799555441779e+001
0	 7.533309999982382e+000	 9.999996528288192e-001	 1.003960107780881e+001
0	 7.533309999982381e+000	 1.066659822244222e+000	 1.004124982073538e+001
0	 7.533309999982384e+000	 1.133319925002959e+000	 1.004294649005521e+001
0	 7.533309999982384e+000	 1.199979977769445e+000	 1.004469579243206e+001
0	 7.533309999982383e+000	 1.266639997208098e+000	 1.004650243433579e+001
0	 7.533309999982382e+000	 1.333299999983334e+000	 1.004837112204237e+001
0	 7.599979999983598e+000	 6.666972226472177e-001	 1.002400781634215e+001
0	 7.599979999983600e+000	 7.333579753122048e-001	 1.002544656579182e+001
0	 7.599979999983599e+000	 8.000185779984416e-001	 1.002691629041381e+001
0	 7.599979999983598e+000	 8.666790473703451e-001	 1.002842127637515e+001
0	 7.599979999983598e+000	 9.333394000923319e-001	 1.002996580964804e+001
0	 7.599979999983598e+000	 9.999996528288191e-001	 1.003155417600980e+001
0	 7.599979999983599e+000	 1.066659822244222e+000	 1.003319066104292e+001
0	 7.599979999983598e+000	 1.133319925002959e+000	 1.003487955013504e+001
0	 7.599979999983599e+000	 1.199979977769445e+000	 1.003662512847894e+001
0	 7.599979999983598e+000	 1.266639997208098e+000	 1.003843168107256e+001
0	 7.599979999983598e+000	 1.333299999983334e+000	 1.004030349271901e+001
0	 7.666649999985416e+000	 6.666972226472177e-001	 1.001606755878155e+001
0	 7.666649999985416e+000	 7.333579753122048e-001	 1.001745452802397e+001
0	 7.666649999985414e+000	 8.000185779984416e-001	 1.001888143949461e+001
0	 7.666649999985416e+000	 8.666790473703452e-001	 1.002035223015920e+001
0	 7.666649999985413e+000	 9.333394000923320e-001	 1.002187083678303e+001
0	 7.666649999985415e+000	 9.999996528288189e-001	 1.002344119593089e+001
0	 7.666649999985413e+000	 1.066659822244222e+000	 1.002506724396714e+001
0	 7.666649999985415e+000	 1.133319925002959e+000	 1.002675291705562e+001
0	 7.666649999985416e+000	 1.199979977769445e+000	 1.002850215115978e+001
0	 7.666649999985416e+000	 1.266639997208098e+000	 1.003031888204255e+001
0	 7.666649999985415e+000	 1.333299999983333e+000	 1.003220704526645e+001
0	 7.733319999987733e+000	 6.666972226472177e-001	 1.000809345230457e+001
0	 7.733319999987730e+000	 7.333579753122047e-001	 1.000942183849376e+001
0	 7.733319999987730e+000	 8.000185779984415e-001	 1.001080052127733e+001
0	 7.733319999987731e+000	 8.666790473703452e-001	 1.001223316067613e+001
0	 7.733319999987733e+000	 9.333394000923324e-001	 1.001372341650172e+001
0	 7.733319999987733e+000	 9.999996528288190e-001	 1.001527494835641e+001
0	 7.733319999987731e+000	 1.066659822244222e+000	 1.001689141563324e+001
0	 7.733319999987731e+000	 1.133319925002959e+000	 1.001857647751598e+001
0	 7.733319999987731e+000	 1.199979977769445e+000	 1.002033379297913e+001
0	 7.733319999987731e+000	 1.266639997208098e+000	 1.002216702078793e+001
0	 7.733319999987732e+000	 1.333299999983334e+000	 1.002407981949836e+001
0	 7.799989999990450e+000	 6.666972226472179e-001	 1.000008820962871e+001
0	 7.799989999990447e+000	 7.333579753122047e-001	 1.000135521902582e+001
0	 7.799989999990447e+000	 8.000185779984416e-001	 1.000268327195470e+001
0	 7.799989999990449e+000	 8.666790473703453e-001	 1.000407582373912e+001
0	 7.799989999990447e+000	 9.333394000923323e-001	 1.000553632948304e+001
0	 7.799989999990448e+000	 9.999996528288188e-001	 1.000706824407068e+001
0	 7.799989999990447e+000	 1.066659822244222e+000	 1.000867502216648e+001
0	 7.799989999990448e+000	 1.133319925002959e+000	 1.001036011821510e+001
0	 7.799989999990447e+000	 1.199979977769445e+000	 1.001212698644149e+001
0	 7.799989999990448e+000	 1.266639997208098e+000	 1.001397908085082e+001
0	 7.799989999990448e+000	 1.333299999983334e+000	 1.001591985522847e+001
0	 7.866659999993464e+000	 6.666972226472177e-001	 9.992054543471475e+000
0	 7.866659999993464e+000	 7.333579753122048e-001	 9.993261391444779e+000
0	 7.866659999993465e+000	 8.000185779984416e-001	 9.994539427719465e+000
0	 7.866659999993465e+000	 8.666790473703451e-001	 9.995891975161408e+000
0	 7.866659999993466e+000	 9.333394000923324e-001	 9.997322356405961e+000
0	 7.866659999993465e+000	 9.999996528288190e-001	 9.998833893858025e+000
0	 7.866659999993464e+000	 1.066659822244222e+000	 1.000042990969205e+001
0	 7.866659999993465e+000	 1.133319925002959e+000	 1.000211372585200e+001
0	 7.866659999993465e+000	 1.199979977769445e+000	 1.000388866405142e+001
0	 7.866659999993463e+000	 1.266639997208098e+000	 1.000575804577336e+001
0	 7.866659999993465e+000	 1.333299999983334e+000	 1.000772519227045e+001
0	 7.933329999996682e+000	 6.666972226472177e-001	 9.983995166550361e+000
0	 7.933329999996680e+000	 7.333579753122045e-001	 9.985147077575270e+000
0	 7.933329999996681e+000	 8.000185779984416e-001	 9.986378724764379e+000
0	 7.933329999996682e+000	 8.666790473703456e-001	 9.987693370756219e+000
0	 7.933329999996682e+000	 9.333394000923321e-001	 9.989094277949430e+000
0	 7.933329999996682e+000	 9.999996528288190e-001	 9.990584708502780e+000
0	 7.933329999996682e+000	 1.066659822244222e+000	 9.992167924335186e+000
0	 7.933329999996681e+000	 1.133319925002959e+000	 9.993847187125679e+000
0	 7.933329999996680e+000	 1.199979977769445e+000	 9.995625758313420e+000
0	 7.933329999996682e+000	 1.266639997208098e+000	 9.997506899097713e+000
0	 7.933329999996682e+000	 1.333299999983334e+000	 9.999493870437991e+000
0	 7.999999999999999e+000	 6.666972226472177e-001	 9.975912791582889e+000
0	 8.000000000000000e+000	 7.333579753122049e-001	 9.977018999241949e+000
0	 8.000000000000000e+000	 8.000185779984418e-001	 9.978210899282169e+000
0	 8.000000000000000e+000	 8.666790473703454e-001	 9.979491766336748e+000
0	 8.000000000000000e+000	 9.333394000923323e-001	 9.980864874792392e+000
0	 8.000000000000000e+000	 9.999996528288189e-001	 9.982333498789284e+000
0	 8.000000000000000e+000	 1.066659822244222e+000	 9.983900912221131e+000
0	 8.000000000000000e+000	 1.133319925002959e+000	 9.985570388735143e+000
0	 8.000000000000000e+000	 1.199979977769445e+000	 9.987345201732026e+000
0	 7.999999999999999e+000	 1.266639997208097e+000	 9.989228624365998e+000
0	 8.000000000000000e+000	 1.333299999983334e+000	 9.991223929544784e+000
0	 7.333299999983335e+000	 1.333299999983334e+000	 1.007242070310036e+001
0	 7.333299999983334e+000	 1.399969999982150e+000	 1.007445182163830e+001
0	 7.333299999983335e+000	 1.466639999981867e+000	 1.007649010435475e+001
0	 7.333299999983334e+000	 1.533309999982383e+000	 1.007854478743469e+001
0	 7.333299999983334e+000	 1.599979999983599e+000	 1.008062510706310e+001
0	 7.333299999983334e+000	 1.666649999985416e+000	 1.008274029942495e+001
0	 7.333299999983335e+000	 1.733319999987733e+000	 1.008489960070525e+001
0	 7.333299999983335e+000	 1.799989999990450e+000	 1.008711224708894e+001
0	 7.333299999983334e+000	 1.866659999993466e+000	 1.008938747476102e+001
0	 7.333299999983335e+000	 1.933329999996683e+000	 1.009173451990648e+001
0	 7.333299999983335e+000	 2.000000000000000e+000	 1.009416261871030e+001
0	 7.399969999982149e+000	 1.333299999983334e+000	 1.006442776704675e+001
0	 7.399969999982150e+000	 1.399969999982150e+000	 1.006639293386041e+001
0	 7.399969999982151e+000	 1.466639999981866e+000	 1.006837688753240e+001
0	 7.399969999982149e+000	 1.533309999982383e+000	 1.007038736555911e+001
0	 7.399969999982150e+000	 1.599979999983600e+000	 1.007243210543686e+001
0	 7.399969999982150e+000	 1.666649999985416e+000	 1.007451884466205e+001
0	 7.399969999982149e+000	 1.733319999987733e+000	 1.007665532073102e+001
0	 7.399969999982149e+000	 1.799989999990450e+000	 1.007884927114014e+001
0	 7.399969999982149e+000	 1.866659999993466e+000	 1.008110843338579e+001
0	 7.399969999982151e+000	 1.933329999996683e+000	 1.008344054496432e+001
0	 7.399969999982152e+000	 2.000000000000000e+000	 1.008585334337210e+001
0	 7.466639999981866e+000	 1.333299999983334e+000	 1.005641189342285e+001
0	 7.466639999981865e+000	 1.399969999982150e+000	 1.005833978633092e+001
0	 7.466639999981867e+000	 1.466639999981867e+000	 1.006029346021791e+001
0	 7.466639999981864e+000	 1.533309999982383e+000	 1.006227935676615e+001
0	 7.466639999981866e+000	 1.599979999983599e+000	 1.006430391765802e+001
0	 7.466639999981867e+000	 1.666649999985416e+000	 1.006637358457584e+001
0	 7.466639999981865e+000	 1.733319999987733e+000	 1.006849479920201e+001
0	 7.466639999981867e+000	 1.799989999990450e+000	 1.007067400321887e+001
0	 7.466639999981866e+000	 1.866659999993466e+000	 1.007291763830878e+001
0	 7.466639999981868e+000	 1.933329999996684e+000	 1.007523214615409e+001
0	 7.466639999981866e+000	 2.000000000000000e+000	 1.007762396843717e+001
0	 7.533309999982382e+000	 1.333299999983334e+000	 1.004837112204237e+001
0	 7.533309999982383e+000	 1.399969999982150e+000	 1.005028535892232e+001
0	 7.533309999982383e+000	 1.466639999981866e+000	 1.005222850631355e+001
0	 7.533309999982382e+000	 1.533309999982383e+000	 1.005420591295904e+001
0	 7.533309999982381e+000	 1.599979999983600e+000	 1.005622292760171e+001
0	 7.533309999982382e+000	 1.666649999985415e+000	 1.005828489898455e+001
0	 7.533309999982382e+000	 1.733319999987733e+000	 1.006039717585051e+001
0	 7.533309999982382e+000	 1.799989999990450e+000	 1.006256510694255e+001
0	 7.533309999982382e+000	 1.866659999993466e+000	 1.006479404100359e+001
0	 7.533309999982383e+000	 1.933329999996683e+000	 1.006708932677666e+001
0	 7.533309999982381e+000	 2.000000000000000e+000	 1.006945631300469e+001
0	 7.599979999983598e+000	 1.333299999983334e+000	 1.004030349271901e+001
0	 7.599979999983599e+000	 1.399969999982150e+000	 1.004222263150709e+001
0	 7.599979999983599e+000	 1.466639999981866e+000	 1.004417070972170e+001
0	 7.599979999983599e+000	 1.533309999982383e+000	 1.004615218604100e+001
0	 7.599979999983598e+000	 1.599979999983599e+000	 1.004817151914316e+001
0	 7.599979999983598e+000	 1.666649999985416e+000	 1.005023316770637e+001
0	 7.599979999983598e+000	 1.733319999987733e+000	 1.005234159040878e+001
0	 7.599979999983597e+000	 1.799989999990449e+000	 1.005450124592855e+001
0	 7.599979999983598e+000	 1.866659999993466e+000	 1.005671659294387e+001
0	 7.599979999983600e+000	 1.933329999996683e+000	 1.005899209013291e+001
0	 7.599979999983599e+000	 2.000000000000001e+000	 1.006133219617383e+001
0	 7.666649999985415e+000	 1.333299999983333e+000	 1.003220704526645e+001
0	 7.666649999985414e+000	 1.399969999982150e+000	 1.003414458395769e+001
0	 7.666649999985416e+000	 1.466639999981867e+000	 1.003610875434465e+001
0	 7.666649999985417e+000	 1.533309999982383e+000	 1.003810332791526e+001
0	 7.666649999985416e+000	 1.599979999983600e+000	 1.004013207615756e+001
0	 7.666649999985415e+000	 1.666649999985416e+000	 1.004219877055951e+001
0	 7.666649999985414e+000	 1.733319999987733e+000	 1.004430718260911e+001
0	 7.666649999985416e+000	 1.799989999990449e+000	 1.004646108379434e+001
0	 7.666649999985415e+000	 1.866659999993466e+000	 1.004866424560321e+001
0	 7.666649999985415e+000	 1.933329999996683e+000	 1.005092043952368e+001
0	 7.666649999985416e+000	 2.000000000000000e+000	 1.005323343704377e+001
0	 7.733319999987732e+000	 1.333299999983334e+000	 1.002407981949836e+001
0	 7.733319999987731e+000	 1.399969999982150e+000	 1.002604419614661e+001
0	 7.733319999987732e+000	 1.466639999981867e+000	 1.002803132408470e+001
0	 7.733319999987732e+000	 1.533309999982383e+000	 1.003004449048505e+001
0	 7.733319999987731e+000	 1.599979999983599e+000	 1.003208698252006e+001
0	 7.733319999987731e+000	 1.666649999985416e+000	 1.003416208736217e+001
0	 7.733319999987733e+000	 1.733319999987733e+000	 1.003627309218379e+001
0	 7.733319999987732e+000	 1.799989999990450e+000	 1.003842328415731e+001
0	 7.733319999987732e+000	 1.866659999993466e+000	 1.004061595045520e+001
0	 7.733319999987732e+000	 1.933329999996683e+000	 1.004285437824984e+001
0	 7.733319999987731e+000	 2.000000000000000e+000	 1.004514185471367e+001
0	 7.799989999990448e+000	 1.333299999983334e+000	 1.001591985522847e+001
0	 7.799989999990449e+000	 1.399969999982150e+000	 1.001791444794632e+001
0	 7.799989999990445e+000	 1.466639999981866e+000	 1.001992710284420e+001
0	 7.799989999990447e+000	 1.533309999982383e+000	 1.002196082565356e+001
0	 7.799989999990447e+000	 1.599979999983600e+000	 1.002401862210586e+001
0	 7.799989999990449e+000	 1.666649999985416e+000	 1.002610349793254e+001
0	 7.799989999990449e+000	 1.733319999987733e+000	 1.002821845886506e+001
0	 7.799989999990448e+000	 1.799989999990450e+000	 1.003036651063490e+001
0	 7.799989999990448e+000	 1.866659999993466e+000	 1.003255065897347e+001
0	 7.799989999990448e+000	 1.933329999996683e+000	 1.003477390961226e+001
0	 7.799989999990449e+000	 2.000000000000000e+000	 1.003703926828271e+001
0	 7.866659999993465e+000	 1.333299999983334e+000	 1.000772519227045e+001
0	 7.866659999993465e+000	 1.399969999982150e+000	 1.000974831922930e+001
0	 7.866659999993464e+000	 1.466639999981866e+000	 1.001178477452547e+001
0	 7.866659999993463e+000	 1.533309999982383e+000	 1.001383748532405e+001
0	 7.866659999993463e+000	 1.599979999983599e+000	 1.001590937879014e+001
0	 7.866659999993463e+000	 1.666649999985416e+000	 1.001800338208885e+001
0	 7.866659999993466e+000	 1.733319999987733e+000	 1.002012242238526e+001
0	 7.866659999993464e+000	 1.799989999990449e+000	 1.002226942684448e+001
0	 7.866659999993464e+000	 1.866659999993467e+000	 1.002444732263163e+001
0	 7.866659999993464e+000	 1.933329999996683e+000	 1.002665903691178e+001
0	 7.866659999993465e+000	 2.000000000000000e+000	 1.002890749685005e+001
0	 7.933329999996682e+000	 1.333299999983334e+000	 9.999493870437991e+000
0	 7.933329999996682e+000	 1.399969999982150e+000	 1.000153878986802e+001
0	 7.933329999996681e+000	 1.466639999981866e+000	 1.000359302303082e+001
0	 7.933329999996682e+000	 1.533309999982383e+000	 1.000565962139972e+001
0	 7.933329999996680e+000	 1.599979999983600e+000	 1.000774163644809e+001
0	 7.933329999996682e+000	 1.666649999985416e+000	 1.000984211964927e+001
0	 7.933329999996682e+000	 1.733319999987733e+000	 1.001196412247662e+001
0	 7.933329999996682e+000	 1.799989999990449e+000	 1.001411069640351e+001
0	 7.933329999996680e+000	 1.866659999993466e+000	 1.001628489290327e+001
0	 7.933329999996680e+000	 1.933329999996683e+000	 1.001848976344928e+001
0	 7.933329999996680e+000	 2.000000000000000e+000	 1.002072835951488e+001
0	 8.000000000000000e+000	 1.333299999983334e+000	 9.991223929544784e+000
0	 8.000000000000000e+000	 1.399969999982150e+000	 9.993278839734968e+000
0	 8.000000000000000e+000	 1.466639999981866e+000	 9.995340532262572e+000
0	 8.000000000000000e+000	 1.533309999982383e+000	 9.997412385783800e+000
0	 8.000000000000000e+000	 1.599979999983599e+000	 9.999497778954874e+000
0	 8.000000000000000e+000	 1.666649999985416e+000	 1.000160009043202e+001
0	 7.999999999999999e+000	 1.733319999987733e+000	 1.000372269887144e+001
0	 8.000000000000000e+000	 1.799989999990450e+000	 1.000586898292937e+001
0	 8.000000000000000e+000	 1.866659999993466e+000	 1.000804232126202e+001
0	 8.000000000000000e+000	 1.933329999996683e+000	 1.001024609252561e+001
0	 7.999999999999999e+000	 2.000000000000000e+000	 1.001248367537636e+001
0	 7.333299999983335e+000	 2.000000000000000e+000	 1.009416261871030e+001
0	 7.333299999983334e+000	 2.066670000003317e+000	 1.009659942879839e+001
0	 7.333299999983335e+000	 2.133340000006534e+000	 1.009896790014570e+001
0	 7.333299999983334e+000	 2.200010000009550e+000	 1.010127020746075e+001
0	 7.333299999983333e+000	 2.266680000012267e+000	 1.010350852545206e+001
0	 7.333299999983335e+000	 2.333350000014584e+000	 1.010568502882814e+001
0	 7.333299999983335e+000	 2.400020000016401e+000	 1.010780189229751e+001
0	 7.333299999983333e+000	 2.466690000017616e+000	 1.010986129056870e+001
0	 7.333299999983334e+000	 2.533360000018134e+000	 1.011186539835020e+001
0	 7.333299999983335e+000	 2.600030000017851e+000	 1.011381639035055e+001
0	 7.333299999983335e+000	 2.666700000016666e+000	 1.011571644127826e+001
0	 7.399969999982152e+000	 2.000000000000000e+000	 1.008585334337210e+001
0	 7.399969999982149e+000	 2.066670000003317e+000	 1.008827114397528e+001
0	 7.399969999982150e+000	 2.133340000006534e+000	 1.009061588479180e+001
0	 7.399969999982152e+000	 2.200010000009551e+000	 1.009289173729569e+001
0	 7.399969999982150e+000	 2.266680000012267e+000	 1.009510287296103e+001
0	 7.399969999982150e+000	 2.333350000014584e+000	 1.009725346326187e+001
0	 7.399969999982150e+000	 2.400020000016400e+000	 1.009934767967223e+001
0	 7.399969999982150e+000	 2.466690000017617e+000	 1.010138969366618e+001
0	 7.399969999982149e+000	 2.533360000018133e+000	 1.010338367671777e+001
0	 7.399969999982148e+000	 2.600030000017851e+000	 1.010533380030104e+001
0	 7.399969999982151e+000	 2.666700000016667e+000	 1.010724423589005e+001
0	 7.466639999981866e+000	 2.000000000000000e+000	 1.007762396843717e+001
0	 7.466639999981865e+000	 2.066670000003317e+000	 1.008001680035597e+001
0	 7.466639999981867e+000	 2.133340000006534e+000	 1.008233391292426e+001
0	 7.466639999981867e+000	 2.200010000009550e+000	 1.008458111154813e+001
0	 7.466639999981863e+000	 2.266680000012266e+000	 1.008676420163368e+001
0	 7.466639999981866e+000	 2.333350000014584e+000	 1.008888898858698e+001
0	 7.466639999981866e+000	 2.400020000016401e+000	 1.009096127781412e+001
0	 7.466639999981866e+000	 2.466690000017617e+000	 1.009298687472119e+001
0	 7.466639999981866e+000	 2.533360000018134e+000	 1.009497158471428e+001
0	 7.466639999981865e+000	 2.600030000017849e+000	 1.009692121319949e+001
0	 7.466639999981866e+000	 2.666700000016666e+000	 1.009884156558287e+001
0	 7.533309999982381e+000	 2.000000000000000e+000	 1.006945631300469e+001
0	 7.533309999982384e+000	 2.066670000003317e+000	 1.007182035131586e+001
0	 7.533309999982381e+000	 2.133340000006534e+000	 1.007410794517946e+001
0	 7.533309999982381e+000	 2.200010000009551e+000	 1.007632617110012e+001
0	 7.533309999982384e+000	 2.266680000012267e+000	 1.007848210558249e+001
0	 7.533309999982382e+000	 2.333350000014584e+000	 1.008058282513117e+001
0	 7.533309999982381e+000	 2.400020000016401e+000	 1.008263540625083e+001
0	 7.533309999982381e+000	 2.466690000017617e+000	 1.008464692544606e+001
0	 7.533309999982383e+000	 2.533360000018134e+000	 1.008662445922153e+001
0	 7.533309999982381e+000	 2.600030000017850e+000	 1.008857508408182e+001
0	 7.533309999982381e+000	 2.666700000016666e+000	 1.009050587653160e+001
0	 7.599979999983599e+000	 2.000000000000001e+000	 1.006133219617383e+001
0	 7.599979999983598e+000	 2.066670000003316e+000	 1.006366575023032e+001
0	 7.599979999983598e+000	 2.133340000006534e+000	 1.006592394219371e+001
0	 7.599979999983598e+000	 2.200010000009550e+000	 1.006811475683371e+001
0	 7.599979999983597e+000	 2.266680000012267e+000	 1.007024617891996e+001
0	 7.599979999983598e+000	 2.333350000014584e+000	 1.007232619322217e+001
0	 7.599979999983599e+000	 2.400020000016401e+000	 1.007436278451000e+001
0	 7.599979999983598e+000	 2.466690000017617e+000	 1.007636393755313e+001
0	 7.599979999983598e+000	 2.533360000018134e+000	 1.007833763712123e+001
0	 7.599979999983599e+000	 2.600030000017850e+000	 1.008029186798401e+001
0	 7.599979999983599e+000	 2.666700000016667e+000	 1.008223461491110e+001
0	 7.666649999985416e+000	 2.000000000000000e+000	 1.005323343704377e+001
0	 7.666649999985413e+000	 2.066670000003316e+000	 1.005553695047475e+001
0	 7.666649999985416e+000	 2.133340000006534e+000	 1.005776786460338e+001
0	 7.666649999985416e+000	 2.200010000009550e+000	 1.005993470963093e+001
0	 7.666649999985416e+000	 2.266680000012267e+000	 1.006204601575860e+001
0	 7.666649999985416e+000	 2.333350000014583e+000	 1.006411031318764e+001
0	 7.666649999985417e+000	 2.400020000016400e+000	 1.006613613211926e+001
0	 7.666649999985416e+000	 2.466690000017617e+000	 1.006813200275470e+001
0	 7.666649999985415e+000	 2.533360000018134e+000	 1.007010645529520e+001
0	 7.666649999985414e+000	 2.600030000017851e+000	 1.007206801994198e+001
0	 7.666649999985415e+000	 2.666700000016666e+000	 1.007402522689626e+001
0	 7.733319999987731e+000	 2.000000000000000e+000	 1.004514185471367e+001
0	 7.733319999987733e+000	 2.066670000003317e+000	 1.004741790542452e+001
0	 7.733319999987733e+000	 2.133340000006533e+000	 1.004962567304482e+001
0	 7.733319999987732e+000	 2.200010000009551e+000	 1.005177387037384e+001
0	 7.733319999987733e+000	 2.266680000012267e+000	 1.005387121021090e+001
0	 7.733319999987732e+000	 2.333350000014584e+000	 1.005592640535527e+001
0	 7.733319999987731e+000	 2.400020000016401e+000	 1.005794816860624e+001
0	 7.733319999987732e+000	 2.466690000017617e+000	 1.005994521276311e+001
0	 7.733319999987732e+000	 2.533360000018134e+000	 1.006192625062516e+001
0	 7.733319999987732e+000	 2.600030000017851e+000	 1.006389999499167e+001
0	 7.733319999987731e+000	 2.666700000016666e+000	 1.006587515866194e+001
0	 7.799989999990449e+000	 2.000000000000000e+000	 1.003703926828271e+001
0	 7.799989999990449e+000	 2.066670000003317e+000	 1.003929256845502e+001
0	 7.799989999990448e+000	 2.133340000006534e+000	 1.004148332815434e+001
0	 7.799989999990448e+000	 2.200010000009550e+000	 1.004362007994450e+001
0	 7.799989999990448e+000	 2.266680000012268e+000	 1.004571135638937e+001
0	 7.799989999990449e+000	 2.333350000014584e+000	 1.004776569005279e+001
0	 7.799989999990448e+000	 2.400020000016400e+000	 1.004979161349861e+001
0	 7.799989999990447e+000	 2.466690000017617e+000	 1.005179765929069e+001
0	 7.799989999990449e+000	 2.533360000018133e+000	 1.005379235999288e+001
0	 7.799989999990450e+000	 2.600030000017851e+000	 1.005578424816904e+001
0	 7.799989999990448e+000	 2.666700000016666e+000	 1.005778185638300e+001
0	 7.866659999993465e+000	 2.000000000000000e+000	 1.002890749685005e+001
0	 7.866659999993463e+000	 2.066670000003317e+000	 1.003114489294165e+001
0	 7.866659999993464e+000	 2.133340000006534e+000	 1.003332679056830e+001
0	 7.866659999993465e+000	 2.200010000009550e+000	 1.003546117922493e+001
0	 7.866659999993466e+000	 2.266680000012268e+000	 1.003755604840648e+001
0	 7.866659999993463e+000	 2.333350000014583e+000	 1.003961938760785e+001
0	 7.866659999993465e+000	 2.400020000016401e+000	 1.004165918632397e+001
0	 7.866659999993465e+000	 2.466690000017618e+000	 1.004368343404977e+001
0	 7.866659999993463e+000	 2.533360000018133e+000	 1.004570012028014e+001
0	 7.866659999993465e+000	 2.600030000017850e+000	 1.004771723451001e+001
0	 7.866659999993463e+000	 2.666700000016666e+000	 1.004974276623432e+001
0	 7.933329999996680e+000	 2.000000000000000e+000	 1.002072835951488e+001
0	 7.933329999996682e+000	 2.066670000003318e+000	 1.002295883225977e+001
0	 7.933329999996680e+000	 2.133340000006534e+000	 1.002514202092304e+001
0	 7.933329999996682e+000	 2.200010000009550e+000	 1.002728500909721e+001
0	 7.933329999996682e+000	 2.266680000012267e+000	 1.002939488037475e+001
0	 7.933329999996679e+000	 2.333350000014583e+000	 1.003147871834819e+001
0	 7.933329999996682e+000	 2.400020000016401e+000	 1.003354360660999e+001
0	 7.933329999996681e+000	 2.466690000017617e+000	 1.003559662875266e+001
0	 7.933329999996680e+000	 2.533360000018134e+000	 1.003764486836868e+001
0	 7.933329999996682e+000	 2.600030000017850e+000	 1.003969540905056e+001
0	 7.933329999996682e+000	 2.666700000016666e+000	 1.004175533439078e+001
0	 7.999999999999999e+000	 2.000000000000000e+000	 1.001248367537636e+001
0	 8.000000000000000e+000	 2.066670000003318e+000	 1.001471833978476e+001
0	 8.000000000000000e+000	 2.133340000006534e+000	 1.001691497985491e+001
0	 8.000000000000000e+000	 2.200010000009551e+000	 1.001907941044336e+001
0	 8.000000000000000e+000	 2.266680000012267e+000	 1.002121744640669e+001
0	 7.999999999999999e+000	 2.333350000014584e+000	 1.002333490260147e+001
0	 8.000000000000000e+000	 2.400020000016401e+000	 1.002543759388427e+001
0	 8.000000000000000e+000	 2.466690000017617e+000	 1.002753133511168e+001
0	 8.000000000000000e+000	 2.533360000018134e+000	 1.002962194114026e+001
0	 8.000000000000000e+000	 2.600030000017851e+000	 1.003171522682658e+001
0	 7.999999999999999e+000	 2.666700000016666e+000	 1.003381700702722e+001
0	 7.333299999983335e+000	 2.666700000016666e+000	 1.011571644127826e+001
0	 7.333299999983334e+000	 2.733360000014533e+000	 1.011752781255386e+001
0	 7.333299999983333e+000	 2.800020000011599e+000	 1.011921560634761e+001
0	 7.333299999983333e+000	 2.866680000008067e+000	 1.012078541464736e+001
0	 7.333299999983334e+000	 2.933340000004133e+000	 1.012224282944094e+001
0	 7.333299999983333e+000	 2.999999999999999e+000	 1.012359344271624e+001
0	 7.333299999983335e+000	 3.066659999995867e+000	 1.012484284646109e+001
0	 7.333299999983335e+000	 3.133319999991934e+000	 1.012599663266338e+001
0	 7.333299999983334e+000	 3.199979999988400e+000	 1.012706039331095e+001
0	 7.333299999983334e+000	 3.266639999985468e+000	 1.012803972039170e+001
0	 7.333299999983335e+000	 3.333299999983335e+000	 1.012894020589347e+001
0	 7.399969999982151e+000	 2.666700000016667e+000	 1.010724423589005e+001
0	 7.399969999982150e+000	 2.733360000014533e+000	 1.010907825379300e+001
0	 7.399969999982147e+000	 2.800020000011598e+000	 1.011079960010231e+001
0	 7.399969999982149e+000	 2.866680000008067e+000	 1.011241230861890e+001
0	 7.399969999982150e+000	 2.933340000004134e+000	 1.011392041314369e+001
0	 7.399969999982149e+000	 2.999999999999999e+000	 1.011532794747761e+001
0	 7.399969999982150e+000	 3.066659999995866e+000	 1.011663894542159e+001
0	 7.399969999982149e+000	 3.133319999991933e+000	 1.011785744077656e+001
0	 7.399969999982150e+000	 3.199979999988400e+000	 1.011898746734346e+001
0	 7.399969999982149e+000	 3.266639999985467e+000	 1.012003305892322e+001
0	 7.399969999982150e+000	 3.333299999983333e+000	 1.012099824931680e+001
0	 7.466639999981866e+000	 2.666700000016666e+000	 1.009884156558287e+001
0	 7.466639999981864e+000	 2.733360000014533e+000	 1.010069686373871e+001
0	 7.466639999981865e+000	 2.800020000011599e+000	 1.010244984311537e+001
0	 7.466639999981866e+000	 2.866680000008067e+000	 1.010410322108065e+001
0	 7.466639999981867e+000	 2.933340000004133e+000	 1.010565971500236e+001
0	 7.466639999981863e+000	 2.999999999999999e+000	 1.010712204224832e+001
0	 7.466639999981865e+000	 3.066659999995866e+000	 1.010849292018635e+001
0	 7.466639999981867e+000	 3.133319999991934e+000	 1.010977506618428e+001
0	 7.466639999981867e+000	 3.199979999988400e+000	 1.011097119760994e+001
0	 7.466639999981866e+000	 3.266639999985468e+000	 1.011208403183115e+001
0	 7.466639999981866e+000	 3.333299999983334e+000	 1.011311628621575e+001
0	 7.533309999982381e+000	 2.666700000016666e+000	 1.009050587653160e+001
0	 7.533309999982383e+000	 2.733360000014533e+000	 1.009238194161048e+001
0	 7.533309999982382e+000	 2.800020000011600e+000	 1.009416533875573e+001
0	 7.533309999982384e+000	 2.866680000008067e+000	 1.009585771065587e+001
0	 7.533309999982381e+000	 2.933340000004133e+000	 1.009746069999942e+001
0	 7.533309999982383e+000	 3.000000000000000e+000	 1.009897594947493e+001
0	 7.533309999982383e+000	 3.066659999995867e+000	 1.010040510177091e+001
0	 7.533309999982384e+000	 3.133319999991935e+000	 1.010174979957593e+001
0	 7.533309999982383e+000	 3.199979999988400e+000	 1.010301168557849e+001
0	 7.533309999982383e+000	 3.266639999985467e+000	 1.010419240246716e+001
0	 7.533309999982381e+000	 3.333299999983334e+000	 1.010529359293047e+001
0	 7.599979999983599e+000	 2.666700000016667e+000	 1.008223461491110e+001
0	 7.599979999983599e+000	 2.733360000014533e+000	 1.008413178662775e+001
0	 7.599979999983599e+000	 2.800020000011600e+000	 1.008594509039232e+001
0	 7.599979999983599e+000	 2.866680000008067e+000	 1.008767533596785e+001
0	 7.599979999983598e+000	 2.933340000004133e+000	 1.008932333311741e+001
0	 7.599979999983597e+000	 3.000000000000000e+000	 1.009088989160406e+001
0	 7.599979999983597e+000	 3.066659999995866e+000	 1.009237582119086e+001
0	 7.599979999983598e+000	 3.133319999991933e+000	 1.009378193164089e+001
0	 7.599979999983599e+000	 3.199979999988400e+000	 1.009510903271723e+001
0	 7.599979999983598e+000	 3.266639999985467e+000	 1.009635793418293e+001
0	 7.599979999983598e+000	 3.333299999983333e+000	 1.009752944580107e+001
0	 7.666649999985415e+000	 2.666700000016666e+000	 1.007402522689626e+001
0	 7.666649999985416e+000	 2.733360000014533e+000	 1.007594469801002e+001
0	 7.666649999985414e+000	 2.800020000011600e+000	 1.007778810139408e+001
0	 7.666649999985414e+000	 2.866680000008065e+000	 1.007955565563987e+001
0	 7.666649999985415e+000	 2.933340000004133e+000	 1.008124757933879e+001
0	 7.666649999985414e+000	 3.000000000000000e+000	 1.008286409108227e+001
0	 7.666649999985415e+000	 3.066659999995867e+000	 1.008440540946172e+001
0	 7.666649999985415e+000	 3.133319999991934e+000	 1.008587175306856e+001
0	 7.666649999985416e+000	 3.199979999988401e+000	 1.008726334049422e+001
0	 7.666649999985416e+000	 3.266639999985468e+000	 1.008858039033012e+001
0	 7.666649999985415e+000	 3.333299999983334e+000	 1.008982312116771e+001
0	 7.733319999987731e+000	 2.666700000016666e+000	 1.006587515866194e+001
0	 7.733319999987730e+000	 2.733360000014533e+000	 1.006781897497674e+001
0	 7.733319999987730e+000	 2.800020000011599e+000	 1.006969337512996e+001
0	 7.733319999987732e+000	 2.866680000008066e+000	 1.007149822829523e+001
0	 7.733319999987731e+000	 2.933340000004133e+000	 1.007323340364610e+001
0	 7.733319999987732e+000	 3.000000000000000e+000	 1.007489877035617e+001
0	 7.733319999987733e+000	 3.066659999995868e+000	 1.007649419759905e+001
0	 7.733319999987731e+000	 3.133319999991933e+000	 1.007801955454832e+001
0	 7.733319999987732e+000	 3.199979999988401e+000	 1.007947471037757e+001
0	 7.733319999987732e+000	 3.266639999985467e+000	 1.008085953426043e+001
0	 7.733319999987730e+000	 3.333299999983333e+000	 1.008217389537048e+001
0	 7.799989999990448e+000	 2.666700000016666e+000	 1.005778185638300e+001
0	 7.799989999990447e+000	 2.733360000014533e+000	 1.005975291674738e+001
0	 7.799989999990447e+000	 2.800020000011600e+000	 1.006165991496891e+001
0	 7.799989999990448e+000	 2.866680000008066e+000	 1.006350261255719e+001
0	 7.799989999990446e+000	 2.933340000004133e+000	 1.006528077102182e+001
0	 7.799989999990447e+000	 3.000000000000000e+000	 1.006699415187236e+001
0	 7.799989999990447e+000	 3.066659999995866e+000	 1.006864251661840e+001
0	 7.799989999990449e+000	 3.133319999991934e+000	 1.007022562676955e+001
0	 7.799989999990449e+000	 3.199979999988400e+000	 1.007174324383539e+001
0	 7.799989999990448e+000	 3.266639999985467e+000	 1.007319512932551e+001
0	 7.799989999990447e+000	 3.333299999983334e+000	 1.007458104474952e+001
0	 7.866659999993463e+000	 2.666700000016666e+000	 1.004974276623432e+001
0	 7.866659999993464e+000	 2.733360000014533e+000	 1.005174482254140e+001
0	 7.866659999993466e+000	 2.800020000011601e+000	 1.005368672427985e+001
0	 7.866659999993464e+000	 2.866680000008067e+000	 1.005556836704907e+001
0	 7.866659999993465e+000	 2.933340000004133e+000	 1.005738964644845e+001
0	 7.866659999993466e+000	 3.000000000000000e+000	 1.005915045807742e+001
0	 7.866659999993467e+000	 3.066659999995867e+000	 1.006085069753534e+001
0	 7.866659999993465e+000	 3.133319999991934e+000	 1.006249026042167e+001
0	 7.866659999993463e+000	 3.199979999988400e+000	 1.006406904233576e+001
0	 7.866659999993463e+000	 3.266639999985467e+000	 1.006558693887706e+001
0	 7.866659999993463e+000	 3.333299999983334e+000	 1.006704384564496e+001
0	 7.933329999996682e+000	 2.666700000016666e+000	 1.004175533439078e+001
0	 7.933329999996680e+000	 2.733360000014532e+000	 1.004379299157828e+001
0	 7.933329999996681e+000	 2.800020000011600e+000	 1.004577280643173e+001
0	 7.933329999996682e+000	 2.866680000008067e+000	 1.004769505039412e+001
0	 7.933329999996681e+000	 2.933340000004133e+000	 1.004955999490851e+001
0	 7.933329999996682e+000	 3.000000000000000e+000	 1.005136791141793e+001
0	 7.933329999996682e+000	 3.066659999995867e+000	 1.005311907136542e+001
0	 7.933329999996681e+000	 3.133319999991933e+000	 1.005481374619402e+001
0	 7.933329999996680e+000	 3.199979999988400e+000	 1.005645220734677e+001
0	 7.933329999996682e+000	 3.266639999985468e+000	 1.005803472626674e+001
0	 7.933329999996682e+000	 3.333299999983334e+000	 1.005956157439695e+001
0	 7.999999999999999e+000	 2.666700000016666e+000	 1.003381700702723e+001
0	 8.000000000000000e+000	 2.733360000014533e+000	 1.003589572307751e+001
0	 7.999999999999998e+000	 2.800020000011599e+000	 1.003791716479348e+001
0	 7.999999999999999e+000	 2.866680000008067e+000	 1.003988222121564e+001
0	 8.000000000000000e+000	 2.933340000004133e+000	 1.004179178138448e+001
0	 8.000000000000000e+000	 3.000000000000000e+000	 1.004364673434049e+001
0	 8.000000000000000e+000	 3.066659999995867e+000	 1.004544796912417e+001
0	 7.999999999999999e+000	 3.133319999991933e+000	 1.004719637477601e+001
0	 7.999999999999999e+000	 3.199979999988401e+000	 1.004889284033652e+001
0	 8.000000000000000e+000	 3.266639999985468e+000	 1.005053825484621e+001
0	 7.999999999999999e+000	 3.333299999983334e+000	 1.005213350734557e+001
0	 7.333299999983335e+000	 3.333299999983335e+000	 1.012894020589348e+001
0	 7.333299999983333e+000	 3.399969999982149e+000	 1.012975377780700e+001
0	 7.333299999983333e+000	 3.466639999981866e+000	 1.013046826817036e+001
0	 7.333299999983333e+000	 3.533309999982382e+000	 1.013108351339928e+001
0	 7.333299999983335e+000	 3.599979999983599e+000	 1.013159934990944e+001
0	 7.333299999983335e+000	 3.666649999985416e+000	 1.013201561411658e+001
0	 7.333299999983335e+000	 3.733319999987733e+000	 1.013233214243638e+001
0	 7.333299999983334e+000	 3.799989999990450e+000	 1.013254877128454e+001
0	 7.333299999983336e+000	 3.866659999993467e+000	 1.013266533707677e+001
0	 7.333299999983332e+000	 3.933329999996682e+000	 1.013268167622876e+001
0	 7.333299999983335e+000	 4.000000000000001e+000	 1.013259762515622e+001
0	 7.399969999982150e+000	 3.333299999983333e+000	 1.012099824931679e+001
0	 7.399969999982148e+000	 3.399969999982150e+000	 1.012187679007994e+001
0	 7.399969999982148e+000	 3.466639999981866e+000	 1.012265956405846e+001
0	 7.399969999982150e+000	 3.533309999982384e+000	 1.012334671888053e+001
0	 7.399969999982151e+000	 3.599979999983601e+000	 1.012393840217436e+001
0	 7.399969999982150e+000	 3.666649999985416e+000	 1.012443476156811e+001
0	 7.399969999982150e+000	 3.733319999987733e+000	 1.012483594468997e+001
0	 7.399969999982149e+000	 3.799989999990449e+000	 1.012514209916813e+001
0	 7.399969999982150e+000	 3.866659999993467e+000	 1.012535337263075e+001
0	 7.399969999982152e+000	 3.933329999996683e+000	 1.012546991270603e+001
0	 7.399969999982151e+000	 4.000000000000001e+000	 1.012549186702212e+001
0	 7.466639999981866e+000	 3.333299999983334e+000	 1.011311628621576e+001
0	 7.466639999981866e+000	 3.399969999982150e+000	 1.011406270614366e+001
0	 7.466639999981867e+000	 3.466639999981867e+000	 1.011491620205828e+001
0	 7.466639999981864e+000	 3.533309999982383e+000	 1.011567718575899e+001
0	 7.466639999981867e+000	 3.599979999983600e+000	 1.011634606904517e+001
0	 7.466639999981867e+000	 3.666649999985417e+000	 1.011692326371619e+001
0	 7.466639999981864e+000	 3.733319999987733e+000	 1.011740918157143e+001
0	 7.466639999981865e+000	 3.799989999990450e+000	 1.011780423441024e+001
0	 7.466639999981868e+000	 3.866659999993466e+000	 1.011810883403200e+001
0	 7.466639999981867e+000	 3.933329999996683e+000	 1.011832339223611e+001
0	 7.466639999981866e+000	 4.000000000000000e+000	 1.011844832082189e+001
0	 7.533309999982381e+000	 3.333299999983334e+000	 1.010529359293047e+001
0	 7.533309999982383e+000	 3.399969999982150e+000	 1.010631029325753e+001
0	 7.533309999982381e+000	 3.466639999981866e+000	 1.010723654527362e+001
0	 7.533309999982383e+000	 3.533309999982383e+000	 1.010807297790803e+001
0	 7.533309999982381e+000	 3.599979999983600e+000	 1.010882022009004e+001
0	 7.533309999982381e+000	 3.666649999985415e+000	 1.010947890074890e+001
0	 7.533309999982384e+000	 3.733319999987733e+000	 1.011004964881392e+001
0	 7.533309999982383e+000	 3.799989999990450e+000	 1.011053309321435e+001
0	 7.533309999982383e+000	 3.866659999993467e+000	 1.011092986287946e+001
0	 7.533309999982383e+000	 3.933329999996684e+000	 1.011124058673854e+001
0	 7.533309999982381e+000	 4.000000000000000e+000	 1.011146589372085e+001
0	 7.599979999983598e+000	 3.333299999983333e+000	 1.009752944580107e+001
0	 7.599979999983599e+000	 3.399969999982149e+000	 1.009861831868093e+001
0	 7.599979999983600e+000	 3.466639999981867e+000	 1.009961895680829e+001
0	 7.599979999983598e+000	 3.533309999982383e+000	 1.010053215920104e+001
0	 7.599979999983599e+000	 3.599979999983600e+000	 1.010135872487710e+001
0	 7.599979999983598e+000	 3.666649999985416e+000	 1.010209945285433e+001
0	 7.599979999983599e+000	 3.733319999987733e+000	 1.010275514215065e+001
0	 7.599979999983597e+000	 3.799989999990449e+000	 1.010332659178392e+001
0	 7.599979999983598e+000	 3.866659999993467e+000	 1.010381460077202e+001
0	 7.599979999983600e+000	 3.933329999996684e+000	 1.010421996813285e+001
0	 7.599979999983598e+000	 4.000000000000000e+000	 1.010454349288431e+001
0	 7.666649999985415e+000	 3.333299999983334e+000	 1.008982312116771e+001
0	 7.666649999985414e+000	 3.399969999982150e+000	 1.009098554967323e+001
0	 7.666649999985416e+000	 3.466639999981867e+000	 1.009206179976606e+001
0	 7.666649999985417e+000	 3.533309999982384e+000	 1.009305279351142e+001
0	 7.666649999985416e+000	 3.599979999983600e+000	 1.009395945297451e+001
0	 7.666649999985415e+000	 3.666649999985416e+000	 1.009478270022057e+001
0	 7.666649999985415e+000	 3.733319999987733e+000	 1.009552345731479e+001
0	 7.666649999985414e+000	 3.799989999990450e+000	 1.009618264632239e+001
0	 7.666649999985416e+000	 3.866659999993467e+000	 1.009676118930859e+001
0	 7.666649999985414e+000	 3.933329999996683e+000	 1.009726000833860e+001
0	 7.666649999985416e+000	 4.000000000000000e+000	 1.009768002547761e+001
0	 7.733319999987730e+000	 3.333299999983333e+000	 1.008217389537048e+001
0	 7.733319999987732e+000	 3.399969999982150e+000	 1.008341075349381e+001
0	 7.733319999987733e+000	 3.466639999981866e+000	 1.008456343725074e+001
0	 7.733319999987733e+000	 3.533309999982383e+000	 1.008563294471253e+001
0	 7.733319999987733e+000	 3.599979999983600e+000	 1.008662027395042e+001
0	 7.733319999987732e+000	 3.666649999985416e+000	 1.008752642303567e+001
0	 7.733319999987731e+000	 3.733319999987732e+000	 1.008835239003953e+001
0	 7.733319999987733e+000	 3.799989999990450e+000	 1.008909917303324e+001
0	 7.733319999987732e+000	 3.866659999993466e+000	 1.008976777008809e+001
0	 7.733319999987731e+000	 3.933329999996684e+000	 1.009035917927527e+001
0	 7.733319999987732e+000	 4.000000000000000e+000	 1.009087439866607e+001
0	 7.799989999990447e+000	 3.333299999983334e+000	 1.007458104474952e+001
0	 7.799989999990449e+000	 3.399969999982150e+000	 1.007589269740204e+001
0	 7.799989999990445e+000	 3.466639999981866e+000	 1.007712223236612e+001
0	 7.799989999990447e+000	 3.533309999982383e+000	 1.007827067667776e+001
0	 7.799989999990448e+000	 3.599979999983600e+000	 1.007933905737296e+001
0	 7.799989999990450e+000	 3.666649999985417e+000	 1.008032840148772e+001
0	 7.799989999990446e+000	 3.733319999987732e+000	 1.008123973605806e+001
0	 7.799989999990448e+000	 3.799989999990450e+000	 1.008207408811995e+001
0	 7.799989999990447e+000	 3.866659999993467e+000	 1.008283248470941e+001
0	 7.799989999990448e+000	 3.933329999996683e+000	 1.008351595286243e+001
0	 7.799989999990450e+000	 4.000000000000001e+000	 1.008412551961500e+001
0	 7.866659999993463e+000	 3.333299999983334e+000	 1.006704384564496e+001
0	 7.866659999993464e+000	 3.399969999982150e+000	 1.006843014865730e+001
0	 7.866659999993463e+000	 3.466639999981866e+000	 1.006973654821599e+001
0	 7.866659999993463e+000	 3.533309999982383e+000	 1.007096405328049e+001
0	 7.866659999993462e+000	 3.599979999983600e+000	 1.007211367281029e+001
0	 7.866659999993464e+000	 3.666649999985417e+000	 1.007318641576481e+001
0	 7.866659999993464e+000	 3.733319999987732e+000	 1.007418329110356e+001
0	 7.866659999993464e+000	 3.799989999990450e+000	 1.007510530778596e+001
0	 7.866659999993463e+000	 3.866659999993466e+000	 1.007595347477149e+001
0	 7.866659999993465e+000	 3.933329999996684e+000	 1.007672880101959e+001
0	 7.866659999993466e+000	 4.000000000000001e+000	 1.007743229548974e+001
0	 7.933329999996682e+000	 3.333299999983334e+000	 1.005956157439695e+001
0	 7.933329999996682e+000	 3.399969999982150e+000	 1.006102187451896e+001
0	 7.933329999996681e+000	 3.466639999981867e+000	 1.006240474790415e+001
0	 7.933329999996682e+000	 3.533309999982382e+000	 1.006371113839412e+001
0	 7.933329999996681e+000	 3.599979999983600e+000	 1.006494198983055e+001
0	 7.933329999996682e+000	 3.666649999985416e+000	 1.006609824605503e+001
0	 7.933329999996682e+000	 3.733319999987733e+000	 1.006718085090920e+001
0	 7.933329999996682e+000	 3.799989999990450e+000	 1.006819074823473e+001
0	 7.933329999996682e+000	 3.866659999993467e+000	 1.006912888187322e+001
0	 7.933329999996682e+000	 3.933329999996684e+000	 1.006999619566630e+001
0	 7.933329999996681e+000	 4.000000000000000e+000	 1.007079363345561e+001
0	 7.999999999999999e+000	 3.333299999983334e+000	 1.005213350734557e+001
0	 8.000000000000000e+000	 3.399969999982150e+000	 1.005366664224639e+001
0	 8.000000000000002e+000	 3.466639999981866e+000	 1.005512519453438e+001
0	 8.000000000000000e+000	 3.533309999982383e+000	 1.005650999589202e+001
0	 8.000000000000000e+000	 3.599979999983600e+000	 1.005782187800187e+001
0	 7.999999999999999e+000	 3.666649999985416e+000	 1.005906167254643e+001
0	 7.999999999999999e+000	 3.733319999987733e+000	 1.006023021120821e+001
0	 8.000000000000000e+000	 3.799989999990450e+000	 1.006132832566973e+001
0	 7.999999999999999e+000	 3.866659999993467e+000	 1.006235684761351e+001
0	 8.000000000000000e+000	 3.933329999996683e+000	 1.006331660872207e+001
0	 8.000000000000000e+000	 4.000000000000001e+000	 1.006420844067791e+001
0	 7.333299999983335e+000	 4.000000000000001e+000	 1.013259762515622e+001
0	 7.333299999983335e+000	 4.066670000003317e+000	 1.013242428829840e+001
0	 7.333299999983334e+000	 4.133340000006534e+000	 1.013217153084034e+001
0	 7.333299999983335e+000	 4.200010000009550e+000	 1.013183733031644e+001
0	 7.333299999983333e+000	 4.266680000012268e+000	 1.013141966426104e+001
0	 7.333299999983333e+000	 4.333350000014583e+000	 1.013091651020853e+001
0	 7.333299999983334e+000	 4.400020000016402e+000	 1.013032584569327e+001
0	 7.333299999983334e+000	 4.466690000017617e+000	 1.012964564824963e+001
0	 7.333299999983334e+000	 4.533360000018134e+000	 1.012887389541198e+001
0	 7.333299999983334e+000	 4.600030000017849e+000	 1.012800856471467e+001
0	 7.333299999983333e+000	 4.666700000016665e+000	 1.012704763369208e+001
0	 7.399969999982151e+000	 4.000000000000001e+000	 1.012549186702212e+001
0	 7.399969999982151e+000	 4.066670000003318e+000	 1.012542721392830e+001
0	 7.399969999982150e+000	 4.133340000006534e+000	 1.012528272918412e+001
0	 7.399969999982151e+000	 4.200010000009550e+000	 1.012505675653333e+001
0	 7.399969999982151e+000	 4.266680000012267e+000	 1.012474763971958e+001
0	 7.399969999982149e+000	 4.333350000014584e+000	 1.012435372248659e+001
0	 7.399969999982148e+000	 4.400020000016401e+000	 1.012387334857805e+001
0	 7.399969999982149e+000	 4.466690000017616e+000	 1.012330486173763e+001
0	 7.399969999982149e+000	 4.533360000018132e+000	 1.012264660570905e+001
0	 7.399969999982148e+000	 4.600030000017850e+000	 1.012189692423597e+001
0	 7.399969999982151e+000	 4.666700000016666e+000	 1.012105416106210e+001
0	 7.466639999981866e+000	 4.000000000000000e+000	 1.011844832082189e+001
0	 7.466639999981867e+000	 4.066670000003319e+000	 1.011848902082549e+001
0	 7.466639999981867e+000	 4.133340000006534e+000	 1.011844972946236e+001
0	 7.466639999981865e+000	 4.200010000009550e+000	 1.011832911280074e+001
0	 7.466639999981864e+000	 4.266680000012267e+000	 1.011812583690892e+001
0	 7.466639999981867e+000	 4.333350000014584e+000	 1.011783856785520e+001
0	 7.466639999981866e+000	 4.400020000016403e+000	 1.011746597170784e+001
0	 7.466639999981864e+000	 4.466690000017618e+000	 1.011700671453513e+001
0	 7.466639999981865e+000	 4.533360000018133e+000	 1.011645946240533e+001
0	 7.466639999981865e+000	 4.600030000017849e+000	 1.011582288138672e+001
0	 7.466639999981866e+000	 4.666700000016666e+000	 1.011509563754757e+001
0	 7.533309999982381e+000	 4.000000000000000e+000	 1.011146589372085e+001
0	 7.533309999982384e+000	 4.066670000003318e+000	 1.011160909843846e+001
0	 7.533309999982381e+000	 4.133340000006534e+000	 1.011167239255602e+001
0	 7.533309999982381e+000	 4.200010000009550e+000	 1.011165472058170e+001
0	 7.533309999982384e+000	 4.266680000012267e+000	 1.011155502702360e+001
0	 7.533309999982383e+000	 4.333350000014584e+000	 1.011137225638985e+001
0	 7.533309999982381e+000	 4.400020000016403e+000	 1.011110535318858e+001
0	 7.533309999982381e+000	 4.466690000017615e+000	 1.011075326192790e+001
0	 7.533309999982384e+000	 4.533360000018134e+000	 1.011031492711597e+001
0	 7.533309999982381e+000	 4.600030000017848e+000	 1.010978929326087e+001
0	 7.533309999982381e+000	 4.666700000016665e+000	 1.010917530487075e+001
0	 7.599979999983598e+000	 4.000000000000000e+000	 1.010454349288431e+001
0	 7.599979999983598e+000	 4.066670000003316e+000	 1.010478683621558e+001
0	 7.599979999983598e+000	 4.133340000006532e+000	 1.010495057934616e+001
0	 7.599979999983599e+000	 4.200010000009550e+000	 1.010503390133926e+001
0	 7.599979999983597e+000	 4.266680000012268e+000	 1.010503598125815e+001
0	 7.599979999983598e+000	 4.333350000014583e+000	 1.010495599816603e+001
0	 7.599979999983599e+000	 4.400020000016402e+000	 1.010479313112618e+001
0	 7.599979999983598e+000	 4.466690000017616e+000	 1.010454655920179e+001
0	 7.599979999983598e+000	 4.533360000018133e+000	 1.010421546145612e+001
0	 7.599979999983600e+000	 4.600030000017852e+000	 1.010379901695240e+001
0	 7.599979999983598e+000	 4.666700000016666e+000	 1.010329640475386e+001
0	 7.666649999985416e+000	 4.000000000000000e+000	 1.009768002547761e+001
0	 7.666649999985415e+000	 4.066670000003317e+000	 1.009802162360533e+001
0	 7.666649999985415e+000	 4.133340000006534e+000	 1.009828415071375e+001
0	 7.666649999985417e+000	 4.200010000009551e+000	 1.009846697653647e+001
0	 7.666649999985416e+000	 4.266680000012268e+000	 1.009856947080710e+001
0	 7.666649999985415e+000	 4.333350000014582e+000	 1.009859100325926e+001
0	 7.666649999985417e+000	 4.400020000016401e+000	 1.009853094362655e+001
0	 7.666649999985417e+000	 4.466690000017618e+000	 1.009838866164257e+001
0	 7.666649999985414e+000	 4.533360000018133e+000	 1.009816352704094e+001
0	 7.666649999985416e+000	 4.600030000017850e+000	 1.009785490955527e+001
0	 7.666649999985415e+000	 4.666700000016665e+000	 1.009746217891915e+001
0	 7.733319999987732e+000	 4.000000000000000e+000	 1.009087439866607e+001
0	 7.733319999987733e+000	 4.066670000003318e+000	 1.009131285005613e+001
0	 7.733319999987733e+000	 4.133340000006535e+000	 1.009167296753981e+001
0	 7.733319999987731e+000	 4.200010000009550e+000	 1.009195426763635e+001
0	 7.733319999987732e+000	 4.266680000012267e+000	 1.009215626686500e+001
0	 7.733319999987731e+000	 4.333350000014582e+000	 1.009227848174501e+001
0	 7.733319999987731e+000	 4.400020000016401e+000	 1.009232042879562e+001
0	 7.733319999987733e+000	 4.466690000017618e+000	 1.009228162453607e+001
0	 7.733319999987733e+000	 4.533360000018136e+000	 1.009216158548560e+001
0	 7.733319999987732e+000	 4.600030000017851e+000	 1.009195982816345e+001
0	 7.733319999987733e+000	 4.666700000016667e+000	 1.009167586908887e+001
0	 7.799989999990450e+000	 4.000000000000001e+000	 1.008412551961500e+001
0	 7.799989999990448e+000	 4.066670000003316e+000	 1.008465990501639e+001
0	 7.799989999990448e+000	 4.133340000006534e+000	 1.008511689070532e+001
0	 7.799989999990448e+000	 4.200010000009551e+000	 1.008549609610194e+001
0	 7.799989999990448e+000	 4.266680000012268e+000	 1.008579714062639e+001
0	 7.799989999990449e+000	 4.333350000014583e+000	 1.008601964369880e+001
0	 7.799989999990447e+000	 4.400020000016400e+000	 1.008616322473931e+001
0	 7.799989999990448e+000	 4.466690000017618e+000	 1.008622750316808e+001
0	 7.799989999990446e+000	 4.533360000018133e+000	 1.008621209840523e+001
0	 7.799989999990449e+000	 4.600030000017850e+000	 1.008611662987091e+001
0	 7.799989999990448e+000	 4.666700000016666e+000	 1.008594071698524e+001
0	 7.866659999993466e+000	 4.000000000000001e+000	 1.007743229548974e+001
0	 7.866659999993463e+000	 4.066670000003317e+000	 1.007806217793458e+001
0	 7.866659999993464e+000	 4.133340000006534e+000	 1.007861578109133e+001
0	 7.866659999993464e+000	 4.200010000009551e+000	 1.007909278339629e+001
0	 7.866659999993466e+000	 4.266680000012268e+000	 1.007949286328579e+001
0	 7.866659999993464e+000	 4.333350000014585e+000	 1.007981569919611e+001
0	 7.866659999993465e+000	 4.400020000016402e+000	 1.008006096956354e+001
0	 7.866659999993463e+000	 4.466690000017616e+000	 1.008022835282441e+001
0	 7.866659999993464e+000	 4.533360000018132e+000	 1.008031752741500e+001
0	 7.866659999993463e+000	 4.600030000017849e+000	 1.008032817177160e+001
0	 7.866659999993464e+000	 4.666700000016665e+000	 1.008025996433053e+001
0	 7.933329999996681e+000	 4.000000000000000e+000	 1.007079363345561e+001
0	 7.933329999996682e+000	 4.066670000003316e+000	 1.007151905825909e+001
0	 7.933329999996681e+000	 4.133340000006535e+000	 1.007216949957879e+001
0	 7.933329999996682e+000	 4.200010000009550e+000	 1.007274465098244e+001
0	 7.933329999996682e+000	 4.266680000012268e+000	 1.007324420603774e+001
0	 7.933329999996682e+000	 4.333350000014584e+000	 1.007366785831244e+001
0	 7.933329999996682e+000	 4.400020000016402e+000	 1.007401530137423e+001
0	 7.933329999996681e+000	 4.466690000017618e+000	 1.007428622879087e+001
0	 7.933329999996680e+000	 4.533360000018133e+000	 1.007448033413005e+001
0	 7.933329999996682e+000	 4.600030000017851e+000	 1.007459731095951e+001
0	 7.933329999996681e+000	 4.666700000016665e+000	 1.007463685284695e+001
0	 8.000000000000000e+000	 4.000000000000001e+000	 1.006420844067791e+001
0	 7.999999999999999e+000	 4.066670000003318e+000	 1.006502993543837e+001
0	 8.000000000000000e+000	 4.133340000006534e+000	 1.006577790704874e+001
0	 7.999999999999998e+000	 4.200010000009550e+000	 1.006645202032340e+001
0	 8.000000000000000e+000	 4.266680000012268e+000	 1.006705194007678e+001
0	 7.999999999999998e+000	 4.333350000014583e+000	 1.006757733112327e+001
0	 8.000000000000000e+000	 4.400020000016401e+000	 1.006802785827730e+001
0	 8.000000000000000e+000	 4.466690000017618e+000	 1.006840318635325e+001
0	 8.000000000000000e+000	 4.533360000018135e+000	 1.006870298016555e+001
0	 8.000000000000000e+000	 4.600030000017850e+000	 1.006892690452858e+001
0	 7.999999999999998e+000	 4.666700000016665e+000	 1.006907462425676e+001
0	 7.333299999983333e+000	 4.666700000016665e+000	 1.012704763369209e+001
0	 7.333299999983334e+000	 4.733360000014534e+000	 1.012601036382372e+001
0	 7.333299999983334e+000	 4.800020000011600e+000	 1.012491575177724e+001
0	 7.333299999983334e+000	 4.866680000008068e+000	 1.012376183207891e+001
0	 7.333299999983335e+000	 4.933340000004134e+000	 1.012254663925498e+001
0	 7.333299999983335e+000	 4.999999999999999e+000	 1.012126820783169e+001
0	 7.333299999983336e+000	 5.066659999995867e+000	 1.011992457233531e+001
0	 7.333299999983335e+000	 5.133319999991935e+000	 1.011851376729211e+001
0	 7.333299999983335e+000	 5.199979999988400e+000	 1.011703382722833e+001
0	 7.333299999983333e+000	 5.266639999985469e+000	 1.011548278667027e+001
0	 7.333299999983334e+000	 5.333299999983333e+000	 1.011385868014417e+001
0	 7.399969999982151e+000	 4.666700000016666e+000	 1.012105416106210e+001
0	 7.399969999982150e+000	 4.733360000014534e+000	 1.012013676561760e+001
0	 7.399969999982147e+000	 4.800020000011599e+000	 1.011916265355813e+001
0	 7.399969999982149e+000	 4.866680000008066e+000	 1.011812976838082e+001
0	 7.399969999982149e+000	 4.933340000004132e+000	 1.011703605358273e+001
0	 7.399969999982149e+000	 5.000000000000001e+000	 1.011587945266102e+001
0	 7.399969999982151e+000	 5.066659999995867e+000	 1.011465790911276e+001
0	 7.399969999982150e+000	 5.133319999991935e+000	 1.011336936643511e+001
0	 7.399969999982150e+000	 5.199979999988400e+000	 1.011201176812515e+001
0	 7.399969999982148e+000	 5.266639999985467e+000	 1.011058305768000e+001
0	 7.399969999982149e+000	 5.333299999983333e+000	 1.010908117859681e+001
0	 7.466639999981866e+000	 4.666700000016666e+000	 1.011509563754757e+001
0	 7.466639999981866e+000	 4.733360000014533e+000	 1.011429539332498e+001
0	 7.466639999981867e+000	 4.800020000011599e+000	 1.011343905677232e+001
0	 7.466639999981865e+000	 4.866680000008066e+000	 1.011252451022378e+001
0	 7.466639999981868e+000	 4.933340000004134e+000	 1.011154963601358e+001
0	 7.466639999981863e+000	 4.999999999999999e+000	 1.011051231647593e+001
0	 7.466639999981866e+000	 5.066659999995866e+000	 1.010941043394501e+001
0	 7.466639999981867e+000	 5.133319999991933e+000	 1.010824187075508e+001
0	 7.466639999981867e+000	 5.199979999988400e+000	 1.010700450924033e+001
0	 7.466639999981866e+000	 5.266639999985468e+000	 1.010569623173498e+001
0	 7.466639999981864e+000	 5.333299999983334e+000	 1.010431492057326e+001
0	 7.533309999982381e+000	 4.666700000016665e+000	 1.010917530487075e+001
0	 7.533309999982383e+000	 4.733360000014533e+000	 1.010848984975709e+001
0	 7.533309999982383e+000	 4.800020000011601e+000	 1.010774888920565e+001
0	 7.533309999982384e+000	 4.866680000008067e+000	 1.010695027425400e+001
0	 7.533309999982382e+000	 4.933340000004134e+000	 1.010609185593967e+001
0	 7.533309999982381e+000	 4.999999999999998e+000	 1.010517148530024e+001
0	 7.533309999982382e+000	 5.066659999995867e+000	 1.010418701337323e+001
0	 7.533309999982384e+000	 5.133319999991936e+000	 1.010313629119624e+001
0	 7.533309999982383e+000	 5.199979999988401e+000	 1.010201716980680e+001
0	 7.533309999982383e+000	 5.266639999985468e+000	 1.010082750024248e+001
0	 7.533309999982382e+000	 5.333299999983334e+000	 1.009956513354086e+001
0	 7.599979999983598e+000	 4.666700000016666e+000	 1.010329640475386e+001
0	 7.599979999983599e+000	 4.733360000014533e+000	 1.010272373772511e+001
0	 7.599979999983599e+000	 4.800020000011600e+000	 1.010209607864398e+001
0	 7.599979999983598e+000	 4.866680000008065e+000	 1.010141127711761e+001
0	 7.599979999983598e+000	 4.933340000004134e+000	 1.010066718275318e+001
0	 7.599979999983598e+000	 5.000000000000000e+000	 1.009986164515779e+001
0	 7.599979999983598e+000	 5.066659999995866e+000	 1.009899251393861e+001
0	 7.599979999983598e+000	 5.133319999991934e+000	 1.009805763870278e+001
0	 7.599979999983598e+000	 5.199979999988399e+000	 1.009705486905746e+001
0	 7.599979999983600e+000	 5.266639999985468e+000	 1.009598205460979e+001
0	 7.599979999983598e+000	 5.333299999983333e+000	 1.009483704496694e+001
0	 7.666649999985415e+000	 4.666700000016665e+000	 1.009746217891915e+001
0	 7.666649999985417e+000	 4.733360000014534e+000	 1.009700066004025e+001
0	 7.666649999985415e+000	 4.800020000011601e+000	 1.009648455287315e+001
0	 7.666649999985417e+000	 4.866680000008066e+000	 1.009591173546081e+001
0	 7.666649999985413e+000	 4.933340000004133e+000	 1.009528008584625e+001
0	 7.666649999985414e+000	 5.000000000000001e+000	 1.009458748207243e+001
0	 7.666649999985415e+000	 5.066659999995867e+000	 1.009383180218231e+001
0	 7.666649999985415e+000	 5.133319999991935e+000	 1.009301092421891e+001
0	 7.666649999985416e+000	 5.199979999988400e+000	 1.009212272622520e+001
0	 7.666649999985416e+000	 5.266639999985467e+000	 1.009116508624416e+001
0	 7.666649999985414e+000	 5.333299999983333e+000	 1.009013588231880e+001
0	 7.733319999987733e+000	 4.666700000016667e+000	 1.009167586908887e+001
0	 7.733319999987731e+000	 4.733360000014533e+000	 1.009132421951372e+001
0	 7.733319999987731e+000	 4.800020000011599e+000	 1.009091823967900e+001
0	 7.733319999987729e+000	 4.866680000008065e+000	 1.009045586592977e+001
0	 7.733319999987732e+000	 4.933340000004131e+000	 1.008993503461107e+001
0	 7.733319999987732e+000	 5.000000000000000e+000	 1.008935368206797e+001
0	 7.733319999987733e+000	 5.066659999995868e+000	 1.008870974464554e+001
0	 7.733319999987731e+000	 5.133319999991935e+000	 1.008800115868884e+001
0	 7.733319999987732e+000	 5.199979999988402e+000	 1.008722586054293e+001
0	 7.733319999987733e+000	 5.266639999985467e+000	 1.008638178655288e+001
0	 7.733319999987731e+000	 5.333299999983334e+000	 1.008546687306377e+001
0	 7.799989999990448e+000	 4.666700000016666e+000	 1.008594071698524e+001
0	 7.799989999990449e+000	 4.733360000014533e+000	 1.008569801895674e+001
0	 7.799989999990447e+000	 4.800020000011599e+000	 1.008540106684740e+001
0	 7.799989999990449e+000	 4.866680000008068e+000	 1.008504788517064e+001
0	 7.799989999990446e+000	 4.933340000004133e+000	 1.008463649843979e+001
0	 7.799989999990446e+000	 4.999999999999999e+000	 1.008416493116827e+001
0	 7.799989999990448e+000	 5.066659999995868e+000	 1.008363120786945e+001
0	 7.799989999990449e+000	 5.133319999991935e+000	 1.008303335305675e+001
0	 7.799989999990448e+000	 5.199979999988400e+000	 1.008236939124354e+001
0	 7.799989999990449e+000	 5.266639999985468e+000	 1.008163734694323e+001
0	 7.799989999990448e+000	 5.333299999983334e+000	 1.008083524466920e+001
0	 7.866659999993464e+000	 4.666700000016665e+000	 1.008025996433053e+001
0	 7.866659999993464e+000	 4.733360000014533e+000	 1.008012566118052e+001
0	 7.866659999993465e+000	 4.800020000011601e+000	 1.007993696216420e+001
0	 7.866659999993464e+000	 4.866680000008065e+000	 1.007969200982958e+001
0	 7.866659999993466e+000	 4.933340000004133e+000	 1.007938894672455e+001
0	 7.866659999993465e+000	 5.000000000000000e+000	 1.007902591539713e+001
0	 7.866659999993466e+000	 5.066659999995866e+000	 1.007860105839524e+001
0	 7.866659999993465e+000	 5.133319999991935e+000	 1.007811251826686e+001
0	 7.866659999993464e+000	 5.199979999988399e+000	 1.007755843755995e+001
0	 7.866659999993465e+000	 5.266639999985468e+000	 1.007693695882247e+001
0	 7.866659999993464e+000	 5.333299999983334e+000	 1.007624622460241e+001
0	 7.933329999996681e+000	 4.666700000016665e+000	 1.007463685284696e+001
0	 7.933329999996682e+000	 4.733360000014533e+000	 1.007461074899623e+001
0	 7.933329999996680e+000	 4.800020000011600e+000	 1.007452985341525e+001
0	 7.933329999996682e+000	 4.866680000008067e+000	 1.007439245655277e+001
0	 7.933329999996682e+000	 4.933340000004134e+000	 1.007419684885755e+001
0	 7.933329999996682e+000	 5.000000000000000e+000	 1.007394132077840e+001
0	 7.933329999996679e+000	 5.066659999995866e+000	 1.007362416276407e+001
0	 7.933329999996681e+000	 5.133319999991934e+000	 1.007324366526336e+001
0	 7.933329999996682e+000	 5.199979999988400e+000	 1.007279811872504e+001
0	 7.933329999996682e+000	 5.266639999985468e+000	 1.007228581359789e+001
0	 7.933329999996682e+000	 5.333299999983334e+000	 1.007170504033071e+001
0	 7.999999999999998e+000	 4.666700000016665e+000	 1.006907462425676e+001
0	 8.000000000000000e+000	 4.733360000014532e+000	 1.006915688521513e+001
0	 8.000000000000000e+000	 4.800020000011601e+000	 1.006918366838638e+001
0	 8.000000000000000e+000	 4.866680000008068e+000	 1.006915344198638e+001
0	 7.999999999999998e+000	 4.933340000004133e+000	 1.006906467423093e+001
0	 7.999999999999999e+000	 5.000000000000000e+000	 1.006891583333591e+001
0	 8.000000000000000e+000	 5.066659999995867e+000	 1.006870538751714e+001
0	 8.000000000000000e+000	 5.133319999991934e+000	 1.006843180499045e+001
0	 8.000000000000000e+000	 5.199979999988400e+000	 1.006809355397172e+001
0	 8.000000000000000e+000	 5.266639999985468e+000	 1.006768910267674e+001
0	 8.000000000000000e+000	 5.333299999983333e+000	 1.006721691932141e+001
0	 7.333299999983334e+000	 5.333299999983333e+000	 1.011385868014417e+001
0	 7.333299999983335e+000	 5.399969999982150e+000	 1.011218498661427e+001
0	 7.333299999983333e+000	 5.466639999981867e+000	 1.011048518226535e+001
0	 7.333299999983334e+000	 5.533309999982385e+000	 1.010875654979710e+001
0	 7.333299999983335e+000	 5.599979999983599e+000	 1.010699637190920e+001
0	 7.333299999983334e+000	 5.666649999985417e+000	 1.010520193130132e+001
0	 7.333299999983336e+000	 5.733319999987733e+000	 1.010337051067317e+001
0	 7.333299999983334e+000	 5.799989999990449e+000	 1.010149939272444e+001
0	 7.333299999983333e+000	 5.866659999993468e+000	 1.009958586015479e+001
0	 7.333299999983334e+000	 5.933329999996684e+000	 1.009762719566393e+001
0	 7.333299999983334e+000	 6.000000000000002e+000	 1.009562068195152e+001
0	 7.399969999982149e+000	 5.333299999983333e+000	 1.010908117859681e+001
0	 7.399969999982148e+000	 5.399969999982149e+000	 1.010752863012065e+001
0	 7.399969999982151e+000	 5.466639999981865e+000	 1.010594807007945e+001
0	 7.399969999982149e+000	 5.533309999982383e+000	 1.010433698715823e+001
0	 7.399969999982151e+000	 5.599979999983600e+000	 1.010269287004205e+001
0	 7.399969999982151e+000	 5.666649999985418e+000	 1.010101320741597e+001
0	 7.399969999982151e+000	 5.733319999987733e+000	 1.009929548796501e+001
0	 7.399969999982151e+000	 5.799989999990448e+000	 1.009753720037424e+001
0	 7.399969999982150e+000	 5.866659999993467e+000	 1.009573583332872e+001
0	 7.399969999982151e+000	 5.933329999996684e+000	 1.009388887551346e+001
0	 7.399969999982151e+000	 6.000000000000000e+000	 1.009199381561352e+001
0	 7.466639999981864e+000	 5.333299999983334e+000	 1.010431492057327e+001
0	 7.466639999981866e+000	 5.399969999982150e+000	 1.010288204922932e+001
0	 7.466639999981867e+000	 5.466639999981868e+000	 1.010141937969446e+001
0	 7.466639999981864e+000	 5.533309999982382e+000	 1.009992458867448e+001
0	 7.466639999981867e+000	 5.599979999983601e+000	 1.009839535287522e+001
0	 7.466639999981866e+000	 5.666649999985418e+000	 1.009682934900249e+001
0	 7.466639999981866e+000	 5.733319999987732e+000	 1.009522425376215e+001
0	 7.466639999981867e+000	 5.799989999990450e+000	 1.009357774386002e+001
0	 7.466639999981867e+000	 5.866659999993467e+000	 1.009188749600191e+001
0	 7.466639999981867e+000	 5.933329999996684e+000	 1.009015118689364e+001
0	 7.466639999981866e+000	 6.000000000000001e+000	 1.008836649324105e+001
0	 7.533309999982382e+000	 5.333299999983334e+000	 1.009956513354086e+001
0	 7.533309999982384e+000	 5.399969999982148e+000	 1.009825048807091e+001
0	 7.533309999982382e+000	 5.466639999981865e+000	 1.009690436921971e+001
0	 7.533309999982381e+000	 5.533309999982382e+000	 1.009552462374928e+001
0	 7.533309999982381e+000	 5.599979999983599e+000	 1.009410909842163e+001
0	 7.533309999982383e+000	 5.666649999985416e+000	 1.009265563999881e+001
0	 7.533309999982381e+000	 5.733319999987733e+000	 1.009116209524283e+001
0	 7.533309999982381e+000	 5.799989999990449e+000	 1.008962631091570e+001
0	 7.533309999982383e+000	 5.866659999993466e+000	 1.008804613377946e+001
0	 7.533309999982384e+000	 5.933329999996682e+000	 1.008641941059612e+001
0	 7.533309999982382e+000	 6.000000000000000e+000	 1.008474398812769e+001
0	 7.599979999983598e+000	 5.333299999983333e+000	 1.009483704496693e+001
0	 7.599979999983598e+000	 5.399969999982149e+000	 1.009363919077602e+001
0	 7.599979999983599e+000	 5.466639999981866e+000	 1.009240829676452e+001
0	 7.599979999983599e+000	 5.533309999982384e+000	 1.009114236178605e+001
0	 7.599979999983599e+000	 5.599979999983600e+000	 1.008983938469427e+001
0	 7.599979999983598e+000	 5.666649999985417e+000	 1.008849736434278e+001
0	 7.599979999983599e+000	 5.733319999987733e+000	 1.008711429958523e+001
0	 7.599979999983598e+000	 5.799989999990449e+000	 1.008568818927524e+001
0	 7.599979999983598e+000	 5.866659999993469e+000	 1.008421703226649e+001
0	 7.599979999983599e+000	 5.933329999996683e+000	 1.008269882741254e+001
0	 7.599979999983598e+000	 6.000000000000001e+000	 1.008113157356707e+001
0	 7.666649999985414e+000	 5.333299999983333e+000	 1.009013588231880e+001
0	 7.666649999985414e+000	 5.399969999982151e+000	 1.008905340147529e+001
0	 7.666649999985415e+000	 5.466639999981864e+000	 1.008793642043821e+001
0	 7.666649999985416e+000	 5.533309999982385e+000	 1.008678307218825e+001
0	 7.666649999985417e+000	 5.599979999983601e+000	 1.008559148970603e+001
0	 7.666649999985415e+000	 5.666649999985416e+000	 1.008435980597224e+001
0	 7.666649999985416e+000	 5.733319999987733e+000	 1.008308615396753e+001
0	 7.666649999985416e+000	 5.799989999990450e+000	 1.008176866667258e+001
0	 7.666649999985416e+000	 5.866659999993467e+000	 1.008040547706804e+001
0	 7.666649999985415e+000	 5.933329999996684e+000	 1.007899471813455e+001
0	 7.666649999985416e+000	 6.000000000000000e+000	 1.007753452285279e+001
0	 7.733319999987731e+000	 5.333299999983334e+000	 1.008546687306377e+001
0	 7.733319999987731e+000	 5.399969999982149e+000	 1.008449836429932e+001
0	 7.733319999987730e+000	 5.466639999981866e+000	 1.008349399835011e+001
0	 7.733319999987733e+000	 5.533309999982385e+000	 1.008245202435927e+001
0	 7.733319999987733e+000	 5.599979999983599e+000	 1.008137069146989e+001
0	 7.733319999987731e+000	 5.666649999985415e+000	 1.008024824882508e+001
0	 7.733319999987731e+000	 5.733319999987733e+000	 1.007908294556798e+001
0	 7.733319999987732e+000	 5.799989999990450e+000	 1.007787303084163e+001
0	 7.733319999987732e+000	 5.866659999993466e+000	 1.007661675378920e+001
0	 7.733319999987732e+000	 5.933329999996685e+000	 1.007531236355376e+001
0	 7.733319999987733e+000	 6.000000000000000e+000	 1.007395810927844e+001
0	 7.799989999990448e+000	 5.333299999983334e+000	 1.008083524466920e+001
0	 7.799989999990450e+000	 5.399969999982149e+000	 1.007997932337874e+001
0	 7.799989999990448e+000	 5.466639999981866e+000	 1.007908628860953e+001
0	 7.799989999990447e+000	 5.533309999982382e+000	 1.007815448770255e+001
0	 7.799989999990447e+000	 5.599979999983600e+000	 1.007718226799879e+001
0	 7.799989999990449e+000	 5.666649999985417e+000	 1.007616797683918e+001
0	 7.799989999990448e+000	 5.733319999987732e+000	 1.007510996156472e+001
0	 7.799989999990449e+000	 5.799989999990448e+000	 1.007400656951637e+001
0	 7.799989999990447e+000	 5.866659999993467e+000	 1.007285614803509e+001
0	 7.799989999990449e+000	 5.933329999996684e+000	 1.007165704446184e+001
0	 7.799989999990450e+000	 6.000000000000001e+000	 1.007040760613762e+001
0	 7.866659999993464e+000	 5.333299999983334e+000	 1.007624622460241e+001
0	 7.866659999993464e+000	 5.399969999982150e+000	 1.007550152284417e+001
0	 7.866659999993465e+000	 5.466639999981866e+000	 1.007471854932579e+001
0	 7.866659999993464e+000	 5.533309999982383e+000	 1.007389573162154e+001
0	 7.866659999993463e+000	 5.599979999983600e+000	 1.007303149730566e+001
0	 7.866659999993463e+000	 5.666649999985416e+000	 1.007212427395239e+001
0	 7.866659999993465e+000	 5.733319999987733e+000	 1.007117248913600e+001
0	 7.866659999993464e+000	 5.799989999990450e+000	 1.007017457043069e+001
0	 7.866659999993464e+000	 5.866659999993467e+000	 1.006912894541076e+001
0	 7.866659999993464e+000	 5.933329999996685e+000	 1.006803404165043e+001
0	 7.866659999993464e+000	 6.000000000000000e+000	 1.006688828672394e+001
0	 7.933329999996682e+000	 5.333299999983334e+000	 1.007170504033071e+001
0	 7.933329999996682e+000	 5.399969999982150e+000	 1.007107020682620e+001
0	 7.933329999996680e+000	 5.466639999981867e+000	 1.007039603860821e+001
0	 7.933329999996681e+000	 5.533309999982383e+000	 1.006968102551964e+001
0	 7.933329999996682e+000	 5.599979999983599e+000	 1.006892365740345e+001
0	 7.933329999996682e+000	 5.666649999985417e+000	 1.006812242410260e+001
0	 7.933329999996680e+000	 5.733319999987732e+000	 1.006727581545997e+001
0	 7.933329999996682e+000	 5.799989999990449e+000	 1.006638232131857e+001
0	 7.933329999996682e+000	 5.866659999993467e+000	 1.006544043152131e+001
0	 7.933329999996682e+000	 5.933329999996683e+000	 1.006444863591115e+001
0	 7.933329999996681e+000	 5.999999999999999e+000	 1.006340542433100e+001
0	 8.000000000000000e+000	 5.333299999983333e+000	 1.006721691932141e+001
0	 8.000000000000000e+000	 5.399969999982149e+000	 1.006669061945549e+001
0	 8.000000000000000e+000	 5.466639999981868e+000	 1.006612401456610e+001
0	 8.000000000000000e+000	 5.533309999982382e+000	 1.006551563880029e+001
0	 8.000000000000000e+000	 5.599979999983600e+000	 1.006486402630511e+001
0	 8.000000000000000e+000	 5.666649999985416e+000	 1.006416771122762e+001
0	 7.999999999999999e+000	 5.733319999987732e+000	 1.006342522771488e+001
0	 8.000000000000000e+000	 5.799989999990449e+000	 1.006263510991394e+001
0	 7.999999999999998e+000	 5.866659999993466e+000	 1.006179589197183e+001
0	 8.000000000000000e+000	 5.933329999996682e+000	 1.006090610803564e+001
0	 8.000000000000000e+000	 6.000000000000001e+000	 1.005996429225239e+001
0	 7.333299999983334e+000	 6.000000000000002e+000	 1.009562068195152e+001
0	 7.333299999983334e+000	 6.066670000003316e+000	 1.009358748676838e+001
0	 7.333299999983332e+000	 6.133340000006531e+000	 1.009154909025858e+001
0	 7.333299999983334e+000	 6.200010000009550e+000	 1.008950324371169e+001
0	 7.333299999983334e+000	 6.266680000012268e+000	 1.008744769841726e+001
0	 7.333299999983335e+000	 6.333350000014586e+000	 1.008538020566488e+001
0	 7.333299999983336e+000	 6.400020000016400e+000	 1.008329851674414e+001
0	 7.333299999983333e+000	 6.466690000017615e+000	 1.008120038294457e+001
0	 7.333299999983334e+000	 6.533360000018135e+000	 1.007908355555577e+001
0	 7.333299999983335e+000	 6.600030000017851e+000	 1.007694578586730e+001
0	 7.333299999983333e+000	 6.666700000016665e+000	 1.007478482516870e+001
0	 7.399969999982151e+000	 6.000000000000000e+000	 1.009199381561352e+001
0	 7.399969999982151e+000	 6.066670000003316e+000	 1.009007114092875e+001
0	 7.399969999982148e+000	 6.133340000006533e+000	 1.008814153661090e+001
0	 7.399969999982151e+000	 6.200010000009551e+000	 1.008620278812286e+001
0	 7.399969999982151e+000	 6.266680000012269e+000	 1.008425268092755e+001
0	 7.399969999982151e+000	 6.333350000014585e+000	 1.008228900048787e+001
0	 7.399969999982150e+000	 6.400020000016400e+000	 1.008030953226673e+001
0	 7.399969999982149e+000	 6.466690000017618e+000	 1.007831206172701e+001
0	 7.399969999982149e+000	 6.533360000018133e+000	 1.007629437433167e+001
0	 7.399969999982149e+000	 6.600030000017851e+000	 1.007425425554355e+001
0	 7.399969999982152e+000	 6.666700000016668e+000	 1.007218949082561e+001
0	 7.466639999981866e+000	 6.000000000000001e+000	 1.008836649324105e+001
0	 7.466639999981865e+000	 6.066670000003317e+000	 1.008655324758876e+001
0	 7.466639999981867e+000	 6.133340000006534e+000	 1.008473138149252e+001
0	 7.466639999981867e+000	 6.200010000009551e+000	 1.008289872017488e+001
0	 7.466639999981864e+000	 6.266680000012266e+000	 1.008105308885833e+001
0	 7.466639999981867e+000	 6.333350000014584e+000	 1.007919231276538e+001
0	 7.466639999981866e+000	 6.400020000016401e+000	 1.007731421711855e+001
0	 7.466639999981867e+000	 6.466690000017618e+000	 1.007541662714034e+001
0	 7.466639999981866e+000	 6.533360000018133e+000	 1.007349736805328e+001
0	 7.466639999981867e+000	 6.600030000017850e+000	 1.007155426507988e+001
0	 7.466639999981867e+000	 6.666700000016668e+000	 1.006958514344263e+001
0	 7.533309999982382e+000	 6.000000000000000e+000	 1.008474398812769e+001
0	 7.533309999982384e+000	 6.066670000003317e+000	 1.008303906794905e+001
0	 7.533309999982382e+000	 6.133340000006532e+000	 1.008132386750594e+001
0	 7.533309999982381e+000	 6.200010000009550e+000	 1.007959625736679e+001
0	 7.533309999982384e+000	 6.266680000012268e+000	 1.007785410810000e+001
0	 7.533309999982381e+000	 6.333350000014584e+000	 1.007609529027393e+001
0	 7.533309999982381e+000	 6.400020000016402e+000	 1.007431767445700e+001
0	 7.533309999982381e+000	 6.466690000017616e+000	 1.007251913121760e+001
0	 7.533309999982383e+000	 6.533360000018137e+000	 1.007069753112413e+001
0	 7.533309999982382e+000	 6.600030000017848e+000	 1.006885074474497e+001
0	 7.533309999982381e+000	 6.666700000016665e+000	 1.006697664264852e+001
0	 7.599979999983598e+000	 6.000000000000001e+000	 1.008113157356707e+001
0	 7.599979999983598e+000	 6.066670000003317e+000	 1.007953386321027e+001
0	 7.599979999983597e+000	 6.133340000006532e+000	 1.007792423725363e+001
0	 7.599979999983599e+000	 6.200010000009550e+000	 1.007630061719767e+001
0	 7.599979999983598e+000	 6.266680000012266e+000	 1.007466092454298e+001
0	 7.599979999983599e+000	 6.333350000014585e+000	 1.007300308079010e+001
0	 7.599979999983599e+000	 6.400020000016399e+000	 1.007132500743955e+001
0	 7.599979999983599e+000	 6.466690000017617e+000	 1.006962462599193e+001
0	 7.599979999983598e+000	 6.533360000018133e+000	 1.006789985794775e+001
0	 7.599979999983601e+000	 6.600030000017851e+000	 1.006614862480758e+001
0	 7.599979999983599e+000	 6.666700000016667e+000	 1.006436884807195e+001
0	 7.666649999985416e+000	 6.000000000000000e+000	 1.007753452285279e+001
0	 7.666649999985414e+000	 6.066670000003318e+000	 1.007604289457310e+001
0	 7.666649999985415e+000	 6.133340000006533e+000	 1.007453773333803e+001
0	 7.666649999985415e+000	 6.200010000009550e+000	 1.007301701716658e+001
0	 7.666649999985415e+000	 6.266680000012267e+000	 1.007147872407771e+001
0	 7.666649999985416e+000	 6.333350000014584e+000	 1.006992083209040e+001
0	 7.666649999985417e+000	 6.400020000016401e+000	 1.006834131922364e+001
0	 7.666649999985417e+000	 6.466690000017619e+000	 1.006673816349642e+001
0	 7.666649999985417e+000	 6.533360000018135e+000	 1.006510934292768e+001
0	 7.666649999985414e+000	 6.600030000017851e+000	 1.006345283553643e+001
0	 7.666649999985416e+000	 6.666700000016666e+000	 1.006176661934166e+001
0	 7.733319999987733e+000	 6.000000000000000e+000	 1.007395810927844e+001
0	 7.733319999987733e+000	 6.066670000003317e+000	 1.007257142323817e+001
0	 7.733319999987733e+000	 6.133340000006533e+000	 1.007116959836165e+001
0	 7.733319999987732e+000	 6.200010000009552e+000	 1.006975067477256e+001
0	 7.733319999987732e+000	 6.266680000012268e+000	 1.006831269259459e+001
0	 7.733319999987732e+000	 6.333350000014586e+000	 1.006685369195140e+001
0	 7.733319999987733e+000	 6.400020000016401e+000	 1.006537171296670e+001
0	 7.733319999987733e+000	 6.466690000017619e+000	 1.006386479576416e+001
0	 7.733319999987731e+000	 6.533360000018133e+000	 1.006233098046747e+001
0	 7.733319999987731e+000	 6.600030000017849e+000	 1.006076830720029e+001
0	 7.733319999987732e+000	 6.666700000016666e+000	 1.005917481608631e+001
0	 7.799989999990450e+000	 6.000000000000001e+000	 1.007040760613762e+001
0	 7.799989999990448e+000	 6.066670000003319e+000	 1.006912471040614e+001
0	 7.799989999990447e+000	 6.133340000006533e+000	 1.006782507492693e+001
0	 7.799989999990450e+000	 6.200010000009552e+000	 1.006650680751468e+001
0	 7.799989999990449e+000	 6.266680000012268e+000	 1.006516801598402e+001
0	 7.799989999990449e+000	 6.333350000014584e+000	 1.006380680814964e+001
0	 7.799989999990448e+000	 6.400020000016402e+000	 1.006242129182616e+001
0	 7.799989999990448e+000	 6.466690000017616e+000	 1.006100957482828e+001
0	 7.799989999990449e+000	 6.533360000018136e+000	 1.005956976497061e+001
0	 7.799989999990449e+000	 6.600030000017850e+000	 1.005809997006785e+001
0	 7.799989999990447e+000	 6.666700000016665e+000	 1.005659829793465e+001
0	 7.866659999993464e+000	 6.000000000000000e+000	 1.006688828672394e+001
0	 7.866659999993465e+000	 6.066670000003317e+000	 1.006570801727765e+001
0	 7.866659999993463e+000	 6.133340000006531e+000	 1.006450940563637e+001
0	 7.866659999993464e+000	 6.200010000009551e+000	 1.006329063289199e+001
0	 7.866659999993466e+000	 6.266680000012268e+000	 1.006204988013645e+001
0	 7.866659999993464e+000	 6.333350000014584e+000	 1.006078532846163e+001
0	 7.866659999993464e+000	 6.400020000016402e+000	 1.005949515895946e+001
0	 7.866659999993465e+000	 6.466690000017617e+000	 1.005817755272183e+001
0	 7.866659999993464e+000	 6.533360000018133e+000	 1.005683069084067e+001
0	 7.866659999993463e+000	 6.600030000017848e+000	 1.005545275440789e+001
0	 7.866659999993463e+000	 6.666700000016666e+000	 1.005404192451536e+001
0	 7.933329999996681e+000	 5.999999999999999e+000	 1.006340542433100e+001
0	 7.933329999996682e+000	 6.066670000003318e+000	 1.006232660505336e+001
0	 7.933329999996681e+000	 6.133340000006533e+000	 1.006122783309241e+001
0	 7.933329999996682e+000	 6.200010000009551e+000	 1.006010736840357e+001
0	 7.933329999996681e+000	 6.266680000012267e+000	 1.005896347094227e+001
0	 7.933329999996682e+000	 6.333350000014584e+000	 1.005779440066396e+001
0	 7.933329999996681e+000	 6.400020000016401e+000	 1.005659841752405e+001
0	 7.933329999996681e+000	 6.466690000017616e+000	 1.005537378147799e+001
0	 7.933329999996681e+000	 6.533360000018135e+000	 1.005411875248119e+001
0	 7.933329999996682e+000	 6.600030000017850e+000	 1.005283159048911e+001
0	 7.933329999996682e+000	 6.666700000016667e+000	 1.005151055545717e+001
0	 8.000000000000000e+000	 6.000000000000001e+000	 1.005996429225239e+001
0	 8.000000000000002e+000	 6.066670000003317e+000	 1.005898573493392e+001
0	 7.999999999999999e+000	 6.133340000006534e+000	 1.005798559989753e+001
0	 7.999999999999999e+000	 6.200010000009551e+000	 1.005696223154846e+001
0	 7.999999999999997e+000	 6.266680000012266e+000	 1.005591397429190e+001
0	 7.999999999999999e+000	 6.333350000014583e+000	 1.005483917253312e+001
0	 8.000000000000000e+000	 6.400020000016401e+000	 1.005373617067734e+001
0	 8.000000000000000e+000	 6.466690000017617e+000	 1.005260331312978e+001
0	 8.000000000000000e+000	 6.533360000018136e+000	 1.005143894429568e+001
0	 7.999999999999998e+000	 6.600030000017848e+000	 1.005024140858027e+001
0	 8.000000000000000e+000	 6.666700000016668e+000	 1.004900905038878e+001
0	 7.333299999983333e+000	 6.666700000016665e+000	 1.007478482516871e+001
0	 7.333299999983335e+000	 6.733360000014533e+000	 1.007261927317746e+001
0	 7.333299999983334e+000	 6.800020000011600e+000	 1.007046709662977e+001
0	 7.333299999983332e+000	 6.866680000008064e+000	 1.006832607528212e+001
0	 7.333299999983334e+000	 6.933340000004134e+000	 1.006619398889101e+001
0	 7.333299999983332e+000	 6.999999999999998e+000	 1.006406861721292e+001
0	 7.333299999983334e+000	 7.066659999995866e+000	 1.006194774000435e+001
0	 7.333299999983333e+000	 7.133319999991934e+000	 1.005982913702177e+001
0	 7.333299999983334e+000	 7.199979999988401e+000	 1.005771058802165e+001
0	 7.333299999983335e+000	 7.266639999985467e+000	 1.005558987276051e+001
0	 7.333299999983336e+000	 7.333299999983336e+000	 1.005346477099481e+001
0	 7.399969999982152e+000	 6.666700000016668e+000	 1.007218949082561e+001
0	 7.399969999982149e+000	 6.733360000014531e+000	 1.007011839167699e+001
0	 7.399969999982147e+000	 6.800020000011596e+000	 1.006805868779708e+001
0	 7.399969999982151e+000	 6.866680000008066e+000	 1.006600822692397e+001
0	 7.399969999982150e+000	 6.933340000004133e+000	 1.006396485679580e+001
0	 7.399969999982149e+000	 6.999999999999999e+000	 1.006192642515065e+001
0	 7.399969999982151e+000	 7.066659999995867e+000	 1.005989077972661e+001
0	 7.399969999982149e+000	 7.133319999991933e+000	 1.005785576826181e+001
0	 7.399969999982150e+000	 7.199979999988400e+000	 1.005581923849434e+001
0	 7.399969999982149e+000	 7.266639999985467e+000	 1.005377903816230e+001
0	 7.399969999982149e+000	 7.333299999983334e+000	 1.005173301500379e+001
0	 7.466639999981867e+000	 6.666700000016668e+000	 1.006958514344263e+001
0	 7.466639999981863e+000	 6.733360000014532e+000	 1.006760802554033e+001
0	 7.466639999981866e+000	 6.800020000011599e+000	 1.006564039832714e+001
0	 7.466639999981866e+000	 6.866680000008068e+000	 1.006368017609912e+001
0	 7.466639999981868e+000	 6.933340000004134e+000	 1.006172527315245e+001
0	 7.466639999981863e+000	 6.999999999999998e+000	 1.005977360378321e+001
0	 7.466639999981865e+000	 7.066659999995866e+000	 1.005782308228755e+001
0	 7.466639999981865e+000	 7.133319999991935e+000	 1.005587162296156e+001
0	 7.466639999981868e+000	 7.199979999988401e+000	 1.005391714010138e+001
0	 7.466639999981866e+000	 7.266639999985468e+000	 1.005195754800312e+001
0	 7.466639999981864e+000	 7.333299999983332e+000	 1.004999076096292e+001
0	 7.533309999982381e+000	 6.666700000016665e+000	 1.006697664264852e+001
0	 7.533309999982382e+000	 6.733360000014530e+000	 1.006509295687740e+001
0	 7.533309999982383e+000	 6.800020000011599e+000	 1.006321692553639e+001
0	 7.533309999982383e+000	 6.866680000008068e+000	 1.006134652805602e+001
0	 7.533309999982382e+000	 6.933340000004133e+000	 1.005947974386683e+001
0	 7.533309999982384e+000	 7.000000000000001e+000	 1.005761455239937e+001
0	 7.533309999982381e+000	 7.066659999995867e+000	 1.005574893308415e+001
0	 7.533309999982384e+000	 7.133319999991936e+000	 1.005388086535174e+001
0	 7.533309999982383e+000	 7.199979999988400e+000	 1.005200832863265e+001
0	 7.533309999982384e+000	 7.266639999985466e+000	 1.005012930235742e+001
0	 7.533309999982382e+000	 7.333299999983334e+000	 1.004824176595661e+001
0	 7.599979999983599e+000	 6.666700000016667e+000	 1.006436884807195e+001
0	 7.599979999983599e+000	 6.733360000014532e+000	 1.006257796779802e+001
0	 7.599979999983599e+000	 6.800020000011599e+000	 1.006079296674128e+001
0	 7.599979999983598e+000	 6.866680000008066e+000	 1.005901188804311e+001
0	 7.599979999983598e+000	 6.933340000004133e+000	 1.005723277484483e+001
0	 7.599979999983597e+000	 6.999999999999998e+000	 1.005545367028782e+001
0	 7.599979999983598e+000	 7.066659999995864e+000	 1.005367261751345e+001
0	 7.599979999983599e+000	 7.133319999991936e+000	 1.005188765966304e+001
0	 7.599979999983599e+000	 7.199979999988399e+000	 1.005009683987798e+001
0	 7.599979999983599e+000	 7.266639999985468e+000	 1.004829820129961e+001
0	 7.599979999983598e+000	 7.333299999983333e+000	 1.004648978706929e+001
0	 7.666649999985416e+000	 6.666700000016666e+000	 1.006176661934166e+001
0	 7.666649999985415e+000	 6.733360000014532e+000	 1.006006784041206e+001
0	 7.666649999985415e+000	 6.800020000011600e+000	 1.005837321925825e+001
0	 7.666649999985414e+000	 6.866680000008066e+000	 1.005668086130881e+001
0	 7.666649999985412e+000	 6.933340000004129e+000	 1.005498887199231e+001
0	 7.666649999985414e+000	 6.999999999999999e+000	 1.005329535673733e+001
0	 7.666649999985414e+000	 7.066659999995866e+000	 1.005159842097244e+001
0	 7.666649999985417e+000	 7.133319999991936e+000	 1.004989617012623e+001
0	 7.666649999985416e+000	 7.199979999988400e+000	 1.004818670962725e+001
0	 7.666649999985416e+000	 7.266639999985468e+000	 1.004646814490410e+001
0	 7.666649999985414e+000	 7.333299999983332e+000	 1.004473858138534e+001
0	 7.733319999987732e+000	 6.666700000016666e+000	 1.005917481608631e+001
0	 7.733319999987732e+000	 6.733360000014532e+000	 1.005756735682935e+001
0	 7.733319999987731e+000	 6.800020000011599e+000	 1.005596238040371e+001
0	 7.733319999987731e+000	 6.866680000008067e+000	 1.005435805310157e+001
0	 7.733319999987733e+000	 6.933340000004134e+000	 1.005275254121513e+001
0	 7.733319999987732e+000	 7.000000000000000e+000	 1.005114401103659e+001
0	 7.733319999987733e+000	 7.066659999995867e+000	 1.004953062885814e+001
0	 7.733319999987730e+000	 7.133319999991934e+000	 1.004791056097198e+001
0	 7.733319999987730e+000	 7.199979999988400e+000	 1.004628197367030e+001
0	 7.733319999987732e+000	 7.266639999985467e+000	 1.004464303324530e+001
0	 7.733319999987732e+000	 7.333299999983334e+000	 1.004299190598919e+001
0	 7.799989999990447e+000	 6.666700000016665e+000	 1.005659829793465e+001
0	 7.799989999990448e+000	 6.733360000014533e+000	 1.005508129915979e+001
0	 7.799989999990447e+000	 6.800020000011601e+000	 1.005356514749411e+001
0	 7.799989999990448e+000	 6.866680000008068e+000	 1.005204806866985e+001
0	 7.799989999990447e+000	 6.933340000004134e+000	 1.005052828841918e+001
0	 7.799989999990448e+000	 7.000000000000000e+000	 1.004900403247435e+001
0	 7.799989999990447e+000	 7.066659999995868e+000	 1.004747352656756e+001
0	 7.799989999990448e+000	 7.133319999991935e+000	 1.004593499643103e+001
0	 7.799989999990447e+000	 7.199979999988400e+000	 1.004438666779700e+001
0	 7.799989999990449e+000	 7.266639999985467e+000	 1.004282676639765e+001
0	 7.799989999990448e+000	 7.333299999983335e+000	 1.004125351796521e+001
0	 7.866659999993463e+000	 6.666700000016666e+000	 1.005404192451536e+001
0	 7.866659999993466e+000	 6.733360000014533e+000	 1.005261444951322e+001
0	 7.866659999993466e+000	 6.800020000011601e+000	 1.005118621784590e+001
0	 7.866659999993463e+000	 6.866680000008066e+000	 1.004975551326206e+001
0	 7.866659999993465e+000	 6.933340000004134e+000	 1.004832061951032e+001
0	 7.866659999993464e+000	 6.999999999999999e+000	 1.004687982033933e+001
0	 7.866659999993464e+000	 7.066659999995867e+000	 1.004543139949772e+001
0	 7.866659999993463e+000	 7.133319999991933e+000	 1.004397364073413e+001
0	 7.866659999993464e+000	 7.199979999988400e+000	 1.004250482779719e+001
0	 7.866659999993463e+000	 7.266639999985466e+000	 1.004102324443556e+001
0	 7.866659999993464e+000	 7.333299999983334e+000	 1.003952717439785e+001
0	 7.933329999996682e+000	 6.666700000016667e+000	 1.005151055545717e+001
0	 7.933329999996681e+000	 6.733360000014533e+000	 1.005017158999950e+001
0	 7.933329999996680e+000	 6.800020000011600e+000	 1.004883028877551e+001
0	 7.933329999996682e+000	 6.866680000008068e+000	 1.004748499212667e+001
0	 7.933329999996681e+000	 6.933340000004133e+000	 1.004613404039443e+001
0	 7.933329999996682e+000	 7.000000000000000e+000	 1.004477577392026e+001
0	 7.933329999996681e+000	 7.066659999995865e+000	 1.004340853304561e+001
0	 7.933329999996682e+000	 7.133319999991935e+000	 1.004203065811195e+001
0	 7.933329999996681e+000	 7.199979999988401e+000	 1.004064048946074e+001
0	 7.933329999996681e+000	 7.266639999985467e+000	 1.003923636743344e+001
0	 7.933329999996682e+000	 7.333299999983334e+000	 1.003781663237149e+001
0	 8.000000000000000e+000	 6.666700000016668e+000	 1.004900905038878e+001
0	 7.999999999999999e+000	 6.733360000014532e+000	 1.004775750272849e+001
0	 8.000000000000000e+000	 6.800020000011601e+000	 1.004650205759936e+001
0	 7.999999999999999e+000	 6.866680000008068e+000	 1.004524111051210e+001
0	 8.000000000000000e+000	 6.933340000004133e+000	 1.004397305697737e+001
0	 8.000000000000000e+000	 7.000000000000000e+000	 1.004269629250586e+001
0	 7.999999999999999e+000	 7.066659999995867e+000	 1.004140921260826e+001
0	 8.000000000000000e+000	 7.133319999991934e+000	 1.004011021279525e+001
0	 8.000000000000000e+000	 7.199979999988400e+000	 1.003879768857750e+001
0	 8.000000000000000e+000	 7.266639999985467e+000	 1.003747003546570e+001
0	 8.000000000000000e+000	 7.333299999983335e+000	 1.003612564897055e+001
0	 7.333299999983336e+000	 7.333299999983336e+000	 1.005346477099481e+001
0	 7.333299999983333e+000	 7.399969999982150e+000	 1.005135259578648e+001
0	 7.333299999983334e+000	 7.466639999981866e+000	 1.004927128911870e+001
0	 7.333299999983335e+000	 7.533309999982384e+000	 1.004721861641829e+001
0	 7.333299999983334e+000	 7.599979999983599e+000	 1.004519234311209e+001
0	 7.333299999983335e+000	 7.666649999985417e+000	 1.004319023462694e+001
0	 7.333299999983335e+000	 7.733319999987733e+000	 1.004121005638965e+001
0	 7.333299999983334e+000	 7.799989999990448e+000	 1.003924957382707e+001
0	 7.333299999983332e+000	 7.866659999993465e+000	 1.003730655236601e+001
0	 7.333299999983333e+000	 7.933329999996682e+000	 1.003537875743332e+001
0	 7.333299999983335e+000	 8.000000000000000e+000	 1.003346395445581e+001
0	 7.399969999982149e+000	 7.333299999983334e+000	 1.005173301500379e+001
0	 7.399969999982149e+000	 7.399969999982149e+000	 1.004969833690268e+001
0	 7.399969999982149e+000	 7.466639999981866e+000	 1.004769275755252e+001
0	 7.399969999982149e+000	 7.533309999982385e+000	 1.004571408097033e+001
0	 7.399969999982151e+000	 7.599979999983598e+000	 1.004376011117306e+001
0	 7.399969999982151e+000	 7.666649999985417e+000	 1.004182865217773e+001
0	 7.399969999982150e+000	 7.733319999987732e+000	 1.003991750800129e+001
0	 7.399969999982150e+000	 7.799989999990451e+000	 1.003802448266076e+001
0	 7.399969999982150e+000	 7.866659999993467e+000	 1.003614738017312e+001
0	 7.399969999982151e+000	 7.933329999996683e+000	 1.003428400455535e+001
0	 7.399969999982150e+000	 8.000000000000000e+000	 1.003243215982445e+001
0	 7.466639999981864e+000	 7.333299999983332e+000	 1.004999076096292e+001
0	 7.466639999981866e+000	 7.399969999982149e+000	 1.004803376206408e+001
0	 7.466639999981866e+000	 7.466639999981866e+000	 1.004610407958510e+001
0	 7.466639999981864e+000	 7.533309999982383e+000	 1.004419955854023e+001
0	 7.466639999981866e+000	 7.599979999983601e+000	 1.004231804394372e+001
0	 7.466639999981867e+000	 7.666649999985418e+000	 1.004045738080983e+001
0	 7.466639999981866e+000	 7.733319999987733e+000	 1.003861541415280e+001
0	 7.466639999981867e+000	 7.799989999990451e+000	 1.003678998898690e+001
0	 7.466639999981867e+000	 7.866659999993466e+000	 1.003497895032636e+001
0	 7.466639999981868e+000	 7.933329999996684e+000	 1.003318014318545e+001
0	 7.466639999981866e+000	 8.000000000000000e+000	 1.003139141257843e+001
0	 7.533309999982382e+000	 7.333299999983334e+000	 1.004824176595661e+001
0	 7.533309999982382e+000	 7.399969999982148e+000	 1.004636248462362e+001
0	 7.533309999982383e+000	 7.466639999981866e+000	 1.004450873067349e+001
0	 7.533309999982382e+000	 7.533309999982384e+000	 1.004267839252490e+001
0	 7.533309999982381e+000	 7.599979999983600e+000	 1.004086935859645e+001
0	 7.533309999982382e+000	 7.666649999985416e+000	 1.003907951730674e+001
0	 7.533309999982383e+000	 7.733319999987733e+000	 1.003730675707442e+001
0	 7.533309999982382e+000	 7.799989999990448e+000	 1.003554896631813e+001
0	 7.533309999982383e+000	 7.866659999993468e+000	 1.003380403345646e+001
0	 7.533309999982383e+000	 7.933329999996684e+000	 1.003206984690805e+001
0	 7.533309999982381e+000	 8.000000000000000e+000	 1.003034429509154e+001
0	 7.599979999983598e+000	 7.333299999983333e+000	 1.004648978706929e+001
0	 7.599979999983599e+000	 7.399969999982149e+000	 1.004468811793422e+001
0	 7.599979999983599e+000	 7.466639999981867e+000	 1.004291018627485e+001
0	 7.599979999983599e+000	 7.533309999982382e+000	 1.004115392632129e+001
0	 7.599979999983599e+000	 7.599979999983599e+000	 1.003941727230364e+001
0	 7.599979999983598e+000	 7.666649999985414e+000	 1.003769815845200e+001
0	 7.599979999983599e+000	 7.733319999987732e+000	 1.003599451899646e+001
0	 7.599979999983597e+000	 7.799989999990448e+000	 1.003430428816715e+001
0	 7.599979999983597e+000	 7.866659999993466e+000	 1.003262540019416e+001
0	 7.599979999983599e+000	 7.933329999996683e+000	 1.003095578930759e+001
0	 7.599979999983599e+000	 8.000000000000002e+000	 1.002929338973755e+001
0	 7.666649999985414e+000	 7.333299999983332e+000	 1.004473858138534e+001
0	 7.666649999985414e+000	 7.399969999982150e+000	 1.004301427534885e+001
0	 7.666649999985416e+000	 7.466639999981868e+000	 1.004131192184628e+001
0	 7.666649999985416e+000	 7.533309999982385e+000	 1.003962950332634e+001
0	 7.666649999985416e+000	 7.599979999983599e+000	 1.003796500223772e+001
0	 7.666649999985414e+000	 7.666649999985416e+000	 1.003631640102911e+001
0	 7.666649999985415e+000	 7.733319999987731e+000	 1.003468168214920e+001
0	 7.666649999985415e+000	 7.799989999990449e+000	 1.003305882804667e+001
0	 7.666649999985415e+000	 7.866659999993464e+000	 1.003144582117021e+001
0	 7.666649999985415e+000	 7.933329999996682e+000	 1.002984064396853e+001
0	 7.666649999985416e+000	 8.000000000000000e+000	 1.002824127889029e+001
0	 7.733319999987732e+000	 7.333299999983334e+000	 1.004299190598919e+001
0	 7.733319999987732e+000	 7.399969999982149e+000	 1.004134457022040e+001
0	 7.733319999987731e+000	 7.466639999981865e+000	 1.003971741284488e+001
0	 7.733319999987733e+000	 7.533309999982383e+000	 1.003810846693698e+001
0	 7.733319999987733e+000	 7.599979999983600e+000	 1.003651576557108e+001
0	 7.733319999987731e+000	 7.666649999985416e+000	 1.003493734182160e+001
0	 7.733319999987733e+000	 7.733319999987733e+000	 1.003337122876289e+001
0	 7.733319999987732e+000	 7.799989999990451e+000	 1.003181545946935e+001
0	 7.733319999987731e+000	 7.866659999993465e+000	 1.003026806701535e+001
0	 7.733319999987732e+000	 7.933329999996683e+000	 1.002872708447528e+001
0	 7.733319999987733e+000	 8.000000000000000e+000	 1.002719054492352e+001
0	 7.799989999990448e+000	 7.333299999983335e+000	 1.004125351796520e+001
0	 7.799989999990448e+000	 7.399969999982151e+000	 1.003968261590183e+001
0	 7.799989999990449e+000	 7.466639999981866e+000	 1.003813013472774e+001
0	 7.799989999990447e+000	 7.533309999982383e+000	 1.003659416055011e+001
0	 7.799989999990448e+000	 7.599979999983599e+000	 1.003507277947613e+001
0	 7.799989999990450e+000	 7.666649999985416e+000	 1.003356407761298e+001
0	 7.799989999990449e+000	 7.733319999987733e+000	 1.003206614106782e+001
0	 7.799989999990450e+000	 7.799989999990451e+000	 1.003057705594787e+001
0	 7.799989999990447e+000	 7.866659999993467e+000	 1.002909490836031e+001
0	 7.799989999990449e+000	 7.933329999996683e+000	 1.002761778441231e+001
0	 7.799989999990449e+000	 8.000000000000000e+000	 1.002614377021106e+001
0	 7.866659999993464e+000	 7.333299999983334e+000	 1.003952717439785e+001
0	 7.866659999993463e+000	 7.399969999982149e+000	 1.003803202574609e+001
0	 7.866659999993464e+000	 7.466639999981867e+000	 1.003655356295201e+001
0	 7.866659999993465e+000	 7.533309999982383e+000	 1.003508992756269e+001
0	 7.866659999993463e+000	 7.599979999983600e+000	 1.003363926112524e+001
0	 7.866659999993464e+000	 7.666649999985419e+000	 1.003219970518673e+001
0	 7.866659999993466e+000	 7.733319999987733e+000	 1.003076940129427e+001
0	 7.866659999993465e+000	 7.799989999990449e+000	 1.002934649099495e+001
0	 7.866659999993465e+000	 7.866659999993468e+000	 1.002792911583584e+001
0	 7.866659999993465e+000	 7.933329999996684e+000	 1.002651541736403e+001
0	 7.866659999993464e+000	 8.000000000000000e+000	 1.002510353712666e+001
0	 7.933329999996682e+000	 7.333299999983334e+000	 1.003781663237149e+001
0	 7.933329999996682e+000	 7.399969999982150e+000	 1.003639641310608e+001
0	 7.933329999996682e+000	 7.466639999981866e+000	 1.003499117297477e+001
0	 7.933329999996681e+000	 7.533309999982383e+000	 1.003359911137166e+001
0	 7.933329999996681e+000	 7.599979999983600e+000	 1.003221842769084e+001
0	 7.933329999996682e+000	 7.666649999985416e+000	 1.003084732132643e+001
0	 7.933329999996682e+000	 7.733319999987733e+000	 1.002948399167252e+001
0	 7.933329999996682e+000	 7.799989999990450e+000	 1.002812663812325e+001
0	 7.933329999996681e+000	 7.866659999993467e+000	 1.002677346007267e+001
0	 7.933329999996682e+000	 7.933329999996685e+000	 1.002542265691493e+001
0	 7.933329999996680e+000	 8.000000000000000e+000	 1.002407242804411e+001
0	 8.000000000000000e+000	 7.333299999983335e+000	 1.003612564897055e+001
0	 8.000000000000000e+000	 7.399969999982151e+000	 1.003477939133476e+001
0	 8.000000000000000e+000	 7.466639999981867e+000	 1.003344644025315e+001
0	 8.000000000000000e+000	 7.533309999982385e+000	 1.003212505537393e+001
0	 8.000000000000000e+000	 7.599979999983599e+000	 1.003081349634531e+001
0	 7.999999999999999e+000	 7.666649999985416e+000	 1.002951002281555e+001
0	 7.999999999999999e+000	 7.733319999987732e+000	 1.002821289443284e+001
0	 7.999999999999999e+000	 7.799989999990448e+000	 1.002692037084544e+001
0	 7.999999999999998e+000	 7.866659999993465e+000	 1.002563071170154e+001
0	 8.000000000000000e+000	 7.933329999996684e+000	 1.002434217664939e+001
0	 7.999999999999999e+000	 7.999999999999999e+000	 1.002305302533723e+001
0	 7.333299999983335e+000	 8.000000000000000e+000	 1.003346395445581e+001
0	 7.333299999983335e+000	 8.066670000003317e+000	 1.003158027940385e+001
0	 7.333299999983332e+000	 8.133340000006532e+000	 1.002974562043744e+001
0	 7.333299999983334e+000	 8.200010000009550e+000	 1.002795737126800e+001
0	 7.333299999983334e+000	 8.266680000012268e+000	 1.002621292560688e+001
0	 7.333299999983335e+000	 8.333350000014585e+000	 1.002450967716548e+001
0	 7.333299999983333e+000	 8.400020000016399e+000	 1.002284501965516e+001
0	 7.333299999983334e+000	 8.466690000017620e+000	 1.002121634678734e+001
0	 7.333299999983332e+000	 8.533360000018135e+000	 1.001962105227337e+001
0	 7.333299999983335e+000	 8.600030000017853e+000	 1.001805652982465e+001
0	 7.333299999983334e+000	 8.666700000016665e+000	 1.001652017315256e+001
0	 7.399969999982150e+000	 8.000000000000000e+000	 1.003243215982445e+001
0	 7.399969999982151e+000	 8.066670000003315e+000	 1.003060976380390e+001
0	 7.399969999982150e+000	 8.133340000006532e+000	 1.002883450302696e+001
0	 7.399969999982151e+000	 8.200010000009549e+000	 1.002710383457525e+001
0	 7.399969999982152e+000	 8.266680000012268e+000	 1.002541521553045e+001
0	 7.399969999982150e+000	 8.333350000014583e+000	 1.002376610297419e+001
0	 7.399969999982150e+000	 8.400020000016399e+000	 1.002215395398813e+001
0	 7.399969999982149e+000	 8.466690000017612e+000	 1.002057622565391e+001
0	 7.399969999982150e+000	 8.533360000018133e+000	 1.001903037505319e+001
0	 7.399969999982149e+000	 8.600030000017851e+000	 1.001751385926762e+001
0	 7.399969999982150e+000	 8.666700000016668e+000	 1.001602413537882e+001
0	 7.466639999981866e+000	 8.000000000000000e+000	 1.003139141257843e+001
0	 7.466639999981865e+000	 8.066670000003317e+000	 1.002963046497393e+001
0	 7.466639999981867e+000	 8.133340000006532e+000	 1.002791479061555e+001
0	 7.466639999981867e+000	 8.200010000009552e+000	 1.002624191017997e+001
0	 7.466639999981864e+000	 8.266680000012267e+000	 1.002460934434389e+001
0	 7.466639999981866e+000	 8.333350000014583e+000	 1.002301461378397e+001
0	 7.466639999981867e+000	 8.400020000016401e+000	 1.002145523917691e+001
0	 7.466639999981865e+000	 8.466690000017618e+000	 1.001992874119941e+001
0	 7.466639999981866e+000	 8.533360000018135e+000	 1.001843264052813e+001
0	 7.466639999981865e+000	 8.600030000017849e+000	 1.001696445783976e+001
0	 7.466639999981866e+000	 8.666700000016668e+000	 1.001552171381100e+001
0	 7.533309999982381e+000	 8.000000000000000e+000	 1.003034429509154e+001
0	 7.533309999982383e+000	 8.066670000003311e+000	 1.002864487735560e+001
0	 7.533309999982381e+000	 8.133340000006529e+000	 1.002698889043418e+001
0	 7.533309999982382e+000	 8.200010000009550e+000	 1.002537391882376e+001
0	 7.533309999982383e+000	 8.266680000012267e+000	 1.002379754702085e+001
0	 7.533309999982383e+000	 8.333350000014583e+000	 1.002225735952191e+001
0	 7.533309999982381e+000	 8.400020000016401e+000	 1.002075094082348e+001
0	 7.533309999982381e+000	 8.466690000017614e+000	 1.001927587542201e+001
0	 7.533309999982384e+000	 8.533360000018137e+000	 1.001782974781401e+001
0	 7.533309999982381e+000	 8.600030000017851e+000	 1.001641014249597e+001
0	 7.533309999982382e+000	 8.666700000016668e+000	 1.001501464396440e+001
0	 7.599979999983599e+000	 8.000000000000002e+000	 1.002929338973755e+001
0	 7.599979999983598e+000	 8.066670000003315e+000	 1.002765549539056e+001
0	 7.599979999983598e+000	 8.133340000006532e+000	 1.002605920971375e+001
0	 7.599979999983599e+000	 8.200010000009552e+000	 1.002450218124820e+001
0	 7.599979999983597e+000	 8.266680000012265e+000	 1.002298205853496e+001
0	 7.599979999983600e+000	 8.333350000014585e+000	 1.002149649011513e+001
0	 7.599979999983599e+000	 8.400020000016401e+000	 1.002004312452976e+001
0	 7.599979999983598e+000	 8.466690000017614e+000	 1.001861961031992e+001
0	 7.599979999983598e+000	 8.533360000018133e+000	 1.001722359602669e+001
0	 7.599979999983599e+000	 8.600030000017849e+000	 1.001585273019112e+001
0	 7.599979999983598e+000	 8.666700000016666e+000	 1.001450466135433e+001
0	 7.666649999985416e+000	 8.000000000000000e+000	 1.002824127889029e+001
0	 7.666649999985414e+000	 8.066670000003315e+000	 1.002666481352049e+001
0	 7.666649999985416e+000	 8.133340000006538e+000	 1.002512815568520e+001
0	 7.666649999985417e+000	 8.200010000009550e+000	 1.002362901819487e+001
0	 7.666649999985415e+000	 8.266680000012270e+000	 1.002216511385990e+001
0	 7.666649999985416e+000	 8.333350000014583e+000	 1.002073415549070e+001
0	 7.666649999985417e+000	 8.400020000016403e+000	 1.001933385589771e+001
0	 7.666649999985417e+000	 8.466690000017618e+000	 1.001796192789132e+001
0	 7.666649999985415e+000	 8.533360000018135e+000	 1.001661608428199e+001
0	 7.666649999985415e+000	 8.600030000017851e+000	 1.001529403788010e+001
0	 7.666649999985416e+000	 8.666700000016666e+000	 1.001399350149610e+001
0	 7.733319999987733e+000	 8.000000000000000e+000	 1.002719054492352e+001
0	 7.733319999987732e+000	 8.066670000003317e+000	 1.002567532618701e+001
0	 7.733319999987733e+000	 8.133340000006534e+000	 1.002419813557944e+001
0	 7.733319999987732e+000	 8.200010000009552e+000	 1.002275675040535e+001
0	 7.733319999987731e+000	 8.266680000012267e+000	 1.002134894796927e+001
0	 7.733319999987732e+000	 8.333350000014585e+000	 1.001997250557573e+001
0	 7.733319999987732e+000	 8.400020000016399e+000	 1.001862520052927e+001
0	 7.733319999987732e+000	 8.466690000017616e+000	 1.001730481013443e+001
0	 7.733319999987731e+000	 8.533360000018131e+000	 1.001600911169575e+001
0	 7.733319999987731e+000	 8.600030000017851e+000	 1.001473588251774e+001
0	 7.733319999987731e+000	 8.666700000016666e+000	 1.001348289990500e+001
0	 7.799989999990449e+000	 8.000000000000000e+000	 1.002614377021106e+001
0	 7.799989999990448e+000	 8.066670000003317e+000	 1.002468952783182e+001
0	 7.799989999990447e+000	 8.133340000006534e+000	 1.002327155662742e+001
0	 7.799989999990449e+000	 8.200010000009554e+000	 1.002188769862124e+001
0	 7.799989999990448e+000	 8.266680000012267e+000	 1.002053579583674e+001
0	 7.799989999990448e+000	 8.333350000014583e+000	 1.001921369029731e+001
0	 7.799989999990448e+000	 8.400020000016403e+000	 1.001791922402640e+001
0	 7.799989999990447e+000	 8.466690000017618e+000	 1.001665023904741e+001
0	 7.799989999990449e+000	 8.533360000018135e+000	 1.001540457738378e+001
0	 7.799989999990450e+000	 8.600030000017851e+000	 1.001418008105897e+001
0	 7.799989999990448e+000	 8.666700000016668e+000	 1.001297459209637e+001
0	 7.866659999993464e+000	 8.000000000000000e+000	 1.002510353712666e+001
0	 7.866659999993463e+000	 8.066670000003315e+000	 1.002370991289658e+001
0	 7.866659999993464e+000	 8.133340000006532e+000	 1.002235082606004e+001
0	 7.866659999993466e+000	 8.200010000009550e+000	 1.002102418358413e+001
0	 7.866659999993466e+000	 8.266680000012268e+000	 1.001972789243594e+001
0	 7.866659999993464e+000	 8.333350000014585e+000	 1.001845985958254e+001
0	 7.866659999993465e+000	 8.400020000016401e+000	 1.001721799199101e+001
0	 7.866659999993463e+000	 8.466690000017618e+000	 1.001600019662847e+001
0	 7.866659999993466e+000	 8.533360000018133e+000	 1.001480438046196e+001
0	 7.866659999993464e+000	 8.600030000017851e+000	 1.001362845045860e+001
0	 7.866659999993464e+000	 8.666700000016666e+000	 1.001247031358547e+001
0	 7.933329999996680e+000	 8.000000000000000e+000	 1.002407242804411e+001
0	 7.933329999996682e+000	 8.066670000003317e+000	 1.002273897582290e+001
0	 7.933329999996682e+000	 8.133340000006534e+000	 1.002143835110822e+001
0	 7.933329999996682e+000	 8.200010000009552e+000	 1.002016852603558e+001
0	 7.933329999996682e+000	 8.266680000012268e+000	 1.001892747274052e+001
0	 7.933329999996681e+000	 8.333350000014583e+000	 1.001771316335851e+001
0	 7.933329999996680e+000	 8.400020000016399e+000	 1.001652357002511e+001
0	 7.933329999996681e+000	 8.466690000017616e+000	 1.001535666487580e+001
0	 7.933329999996680e+000	 8.533360000018133e+000	 1.001421042004612e+001
0	 7.933329999996681e+000	 8.600030000017849e+000	 1.001308280767156e+001
0	 7.933329999996682e+000	 8.666700000016668e+000	 1.001197179988766e+001
0	 7.999999999999999e+000	 7.999999999999999e+000	 1.002305302533723e+001
0	 7.999999999999998e+000	 8.066670000003319e+000	 1.002177921105249e+001
0	 8.000000000000000e+000	 8.133340000006534e+000	 1.002053653900290e+001
0	 7.999999999999999e+000	 8.200010000009550e+000	 1.001932304671720e+001
0	 7.999999999999999e+000	 8.266680000012268e+000	 1.001813677172412e+001
0	 8.000000000000000e+000	 8.333350000014585e+000	 1.001697575155233e+001
0	 7.999999999999998e+000	 8.400020000016397e+000	 1.001583802373060e+001
0	 8.000000000000000e+000	 8.466690000017618e+000	 1.001472162578760e+001
0	 7.999999999999998e+000	 8.533360000018131e+000	 1.001362459525205e+001
0	 8.000000000000000e+000	 8.600030000017851e+000	 1.001254496965270e+001
0	 8.000000000000000e+000	 8.666700000016666e+000	 1.001148078651823e+001
0	 7.333299999983334e+000	 8.666700000016665e+000	 1.001652017315256e+001
0	 7.333299999983335e+000	 8.733360002791903e+000	 1.001503490745584e+001
0	 7.333299999983333e+000	 8.800020022230555e+000	 1.001362286100110e+001
0	 7.333299999983335e+000	 8.866680074997040e+000	 1.001228091732662e+001
0	 7.333299999983334e+000	 8.933340177755779e+000	 1.001100595976423e+001
0	 7.333299999983333e+000	 9.000000347171179e+000	 1.000979487143940e+001
0	 7.333299999983335e+000	 9.066660599907667e+000	 1.000864453527106e+001
0	 7.333299999983334e+000	 9.133320952629655e+000	 1.000755183397181e+001
0	 7.333299999983333e+000	 9.199981422001558e+000	 1.000651365004777e+001
0	 7.333299999983333e+000	 9.266642024687794e+000	 1.000552686579865e+001
0	 7.333299999983334e+000	 9.333302777352781e+000	 1.000458836331772e+001
0	 7.399969999982150e+000	 8.666700000016668e+000	 1.001602413537882e+001
0	 7.399969999982152e+000	 8.733360002791905e+000	 1.001458375267784e+001
0	 7.399969999982151e+000	 8.800020022230557e+000	 1.001321448633831e+001
0	 7.399969999982150e+000	 8.866680074997044e+000	 1.001191329681129e+001
0	 7.399969999982151e+000	 8.933340177755779e+000	 1.001067714434734e+001
0	 7.399969999982149e+000	 9.000000347171181e+000	 1.000950298899659e+001
0	 7.399969999982152e+000	 9.066660599907667e+000	 1.000838779060864e+001
0	 7.399969999982149e+000	 9.133320952629655e+000	 1.000732850883261e+001
0	 7.399969999982152e+000	 9.199981422001560e+000	 1.000632210311717e+001
0	 7.399969999982149e+000	 9.266642024687798e+000	 1.000536553271053e+001
0	 7.399969999982149e+000	 9.333302777352783e+000	 1.000445575666031e+001
0	 7.466639999981866e+000	 8.666700000016668e+000	 1.001552171381100e+001
0	 7.466639999981866e+000	 8.733360002791901e+000	 1.001412654477572e+001
0	 7.466639999981867e+000	 8.800020022230555e+000	 1.001280033686370e+001
0	 7.466639999981867e+000	 8.866680074997042e+000	 1.001154012915066e+001
0	 7.466639999981868e+000	 8.933340177755783e+000	 1.001034296051777e+001
0	 7.466639999981867e+000	 9.000000347171183e+000	 1.000920586965179e+001
0	 7.466639999981866e+000	 9.066660599907666e+000	 1.000812589504514e+001
0	 7.466639999981865e+000	 9.133320952629653e+000	 1.000710007499567e+001
0	 7.466639999981867e+000	 9.199981422001560e+000	 1.000612544760687e+001
0	 7.466639999981866e+000	 9.266642024687799e+000	 1.000519905078776e+001
0	 7.466639999981866e+000	 9.333302777352785e+000	 1.000431792225297e+001
0	 7.533309999982382e+000	 8.666700000016668e+000	 1.001501464396440e+001
0	 7.533309999982383e+000	 8.733360002791901e+000	 1.001366494263180e+001
0	 7.533309999982384e+000	 8.800020022230555e+000	 1.001238200369426e+001
0	 7.533309999982383e+000	 8.866680074997040e+000	 1.001116294656386e+001
0	 7.533309999982381e+000	 8.933340177755778e+000	 1.001000489046444e+001
0	 7.533309999982383e+000	 9.000000347171184e+000	 1.000890495443143e+001
0	 7.533309999982382e+000	 9.066660599907669e+000	 1.000786025731206e+001
0	 7.533309999982384e+000	 9.133320952629660e+000	 1.000686791776516e+001
0	 7.533309999982383e+000	 9.199981422001558e+000	 1.000592505426130e+001
0	 7.533309999982383e+000	 9.266642024687794e+000	 1.000502878508272e+001
0	 7.533309999982382e+000	 9.333302777352783e+000	 1.000417622832335e+001
0	 7.599979999983598e+000	 8.666700000016666e+000	 1.001450466135433e+001
0	 7.599979999983599e+000	 8.733360002791901e+000	 1.001320060512848e+001
0	 7.599979999983599e+000	 8.800020022230555e+000	 1.001196107794691e+001
0	 7.599979999983599e+000	 8.866680074997040e+000	 1.001078328127009e+001
0	 7.599979999983599e+000	 8.933340177755781e+000	 1.000966441637634e+001
0	 7.599979999983598e+000	 9.000000347171183e+000	 1.000860168436190e+001
0	 7.599979999983599e+000	 9.066660599907667e+000	 1.000759228614089e+001
0	 7.599979999983598e+000	 9.133320952629656e+000	 1.000663342244527e+001
0	 7.599979999983598e+000	 9.199981422001558e+000	 1.000572229382497e+001
0	 7.599979999983599e+000	 9.266642024687798e+000	 1.000485610064770e+001
0	 7.599979999983600e+000	 9.333302777352783e+000	 1.000403204309915e+001
0	 7.666649999985416e+000	 8.666700000016666e+000	 1.001399350149610e+001
0	 7.666649999985416e+000	 8.733360002791903e+000	 1.001273519114811e+001
0	 7.666649999985416e+000	 8.800020022230557e+000	 1.001153915073866e+001
0	 7.666649999985414e+000	 8.866680074997042e+000	 1.001040266548846e+001
0	 7.666649999985414e+000	 8.933340177755778e+000	 1.000932302044245e+001
0	 7.666649999985416e+000	 9.000000347171184e+000	 1.000829750046960e+001
0	 7.666649999985416e+000	 9.066660599907667e+000	 1.000732339026308e+001
0	 7.666649999985417e+000	 9.133320952629656e+000	 1.000639797434019e+001
0	 7.666649999985415e+000	 9.199981422001560e+000	 1.000551853704231e+001
0	 7.666649999985415e+000	 9.266642024687796e+000	 1.000468236253505e+001
0	 7.666649999985414e+000	 9.333302777352781e+000	 1.000388673480806e+001
0	 7.733319999987731e+000	 8.666700000016666e+000	 1.001348289990501e+001
0	 7.733319999987732e+000	 8.733360002791903e+000	 1.001227035957303e+001
0	 7.733319999987732e+000	 8.800020022230553e+000	 1.001111781318642e+001
0	 7.733319999987728e+000	 8.866680074997039e+000	 1.001002263143817e+001
0	 7.733319999987732e+000	 8.933340177755776e+000	 1.000898218485171e+001
0	 7.733319999987731e+000	 9.000000347171181e+000	 1.000799384378096e+001
0	 7.733319999987733e+000	 9.066660599907671e+000	 1.000705497841017e+001
0	 7.733319999987730e+000	 9.133320952629655e+000	 1.000616295875408e+001
0	 7.733319999987730e+000	 9.199981422001558e+000	 1.000531515465785e+001
0	 7.733319999987730e+000	 9.266642024687796e+000	 1.000450893579708e+001
0	 7.733319999987732e+000	 9.333302777352783e+000	 1.000374167167774e+001
0	 7.799989999990448e+000	 8.666700000016668e+000	 1.001297459209637e+001
0	 7.799989999990449e+000	 8.733360002791901e+000	 1.001180776928562e+001
0	 7.799989999990448e+000	 8.800020022230555e+000	 1.001069865640717e+001
0	 7.799989999990448e+000	 8.866680074997042e+000	 1.000964471133833e+001
0	 7.799989999990448e+000	 8.933340177755778e+000	 1.000864339179312e+001
0	 7.799989999990448e+000	 9.000000347171177e+000	 1.000769215532236e+001
0	 7.799989999990449e+000	 9.066660599907667e+000	 1.000678845931361e+001
0	 7.799989999990448e+000	 9.133320952629656e+000	 1.000592976099115e+001
0	 7.799989999990447e+000	 9.199981422001557e+000	 1.000511351741606e+001
0	 7.799989999990448e+000	 9.266642024687796e+000	 1.000433718548611e+001
0	 7.799989999990449e+000	 9.333302777352783e+000	 1.000359822193590e+001
0	 7.866659999993464e+000	 8.666700000016666e+000	 1.001247031358547e+001
0	 7.866659999993465e+000	 8.733360002791903e+000	 1.001134907916824e+001
0	 7.866659999993463e+000	 8.800020022230555e+000	 1.001028327151789e+001
0	 7.866659999993464e+000	 8.866680074997042e+000	 1.000927043740810e+001
0	 7.866659999993463e+000	 8.933340177755778e+000	 1.000830812345561e+001
0	 7.866659999993466e+000	 9.000000347171183e+000	 1.000739387612024e+001
0	 7.866659999993466e+000	 9.066660599907667e+000	 1.000652524170487e+001
0	 7.866659999993464e+000	 9.133320952629655e+000	 1.000569976635557e+001
0	 7.866659999993464e+000	 9.199981422001558e+000	 1.000491499606136e+001
0	 7.866659999993464e+000	 9.266642024687796e+000	 1.000416847665450e+001
0	 7.866659999993464e+000	 9.333302777352783e+000	 1.000345775381021e+001
0	 7.933329999996682e+000	 8.666700000016668e+000	 1.001197179988766e+001
0	 7.933329999996679e+000	 8.733360002791898e+000	 1.001089594810323e+001
0	 7.933329999996682e+000	 8.800020022230557e+000	 1.000987324963554e+001
0	 7.933329999996681e+000	 8.866680074997040e+000	 1.000890134186669e+001
0	 7.933329999996681e+000	 8.933340177755778e+000	 1.000797786202816e+001
0	 7.933329999996682e+000	 9.000000347171183e+000	 1.000710044720098e+001
0	 7.933329999996679e+000	 9.066660599907664e+000	 1.000626673431549e+001
0	 7.933329999996680e+000	 9.133320952629655e+000	 1.000547436015152e+001
0	 7.933329999996682e+000	 9.199981422001557e+000	 1.000472096133833e+001
0	 7.933329999996682e+000	 9.266642024687796e+000	 1.000400417435457e+001
0	 7.933329999996682e+000	 9.333302777352783e+000	 1.000332163552835e+001
0	 8.000000000000000e+000	 8.666700000016666e+000	 1.001148078651824e+001
0	 8.000000000000000e+000	 8.733360002791905e+000	 1.001045003497298e+001
0	 7.999999999999999e+000	 8.800020022230555e+000	 1.000947018187706e+001
0	 8.000000000000002e+000	 8.866680074997042e+000	 1.000853895693317e+001
0	 8.000000000000002e+000	 8.933340177755778e+000	 1.000765408969975e+001
0	 8.000000000000002e+000	 9.000000347171184e+000	 1.000681330959101e+001
0	 8.000000000000000e+000	 9.066660599907667e+000	 1.000601434587693e+001
0	 8.000000000000000e+000	 9.133320952629655e+000	 1.000525492768320e+001
0	 7.999999999999999e+000	 9.199981422001558e+000	 1.000453278399137e+001
0	 8.000000000000000e+000	 9.266642024687796e+000	 1.000384564363864e+001
0	 7.999999999999999e+000	 9.333302777352781e+000	 1.000319123531804e+001
0	 7.333299999983334e+000	 9.333302777352781e+000	 1.000458836331772e+001
0	 7.333299999983336e+000	 9.399973674588173e+000	 1.000372327836128e+001
0	 7.333299999983334e+000	 9.466644621844624e+000	 1.000295665112214e+001
0	 7.333299999983333e+000	 9.533315502449998e+000	 1.000228480975452e+001
0	 7.333299999983335e+000	 9.599986199732195e+000	 1.000170408445612e+001
0	 7.333299999983334e+000	 9.666656597019097e+000	 1.000121080746792e+001
0	 7.333299999983333e+000	 9.733326577638573e+000	 1.000080131307441e+001
0	 7.333299999983335e+000	 9.799996024918523e+000	 1.000047193760351e+001
0	 7.333299999983333e+000	 9.866664822186822e+000	 1.000021901942692e+001
0	 7.333299999983333e+000	 9.933332852771354e+000	 1.000003889896023e+001
0	 7.333299999983335e+000	 1.000000000000000e+001	 9.999927918663284e+000
0	 7.399969999982149e+000	 9.333302777352783e+000	 1.000445575666031e+001
0	 7.399969999982149e+000	 9.399973674588175e+000	 1.000361708371875e+001
0	 7.399969999982151e+000	 9.466644621844621e+000	 1.000287378561530e+001
0	 7.399969999982150e+000	 9.533315502449998e+000	 1.000222236783354e+001
0	 7.399969999982151e+000	 9.599986199732200e+000	 1.000165933783928e+001
0	 7.399969999982150e+000	 9.666656597019095e+000	 1.000118120508070e+001
0	 7.399969999982149e+000	 9.733326577638572e+000	 1.000078448098837e+001
0	 7.399969999982151e+000	 9.799996024918524e+000	 1.000046567897530e+001
0	 7.399969999982151e+000	 9.866664822186824e+000	 1.000022131443708e+001
0	 7.399969999982149e+000	 9.933332852771351e+000	 1.000004790475225e+001
0	 7.399969999982150e+000	 1.000000000000000e+001	 9.999941969282384e+000
0	 7.466639999981866e+000	 9.333302777352785e+000	 1.000431792225297e+001
0	 7.466639999981864e+000	 9.399973674588175e+000	 1.000350557825891e+001
0	 7.466639999981864e+000	 9.466644621844617e+000	 1.000278554847508e+001
0	 7.466639999981866e+000	 9.533315502449998e+000	 1.000215450522540e+001
0	 7.466639999981864e+000	 9.599986199732195e+000	 1.000160912275506e+001
0	 7.466639999981867e+000	 9.666656597019093e+000	 1.000114607723059e+001
0	 7.466639999981865e+000	 9.733326577638575e+000	 1.000076204673987e+001
0	 7.466639999981867e+000	 9.799996024918523e+000	 1.000045371129225e+001
0	 7.466639999981867e+000	 9.866664822186822e+000	 1.000021775281881e+001
0	 7.466639999981866e+000	 9.933332852771354e+000	 1.000005085517229e+001
0	 7.466639999981865e+000	 1.000000000000000e+001	 9.999949704127582e+000
0	 7.533309999982382e+000	 9.333302777352783e+000	 1.000417622832335e+001
0	 7.533309999982383e+000	 9.399973674588177e+000	 1.000339013835416e+001
0	 7.533309999982384e+000	 9.466644621844623e+000	 1.000269332528768e+001
0	 7.533309999982381e+000	 9.533315502450003e+000	 1.000208261779928e+001
0	 7.533309999982382e+000	 9.599986199732195e+000	 1.000155484642474e+001
0	 7.533309999982382e+000	 9.666656597019092e+000	 1.000110684356016e+001
0	 7.533309999982382e+000	 9.733326577638575e+000	 1.000073544346216e+001
0	 7.533309999982382e+000	 9.799996024918523e+000	 1.000043748224782e+001
0	 7.533309999982383e+000	 9.866664822186824e+000	 1.000020979789502e+001
0	 7.533309999982383e+000	 9.933332852771351e+000	 1.000004923024257e+001
0	 7.533309999982381e+000	 1.000000000000000e+001	 9.999952620990229e+000
0	 7.599979999983600e+000	 9.333302777352783e+000	 1.000403204309915e+001
0	 7.599979999983598e+000	 9.399973674588177e+000	 1.000327214037697e+001
0	 7.599979999983600e+000	 9.466644621844619e+000	 1.000259850163937e+001
0	 7.599979999983599e+000	 9.533315502450002e+000	 1.000200810142435e+001
0	 7.599979999983599e+000	 9.599986199732197e+000	 1.000149791606955e+001
0	 7.599979999983598e+000	 9.666656597019093e+000	 1.000106492371201e+001
0	 7.599979999983598e+000	 9.733326577638575e+000	 1.000070610428842e+001
0	 7.599979999983598e+000	 9.799996024918524e+000	 1.000041843953529e+001
0	 7.599979999983598e+000	 9.866664822186820e+000	 1.000019891298881e+001
0	 7.599979999983598e+000	 9.933332852771352e+000	 1.000004450998529e+001
0	 7.599979999983598e+000	 1.000000000000000e+001	 9.999952217661390e+000
0	 7.666649999985414e+000	 9.333302777352781e+000	 1.000388673480805e+001
0	 7.666649999985415e+000	 9.399973674588175e+000	 1.000315296069974e+001
0	 7.666649999985416e+000	 9.466644621844621e+000	 1.000250246311635e+001
0	 7.666649999985415e+000	 9.533315502450000e+000	 1.000193235196981e+001
0	 7.666649999985416e+000	 9.599986199732197e+000	 1.000143973891077e+001
0	 7.666649999985413e+000	 9.666656597019092e+000	 1.000102173732874e+001
0	 7.666649999985415e+000	 9.733326577638577e+000	 1.000067546235206e+001
0	 7.666649999985416e+000	 9.799996024918523e+000	 1.000039803084802e+001
0	 7.666649999985416e+000	 9.866664822186825e+000	 1.000018656142300e+001
0	 7.666649999985415e+000	 9.933332852771354e+000	 1.000003817442276e+001
0	 7.666649999985414e+000	 9.999999999999998e+000	 9.999949991932434e+000
0	 7.733319999987732e+000	 9.333302777352783e+000	 1.000374167167775e+001
0	 7.733319999987731e+000	 9.399973674588173e+000	 1.000303397569491e+001
0	 7.733319999987732e+000	 9.466644621844621e+000	 1.000240659530491e+001
0	 7.733319999987730e+000	 9.533315502450000e+000	 1.000185676530477e+001
0	 7.733319999987731e+000	 9.599986199732197e+000	 1.000138172216968e+001
0	 7.733319999987732e+000	 9.666656597019093e+000	 1.000097870405297e+001
0	 7.733319999987730e+000	 9.733326577638575e+000	 1.000064495078626e+001
0	 7.733319999987732e+000	 9.799996024918523e+000	 1.000037770387936e+001
0	 7.733319999987733e+000	 9.866664822186822e+000	 1.000017420652067e+001
0	 7.733319999987733e+000	 9.933332852771356e+000	 1.000003170357713e+001
0	 7.733319999987730e+000	 9.999999999999998e+000	 9.999947441594546e+000
0	 7.799989999990449e+000	 9.333302777352783e+000	 1.000359822193589e+001
0	 7.799989999990450e+000	 9.399973674588177e+000	 1.000291656173491e+001
0	 7.799989999990447e+000	 9.466644621844619e+000	 1.000231228379126e+001
0	 7.799989999990448e+000	 9.533315502450002e+000	 1.000178273729842e+001
0	 7.799989999990447e+000	 9.599986199732198e+000	 1.000132527306749e+001
0	 7.799989999990448e+000	 9.666656597019095e+000	 1.000093724352730e+001
0	 7.799989999990448e+000	 9.733326577638575e+000	 1.000061600272429e+001
0	 7.799989999990449e+000	 9.799996024918524e+000	 1.000035890632270e+001
0	 7.799989999990447e+000	 9.866664822186824e+000	 1.000016331160476e+001
0	 7.799989999990449e+000	 9.933332852771354e+000	 1.000002657747064e+001
0	 7.799989999990447e+000	 9.999999999999998e+000	 9.999946064439051e+000
0	 7.866659999993464e+000	 9.333302777352783e+000	 1.000345775381021e+001
0	 7.866659999993463e+000	 9.399973674588175e+000	 1.000280209519219e+001
0	 7.866659999993465e+000	 9.466644621844623e+000	 1.000222091416163e+001
0	 7.866659999993464e+000	 9.533315502450002e+000	 1.000171166381988e+001
0	 7.866659999993463e+000	 9.599986199732197e+000	 1.000127179882550e+001
0	 7.866659999993463e+000	 9.666656597019093e+000	 1.000089877539430e+001
0	 7.866659999993464e+000	 9.733326577638573e+000	 1.000059005129946e+001
0	 7.866659999993464e+000	 9.799996024918523e+000	 1.000034308587139e+001
0	 7.866659999993463e+000	 9.866664822186820e+000	 1.000015533999818e+001
0	 7.866659999993463e+000	 9.933332852771352e+000	 1.000002427612552e+001
0	 7.866659999993463e+000	 1.000000000000000e+001	 9.999947358257058e+000
0	 7.933329999996682e+000	 9.333302777352783e+000	 1.000332163552835e+001
0	 7.933329999996681e+000	 9.399973674588175e+000	 1.000269195243916e+001
0	 7.933329999996682e+000	 9.466644621844621e+000	 1.000213387200229e+001
0	 7.933329999996682e+000	 9.533315502449998e+000	 1.000164494073837e+001
0	 7.933329999996682e+000	 9.599986199732197e+000	 1.000122270666495e+001
0	 7.933329999996682e+000	 9.666656597019095e+000	 1.000086471929663e+001
0	 7.933329999996682e+000	 9.733326577638577e+000	 1.000056852964496e+001
0	 7.933329999996682e+000	 9.799996024918523e+000	 1.000033169021875e+001
0	 7.933329999996681e+000	 9.866664822186824e+000	 1.000015175502397e+001
0	 7.933329999996682e+000	 9.933332852771354e+000	 1.000002627956402e+001
0	 7.933329999996681e+000	 1.000000000000000e+001	 9.999952820840024e+000
0	 7.999999999999999e+000	 9.333302777352781e+000	 1.000319123531804e+001
0	 8.000000000000000e+000	 9.399973674588175e+000	 1.000258750984824e+001
0	 8.000000000000000e+000	 9.466644621844621e+000	 1.000205254289947e+001
0	 8.000000000000000e+000	 9.533315502449998e+000	 1.000158396392303e+001
0	 8.000000000000000e+000	 9.599986199732197e+000	 1.000117940380712e+001
0	 8.000000000000000e+000	 9.666656597019093e+000	 1.000083649487682e+001
0	 8.000000000000000e+000	 9.733326577638575e+000	 1.000055287089417e+001
0	 8.000000000000000e+000	 9.799996024918524e+000	 1.000032616705819e+001
0	 7.999999999999997e+000	 9.866664822186822e+000	 1.000015402000508e+001
0	 8.000000000000000e+000	 9.933332852771352e+000	 1.000003406780838e+001
0	 8.000000000000000e+000	 1.000000000000000e+001	 9.999963949979014e+000
0	 8.000000000000000e+000	 0.000000000000000e+000	 9.970723717516394e+000
0	 8.000000000000002e+000	 6.666714722864757e-002	 9.970755512539526e+000
0	 8.000000000000000e+000	 1.333351778131789e-001	 9.970894770959934e+000
0	 8.000000000000000e+000	 2.000039750814773e-001	 9.971141783172907e+000
0	 8.000000000000002e+000	 2.666734223614256e-001	 9.971496841590671e+000
0	 8.000000000000000e+000	 3.333434029809069e-001	 9.971960240642165e+000
0	 8.000000000000000e+000	 4.000138002678044e-001	 9.972532276773025e+000
0	 8.000000000000000e+000	 4.666844975500011e-001	 9.973213248445436e+000
0	 7.999999999999999e+000	 5.333553781553803e-001	 9.974003456138169e+000
0	 8.000000000000000e+000	 6.000263254118246e-001	 9.974903202346615e+000
0	 7.999999999999999e+000	 6.666972226472177e-001	 9.975912791582891e+000
0	 8.066670000003317e+000	 0.000000000000000e+000	 9.962690133604209e+000
0	 8.066670000003313e+000	 6.666714722864754e-002	 9.962735167719689e+000
0	 8.066670000003317e+000	 1.333351778131789e-001	 9.962882164804652e+000
0	 8.066670000003317e+000	 2.000039750814772e-001	 9.963131570114333e+000
0	 8.066670000003315e+000	 2.666734223614256e-001	 9.963483830864416e+000
0	 8.066670000003319e+000	 3.333434029809069e-001	 9.963939396230847e+000
0	 8.066670000003315e+000	 4.000138002678044e-001	 9.964498717349789e+000
0	 8.066670000003317e+000	 4.666844975500010e-001	 9.965162247317476e+000
0	 8.066670000003320e+000	 5.333553781553803e-001	 9.965930441190260e+000
0	 8.066670000003317e+000	 6.000263254118247e-001	 9.966803755984655e+000
0	 8.066670000003317e+000	 6.666972226472177e-001	 9.967782650677393e+000
0	 8.133340000006534e+000	 0.000000000000000e+000	 9.954506484729112e+000
0	 8.133340000006532e+000	 6.666714722864753e-002	 9.954562371207992e+000
0	 8.133340000006534e+000	 1.333351778131789e-001	 9.954716809318464e+000
0	 8.133340000006534e+000	 2.000039750814772e-001	 9.954970379704726e+000
0	 8.133340000006530e+000	 2.666734223614255e-001	 9.955323664931930e+000
0	 8.133340000006534e+000	 3.333434029809068e-001	 9.955777249485996e+000
0	 8.133340000006532e+000	 4.000138002678044e-001	 9.956331719773552e+000
0	 8.133340000006538e+000	 4.666844975500012e-001	 9.956987664121836e+000
0	 8.133340000006534e+000	 5.333553781553803e-001	 9.957745672778666e+000
0	 8.133340000006534e+000	 6.000263254118247e-001	 9.958606337912533e+000
0	 8.133340000006532e+000	 6.666972226472178e-001	 9.959570253612665e+000
0	 8.200010000009550e+000	 0.000000000000000e+000	 9.946172209023654e+000
0	 8.200010000009552e+000	 6.666714722864757e-002	 9.946236551430953e+000
0	 8.200010000009550e+000	 1.333351778131790e-001	 9.946397874060818e+000
0	 8.200010000009550e+000	 2.000039750814773e-001	 9.946656873483333e+000
0	 8.200010000009547e+000	 2.666734223614256e-001	 9.947014248164381e+000
0	 8.200010000009549e+000	 3.333434029809069e-001	 9.947470698465494e+000
0	 8.200010000009550e+000	 4.000138002678044e-001	 9.948026926643760e+000
0	 8.200010000009549e+000	 4.666844975500011e-001	 9.948683636851730e+000
0	 8.200010000009550e+000	 5.333553781553800e-001	 9.949441535137433e+000
0	 8.200010000009549e+000	 6.000263254118246e-001	 9.950301329444423e+000
0	 8.200010000009550e+000	 6.666972226472175e-001	 9.951263729611821e+000
0	 8.266680000012267e+000	 0.000000000000000e+000	 9.937686744620351e+000
0	 8.266680000012267e+000	 6.666714722864753e-002	 9.937757136815064e+000
0	 8.266680000012268e+000	 1.333351778131790e-001	 9.937924528591175e+000
0	 8.266680000012263e+000	 2.000039750814772e-001	 9.938189712989413e+000
0	 8.266680000012267e+000	 2.666734223614256e-001	 9.938553484932950e+000
0	 8.266680000012265e+000	 3.333434029809068e-001	 9.939016641227218e+000
0	 8.266680000012265e+000	 4.000138002678043e-001	 9.939579980559810e+000
0	 8.266680000012267e+000	 4.666844975500011e-001	 9.940244303500373e+000
0	 8.266680000012268e+000	 5.333553781553803e-001	 9.941010412500658e+000
0	 8.266680000012265e+000	 6.000263254118247e-001	 9.941879111894522e+000
0	 8.266680000012265e+000	 6.666972226472178e-001	 9.942851207898022e+000
0	 8.333350000014583e+000	 0.000000000000000e+000	 9.929049529651747e+000
0	 8.333350000014583e+000	 6.666714722864756e-002	 9.929123555786859e+000
0	 8.333350000014582e+000	 1.333351778131790e-001	 9.929295942468976e+000
0	 8.333350000014582e+000	 2.000039750814773e-001	 9.929567559762193e+000
0	 8.333350000014582e+000	 2.666734223614256e-001	 9.929939279608806e+000
0	 8.333350000014585e+000	 3.333434029809069e-001	 9.930411975829069e+000
0	 8.333350000014582e+000	 4.000138002678043e-001	 9.930986524121138e+000
0	 8.333350000014582e+000	 4.666844975500012e-001	 9.931663802060982e+000
0	 8.333350000014583e+000	 5.333553781553800e-001	 9.932444689102399e+000
0	 8.333350000014582e+000	 6.000263254118247e-001	 9.933330066577019e+000
0	 8.333350000014583e+000	 6.666972226472178e-001	 9.934320817694415e+000
0	 8.400020000016399e+000	 0.000000000000000e+000	 9.920260002250373e+000
0	 8.400020000016397e+000	 6.666714722864754e-002	 9.920335236772846e+000
0	 8.400020000016399e+000	 1.333351778131789e-001	 9.920511285253683e+000
0	 8.400020000016401e+000	 2.000039750814772e-001	 9.920789075340952e+000
0	 8.400020000016401e+000	 2.666734223614255e-001	 9.921169536563122e+000
0	 8.400020000016399e+000	 3.333434029809069e-001	 9.921653600328909e+000
0	 8.400020000016399e+000	 4.000138002678044e-001	 9.922242199927155e+000
0	 8.400020000016401e+000	 4.666844975500011e-001	 9.922936270526778e+000
0	 8.400020000016399e+000	 5.333553781553803e-001	 9.923736749176742e+000
0	 8.400020000016399e+000	 6.000263254118247e-001	 9.924644574806113e+000
0	 8.400020000016399e+000	 6.666972226472177e-001	 9.925660688224138e+000
0	 8.466690000017616e+000	 0.000000000000000e+000	 9.911317600548761e+000
0	 8.466690000017616e+000	 6.666714722864756e-002	 9.911391608199521e+000
0	 8.466690000017616e+000	 1.333351778131790e-001	 9.911569726504760e+000
0	 8.466690000017616e+000	 2.000039750814772e-001	 9.911852921264925e+000
0	 8.466690000017614e+000	 2.666734223614254e-001	 9.912242160167073e+000
0	 8.466690000017616e+000	 3.333434029809069e-001	 9.912738412784634e+000
0	 8.466690000017616e+000	 4.000138002678044e-001	 9.913342650577286e+000
0	 8.466690000017616e+000	 4.666844975500011e-001	 9.914055846890967e+000
0	 8.466690000017618e+000	 5.333553781553803e-001	 9.914878976957748e+000
0	 8.466690000017618e+000	 6.000263254118248e-001	 9.915813017895991e+000
0	 8.466690000017614e+000	 6.666972226472175e-001	 9.916858948710344e+000
0	 8.533360000018131e+000	 0.000000000000000e+000	 9.902221762679453e+000
0	 8.533360000018131e+000	 6.666714722864756e-002	 9.902292098493437e+000
0	 8.533360000018131e+000	 1.333351778131789e-001	 9.902470435781645e+000
0	 8.533360000018131e+000	 2.000039750814772e-001	 9.902757759073362e+000
0	 8.533360000018131e+000	 2.666734223614256e-001	 9.903155054791835e+000
0	 8.533360000018131e+000	 3.333434029809069e-001	 9.903663311254119e+000
0	 8.533360000018135e+000	 4.000138002678044e-001	 9.904283518670976e+000
0	 8.533360000018130e+000	 4.666844975500010e-001	 9.905016669146765e+000
0	 8.533360000018131e+000	 5.333553781553803e-001	 9.905863756679509e+000
0	 8.533360000018133e+000	 6.000263254118247e-001	 9.906825777160849e+000
0	 8.533360000018133e+000	 6.666972226472177e-001	 9.907903728376171e+000
0	 8.600030000017849e+000	 0.000000000000000e+000	 9.892971926774973e+000
0	 8.600030000017847e+000	 6.666714722864754e-002	 9.893036136081062e+000
0	 8.600030000017849e+000	 1.333351778131790e-001	 9.893212582643812e+000
0	 8.600030000017851e+000	 2.000039750814772e-001	 9.893502250305524e+000
0	 8.600030000017849e+000	 2.666734223614255e-001	 9.893906124808590e+000
0	 8.600030000017849e+000	 3.333434029809069e-001	 9.894425193795279e+000
0	 8.600030000017847e+000	 4.000138002678044e-001	 9.895060446807632e+000
0	 8.600030000017851e+000	 4.666844975500012e-001	 9.895812875287410e+000
0	 8.600030000017849e+000	 5.333553781553803e-001	 9.896683472576088e+000
0	 8.600030000017849e+000	 6.000263254118248e-001	 9.897673233914865e+000
0	 8.600030000017851e+000	 6.666972226472178e-001	 9.898783156444774e+000
0	 8.666700000016666e+000	 0.000000000000000e+000	 9.883567530967868e+000
0	 8.666700000016668e+000	 6.666714722864757e-002	 9.883623149388944e+000
0	 8.666700000016665e+000	 1.333351778131789e-001	 9.883795336650707e+000
0	 8.666700000016668e+000	 2.000039750814772e-001	 9.884085056500663e+000
0	 8.666700000016666e+000	 2.666734223614256e-001	 9.884493274588509e+000
0	 8.666700000016666e+000	 3.333434029809069e-001	 9.885020958465971e+000
0	 8.666700000016668e+000	 4.000138002678044e-001	 9.885669077586679e+000
0	 8.666700000016665e+000	 4.666844975500011e-001	 9.886438603306106e+000
0	 8.666700000016666e+000	 5.333553781553801e-001	 9.887330508881576e+000
0	 8.666700000016666e+000	 6.000263254118248e-001	 9.888345769472259e+000
0	 8.666700000016668e+000	 6.666972226472177e-001	 9.889485362139290e+000
0	 7.999999999999999e+000	 6.666972226472177e-001	 9.975912791582889e+000
0	 8.000000000000000e+000	 7.333579753122049e-001	 9.977018999241949e+000
0	 8.000000000000000e+000	 8.000185779984418e-001	 9.978210899282169e+000
0	 8.000000000000000e+000	 8.666790473703454e-001	 9.979491766336748e+000
0	 8.000000000000000e+000	 9.333394000923323e-001	 9.980864874792392e+000
0	 8.000000000000000e+000	 9.999996528288189e-001	 9.982333498789284e+000
0	 8.000000000000000e+000	 1.066659822244222e+000	 9.983900912221131e+000
0	 8.000000000000000e+000	 1.133319925002959e+000	 9.985570388735143e+000
0	 8.000000000000000e+000	 1.199979977769445e+000	 9.987345201732026e+000
0	 7.999999999999999e+000	 1.266639997208097e+000	 9.989228624365998e+000
0	 8.000000000000000e+000	 1.333299999983334e+000	 9.991223929544784e+000
0	 8.066670000003317e+000	 6.666972226472177e-001	 9.967782650677394e+000
0	 8.066670000003317e+000	 7.333579753122047e-001	 9.968857634937008e+000
0	 8.066670000003317e+000	 8.000185779984416e-001	 9.970021425626163e+000
0	 8.066670000003317e+000	 8.666790473703450e-001	 9.971277329492249e+000
0	 8.066670000003317e+000	 9.333394000923323e-001	 9.972628653033413e+000
0	 8.066670000003319e+000	 9.999996528288189e-001	 9.974078702498604e+000
0	 8.066670000003317e+000	 1.066659822244222e+000	 9.975630783887556e+000
0	 8.066670000003317e+000	 1.133319925002959e+000	 9.977288202950783e+000
0	 8.066670000003317e+000	 1.199979977769445e+000	 9.979054265189600e+000
0	 8.066670000003319e+000	 1.266639997208098e+000	 9.980932275856093e+000
0	 8.066670000003317e+000	 1.333299999983334e+000	 9.982925539953154e+000
0	 8.133340000006532e+000	 6.666972226472178e-001	 9.959570253612663e+000
0	 8.133340000006532e+000	 7.333579753122046e-001	 9.960629638476194e+000
0	 8.133340000006532e+000	 8.000185779984416e-001	 9.961778823502559e+000
0	 8.133340000006536e+000	 8.666790473703453e-001	 9.963021115578892e+000
0	 8.133340000006532e+000	 9.333394000923319e-001	 9.964359821343948e+000
0	 8.133340000006534e+000	 9.999996528288190e-001	 9.965798247188147e+000
0	 8.133340000006532e+000	 1.066659822244222e+000	 9.967339699253529e+000
0	 8.133340000006532e+000	 1.133319925002959e+000	 9.968987483433841e+000
0	 8.133340000006530e+000	 1.199979977769445e+000	 9.970744905374392e+000
0	 8.133340000006534e+000	 1.266639997208098e+000	 9.972615270472232e+000
0	 8.133340000006532e+000	 1.333299999983334e+000	 9.974601883876003e+000
0	 8.200010000009550e+000	 6.666972226472175e-001	 9.951263729611824e+000
0	 8.200010000009552e+000	 7.333579753122049e-001	 9.952320994669444e+000
0	 8.200010000009550e+000	 8.000185779984418e-001	 9.953467397133412e+000
0	 8.200010000009552e+000	 8.666790473703453e-001	 9.954706212060357e+000
0	 8.200010000009550e+000	 9.333394000923322e-001	 9.956040714262329e+000
0	 8.200010000009549e+000	 9.999996528288189e-001	 9.957474178306743e+000
0	 8.200010000009549e+000	 1.066659822244222e+000	 9.959009878516426e+000
0	 8.200010000009552e+000	 1.133319925002958e+000	 9.960651088969579e+000
0	 8.200010000009550e+000	 1.199979977769445e+000	 9.962401083499803e+000
0	 8.200010000009550e+000	 1.266639997208098e+000	 9.964263135696102e+000
0	 8.200010000009549e+000	 1.333299999983334e+000	 9.966240518902891e+000
0	 8.266680000012265e+000	 6.666972226472178e-001	 9.942851207898023e+000
0	 8.266680000012268e+000	 7.333579753122048e-001	 9.943917688326716e+000
0	 8.266680000012268e+000	 8.000185779984418e-001	 9.945071450740743e+000
0	 8.266680000012265e+000	 8.666790473703452e-001	 9.946315706400290e+000
0	 8.266680000012265e+000	 9.333394000923319e-001	 9.947653666326852e+000
0	 8.266680000012267e+000	 9.999996528288188e-001	 9.949088541303219e+000
0	 8.266680000012265e+000	 1.066659822244222e+000	 9.950623541873558e+000
0	 8.266680000012265e+000	 1.133319925002959e+000	 9.952261878343283e+000
0	 8.266680000012265e+000	 1.199979977769445e+000	 9.954006760779201e+000
0	 8.266680000012268e+000	 1.266639997208098e+000	 9.955861399009432e+000
0	 8.266680000012265e+000	 1.333299999983334e+000	 9.957829002623404e+000
0	 8.333350000014583e+000	 6.666972226472178e-001	 9.934320817694415e+000
0	 8.333350000014583e+000	 7.333579753122048e-001	 9.935405704257935e+000
0	 8.333350000014583e+000	 8.000185779984418e-001	 9.936575288546610e+000
0	 8.333350000014582e+000	 8.666790473703451e-001	 9.937832686062359e+000
0	 8.333350000014582e+000	 9.333394000923323e-001	 9.939181012075828e+000
0	 8.333350000014583e+000	 9.999996528288189e-001	 9.940623381626416e+000
0	 8.333350000014583e+000	 1.066659822244222e+000	 9.942162909522260e+000
0	 8.333350000014582e+000	 1.133319925002959e+000	 9.943802710340242e+000
0	 8.333350000014583e+000	 1.199979977769445e+000	 9.945545898425992e+000
0	 8.333350000014583e+000	 1.266639997208098e+000	 9.947395587893915e+000
0	 8.333350000014585e+000	 1.333299999983334e+000	 9.949354892627113e+000
0	 8.400020000016399e+000	 6.666972226472177e-001	 9.925660688224138e+000
0	 8.400020000016401e+000	 7.333579753122049e-001	 9.926771027273048e+000
0	 8.400020000016401e+000	 8.000185779984418e-001	 9.927963214773047e+000
0	 8.400020000016399e+000	 8.666790473703454e-001	 9.929240238510213e+000
0	 8.400020000016403e+000	 9.333394000923324e-001	 9.930605086047576e+000
0	 8.400020000016401e+000	 9.999996528288190e-001	 9.932060744725147e+000
0	 8.400020000016401e+000	 1.066659822244222e+000	 9.933610201659896e+000
0	 8.400020000016401e+000	 1.133319925002959e+000	 9.935256443745727e+000
0	 8.400020000016401e+000	 1.199979977769445e+000	 9.937002457653552e+000
0	 8.400020000016397e+000	 1.266639997208098e+000	 9.938851229831244e+000
0	 8.400020000016399e+000	 1.333299999983334e+000	 9.940805746503596e+000
0	 8.466690000017614e+000	 6.666972226472175e-001	 9.916858948710344e+000
0	 8.466690000017618e+000	 7.333579753122048e-001	 9.917999642182018e+000
0	 8.466690000017614e+000	 8.000185779984416e-001	 9.919219533642099e+000
0	 8.466690000017616e+000	 8.666790473703455e-001	 9.920521451207506e+000
0	 8.466690000017614e+000	 9.333394000923322e-001	 9.921908222780401e+000
0	 8.466690000017614e+000	 9.999996528288188e-001	 9.923382676048250e+000
0	 8.466690000017614e+000	 1.066659822244222e+000	 9.924947638483788e+000
0	 8.466690000017614e+000	 1.133319925002958e+000	 9.926605937345030e+000
0	 8.466690000017616e+000	 1.199979977769445e+000	 9.928360399675276e+000
0	 8.466690000017616e+000	 1.266639997208098e+000	 9.930213852303123e+000
0	 8.466690000017614e+000	 1.333299999983334e+000	 9.932169121842446e+000
0	 8.533360000018133e+000	 6.666972226472177e-001	 9.907903728376171e+000
0	 8.533360000018130e+000	 7.333579753122048e-001	 9.909077533794767e+000
0	 8.533360000018131e+000	 8.000185779984416e-001	 9.910328549375810e+000
0	 8.533360000018131e+000	 8.666790473703453e-001	 9.911659411617908e+000
0	 8.533360000018133e+000	 9.333394000923322e-001	 9.913072756812628e+000
0	 8.533360000018130e+000	 9.999996528288189e-001	 9.914571221044554e+000
0	 8.533360000018133e+000	 1.066659822244223e+000	 9.916157440191284e+000
0	 8.533360000018133e+000	 1.133319925002959e+000	 9.917834049923417e+000
0	 8.533360000018131e+000	 1.199979977769445e+000	 9.919603685704535e+000
0	 8.533360000018130e+000	 1.266639997208098e+000	 9.921468982791264e+000
0	 8.533360000018131e+000	 1.333299999983334e+000	 9.923432576233212e+000
0	 8.600030000017851e+000	 6.666972226472178e-001	 9.898783156444772e+000
0	 8.600030000017849e+000	 7.333579753122049e-001	 9.899990686921269e+000
0	 8.600030000017851e+000	 8.000185779984420e-001	 9.901274566196239e+000
0	 8.600030000017847e+000	 8.666790473703452e-001	 9.902637207205078e+000
0	 8.600030000017847e+000	 9.333394000923322e-001	 9.904081022682551e+000
0	 8.600030000017847e+000	 9.999996528288190e-001	 9.905608425162885e+000
0	 8.600030000017847e+000	 1.066659822244222e+000	 9.907221826979733e+000
0	 8.600030000017851e+000	 1.133319925002959e+000	 9.908923640266174e+000
0	 8.600030000017846e+000	 1.199979977769445e+000	 9.910716276954734e+000
0	 8.600030000017847e+000	 1.266639997208098e+000	 9.912602148777378e+000
0	 8.600030000017849e+000	 1.333299999983334e+000	 9.914583667265490e+000
0	 8.666700000016668e+000	 6.666972226472177e-001	 9.889485362139293e+000
0	 8.666700000016666e+000	 7.333579753122049e-001	 9.890725086371438e+000
0	 8.666700000016668e+000	 8.000185779984418e-001	 9.892041888325421e+000
0	 8.666700000016666e+000	 8.666790473703454e-001	 9.893437925432668e+000
0	 8.666700000016666e+000	 9.333394000923322e-001	 9.894915354928507e+000
0	 8.666700000016665e+000	 9.999996528288188e-001	 9.896476333852085e+000
0	 8.666700000016665e+000	 1.066659822244222e+000	 9.898123019046471e+000
0	 8.666700000016668e+000	 1.133319925002959e+000	 9.899857567158588e+000
0	 8.666700000016666e+000	 1.199979977769445e+000	 9.901682134639250e+000
0	 8.666700000016666e+000	 1.266639997208098e+000	 9.903598877743153e+000
0	 8.666700000016668e+000	 1.333299999983334e+000	 9.905609952528851e+000
0	 8.000000000000000e+000	 1.333299999983334e+000	 9.991223929544784e+000
0	 8.000000000000000e+000	 1.399969999982150e+000	 9.993278839734968e+000
0	 8.000000000000000e+000	 1.466639999981866e+000	 9.995340532262572e+000
0	 8.000000000000000e+000	 1.533309999982383e+000	 9.997412385783800e+000
0	 8.000000000000000e+000	 1.599979999983599e+000	 9.999497778954874e+000
0	 8.000000000000000e+000	 1.666649999985416e+000	 1.000160009043202e+001
0	 7.999999999999999e+000	 1.733319999987733e+000	 1.000372269887144e+001
0	 8.000000000000000e+000	 1.799989999990450e+000	 1.000586898292937e+001
0	 8.000000000000000e+000	 1.866659999993466e+000	 1.000804232126202e+001
0	 8.000000000000000e+000	 1.933329999996683e+000	 1.001024609252561e+001
0	 7.999999999999999e+000	 2.000000000000000e+000	 1.001248367537636e+001
0	 8.066670000003317e+000	 1.333299999983334e+000	 9.982925539953154e+000
0	 8.066670000003317e+000	 1.399969999982150e+000	 9.984979690789077e+000
0	 8.066670000003317e+000	 1.466639999981867e+000	 9.987040049836203e+000
0	 8.066670000003315e+000	 1.533309999982383e+000	 9.989110377645524e+000
0	 8.066670000003319e+000	 1.599979999983599e+000	 9.991194434768062e+000
0	 8.066670000003319e+000	 1.666649999985416e+000	 9.993295981754820e+000
0	 8.066670000003319e+000	 1.733319999987733e+000	 9.995418779156804e+000
0	 8.066670000003317e+000	 1.799989999990450e+000	 9.997566587525016e+000
0	 8.066670000003317e+000	 1.866659999993467e+000	 9.999743167410486e+000
0	 8.066670000003317e+000	 1.933329999996683e+000	 1.000195227936420e+001
0	 8.066670000003319e+000	 2.000000000000000e+000	 1.000419768393719e+001
0	 8.133340000006532e+000	 1.333299999983334e+000	 9.974601883876000e+000
0	 8.133340000006530e+000	 1.399969999982150e+000	 9.976650365003049e+000
0	 8.133340000006534e+000	 1.466639999981866e+000	 9.978706215479315e+000
0	 8.133340000006530e+000	 1.533309999982382e+000	 9.980773484299842e+000
0	 8.133340000006530e+000	 1.599979999983599e+000	 9.982856220459683e+000
0	 8.133340000006532e+000	 1.666649999985416e+000	 9.984958472953862e+000
0	 8.133340000006534e+000	 1.733319999987733e+000	 9.987084290777448e+000
0	 8.133340000006532e+000	 1.799989999990449e+000	 9.989237722925475e+000
0	 8.133340000006536e+000	 1.866659999993467e+000	 9.991422818393003e+000
0	 8.133340000006534e+000	 1.933329999996683e+000	 9.993643626175052e+000
0	 8.133340000006532e+000	 2.000000000000000e+000	 9.995904195266713e+000
0	 8.200010000009549e+000	 1.333299999983334e+000	 9.966240518902891e+000
0	 8.200010000009549e+000	 1.399969999982150e+000	 9.968280542269975e+000
0	 8.200010000009552e+000	 1.466639999981866e+000	 9.970330551262407e+000
0	 8.200010000009550e+000	 1.533309999982383e+000	 9.972394789868528e+000
0	 8.200010000009545e+000	 1.599979999983599e+000	 9.974477502076649e+000
0	 8.200010000009549e+000	 1.666649999985416e+000	 9.976582931875106e+000
0	 8.200010000009550e+000	 1.733319999987733e+000	 9.978715323252231e+000
0	 8.200010000009552e+000	 1.799989999990450e+000	 9.980878920196341e+000
0	 8.200010000009550e+000	 1.866659999993466e+000	 9.983077966695788e+000
0	 8.200010000009549e+000	 1.933329999996683e+000	 9.985316706738889e+000
0	 8.200010000009550e+000	 2.000000000000000e+000	 9.987599384313969e+000
0	 8.266680000012265e+000	 1.333299999983334e+000	 9.957829002623404e+000
0	 8.266680000012265e+000	 1.399969999982150e+000	 9.959859902482974e+000
0	 8.266680000012263e+000	 1.466639999981866e+000	 9.961904579256006e+000
0	 8.266680000012267e+000	 1.533309999982383e+000	 9.963967378473365e+000
0	 8.266680000012265e+000	 1.599979999983599e+000	 9.966052645665917e+000
0	 8.266680000012267e+000	 1.666649999985416e+000	 9.968164726364497e+000
0	 8.266680000012267e+000	 1.733319999987733e+000	 9.970307966099977e+000
0	 8.266680000012263e+000	 1.799989999990449e+000	 9.972486710403214e+000
0	 8.266680000012267e+000	 1.866659999993466e+000	 9.974705304805069e+000
0	 8.266680000012263e+000	 1.933329999996683e+000	 9.976968094836401e+000
0	 8.266680000012267e+000	 2.000000000000000e+000	 9.979279426028073e+000
0	 8.333350000014585e+000	 1.333299999983334e+000	 9.949354892627113e+000
0	 8.333350000014582e+000	 1.399969999982150e+000	 9.951378125535154e+000
0	 8.333350000014582e+000	 1.466639999981866e+000	 9.953419821530618e+000
0	 8.333350000014585e+000	 1.533309999982383e+000	 9.955484334236161e+000
0	 8.333350000014582e+000	 1.599979999983599e+000	 9.957576017274393e+000
0	 8.333350000014583e+000	 1.666649999985416e+000	 9.959699224267967e+000
0	 8.333350000014582e+000	 1.733319999987733e+000	 9.961858308839510e+000
0	 8.333350000014582e+000	 1.799989999990450e+000	 9.964057624611654e+000
0	 8.333350000014583e+000	 1.866659999993466e+000	 9.966301525207046e+000
0	 8.333350000014585e+000	 1.933329999996683e+000	 9.968594364248315e+000
0	 8.333350000014582e+000	 2.000000000000000e+000	 9.970940495358091e+000
0	 8.400020000016399e+000	 1.333299999983334e+000	 9.940805746503596e+000
0	 8.400020000016397e+000	 1.399969999982150e+000	 9.942824891319624e+000
0	 8.400020000016401e+000	 1.466639999981866e+000	 9.944867800156761e+000
0	 8.400020000016401e+000	 1.533309999982383e+000	 9.946938741278677e+000
0	 8.400020000016399e+000	 1.599979999983599e+000	 9.949041982949037e+000
0	 8.400020000016397e+000	 1.666649999985415e+000	 9.951181793431482e+000
0	 8.400020000016401e+000	 1.733319999987733e+000	 9.953362440989682e+000
0	 8.400020000016397e+000	 1.799989999990449e+000	 9.955588193887285e+000
0	 8.400020000016395e+000	 1.866659999993466e+000	 9.957863320387952e+000
0	 8.400020000016399e+000	 1.933329999996683e+000	 9.960192088755347e+000
0	 8.400020000016399e+000	 2.000000000000000e+000	 9.962578767253120e+000
0	 8.466690000017614e+000	 1.333299999983334e+000	 9.932169121842446e+000
0	 8.466690000017616e+000	 1.399969999982150e+000	 9.934189879729480e+000
0	 8.466690000017614e+000	 1.466639999981867e+000	 9.936240037204938e+000
0	 8.466690000017618e+000	 1.533309999982383e+000	 9.938323683722718e+000
0	 8.466690000017614e+000	 1.599979999983600e+000	 9.940444908736762e+000
0	 8.466690000017616e+000	 1.666649999985416e+000	 9.942607801700984e+000
0	 8.466690000017614e+000	 1.733319999987733e+000	 9.944816452069304e+000
0	 8.466690000017614e+000	 1.799989999990450e+000	 9.947074949295679e+000
0	 8.466690000017616e+000	 1.866659999993466e+000	 9.949387382833988e+000
0	 8.466690000017614e+000	 1.933329999996683e+000	 9.951757842138205e+000
0	 8.466690000017618e+000	 2.000000000000000e+000	 9.954190416662229e+000
0	 8.533360000018131e+000	 1.333299999983334e+000	 9.923432576233214e+000
0	 8.533360000018130e+000	 1.399969999982150e+000	 9.925462770657861e+000
0	 8.533360000018131e+000	 1.466639999981867e+000	 9.927528054745672e+000
0	 8.533360000018131e+000	 1.533309999982383e+000	 9.929632245690074e+000
0	 8.533360000018133e+000	 1.599979999983599e+000	 9.931779160684506e+000
0	 8.533360000018135e+000	 1.666649999985417e+000	 9.933972616922416e+000
0	 8.533360000018133e+000	 1.733319999987733e+000	 9.936216431597241e+000
0	 8.533360000018133e+000	 1.799989999990449e+000	 9.938514421902417e+000
0	 8.533360000018131e+000	 1.866659999993466e+000	 9.940870405031395e+000
0	 8.533360000018131e+000	 1.933329999996683e+000	 9.943288198177609e+000
0	 8.533360000018131e+000	 2.000000000000000e+000	 9.945771618534511e+000
0	 8.600030000017849e+000	 1.333299999983334e+000	 9.914583667265488e+000
0	 8.600030000017846e+000	 1.399969999982150e+000	 9.916633243997865e+000
0	 8.600030000017847e+000	 1.466639999981866e+000	 9.918723374849474e+000
0	 8.600030000017849e+000	 1.533309999982383e+000	 9.920857511302526e+000
0	 8.600030000017849e+000	 1.599979999983599e+000	 9.923039104839210e+000
0	 8.600030000017847e+000	 1.666649999985416e+000	 9.925271606941728e+000
0	 8.600030000017847e+000	 1.733319999987733e+000	 9.927558469092300e+000
0	 8.600030000017847e+000	 1.799989999990449e+000	 9.929903142773103e+000
0	 8.600030000017847e+000	 1.866659999993466e+000	 9.932309079466361e+000
0	 8.600030000017847e+000	 1.933329999996683e+000	 9.934779730654270e+000
0	 8.600030000017847e+000	 2.000000000000000e+000	 9.937318547819041e+000
0	 8.666700000016668e+000	 1.333299999983334e+000	 9.905609952528851e+000
0	 8.666700000016668e+000	 1.399969999982150e+000	 9.907690979642595e+000
0	 8.666700000016666e+000	 1.466639999981866e+000	 9.909817519586866e+000
0	 8.666700000016666e+000	 1.533309999982383e+000	 9.911992564681857e+000
0	 8.666700000016665e+000	 1.599979999983599e+000	 9.914219107247797e+000
0	 8.666700000016665e+000	 1.666649999985416e+000	 9.916500139604874e+000
0	 8.666700000016666e+000	 1.733319999987733e+000	 9.918838654073328e+000
0	 8.666700000016665e+000	 1.799989999990450e+000	 9.921237642973340e+000
0	 8.666700000016666e+000	 1.866659999993466e+000	 9.923700098625126e+000
0	 8.666700000016665e+000	 1.933329999996683e+000	 9.926229013348912e+000
0	 8.666700000016668e+000	 2.000000000000000e+000	 9.928827379464904e+000
0	 7.999999999999999e+000	 2.000000000000000e+000	 1.001248367537636e+001
0	 8.000000000000000e+000	 2.066670000003318e+000	 1.001471833978476e+001
0	 8.000000000000000e+000	 2.133340000006534e+000	 1.001691497985491e+001
0	 8.000000000000000e+000	 2.200010000009551e+000	 1.001907941044336e+001
0	 8.000000000000000e+000	 2.266680000012267e+000	 1.002121744640669e+001
0	 7.999999999999999e+000	 2.333350000014584e+000	 1.002333490260147e+001
0	 8.000000000000000e+000	 2.400020000016401e+000	 1.002543759388427e+001
0	 8.000000000000000e+000	 2.466690000017617e+000	 1.002753133511168e+001
0	 8.000000000000000e+000	 2.533360000018134e+000	 1.002962194114026e+001
0	 8.000000000000000e+000	 2.600030000017851e+000	 1.003171522682658e+001
0	 7.999999999999999e+000	 2.666700000016666e+000	 1.003381700702722e+001
0	 8.066670000003319e+000	 2.000000000000000e+000	 1.000419768393719e+001
0	 8.066670000003317e+000	 2.066670000003317e+000	 1.000644651040114e+001
0	 8.066670000003317e+000	 2.133340000006534e+000	 1.000866635705439e+001
0	 8.066670000003315e+000	 2.200010000009551e+000	 1.001086168798796e+001
0	 8.066670000003319e+000	 2.266680000012268e+000	 1.001303696729285e+001
0	 8.066670000003317e+000	 2.333350000014584e+000	 1.001519665906007e+001
0	 8.066670000003317e+000	 2.400020000016401e+000	 1.001734522738065e+001
0	 8.066670000003315e+000	 2.466690000017617e+000	 1.001948713634556e+001
0	 8.066670000003319e+000	 2.533360000018134e+000	 1.002162685004585e+001
0	 8.066670000003317e+000	 2.600030000017850e+000	 1.002376883257249e+001
0	 8.066670000003315e+000	 2.666700000016666e+000	 1.002591754801651e+001
0	 8.133340000006532e+000	 2.000000000000000e+000	 9.995904195266713e+000
0	 8.133340000006536e+000	 2.066670000003317e+000	 9.998174255097030e+000
0	 8.133340000006536e+000	 2.133340000006534e+000	 1.000042304383154e+001
0	 8.133340000006532e+000	 2.200010000009550e+000	 1.000265387356991e+001
0	 8.133340000006534e+000	 2.266680000012267e+000	 1.000487005641176e+001
0	 8.133340000006532e+000	 2.333350000014585e+000	 1.000707490445675e+001
0	 8.133340000006530e+000	 2.400020000016401e+000	 1.000927172980455e+001
0	 8.133340000006532e+000	 2.466690000017616e+000	 1.001146384455480e+001
0	 8.133340000006532e+000	 2.533360000018134e+000	 1.001365456080714e+001
0	 8.133340000006534e+000	 2.600030000017851e+000	 1.001584719066125e+001
0	 8.133340000006532e+000	 2.666700000016665e+000	 1.001804504621675e+001
0	 8.200010000009550e+000	 2.000000000000000e+000	 9.987599384313969e+000
0	 8.200010000009550e+000	 2.066670000003318e+000	 9.989897251403336e+000
0	 8.200010000009549e+000	 2.133340000006534e+000	 9.992180303252114e+000
0	 8.200010000009550e+000	 2.200010000009551e+000	 9.994450898742764e+000
0	 8.200010000009549e+000	 2.266680000012268e+000	 9.996711396757814e+000
0	 8.200010000009547e+000	 2.333350000014584e+000	 9.998964156179763e+000
0	 8.200010000009549e+000	 2.400020000016401e+000	 1.000121153589112e+001
0	 8.200010000009549e+000	 2.466690000017617e+000	 1.000345589477439e+001
0	 8.200010000009550e+000	 2.533360000018134e+000	 1.000569959171207e+001
0	 8.200010000009549e+000	 2.600030000017850e+000	 1.000794498558667e+001
0	 8.200010000009549e+000	 2.666700000016666e+000	 1.001019443528069e+001
0	 8.266680000012267e+000	 2.000000000000000e+000	 9.979279426028073e+000
0	 8.266680000012265e+000	 2.066670000003317e+000	 9.981611176850974e+000
0	 8.266680000012267e+000	 2.133340000006534e+000	 9.983933398381778e+000
0	 8.266680000012265e+000	 2.200010000009550e+000	 9.986247695060071e+000
0	 8.266680000012265e+000	 2.266680000012267e+000	 9.988555671325418e+000
0	 8.266680000012263e+000	 2.333350000014583e+000	 9.990858931617368e+000
0	 8.266680000012268e+000	 2.400020000016401e+000	 9.993159080375497e+000
0	 8.266680000012265e+000	 2.466690000017617e+000	 9.995457722039374e+000
0	 8.266680000012268e+000	 2.533360000018134e+000	 9.997756461048541e+000
0	 8.266680000012267e+000	 2.600030000017851e+000	 1.000005690184258e+001
0	 8.266680000012267e+000	 2.666700000016667e+000	 1.000236064886107e+001
0	 8.333350000014582e+000	 2.000000000000000e+000	 9.970940495358091e+000
0	 8.333350000014583e+000	 2.066670000003317e+000	 9.973311708970789e+000
0	 8.333350000014583e+000	 2.133340000006534e+000	 9.975677592286276e+000
0	 8.333350000014583e+000	 2.200010000009550e+000	 9.978039194075386e+000
0	 8.333350000014582e+000	 2.266680000012267e+000	 9.980397563108964e+000
0	 8.333350000014583e+000	 2.333350000014584e+000	 9.982753748157810e+000
0	 8.333350000014583e+000	 2.400020000016401e+000	 9.985108797992806e+000
0	 8.333350000014585e+000	 2.466690000017617e+000	 9.987463761384744e+000
0	 8.333350000014583e+000	 2.533360000018133e+000	 9.989819687104475e+000
0	 8.333350000014582e+000	 2.600030000017850e+000	 9.992177623922824e+000
0	 8.333350000014583e+000	 2.666700000016667e+000	 9.994538620610632e+000
0	 8.400020000016399e+000	 2.000000000000000e+000	 9.962578767253120e+000
0	 8.400020000016397e+000	 2.066670000003317e+000	 9.964994525293706e+000
0	 8.400020000016395e+000	 2.133340000006534e+000	 9.967408148031325e+000
0	 8.400020000016399e+000	 2.200010000009550e+000	 9.969820327342269e+000
0	 8.400020000016401e+000	 2.266680000012267e+000	 9.972231755102836e+000
0	 8.400020000016399e+000	 2.333350000014584e+000	 9.974643123189379e+000
0	 8.400020000016397e+000	 2.400020000016401e+000	 9.977055123478172e+000
0	 8.400020000016401e+000	 2.466690000017617e+000	 9.979468447845537e+000
0	 8.400020000016399e+000	 2.533360000018133e+000	 9.981883788167780e+000
0	 8.400020000016399e+000	 2.600030000017851e+000	 9.984301836321210e+000
0	 8.400020000016399e+000	 2.666700000016666e+000	 9.986723284182151e+000
0	 8.466690000017618e+000	 2.000000000000000e+000	 9.954190416662229e+000
0	 8.466690000017614e+000	 2.066670000003316e+000	 9.956655303350608e+000
0	 8.466690000017614e+000	 2.133340000006533e+000	 9.959120328682619e+000
0	 8.466690000017614e+000	 2.200010000009550e+000	 9.961586026414235e+000
0	 8.466690000017616e+000	 2.266680000012267e+000	 9.964052930301465e+000
0	 8.466690000017618e+000	 2.333350000014584e+000	 9.966521574100296e+000
0	 8.466690000017618e+000	 2.400020000016401e+000	 9.968992491566725e+000
0	 8.466690000017616e+000	 2.466690000017618e+000	 9.971466216456751e+000
0	 8.466690000017616e+000	 2.533360000018133e+000	 9.973943282526362e+000
0	 8.466690000017616e+000	 2.600030000017851e+000	 9.976424223531559e+000
0	 8.466690000017618e+000	 2.666700000016667e+000	 9.978909573228336e+000
0	 8.533360000018131e+000	 2.000000000000000e+000	 9.945771618534511e+000
0	 8.533360000018131e+000	 2.066670000003317e+000	 9.948289720672404e+000
0	 8.533360000018133e+000	 2.133340000006534e+000	 9.950809397305886e+000
0	 8.533360000018131e+000	 2.200010000009550e+000	 9.953331222844868e+000
0	 8.533360000018131e+000	 2.266680000012267e+000	 9.955855771699222e+000
0	 8.533360000018131e+000	 2.333350000014584e+000	 9.958383618278832e+000
0	 8.533360000018133e+000	 2.400020000016401e+000	 9.960915336993603e+000
0	 8.533360000018131e+000	 2.466690000017617e+000	 9.963451502253411e+000
0	 8.533360000018131e+000	 2.533360000018134e+000	 9.965992688468155e+000
0	 8.533360000018133e+000	 2.600030000017850e+000	 9.968539470047706e+000
0	 8.533360000018131e+000	 2.666700000016666e+000	 9.971092421401961e+000
0	 8.600030000017847e+000	 2.000000000000000e+000	 9.937318547819041e+000
0	 8.600030000017847e+000	 2.066670000003317e+000	 9.939893454789957e+000
0	 8.600030000017849e+000	 2.133340000006534e+000	 9.942470616966842e+000
0	 8.600030000017847e+000	 2.200010000009550e+000	 9.945050848187705e+000
0	 8.600030000017847e+000	 2.266680000012267e+000	 9.947634962290509e+000
0	 8.600030000017847e+000	 2.333350000014584e+000	 9.950223773113262e+000
0	 8.600030000017847e+000	 2.400020000016401e+000	 9.952818094493940e+000
0	 8.600030000017846e+000	 2.466690000017617e+000	 9.955418740270540e+000
0	 8.600030000017849e+000	 2.533360000018134e+000	 9.958026524281056e+000
0	 8.600030000017847e+000	 2.600030000017851e+000	 9.960642260363462e+000
0	 8.600030000017849e+000	 2.666700000016666e+000	 9.963266762355769e+000
0	 8.666700000016668e+000	 2.000000000000000e+000	 9.928827379464904e+000
0	 8.666700000016665e+000	 2.066670000003317e+000	 9.931462183234185e+000
0	 8.666700000016666e+000	 2.133340000006534e+000	 9.934099250731217e+000
0	 8.666700000016666e+000	 2.200010000009550e+000	 9.936739833996294e+000
0	 8.666700000016666e+000	 2.266680000012268e+000	 9.939385185069732e+000
0	 8.666700000016665e+000	 2.333350000014584e+000	 9.942036555991823e+000
0	 8.666700000016666e+000	 2.400020000016401e+000	 9.944695198802851e+000
0	 8.666700000016666e+000	 2.466690000017618e+000	 9.947362365543135e+000
0	 8.666700000016668e+000	 2.533360000018134e+000	 9.950039308252979e+000
0	 8.666700000016666e+000	 2.600030000017850e+000	 9.952727278972656e+000
0	 8.666700000016668e+000	 2.666700000016667e+000	 9.955427529742499e+000
0	 7.999999999999999e+000	 2.666700000016666e+000	 1.003381700702723e+001
0	 8.000000000000000e+000	 2.733360000014533e+000	 1.003589572307751e+001
0	 7.999999999999998e+000	 2.800020000011599e+000	 1.003791716479348e+001
0	 7.999999999999999e+000	 2.866680000008067e+000	 1.003988222121564e+001
0	 8.000000000000000e+000	 2.933340000004133e+000	 1.004179178138448e+001
0	 8.000000000000000e+000	 3.000000000000000e+000	 1.004364673434049e+001
0	 8.000000000000000e+000	 3.066659999995867e+000	 1.004544796912417e+001
0	 7.999999999999999e+000	 3.133319999991933e+000	 1.004719637477601e+001
0	 7.999999999999999e+000	 3.199979999988401e+000	 1.004889284033652e+001
0	 8.000000000000000e+000	 3.266639999985468e+000	 1.005053825484621e+001
0	 7.999999999999999e+000	 3.333299999983334e+000	 1.005213350734557e+001
0	 8.066670000003315e+000	 2.666700000016666e+000	 1.002591754801651e+001
0	 8.066670000003320e+000	 2.733360000014534e+000	 1.002804157380405e+001
0	 8.066670000003317e+000	 2.800020000011600e+000	 1.003010820194128e+001
0	 8.066670000003319e+000	 2.866680000008066e+000	 1.003211899933129e+001
0	 8.066670000003317e+000	 2.933340000004133e+000	 1.003407553287719e+001
0	 8.066670000003319e+000	 3.000000000000000e+000	 1.003597936948207e+001
0	 8.066670000003319e+000	 3.066659999995867e+000	 1.003783207604899e+001
0	 8.066670000003319e+000	 3.133319999991933e+000	 1.003963521948110e+001
0	 8.066670000003317e+000	 3.199979999988401e+000	 1.004139036668145e+001
0	 8.066670000003320e+000	 3.266639999985468e+000	 1.004309908455317e+001
0	 8.066670000003315e+000	 3.333299999983334e+000	 1.004476293999935e+001
0	 8.133340000006532e+000	 2.666700000016665e+000	 1.001804504621675e+001
0	 8.133340000006536e+000	 2.733360000014534e+000	 1.002021705096983e+001
0	 8.133340000006530e+000	 2.800020000011600e+000	 1.002233199648364e+001
0	 8.133340000006534e+000	 2.866680000008066e+000	 1.002439200630035e+001
0	 8.133340000006534e+000	 2.933340000004133e+000	 1.002639920396212e+001
0	 8.133340000006534e+000	 3.000000000000000e+000	 1.002835571301107e+001
0	 8.133340000006532e+000	 3.066659999995867e+000	 1.003026365698938e+001
0	 8.133340000006536e+000	 3.133319999991934e+000	 1.003212515943919e+001
0	 8.133340000006532e+000	 3.199979999988401e+000	 1.003394234390264e+001
0	 8.133340000006536e+000	 3.266639999985467e+000	 1.003571733392192e+001
0	 8.133340000006532e+000	 3.333299999983333e+000	 1.003745225303915e+001
0	 8.200010000009549e+000	 2.666700000016666e+000	 1.001019443528069e+001
0	 8.200010000009550e+000	 2.733360000014532e+000	 1.001241737946470e+001
0	 8.200010000009552e+000	 2.800020000011600e+000	 1.001458406583811e+001
0	 8.200010000009550e+000	 2.866680000008066e+000	 1.001669705335858e+001
0	 8.200010000009549e+000	 2.933340000004133e+000	 1.001875890098378e+001
0	 8.200010000009550e+000	 3.000000000000000e+000	 1.002077216767135e+001
0	 8.200010000009549e+000	 3.066659999995867e+000	 1.002273941237901e+001
0	 8.200010000009550e+000	 3.133319999991933e+000	 1.002466319406439e+001
0	 8.200010000009552e+000	 3.199979999988400e+000	 1.002654607168518e+001
0	 8.200010000009550e+000	 3.266639999985467e+000	 1.002839060419904e+001
0	 8.200010000009550e+000	 3.333299999983334e+000	 1.003019935056366e+001
0	 8.266680000012267e+000	 2.666700000016667e+000	 1.000236064886106e+001
0	 8.266680000012270e+000	 2.733360000014533e+000	 1.000463778417855e+001
0	 8.266680000012265e+000	 2.800020000011599e+000	 1.000685992742221e+001
0	 8.266680000012267e+000	 2.866680000008067e+000	 1.000902995174170e+001
0	 8.266680000012263e+000	 2.933340000004133e+000	 1.001115073028665e+001
0	 8.266680000012263e+000	 2.999999999999999e+000	 1.001322513620673e+001
0	 8.266680000012265e+000	 3.066659999995866e+000	 1.001525604265157e+001
0	 8.266680000012267e+000	 3.133319999991934e+000	 1.001724632277082e+001
0	 8.266680000012265e+000	 3.199979999988401e+000	 1.001919884971413e+001
0	 8.266680000012270e+000	 3.266639999985468e+000	 1.002111649663115e+001
0	 8.266680000012265e+000	 3.333299999983333e+000	 1.002300213667154e+001
0	 8.333350000014583e+000	 2.666700000016667e+000	 9.994538620610632e+000
0	 8.333350000014583e+000	 2.733360000014533e+000	 9.996873490001216e+000
0	 8.333350000014582e+000	 2.800020000011600e+000	 9.999155098653452e+000
0	 8.333350000014583e+000	 2.866680000008067e+000	 1.000138651268545e+001
0	 8.333350000014580e+000	 2.933340000004133e+000	 1.000357079821527e+001
0	 8.333350000014582e+000	 3.000000000000000e+000	 1.000571102136102e+001
0	 8.333350000014583e+000	 3.066659999995867e+000	 1.000781024824075e+001
0	 8.333350000014583e+000	 3.133319999991935e+000	 1.000987154497258e+001
0	 8.333350000014582e+000	 3.199979999988400e+000	 1.001189797767458e+001
0	 8.333350000014585e+000	 3.266639999985468e+000	 1.001389261246485e+001
0	 8.333350000014585e+000	 3.333299999983335e+000	 1.001585851546146e+001
0	 8.400020000016399e+000	 2.666700000016666e+000	 9.986723284182153e+000
0	 8.400020000016401e+000	 2.733360000014533e+000	 9.989119721822556e+000
0	 8.400020000016399e+000	 2.800020000011600e+000	 9.991465096949371e+000
0	 8.400020000016399e+000	 2.866680000008067e+000	 9.993762547425568e+000
0	 8.400020000016401e+000	 2.933340000004133e+000	 9.996015211114125e+000
0	 8.400020000016399e+000	 2.999999999999999e+000	 9.998226225878021e+000
0	 8.400020000016403e+000	 3.066659999995867e+000	 1.000039872958025e+001
0	 8.400020000016401e+000	 3.133319999991934e+000	 1.000253586008378e+001
0	 8.400020000016397e+000	 3.199979999988401e+000	 1.000464075525161e+001
0	 8.400020000016401e+000	 3.266639999985467e+000	 1.000671655294671e+001
0	 8.400020000016399e+000	 3.333299999983334e+000	 1.000876639103210e+001
0	 8.466690000017618e+000	 2.666700000016667e+000	 9.978909573228338e+000
0	 8.466690000017618e+000	 2.733360000014533e+000	 9.981371704532437e+000
0	 8.466690000017614e+000	 2.800020000011600e+000	 9.983785439727482e+000
0	 8.466690000017616e+000	 2.866680000008066e+000	 9.986153867197793e+000
0	 8.466690000017614e+000	 2.933340000004133e+000	 9.988480075327708e+000
0	 8.466690000017616e+000	 3.000000000000000e+000	 9.990767152501576e+000
0	 8.466690000017616e+000	 3.066659999995868e+000	 9.993018187103726e+000
0	 8.466690000017612e+000	 3.133319999991933e+000	 9.995236267518514e+000
0	 8.466690000017614e+000	 3.199979999988400e+000	 9.997424482130288e+000
0	 8.466690000017618e+000	 3.266639999985468e+000	 9.999585919323380e+000
0	 8.466690000017616e+000	 3.333299999983334e+000	 1.000172366748214e+001
0	 8.533360000018131e+000	 2.666700000016666e+000	 9.971092421401961e+000
0	 8.533360000018131e+000	 2.733360000014533e+000	 9.973624663020736e+000
0	 8.533360000018131e+000	 2.800020000011600e+000	 9.976111644405302e+000
0	 8.533360000018131e+000	 2.866680000008067e+000	 9.978556283237850e+000
0	 8.533360000018130e+000	 2.933340000004133e+000	 9.980961497200527e+000
0	 8.533360000018131e+000	 3.000000000000000e+000	 9.983330203975495e+000
0	 8.533360000018131e+000	 3.066659999995867e+000	 9.985665321244898e+000
0	 8.533360000018131e+000	 3.133319999991934e+000	 9.987969766690910e+000
0	 8.533360000018130e+000	 3.199979999988400e+000	 9.990246457995697e+000
0	 8.533360000018131e+000	 3.266639999985467e+000	 9.992498312841411e+000
0	 8.533360000018131e+000	 3.333299999983334e+000	 9.994728248910228e+000
0	 8.600030000017849e+000	 2.666700000016666e+000	 9.963266762355771e+000
0	 8.600030000017851e+000	 2.733360000014533e+000	 9.965873822177278e+000
0	 8.600030000017847e+000	 2.800020000011599e+000	 9.968439228400372e+000
0	 8.600030000017847e+000	 2.866680000008066e+000	 9.970965606781499e+000
0	 8.600030000017847e+000	 2.933340000004133e+000	 9.973455583077099e+000
0	 8.600030000017849e+000	 3.000000000000000e+000	 9.975911783043594e+000
0	 8.600030000017846e+000	 3.066659999995866e+000	 9.978336832437433e+000
0	 8.600030000017849e+000	 3.133319999991933e+000	 9.980733357015053e+000
0	 8.600030000017849e+000	 3.199979999988400e+000	 9.983103982532915e+000
0	 8.600030000017847e+000	 3.266639999985467e+000	 9.985451334747426e+000
0	 8.600030000017847e+000	 3.333299999983333e+000	 9.987778039415048e+000
0	 8.666700000016668e+000	 2.666700000016667e+000	 9.955427529742499e+000
0	 8.666700000016666e+000	 2.733360000014533e+000	 9.958114406891941e+000
0	 8.666700000016668e+000	 2.800020000011600e+000	 9.960763709130200e+000
0	 8.666700000016665e+000	 2.866680000008067e+000	 9.963377649064466e+000
0	 8.666700000016665e+000	 2.933340000004133e+000	 9.965958439301906e+000
0	 8.666700000016666e+000	 3.000000000000000e+000	 9.968508292449702e+000
0	 8.666700000016666e+000	 3.066659999995867e+000	 9.971029421115031e+000
0	 8.666700000016666e+000	 3.133319999991933e+000	 9.973524037905074e+000
0	 8.666700000016668e+000	 3.199979999988400e+000	 9.975994355427007e+000
0	 8.666700000016666e+000	 3.266639999985468e+000	 9.978442586288018e+000
0	 8.666700000016668e+000	 3.333299999983334e+000	 9.980870943095276e+000
0	 7.999999999999999e+000	 3.333299999983334e+000	 1.005213350734557e+001
0	 8.000000000000000e+000	 3.399969999982150e+000	 1.005366664224639e+001
0	 8.000000000000002e+000	 3.466639999981866e+000	 1.005512519453438e+001
0	 8.000000000000000e+000	 3.533309999982383e+000	 1.005650999589202e+001
0	 8.000000000000000e+000	 3.599979999983600e+000	 1.005782187800187e+001
0	 7.999999999999999e+000	 3.666649999985416e+000	 1.005906167254643e+001
0	 7.999999999999999e+000	 3.733319999987733e+000	 1.006023021120821e+001
0	 8.000000000000000e+000	 3.799989999990450e+000	 1.006132832566973e+001
0	 7.999999999999999e+000	 3.866659999993467e+000	 1.006235684761351e+001
0	 8.000000000000000e+000	 3.933329999996683e+000	 1.006331660872207e+001
0	 8.000000000000000e+000	 4.000000000000001e+000	 1.006420844067791e+001
0	 8.066670000003315e+000	 3.333299999983334e+000	 1.004476293999935e+001
0	 8.066670000003319e+000	 3.399969999982150e+000	 1.004636904555448e+001
0	 8.066670000003319e+000	 3.466639999981866e+000	 1.004790344799004e+001
0	 8.066670000003313e+000	 3.533309999982382e+000	 1.004936685451441e+001
0	 8.066670000003319e+000	 3.599979999983600e+000	 1.005075997233591e+001
0	 8.066670000003317e+000	 3.666649999985416e+000	 1.005208350866293e+001
0	 8.066670000003317e+000	 3.733319999987733e+000	 1.005333817070382e+001
0	 8.066670000003317e+000	 3.799989999990450e+000	 1.005452466566696e+001
0	 8.066670000003319e+000	 3.866659999993467e+000	 1.005564370076069e+001
0	 8.066670000003319e+000	 3.933329999996684e+000	 1.005669598319338e+001
0	 8.066670000003319e+000	 4.000000000000001e+000	 1.005768222017337e+001
0	 8.133340000006532e+000	 3.333299999983333e+000	 1.003745225303915e+001
0	 8.133340000006532e+000	 3.399969999982150e+000	 1.003913331017985e+001
0	 8.133340000006534e+000	 3.466639999981867e+000	 1.004074518727609e+001
0	 8.133340000006530e+000	 3.533309999982381e+000	 1.004228848947329e+001
0	 8.133340000006530e+000	 3.599979999983600e+000	 1.004376382191686e+001
0	 8.133340000006532e+000	 3.666649999985416e+000	 1.004517178975219e+001
0	 8.133340000006534e+000	 3.733319999987732e+000	 1.004651299812476e+001
0	 8.133340000006536e+000	 3.799989999990451e+000	 1.004778805217991e+001
0	 8.133340000006532e+000	 3.866659999993467e+000	 1.004899755706310e+001
0	 8.133340000006534e+000	 3.933329999996684e+000	 1.005014211791972e+001
0	 8.133340000006536e+000	 4.000000000000001e+000	 1.005122233989518e+001
0	 8.200010000009550e+000	 3.333299999983334e+000	 1.003019935056366e+001
0	 8.200010000009547e+000	 3.399969999982150e+000	 1.003195765141447e+001
0	 8.200010000009552e+000	 3.466639999981867e+000	 1.003364895417863e+001
0	 8.200010000009550e+000	 3.533309999982383e+000	 1.003527378434982e+001
0	 8.200010000009549e+000	 3.599979999983601e+000	 1.003683266742171e+001
0	 8.200010000009549e+000	 3.666649999985416e+000	 1.003832612888796e+001
0	 8.200010000009552e+000	 3.733319999987733e+000	 1.003975469424227e+001
0	 8.200010000009550e+000	 3.799989999990450e+000	 1.004111888897829e+001
0	 8.200010000009550e+000	 3.866659999993467e+000	 1.004241923858971e+001
0	 8.200010000009550e+000	 3.933329999996683e+000	 1.004365626857018e+001
0	 8.200010000009550e+000	 4.000000000000000e+000	 1.004483050441340e+001
0	 8.266680000012265e+000	 3.333299999983333e+000	 1.002300213667154e+001
0	 8.266680000012265e+000	 3.399969999982150e+000	 1.002484028455033e+001
0	 8.266680000012263e+000	 3.466639999981866e+000	 1.002661329048382e+001
0	 8.266680000012267e+000	 3.533309999982382e+000	 1.002832162272516e+001
0	 8.266680000012268e+000	 3.599979999983600e+000	 1.002996574952747e+001
0	 8.266680000012265e+000	 3.666649999985416e+000	 1.003154613914392e+001
0	 8.266680000012267e+000	 3.733319999987733e+000	 1.003306325982765e+001
0	 8.266680000012265e+000	 3.799989999990450e+000	 1.003451757983178e+001
0	 8.266680000012267e+000	 3.866659999993466e+000	 1.003590956740948e+001
0	 8.266680000012265e+000	 3.933329999996684e+000	 1.003723969081385e+001
0	 8.266680000012265e+000	 3.999999999999999e+000	 1.003850841829807e+001
0	 8.333350000014585e+000	 3.333299999983335e+000	 1.001585851546146e+001
0	 8.333350000014582e+000	 3.399969999982150e+000	 1.001777942487940e+001
0	 8.333350000014582e+000	 3.466639999981866e+000	 1.001963673797777e+001
0	 8.333350000014583e+000	 3.533309999982383e+000	 1.002143088818042e+001
0	 8.333350000014582e+000	 3.599979999983599e+000	 1.002316230891116e+001
0	 8.333350000014582e+000	 3.666649999985416e+000	 1.002483143359380e+001
0	 8.333350000014583e+000	 3.733319999987733e+000	 1.002643869565216e+001
0	 8.333350000014583e+000	 3.799989999990450e+000	 1.002798452851008e+001
0	 8.333350000014583e+000	 3.866659999993467e+000	 1.002946936559136e+001
0	 8.333350000014585e+000	 3.933329999996683e+000	 1.003089364031982e+001
0	 8.333350000014582e+000	 4.000000000000000e+000	 1.003225778611926e+001
0	 8.400020000016399e+000	 3.333299999983334e+000	 1.000876639103210e+001
0	 8.400020000016397e+000	 3.399969999982150e+000	 1.001077328769365e+001
0	 8.400020000016397e+000	 3.466639999981866e+000	 1.001271783844663e+001
0	 8.400020000016401e+000	 3.533309999982383e+000	 1.001460046429676e+001
0	 8.400020000016401e+000	 3.599979999983600e+000	 1.001642158624975e+001
0	 8.400020000016397e+000	 3.666649999985415e+000	 1.001818162531130e+001
0	 8.400020000016399e+000	 3.733319999987732e+000	 1.001988100248711e+001
0	 8.400020000016399e+000	 3.799989999990450e+000	 1.002152013878288e+001
0	 8.400020000016401e+000	 3.866659999993467e+000	 1.002309945520433e+001
0	 8.400020000016399e+000	 3.933329999996684e+000	 1.002461937275715e+001
0	 8.400020000016399e+000	 4.000000000000000e+000	 1.002608031244704e+001
0	 8.466690000017616e+000	 3.333299999983334e+000	 1.000172366748214e+001
0	 8.466690000017616e+000	 3.399969999982150e+000	 1.000382008828505e+001
0	 8.466690000017614e+000	 3.466639999981867e+000	 1.000585513367651e+001
0	 8.466690000017618e+000	 3.533309999982383e+000	 1.000782923465531e+001
0	 8.466690000017614e+000	 3.599979999983599e+000	 1.000974282222026e+001
0	 8.466690000017616e+000	 3.666649999985417e+000	 1.001159632737014e+001
0	 8.466690000017616e+000	 3.733319999987733e+000	 1.001339018110375e+001
0	 8.466690000017616e+000	 3.799989999990451e+000	 1.001512481441989e+001
0	 8.466690000017616e+000	 3.866659999993467e+000	 1.001680065831735e+001
0	 8.466690000017616e+000	 3.933329999996684e+000	 1.001841814379495e+001
0	 8.466690000017618e+000	 4.000000000000001e+000	 1.001997770185145e+001
0	 8.533360000018131e+000	 3.333299999983334e+000	 9.994728248910228e+000
0	 8.533360000018130e+000	 3.399969999982149e+000	 9.996918041945600e+000
0	 8.533360000018131e+000	 3.466639999981866e+000	 9.999047165453559e+000
0	 8.533360000018131e+000	 3.533309999982382e+000	 1.000111608283722e+001
0	 8.533360000018131e+000	 3.599979999983599e+000	 1.000312525749967e+001
0	 8.533360000018133e+000	 3.666649999985417e+000	 1.000507515284403e+001
0	 8.533360000018131e+000	 3.733319999987733e+000	 1.000696623227336e+001
0	 8.533360000018133e+000	 3.799989999990450e+000	 1.000879895919078e+001
0	 8.533360000018131e+000	 3.866659999993467e+000	 1.001057379699939e+001
0	 8.533360000018131e+000	 3.933329999996683e+000	 1.001229120910229e+001
0	 8.533360000018131e+000	 4.000000000000001e+000	 1.001395165890254e+001
0	 8.600030000017847e+000	 3.333299999983333e+000	 9.987778039415048e+000
0	 8.600030000017847e+000	 3.399969999982150e+000	 9.990065363967256e+000
0	 8.600030000017847e+000	 3.466639999981866e+000	 9.992292475563904e+000
0	 8.600030000017849e+000	 3.533309999982383e+000	 9.994459892423620e+000
0	 8.600030000017847e+000	 3.599979999983600e+000	 9.996568132765008e+000
0	 8.600030000017847e+000	 3.666649999985415e+000	 9.998617714806665e+000
0	 8.600030000017846e+000	 3.733319999987732e+000	 1.000060915676722e+001
0	 8.600030000017847e+000	 3.799989999990450e+000	 1.000254297686525e+001
0	 8.600030000017849e+000	 3.866659999993467e+000	 1.000441969331939e+001
0	 8.600030000017847e+000	 3.933329999996684e+000	 1.000623982434823e+001
0	 8.600030000017846e+000	 3.999999999999999e+000	 1.000800388817039e+001
0	 8.666700000016668e+000	 3.333299999983334e+000	 9.980870943095276e+000
0	 8.666700000016665e+000	 3.399969999982149e+000	 9.983260269641994e+000
0	 8.666700000016665e+000	 3.466639999981867e+000	 9.985589605793681e+000
0	 8.666700000016666e+000	 3.533309999982384e+000	 9.987859546995646e+000
0	 8.666700000016666e+000	 3.599979999983600e+000	 9.990070688693246e+000
0	 8.666700000016665e+000	 3.666649999985415e+000	 9.992223626331780e+000
0	 8.666700000016666e+000	 3.733319999987733e+000	 9.994318955356597e+000
0	 8.666700000016665e+000	 3.799989999990450e+000	 9.996357271213011e+000
0	 8.666700000016668e+000	 3.866659999993467e+000	 9.998339169346329e+000
0	 8.666700000016666e+000	 3.933329999996683e+000	 1.000026524520190e+001
0	 8.666700000016668e+000	 4.000000000000000e+000	 1.000213609422502e+001
0	 8.000000000000000e+000	 4.000000000000001e+000	 1.006420844067791e+001
0	 7.999999999999999e+000	 4.066670000003318e+000	 1.006502993543837e+001
0	 8.000000000000000e+000	 4.133340000006534e+000	 1.006577790704874e+001
0	 7.999999999999998e+000	 4.200010000009550e+000	 1.006645202032340e+001
0	 8.000000000000000e+000	 4.266680000012268e+000	 1.006705194007678e+001
0	 7.999999999999998e+000	 4.333350000014583e+000	 1.006757733112327e+001
0	 8.000000000000000e+000	 4.400020000016401e+000	 1.006802785827730e+001
0	 8.000000000000000e+000	 4.466690000017618e+000	 1.006840318635325e+001
0	 8.000000000000000e+000	 4.533360000018135e+000	 1.006870298016555e+001
0	 8.000000000000000e+000	 4.600030000017850e+000	 1.006892690452858e+001
0	 7.999999999999998e+000	 4.666700000016665e+000	 1.006907462425676e+001
0	 8.066670000003319e+000	 4.000000000000001e+000	 1.005768222017337e+001
0	 8.066670000003319e+000	 4.066670000003319e+000	 1.005859979921803e+001
0	 8.066670000003315e+000	 4.133340000006533e+000	 1.005944538345013e+001
0	 8.066670000003313e+000	 4.200010000009549e+000	 1.006021859348623e+001
0	 8.066670000003319e+000	 4.266680000012268e+000	 1.006091904994283e+001
0	 8.066670000003317e+000	 4.333350000014583e+000	 1.006154637343645e+001
0	 8.066670000003317e+000	 4.400020000016401e+000	 1.006210018458362e+001
0	 8.066670000003313e+000	 4.466690000017617e+000	 1.006258010400087e+001
0	 8.066670000003319e+000	 4.533360000018134e+000	 1.006298575230472e+001
0	 8.066670000003317e+000	 4.600030000017849e+000	 1.006331675011168e+001
0	 8.066670000003315e+000	 4.666700000016666e+000	 1.006357271803827e+001
0	 8.133340000006536e+000	 4.000000000000001e+000	 1.005122233989518e+001
0	 8.133340000006536e+000	 4.066670000003317e+000	 1.005223547425744e+001
0	 8.133340000006534e+000	 4.133340000006534e+000	 1.005317809512034e+001
0	 8.133340000006534e+000	 4.200010000009550e+000	 1.005404979189811e+001
0	 8.133340000006534e+000	 4.266680000012268e+000	 1.005485015400500e+001
0	 8.133340000006532e+000	 4.333350000014584e+000	 1.005557877085528e+001
0	 8.133340000006532e+000	 4.400020000016403e+000	 1.005623523186315e+001
0	 8.133340000006532e+000	 4.466690000017618e+000	 1.005681912644288e+001
0	 8.133340000006532e+000	 4.533360000018134e+000	 1.005733004400869e+001
0	 8.133340000006532e+000	 4.600030000017851e+000	 1.005776757397483e+001
0	 8.133340000006534e+000	 4.666700000016668e+000	 1.005813130575552e+001
0	 8.200010000009550e+000	 4.000000000000000e+000	 1.004483050441340e+001
0	 8.200010000009550e+000	 4.066670000003317e+000	 1.004593910237573e+001
0	 8.200010000009550e+000	 4.133340000006535e+000	 1.004697858252285e+001
0	 8.200010000009550e+000	 4.200010000009550e+000	 1.004794851606230e+001
0	 8.200010000009550e+000	 4.266680000012268e+000	 1.004884847420168e+001
0	 8.200010000009547e+000	 4.333350000014582e+000	 1.004967802814852e+001
0	 8.200010000009547e+000	 4.400020000016402e+000	 1.005043674911039e+001
0	 8.200010000009550e+000	 4.466690000017619e+000	 1.005112420829485e+001
0	 8.200010000009550e+000	 4.533360000018134e+000	 1.005173997690946e+001
0	 8.200010000009549e+000	 4.600030000017851e+000	 1.005228362616177e+001
0	 8.200010000009550e+000	 4.666700000016667e+000	 1.005275472725935e+001
0	 8.266680000012265e+000	 3.999999999999999e+000	 1.003850841829807e+001
0	 8.266680000012267e+000	 4.066670000003318e+000	 1.003971282539204e+001
0	 8.266680000012268e+000	 4.133340000006534e+000	 1.004084938612122e+001
0	 8.266680000012265e+000	 4.200010000009550e+000	 1.004191766648209e+001
0	 8.266680000012265e+000	 4.266680000012268e+000	 1.004291723247118e+001
0	 8.266680000012265e+000	 4.333350000014584e+000	 1.004384765008492e+001
0	 8.266680000012267e+000	 4.400020000016401e+000	 1.004470848531983e+001
0	 8.266680000012267e+000	 4.466690000017618e+000	 1.004549930417238e+001
0	 8.266680000012265e+000	 4.533360000018133e+000	 1.004621967263903e+001
0	 8.266680000012267e+000	 4.600030000017851e+000	 1.004686915671628e+001
0	 8.266680000012267e+000	 4.666700000016667e+000	 1.004744732240063e+001
0	 8.333350000014582e+000	 4.000000000000000e+000	 1.003225778611926e+001
0	 8.333350000014583e+000	 4.066670000003319e+000	 1.003355878512546e+001
0	 8.333350000014582e+000	 4.133340000006534e+000	 1.003479304637895e+001
0	 8.333350000014583e+000	 4.200010000009550e+000	 1.003596014366073e+001
0	 8.333350000014582e+000	 4.266680000012268e+000	 1.003705965075183e+001
0	 8.333350000014583e+000	 4.333350000014584e+000	 1.003809114143324e+001
0	 8.333350000014582e+000	 4.400020000016401e+000	 1.003905418948597e+001
0	 8.333350000014585e+000	 4.466690000017616e+000	 1.003994836869101e+001
0	 8.333350000014583e+000	 4.533360000018132e+000	 1.004077325282940e+001
0	 8.333350000014582e+000	 4.600030000017849e+000	 1.004152841568210e+001
0	 8.333350000014585e+000	 4.666700000016668e+000	 1.004221343103015e+001
0	 8.400020000016399e+000	 4.000000000000000e+000	 1.002608031244704e+001
0	 8.400020000016399e+000	 4.066670000003316e+000	 1.002747912339515e+001
0	 8.400020000016397e+000	 4.133340000006535e+000	 1.002881210375958e+001
0	 8.400020000016399e+000	 4.200010000009550e+000	 1.003007884810149e+001
0	 8.400020000016401e+000	 4.266680000012267e+000	 1.003127895098198e+001
0	 8.400020000016401e+000	 4.333350000014584e+000	 1.003241200696221e+001
0	 8.400020000016397e+000	 4.400020000016402e+000	 1.003347761060329e+001
0	 8.400020000016401e+000	 4.466690000017616e+000	 1.003447535646636e+001
0	 8.400020000016395e+000	 4.533360000018133e+000	 1.003540483911255e+001
0	 8.400020000016399e+000	 4.600030000017850e+000	 1.003626565310298e+001
0	 8.400020000016399e+000	 4.666700000016666e+000	 1.003705739299879e+001
0	 8.466690000017618e+000	 4.000000000000001e+000	 1.001997770185145e+001
0	 8.466690000017614e+000	 4.066670000003316e+000	 1.002147598202022e+001
0	 8.466690000017614e+000	 4.133340000006533e+000	 1.002290909872666e+001
0	 8.466690000017614e+000	 4.200010000009550e+000	 1.002427668030762e+001
0	 8.466690000017616e+000	 4.266680000012268e+000	 1.002557835509999e+001
0	 8.466690000017616e+000	 4.333350000014582e+000	 1.002681375144060e+001
0	 8.466690000017618e+000	 4.400020000016401e+000	 1.002798249766630e+001
0	 8.466690000017618e+000	 4.466690000017619e+000	 1.002908422211399e+001
0	 8.466690000017614e+000	 4.533360000018133e+000	 1.003011855312049e+001
0	 8.466690000017618e+000	 4.600030000017850e+000	 1.003108511902267e+001
0	 8.466690000017616e+000	 4.666700000016666e+000	 1.003198354815737e+001
0	 8.533360000018131e+000	 4.000000000000001e+000	 1.001395165890254e+001
0	 8.533360000018131e+000	 4.066670000003317e+000	 1.001555150281979e+001
0	 8.533360000018133e+000	 4.133340000006534e+000	 1.001708657174369e+001
0	 8.533360000018131e+000	 4.200010000009550e+000	 1.001855654078240e+001
0	 8.533360000018131e+000	 4.266680000012268e+000	 1.001996108504417e+001
0	 8.533360000018131e+000	 4.333350000014583e+000	 1.002129987963714e+001
0	 8.533360000018131e+000	 4.400020000016402e+000	 1.002257259966952e+001
0	 8.533360000018131e+000	 4.466690000017617e+000	 1.002377892024948e+001
0	 8.533360000018133e+000	 4.533360000018134e+000	 1.002491851648521e+001
0	 8.533360000018133e+000	 4.600030000017851e+000	 1.002599106348490e+001
0	 8.533360000018131e+000	 4.666700000016666e+000	 1.002699623635674e+001
0	 8.600030000017846e+000	 3.999999999999999e+000	 1.000800388817039e+001
0	 8.600030000017849e+000	 4.066670000003319e+000	 1.000970782761297e+001
0	 8.600030000017849e+000	 4.133340000006535e+000	 1.001134706327419e+001
0	 8.600030000017847e+000	 4.200010000009550e+000	 1.001292133002910e+001
0	 8.600030000017847e+000	 4.266680000012268e+000	 1.001443036275287e+001
0	 8.600030000017847e+000	 4.333350000014583e+000	 1.001587389632060e+001
0	 8.600030000017847e+000	 4.400020000016401e+000	 1.001725166560741e+001
0	 8.600030000017846e+000	 4.466690000017617e+000	 1.001856340548840e+001
0	 8.600030000017849e+000	 4.533360000018132e+000	 1.001980885083871e+001
0	 8.600030000017849e+000	 4.600030000017850e+000	 1.002098773653344e+001
0	 8.600030000017847e+000	 4.666700000016666e+000	 1.002209979744770e+001
0	 8.666700000016668e+000	 4.000000000000000e+000	 1.000213609422503e+001
0	 8.666700000016666e+000	 4.066670000003317e+000	 1.000394709821892e+001
0	 8.666700000016666e+000	 4.133340000006535e+000	 1.000569311378169e+001
0	 8.666700000016668e+000	 4.200010000009551e+000	 1.000737394855098e+001
0	 8.666700000016666e+000	 4.266680000012268e+000	 1.000898941016445e+001
0	 8.666700000016666e+000	 4.333350000014585e+000	 1.001053930625972e+001
0	 8.666700000016666e+000	 4.400020000016401e+000	 1.001202344447447e+001
0	 8.666700000016666e+000	 4.466690000017618e+000	 1.001344163244634e+001
0	 8.666700000016668e+000	 4.533360000018134e+000	 1.001479367781298e+001
0	 8.666700000016666e+000	 4.600030000017851e+000	 1.001607938821204e+001
0	 8.666700000016668e+000	 4.666700000016666e+000	 1.001729857128115e+001
0	 7.999999999999998e+000	 4.666700000016665e+000	 1.006907462425676e+001
0	 8.000000000000000e+000	 4.733360000014532e+000	 1.006915688521513e+001
0	 8.000000000000000e+000	 4.800020000011601e+000	 1.006918366838638e+001
0	 8.000000000000000e+000	 4.866680000008068e+000	 1.006915344198638e+001
0	 7.999999999999998e+000	 4.933340000004133e+000	 1.006906467423093e+001
0	 7.999999999999999e+000	 5.000000000000000e+000	 1.006891583333591e+001
0	 8.000000000000000e+000	 5.066659999995867e+000	 1.006870538751714e+001
0	 8.000000000000000e+000	 5.133319999991934e+000	 1.006843180499045e+001
0	 8.000000000000000e+000	 5.199979999988400e+000	 1.006809355397172e+001
0	 8.000000000000000e+000	 5.266639999985468e+000	 1.006768910267674e+001
0	 8.000000000000000e+000	 5.333299999983333e+000	 1.006721691932141e+001
0	 8.066670000003315e+000	 4.666700000016666e+000	 1.006357271803827e+001
0	 8.066670000003319e+000	 4.733360000014533e+000	 1.006376329473845e+001
0	 8.066670000003313e+000	 4.800020000011598e+000	 1.006389753868770e+001
0	 8.066670000003320e+000	 4.866680000008067e+000	 1.006397410199289e+001
0	 8.066670000003319e+000	 4.933340000004134e+000	 1.006399163676082e+001
0	 8.066670000003320e+000	 5.000000000000001e+000	 1.006394879509832e+001
0	 8.066670000003319e+000	 5.066659999995867e+000	 1.006384422911226e+001
0	 8.066670000003319e+000	 5.133319999991934e+000	 1.006367659090944e+001
0	 8.066670000003317e+000	 5.199979999988400e+000	 1.006344453259671e+001
0	 8.066670000003319e+000	 5.266639999985468e+000	 1.006314670628093e+001
0	 8.066670000003313e+000	 5.333299999983333e+000	 1.006278176406893e+001
0	 8.133340000006534e+000	 4.666700000016668e+000	 1.005813130575552e+001
0	 8.133340000006536e+000	 4.733360000014532e+000	 1.005842974135069e+001
0	 8.133340000006530e+000	 4.800020000011599e+000	 1.005867096674090e+001
0	 8.133340000006534e+000	 4.866680000008065e+000	 1.005885380030558e+001
0	 8.133340000006534e+000	 4.933340000004134e+000	 1.005897706042419e+001
0	 8.133340000006536e+000	 5.000000000000002e+000	 1.005903956547618e+001
0	 8.133340000006532e+000	 5.066659999995866e+000	 1.005904013384101e+001
0	 8.133340000006536e+000	 5.133319999991933e+000	 1.005897758389812e+001
0	 8.133340000006530e+000	 5.199979999988400e+000	 1.005885073402696e+001
0	 8.133340000006534e+000	 5.266639999985468e+000	 1.005865840260699e+001
0	 8.133340000006532e+000	 5.333299999983334e+000	 1.005839940801769e+001
0	 8.200010000009550e+000	 4.666700000016667e+000	 1.005275472725936e+001
0	 8.200010000009550e+000	 4.733360000014533e+000	 1.005316063618788e+001
0	 8.200010000009554e+000	 4.800020000011601e+000	 1.005350843654914e+001
0	 8.200010000009550e+000	 4.866680000008065e+000	 1.005379709537682e+001
0	 8.200010000009550e+000	 4.933340000004133e+000	 1.005402557970461e+001
0	 8.200010000009550e+000	 5.000000000000001e+000	 1.005419285656619e+001
0	 8.200010000009549e+000	 5.066659999995867e+000	 1.005429789299524e+001
0	 8.200010000009550e+000	 5.133319999991934e+000	 1.005433965602546e+001
0	 8.200010000009552e+000	 5.199979999988400e+000	 1.005431711269055e+001
0	 8.200010000009550e+000	 5.266639999985467e+000	 1.005422923002419e+001
0	 8.200010000009550e+000	 5.333299999983333e+000	 1.005407497506008e+001
0	 8.266680000012267e+000	 4.666700000016667e+000	 1.004744732240063e+001
0	 8.266680000012268e+000	 4.733360000014534e+000	 1.004796039038603e+001
0	 8.266680000012263e+000	 4.800020000011599e+000	 1.004841443211565e+001
0	 8.266680000012265e+000	 4.866680000008066e+000	 1.004880854565898e+001
0	 8.266680000012265e+000	 4.933340000004133e+000	 1.004914182908559e+001
0	 8.266680000012265e+000	 5.000000000000000e+000	 1.004941338046502e+001
0	 8.266680000012267e+000	 5.066659999995867e+000	 1.004962229786680e+001
0	 8.266680000012267e+000	 5.133319999991935e+000	 1.004976767936048e+001
0	 8.266680000012265e+000	 5.199979999988400e+000	 1.004984862301564e+001
0	 8.266680000012268e+000	 5.266639999985468e+000	 1.004986422690180e+001
0	 8.266680000012265e+000	 5.333299999983334e+000	 1.004981358908851e+001
0	 8.333350000014585e+000	 4.666700000016668e+000	 1.004221343103015e+001
0	 8.333350000014585e+000	 4.733360000014534e+000	 1.004283341508118e+001
0	 8.333350000014580e+000	 4.800020000011601e+000	 1.004339343744358e+001
0	 8.333350000014580e+000	 4.866680000008065e+000	 1.004389270960441e+001
0	 8.333350000014578e+000	 4.933340000004132e+000	 1.004433044305065e+001
0	 8.333350000014582e+000	 4.999999999999998e+000	 1.004470584926934e+001
0	 8.333350000014582e+000	 5.066659999995868e+000	 1.004501813974751e+001
0	 8.333350000014580e+000	 5.133319999991934e+000	 1.004526652597217e+001
0	 8.333350000014580e+000	 5.199979999988400e+000	 1.004545021943035e+001
0	 8.333350000014583e+000	 5.266639999985467e+000	 1.004556843160908e+001
0	 8.333350000014585e+000	 5.333299999983336e+000	 1.004562037399538e+001
0	 8.400020000016399e+000	 4.666700000016666e+000	 1.003705739299879e+001
0	 8.400020000016401e+000	 4.733360000014534e+000	 1.003778412140932e+001
0	 8.400020000016399e+000	 4.800020000011600e+000	 1.003844993653615e+001
0	 8.400020000016399e+000	 4.866680000008065e+000	 1.003905414566546e+001
0	 8.400020000016401e+000	 4.933340000004133e+000	 1.003959605608333e+001
0	 8.400020000016401e+000	 4.999999999999999e+000	 1.004007497507588e+001
0	 8.400020000016403e+000	 5.066659999995867e+000	 1.004049020992923e+001
0	 8.400020000016399e+000	 5.133319999991934e+000	 1.004084106792950e+001
0	 8.400020000016397e+000	 5.199979999988400e+000	 1.004112685636280e+001
0	 8.400020000016401e+000	 5.266639999985468e+000	 1.004134688251530e+001
0	 8.400020000016397e+000	 5.333299999983332e+000	 1.004150045367310e+001
0	 8.466690000017616e+000	 4.666700000016666e+000	 1.003198354815737e+001
0	 8.466690000017618e+000	 4.733360000014533e+000	 1.003281692050646e+001
0	 8.466690000017614e+000	 4.800020000011601e+000	 1.003358841339657e+001
0	 8.466690000017618e+000	 4.866680000008068e+000	 1.003429741229452e+001
0	 8.466690000017616e+000	 4.933340000004134e+000	 1.003494330266715e+001
0	 8.466690000017618e+000	 5.000000000000000e+000	 1.003552546998128e+001
0	 8.466690000017614e+000	 5.066659999995866e+000	 1.003604329970378e+001
0	 8.466690000017616e+000	 5.133319999991934e+000	 1.003649617730146e+001
0	 8.466690000017612e+000	 5.199979999988399e+000	 1.003688348824116e+001
0	 8.466690000017616e+000	 5.266639999985467e+000	 1.003720461798974e+001
0	 8.466690000017618e+000	 5.333299999983334e+000	 1.003745895201403e+001
0	 8.533360000018131e+000	 4.666700000016666e+000	 1.002699623635674e+001
0	 8.533360000018130e+000	 4.733360000014534e+000	 1.002793622350866e+001
0	 8.533360000018135e+000	 4.800020000011601e+000	 1.002881335202801e+001
0	 8.533360000018131e+000	 4.866680000008066e+000	 1.002962706794394e+001
0	 8.533360000018133e+000	 4.933340000004134e+000	 1.003037681728563e+001
0	 8.533360000018133e+000	 5.000000000000001e+000	 1.003106204608225e+001
0	 8.533360000018133e+000	 5.066659999995866e+000	 1.003168220036299e+001
0	 8.533360000018131e+000	 5.133319999991934e+000	 1.003223672615701e+001
0	 8.533360000018131e+000	 5.199979999988400e+000	 1.003272506949352e+001
0	 8.533360000018133e+000	 5.266639999985468e+000	 1.003314667640165e+001
0	 8.533360000018131e+000	 5.333299999983332e+000	 1.003350099291062e+001
0	 8.600030000017847e+000	 4.666700000016666e+000	 1.002209979744771e+001
0	 8.600030000017849e+000	 4.733360000014534e+000	 1.002314644155192e+001
0	 8.600030000017849e+000	 4.800020000011600e+000	 1.002412923643366e+001
0	 8.600030000017846e+000	 4.866680000008065e+000	 1.002504767106608e+001
0	 8.600030000017846e+000	 4.933340000004134e+000	 1.002590123442231e+001
0	 8.600030000017849e+000	 4.999999999999999e+000	 1.002668941547547e+001
0	 8.600030000017847e+000	 5.066659999995866e+000	 1.002741170319871e+001
0	 8.600030000017849e+000	 5.133319999991934e+000	 1.002806758656518e+001
0	 8.600030000017849e+000	 5.199979999988401e+000	 1.002865655454800e+001
0	 8.600030000017846e+000	 5.266639999985467e+000	 1.002917809612031e+001
0	 8.600030000017849e+000	 5.333299999983334e+000	 1.002963170025525e+001
0	 8.666700000016668e+000	 4.666700000016666e+000	 1.001729857128115e+001
0	 8.666700000016666e+000	 4.733360000014534e+000	 1.001845198577223e+001
0	 8.666700000016668e+000	 4.800020000011600e+000	 1.001954055061671e+001
0	 8.666700000016665e+000	 4.866680000008067e+000	 1.002056378011329e+001
0	 8.666700000016666e+000	 4.933340000004133e+000	 1.002152118856069e+001
0	 8.666700000016666e+000	 5.000000000000000e+000	 1.002241229025761e+001
0	 8.666700000016666e+000	 5.066659999995867e+000	 1.002323659950279e+001
0	 8.666700000016666e+000	 5.133319999991934e+000	 1.002399363059493e+001
0	 8.666700000016666e+000	 5.199979999988400e+000	 1.002468289783275e+001
0	 8.666700000016666e+000	 5.266639999985468e+000	 1.002530391551497e+001
0	 8.666700000016668e+000	 5.333299999983335e+000	 1.002585619794032e+001
0	 8.000000000000000e+000	 5.333299999983333e+000	 1.006721691932141e+001
0	 8.000000000000000e+000	 5.399969999982149e+000	 1.006669061945549e+001
0	 8.000000000000000e+000	 5.466639999981868e+000	 1.006612401456610e+001
0	 8.000000000000000e+000	 5.533309999982382e+000	 1.006551563880029e+001
0	 8.000000000000000e+000	 5.599979999983600e+000	 1.006486402630511e+001
0	 8.000000000000000e+000	 5.666649999985416e+000	 1.006416771122762e+001
0	 7.999999999999999e+000	 5.733319999987732e+000	 1.006342522771488e+001
0	 8.000000000000000e+000	 5.799989999990449e+000	 1.006263510991394e+001
0	 7.999999999999998e+000	 5.866659999993466e+000	 1.006179589197183e+001
0	 8.000000000000000e+000	 5.933329999996682e+000	 1.006090610803564e+001
0	 8.000000000000000e+000	 6.000000000000001e+000	 1.005996429225239e+001
0	 8.066670000003313e+000	 5.333299999983333e+000	 1.006278176406893e+001
0	 8.066670000003319e+000	 5.399969999982149e+000	 1.006236261155914e+001
0	 8.066670000003317e+000	 5.466639999981866e+000	 1.006190222022064e+001
0	 8.066670000003315e+000	 5.533309999982384e+000	 1.006139916142100e+001
0	 8.066670000003317e+000	 5.599979999983599e+000	 1.006085200652780e+001
0	 8.066670000003319e+000	 5.666649999985415e+000	 1.006025932690858e+001
0	 8.066670000003319e+000	 5.733319999987732e+000	 1.005961969393097e+001
0	 8.066670000003315e+000	 5.799989999990451e+000	 1.005893167896250e+001
0	 8.066670000003315e+000	 5.866659999993466e+000	 1.005819385337075e+001
0	 8.066670000003317e+000	 5.933329999996684e+000	 1.005740478852329e+001
0	 8.066670000003319e+000	 5.999999999999999e+000	 1.005656305578770e+001
0	 8.133340000006532e+000	 5.333299999983334e+000	 1.005839940801768e+001
0	 8.133340000006530e+000	 5.399969999982149e+000	 1.005808600695605e+001
0	 8.133340000006532e+000	 5.466639999981865e+000	 1.005773040661457e+001
0	 8.133340000006530e+000	 5.533309999982382e+000	 1.005733121937877e+001
0	 8.133340000006532e+000	 5.599979999983600e+000	 1.005688705763413e+001
0	 8.133340000006532e+000	 5.666649999985416e+000	 1.005639653376612e+001
0	 8.133340000006534e+000	 5.733319999987733e+000	 1.005585826016025e+001
0	 8.133340000006532e+000	 5.799989999990447e+000	 1.005527084920201e+001
0	 8.133340000006534e+000	 5.866659999993466e+000	 1.005463291327689e+001
0	 8.133340000006532e+000	 5.933329999996683e+000	 1.005394306477038e+001
0	 8.133340000006532e+000	 5.999999999999998e+000	 1.005319991606795e+001
0	 8.200010000009550e+000	 5.333299999983333e+000	 1.005407497506008e+001
0	 8.200010000009547e+000	 5.399969999982151e+000	 1.005386600926445e+001
0	 8.200010000009554e+000	 5.466639999981866e+000	 1.005361384388957e+001
0	 8.200010000009550e+000	 5.533309999982383e+000	 1.005331713613622e+001
0	 8.200010000009547e+000	 5.599979999983600e+000	 1.005297454320523e+001
0	 8.200010000009547e+000	 5.666649999985416e+000	 1.005258472229740e+001
0	 8.200010000009552e+000	 5.733319999987733e+000	 1.005214633061355e+001
0	 8.200010000009550e+000	 5.799989999990449e+000	 1.005165802535445e+001
0	 8.200010000009552e+000	 5.866659999993468e+000	 1.005111846372096e+001
0	 8.200010000009550e+000	 5.933329999996684e+000	 1.005052630291385e+001
0	 8.200010000009552e+000	 6.000000000000000e+000	 1.004988020013393e+001
0	 8.266680000012265e+000	 5.333299999983334e+000	 1.004981358908851e+001
0	 8.266680000012265e+000	 5.399969999982150e+000	 1.004970782210262e+001
0	 8.266680000012265e+000	 5.466639999981866e+000	 1.004955780218727e+001
0	 8.266680000012267e+000	 5.533309999982383e+000	 1.004936223515595e+001
0	 8.266680000012270e+000	 5.599979999983600e+000	 1.004911982682223e+001
0	 8.266680000012267e+000	 5.666649999985417e+000	 1.004882928299962e+001
0	 8.266680000012268e+000	 5.733319999987733e+000	 1.004848930950163e+001
0	 8.266680000012263e+000	 5.799989999990449e+000	 1.004809861214180e+001
0	 8.266680000012267e+000	 5.866659999993467e+000	 1.004765589673364e+001
0	 8.266680000012265e+000	 5.933329999996683e+000	 1.004715986909067e+001
0	 8.266680000012267e+000	 6.000000000000001e+000	 1.004660923502640e+001
0	 8.333350000014585e+000	 5.333299999983336e+000	 1.004562037399538e+001
0	 8.333350000014583e+000	 5.399969999982149e+000	 1.004561664908879e+001
0	 8.333350000014582e+000	 5.466639999981867e+000	 1.004556755164932e+001
0	 8.333350000014583e+000	 5.533309999982384e+000	 1.004547183990061e+001
0	 8.333350000014582e+000	 5.599979999983598e+000	 1.004532827206628e+001
0	 8.333350000014583e+000	 5.666649999985417e+000	 1.004513560636998e+001
0	 8.333350000014580e+000	 5.733319999987733e+000	 1.004489260103534e+001
0	 8.333350000014582e+000	 5.799989999990449e+000	 1.004459801428600e+001
0	 8.333350000014583e+000	 5.866659999993468e+000	 1.004425060434560e+001
0	 8.333350000014585e+000	 5.933329999996683e+000	 1.004384912943776e+001
0	 8.333350000014582e+000	 6.000000000000001e+000	 1.004339234778614e+001
0	 8.400020000016397e+000	 5.333299999983332e+000	 1.004150045367309e+001
0	 8.400020000016401e+000	 5.399969999982150e+000	 1.004159769384125e+001
0	 8.400020000016399e+000	 5.466639999981866e+000	 1.004164836241744e+001
0	 8.400020000016399e+000	 5.533309999982381e+000	 1.004165127383279e+001
0	 8.400020000016399e+000	 5.599979999983600e+000	 1.004160524251848e+001
0	 8.400020000016397e+000	 5.666649999985415e+000	 1.004150908290565e+001
0	 8.400020000016401e+000	 5.733319999987732e+000	 1.004136160942546e+001
0	 8.400020000016401e+000	 5.799989999990450e+000	 1.004116163650903e+001
0	 8.400020000016399e+000	 5.866659999993468e+000	 1.004090797858754e+001
0	 8.400020000016399e+000	 5.933329999996684e+000	 1.004059945009212e+001
0	 8.400020000016399e+000	 6.000000000000001e+000	 1.004023486545392e+001
0	 8.466690000017618e+000	 5.333299999983334e+000	 1.003745895201404e+001
0	 8.466690000017616e+000	 5.399969999982151e+000	 1.003765615997820e+001
0	 8.466690000017614e+000	 5.466639999981866e+000	 1.003780550463322e+001
0	 8.466690000017616e+000	 5.533309999982383e+000	 1.003790586041512e+001
0	 8.466690000017614e+000	 5.599979999983598e+000	 1.003795610175997e+001
0	 8.466690000017616e+000	 5.666649999985417e+000	 1.003795510310384e+001
0	 8.466690000017616e+000	 5.733319999987733e+000	 1.003790173888279e+001
0	 8.466690000017616e+000	 5.799989999990450e+000	 1.003779488353287e+001
0	 8.466690000017614e+000	 5.866659999993465e+000	 1.003763341149013e+001
0	 8.466690000017614e+000	 5.933329999996682e+000	 1.003741619719067e+001
0	 8.466690000017618e+000	 6.000000000000000e+000	 1.003714211507050e+001
0	 8.533360000018131e+000	 5.333299999983332e+000	 1.003350099291062e+001
0	 8.533360000018131e+000	 5.399969999982149e+000	 1.003379725111797e+001
0	 8.533360000018131e+000	 5.466639999981866e+000	 1.003404424843838e+001
0	 8.533360000018133e+000	 5.533309999982382e+000	 1.003424092311022e+001
0	 8.533360000018131e+000	 5.599979999983598e+000	 1.003438621337189e+001
0	 8.533360000018135e+000	 5.666649999985418e+000	 1.003447905746174e+001
0	 8.533360000018131e+000	 5.733319999987733e+000	 1.003451839361813e+001
0	 8.533360000018133e+000	 5.799989999990448e+000	 1.003450316007946e+001
0	 8.533360000018131e+000	 5.866659999993468e+000	 1.003443229508408e+001
0	 8.533360000018131e+000	 5.933329999996682e+000	 1.003430473687037e+001
0	 8.533360000018130e+000	 5.999999999999998e+000	 1.003411942367668e+001
0	 8.600030000017849e+000	 5.333299999983334e+000	 1.002963170025525e+001
0	 8.600030000017846e+000	 5.399969999982150e+000	 1.003002617087874e+001
0	 8.600030000017849e+000	 5.466639999981867e+000	 1.003036986397453e+001
0	 8.600030000017849e+000	 5.533309999982384e+000	 1.003066178538071e+001
0	 8.600030000017847e+000	 5.599979999983599e+000	 1.003090094093534e+001
0	 8.600030000017847e+000	 5.666649999985416e+000	 1.003108633647650e+001
0	 8.600030000017846e+000	 5.733319999987732e+000	 1.003121697784229e+001
0	 8.600030000017849e+000	 5.799989999990449e+000	 1.003129187087078e+001
0	 8.600030000017851e+000	 5.866659999993467e+000	 1.003131002140006e+001
0	 8.600030000017847e+000	 5.933329999996682e+000	 1.003127043526816e+001
0	 8.600030000017847e+000	 6.000000000000000e+000	 1.003117211831322e+001
0	 8.666700000016668e+000	 5.333299999983335e+000	 1.002585619794032e+001
0	 8.666700000016668e+000	 5.399969999982151e+000	 1.002634812287881e+001
0	 8.666700000016668e+000	 5.466639999981867e+000	 1.002678762138336e+001
0	 8.666700000016668e+000	 5.533309999982384e+000	 1.002717377068918e+001
0	 8.666700000016668e+000	 5.599979999983600e+000	 1.002750564803146e+001
0	 8.666700000016665e+000	 5.666649999985414e+000	 1.002778233064536e+001
0	 8.666700000016666e+000	 5.733319999987733e+000	 1.002800289576607e+001
0	 8.666700000016666e+000	 5.799989999990448e+000	 1.002816642062880e+001
0	 8.666700000016665e+000	 5.866659999993467e+000	 1.002827198246873e+001
0	 8.666700000016665e+000	 5.933329999996682e+000	 1.002831865852102e+001
0	 8.666700000016666e+000	 6.000000000000001e+000	 1.002830552602087e+001
0	 8.000000000000000e+000	 6.000000000000001e+000	 1.005996429225239e+001
0	 8.000000000000002e+000	 6.066670000003317e+000	 1.005898573493392e+001
0	 7.999999999999999e+000	 6.133340000006534e+000	 1.005798559989753e+001
0	 7.999999999999999e+000	 6.200010000009551e+000	 1.005696223154846e+001
0	 7.999999999999997e+000	 6.266680000012266e+000	 1.005591397429190e+001
0	 7.999999999999999e+000	 6.333350000014583e+000	 1.005483917253312e+001
0	 8.000000000000000e+000	 6.400020000016401e+000	 1.005373617067734e+001
0	 8.000000000000000e+000	 6.466690000017617e+000	 1.005260331312978e+001
0	 8.000000000000000e+000	 6.533360000018136e+000	 1.005143894429568e+001
0	 7.999999999999998e+000	 6.600030000017848e+000	 1.005024140858027e+001
0	 8.000000000000000e+000	 6.666700000016668e+000	 1.004900905038878e+001
0	 8.066670000003319e+000	 5.999999999999999e+000	 1.005656305578770e+001
0	 8.066670000003317e+000	 6.066670000003317e+000	 1.005568344480275e+001
0	 8.066670000003315e+000	 6.133340000006531e+000	 1.005478065072464e+001
0	 8.066670000003317e+000	 6.200010000009550e+000	 1.005385310319709e+001
0	 8.066670000003317e+000	 6.266680000012268e+000	 1.005289923186382e+001
0	 8.066670000003317e+000	 6.333350000014583e+000	 1.005191746636852e+001
0	 8.066670000003317e+000	 6.400020000016400e+000	 1.005090623635493e+001
0	 8.066670000003317e+000	 6.466690000017618e+000	 1.004986397146674e+001
0	 8.066670000003315e+000	 6.533360000018133e+000	 1.004878910134768e+001
0	 8.066670000003317e+000	 6.600030000017851e+000	 1.004768005564149e+001
0	 8.066670000003315e+000	 6.666700000016666e+000	 1.004653526399181e+001
0	 8.133340000006532e+000	 5.999999999999998e+000	 1.005319991606795e+001
0	 8.133340000006532e+000	 6.066670000003315e+000	 1.005241778236465e+001
0	 8.133340000006534e+000	 6.133340000006532e+000	 1.005161091118068e+001
0	 8.133340000006532e+000	 6.200010000009550e+000	 1.005077781338937e+001
0	 8.133340000006536e+000	 6.266680000012268e+000	 1.004991699986397e+001
0	 8.133340000006532e+000	 6.333350000014582e+000	 1.004902698147780e+001
0	 8.133340000006532e+000	 6.400020000016401e+000	 1.004810626910416e+001
0	 8.133340000006532e+000	 6.466690000017616e+000	 1.004715337361634e+001
0	 8.133340000006534e+000	 6.533360000018134e+000	 1.004616680588763e+001
0	 8.133340000006534e+000	 6.600030000017848e+000	 1.004514507679132e+001
0	 8.133340000006532e+000	 6.666700000016665e+000	 1.004408669720071e+001
0	 8.200010000009552e+000	 6.000000000000000e+000	 1.004988020013393e+001
0	 8.200010000009550e+000	 6.066670000003316e+000	 1.004919402355241e+001
0	 8.200010000009550e+000	 6.133340000006533e+000	 1.004848159526928e+001
0	 8.200010000009549e+000	 6.200010000009551e+000	 1.004774150337853e+001
0	 8.200010000009552e+000	 6.266680000012268e+000	 1.004697233597411e+001
0	 8.200010000009547e+000	 6.333350000014582e+000	 1.004617268115001e+001
0	 8.200010000009549e+000	 6.400020000016402e+000	 1.004534112700021e+001
0	 8.200010000009552e+000	 6.466690000017618e+000	 1.004447626161867e+001
0	 8.200010000009552e+000	 6.533360000018135e+000	 1.004357667309935e+001
0	 8.200010000009549e+000	 6.600030000017852e+000	 1.004264094953627e+001
0	 8.200010000009550e+000	 6.666700000016667e+000	 1.004166767902335e+001
0	 8.266680000012267e+000	 6.000000000000001e+000	 1.004660923502640e+001
0	 8.266680000012267e+000	 6.066670000003319e+000	 1.004601744429883e+001
0	 8.266680000012270e+000	 6.133340000006534e+000	 1.004539791699406e+001
0	 8.266680000012265e+000	 6.200010000009550e+000	 1.004474931441787e+001
0	 8.266680000012268e+000	 6.266680000012268e+000	 1.004407029787601e+001
0	 8.266680000012265e+000	 6.333350000014584e+000	 1.004335952867420e+001
0	 8.266680000012268e+000	 6.400020000016401e+000	 1.004261566811823e+001
0	 8.266680000012265e+000	 6.466690000017615e+000	 1.004183737751383e+001
0	 8.266680000012267e+000	 6.533360000018136e+000	 1.004102331816675e+001
0	 8.266680000012265e+000	 6.600030000017849e+000	 1.004017215138277e+001
0	 8.266680000012267e+000	 6.666700000016666e+000	 1.003928253846758e+001
0	 8.333350000014582e+000	 6.000000000000001e+000	 1.004339234778614e+001
0	 8.333350000014583e+000	 6.066670000003317e+000	 1.004289332053667e+001
0	 8.333350000014583e+000	 6.133340000006533e+000	 1.004236509035864e+001
0	 8.333350000014582e+000	 6.200010000009551e+000	 1.004180638776066e+001
0	 8.333350000014580e+000	 6.266680000012267e+000	 1.004121594325138e+001
0	 8.333350000014583e+000	 6.333350000014583e+000	 1.004059248733941e+001
0	 8.333350000014583e+000	 6.400020000016401e+000	 1.003993475053339e+001
0	 8.333350000014582e+000	 6.466690000017616e+000	 1.003924146334194e+001
0	 8.333350000014583e+000	 6.533360000018131e+000	 1.003851135627370e+001
0	 8.333350000014582e+000	 6.600030000017849e+000	 1.003774315983726e+001
0	 8.333350000014585e+000	 6.666700000016668e+000	 1.003693560454128e+001
0	 8.400020000016399e+000	 6.000000000000001e+000	 1.004023486545392e+001
0	 8.400020000016399e+000	 6.066670000003318e+000	 1.003982692819871e+001
0	 8.400020000016399e+000	 6.133340000006534e+000	 1.003938832936659e+001
0	 8.400020000016401e+000	 6.200010000009551e+000	 1.003891786466013e+001
0	 8.400020000016399e+000	 6.266680000012268e+000	 1.003841432978195e+001
0	 8.400020000016399e+000	 6.333350000014584e+000	 1.003787652043465e+001
0	 8.400020000016401e+000	 6.400020000016401e+000	 1.003730323232084e+001
0	 8.400020000016401e+000	 6.466690000017617e+000	 1.003669326114309e+001
0	 8.400020000016397e+000	 6.533360000018134e+000	 1.003604540260403e+001
0	 8.400020000016399e+000	 6.600030000017850e+000	 1.003535845240625e+001
0	 8.400020000016399e+000	 6.666700000016666e+000	 1.003463120625233e+001
0	 8.466690000017618e+000	 6.000000000000000e+000	 1.003714211507050e+001
0	 8.466690000017614e+000	 6.066670000003315e+000	 1.003682354321774e+001
0	 8.466690000017616e+000	 6.133340000006535e+000	 1.003647284802153e+001
0	 8.466690000017616e+000	 6.200010000009552e+000	 1.003608888636955e+001
0	 8.466690000017618e+000	 6.266680000012268e+000	 1.003567051514948e+001
0	 8.466690000017616e+000	 6.333350000014583e+000	 1.003521659124897e+001
0	 8.466690000017616e+000	 6.400020000016399e+000	 1.003472597155572e+001
0	 8.466690000017616e+000	 6.466690000017615e+000	 1.003419751295738e+001
0	 8.466690000017616e+000	 6.533360000018133e+000	 1.003363007234164e+001
0	 8.466690000017616e+000	 6.600030000017851e+000	 1.003302250659615e+001
0	 8.466690000017614e+000	 6.666700000016665e+000	 1.003237367260859e+001
0	 8.533360000018130e+000	 5.999999999999998e+000	 1.003411942367668e+001
0	 8.533360000018131e+000	 6.066670000003316e+000	 1.003388844152654e+001
0	 8.533360000018133e+000	 6.133340000006533e+000	 1.003362386032710e+001
0	 8.533360000018131e+000	 6.200010000009550e+000	 1.003332459414221e+001
0	 8.533360000018131e+000	 6.266680000012267e+000	 1.003298955703571e+001
0	 8.533360000018133e+000	 6.333350000014584e+000	 1.003261766307143e+001
0	 8.533360000018131e+000	 6.400020000016400e+000	 1.003220782631322e+001
0	 8.533360000018130e+000	 6.466690000017616e+000	 1.003175896082492e+001
0	 8.533360000018135e+000	 6.533360000018137e+000	 1.003126998067038e+001
0	 8.533360000018133e+000	 6.600030000017853e+000	 1.003073979991343e+001
0	 8.533360000018130e+000	 6.666700000016665e+000	 1.003016733261791e+001
0	 8.600030000017847e+000	 6.000000000000000e+000	 1.003117211831322e+001
0	 8.600030000017847e+000	 6.066670000003317e+000	 1.003102689905789e+001
0	 8.600030000017847e+000	 6.133340000006535e+000	 1.003084658028689e+001
0	 8.600030000017849e+000	 6.200010000009550e+000	 1.003063012923134e+001
0	 8.600030000017849e+000	 6.266680000012268e+000	 1.003037651312235e+001
0	 8.600030000017847e+000	 6.333350000014583e+000	 1.003008469919103e+001
0	 8.600030000017847e+000	 6.400020000016401e+000	 1.002975365466847e+001
0	 8.600030000017849e+000	 6.466690000017617e+000	 1.002938234678581e+001
0	 8.600030000017849e+000	 6.533360000018135e+000	 1.002896974277414e+001
0	 8.600030000017849e+000	 6.600030000017851e+000	 1.002851480986456e+001
0	 8.600030000017847e+000	 6.666700000016666e+000	 1.002801651528818e+001
0	 8.666700000016666e+000	 6.000000000000001e+000	 1.002830552602087e+001
0	 8.666700000016666e+000	 6.066670000003318e+000	 1.002824419174455e+001
0	 8.666700000016666e+000	 6.133340000006533e+000	 1.002814622190450e+001
0	 8.666700000016666e+000	 6.200010000009550e+000	 1.002801063289022e+001
0	 8.666700000016666e+000	 6.266680000012268e+000	 1.002783644109116e+001
0	 8.666700000016666e+000	 6.333350000014585e+000	 1.002762266289683e+001
0	 8.666700000016668e+000	 6.400020000016401e+000	 1.002736831469666e+001
0	 8.666700000016668e+000	 6.466690000017617e+000	 1.002707241288014e+001
0	 8.666700000016668e+000	 6.533360000018135e+000	 1.002673397383676e+001
0	 8.666700000016666e+000	 6.600030000017850e+000	 1.002635201395598e+001
0	 8.666700000016666e+000	 6.666700000016665e+000	 1.002592554962726e+001
0	 8.000000000000000e+000	 6.666700000016668e+000	 1.004900905038878e+001
0	 7.999999999999999e+000	 6.733360000014532e+000	 1.004775750272849e+001
0	 8.000000000000000e+000	 6.800020000011601e+000	 1.004650205759936e+001
0	 7.999999999999999e+000	 6.866680000008068e+000	 1.004524111051210e+001
0	 8.000000000000000e+000	 6.933340000004133e+000	 1.004397305697737e+001
0	 8.000000000000000e+000	 7.000000000000000e+000	 1.004269629250586e+001
0	 7.999999999999999e+000	 7.066659999995867e+000	 1.004140921260826e+001
0	 8.000000000000000e+000	 7.133319999991934e+000	 1.004011021279525e+001
0	 8.000000000000000e+000	 7.199979999988400e+000	 1.003879768857750e+001
0	 8.000000000000000e+000	 7.266639999985467e+000	 1.003747003546570e+001
0	 8.000000000000000e+000	 7.333299999983335e+000	 1.003612564897055e+001
0	 8.066670000003315e+000	 6.666700000016666e+000	 1.004653526399181e+001
0	 8.066670000003317e+000	 6.733360000014533e+000	 1.004537004276667e+001
0	 8.066670000003315e+000	 6.800020000011600e+000	 1.004419937286708e+001
0	 8.066670000003320e+000	 6.866680000008067e+000	 1.004302170414476e+001
0	 8.066670000003317e+000	 6.933340000004135e+000	 1.004183548645144e+001
0	 8.066670000003319e+000	 7.000000000000001e+000	 1.004063916963889e+001
0	 8.066670000003319e+000	 7.066659999995868e+000	 1.003943120355881e+001
0	 8.066670000003320e+000	 7.133319999991935e+000	 1.003821003806294e+001
0	 8.066670000003317e+000	 7.199979999988400e+000	 1.003697412300303e+001
0	 8.066670000003319e+000	 7.266639999985467e+000	 1.003572190823080e+001
0	 8.066670000003315e+000	 7.333299999983334e+000	 1.003445184359799e+001
0	 8.133340000006532e+000	 6.666700000016665e+000	 1.004408669720071e+001
0	 8.133340000006532e+000	 6.733360000014531e+000	 1.004300666114691e+001
0	 8.133340000006530e+000	 6.800020000011598e+000	 1.004191963490798e+001
0	 8.133340000006538e+000	 6.866680000008069e+000	 1.004082412244396e+001
0	 8.133340000006532e+000	 6.933340000004131e+000	 1.003971862771489e+001
0	 8.133340000006532e+000	 6.999999999999998e+000	 1.003860165468085e+001
0	 8.133340000006534e+000	 7.066659999995868e+000	 1.003747170730184e+001
0	 8.133340000006538e+000	 7.133319999991936e+000	 1.003632728953792e+001
0	 8.133340000006530e+000	 7.199979999988400e+000	 1.003516690534914e+001
0	 8.133340000006534e+000	 7.266639999985466e+000	 1.003398905869554e+001
0	 8.133340000006534e+000	 7.333299999983332e+000	 1.003279225353717e+001
0	 8.200010000009550e+000	 6.666700000016667e+000	 1.004166767902335e+001
0	 8.200010000009550e+000	 6.733360000014532e+000	 1.004067153392856e+001
0	 8.200010000009554e+000	 6.800020000011600e+000	 1.003966686870808e+001
0	 8.200010000009550e+000	 6.866680000008068e+000	 1.003865224119753e+001
0	 8.200010000009550e+000	 6.933340000004135e+000	 1.003762620923252e+001
0	 8.200010000009550e+000	 7.000000000000001e+000	 1.003658733064867e+001
0	 8.200010000009549e+000	 7.066659999995867e+000	 1.003553416328157e+001
0	 8.200010000009550e+000	 7.133319999991934e+000	 1.003446526496685e+001
0	 8.200010000009552e+000	 7.199979999988400e+000	 1.003337919354012e+001
0	 8.200010000009549e+000	 7.266639999985465e+000	 1.003227450683699e+001
0	 8.200010000009549e+000	 7.333299999983334e+000	 1.003114976269307e+001
0	 8.266680000012267e+000	 6.666700000016666e+000	 1.003928253846758e+001
0	 8.266680000012268e+000	 6.733360000014533e+000	 1.003836883717095e+001
0	 8.266680000012263e+000	 6.800020000011598e+000	 1.003744509925339e+001
0	 8.266680000012263e+000	 6.866680000008066e+000	 1.003650993619328e+001
0	 8.266680000012267e+000	 6.933340000004133e+000	 1.003556195946909e+001
0	 8.266680000012265e+000	 6.999999999999997e+000	 1.003459978055926e+001
0	 8.266680000012263e+000	 7.066659999995864e+000	 1.003362201094220e+001
0	 8.266680000012263e+000	 7.133319999991934e+000	 1.003262726209639e+001
0	 8.266680000012263e+000	 7.199979999988400e+000	 1.003161414550023e+001
0	 8.266680000012270e+000	 7.266639999985468e+000	 1.003058127263217e+001
0	 8.266680000012265e+000	 7.333299999983333e+000	 1.002952725497067e+001
0	 8.333350000014585e+000	 6.666700000016668e+000	 1.003693560454128e+001
0	 8.333350000014583e+000	 6.733360000014532e+000	 1.003610274693349e+001
0	 8.333350000014582e+000	 6.800020000011600e+000	 1.003525835152989e+001
0	 8.333350000014582e+000	 6.866680000008068e+000	 1.003440108321902e+001
0	 8.333350000014582e+000	 6.933340000004134e+000	 1.003352960688939e+001
0	 8.333350000014582e+000	 6.999999999999999e+000	 1.003264258742954e+001
0	 8.333350000014582e+000	 7.066659999995867e+000	 1.003173868972796e+001
0	 8.333350000014580e+000	 7.133319999991932e+000	 1.003081657867320e+001
0	 8.333350000014583e+000	 7.199979999988400e+000	 1.002987491915375e+001
0	 8.333350000014583e+000	 7.266639999985467e+000	 1.002891237605817e+001
0	 8.333350000014585e+000	 7.333299999983335e+000	 1.002792761427494e+001
0	 8.400020000016399e+000	 6.666700000016666e+000	 1.003463120625233e+001
0	 8.400020000016399e+000	 6.733360000014533e+000	 1.003387743927549e+001
0	 8.400020000016399e+000	 6.800020000011600e+000	 1.003311065052361e+001
0	 8.400020000016401e+000	 6.866680000008066e+000	 1.003232955806256e+001
0	 8.400020000016403e+000	 6.933340000004135e+000	 1.003153287995823e+001
0	 8.400020000016399e+000	 6.999999999999998e+000	 1.003071933427643e+001
0	 8.400020000016399e+000	 7.066659999995868e+000	 1.002988763908305e+001
0	 8.400020000016401e+000	 7.133319999991935e+000	 1.002903651244393e+001
0	 8.400020000016399e+000	 7.199979999988401e+000	 1.002816467242497e+001
0	 8.400020000016399e+000	 7.266639999985467e+000	 1.002727083709199e+001
0	 8.400020000016397e+000	 7.333299999983333e+000	 1.002635372451088e+001
0	 8.466690000017614e+000	 6.666700000016665e+000	 1.003237367260859e+001
0	 8.466690000017618e+000	 6.733360000014533e+000	 1.003169709025633e+001
0	 8.466690000017614e+000	 6.800020000011599e+000	 1.003100602122056e+001
0	 8.466690000017616e+000	 6.866680000008067e+000	 1.003029923651176e+001
0	 8.466690000017616e+000	 6.933340000004133e+000	 1.002957550714036e+001
0	 8.466690000017614e+000	 6.999999999999999e+000	 1.002883360411685e+001
0	 8.466690000017616e+000	 7.066659999995867e+000	 1.002807229845166e+001
0	 8.466690000017616e+000	 7.133319999991935e+000	 1.002729036115528e+001
0	 8.466690000017614e+000	 7.199979999988400e+000	 1.002648656323814e+001
0	 8.466690000017618e+000	 7.266639999985467e+000	 1.002565967571071e+001
0	 8.466690000017616e+000	 7.333299999983335e+000	 1.002480846958346e+001
0	 8.533360000018130e+000	 6.666700000016665e+000	 1.003016733261791e+001
0	 8.533360000018133e+000	 6.733360000014534e+000	 1.002956587593535e+001
0	 8.533360000018133e+000	 6.800020000011600e+000	 1.002894848860673e+001
0	 8.533360000018130e+000	 6.866680000008066e+000	 1.002831399435437e+001
0	 8.533360000018131e+000	 6.933340000004133e+000	 1.002766121690060e+001
0	 8.533360000018131e+000	 6.999999999999998e+000	 1.002698897996771e+001
0	 8.533360000018133e+000	 7.066659999995868e+000	 1.002629610727803e+001
0	 8.533360000018133e+000	 7.133319999991935e+000	 1.002558142255386e+001
0	 8.533360000018130e+000	 7.199979999988400e+000	 1.002484374951753e+001
0	 8.533360000018131e+000	 7.266639999985467e+000	 1.002408191189136e+001
0	 8.533360000018133e+000	 7.333299999983334e+000	 1.002329473339767e+001
0	 8.600030000017847e+000	 6.666700000016666e+000	 1.002801651528818e+001
0	 8.600030000017849e+000	 6.733360000014533e+000	 1.002748797237191e+001
0	 8.600030000017849e+000	 6.800020000011600e+000	 1.002694207766814e+001
0	 8.600030000017847e+000	 6.866680000008065e+000	 1.002637770737825e+001
0	 8.600030000017849e+000	 6.933340000004136e+000	 1.002579373770372e+001
0	 8.600030000017849e+000	 7.000000000000001e+000	 1.002518904484594e+001
0	 8.600030000017849e+000	 7.066659999995869e+000	 1.002456250500634e+001
0	 8.600030000017849e+000	 7.133319999991936e+000	 1.002391299438637e+001
0	 8.600030000017847e+000	 7.199979999988400e+000	 1.002323938918745e+001
0	 8.600030000017849e+000	 7.266639999985468e+000	 1.002254056561100e+001
0	 8.600030000017849e+000	 7.333299999983335e+000	 1.002181539985846e+001
0	 8.666700000016666e+000	 6.666700000016665e+000	 1.002592554962726e+001
0	 8.666700000016666e+000	 6.733360000014533e+000	 1.002546755562539e+001
0	 8.666700000016668e+000	 6.800020000011599e+000	 1.002499081339078e+001
0	 8.666700000016668e+000	 6.866680000008068e+000	 1.002449425137122e+001
0	 8.666700000016666e+000	 6.933340000004133e+000	 1.002397679801450e+001
0	 8.666700000016666e+000	 7.000000000000001e+000	 1.002343738176844e+001
0	 8.666700000016665e+000	 7.066659999995867e+000	 1.002287493108081e+001
0	 8.666700000016665e+000	 7.133319999991934e+000	 1.002228837439944e+001
0	 8.666700000016668e+000	 7.199979999988400e+000	 1.002167664017212e+001
0	 8.666700000016666e+000	 7.266639999985467e+000	 1.002103865684667e+001
0	 8.666700000016665e+000	 7.333299999983335e+000	 1.002037335287085e+001
0	 8.000000000000000e+000	 7.333299999983335e+000	 1.003612564897055e+001
0	 8.000000000000000e+000	 7.399969999982151e+000	 1.003477939133476e+001
0	 8.000000000000000e+000	 7.466639999981867e+000	 1.003344644025315e+001
0	 8.000000000000000e+000	 7.533309999982385e+000	 1.003212505537393e+001
0	 8.000000000000000e+000	 7.599979999983599e+000	 1.003081349634531e+001
0	 7.999999999999999e+000	 7.666649999985416e+000	 1.002951002281555e+001
0	 7.999999999999999e+000	 7.733319999987732e+000	 1.002821289443284e+001
0	 7.999999999999999e+000	 7.799989999990448e+000	 1.002692037084544e+001
0	 7.999999999999998e+000	 7.866659999993465e+000	 1.002563071170154e+001
0	 8.000000000000000e+000	 7.933329999996684e+000	 1.002434217664939e+001
0	 7.999999999999999e+000	 7.999999999999999e+000	 1.002305302533723e+001
0	 8.066670000003315e+000	 7.333299999983334e+000	 1.003445184359798e+001
0	 8.066670000003315e+000	 7.399969999982151e+000	 1.003317854310854e+001
0	 8.066670000003315e+000	 7.466639999981865e+000	 1.003191691870592e+001
0	 8.066670000003315e+000	 7.533309999982385e+000	 1.003066529131575e+001
0	 8.066670000003319e+000	 7.599979999983599e+000	 1.002942198186362e+001
0	 8.066670000003317e+000	 7.666649999985415e+000	 1.002818531127515e+001
0	 8.066670000003319e+000	 7.733319999987733e+000	 1.002695360047600e+001
0	 8.066670000003315e+000	 7.799989999990450e+000	 1.002572517039175e+001
0	 8.066670000003317e+000	 7.866659999993467e+000	 1.002449834194803e+001
0	 8.066670000003317e+000	 7.933329999996682e+000	 1.002327143607043e+001
0	 8.066670000003319e+000	 7.999999999999998e+000	 1.002204277368460e+001
0	 8.133340000006534e+000	 7.333299999983332e+000	 1.003279225353717e+001
0	 8.133340000006532e+000	 7.399969999982148e+000	 1.003159087526548e+001
0	 8.133340000006530e+000	 7.466639999981864e+000	 1.003039958993131e+001
0	 8.133340000006532e+000	 7.533309999982381e+000	 1.002921677937713e+001
0	 8.133340000006532e+000	 7.599979999983599e+000	 1.002804082544536e+001
0	 8.133340000006532e+000	 7.666649999985415e+000	 1.002687010997842e+001
0	 8.133340000006536e+000	 7.733319999987734e+000	 1.002570301481877e+001
0	 8.133340000006532e+000	 7.799989999990449e+000	 1.002453792180885e+001
0	 8.133340000006532e+000	 7.866659999993466e+000	 1.002337321279109e+001
0	 8.133340000006532e+000	 7.933329999996682e+000	 1.002220726960793e+001
0	 8.133340000006532e+000	 7.999999999999997e+000	 1.002103847410183e+001
0	 8.200010000009549e+000	 7.333299999983334e+000	 1.003114976269307e+001
0	 8.200010000009547e+000	 7.399969999982149e+000	 1.003001913740101e+001
0	 8.200010000009552e+000	 7.466639999981867e+000	 1.002889707090571e+001
0	 8.200010000009550e+000	 7.533309999982384e+000	 1.002778200560579e+001
0	 8.200010000009549e+000	 7.599979999983600e+000	 1.002667238389999e+001
0	 8.200010000009549e+000	 7.666649999985415e+000	 1.002556664818698e+001
0	 8.200010000009552e+000	 7.733319999987732e+000	 1.002446324086548e+001
0	 8.200010000009549e+000	 7.799989999990451e+000	 1.002336060433414e+001
0	 8.200010000009550e+000	 7.866659999993467e+000	 1.002225718099169e+001
0	 8.200010000009550e+000	 7.933329999996683e+000	 1.002115141323680e+001
0	 8.200010000009550e+000	 8.000000000000002e+000	 1.002004174346818e+001
0	 8.266680000012265e+000	 7.333299999983333e+000	 1.002952725497067e+001
0	 8.266680000012265e+000	 7.399969999982149e+000	 1.002846607911061e+001
0	 8.266680000012265e+000	 7.466639999981865e+000	 1.002741197860541e+001
0	 8.266680000012267e+000	 7.533309999982384e+000	 1.002636345604939e+001
0	 8.266680000012268e+000	 7.599979999983600e+000	 1.002531901403698e+001
0	 8.266680000012265e+000	 7.666649999985415e+000	 1.002427715516252e+001
0	 8.266680000012267e+000	 7.733319999987733e+000	 1.002323638202042e+001
0	 8.266680000012263e+000	 7.799989999990447e+000	 1.002219519720503e+001
0	 8.266680000012268e+000	 7.866659999993467e+000	 1.002115210331074e+001
0	 8.266680000012265e+000	 7.933329999996682e+000	 1.002010560293191e+001
0	 8.266680000012265e+000	 8.000000000000002e+000	 1.001905419866295e+001
0	 8.333350000014585e+000	 7.333299999983335e+000	 1.002792761427494e+001
0	 8.333350000014582e+000	 7.399969999982149e+000	 1.002693444998970e+001
0	 8.333350000014583e+000	 7.466639999981867e+000	 1.002594693000675e+001
0	 8.333350000014583e+000	 7.533309999982384e+000	 1.002496361675561e+001
0	 8.333350000014582e+000	 7.599979999983598e+000	 1.002398307266576e+001
0	 8.333350000014582e+000	 7.666649999985415e+000	 1.002300386016671e+001
0	 8.333350000014582e+000	 7.733319999987732e+000	 1.002202454168793e+001
0	 8.333350000014582e+000	 7.799989999990450e+000	 1.002104367965892e+001
0	 8.333350000014583e+000	 7.866659999993467e+000	 1.002005983650918e+001
0	 8.333350000014585e+000	 7.933329999996684e+000	 1.001907157466820e+001
0	 8.333350000014580e+000	 7.999999999999999e+000	 1.001807745656547e+001
0	 8.400020000016397e+000	 7.333299999983333e+000	 1.002635372451088e+001
0	 8.400020000016397e+000	 7.399969999982148e+000	 1.002542699963371e+001
0	 8.400020000016399e+000	 7.466639999981867e+000	 1.002450454208611e+001
0	 8.400020000016399e+000	 7.533309999982381e+000	 1.002358497377214e+001
0	 8.400020000016401e+000	 7.599979999983600e+000	 1.002266691659581e+001
0	 8.400020000016397e+000	 7.666649999985414e+000	 1.002174899246119e+001
0	 8.400020000016401e+000	 7.733319999987733e+000	 1.002082982327232e+001
0	 8.400020000016399e+000	 7.799989999990449e+000	 1.001990803093320e+001
0	 8.400020000016399e+000	 7.866659999993467e+000	 1.001898223734792e+001
0	 8.400020000016397e+000	 7.933329999996681e+000	 1.001805106442051e+001
0	 8.400020000016399e+000	 7.999999999999999e+000	 1.001711313405499e+001
0	 8.466690000017616e+000	 7.333299999983335e+000	 1.002480846958346e+001
0	 8.466690000017614e+000	 7.399969999982150e+000	 1.002394647763809e+001
0	 8.466690000017614e+000	 7.466639999981866e+000	 1.002308743181981e+001
0	 8.466690000017616e+000	 7.533309999982383e+000	 1.002223001314661e+001
0	 8.466690000017614e+000	 7.599979999983599e+000	 1.002137290263656e+001
0	 8.466690000017616e+000	 7.666649999985416e+000	 1.002051478130763e+001
0	 8.466690000017614e+000	 7.733319999987732e+000	 1.001965433017786e+001
0	 8.466690000017614e+000	 7.799989999990449e+000	 1.001879023026529e+001
0	 8.466690000017616e+000	 7.866659999993467e+000	 1.001792116258791e+001
0	 8.466690000017612e+000	 7.933329999996682e+000	 1.001704580816375e+001
0	 8.466690000017618e+000	 8.000000000000000e+000	 1.001616284801082e+001
0	 8.533360000018133e+000	 7.333299999983334e+000	 1.002329473339767e+001
0	 8.533360000018130e+000	 7.399969999982149e+000	 1.002249563359830e+001
0	 8.533360000018131e+000	 7.466639999981865e+000	 1.002169821618418e+001
0	 8.533360000018133e+000	 7.533309999982383e+000	 1.002090122092676e+001
0	 8.533360000018131e+000	 7.599979999983598e+000	 1.002010338759746e+001
0	 8.533360000018133e+000	 7.666649999985419e+000	 1.001930345596772e+001
0	 8.533360000018131e+000	 7.733319999987732e+000	 1.001850016580894e+001
0	 8.533360000018135e+000	 7.799989999990450e+000	 1.001769225689258e+001
0	 8.533360000018131e+000	 7.866659999993466e+000	 1.001687846899006e+001
0	 8.533360000018131e+000	 7.933329999996683e+000	 1.001605754187281e+001
0	 8.533360000018131e+000	 8.000000000000000e+000	 1.001522821531229e+001
0	 8.600030000017849e+000	 7.333299999983335e+000	 1.002181539985846e+001
0	 8.600030000017847e+000	 7.399969999982150e+000	 1.002107721710974e+001
0	 8.600030000017847e+000	 7.466639999981864e+000	 1.002033951215557e+001
0	 8.600030000017849e+000	 7.533309999982384e+000	 1.001960108316022e+001
0	 8.600030000017847e+000	 7.599979999983599e+000	 1.001886072828797e+001
0	 8.600030000017847e+000	 7.666649999985414e+000	 1.001811724570307e+001
0	 8.600030000017847e+000	 7.733319999987733e+000	 1.001736943356982e+001
0	 8.600030000017849e+000	 7.799989999990448e+000	 1.001661609005249e+001
0	 8.600030000017851e+000	 7.866659999993467e+000	 1.001585601331532e+001
0	 8.600030000017846e+000	 7.933329999996683e+000	 1.001508800152260e+001
0	 8.600030000017847e+000	 8.000000000000000e+000	 1.001431085283861e+001
0	 8.666700000016665e+000	 7.333299999983335e+000	 1.002037335287085e+001
0	 8.666700000016666e+000	 7.399969999982151e+000	 1.001969397776789e+001
0	 8.666700000016668e+000	 7.466639999981867e+000	 1.001901393671033e+001
0	 8.666700000016668e+000	 7.533309999982383e+000	 1.001833208589470e+001
0	 8.666700000016668e+000	 7.599979999983599e+000	 1.001764728151754e+001
0	 8.666700000016666e+000	 7.666649999985415e+000	 1.001695837977540e+001
0	 8.666700000016666e+000	 7.733319999987733e+000	 1.001626423686484e+001
0	 8.666700000016666e+000	 7.799989999990450e+000	 1.001556370898239e+001
0	 8.666700000016663e+000	 7.866659999993464e+000	 1.001485565232459e+001
0	 8.666700000016666e+000	 7.933329999996683e+000	 1.001413892308800e+001
0	 8.666700000016666e+000	 7.999999999999999e+000	 1.001341237746916e+001
0	 7.999999999999999e+000	 7.999999999999999e+000	 1.002305302533723e+001
0	 7.999999999999998e+000	 8.066670000003319e+000	 1.002177921105249e+001
0	 8.000000000000000e+000	 8.133340000006534e+000	 1.002053653900290e+001
0	 7.999999999999999e+000	 8.200010000009550e+000	 1.001932304671720e+001
0	 7.999999999999999e+000	 8.266680000012268e+000	 1.001813677172412e+001
0	 8.000000000000000e+000	 8.333350000014585e+000	 1.001697575155233e+001
0	 7.999999999999998e+000	 8.400020000016397e+000	 1.001583802373060e+001
0	 8.000000000000000e+000	 8.466690000017618e+000	 1.001472162578760e+001
0	 7.999999999999998e+000	 8.533360000018131e+000	 1.001362459525205e+001
0	 8.000000000000000e+000	 8.600030000017851e+000	 1.001254496965270e+001
0	 8.000000000000000e+000	 8.666700000016666e+000	 1.001148078651823e+001
0	 8.066670000003319e+000	 7.999999999999998e+000	 1.002204277368460e+001
0	 8.066670000003319e+000	 8.066670000003319e+000	 1.002082804253479e+001
0	 8.066670000003315e+000	 8.133340000006532e+000	 1.001964278498444e+001
0	 8.066670000003317e+000	 8.200010000009550e+000	 1.001848510388799e+001
0	 8.066670000003317e+000	 8.266680000012270e+000	 1.001735310209988e+001
0	 8.066670000003315e+000	 8.333350000014583e+000	 1.001624488247451e+001
0	 8.066670000003317e+000	 8.400020000016401e+000	 1.001515854786638e+001
0	 8.066670000003317e+000	 8.466690000017618e+000	 1.001409220112990e+001
0	 8.066670000003317e+000	 8.533360000018133e+000	 1.001304394511949e+001
0	 8.066670000003315e+000	 8.600030000017851e+000	 1.001201188268960e+001
0	 8.066670000003313e+000	 8.666700000016666e+000	 1.001099411669469e+001
0	 8.133340000006532e+000	 7.999999999999997e+000	 1.002103847410183e+001
0	 8.133340000006532e+000	 8.066670000003315e+000	 1.001988223302710e+001
0	 8.133340000006534e+000	 8.133340000006534e+000	 1.001875381045669e+001
0	 8.133340000006532e+000	 8.200010000009549e+000	 1.001765137421110e+001
0	 8.133340000006534e+000	 8.266680000012267e+000	 1.001657309211073e+001
0	 8.133340000006532e+000	 8.333350000014583e+000	 1.001551713197602e+001
0	 8.133340000006530e+000	 8.400020000016401e+000	 1.001448166162738e+001
0	 8.133340000006534e+000	 8.466690000017616e+000	 1.001346484888526e+001
0	 8.133340000006534e+000	 8.533360000018135e+000	 1.001246486157011e+001
0	 8.133340000006534e+000	 8.600030000017849e+000	 1.001147986750233e+001
0	 8.133340000006532e+000	 8.666700000016665e+000	 1.001050803450237e+001
0	 8.200010000009550e+000	 8.000000000000002e+000	 1.002004174346818e+001
0	 8.200010000009550e+000	 8.066670000003319e+000	 1.001894328518270e+001
0	 8.200010000009549e+000	 8.133340000006534e+000	 1.001787101189589e+001
0	 8.200010000009552e+000	 8.200010000009552e+000	 1.001682315603447e+001
0	 8.200010000009552e+000	 8.266680000012267e+000	 1.001579795002515e+001
0	 8.200010000009547e+000	 8.333350000014583e+000	 1.001479362629460e+001
0	 8.200010000009549e+000	 8.400020000016403e+000	 1.001380841726957e+001
0	 8.200010000009550e+000	 8.466690000017618e+000	 1.001284055537673e+001
0	 8.200010000009552e+000	 8.533360000018137e+000	 1.001188827304278e+001
0	 8.200010000009549e+000	 8.600030000017851e+000	 1.001094980269443e+001
0	 8.200010000009550e+000	 8.666700000016666e+000	 1.001002337675839e+001
0	 8.266680000012265e+000	 8.000000000000002e+000	 1.001905419866295e+001
0	 8.266680000012267e+000	 8.066670000003317e+000	 1.001801270165493e+001
0	 8.266680000012267e+000	 8.133340000006534e+000	 1.001699578577820e+001
0	 8.266680000012267e+000	 8.200010000009550e+000	 1.001600174770599e+001
0	 8.266680000012267e+000	 8.266680000012268e+000	 1.001502888411153e+001
0	 8.266680000012265e+000	 8.333350000014582e+000	 1.001407549166810e+001
0	 8.266680000012267e+000	 8.400020000016401e+000	 1.001313986704893e+001
0	 8.266680000012267e+000	 8.466690000017616e+000	 1.001222030692728e+001
0	 8.266680000012263e+000	 8.533360000018133e+000	 1.001131510797635e+001
0	 8.266680000012267e+000	 8.600030000017851e+000	 1.001042256686945e+001
0	 8.266680000012265e+000	 8.666700000016668e+000	 1.000954098027979e+001
0	 8.333350000014580e+000	 7.999999999999999e+000	 1.001807745656547e+001
0	 8.333350000014583e+000	 8.066670000003319e+000	 1.001709198509716e+001
0	 8.333350000014583e+000	 8.133340000006534e+000	 1.001612952857983e+001
0	 8.333350000014582e+000	 8.200010000009552e+000	 1.001518844757353e+001
0	 8.333350000014583e+000	 8.266680000012270e+000	 1.001426710263833e+001
0	 8.333350000014583e+000	 8.333350000014583e+000	 1.001336385433429e+001
0	 8.333350000014582e+000	 8.400020000016397e+000	 1.001247706322145e+001
0	 8.333350000014585e+000	 8.466690000017618e+000	 1.001160508985991e+001
0	 8.333350000014583e+000	 8.533360000018133e+000	 1.001074629480972e+001
0	 8.333350000014580e+000	 8.600030000017851e+000	 1.000989903863094e+001
0	 8.333350000014583e+000	 8.666700000016668e+000	 1.000906168188365e+001
0	 8.400020000016399e+000	 7.999999999999999e+000	 1.001711313405499e+001
0	 8.400020000016397e+000	 8.066670000003317e+000	 1.001618263816270e+001
0	 8.400020000016397e+000	 8.133340000006532e+000	 1.001527363677698e+001
0	 8.400020000016401e+000	 8.200010000009552e+000	 1.001438455398502e+001
0	 8.400020000016399e+000	 8.266680000012267e+000	 1.001351381387395e+001
0	 8.400020000016399e+000	 8.333350000014582e+000	 1.001265984053094e+001
0	 8.400020000016397e+000	 8.400020000016399e+000	 1.001182105804312e+001
0	 8.400020000016403e+000	 8.466690000017620e+000	 1.001099589049769e+001
0	 8.400020000016397e+000	 8.533360000018133e+000	 1.001018276198174e+001
0	 8.400020000016403e+000	 8.600030000017851e+000	 1.000938009658248e+001
0	 8.400020000016401e+000	 8.666700000016666e+000	 1.000858631838704e+001
0	 8.466690000017618e+000	 8.000000000000000e+000	 1.001616284801082e+001
0	 8.466690000017614e+000	 8.066670000003317e+000	 1.001528616350485e+001
0	 8.466690000017618e+000	 8.133340000006536e+000	 1.001442950684585e+001
0	 8.466690000017616e+000	 8.200010000009552e+000	 1.001359136528834e+001
0	 8.466690000017616e+000	 8.266680000012268e+000	 1.001277022608683e+001
0	 8.466690000017618e+000	 8.333350000014585e+000	 1.001196457649586e+001
0	 8.466690000017616e+000	 8.400020000016401e+000	 1.001117290376992e+001
0	 8.466690000017616e+000	 8.466690000017618e+000	 1.001039369516355e+001
0	 8.466690000017614e+000	 8.533360000018133e+000	 1.000962543793128e+001
0	 8.466690000017614e+000	 8.600030000017849e+000	 1.000886661932760e+001
0	 8.466690000017616e+000	 8.666700000016668e+000	 1.000811572660706e+001
0	 8.533360000018131e+000	 8.000000000000000e+000	 1.001522821531229e+001
0	 8.533360000018131e+000	 8.066670000003317e+000	 1.001440406377698e+001
0	 8.533360000018133e+000	 8.133340000006532e+000	 1.001359853526263e+001
0	 8.533360000018130e+000	 8.200010000009549e+000	 1.001281017983139e+001
0	 8.533360000018130e+000	 8.266680000012267e+000	 1.001203754754539e+001
0	 8.533360000018133e+000	 8.333350000014585e+000	 1.001127918846683e+001
0	 8.533360000018131e+000	 8.400020000016403e+000	 1.001053365265783e+001
0	 8.533360000018131e+000	 8.466690000017616e+000	 1.000979949018057e+001
0	 8.533360000018131e+000	 8.533360000018131e+000	 1.000907525109719e+001
0	 8.533360000018133e+000	 8.600030000017849e+000	 1.000835948546987e+001
0	 8.533360000018131e+000	 8.666700000016665e+000	 1.000765074336074e+001
0	 8.600030000017847e+000	 8.000000000000000e+000	 1.001431085283861e+001
0	 8.600030000017847e+000	 8.066670000003315e+000	 1.001353784163241e+001
0	 8.600030000017847e+000	 8.133340000006534e+000	 1.001278211850353e+001
0	 8.600030000017847e+000	 8.200010000009550e+000	 1.001204229596208e+001
0	 8.600030000017851e+000	 8.266680000012268e+000	 1.001131698651810e+001
0	 8.600030000017847e+000	 8.333350000014583e+000	 1.001060480268166e+001
0	 8.600030000017847e+000	 8.400020000016399e+000	 1.000990435696284e+001
0	 8.600030000017851e+000	 8.466690000017620e+000	 1.000921426187172e+001
0	 8.600030000017847e+000	 8.533360000018135e+000	 1.000853312991836e+001
0	 8.600030000017847e+000	 8.600030000017847e+000	 1.000785957361283e+001
0	 8.600030000017847e+000	 8.666700000016668e+000	 1.000719220546518e+001
0	 8.666700000016666e+000	 7.999999999999999e+000	 1.001341237746916e+001
0	 8.666700000016666e+000	 8.066670000003317e+000	 1.001268899972446e+001
0	 8.666700000016666e+000	 8.133340000006534e+000	 1.001198165304474e+001
0	 8.666700000016666e+000	 8.200010000009550e+000	 1.001128901202828e+001
0	 8.666700000016666e+000	 8.266680000012268e+000	 1.001060975127332e+001
0	 8.666700000016666e+000	 8.333350000014585e+000	 1.000994254537813e+001
0	 8.666700000016668e+000	 8.400020000016401e+000	 1.000928606894094e+001
0	 8.666700000016666e+000	 8.466690000017618e+000	 1.000863899656002e+001
0	 8.666700000016665e+000	 8.533360000018133e+000	 1.000800000283363e+001
0	 8.666700000016666e+000	 8.600030000017851e+000	 1.000736776236003e+001
0	 8.666700000016666e+000	 8.666700000016666e+000	 1.000674094973745e+001
0	 8.000000000000000e+000	 8.666700000016666e+000	 1.001148078651824e+001
0	 8.000000000000000e+000	 8.733360002791905e+000	 1.001045003497298e+001
0	 7.999999999999999e+000	 8.800020022230555e+000	 1.000947018187706e+001
0	 8.000000000000002e+000	 8.866680074997042e+000	 1.000853895693317e+001
0	 8.000000000000002e+000	 8.933340177755778e+000	 1.000765408969975e+001
0	 8.000000000000002e+000	 9.000000347171184e+000	 1.000681330959101e+001
0	 8.000000000000000e+000	 9.066660599907667e+000	 1.000601434587693e+001
0	 8.000000000000000e+000	 9.133320952629655e+000	 1.000525492768320e+001
0	 7.999999999999999e+000	 9.199981422001558e+000	 1.000453278399137e+001
0	 8.000000000000000e+000	 9.266642024687796e+000	 1.000384564363864e+001
0	 7.999999999999999e+000	 9.333302777352781e+000	 1.000319123531804e+001
0	 8.066670000003313e+000	 8.666700000016666e+000	 1.001099411669469e+001
0	 8.066670000003317e+000	 8.733360002791903e+000	 1.001000807291254e+001
0	 8.066670000003317e+000	 8.800020022230557e+000	 1.000907068708129e+001
0	 8.066670000003317e+000	 8.866680074997042e+000	 1.000817978193230e+001
0	 8.066670000003317e+000	 8.933340177755778e+000	 1.000733318005895e+001
0	 8.066670000003319e+000	 9.000000347171184e+000	 1.000652870391672e+001
0	 8.066670000003317e+000	 9.066660599907669e+000	 1.000576417582309e+001
0	 8.066670000003319e+000	 9.133320952629656e+000	 1.000503741795769e+001
0	 8.066670000003319e+000	 9.199981422001562e+000	 1.000434625236217e+001
0	 8.066670000003317e+000	 9.266642024687796e+000	 1.000368850094024e+001
0	 8.066670000003317e+000	 9.333302777352781e+000	 1.000306198545770e+001
0	 8.133340000006532e+000	 8.666700000016665e+000	 1.001050803450237e+001
0	 8.133340000006532e+000	 8.733360002791903e+000	 1.000956622574214e+001
0	 8.133340000006530e+000	 8.800020022230552e+000	 1.000867084647716e+001
0	 8.133340000006534e+000	 8.866680074997040e+000	 1.000781981217133e+001
0	 8.133340000006534e+000	 8.933340177755776e+000	 1.000701103815691e+001
0	 8.133340000006534e+000	 9.000000347171183e+000	 1.000624243963446e+001
0	 8.133340000006534e+000	 9.066660599907667e+000	 1.000551193167284e+001
0	 8.133340000006534e+000	 9.133320952629655e+000	 1.000481742920930e+001
0	 8.133340000006532e+000	 9.199981422001560e+000	 1.000415684704938e+001
0	 8.133340000006534e+000	 9.266642024687798e+000	 1.000352809986694e+001
0	 8.133340000006532e+000	 9.333302777352783e+000	 1.000292910220422e+001
0	 8.200010000009550e+000	 8.666700000016666e+000	 1.001002337675839e+001
0	 8.200010000009549e+000	 8.733360002791905e+000	 1.000912529837192e+001
0	 8.200010000009549e+000	 8.800020022230557e+000	 1.000827144476672e+001
0	 8.200010000009554e+000	 8.866680074997042e+000	 1.000745982384324e+001
0	 8.200010000009552e+000	 8.933340177755779e+000	 1.000668844337637e+001
0	 8.200010000009550e+000	 9.000000347171181e+000	 1.000595531101564e+001
0	 8.200010000009549e+000	 9.066660599907669e+000	 1.000525843428504e+001
0	 8.200010000009550e+000	 9.133320952629656e+000	 1.000459582058309e+001
0	 8.200010000009552e+000	 9.199981422001558e+000	 1.000396547718291e+001
0	 8.200010000009547e+000	 9.266642024687796e+000	 1.000336541123209e+001
0	 8.200010000009550e+000	 9.333302777352781e+000	 1.000279362975278e+001
0	 8.266680000012265e+000	 8.666700000016668e+000	 1.000954098027979e+001
0	 8.266680000012267e+000	 8.733360002791901e+000	 1.000868609571200e+001
0	 8.266680000012267e+000	 8.800020022230553e+000	 1.000787326665210e+001
0	 8.266680000012267e+000	 8.866680074997042e+000	 1.000710059314097e+001
0	 8.266680000012268e+000	 8.933340177755783e+000	 1.000636617510009e+001
0	 8.266680000012267e+000	 9.000000347171183e+000	 1.000566811233166e+001
0	 8.266680000012265e+000	 9.066660599907666e+000	 1.000500450451851e+001
0	 8.266680000012265e+000	 9.133320952629655e+000	 1.000437345122414e+001
0	 8.266680000012265e+000	 9.199981422001560e+000	 1.000377305189271e+001
0	 8.266680000012268e+000	 9.266642024687798e+000	 1.000320140584906e+001
0	 8.266680000012265e+000	 9.333302777352779e+000	 1.000265661229866e+001
0	 8.333350000014583e+000	 8.666700000016668e+000	 1.000906168188365e+001
0	 8.333350000014583e+000	 8.733360002791903e+000	 1.000824942267250e+001
0	 8.333350000014585e+000	 8.800020022230557e+000	 1.000747709683538e+001
0	 8.333350000014580e+000	 8.866680074997040e+000	 1.000674289625750e+001
0	 8.333350000014582e+000	 8.933340177755781e+000	 1.000604501271079e+001
0	 8.333350000014582e+000	 9.000000347171181e+000	 1.000538163785391e+001
0	 8.333350000014582e+000	 9.066660599907667e+000	 1.000475096323213e+001
0	 8.333350000014585e+000	 9.133320952629660e+000	 1.000415118027749e+001
0	 8.333350000014582e+000	 9.199981422001557e+000	 1.000358048030874e+001
0	 8.333350000014585e+000	 9.266642024687798e+000	 1.000303705453122e+001
0	 8.333350000014583e+000	 9.333302777352783e+000	 1.000251909403708e+001
0	 8.400020000016401e+000	 8.666700000016666e+000	 1.000858631838704e+001
0	 8.400020000016397e+000	 8.733360002791903e+000	 1.000781608416355e+001
0	 8.400020000016401e+000	 8.800020022230555e+000	 1.000708372001863e+001
0	 8.400020000016399e+000	 8.866680074997042e+000	 1.000638750938579e+001
0	 8.400020000016401e+000	 8.933340177755779e+000	 1.000572573559123e+001
0	 8.400020000016399e+000	 9.000000347171179e+000	 1.000509668185375e+001
0	 8.400020000016401e+000	 9.066660599907667e+000	 1.000449863128474e+001
0	 8.400020000016401e+000	 9.133320952629656e+000	 1.000392986688825e+001
0	 8.400020000016401e+000	 9.199981422001558e+000	 1.000338867156088e+001
0	 8.400020000016401e+000	 9.266642024687794e+000	 1.000287332809193e+001
0	 8.400020000016401e+000	 9.333302777352785e+000	 1.000238211916327e+001
0	 8.466690000017616e+000	 8.666700000016668e+000	 1.000811572660706e+001
0	 8.466690000017616e+000	 8.733360002791903e+000	 1.000738688509528e+001
0	 8.466690000017616e+000	 8.800020022230559e+000	 1.000669392090393e+001
0	 8.466690000017618e+000	 8.866680074997040e+000	 1.000603520871882e+001
0	 8.466690000017618e+000	 8.933340177755779e+000	 1.000540912312417e+001
0	 8.466690000017614e+000	 9.000000347171177e+000	 1.000481403860262e+001
0	 8.466690000017618e+000	 9.066660599907669e+000	 1.000424832953521e+001
0	 8.466690000017616e+000	 9.133320952629656e+000	 1.000371037020142e+001
0	 8.466690000017616e+000	 9.199981422001557e+000	 1.000319853477910e+001
0	 8.466690000017616e+000	 9.266642024687799e+000	 1.000271119734454e+001
0	 8.466690000017616e+000	 9.333302777352785e+000	 1.000224673187246e+001
0	 8.533360000018131e+000	 8.666700000016665e+000	 1.000765074336074e+001
0	 8.533360000018131e+000	 8.733360002791899e+000	 1.000696263037780e+001
0	 8.533360000018131e+000	 8.800020022230557e+000	 1.000630848419340e+001
0	 8.533360000018133e+000	 8.866680074997042e+000	 1.000568677044956e+001
0	 8.533360000018133e+000	 8.933340177755781e+000	 1.000509595469233e+001
0	 8.533360000018131e+000	 9.000000347171181e+000	 1.000453450237188e+001
0	 8.533360000018131e+000	 9.066660599907666e+000	 1.000400087884239e+001
0	 8.533360000018131e+000	 9.133320952629658e+000	 1.000349354936211e+001
0	 8.533360000018131e+000	 9.199981422001558e+000	 1.000301097909334e+001
0	 8.533360000018131e+000	 9.266642024687798e+000	 1.000255163310245e+001
0	 8.533360000018133e+000	 9.333302777352781e+000	 1.000211397635986e+001
0	 8.600030000017847e+000	 8.666700000016668e+000	 1.000719220546518e+001
0	 8.600030000017851e+000	 8.733360002791905e+000	 1.000654412492124e+001
0	 8.600030000017849e+000	 8.800020022230555e+000	 1.000592819458913e+001
0	 8.600030000017849e+000	 8.866680074997042e+000	 1.000534297077097e+001
0	 8.600030000017849e+000	 8.933340177755779e+000	 1.000478700967849e+001
0	 8.600030000017847e+000	 9.000000347171183e+000	 1.000425886743294e+001
0	 8.600030000017846e+000	 9.066660599907667e+000	 1.000375710006512e+001
0	 8.600030000017849e+000	 9.133320952629656e+000	 1.000328026351536e+001
0	 8.600030000017847e+000	 9.199981422001558e+000	 1.000282691363353e+001
0	 8.600030000017847e+000	 9.266642024687796e+000	 1.000239560617900e+001
0	 8.600030000017849e+000	 9.333302777352783e+000	 1.000198489682075e+001
0	 8.666700000016666e+000	 8.666700000016666e+000	 1.000674094973745e+001
0	 8.666700000016666e+000	 8.733360002791901e+000	 1.000613217363573e+001
0	 8.666700000016665e+000	 8.800020022230553e+000	 1.000555383679317e+001
0	 8.666700000016666e+000	 8.866680074997039e+000	 1.000500458587600e+001
0	 8.666700000016665e+000	 8.933340177755778e+000	 1.000448306746536e+001
0	 8.666700000016665e+000	 9.000000347171181e+000	 1.000398792805720e+001
0	 8.666700000016666e+000	 9.066660599907667e+000	 1.000351781406228e+001
0	 8.666700000016666e+000	 9.133320952629655e+000	 1.000307137180624e+001
0	 8.666700000016668e+000	 9.199981422001558e+000	 1.000264724752958e+001
0	 8.666700000016668e+000	 9.266642024687798e+000	 1.000224408738755e+001
0	 8.666700000016666e+000	 9.333302777352783e+000	 1.000186053745033e+001
0	 7.999999999999999e+000	 9.333302777352781e+000	 1.000319123531804e+001
0	 8.000000000000000e+000	 9.399973674588175e+000	 1.000258750984824e+001
0	 8.000000000000000e+000	 9.466644621844621e+000	 1.000205254289947e+001
0	 8.000000000000000e+000	 9.533315502449998e+000	 1.000158396392303e+001
0	 8.000000000000000e+000	 9.599986199732197e+000	 1.000117940380712e+001
0	 8.000000000000000e+000	 9.666656597019093e+000	 1.000083649487682e+001
0	 8.000000000000000e+000	 9.733326577638575e+000	 1.000055287089417e+001
0	 8.000000000000000e+000	 9.799996024918524e+000	 1.000032616705819e+001
0	 7.999999999999997e+000	 9.866664822186822e+000	 1.000015402000508e+001
0	 8.000000000000000e+000	 9.933332852771352e+000	 1.000003406780838e+001
0	 8.000000000000000e+000	 1.000000000000000e+001	 9.999963949979014e+000
0	 8.066670000003317e+000	 9.333302777352781e+000	 1.000306198545770e+001
0	 8.066670000003319e+000	 9.399973674588175e+000	 1.000248399935477e+001
0	 8.066670000003319e+000	 9.466644621844621e+000	 1.000197194462292e+001
0	 8.066670000003317e+000	 9.533315502449998e+000	 1.000152353152595e+001
0	 8.066670000003317e+000	 9.599986199732198e+000	 1.000113647170462e+001
0	 8.066670000003319e+000	 9.666656597019097e+000	 1.000080847817658e+001
0	 8.066670000003315e+000	 9.733326577638573e+000	 1.000053726533649e+001
0	 8.066670000003319e+000	 9.799996024918523e+000	 1.000032054895610e+001
0	 8.066670000003315e+000	 9.866664822186820e+000	 1.000015604618434e+001
0	 8.066670000003313e+000	 9.933332852771352e+000	 1.000004147554752e+001
0	 8.066670000003317e+000	 1.000000000000000e+001	 9.999974556949484e+000
0	 8.133340000006532e+000	 9.333302777352783e+000	 1.000292910220422e+001
0	 8.133340000006536e+000	 9.399973674588177e+000	 1.000237648329845e+001
0	 8.133340000006532e+000	 9.466644621844621e+000	 1.000188696911473e+001
0	 8.133340000006538e+000	 9.533315502450003e+000	 1.000145835698164e+001
0	 8.133340000006530e+000	 9.599986199732193e+000	 1.000108844554487e+001
0	 8.133340000006530e+000	 9.666656597019093e+000	 1.000077503476726e+001
0	 8.133340000006530e+000	 9.733326577638573e+000	 1.000051592592885e+001
0	 8.133340000006532e+000	 9.799996024918523e+000	 1.000030892162685e+001
0	 8.133340000006532e+000	 9.866664822186820e+000	 1.000015182577593e+001
0	 8.133340000006532e+000	 9.933332852771351e+000	 1.000004244360819e+001
0	 8.133340000006534e+000	 1.000000000000000e+001	 9.999978581673547e+000
0	 8.200010000009550e+000	 9.333302777352781e+000	 1.000279362975278e+001
0	 8.200010000009549e+000	 9.399973674588175e+000	 1.000226608365827e+001
0	 8.200010000009550e+000	 9.466644621844621e+000	 1.000179881321958e+001
0	 8.200010000009550e+000	 9.533315502450000e+000	 1.000138970908283e+001
0	 8.200010000009550e+000	 9.599986199732198e+000	 1.000103666315143e+001
0	 8.200010000009549e+000	 9.666656597019093e+000	 1.000073756858627e+001
0	 8.200010000009550e+000	 9.733326577638573e+000	 1.000049031980569e+001
0	 8.200010000009550e+000	 9.799996024918524e+000	 1.000029281248559e+001
0	 8.200010000009550e+000	 9.866664822186824e+000	 1.000014294355953e+001
0	 8.200010000009549e+000	 9.933332852771352e+000	 1.000003861121870e+001
0	 8.200010000009550e+000	 1.000000000000000e+001	 9.999977714912470e+000
0	 8.266680000012265e+000	 9.333302777352779e+000	 1.000265661229866e+001
0	 8.266680000012265e+000	 9.399973674588175e+000	 1.000215392241323e+001
0	 8.266680000012270e+000	 9.466644621844624e+000	 1.000170867378225e+001
0	 8.266680000012268e+000	 9.533315502450002e+000	 1.000131885662231e+001
0	 8.266680000012268e+000	 9.599986199732197e+000	 1.000098246234781e+001
0	 8.266680000012265e+000	 9.666656597019090e+000	 1.000069748357091e+001
0	 8.266680000012267e+000	 9.733326577638577e+000	 1.000046191410152e+001
0	 8.266680000012265e+000	 9.799996024918521e+000	 1.000027374894754e+001
0	 8.266680000012267e+000	 9.866664822186824e+000	 1.000013098431485e+001
0	 8.266680000012268e+000	 9.933332852771356e+000	 1.000003161760734e+001
0	 8.266680000012267e+000	 1.000000000000000e+001	 9.999973647427407e+000
0	 8.333350000014583e+000	 9.333302777352783e+000	 1.000251909403708e+001
0	 8.333350000014582e+000	 9.399973674588175e+000	 1.000204112154235e+001
0	 8.333350000014582e+000	 9.466644621844619e+000	 1.000161774764739e+001
0	 8.333350000014583e+000	 9.533315502449998e+000	 1.000124706839288e+001
0	 8.333350000014582e+000	 9.599986199732195e+000	 1.000092718095758e+001
0	 8.333350000014585e+000	 9.666656597019093e+000	 1.000065618365847e+001
0	 8.333350000014582e+000	 9.733326577638572e+000	 1.000043217595077e+001
0	 8.333350000014583e+000	 9.799996024918523e+000	 1.000025325842791e+001
0	 8.333350000014582e+000	 9.866664822186824e+000	 1.000011753282179e+001
0	 8.333350000014583e+000	 9.933332852771356e+000	 1.000002310200269e+001
0	 8.333350000014583e+000	 1.000000000000000e+001	 9.999968069979673e+000
0	 8.400020000016401e+000	 9.333302777352785e+000	 1.000238211916327e+001
0	 8.400020000016401e+000	 9.399973674588177e+000	 1.000192880302458e+001
0	 8.400020000016399e+000	 9.466644621844623e+000	 1.000152723165974e+001
0	 8.400020000016401e+000	 9.533315502450000e+000	 1.000117561318725e+001
0	 8.400020000016397e+000	 9.599986199732197e+000	 1.000087215680422e+001
0	 8.400020000016401e+000	 9.666656597019093e+000	 1.000061507278634e+001
0	 8.400020000016399e+000	 9.733326577638575e+000	 1.000040257248787e+001
0	 8.400020000016401e+000	 9.799996024918524e+000	 1.000023286834183e+001
0	 8.400020000016399e+000	 9.866664822186820e+000	 1.000010417386000e+001
0	 8.400020000016399e+000	 9.933332852771351e+000	 1.000001470363295e+001
0	 8.400020000016399e+000	 1.000000000000000e+001	 9.999962673330485e+000
0	 8.466690000017616e+000	 9.333302777352785e+000	 1.000224673187246e+001
0	 8.466690000017620e+000	 9.399973674588177e+000	 1.000181808883896e+001
0	 8.466690000017616e+000	 9.466644621844623e+000	 1.000143832266400e+001
0	 8.466690000017614e+000	 9.533315502450002e+000	 1.000110575979822e+001
0	 8.466690000017612e+000	 9.599986199732195e+000	 1.000081872771131e+001
0	 8.466690000017614e+000	 9.666656597019093e+000	 1.000057555489178e+001
0	 8.466690000017616e+000	 9.733326577638575e+000	 1.000037457084732e+001
0	 8.466690000017616e+000	 9.799996024918524e+000	 1.000021410610455e+001
0	 8.466690000017612e+000	 9.866664822186820e+000	 1.000009249220931e+001
0	 8.466690000017616e+000	 9.933332852771352e+000	 1.000000806172667e+001
0	 8.466690000017616e+000	 1.000000000000000e+001	 9.999959148241180e+000
0	 8.533360000018133e+000	 9.333302777352781e+000	 1.000211397635986e+001
0	 8.533360000018131e+000	 9.399973674588177e+000	 1.000171010096448e+001
0	 8.533360000018131e+000	 9.466644621844617e+000	 1.000135221750490e+001
0	 8.533360000018131e+000	 9.533315502450000e+000	 1.000103877701858e+001
0	 8.533360000018131e+000	 9.599986199732197e+000	 1.000076823150233e+001
0	 8.533360000018131e+000	 9.666656597019093e+000	 1.000053903391217e+001
0	 8.533360000018135e+000	 9.733326577638573e+000	 1.000034963816356e+001
0	 8.533360000018133e+000	 9.799996024918524e+000	 1.000019849913123e+001
0	 8.533360000018130e+000	 9.866664822186822e+000	 1.000008407264949e+001
0	 8.533360000018131e+000	 9.933332852771356e+000	 1.000000481551222e+001
0	 8.533360000018131e+000	 1.000000000000000e+001	 9.999959185472894e+000
0	 8.600030000017849e+000	 9.333302777352783e+000	 1.000198489682075e+001
0	 8.600030000017847e+000	 9.399973674588178e+000	 1.000160596138015e+001
0	 8.600030000017849e+000	 9.466644621844621e+000	 1.000127011302714e+001
0	 8.600030000017849e+000	 9.533315502450003e+000	 1.000097593364109e+001
0	 8.600030000017849e+000	 9.599986199732197e+000	 1.000072200600087e+001
0	 8.600030000017847e+000	 9.666656597019093e+000	 1.000050691378485e+001
0	 8.600030000017847e+000	 9.733326577638575e+000	 1.000032924157103e+001
0	 8.600030000017849e+000	 9.799996024918521e+000	 1.000018757483708e+001
0	 8.600030000017849e+000	 9.866664822186822e+000	 1.000008049996033e+001
0	 8.600030000017846e+000	 9.933332852771352e+000	 1.000000660421788e+001
0	 8.600030000017849e+000	 1.000000000000000e+001	 9.999964475786987e+000
0	 8.666700000016666e+000	 9.333302777352783e+000	 1.000186053745033e+001
0	 8.666700000016668e+000	 9.399973674588178e+000	 1.000150679206491e+001
0	 8.666700000016666e+000	 9.466644621844619e+000	 1.000119320607544e+001
0	 8.666700000016668e+000	 9.533315502450000e+000	 1.000091849845850e+001
0	 8.666700000016665e+000	 9.599986199732197e+000	 1.000068138903042e+001
0	 8.666700000016666e+000	 9.666656597019095e+000	 1.000048059844708e+001
0	 8.666700000016668e+000	 9.733326577638577e+000	 1.000031484820423e+001
0	 8.666700000016668e+000	 9.799996024918521e+000	 1.000018286063724e+001
0	 8.666700000016666e+000	 9.866664822186822e+000	 1.000008335892149e+001
0	 8.666700000016666e+000	 9.933332852771352e+000	 1.000001506707217e+001
0	 8.666700000016666e+000	 1.000000000000000e+001	 9.999976709944527e+000
0	 8.666700000016666e+000	 0.000000000000000e+000	 9.883567530967868e+000
0	 8.666700000016668e+000	 6.666714722864757e-002	 9.883623149388944e+000
0	 8.666700000016665e+000	 1.333351778131789e-001	 9.883795336650705e+000
0	 8.666700000016668e+000	 2.000039750814772e-001	 9.884085056500663e+000
0	 8.666700000016666e+000	 2.666734223614256e-001	 9.884493274588509e+000
0	 8.666700000016666e+000	 3.333434029809069e-001	 9.885020958465971e+000
0	 8.666700000016668e+000	 4.000138002678044e-001	 9.885669077586679e+000
0	 8.666700000016665e+000	 4.666844975500011e-001	 9.886438603306106e+000
0	 8.666700000016666e+000	 5.333553781553801e-001	 9.887330508881574e+000
0	 8.666700000016666e+000	 6.000263254118248e-001	 9.888345769472259e+000
0	 8.666700000016668e+000	 6.666972226472177e-001	 9.889485362139290e+000
0	 8.733360002791903e+000	 0.000000000000000e+000	 9.874019638443437e+000
0	 8.733360002791903e+000	 6.666714722864754e-002	 9.874067852751690e+000
0	 8.733360002791905e+000	 1.333351778131790e-001	 9.874236433742931e+000
0	 8.733360002791903e+000	 2.000039750814772e-001	 9.874526313082747e+000
0	 8.733360002791899e+000	 2.666734223614254e-001	 9.874938424335298e+000
0	 8.733360002791903e+000	 3.333434029809069e-001	 9.875473702963193e+000
0	 8.733360002791901e+000	 4.000138002678044e-001	 9.876133086327334e+000
0	 8.733360002791903e+000	 4.666844975500011e-001	 9.876917513686916e+000
0	 8.733360002791903e+000	 5.333553781553803e-001	 9.877827926199345e+000
0	 8.733360002791903e+000	 6.000263254118247e-001	 9.878865266920311e+000
0	 8.733360002791901e+000	 6.666972226472175e-001	 9.880030480803900e+000
0	 8.800020022230555e+000	 0.000000000000000e+000	 9.864324338174015e+000
0	 8.800020022230559e+000	 6.666714722864756e-002	 9.864369550606661e+000
0	 8.800020022230555e+000	 1.333351778131790e-001	 9.864538087840327e+000
0	 8.800020022230553e+000	 2.000039750814773e-001	 9.864830844870776e+000
0	 8.800020022230553e+000	 2.666734223614256e-001	 9.865248718584677e+000
0	 8.800020022230555e+000	 3.333434029809069e-001	 9.865792607759413e+000
0	 8.800020022230555e+000	 4.000138002678044e-001	 9.866463413062999e+000
0	 8.800020022230553e+000	 4.666844975500011e-001	 9.867262037054012e+000
0	 8.800020022230555e+000	 5.333553781553803e-001	 9.868189384181560e+000
0	 8.800020022230557e+000	 6.000263254118248e-001	 9.869246360785352e+000
0	 8.800020022230555e+000	 6.666972226472178e-001	 9.870433875095770e+000
0	 8.866680074997039e+000	 0.000000000000000e+000	 9.854462873469293e+000
0	 8.866680074997042e+000	 6.666714722864756e-002	 9.854508827449942e+000
0	 8.866680074997039e+000	 1.333351778131790e-001	 9.854680458872645e+000
0	 8.866680074997039e+000	 2.000039750814772e-001	 9.854978621464589e+000
0	 8.866680074997042e+000	 2.666734223614256e-001	 9.855404170834524e+000
0	 8.866680074997037e+000	 3.333434029809068e-001	 9.855957964472566e+000
0	 8.866680074997040e+000	 4.000138002678043e-001	 9.856640861750138e+000
0	 8.866680074997037e+000	 4.666844975500011e-001	 9.857453723919825e+000
0	 8.866680074997040e+000	 5.333553781553804e-001	 9.858397414115453e+000
0	 8.866680074997040e+000	 6.000263254118248e-001	 9.859472797352090e+000
0	 8.866680074997040e+000	 6.666972226472177e-001	 9.860680740526112e+000
0	 8.933340177755776e+000	 0.000000000000000e+000	 9.844416487467706e+000
0	 8.933340177755774e+000	 6.666714722864754e-002	 9.844466267602609e+000
0	 8.933340177755776e+000	 1.333351778131789e-001	 9.844643706591569e+000
0	 8.933340177755778e+000	 2.000039750814772e-001	 9.844949612283553e+000
0	 8.933340177755778e+000	 2.666734223614256e-001	 9.845384794400546e+000
0	 8.933340177755776e+000	 3.333434029809069e-001	 9.845950064537394e+000
0	 8.933340177755779e+000	 4.000138002678044e-001	 9.846646236161673e+000
0	 8.933340177755776e+000	 4.666844975500011e-001	 9.847474124613635e+000
0	 8.933340177755774e+000	 5.333553781553801e-001	 9.848434547106193e+000
0	 8.933340177755778e+000	 6.000263254118247e-001	 9.849528322724993e+000
0	 8.933340177755774e+000	 6.666972226472175e-001	 9.850756272428466e+000
0	 9.000000347171181e+000	 0.000000000000000e+000	 9.834166423136425e+000
0	 9.000000347171181e+000	 6.666714722864757e-002	 9.834222455210732e+000
0	 9.000000347171179e+000	 1.333351778131790e-001	 9.834407990570689e+000
0	 9.000000347171177e+000	 2.000039750814772e-001	 9.834723786566537e+000
0	 9.000000347171177e+000	 2.666734223614256e-001	 9.835170602416262e+000
0	 9.000000347171181e+000	 3.333434029809069e-001	 9.835749199205409e+000
0	 9.000000347171177e+000	 4.000138002678043e-001	 9.836460339887035e+000
0	 9.000000347171177e+000	 4.666844975500010e-001	 9.837304789281586e+000
0	 9.000000347171181e+000	 5.333553781553801e-001	 9.838283314076927e+000
0	 9.000000347171179e+000	 6.000263254118249e-001	 9.839396682828358e+000
0	 9.000000347171181e+000	 6.666972226472179e-001	 9.840645665958752e+000
0	 9.066660599907666e+000	 0.000000000000000e+000	 9.823693923271396e+000
0	 9.066660599907666e+000	 6.666714722864754e-002	 9.823757974245376e+000
0	 9.066660599907666e+000	 1.333351778131789e-001	 9.823953470205533e+000
0	 9.066660599907667e+000	 2.000039750814773e-001	 9.824281113371956e+000
0	 9.066660599907667e+000	 2.666734223614256e-001	 9.824741607832976e+000
0	 9.066660599907666e+000	 3.333434029809069e-001	 9.825335659544916e+000
0	 9.066660599907666e+000	 4.000138002678044e-001	 9.826063976332092e+000
0	 9.066660599907666e+000	 4.666844975500011e-001	 9.826927267886692e+000
0	 9.066660599907666e+000	 5.333553781553800e-001	 9.827926245768756e+000
0	 9.066660599907667e+000	 6.000263254118249e-001	 9.829061623406259e+000
0	 9.066660599907666e+000	 6.666972226472179e-001	 9.830334116095182e+000
0	 9.133320952629653e+000	 0.000000000000000e+000	 9.812980230497303e+000
0	 9.133320952629653e+000	 6.666714722864756e-002	 9.813053408502608e+000
0	 9.133320952629653e+000	 1.333351778131790e-001	 9.813260304713525e+000
0	 9.133320952629653e+000	 2.000039750814772e-001	 9.813601561577736e+000
0	 9.133320952629651e+000	 2.666734223614255e-001	 9.814077823419817e+000
0	 9.133320952629653e+000	 3.333434029809069e-001	 9.814689736441027e+000
0	 9.133320952629655e+000	 4.000138002678045e-001	 9.815437948719223e+000
0	 9.133320952629655e+000	 4.666844975500011e-001	 9.816323110208826e+000
0	 9.133320952629653e+000	 5.333553781553803e-001	 9.817345872740759e+000
0	 9.133320952629653e+000	 6.000263254118247e-001	 9.818506890022537e+000
0	 9.133320952629653e+000	 6.666972226472175e-001	 9.819806817638359e+000
0	 9.199981422001557e+000	 0.000000000000000e+000	 9.802006587267616e+000
0	 9.199981422001557e+000	 6.666714722864754e-002	 9.802089341603534e+000
0	 9.199981422001555e+000	 1.333351778131789e-001	 9.802308653134059e+000
0	 9.199981422001557e+000	 2.000039750814773e-001	 9.802665099881347e+000
0	 9.199981422001557e+000	 2.666734223614256e-001	 9.803159261763751e+000
0	 9.199981422001553e+000	 3.333434029809068e-001	 9.803791720595637e+000
0	 9.199981422001555e+000	 4.000138002678044e-001	 9.804563060087268e+000
0	 9.199981422001553e+000	 4.666844975500012e-001	 9.805473865844732e+000
0	 9.199981422001557e+000	 5.333553781553803e-001	 9.806524725369997e+000
0	 9.199981422001553e+000	 6.000263254118247e-001	 9.807716228060880e+000
0	 9.199981422001555e+000	 6.666972226472177e-001	 9.809048965211195e+000
0	 9.266642024687792e+000	 0.000000000000000e+000	 9.790754235864533e+000
0	 9.266642024687792e+000	 6.666714722864757e-002	 9.790846356994241e+000
0	 9.266642024687791e+000	 1.333351778131789e-001	 9.791078674328430e+000
0	 9.266642024687792e+000	 2.000039750814772e-001	 9.791451696799781e+000
0	 9.266642024687792e+000	 2.666734223614256e-001	 9.791965935269568e+000
0	 9.266642024687791e+000	 3.333434029809069e-001	 9.792621902527486e+000
0	 9.266642024687792e+000	 4.000138002678044e-001	 9.793420113291553e+000
0	 9.266642024687792e+000	 4.666844975500012e-001	 9.794361084208042e+000
0	 9.266642024687791e+000	 5.333553781553803e-001	 9.795445333851497e+000
0	 9.266642024687792e+000	 6.000263254118247e-001	 9.796673382724739e+000
0	 9.266642024687791e+000	 6.666972226472177e-001	 9.798045753258988e+000
0	 9.333302777352781e+000	 0.000000000000000e+000	 9.779204418399056e+000
0	 9.333302777352785e+000	 6.666714722864757e-002	 9.779305037945859e+000
0	 9.333302777352785e+000	 1.333351778131789e-001	 9.779550526979907e+000
0	 9.333302777352783e+000	 2.000039750814772e-001	 9.779941320669600e+000
0	 9.333302777352779e+000	 2.666734223614256e-001	 9.780477856159868e+000
0	 9.333302777352783e+000	 3.333434029809070e-001	 9.781160572572080e+000
0	 9.333302777352783e+000	 4.000138002678045e-001	 9.781989911003906e+000
0	 9.333302777352783e+000	 4.666844975500011e-001	 9.782966314529260e+000
0	 9.333302777352781e+000	 5.333553781553801e-001	 9.784090228198275e+000
0	 9.333302777352785e+000	 6.000263254118248e-001	 9.785362099037403e+000
0	 9.333302777352783e+000	 6.666972226472177e-001	 9.786782376049413e+000
0	 8.666700000016668e+000	 6.666972226472177e-001	 9.889485362139293e+000
0	 8.666700000016666e+000	 7.333579753122049e-001	 9.890725086371438e+000
0	 8.666700000016668e+000	 8.000185779984418e-001	 9.892041888325423e+000
0	 8.666700000016666e+000	 8.666790473703454e-001	 9.893437925432668e+000
0	 8.666700000016666e+000	 9.333394000923322e-001	 9.894915354928507e+000
0	 8.666700000016665e+000	 9.999996528288188e-001	 9.896476333852085e+000
0	 8.666700000016665e+000	 1.066659822244222e+000	 9.898123019046471e+000
0	 8.666700000016668e+000	 1.133319925002959e+000	 9.899857567158589e+000
0	 8.666700000016666e+000	 1.199979977769445e+000	 9.901682134639250e+000
0	 8.666700000016666e+000	 1.266639997208098e+000	 9.903598877743153e+000
0	 8.666700000016668e+000	 1.333299999983334e+000	 9.905609952528851e+000
0	 8.733360002791901e+000	 6.666972226472175e-001	 9.880030480803900e+000
0	 8.733360002791901e+000	 7.333579753122047e-001	 9.881298821698126e+000
0	 8.733360002791903e+000	 8.000185779984418e-001	 9.882646549586664e+000
0	 8.733360002791901e+000	 8.666790473703453e-001	 9.884075566673312e+000
0	 8.733360002791901e+000	 9.333394000923322e-001	 9.885587774967657e+000
0	 8.733360002791901e+000	 9.999996528288190e-001	 9.887185076285103e+000
0	 8.733360002791901e+000	 1.066659822244222e+000	 9.888869372246822e+000
0	 8.733360002791899e+000	 1.133319925002958e+000	 9.890642564279814e+000
0	 8.733360002791903e+000	 1.199979977769445e+000	 9.892506553616894e+000
0	 8.733360002791901e+000	 1.266639997208098e+000	 9.894463241296668e+000
0	 8.733360002791901e+000	 1.333299999983334e+000	 9.896514528163564e+000
0	 8.800020022230555e+000	 6.666972226472178e-001	 9.870433875095770e+000
0	 8.800020022230553e+000	 7.333579753122048e-001	 9.871727623592619e+000
0	 8.800020022230557e+000	 8.000185779984420e-001	 9.873104191917024e+000
0	 8.800020022230553e+000	 8.666790473703454e-001	 9.874565259452755e+000
0	 8.800020022230559e+000	 9.333394000923323e-001	 9.876112505388953e+000
0	 8.800020022230557e+000	 9.999996528288190e-001	 9.877747608720076e+000
0	 8.800020022230553e+000	 1.066659822244222e+000	 9.879472248245985e+000
0	 8.800020022230553e+000	 1.133319925002959e+000	 9.881288102571890e+000
0	 8.800020022230555e+000	 1.199979977769445e+000	 9.883196850108337e+000
0	 8.800020022230555e+000	 1.266639997208098e+000	 9.885200169071263e+000
0	 8.800020022230553e+000	 1.333299999983334e+000	 9.887299737481980e+000
0	 8.866680074997040e+000	 6.666972226472177e-001	 9.860680740526112e+000
0	 8.866680074997040e+000	 7.333579753122049e-001	 9.861998150073291e+000
0	 8.866680074997040e+000	 8.000185779984416e-001	 9.863402728637176e+000
0	 8.866680074997040e+000	 8.666790473703453e-001	 9.864895965187007e+000
0	 8.866680074997044e+000	 9.333394000923324e-001	 9.866479348494858e+000
0	 8.866680074997040e+000	 9.999996528288191e-001	 9.868154367135698e+000
0	 8.866680074997039e+000	 1.066659822244222e+000	 9.869922509487330e+000
0	 8.866680074997040e+000	 1.133319925002959e+000	 9.871785263730406e+000
0	 8.866680074997040e+000	 1.199979977769445e+000	 9.873744117848441e+000
0	 8.866680074997040e+000	 1.266639997208098e+000	 9.875800559627823e+000
0	 8.866680074997042e+000	 1.333299999983334e+000	 9.877956076657789e+000
0	 8.933340177755774e+000	 6.666972226472175e-001	 9.850756272428470e+000
0	 8.933340177755776e+000	 7.333579753122049e-001	 9.852097058984153e+000
0	 8.933340177755776e+000	 8.000185779984416e-001	 9.853530072897394e+000
0	 8.933340177755776e+000	 8.666790473703450e-001	 9.855056645126229e+000
0	 8.933340177755776e+000	 9.333394000923323e-001	 9.856678106427266e+000
0	 8.933340177755774e+000	 9.999996528288190e-001	 9.858395787355754e+000
0	 8.933340177755778e+000	 1.066659822244222e+000	 9.860211018265504e+000
0	 8.933340177755778e+000	 1.133319925002959e+000	 9.862125129308961e+000
0	 8.933340177755776e+000	 1.199979977769445e+000	 9.864139450437136e+000
0	 8.933340177755778e+000	 1.266639997208098e+000	 9.866255311399673e+000
0	 8.933340177755778e+000	 1.333299999983334e+000	 9.868474041744834e+000
0	 9.000000347171181e+000	 6.666972226472179e-001	 9.840645665958755e+000
0	 9.000000347171177e+000	 7.333579753122046e-001	 9.842011007994802e+000
0	 9.000000347171181e+000	 8.000185779984416e-001	 9.843474137677518e+000
0	 9.000000347171179e+000	 8.666790473703456e-001	 9.845036260354782e+000
0	 9.000000347171177e+000	 9.333394000923322e-001	 9.846698581167422e+000
0	 9.000000347171179e+000	 9.999996528288189e-001	 9.848462305049130e+000
0	 9.000000347171179e+000	 1.066659822244222e+000	 9.850328636726525e+000
0	 9.000000347171181e+000	 1.133319925002959e+000	 9.852298780719135e+000
0	 9.000000347171175e+000	 1.199979977769445e+000	 9.854373941339382e+000
0	 9.000000347171181e+000	 1.266639997208098e+000	 9.856555322692632e+000
0	 9.000000347171179e+000	 1.333299999983334e+000	 9.858844128677127e+000
0	 9.066660599907666e+000	 6.666972226472179e-001	 9.830334116095186e+000
0	 9.066660599907667e+000	 7.333579753122049e-001	 9.831726654600468e+000
0	 9.066660599907667e+000	 8.000185779984419e-001	 9.833222835786957e+000
0	 9.066660599907667e+000	 8.666790473703456e-001	 9.834823771791227e+000
0	 9.066660599907664e+000	 9.333394000923322e-001	 9.836530574535930e+000
0	 9.066660599907666e+000	 9.999996528288190e-001	 9.838344355729815e+000
0	 9.066660599907667e+000	 1.066659822244222e+000	 9.840266226867703e+000
0	 9.066660599907664e+000	 1.133319925002959e+000	 9.842297299230506e+000
0	 9.066660599907667e+000	 1.199979977769445e+000	 9.844438683885231e+000
0	 9.066660599907666e+000	 1.266639997208098e+000	 9.846691491684943e+000
0	 9.066660599907666e+000	 1.333299999983334e+000	 9.849056833268868e+000
0	 9.133320952629653e+000	 6.666972226472175e-001	 9.819806817638357e+000
0	 9.133320952629651e+000	 7.333579753122048e-001	 9.821230656122008e+000
0	 9.133320952629651e+000	 8.000185779984417e-001	 9.822764079864738e+000
0	 9.133320952629649e+000	 8.666790473703453e-001	 9.824408140188290e+000
0	 9.133320952629655e+000	 9.333394000923322e-001	 9.826163888192809e+000
0	 9.133320952629653e+000	 9.999996528288191e-001	 9.828032374756928e+000
0	 9.133320952629649e+000	 1.066659822244222e+000	 9.830014650537708e+000
0	 9.133320952629653e+000	 1.133319925002959e+000	 9.832111765970664e+000
0	 9.133320952629651e+000	 1.199979977769445e+000	 9.834324771269744e+000
0	 9.133320952629651e+000	 1.266639997208098e+000	 9.836654716427361e+000
0	 9.133320952629653e+000	 1.333299999983334e+000	 9.839102651214384e+000
0	 9.199981422001555e+000	 6.666972226472177e-001	 9.809048965211193e+000
0	 9.199981422001560e+000	 7.333579753122049e-001	 9.810509669705915e+000
0	 9.199981422001557e+000	 8.000185779984418e-001	 9.812085782379480e+000
0	 9.199981422001553e+000	 8.666790473703452e-001	 9.813778326132896e+000
0	 9.199981422001557e+000	 9.333394000923324e-001	 9.815588323637433e+000
0	 9.199981422001555e+000	 9.999996528288189e-001	 9.817516797334681e+000
0	 9.199981422001555e+000	 1.066659822244222e+000	 9.819564769436534e+000
0	 9.199981422001557e+000	 1.133319925002959e+000	 9.821733261925171e+000
0	 9.199981422001557e+000	 1.199979977769445e+000	 9.824023296553081e+000
0	 9.199981422001553e+000	 1.266639997208097e+000	 9.826435894843062e+000
0	 9.199981422001555e+000	 1.333299999983334e+000	 9.828972078088208e+000
0	 9.266642024687791e+000	 6.666972226472177e-001	 9.798045753258988e+000
0	 9.266642024687791e+000	 7.333579753122047e-001	 9.799550352324287e+000
0	 9.266642024687792e+000	 8.000185779984417e-001	 9.801175855629383e+000
0	 9.266642024687791e+000	 8.666790473703453e-001	 9.802923290046170e+000
0	 9.266642024687792e+000	 9.333394000923320e-001	 9.804793682208571e+000
0	 9.266642024687792e+000	 9.999996528288190e-001	 9.806788058512424e+000
0	 9.266642024687794e+000	 1.066659822244222e+000	 9.808907445115516e+000
0	 9.266642024687789e+000	 1.133319925002959e+000	 9.811152867937622e+000
0	 9.266642024687791e+000	 1.199979977769445e+000	 9.813525352660459e+000
0	 9.266642024687794e+000	 1.266639997208098e+000	 9.816025924727709e+000
0	 9.266642024687792e+000	 1.333299999983334e+000	 9.818655609345033e+000
0	 9.333302777352783e+000	 6.666972226472177e-001	 9.786782376049413e+000
0	 9.333302777352783e+000	 7.333579753122046e-001	 9.788339360774915e+000
0	 9.333302777352783e+000	 8.000185779984417e-001	 9.790022211742240e+000
0	 9.333302777352781e+000	 8.666790473703453e-001	 9.791831992183465e+000
0	 9.333302777352781e+000	 9.333394000923320e-001	 9.793769765084409e+000
0	 9.333302777352783e+000	 9.999996528288190e-001	 9.795836593184614e+000
0	 9.333302777352785e+000	 1.066659822244222e+000	 9.798033538977343e+000
0	 9.333302777352785e+000	 1.133319925002959e+000	 9.800361664709612e+000
0	 9.333302777352785e+000	 1.199979977769445e+000	 9.802822032382169e+000
0	 9.333302777352785e+000	 1.266639997208098e+000	 9.805415703749471e+000
0	 9.333302777352785e+000	 1.333299999983334e+000	 9.808143740319743e+000
0	 8.666700000016668e+000	 1.333299999983334e+000	 9.905609952528851e+000
0	 8.666700000016668e+000	 1.399969999982150e+000	 9.907690979642595e+000
0	 8.666700000016666e+000	 1.466639999981866e+000	 9.909817519586866e+000
0	 8.666700000016666e+000	 1.533309999982383e+000	 9.911992564681857e+000
0	 8.666700000016665e+000	 1.599979999983599e+000	 9.914219107247797e+000
0	 8.666700000016665e+000	 1.666649999985416e+000	 9.916500139604874e+000
0	 8.666700000016666e+000	 1.733319999987733e+000	 9.918838654073328e+000
0	 8.666700000016665e+000	 1.799989999990450e+000	 9.921237642973340e+000
0	 8.666700000016666e+000	 1.866659999993466e+000	 9.923700098625126e+000
0	 8.666700000016665e+000	 1.933329999996683e+000	 9.926229013348912e+000
0	 8.666700000016668e+000	 2.000000000000000e+000	 9.928827379464904e+000
0	 8.733360002791901e+000	 1.333299999983334e+000	 9.896514528163568e+000
0	 8.733360002791901e+000	 1.399969999982150e+000	 9.898638103717271e+000
0	 8.733360002791901e+000	 1.466639999981867e+000	 9.900811441191646e+000
0	 8.733360002791901e+000	 1.533309999982383e+000	 9.903037061630188e+000
0	 8.733360002791901e+000	 1.599979999983600e+000	 9.905317486076431e+000
0	 8.733360002791905e+000	 1.666649999985416e+000	 9.907655235573889e+000
0	 8.733360002791901e+000	 1.733319999987733e+000	 9.910052831166096e+000
0	 8.733360002791905e+000	 1.799989999990450e+000	 9.912512793896578e+000
0	 8.733360002791903e+000	 1.866659999993466e+000	 9.915037644808834e+000
0	 8.733360002791903e+000	 1.933329999996684e+000	 9.917629904946413e+000
0	 8.733360002791905e+000	 2.000000000000000e+000	 9.920292095352826e+000
0	 8.800020022230553e+000	 1.333299999983334e+000	 9.887299737481980e+000
0	 8.800020022230555e+000	 1.399969999982150e+000	 9.889474290247165e+000
0	 8.800020022230555e+000	 1.466639999981866e+000	 9.891702211707500e+000
0	 8.800020022230555e+000	 1.533309999982383e+000	 9.893985620699651e+000
0	 8.800020022230557e+000	 1.599979999983600e+000	 9.896326636060234e+000
0	 8.800020022230555e+000	 1.666649999985416e+000	 9.898727376625899e+000
0	 8.800020022230557e+000	 1.733319999987733e+000	 9.901189961233275e+000
0	 8.800020022230553e+000	 1.799989999990450e+000	 9.903716508719024e+000
0	 8.800020022230553e+000	 1.866659999993466e+000	 9.906309137919770e+000
0	 8.800020022230555e+000	 1.933329999996683e+000	 9.908969967672162e+000
0	 8.800020022230555e+000	 2.000000000000000e+000	 9.911701116812839e+000
0	 8.866680074997042e+000	 1.333299999983334e+000	 9.877956076657789e+000
0	 8.866680074997042e+000	 1.399969999982150e+000	 9.880189591621900e+000
0	 8.866680074997040e+000	 1.466639999981867e+000	 9.882479564311360e+000
0	 8.866680074997040e+000	 1.533309999982383e+000	 9.884827780425926e+000
0	 8.866680074997042e+000	 1.599979999983599e+000	 9.887236025665390e+000
0	 8.866680074997040e+000	 1.666649999985416e+000	 9.889706085729554e+000
0	 8.866680074997042e+000	 1.733319999987733e+000	 9.892239746318182e+000
0	 8.866680074997044e+000	 1.799989999990450e+000	 9.894838793131086e+000
0	 8.866680074997042e+000	 1.866659999993466e+000	 9.897505011868040e+000
0	 8.866680074997040e+000	 1.933329999996683e+000	 9.900240188228830e+000
0	 8.866680074997044e+000	 2.000000000000000e+000	 9.903046107913257e+000
0	 8.933340177755778e+000	 1.333299999983334e+000	 9.868474041744834e+000
0	 8.933340177755774e+000	 1.399969999982150e+000	 9.870774060119258e+000
0	 8.933340177755776e+000	 1.466639999981867e+000	 9.873133232076286e+000
0	 8.933340177755776e+000	 1.533309999982383e+000	 9.875553079249002e+000
0	 8.933340177755778e+000	 1.599979999983600e+000	 9.878035123270477e+000
0	 8.933340177755778e+000	 1.666649999985416e+000	 9.880580885773801e+000
0	 8.933340177755776e+000	 1.733319999987733e+000	 9.883191888392062e+000
0	 8.933340177755776e+000	 1.799989999990450e+000	 9.885869652758331e+000
0	 8.933340177755772e+000	 1.866659999993466e+000	 9.888615700505714e+000
0	 8.933340177755774e+000	 1.933329999996683e+000	 9.891431553267282e+000
0	 8.933340177755776e+000	 2.000000000000000e+000	 9.894318732676128e+000
0	 9.000000347171179e+000	 1.333299999983334e+000	 9.858844128677124e+000
0	 9.000000347171181e+000	 1.399969999982150e+000	 9.861217747905085e+000
0	 9.000000347171179e+000	 1.466639999981866e+000	 9.863652947971596e+000
0	 9.000000347171181e+000	 1.533309999982383e+000	 9.866151055513210e+000
0	 9.000000347171179e+000	 1.599979999983600e+000	 9.868713397166461e+000
0	 9.000000347171175e+000	 1.666649999985416e+000	 9.871341299567913e+000
0	 9.000000347171181e+000	 1.733319999987733e+000	 9.874036089354094e+000
0	 9.000000347171177e+000	 1.799989999990449e+000	 9.876799093161566e+000
0	 9.000000347171177e+000	 1.866659999993466e+000	 9.879631637626869e+000
0	 9.000000347171179e+000	 1.933329999996683e+000	 9.882535049386569e+000
0	 9.000000347171177e+000	 2.000000000000000e+000	 9.885510655077189e+000
0	 9.066660599907666e+000	 1.333299999983334e+000	 9.849056833268868e+000
0	 9.066660599907664e+000	 1.399969999982150e+000	 9.851510707033357e+000
0	 9.066660599907664e+000	 1.466639999981866e+000	 9.854028444862774e+000
0	 9.066660599907667e+000	 1.533309999982383e+000	 9.856611247467200e+000
0	 9.066660599907664e+000	 1.599979999983599e+000	 9.859260315556721e+000
0	 9.066660599907666e+000	 1.666649999985416e+000	 9.861976849841430e+000
0	 9.066660599907666e+000	 1.733319999987733e+000	 9.864762051031406e+000
0	 9.066660599907666e+000	 1.799989999990450e+000	 9.867617119836757e+000
0	 9.066660599907667e+000	 1.866659999993466e+000	 9.870543256967556e+000
0	 9.066660599907666e+000	 1.933329999996683e+000	 9.873541663133914e+000
0	 9.066660599907667e+000	 2.000000000000000e+000	 9.876613539045906e+000
0	 9.133320952629653e+000	 1.333299999983334e+000	 9.839102651214384e+000
0	 9.133320952629651e+000	 1.399969999982150e+000	 9.841642989446164e+000
0	 9.133320952629651e+000	 1.466639999981867e+000	 9.844249455511523e+000
0	 9.133320952629653e+000	 1.533309999982383e+000	 9.846923193263969e+000
0	 9.133320952629655e+000	 1.599979999983600e+000	 9.849665346557037e+000
0	 9.133320952629651e+000	 1.666649999985416e+000	 9.852477059244228e+000
0	 9.133320952629655e+000	 1.733319999987733e+000	 9.855359475179071e+000
0	 9.133320952629651e+000	 1.799989999990450e+000	 9.858313738215097e+000
0	 9.133320952629655e+000	 1.866659999993466e+000	 9.861340992205827e+000
0	 9.133320952629653e+000	 1.933329999996683e+000	 9.864442381004768e+000
0	 9.133320952629653e+000	 2.000000000000000e+000	 9.867619048465461e+000
0	 9.199981422001555e+000	 1.333299999983334e+000	 9.828972078088208e+000
0	 9.199981422001555e+000	 1.399969999982150e+000	 9.831604646973705e+000
0	 9.199981422001557e+000	 1.466639999981867e+000	 9.834305712575739e+000
0	 9.199981422001555e+000	 1.533309999982383e+000	 9.837076430960845e+000
0	 9.199981422001557e+000	 1.599979999983600e+000	 9.839917958195581e+000
0	 9.199981422001553e+000	 1.666649999985416e+000	 9.842831450346488e+000
0	 9.199981422001557e+000	 1.733319999987733e+000	 9.845818063480094e+000
0	 9.199981422001558e+000	 1.799989999990450e+000	 9.848878953662993e+000
0	 9.199981422001555e+000	 1.866659999993466e+000	 9.852015276961696e+000
0	 9.199981422001555e+000	 1.933329999996683e+000	 9.855228189442766e+000
0	 9.199981422001553e+000	 2.000000000000000e+000	 9.858518847172762e+000
0	 9.266642024687792e+000	 1.333299999983334e+000	 9.818655609345036e+000
0	 9.266642024687792e+000	 1.399969999982150e+000	 9.821385731334306e+000
0	 9.266642024687792e+000	 1.466639999981866e+000	 9.824186948609546e+000
0	 9.266642024687791e+000	 1.533309999982383e+000	 9.827060498519499e+000
0	 9.266642024687794e+000	 1.599979999983600e+000	 9.830007618412960e+000
0	 9.266642024687791e+000	 1.666649999985416e+000	 9.833029545638690e+000
0	 9.266642024687792e+000	 1.733319999987733e+000	 9.836127517545458e+000
0	 9.266642024687789e+000	 1.799989999990449e+000	 9.839302771482048e+000
0	 9.266642024687792e+000	 1.866659999993466e+000	 9.842556544797223e+000
0	 9.266642024687789e+000	 1.933329999996683e+000	 9.845890074839748e+000
0	 9.266642024687794e+000	 2.000000000000000e+000	 9.849304598958428e+000
0	 9.333302777352785e+000	 1.333299999983334e+000	 9.808143740319743e+000
0	 9.333302777352783e+000	 1.399969999982150e+000	 9.810976294134417e+000
0	 9.333302777352785e+000	 1.466639999981866e+000	 9.813882896063243e+000
0	 9.333302777352783e+000	 1.533309999982383e+000	 9.816864933805945e+000
0	 9.333302777352783e+000	 1.599979999983600e+000	 9.819923795062186e+000
0	 9.333302777352783e+000	 1.666649999985416e+000	 9.823060867531659e+000
0	 9.333302777352783e+000	 1.733319999987733e+000	 9.826277538914072e+000
0	 9.333302777352781e+000	 1.799989999990450e+000	 9.829575196909081e+000
0	 9.333302777352783e+000	 1.866659999993466e+000	 9.832955229216429e+000
0	 9.333302777352783e+000	 1.933329999996683e+000	 9.836419023535774e+000
0	 9.333302777352783e+000	 2.000000000000000e+000	 9.839967967566834e+000
0	 8.666700000016668e+000	 2.000000000000000e+000	 9.928827379464904e+000
0	 8.666700000016665e+000	 2.066670000003317e+000	 9.931462183234185e+000
0	 8.666700000016666e+000	 2.133340000006534e+000	 9.934099250731217e+000
0	 8.666700000016666e+000	 2.200010000009550e+000	 9.936739833996294e+000
0	 8.666700000016666e+000	 2.266680000012268e+000	 9.939385185069732e+000
0	 8.666700000016665e+000	 2.333350000014584e+000	 9.942036555991823e+000
0	 8.666700000016666e+000	 2.400020000016401e+000	 9.944695198802853e+000
0	 8.666700000016666e+000	 2.466690000017618e+000	 9.947362365543135e+000
0	 8.666700000016668e+000	 2.533360000018134e+000	 9.950039308252979e+000
0	 8.666700000016666e+000	 2.600030000017850e+000	 9.952727278972656e+000
0	 8.666700000016668e+000	 2.666700000016667e+000	 9.955427529742499e+000
0	 8.733360002791905e+000	 2.000000000000000e+000	 9.920292095352826e+000
0	 8.733360002791903e+000	 2.066670000003317e+000	 9.922990638525214e+000
0	 8.733360002791901e+000	 2.133340000006534e+000	 9.925691437605039e+000
0	 8.733360002791905e+000	 2.200010000009550e+000	 9.928396234602271e+000
0	 8.733360002791901e+000	 2.266680000012268e+000	 9.931106771526938e+000
0	 8.733360002791905e+000	 2.333350000014584e+000	 9.933824790389021e+000
0	 8.733360002791901e+000	 2.400020000016400e+000	 9.936552033198518e+000
0	 8.733360002791899e+000	 2.466690000017616e+000	 9.939290241965434e+000
0	 8.733360002791898e+000	 2.533360000018133e+000	 9.942041158699766e+000
0	 8.733360002791901e+000	 2.600030000017850e+000	 9.944806525411513e+000
0	 8.733360002791903e+000	 2.666700000016666e+000	 9.947588084110668e+000
0	 8.800020022230555e+000	 2.000000000000000e+000	 9.911701116812839e+000
0	 8.800020022230557e+000	 2.066670000003317e+000	 9.914468821511299e+000
0	 8.800020022230552e+000	 2.133340000006534e+000	 9.917239329980170e+000
0	 8.800020022230553e+000	 2.200010000009550e+000	 9.920014779120793e+000
0	 8.800020022230557e+000	 2.266680000012268e+000	 9.922797305834521e+000
0	 8.800020022230552e+000	 2.333350000014584e+000	 9.925589047022676e+000
0	 8.800020022230557e+000	 2.400020000016401e+000	 9.928392139586601e+000
0	 8.800020022230553e+000	 2.466690000017618e+000	 9.931208720427630e+000
0	 8.800020022230553e+000	 2.533360000018134e+000	 9.934040926447125e+000
0	 8.800020022230555e+000	 2.600030000017851e+000	 9.936890894546394e+000
0	 8.800020022230557e+000	 2.666700000016667e+000	 9.939760761626806e+000
0	 8.866680074997044e+000	 2.000000000000000e+000	 9.903046107913257e+000
0	 8.866680074997042e+000	 2.066670000003318e+000	 9.905889114591034e+000
0	 8.866680074997042e+000	 2.133340000006534e+000	 9.908735985941425e+000
0	 8.866680074997042e+000	 2.200010000009551e+000	 9.911589158678568e+000
0	 8.866680074997042e+000	 2.266680000012267e+000	 9.914451069516606e+000
0	 8.866680074997039e+000	 2.333350000014582e+000	 9.917324155169654e+000
0	 8.866680074997042e+000	 2.400020000016402e+000	 9.920210852351863e+000
0	 8.866680074997040e+000	 2.466690000017617e+000	 9.923113597777356e+000
0	 8.866680074997039e+000	 2.533360000018133e+000	 9.926034828160276e+000
0	 8.866680074997040e+000	 2.600030000017850e+000	 9.928976980214749e+000
0	 8.866680074997040e+000	 2.666700000016667e+000	 9.931942490654906e+000
0	 8.933340177755776e+000	 2.000000000000000e+000	 9.894318732676128e+000
0	 8.933340177755776e+000	 2.066670000003317e+000	 9.897243900121509e+000
0	 8.933340177755774e+000	 2.133340000006533e+000	 9.900174463536191e+000
0	 8.933340177755774e+000	 2.200010000009550e+000	 9.903113064368515e+000
0	 8.933340177755776e+000	 2.266680000012267e+000	 9.906062344066807e+000
0	 8.933340177755779e+000	 2.333350000014585e+000	 9.909024944079413e+000
0	 8.933340177755778e+000	 2.400020000016401e+000	 9.912003505854644e+000
0	 8.933340177755776e+000	 2.466690000017617e+000	 9.915000670840842e+000
0	 8.933340177755774e+000	 2.533360000018134e+000	 9.918019080486351e+000
0	 8.933340177755774e+000	 2.600030000017850e+000	 9.921061376239495e+000
0	 8.933340177755776e+000	 2.666700000016666e+000	 9.924130199548616e+000
0	 9.000000347171177e+000	 2.000000000000000e+000	 9.885510655077189e+000
0	 9.000000347171179e+000	 2.066670000003316e+000	 9.888525560418321e+000
0	 9.000000347171177e+000	 2.133340000006534e+000	 9.891547820774523e+000
0	 9.000000347171179e+000	 2.200010000009550e+000	 9.894580187249842e+000
0	 9.000000347171179e+000	 2.266680000012268e+000	 9.897625410948301e+000
0	 9.000000347171175e+000	 2.333350000014584e+000	 9.900686242973938e+000
0	 9.000000347171179e+000	 2.400020000016401e+000	 9.903765434430801e+000
0	 9.000000347171181e+000	 2.466690000017618e+000	 9.906865736422903e+000
0	 9.000000347171179e+000	 2.533360000018133e+000	 9.909989900054312e+000
0	 9.000000347171181e+000	 2.600030000017850e+000	 9.913140676429025e+000
0	 9.000000347171183e+000	 2.666700000016666e+000	 9.916320816651115e+000
0	 9.066660599907667e+000	 2.000000000000000e+000	 9.876613539045906e+000
0	 9.066660599907666e+000	 2.066670000003317e+000	 9.879726477755542e+000
0	 9.066660599907667e+000	 2.133340000006534e+000	 9.882849115629078e+000
0	 9.066660599907666e+000	 2.200010000009551e+000	 9.885984218347987e+000
0	 9.066660599907666e+000	 2.266680000012267e+000	 9.889134551593751e+000
0	 9.066660599907667e+000	 2.333350000014585e+000	 9.892302881047858e+000
0	 9.066660599907664e+000	 2.400020000016400e+000	 9.895491972391772e+000
0	 9.066660599907667e+000	 2.466690000017617e+000	 9.898704591306986e+000
0	 9.066660599907666e+000	 2.533360000018133e+000	 9.901943503474978e+000
0	 9.066660599907666e+000	 2.600030000017851e+000	 9.905211474577211e+000
0	 9.066660599907666e+000	 2.666700000016667e+000	 9.908511270295188e+000
0	 9.133320952629653e+000	 2.000000000000000e+000	 9.867619048465461e+000
0	 9.133320952629653e+000	 2.066670000003317e+000	 9.870839034365735e+000
0	 9.133320952629653e+000	 2.133340000006534e+000	 9.874071406035126e+000
0	 9.133320952629653e+000	 2.200010000009550e+000	 9.877318848654655e+000
0	 9.133320952629653e+000	 2.266680000012268e+000	 9.880584047405373e+000
0	 9.133320952629651e+000	 2.333350000014584e+000	 9.883869687468330e+000
0	 9.133320952629655e+000	 2.400020000016400e+000	 9.887178454024575e+000
0	 9.133320952629653e+000	 2.466690000017617e+000	 9.890513032255136e+000
0	 9.133320952629651e+000	 2.533360000018134e+000	 9.893876107341072e+000
0	 9.133320952629651e+000	 2.600030000017851e+000	 9.897270364463413e+000
0	 9.133320952629653e+000	 2.666700000016667e+000	 9.900698488803222e+000
0	 9.199981422001553e+000	 2.000000000000000e+000	 9.858518847172762e+000
0	 9.199981422001553e+000	 2.066670000003317e+000	 9.861855612439985e+000
0	 9.199981422001557e+000	 2.133340000006534e+000	 9.865207749890583e+000
0	 9.199981422001555e+000	 2.200010000009551e+000	 9.868577769127803e+000
0	 9.199981422001557e+000	 2.266680000012267e+000	 9.871968179754902e+000
0	 9.199981422001555e+000	 2.333350000014584e+000	 9.875381491375125e+000
0	 9.199981422001557e+000	 2.400020000016401e+000	 9.878820213591741e+000
0	 9.199981422001553e+000	 2.466690000017617e+000	 9.882286856007987e+000
0	 9.199981422001557e+000	 2.533360000018134e+000	 9.885783928227156e+000
0	 9.199981422001558e+000	 2.600030000017851e+000	 9.889313939852464e+000
0	 9.199981422001555e+000	 2.666700000016667e+000	 9.892879400487194e+000
0	 9.266642024687794e+000	 2.000000000000000e+000	 9.849304598958428e+000
0	 9.266642024687792e+000	 2.066670000003317e+000	 9.852768594127857e+000
0	 9.266642024687791e+000	 2.133340000006534e+000	 9.856251205056026e+000
0	 9.266642024687792e+000	 2.200010000009550e+000	 9.859754670691673e+000
0	 9.266642024687792e+000	 2.266680000012267e+000	 9.863281229983604e+000
0	 9.266642024687791e+000	 2.333350000014584e+000	 9.866833121880605e+000
0	 9.266642024687792e+000	 2.400020000016401e+000	 9.870412585331414e+000
0	 9.266642024687792e+000	 2.466690000017618e+000	 9.874021859284854e+000
0	 9.266642024687791e+000	 2.533360000018133e+000	 9.877663182689691e+000
0	 9.266642024687791e+000	 2.600030000017850e+000	 9.881338794494695e+000
0	 9.266642024687791e+000	 2.666700000016666e+000	 9.885050933648671e+000
0	 9.333302777352783e+000	 2.000000000000000e+000	 9.839967967566834e+000
0	 9.333302777352783e+000	 2.066670000003318e+000	 9.843570361537436e+000
0	 9.333302777352783e+000	 2.133340000006534e+000	 9.847194829354601e+000
0	 9.333302777352785e+000	 2.200010000009550e+000	 9.850843244236756e+000
0	 9.333302777352781e+000	 2.266680000012267e+000	 9.854517479402293e+000
0	 9.333302777352783e+000	 2.333350000014584e+000	 9.858219408069672e+000
0	 9.333302777352781e+000	 2.400020000016401e+000	 9.861950903457300e+000
0	 9.333302777352785e+000	 2.466690000017617e+000	 9.865713838783606e+000
0	 9.333302777352781e+000	 2.533360000018134e+000	 9.869510087267017e+000
0	 9.333302777352783e+000	 2.600030000017850e+000	 9.873341522125942e+000
0	 9.333302777352785e+000	 2.666700000016666e+000	 9.877210016578832e+000
0	 8.666700000016668e+000	 2.666700000016667e+000	 9.955427529742499e+000
0	 8.666700000016666e+000	 2.733360000014533e+000	 9.958114406891941e+000
0	 8.666700000016668e+000	 2.800020000011600e+000	 9.960763709130202e+000
0	 8.666700000016665e+000	 2.866680000008067e+000	 9.963377649064466e+000
0	 8.666700000016665e+000	 2.933340000004133e+000	 9.965958439301906e+000
0	 8.666700000016666e+000	 3.000000000000000e+000	 9.968508292449702e+000
0	 8.666700000016666e+000	 3.066659999995867e+000	 9.971029421115031e+000
0	 8.666700000016666e+000	 3.133319999991933e+000	 9.973524037905074e+000
0	 8.666700000016668e+000	 3.199979999988400e+000	 9.975994355427007e+000
0	 8.666700000016666e+000	 3.266639999985468e+000	 9.978442586288018e+000
0	 8.666700000016668e+000	 3.333299999983334e+000	 9.980870943095276e+000
0	 8.733360002791903e+000	 2.666700000016666e+000	 9.947588084110668e+000
0	 8.733360002791901e+000	 2.733360000014534e+000	 9.950360485222140e+000
0	 8.733360002791905e+000	 2.800020000011600e+000	 9.953099237899428e+000
0	 8.733360002791901e+000	 2.866680000008066e+000	 9.955806116702359e+000
0	 8.733360002791903e+000	 2.933340000004133e+000	 9.958482896190729e+000
0	 8.733360002791905e+000	 3.000000000000001e+000	 9.961131350924347e+000
0	 8.733360002791901e+000	 3.066659999995867e+000	 9.963753255463026e+000
0	 8.733360002791905e+000	 3.133319999991934e+000	 9.966350384366580e+000
0	 8.733360002791903e+000	 3.199979999988400e+000	 9.968924512194818e+000
0	 8.733360002791903e+000	 3.266639999985467e+000	 9.971477413507550e+000
0	 8.733360002791901e+000	 3.333299999983334e+000	 9.974010862864587e+000
0	 8.800020022230557e+000	 2.666700000016667e+000	 9.939760761626806e+000
0	 8.800020022230552e+000	 2.733360000014533e+000	 9.942625154778032e+000
0	 8.800020022230555e+000	 2.800020000011599e+000	 9.945459079136223e+000
0	 8.800020022230553e+000	 2.866680000008067e+000	 9.948263942499194e+000
0	 8.800020022230557e+000	 2.933340000004133e+000	 9.951041152664782e+000
0	 8.800020022230557e+000	 3.000000000000000e+000	 9.953792117430810e+000
0	 8.800020022230557e+000	 3.066659999995867e+000	 9.956518244595086e+000
0	 8.800020022230552e+000	 3.133319999991933e+000	 9.959220941955460e+000
0	 8.800020022230555e+000	 3.199979999988401e+000	 9.961901617309744e+000
0	 8.800020022230555e+000	 3.266639999985467e+000	 9.964561678455775e+000
0	 8.800020022230555e+000	 3.333299999983333e+000	 9.967202533191362e+000
0	 8.866680074997040e+000	 2.666700000016667e+000	 9.931942490654906e+000
0	 8.866680074997040e+000	 2.733360000014533e+000	 9.934905678981963e+000
0	 8.866680074997040e+000	 2.800020000011600e+000	 9.937840875124541e+000
0	 8.866680074997039e+000	 2.866680000008066e+000	 9.940749191404063e+000
0	 8.866680074997040e+000	 2.933340000004133e+000	 9.943631740141948e+000
0	 8.866680074997040e+000	 3.000000000000000e+000	 9.946489633659608e+000
0	 8.866680074997042e+000	 3.066659999995867e+000	 9.949323984278486e+000
0	 8.866680074997040e+000	 3.133319999991934e+000	 9.952135904319995e+000
0	 8.866680074997039e+000	 3.199979999988400e+000	 9.954926506105560e+000
0	 8.866680074997042e+000	 3.266639999985468e+000	 9.957696901956602e+000
0	 8.866680074997040e+000	 3.333299999983334e+000	 9.960448204194556e+000
0	 8.933340177755776e+000	 2.666700000016666e+000	 9.924130199548616e+000
0	 8.933340177755778e+000	 2.733360000014533e+000	 9.927199321250587e+000
0	 8.933340177755778e+000	 2.800020000011599e+000	 9.930242268147890e+000
0	 8.933340177755778e+000	 2.866680000008067e+000	 9.933259928371216e+000
0	 8.933340177755776e+000	 2.933340000004133e+000	 9.936253190051252e+000
0	 8.933340177755774e+000	 3.000000000000000e+000	 9.939222941318665e+000
0	 8.933340177755778e+000	 3.066659999995867e+000	 9.942170070304174e+000
0	 8.933340177755776e+000	 3.133319999991933e+000	 9.945095465138444e+000
0	 8.933340177755778e+000	 3.199979999988401e+000	 9.948000013952171e+000
0	 8.933340177755776e+000	 3.266639999985468e+000	 9.950884604876071e+000
0	 8.933340177755778e+000	 3.333299999983335e+000	 9.953750126040809e+000
0	 9.000000347171183e+000	 2.666700000016666e+000	 9.916320816651115e+000
0	 9.000000347171181e+000	 2.733360000014533e+000	 9.919503344994823e+000
0	 9.000000347171177e+000	 2.800020000011600e+000	 9.922660900489296e+000
0	 9.000000347171179e+000	 2.866680000008067e+000	 9.925794218360114e+000
0	 9.000000347171177e+000	 2.933340000004133e+000	 9.928904033832900e+000
0	 9.000000347171177e+000	 3.000000000000000e+000	 9.931991082133239e+000
0	 9.000000347171179e+000	 3.066659999995866e+000	 9.935056098486754e+000
0	 9.000000347171179e+000	 3.133319999991934e+000	 9.938099818119033e+000
0	 9.000000347171179e+000	 3.199979999988401e+000	 9.941122976255691e+000
0	 9.000000347171181e+000	 3.266639999985467e+000	 9.944126308122325e+000
0	 9.000000347171181e+000	 3.333299999983333e+000	 9.947110548944558e+000
0	 9.066660599907666e+000	 2.666700000016667e+000	 9.908511270295188e+000
0	 9.066660599907667e+000	 2.733360000014533e+000	 9.911815013619913e+000
0	 9.066660599907666e+000	 2.800020000011601e+000	 9.915094414431303e+000
0	 9.066660599907667e+000	 2.866680000008067e+000	 9.918350126335414e+000
0	 9.066660599907666e+000	 2.933340000004133e+000	 9.921582802938289e+000
0	 9.066660599907669e+000	 3.000000000000000e+000	 9.924793097845965e+000
0	 9.066660599907664e+000	 3.066659999995866e+000	 9.927981664664507e+000
0	 9.066660599907667e+000	 3.133319999991934e+000	 9.931149156999917e+000
0	 9.066660599907667e+000	 3.199979999988401e+000	 9.934296228458281e+000
0	 9.066660599907667e+000	 3.266639999985468e+000	 9.937423532645610e+000
0	 9.066660599907666e+000	 3.333299999983334e+000	 9.940531723167977e+000
0	 9.133320952629653e+000	 2.666700000016667e+000	 9.900698488803220e+000
0	 9.133320952629653e+000	 2.733360000014534e+000	 9.904131590525351e+000
0	 9.133320952629651e+000	 2.800020000011600e+000	 9.907540452256001e+000
0	 9.133320952629651e+000	 2.866680000008067e+000	 9.910925717266959e+000
0	 9.133320952629653e+000	 2.933340000004133e+000	 9.914288028829990e+000
0	 9.133320952629651e+000	 2.999999999999999e+000	 9.917628030216873e+000
0	 9.133320952629653e+000	 3.066659999995867e+000	 9.920946364699368e+000
0	 9.133320952629651e+000	 3.133319999991934e+000	 9.924243675549255e+000
0	 9.133320952629651e+000	 3.199979999988401e+000	 9.927520606038300e+000
0	 9.133320952629651e+000	 3.266639999985467e+000	 9.930777799438285e+000
0	 9.133320952629651e+000	 3.333299999983334e+000	 9.934015899020984e+000
0	 9.199981422001555e+000	 2.666700000016667e+000	 9.892879400487198e+000
0	 9.199981422001558e+000	 2.733360000014533e+000	 9.896450339104989e+000
0	 9.199981422001555e+000	 2.800020000011599e+000	 9.899996656245047e+000
0	 9.199981422001555e+000	 2.866680000008067e+000	 9.903519056129829e+000
0	 9.199981422001555e+000	 2.933340000004133e+000	 9.907018242981764e+000
0	 9.199981422001553e+000	 3.000000000000000e+000	 9.910494921023336e+000
0	 9.199981422001555e+000	 3.066659999995866e+000	 9.913949794476961e+000
0	 9.199981422001553e+000	 3.133319999991933e+000	 9.917383567565119e+000
0	 9.199981422001553e+000	 3.199979999988400e+000	 9.920796944510263e+000
0	 9.199981422001557e+000	 3.266639999985467e+000	 9.924190629534838e+000
0	 9.199981422001555e+000	 3.333299999983333e+000	 9.927565326861293e+000
0	 9.266642024687791e+000	 2.666700000016666e+000	 9.885050933648671e+000
0	 9.266642024687791e+000	 2.733360000014533e+000	 9.888768522746956e+000
0	 9.266642024687791e+000	 2.800020000011599e+000	 9.892460668679613e+000
0	 9.266642024687789e+000	 2.866680000008066e+000	 9.896128207904257e+000
0	 9.266642024687792e+000	 2.933340000004134e+000	 9.899771976878554e+000
0	 9.266642024687791e+000	 3.000000000000000e+000	 9.903392812060117e+000
0	 9.266642024687792e+000	 3.066659999995866e+000	 9.906991549906591e+000
0	 9.266642024687794e+000	 3.133319999991934e+000	 9.910569026875599e+000
0	 9.266642024687794e+000	 3.199979999988401e+000	 9.914126079424825e+000
0	 9.266642024687792e+000	 3.266639999985467e+000	 9.917663544011859e+000
0	 9.266642024687794e+000	 3.333299999983335e+000	 9.921182257094365e+000
0	 9.333302777352785e+000	 2.666700000016666e+000	 9.877210016578831e+000
0	 9.333302777352783e+000	 2.733360000014533e+000	 9.881083404833694e+000
0	 9.333302777352781e+000	 2.800020000011600e+000	 9.884930131840408e+000
0	 9.333302777352783e+000	 2.866680000008067e+000	 9.888751237575745e+000
0	 9.333302777352781e+000	 2.933340000004133e+000	 9.892547762016477e+000
0	 9.333302777352785e+000	 3.000000000000000e+000	 9.896320745139366e+000
0	 9.333302777352783e+000	 3.066659999995867e+000	 9.900071226921211e+000
0	 9.333302777352781e+000	 3.133319999991933e+000	 9.903800247338756e+000
0	 9.333302777352783e+000	 3.199979999988400e+000	 9.907508846368794e+000
0	 9.333302777352783e+000	 3.266639999985467e+000	 9.911198063988081e+000
0	 9.333302777352785e+000	 3.333299999983334e+000	 9.914868940173417e+000
0	 8.666700000016668e+000	 3.333299999983334e+000	 9.980870943095276e+000
0	 8.666700000016665e+000	 3.399969999982149e+000	 9.983260269641994e+000
0	 8.666700000016665e+000	 3.466639999981867e+000	 9.985589605793681e+000
0	 8.666700000016666e+000	 3.533309999982384e+000	 9.987859546995646e+000
0	 8.666700000016666e+000	 3.599979999983600e+000	 9.990070688693246e+000
0	 8.666700000016665e+000	 3.666649999985415e+000	 9.992223626331780e+000
0	 8.666700000016666e+000	 3.733319999987733e+000	 9.994318955356597e+000
0	 8.666700000016665e+000	 3.799989999990450e+000	 9.996357271213011e+000
0	 8.666700000016668e+000	 3.866659999993467e+000	 9.998339169346329e+000
0	 8.666700000016666e+000	 3.933329999996683e+000	 1.000026524520190e+001
0	 8.666700000016668e+000	 4.000000000000000e+000	 1.000213609422502e+001
0	 8.733360002791901e+000	 3.333299999983334e+000	 9.974010862864583e+000
0	 8.733360002791899e+000	 3.399969999982150e+000	 9.976505438444052e+000
0	 8.733360002791901e+000	 3.466639999981867e+000	 9.978940229223134e+000
0	 8.733360002791901e+000	 3.533309999982384e+000	 9.981315912015534e+000
0	 8.733360002791901e+000	 3.599979999983600e+000	 9.983633163634968e+000
0	 8.733360002791905e+000	 3.666649999985417e+000	 9.985892660895123e+000
0	 8.733360002791899e+000	 3.733319999987733e+000	 9.988095080609716e+000
0	 8.733360002791901e+000	 3.799989999990450e+000	 9.990241099592430e+000
0	 8.733360002791905e+000	 3.866659999993467e+000	 9.992331394656990e+000
0	 8.733360002791903e+000	 3.933329999996684e+000	 9.994366642617072e+000
0	 8.733360002791901e+000	 4.000000000000000e+000	 9.996347520286390e+000
0	 8.800020022230555e+000	 3.333299999983333e+000	 9.967202533191363e+000
0	 8.800020022230555e+000	 3.399969999982150e+000	 9.969804682622240e+000
0	 8.800020022230555e+000	 3.466639999981866e+000	 9.972347395780822e+000
0	 8.800020022230557e+000	 3.533309999982383e+000	 9.974831416747790e+000
0	 8.800020022230557e+000	 3.599979999983600e+000	 9.977257489603810e+000
0	 8.800020022230553e+000	 3.666649999985417e+000	 9.979626358429616e+000
0	 8.800020022230553e+000	 3.733319999987733e+000	 9.981938767305863e+000
0	 8.800020022230553e+000	 3.799989999990449e+000	 9.984195460313234e+000
0	 8.800020022230552e+000	 3.866659999993466e+000	 9.986397181532432e+000
0	 8.800020022230555e+000	 3.933329999996684e+000	 9.988544675044127e+000
0	 8.800020022230553e+000	 4.000000000000000e+000	 9.990638684929019e+000
0	 8.866680074997040e+000	 3.333299999983334e+000	 9.960448204194552e+000
0	 8.866680074997044e+000	 3.399969999982150e+000	 9.963160968371433e+000
0	 8.866680074997040e+000	 3.466639999981867e+000	 9.965814717269003e+000
0	 8.866680074997039e+000	 3.533309999982382e+000	 9.968410248133512e+000
0	 8.866680074997042e+000	 3.599979999983600e+000	 9.970948358211196e+000
0	 8.866680074997044e+000	 3.666649999985417e+000	 9.973429844748315e+000
0	 8.866680074997042e+000	 3.733319999987733e+000	 9.975855504991101e+000
0	 8.866680074997044e+000	 3.799989999990451e+000	 9.978226136185791e+000
0	 8.866680074997042e+000	 3.866659999993467e+000	 9.980542535578634e+000
0	 8.866680074997039e+000	 3.933329999996683e+000	 9.982805500415870e+000
0	 8.866680074997040e+000	 4.000000000000000e+000	 9.985015827943748e+000
0	 8.933340177755778e+000	 3.333299999983335e+000	 9.953750126040809e+000
0	 8.933340177755774e+000	 3.399969999982150e+000	 9.956577261939442e+000
0	 8.933340177755778e+000	 3.466639999981867e+000	 9.959345805547756e+000
0	 8.933340177755776e+000	 3.533309999982384e+000	 9.962056593176106e+000
0	 8.933340177755774e+000	 3.599979999983600e+000	 9.964710461134841e+000
0	 8.933340177755779e+000	 3.666649999985416e+000	 9.967308245734321e+000
0	 8.933340177755778e+000	 3.733319999987733e+000	 9.969850783284942e+000
0	 8.933340177755778e+000	 3.799989999990450e+000	 9.972338910097012e+000
0	 8.933340177755774e+000	 3.866659999993466e+000	 9.974773462480911e+000
0	 8.933340177755776e+000	 3.933329999996685e+000	 9.977155276746997e+000
0	 8.933340177755772e+000	 4.000000000000000e+000	 9.979485189205626e+000
0	 9.000000347171181e+000	 3.333299999983333e+000	 9.947110548944556e+000
0	 9.000000347171179e+000	 3.399969999982150e+000	 9.950056529627107e+000
0	 9.000000347171179e+000	 3.466639999981867e+000	 9.952944272534966e+000
0	 9.000000347171179e+000	 3.533309999982383e+000	 9.955774638941174e+000
0	 9.000000347171177e+000	 3.599979999983600e+000	 9.958548490118790e+000
0	 9.000000347171177e+000	 3.666649999985416e+000	 9.961266687340824e+000
0	 9.000000347171177e+000	 3.733319999987732e+000	 9.963930091880345e+000
0	 9.000000347171177e+000	 3.799989999990450e+000	 9.966539565010372e+000
0	 9.000000347171179e+000	 3.866659999993467e+000	 9.969095968003959e+000
0	 9.000000347171177e+000	 3.933329999996683e+000	 9.971600162134134e+000
0	 9.000000347171179e+000	 4.000000000000000e+000	 9.974053008673929e+000
0	 9.066660599907666e+000	 3.333299999983334e+000	 9.940531723167977e+000
0	 9.066660599907666e+000	 3.399969999982150e+000	 9.943601737788224e+000
0	 9.066660599907666e+000	 3.466639999981866e+000	 9.946613730206343e+000
0	 9.066660599907666e+000	 3.533309999982382e+000	 9.949568572556629e+000
0	 9.066660599907667e+000	 3.599979999983600e+000	 9.952467136973418e+000
0	 9.066660599907666e+000	 3.666649999985416e+000	 9.955310295591016e+000
0	 9.066660599907664e+000	 3.733319999987733e+000	 9.958098920543726e+000
0	 9.066660599907664e+000	 3.799989999990450e+000	 9.960833883965885e+000
0	 9.066660599907667e+000	 3.866659999993467e+000	 9.963516057991804e+000
0	 9.066660599907664e+000	 3.933329999996684e+000	 9.966146314755791e+000
0	 9.066660599907666e+000	 4.000000000000001e+000	 9.968725526392175e+000
0	 9.133320952629651e+000	 3.333299999983334e+000	 9.934015899020984e+000
0	 9.133320952629649e+000	 3.399969999982149e+000	 9.937215852829622e+000
0	 9.133320952629653e+000	 3.466639999981867e+000	 9.940357790595423e+000
0	 9.133320952629653e+000	 3.533309999982383e+000	 9.943442581212617e+000
0	 9.133320952629648e+000	 3.599979999983599e+000	 9.946471093575433e+000
0	 9.133320952629651e+000	 3.666649999985416e+000	 9.949444196578131e+000
0	 9.133320952629653e+000	 3.733319999987732e+000	 9.952362759114951e+000
0	 9.133320952629651e+000	 3.799989999990450e+000	 9.955227650080110e+000
0	 9.133320952629653e+000	 3.866659999993467e+000	 9.958039738367864e+000
0	 9.133320952629651e+000	 3.933329999996683e+000	 9.960799892872453e+000
0	 9.133320952629651e+000	 3.999999999999999e+000	 9.963508982488088e+000
0	 9.199981422001555e+000	 3.333299999983333e+000	 9.927565326861297e+000
0	 9.199981422001557e+000	 3.399969999982150e+000	 9.930901841211105e+000
0	 9.199981422001555e+000	 3.466639999981866e+000	 9.934180065793552e+000
0	 9.199981422001557e+000	 3.533309999982383e+000	 9.937400852161519e+000
0	 9.199981422001553e+000	 3.599979999983600e+000	 9.940565051867877e+000
0	 9.199981422001555e+000	 3.666649999985417e+000	 9.943673516465525e+000
0	 9.199981422001555e+000	 3.733319999987733e+000	 9.946727097507335e+000
0	 9.199981422001557e+000	 3.799989999990451e+000	 9.949726646546164e+000
0	 9.199981422001555e+000	 3.866659999993466e+000	 9.952673015134904e+000
0	 9.199981422001557e+000	 3.933329999996684e+000	 9.955567054826439e+000
0	 9.199981422001557e+000	 4.000000000000000e+000	 9.958409617173642e+000
0	 9.266642024687794e+000	 3.333299999983335e+000	 9.921182257094367e+000
0	 9.266642024687792e+000	 3.399969999982150e+000	 9.924662669445455e+000
0	 9.266642024687791e+000	 3.466639999981866e+000	 9.928084167949896e+000
0	 9.266642024687789e+000	 3.533309999982383e+000	 9.931447572718001e+000
0	 9.266642024687792e+000	 3.599979999983601e+000	 9.934753703860112e+000
0	 9.266642024687792e+000	 3.666649999985417e+000	 9.938003381486546e+000
0	 9.266642024687791e+000	 3.733319999987733e+000	 9.941197425707639e+000
0	 9.266642024687791e+000	 3.799989999990450e+000	 9.944336656633709e+000
0	 9.266642024687794e+000	 3.866659999993467e+000	 9.947421894375077e+000
0	 9.266642024687791e+000	 3.933329999996684e+000	 9.950453959042061e+000
0	 9.266642024687791e+000	 4.000000000000000e+000	 9.953433670745007e+000
0	 9.333302777352785e+000	 3.333299999983334e+000	 9.914868940173420e+000
0	 9.333302777352781e+000	 3.399969999982149e+000	 9.918501304098500e+000
0	 9.333302777352785e+000	 3.466639999981867e+000	 9.922073709271466e+000
0	 9.333302777352783e+000	 3.533309999982383e+000	 9.925586930259016e+000
0	 9.333302777352785e+000	 3.599979999983600e+000	 9.929041741627840e+000
0	 9.333302777352783e+000	 3.666649999985417e+000	 9.932438917944658e+000
0	 9.333302777352783e+000	 3.733319999987733e+000	 9.935779233776122e+000
0	 9.333302777352783e+000	 3.799989999990450e+000	 9.939063463688980e+000
0	 9.333302777352783e+000	 3.866659999993466e+000	 9.942292382249878e+000
0	 9.333302777352783e+000	 3.933329999996683e+000	 9.945466764025525e+000
0	 9.333302777352785e+000	 4.000000000000000e+000	 9.948587383582638e+000
0	 8.666700000016668e+000	 4.000000000000000e+000	 1.000213609422503e+001
0	 8.666700000016666e+000	 4.066670000003317e+000	 1.000394709821892e+001
0	 8.666700000016666e+000	 4.133340000006535e+000	 1.000569311378169e+001
0	 8.666700000016668e+000	 4.200010000009551e+000	 1.000737394855098e+001
0	 8.666700000016666e+000	 4.266680000012268e+000	 1.000898941016445e+001
0	 8.666700000016666e+000	 4.333350000014585e+000	 1.001053930625972e+001
0	 8.666700000016666e+000	 4.400020000016401e+000	 1.001202344447447e+001
0	 8.666700000016666e+000	 4.466690000017618e+000	 1.001344163244634e+001
0	 8.666700000016668e+000	 4.533360000018134e+000	 1.001479367781298e+001
0	 8.666700000016666e+000	 4.600030000017851e+000	 1.001607938821204e+001
0	 8.666700000016668e+000	 4.666700000016666e+000	 1.001729857128115e+001
0	 8.733360002791901e+000	 4.000000000000000e+000	 9.996347520286390e+000
0	 8.733360002791905e+000	 4.066670000003317e+000	 9.998268669217056e+000
0	 8.733360002791903e+000	 4.133340000006535e+000	 1.000012420229307e+001
0	 8.733360002791907e+000	 4.200010000009552e+000	 1.000191400332595e+001
0	 8.733360002791901e+000	 4.266680000012268e+000	 1.000363795612725e+001
0	 8.733360002791903e+000	 4.333350000014583e+000	 1.000529594450849e+001
0	 8.733360002791901e+000	 4.400020000016400e+000	 1.000688785228121e+001
0	 8.733360002791903e+000	 4.466690000017617e+000	 1.000841356325691e+001
0	 8.733360002791899e+000	 4.533360000018133e+000	 1.000987296124714e+001
0	 8.733360002791901e+000	 4.600030000017850e+000	 1.001126593006342e+001
0	 8.733360002791901e+000	 4.666700000016666e+000	 1.001259235351727e+001
0	 8.800020022230553e+000	 4.000000000000000e+000	 9.990638684929019e+000
0	 8.800020022230557e+000	 4.066670000003318e+000	 9.992672948632896e+000
0	 8.800020022230555e+000	 4.133340000006535e+000	 9.994640676771946e+000
0	 8.800020022230555e+000	 4.200010000009550e+000	 9.996541823182405e+000
0	 8.800020022230557e+000	 4.266680000012268e+000	 9.998376341700546e+000
0	 8.800020022230550e+000	 4.333350000014582e+000	 1.000014418616259e+001
0	 8.800020022230557e+000	 4.400020000016401e+000	 1.000184531040479e+001
0	 8.800020022230557e+000	 4.466690000017618e+000	 1.000347966826339e+001
0	 8.800020022230553e+000	 4.533360000018134e+000	 1.000504721357463e+001
0	 8.800020022230555e+000	 4.600030000017849e+000	 1.000654790017475e+001
0	 8.800020022230555e+000	 4.666700000016666e+000	 1.000798168190001e+001
0	 8.866680074997040e+000	 4.000000000000000e+000	 9.985015827943744e+000
0	 8.866680074997040e+000	 4.066670000003317e+000	 9.987166231734907e+000
0	 8.866680074997040e+000	 4.133340000006534e+000	 9.989248905672390e+000
0	 8.866680074997042e+000	 4.200010000009551e+000	 9.991263867467918e+000
0	 8.866680074997044e+000	 4.266680000012267e+000	 9.993211134833260e+000
0	 8.866680074997040e+000	 4.333350000014582e+000	 9.995090725480154e+000
0	 8.866680074997044e+000	 4.400020000016403e+000	 9.996902657120373e+000
0	 8.866680074997040e+000	 4.466690000017617e+000	 9.998646947465648e+000
0	 8.866680074997040e+000	 4.533360000018134e+000	 1.000032361422773e+001
0	 8.866680074997039e+000	 4.600030000017850e+000	 1.000193267511836e+001
0	 8.866680074997040e+000	 4.666700000016667e+000	 1.000347414784931e+001
0	 8.933340177755772e+000	 4.000000000000000e+000	 9.979485189205624e+000
0	 8.933340177755776e+000	 4.066670000003318e+000	 9.981754813877874e+000
0	 8.933340177755774e+000	 4.133340000006534e+000	 9.983955257536627e+000
0	 8.933340177755776e+000	 4.200010000009550e+000	 9.986086595619904e+000
0	 8.933340177755778e+000	 4.266680000012268e+000	 9.988148903565692e+000
0	 8.933340177755778e+000	 4.333350000014584e+000	 9.990142256812023e+000
0	 8.933340177755778e+000	 4.400020000016402e+000	 9.992066730796891e+000
0	 8.933340177755778e+000	 4.466690000017618e+000	 9.993922400958306e+000
0	 8.933340177755778e+000	 4.533360000018132e+000	 9.995709342734278e+000
0	 8.933340177755774e+000	 4.600030000017851e+000	 9.997427631562827e+000
0	 8.933340177755776e+000	 4.666700000016665e+000	 9.999077342881952e+000
0	 9.000000347171179e+000	 4.000000000000000e+000	 9.974053008673929e+000
0	 9.000000347171181e+000	 4.066670000003316e+000	 9.976444990502877e+000
0	 9.000000347171177e+000	 4.133340000006533e+000	 9.978766100995117e+000
0	 9.000000347171179e+000	 4.200010000009550e+000	 9.981016467165670e+000
0	 9.000000347171179e+000	 4.266680000012268e+000	 9.983196216029514e+000
0	 9.000000347171177e+000	 4.333350000014584e+000	 9.985305474601642e+000
0	 9.000000347171177e+000	 4.400020000016402e+000	 9.987344369897075e+000
0	 9.000000347171179e+000	 4.466690000017617e+000	 9.989313028930779e+000
0	 9.000000347171177e+000	 4.533360000018133e+000	 9.991211578717747e+000
0	 9.000000347171181e+000	 4.600030000017850e+000	 9.993040146272994e+000
0	 9.000000347171181e+000	 4.666700000016666e+000	 9.994798858611501e+000
0	 9.066660599907666e+000	 4.000000000000001e+000	 9.968725526392175e+000
0	 9.066660599907666e+000	 4.066670000003317e+000	 9.971243057137313e+000
0	 9.066660599907666e+000	 4.133340000006535e+000	 9.973687804766492e+000
0	 9.066660599907667e+000	 4.200010000009551e+000	 9.976059941722395e+000
0	 9.066660599907664e+000	 4.266680000012268e+000	 9.978359640447748e+000
0	 9.066660599907666e+000	 4.333350000014584e+000	 9.980587073385205e+000
0	 9.066660599907667e+000	 4.400020000016403e+000	 9.982742412977469e+000
0	 9.066660599907669e+000	 4.466690000017618e+000	 9.984825831667227e+000
0	 9.066660599907664e+000	 4.533360000018132e+000	 9.986837501897167e+000
0	 9.066660599907666e+000	 4.600030000017850e+000	 9.988777596109967e+000
0	 9.066660599907664e+000	 4.666700000016666e+000	 9.990646286748318e+000
0	 9.133320952629651e+000	 3.999999999999999e+000	 9.963508982488085e+000
0	 9.133320952629653e+000	 4.066670000003317e+000	 9.966155309394905e+000
0	 9.133320952629656e+000	 4.133340000006536e+000	 9.968726737657569e+000
0	 9.133320952629653e+000	 4.200010000009550e+000	 9.971223478997178e+000
0	 9.133320952629653e+000	 4.266680000012268e+000	 9.973645745134800e+000
0	 9.133320952629653e+000	 4.333350000014585e+000	 9.975993747791529e+000
0	 9.133320952629653e+000	 4.400020000016401e+000	 9.978267698688443e+000
0	 9.133320952629651e+000	 4.466690000017618e+000	 9.980467809546624e+000
0	 9.133320952629653e+000	 4.533360000018133e+000	 9.982594292087153e+000
0	 9.133320952629651e+000	 4.600030000017850e+000	 9.984647358031120e+000
0	 9.133320952629655e+000	 4.666700000016668e+000	 9.986627219099592e+000
0	 9.199981422001557e+000	 4.000000000000000e+000	 9.958409617173642e+000
0	 9.199981422001555e+000	 4.066670000003317e+000	 9.961188042975717e+000
0	 9.199981422001555e+000	 4.133340000006534e+000	 9.963889268563420e+000
0	 9.199981422001555e+000	 4.200010000009550e+000	 9.966513538786945e+000
0	 9.199981422001557e+000	 4.266680000012267e+000	 9.969061098496454e+000
0	 9.199981422001553e+000	 4.333350000014583e+000	 9.971532192542146e+000
0	 9.199981422001553e+000	 4.400020000016400e+000	 9.973927065774172e+000
0	 9.199981422001553e+000	 4.466690000017617e+000	 9.976245963042727e+000
0	 9.199981422001555e+000	 4.533360000018133e+000	 9.978489129197978e+000
0	 9.199981422001555e+000	 4.600030000017850e+000	 9.980656809090107e+000
0	 9.199981422001555e+000	 4.666700000016666e+000	 9.982749247569281e+000
0	 9.266642024687791e+000	 4.000000000000000e+000	 9.953433670745005e+000
0	 9.266642024687791e+000	 4.066670000003318e+000	 9.956347553666078e+000
0	 9.266642024687791e+000	 4.133340000006534e+000	 9.959181766467255e+000
0	 9.266642024687794e+000	 4.200010000009551e+000	 9.961936580978525e+000
0	 9.266642024687791e+000	 4.266680000012268e+000	 9.964612269029853e+000
0	 9.266642024687792e+000	 4.333350000014584e+000	 9.967209102451239e+000
0	 9.266642024687792e+000	 4.400020000016402e+000	 9.969727353072640e+000
0	 9.266642024687794e+000	 4.466690000017618e+000	 9.972167292724061e+000
0	 9.266642024687791e+000	 4.533360000018134e+000	 9.974529193235473e+000
0	 9.266642024687794e+000	 4.600030000017851e+000	 9.976813326436851e+000
0	 9.266642024687791e+000	 4.666700000016667e+000	 9.979019964158175e+000
0	 9.333302777352785e+000	 4.000000000000000e+000	 9.948587383582636e+000
0	 9.333302777352783e+000	 4.066670000003317e+000	 9.951640137338728e+000
0	 9.333302777352783e+000	 4.133340000006534e+000	 9.954610600440553e+000
0	 9.333302777352783e+000	 4.200010000009550e+000	 9.957499065548655e+000
0	 9.333302777352779e+000	 4.266680000012268e+000	 9.960305825323530e+000
0	 9.333302777352783e+000	 4.333350000014584e+000	 9.963031172425687e+000
0	 9.333302777352783e+000	 4.400020000016402e+000	 9.965675399515666e+000
0	 9.333302777352783e+000	 4.466690000017617e+000	 9.968238799253951e+000
0	 9.333302777352785e+000	 4.533360000018134e+000	 9.970721664301077e+000
0	 9.333302777352783e+000	 4.600030000017850e+000	 9.973124287317550e+000
0	 9.333302777352785e+000	 4.666700000016667e+000	 9.975446960963865e+000
0	 8.666700000016668e+000	 4.666700000016666e+000	 1.001729857128115e+001
0	 8.666700000016666e+000	 4.733360000014534e+000	 1.001845198577223e+001
0	 8.666700000016668e+000	 4.800020000011600e+000	 1.001954055061671e+001
0	 8.666700000016665e+000	 4.866680000008067e+000	 1.002056378011329e+001
0	 8.666700000016666e+000	 4.933340000004133e+000	 1.002152118856069e+001
0	 8.666700000016666e+000	 5.000000000000000e+000	 1.002241229025761e+001
0	 8.666700000016666e+000	 5.066659999995867e+000	 1.002323659950279e+001
0	 8.666700000016666e+000	 5.133319999991934e+000	 1.002399363059493e+001
0	 8.666700000016666e+000	 5.199979999988400e+000	 1.002468289783276e+001
0	 8.666700000016666e+000	 5.266639999985468e+000	 1.002530391551497e+001
0	 8.666700000016668e+000	 5.333299999983335e+000	 1.002585619794032e+001
0	 8.733360002791901e+000	 4.666700000016666e+000	 1.001259235351727e+001
0	 8.733360002791903e+000	 4.733360000014534e+000	 1.001385247889134e+001
0	 8.733360002791905e+000	 4.800020000011601e+000	 1.001504670672567e+001
0	 8.733360002791903e+000	 4.866680000008066e+000	 1.001617456884659e+001
0	 8.733360002791901e+000	 4.933340000004134e+000	 1.001723559708042e+001
0	 8.733360002791905e+000	 5.000000000000000e+000	 1.001822932325352e+001
0	 8.733360002791901e+000	 5.066659999995867e+000	 1.001915527919219e+001
0	 8.733360002791903e+000	 5.133319999991935e+000	 1.002001299672282e+001
0	 8.733360002791903e+000	 5.199979999988400e+000	 1.002080200767169e+001
0	 8.733360002791903e+000	 5.266639999985468e+000	 1.002152184386518e+001
0	 8.733360002791903e+000	 5.333299999983334e+000	 1.002217203712962e+001
0	 8.800020022230555e+000	 4.666700000016666e+000	 1.000798168190001e+001
0	 8.800020022230553e+000	 4.733360000014534e+000	 1.000934840939378e+001
0	 8.800020022230553e+000	 4.800020000011600e+000	 1.001064808506933e+001
0	 8.800020022230553e+000	 4.866680000008068e+000	 1.001188026030807e+001
0	 8.800020022230557e+000	 4.933340000004133e+000	 1.001304448649133e+001
0	 8.800020022230559e+000	 5.000000000000000e+000	 1.001414031500048e+001
0	 8.800020022230557e+000	 5.066659999995866e+000	 1.001516729721684e+001
0	 8.800020022230553e+000	 5.133319999991935e+000	 1.001612498452182e+001
0	 8.800020022230555e+000	 5.199979999988400e+000	 1.001701292829676e+001
0	 8.800020022230553e+000	 5.266639999985467e+000	 1.001783067992303e+001
0	 8.800020022230555e+000	 5.333299999983335e+000	 1.001857779078199e+001
0	 8.866680074997040e+000	 4.666700000016667e+000	 1.000347414784931e+001
0	 8.866680074997039e+000	 4.733360000014534e+000	 1.000494757742317e+001
0	 8.866680074997042e+000	 4.800020000011601e+000	 1.000635266462667e+001
0	 8.866680074997039e+000	 4.866680000008067e+000	 1.000768898242359e+001
0	 8.866680074997044e+000	 4.933340000004133e+000	 1.000895610377766e+001
0	 8.866680074997039e+000	 5.000000000000000e+000	 1.001015360165270e+001
0	 8.866680074997042e+000	 5.066659999995866e+000	 1.001128104901245e+001
0	 8.866680074997039e+000	 5.133319999991935e+000	 1.001233801882070e+001
0	 8.866680074997039e+000	 5.199979999988399e+000	 1.001332408404122e+001
0	 8.866680074997042e+000	 5.266639999985469e+000	 1.001423881763777e+001
0	 8.866680074997040e+000	 5.333299999983334e+000	 1.001508179257417e+001
0	 8.933340177755776e+000	 4.666700000016665e+000	 9.999077342881956e+000
0	 8.933340177755778e+000	 4.733360000014533e+000	 1.000065778322040e+001
0	 8.933340177755776e+000	 4.800020000011599e+000	 1.000216842447407e+001
0	 8.933340177755778e+000	 4.866680000008067e+000	 1.000360886321653e+001
0	 8.933340177755776e+000	 4.933340000004134e+000	 1.000497869602128e+001
0	 8.933340177755776e+000	 5.000000000000001e+000	 1.000627751946191e+001
0	 8.933340177755778e+000	 5.066659999995866e+000	 1.000750493011197e+001
0	 8.933340177755778e+000	 5.133319999991936e+000	 1.000866052454499e+001
0	 8.933340177755779e+000	 5.199979999988400e+000	 1.000974389933455e+001
0	 8.933340177755778e+000	 5.266639999985468e+000	 1.001075465105422e+001
0	 8.933340177755776e+000	 5.333299999983334e+000	 1.001169237627751e+001
0	 9.000000347171181e+000	 4.666700000016666e+000	 9.994798858611501e+000
0	 9.000000347171181e+000	 4.733360000014534e+000	 9.996486827123551e+000
0	 9.000000347171179e+000	 4.800020000011601e+000	 9.998103343785486e+000
0	 9.000000347171181e+000	 4.866680000008067e+000	 9.999648030807972e+000
0	 9.000000347171179e+000	 4.933340000004135e+000	 1.000112051040170e+001
0	 9.000000347171175e+000	 5.000000000000000e+000	 1.000252040477734e+001
0	 9.000000347171179e+000	 5.066659999995867e+000	 1.000384733614558e+001
0	 9.000000347171181e+000	 5.133319999991935e+000	 1.000510092671709e+001
0	 9.000000347171179e+000	 5.199979999988401e+000	 1.000628079870253e+001
0	 9.000000347171183e+000	 5.266639999985468e+000	 1.000738657431262e+001
0	 9.000000347171179e+000	 5.333299999983334e+000	 1.000841787575802e+001
0	 9.066660599907664e+000	 4.666700000016666e+000	 9.990646286748318e+000
0	 9.066660599907667e+000	 4.733360000014533e+000	 9.992442509567864e+000
0	 9.066660599907667e+000	 4.800020000011600e+000	 9.994165401832264e+000
0	 9.066660599907666e+000	 4.866680000008067e+000	 9.995814613416613e+000
0	 9.066660599907666e+000	 4.933340000004132e+000	 9.997389794196065e+000
0	 9.066660599907669e+000	 5.000000000000001e+000	 9.998890594045713e+000
0	 9.066660599907664e+000	 5.066659999995865e+000	 1.000031666284070e+001
0	 9.066660599907666e+000	 5.133319999991935e+000	 1.000166765045612e+001
0	 9.066660599907667e+000	 5.199979999988401e+000	 1.000294320676713e+001
0	 9.066660599907664e+000	 5.266639999985467e+000	 1.000414298164884e+001
0	 9.066660599907666e+000	 5.333299999983335e+000	 1.000526662497640e+001
0	 9.133320952629655e+000	 4.666700000016668e+000	 9.986627219099592e+000
0	 9.133320952629653e+000	 4.733360000014533e+000	 9.988532631085844e+000
0	 9.133320952629649e+000	 4.800020000011599e+000	 9.990362577983282e+000
0	 9.133320952629651e+000	 4.866680000008066e+000	 9.992116739358755e+000
0	 9.133320952629653e+000	 4.933340000004134e+000	 9.993794794779118e+000
0	 9.133320952629651e+000	 4.999999999999999e+000	 9.995396423811236e+000
0	 9.133320952629651e+000	 5.066659999995867e+000	 9.996921306021935e+000
0	 9.133320952629653e+000	 5.133319999991934e+000	 9.998369120978104e+000
0	 9.133320952629653e+000	 5.199979999988401e+000	 9.999739548246579e+000
0	 9.133320952629651e+000	 5.266639999985467e+000	 1.000103226739424e+001
0	 9.133320952629653e+000	 5.333299999983335e+000	 1.000224695798794e+001
0	 9.199981422001555e+000	 4.666700000016666e+000	 9.982749247569281e+000
0	 9.199981422001557e+000	 4.733360000014533e+000	 9.984764992307174e+000
0	 9.199981422001553e+000	 4.800020000011599e+000	 9.986702851704917e+000
0	 9.199981422001557e+000	 4.866680000008066e+000	 9.988562537048342e+000
0	 9.199981422001553e+000	 4.933340000004133e+000	 9.990343759623299e+000
0	 9.199981422001555e+000	 4.999999999999999e+000	 9.992046230715630e+000
0	 9.199981422001558e+000	 5.066659999995867e+000	 9.993669661611184e+000
0	 9.199981422001557e+000	 5.133319999991934e+000	 9.995213763595809e+000
0	 9.199981422001555e+000	 5.199979999988400e+000	 9.996678247955362e+000
0	 9.199981422001555e+000	 5.266639999985469e+000	 9.998062825975682e+000
0	 9.199981422001555e+000	 5.333299999983333e+000	 9.999367208942630e+000
0	 9.266642024687791e+000	 4.666700000016667e+000	 9.979019964158177e+000
0	 9.266642024687792e+000	 4.733360000014534e+000	 9.981147393958766e+000
0	 9.266642024687791e+000	 4.800020000011601e+000	 9.983194202561014e+000
0	 9.266642024687791e+000	 4.866680000008067e+000	 9.985160134996940e+000
0	 9.266642024687792e+000	 4.933340000004133e+000	 9.987044936298641e+000
0	 9.266642024687791e+000	 4.999999999999999e+000	 9.988848351498152e+000
0	 9.266642024687792e+000	 5.066659999995867e+000	 9.990570125627539e+000
0	 9.266642024687791e+000	 5.133319999991934e+000	 9.992210003718853e+000
0	 9.266642024687792e+000	 5.199979999988401e+000	 9.993767730804185e+000
0	 9.266642024687792e+000	 5.266639999985468e+000	 9.995243051915571e+000
0	 9.266642024687792e+000	 5.333299999983334e+000	 9.996635712085105e+000
0	 9.333302777352785e+000	 4.666700000016667e+000	 9.975446960963863e+000
0	 9.333302777352783e+000	 4.733360000014533e+000	 9.977687636864744e+000
0	 9.333302777352783e+000	 4.800020000011600e+000	 9.979844610212892e+000
0	 9.333302777352781e+000	 4.866680000008067e+000	 9.981917661813776e+000
0	 9.333302777352781e+000	 4.933340000004134e+000	 9.983906572472838e+000
0	 9.333302777352783e+000	 5.000000000000000e+000	 9.985811122995528e+000
0	 9.333302777352785e+000	 5.066659999995867e+000	 9.987631094187318e+000
0	 9.333302777352783e+000	 5.133319999991935e+000	 9.989366266853667e+000
0	 9.333302777352783e+000	 5.199979999988400e+000	 9.991016421800024e+000
0	 9.333302777352781e+000	 5.266639999985467e+000	 9.992581339831871e+000
0	 9.333302777352785e+000	 5.333299999983335e+000	 9.994060801754658e+000
0	 8.666700000016668e+000	 5.333299999983335e+000	 1.002585619794032e+001
0	 8.666700000016668e+000	 5.399969999982151e+000	 1.002634812287881e+001
0	 8.666700000016668e+000	 5.466639999981867e+000	 1.002678762138336e+001
0	 8.666700000016668e+000	 5.533309999982384e+000	 1.002717377068918e+001
0	 8.666700000016668e+000	 5.599979999983600e+000	 1.002750564803146e+001
0	 8.666700000016665e+000	 5.666649999985414e+000	 1.002778233064536e+001
0	 8.666700000016666e+000	 5.733319999987733e+000	 1.002800289576607e+001
0	 8.666700000016666e+000	 5.799989999990448e+000	 1.002816642062880e+001
0	 8.666700000016665e+000	 5.866659999993467e+000	 1.002827198246873e+001
0	 8.666700000016665e+000	 5.933329999996682e+000	 1.002831865852102e+001
0	 8.666700000016666e+000	 6.000000000000001e+000	 1.002830552602087e+001
0	 8.733360002791903e+000	 5.333299999983334e+000	 1.002217203712962e+001
0	 8.733360002791901e+000	 5.399969999982150e+000	 1.002276054376155e+001
0	 8.733360002791901e+000	 5.466639999981867e+000	 1.002329487937350e+001
0	 8.733360002791898e+000	 5.533309999982383e+000	 1.002377419164050e+001
0	 8.733360002791901e+000	 5.599979999983601e+000	 1.002419762823763e+001
0	 8.733360002791905e+000	 5.666649999985417e+000	 1.002456433683992e+001
0	 8.733360002791901e+000	 5.733319999987733e+000	 1.002487346512242e+001
0	 8.733360002791903e+000	 5.799989999990450e+000	 1.002512416076023e+001
0	 8.733360002791903e+000	 5.866659999993467e+000	 1.002531557142834e+001
0	 8.733360002791903e+000	 5.933329999996683e+000	 1.002544684480184e+001
0	 8.733360002791903e+000	 6.000000000000001e+000	 1.002551712855576e+001
0	 8.800020022230555e+000	 5.333299999983335e+000	 1.001857779078199e+001
0	 8.800020022230553e+000	 5.399969999982150e+000	 1.001926181334440e+001
0	 8.800020022230555e+000	 5.466639999981866e+000	 1.001988986059644e+001
0	 8.800020022230555e+000	 5.533309999982383e+000	 1.002046114496310e+001
0	 8.800020022230557e+000	 5.599979999983599e+000	 1.002097487886938e+001
0	 8.800020022230553e+000	 5.666649999985416e+000	 1.002143027474028e+001
0	 8.800020022230555e+000	 5.733319999987733e+000	 1.002182654500077e+001
0	 8.800020022230555e+000	 5.799989999990449e+000	 1.002216290207588e+001
0	 8.800020022230557e+000	 5.866659999993468e+000	 1.002243855839060e+001
0	 8.800020022230553e+000	 5.933329999996682e+000	 1.002265272636990e+001
0	 8.800020022230555e+000	 6.000000000000001e+000	 1.002280461843878e+001
0	 8.866680074997040e+000	 5.333299999983334e+000	 1.001508179257417e+001
0	 8.866680074997042e+000	 5.399969999982152e+000	 1.001586018340398e+001
0	 8.866680074997039e+000	 5.466639999981867e+000	 1.001658072158471e+001
0	 8.866680074997040e+000	 5.533309999982382e+000	 1.001724267860135e+001
0	 8.866680074997042e+000	 5.599979999983600e+000	 1.001784532593887e+001
0	 8.866680074997042e+000	 5.666649999985416e+000	 1.001838793508221e+001
0	 8.866680074997044e+000	 5.733319999987733e+000	 1.001886977751636e+001
0	 8.866680074997042e+000	 5.799989999990451e+000	 1.001929012472630e+001
0	 8.866680074997042e+000	 5.866659999993469e+000	 1.001964824819698e+001
0	 8.866680074997040e+000	 5.933329999996684e+000	 1.001994341941337e+001
0	 8.866680074997040e+000	 6.000000000000000e+000	 1.002017490986044e+001
0	 8.933340177755776e+000	 5.333299999983334e+000	 1.001169237627751e+001
0	 8.933340177755772e+000	 5.399969999982149e+000	 1.001256390581053e+001
0	 8.933340177755778e+000	 5.466639999981867e+000	 1.001337561896332e+001
0	 8.933340177755776e+000	 5.533309999982383e+000	 1.001412684059081e+001
0	 8.933340177755778e+000	 5.599979999983600e+000	 1.001481689554793e+001
0	 8.933340177755778e+000	 5.666649999985417e+000	 1.001544510868965e+001
0	 8.933340177755774e+000	 5.733319999987733e+000	 1.001601080487089e+001
0	 8.933340177755778e+000	 5.799989999990450e+000	 1.001651330894661e+001
0	 8.933340177755774e+000	 5.866659999993467e+000	 1.001695194577173e+001
0	 8.933340177755778e+000	 5.933329999996684e+000	 1.001732604020120e+001
0	 8.933340177755772e+000	 6.000000000000000e+000	 1.001763491708996e+001
0	 9.000000347171179e+000	 5.333299999983334e+000	 1.000841787575803e+001
0	 9.000000347171179e+000	 5.399969999982150e+000	 1.000938123252794e+001
0	 9.000000347171177e+000	 5.466639999981867e+000	 1.001028270944968e+001
0	 9.000000347171179e+000	 5.533309999982383e+000	 1.001112167905809e+001
0	 9.000000347171177e+000	 5.599979999983599e+000	 1.001189751388810e+001
0	 9.000000347171175e+000	 5.666649999985416e+000	 1.001260958647459e+001
0	 9.000000347171181e+000	 5.733319999987733e+000	 1.001325726935245e+001
0	 9.000000347171177e+000	 5.799989999990448e+000	 1.001383993505655e+001
0	 9.000000347171179e+000	 5.866659999993467e+000	 1.001435695612181e+001
0	 9.000000347171179e+000	 5.933329999996683e+000	 1.001480770508309e+001
0	 9.000000347171179e+000	 6.000000000000002e+000	 1.001519155447529e+001
0	 9.066660599907666e+000	 5.333299999983335e+000	 1.000526662497640e+001
0	 9.066660599907666e+000	 5.399969999982150e+000	 1.000632041561370e+001
0	 9.066660599907669e+000	 5.466639999981866e+000	 1.000731014985364e+001
0	 9.066660599907667e+000	 5.533309999982383e+000	 1.000823524222099e+001
0	 9.066660599907667e+000	 5.599979999983600e+000	 1.000909510724056e+001
0	 9.066660599907667e+000	 5.666649999985417e+000	 1.000988915943716e+001
0	 9.066660599907666e+000	 5.733319999987734e+000	 1.001061681333556e+001
0	 9.066660599907667e+000	 5.799989999990450e+000	 1.001127748346054e+001
0	 9.066660599907666e+000	 5.866659999993467e+000	 1.001187058433693e+001
0	 9.066660599907664e+000	 5.933329999996684e+000	 1.001239553048950e+001
0	 9.066660599907664e+000	 5.999999999999998e+000	 1.001285173644304e+001
0	 9.133320952629653e+000	 5.333299999983335e+000	 1.000224695798794e+001
0	 9.133320952629651e+000	 5.399969999982150e+000	 1.000338970721893e+001
0	 9.133320952629651e+000	 5.466639999981865e+000	 1.000446609707756e+001
0	 9.133320952629653e+000	 5.533309999982384e+000	 1.000547557838843e+001
0	 9.133320952629649e+000	 5.599979999983599e+000	 1.000641760197624e+001
0	 9.133320952629653e+000	 5.666649999985417e+000	 1.000729161866561e+001
0	 9.133320952629653e+000	 5.733319999987733e+000	 1.000809707928119e+001
0	 9.133320952629651e+000	 5.799989999990450e+000	 1.000883343464763e+001
0	 9.133320952629653e+000	 5.866659999993467e+000	 1.000950013558958e+001
0	 9.133320952629651e+000	 5.933329999996684e+000	 1.001009663293166e+001
0	 9.133320952629653e+000	 5.999999999999999e+000	 1.001062237749855e+001
0	 9.199981422001555e+000	 5.333299999983333e+000	 9.999367208942630e+000
0	 9.199981422001557e+000	 5.399969999982150e+000	 1.000059735958839e+001
0	 9.199981422001555e+000	 5.466639999981865e+000	 1.000175870811619e+001
0	 9.199981422001553e+000	 5.533309999982383e+000	 1.000285073596047e+001
0	 9.199981422001553e+000	 5.599979999983601e+000	 1.000387292455567e+001
0	 9.199981422001555e+000	 5.666649999985418e+000	 1.000482475533628e+001
0	 9.199981422001557e+000	 5.733319999987733e+000	 1.000570570973672e+001
0	 9.199981422001555e+000	 5.799989999990449e+000	 1.000651526919145e+001
0	 9.199981422001553e+000	 5.866659999993467e+000	 1.000725291513493e+001
0	 9.199981422001557e+000	 5.933329999996684e+000	 1.000791812900160e+001
0	 9.199981422001555e+000	 6.000000000000000e+000	 1.000851039222590e+001
0	 9.266642024687792e+000	 5.333299999983334e+000	 9.996635712085105e+000
0	 9.266642024687794e+000	 5.399969999982150e+000	 9.997951625060464e+000
0	 9.266642024687791e+000	 5.466639999981865e+000	 9.999196140056760e+000
0	 9.266642024687789e+000	 5.533309999982384e+000	 1.000036876342824e+001
0	 9.266642024687789e+000	 5.599979999983599e+000	 1.000146900152914e+001
0	 9.266642024687791e+000	 5.666649999985417e+000	 1.000249636071363e+001
0	 9.266642024687792e+000	 5.733319999987733e+000	 1.000345034733597e+001
0	 9.266642024687791e+000	 5.799989999990449e+000	 1.000433046775035e+001
0	 9.266642024687794e+000	 5.866659999993468e+000	 1.000513622831098e+001
0	 9.266642024687791e+000	 5.933329999996684e+000	 1.000586713537206e+001
0	 9.266642024687791e+000	 6.000000000000000e+000	 1.000652269528784e+001
0	 9.333302777352785e+000	 5.333299999983335e+000	 9.994060801754658e+000
0	 9.333302777352783e+000	 5.399969999982150e+000	 9.995460756067129e+000
0	 9.333302777352785e+000	 5.466639999981866e+000	 9.996786550078971e+000
0	 9.333302777352781e+000	 5.533309999982382e+000	 9.998037709374136e+000
0	 9.333302777352783e+000	 5.599979999983600e+000	 9.999213759536598e+000
0	 9.333302777352781e+000	 5.666649999985415e+000	 1.000031422615031e+001
0	 9.333302777352783e+000	 5.733319999987732e+000	 1.000133863479921e+001
0	 9.333302777352783e+000	 5.799989999990450e+000	 1.000228651106726e+001
0	 9.333302777352781e+000	 5.866659999993467e+000	 1.000315738053842e+001
0	 9.333302777352783e+000	 5.933329999996682e+000	 1.000395076879663e+001
0	 9.333302777352785e+000	 6.000000000000001e+000	 1.000466620142586e+001
0	 8.666700000016666e+000	 6.000000000000001e+000	 1.002830552602087e+001
0	 8.666700000016666e+000	 6.066670000003318e+000	 1.002824419174455e+001
0	 8.666700000016666e+000	 6.133340000006533e+000	 1.002814622190450e+001
0	 8.666700000016666e+000	 6.200010000009550e+000	 1.002801063289022e+001
0	 8.666700000016666e+000	 6.266680000012268e+000	 1.002783644109116e+001
0	 8.666700000016666e+000	 6.333350000014585e+000	 1.002762266289683e+001
0	 8.666700000016668e+000	 6.400020000016401e+000	 1.002736831469666e+001
0	 8.666700000016668e+000	 6.466690000017617e+000	 1.002707241288014e+001
0	 8.666700000016668e+000	 6.533360000018135e+000	 1.002673397383676e+001
0	 8.666700000016666e+000	 6.600030000017850e+000	 1.002635201395598e+001
0	 8.666700000016666e+000	 6.666700000016665e+000	 1.002592554962726e+001
0	 8.733360002791903e+000	 6.000000000000001e+000	 1.002551712855576e+001
0	 8.733360002791901e+000	 6.066670000003316e+000	 1.002553784130288e+001
0	 8.733360002791903e+000	 6.133340000006531e+000	 1.002552034450745e+001
0	 8.733360002791905e+000	 6.200010000009552e+000	 1.002546370012169e+001
0	 8.733360002791899e+000	 6.266680000012267e+000	 1.002536697009784e+001
0	 8.733360002791903e+000	 6.333350000014586e+000	 1.002522921638814e+001
0	 8.733360002791901e+000	 6.400020000016400e+000	 1.002504950094484e+001
0	 8.733360002791901e+000	 6.466690000017617e+000	 1.002482688572014e+001
0	 8.733360002791899e+000	 6.533360000018134e+000	 1.002456043266629e+001
0	 8.733360002791899e+000	 6.600030000017851e+000	 1.002424920373554e+001
0	 8.733360002791901e+000	 6.666700000016667e+000	 1.002389226088010e+001
0	 8.800020022230555e+000	 6.000000000000001e+000	 1.002280461843878e+001
0	 8.800020022230555e+000	 6.066670000003318e+000	 1.002290549837910e+001
0	 8.800020022230555e+000	 6.133340000006534e+000	 1.002296655792065e+001
0	 8.800020022230553e+000	 6.200010000009550e+000	 1.002298690141023e+001
0	 8.800020022230555e+000	 6.266680000012268e+000	 1.002296563319465e+001
0	 8.800020022230553e+000	 6.333350000014582e+000	 1.002290185762075e+001
0	 8.800020022230555e+000	 6.400020000016401e+000	 1.002279467903532e+001
0	 8.800020022230553e+000	 6.466690000017617e+000	 1.002264320178518e+001
0	 8.800020022230553e+000	 6.533360000018133e+000	 1.002244653021715e+001
0	 8.800020022230557e+000	 6.600030000017851e+000	 1.002220376867804e+001
0	 8.800020022230555e+000	 6.666700000016666e+000	 1.002191402151467e+001
0	 8.866680074997040e+000	 6.000000000000000e+000	 1.002017490986044e+001
0	 8.866680074997040e+000	 6.066670000003319e+000	 1.002035386598557e+001
0	 8.866680074997040e+000	 6.133340000006534e+000	 1.002049134896165e+001
0	 8.866680074997042e+000	 6.200010000009552e+000	 1.002058650236186e+001
0	 8.866680074997046e+000	 6.266680000012268e+000	 1.002063846975941e+001
0	 8.866680074997040e+000	 6.333350000014583e+000	 1.002064639472745e+001
0	 8.866680074997042e+000	 6.400020000016400e+000	 1.002060942083920e+001
0	 8.866680074997040e+000	 6.466690000017616e+000	 1.002052669166780e+001
0	 8.866680074997039e+000	 6.533360000018133e+000	 1.002039735078649e+001
0	 8.866680074997042e+000	 6.600030000017850e+000	 1.002022054176840e+001
0	 8.866680074997042e+000	 6.666700000016669e+000	 1.001999540818676e+001
0	 8.933340177755772e+000	 6.000000000000000e+000	 1.001763491708996e+001
0	 8.933340177755776e+000	 6.066670000003318e+000	 1.001788964721120e+001
0	 8.933340177755774e+000	 6.133340000006532e+000	 1.001810120452234e+001
0	 8.933340177755776e+000	 6.200010000009550e+000	 1.001826876865472e+001
0	 8.933340177755774e+000	 6.266680000012266e+000	 1.001839151923967e+001
0	 8.933340177755778e+000	 6.333350000014584e+000	 1.001846863590850e+001
0	 8.933340177755774e+000	 6.400020000016401e+000	 1.001849929829253e+001
0	 8.933340177755779e+000	 6.466690000017618e+000	 1.001848268602309e+001
0	 8.933340177755774e+000	 6.533360000018132e+000	 1.001841797873149e+001
0	 8.933340177755776e+000	 6.600030000017850e+000	 1.001830435604907e+001
0	 8.933340177755774e+000	 6.666700000016665e+000	 1.001814099760713e+001
0	 9.000000347171179e+000	 6.000000000000002e+000	 1.001519155447529e+001
0	 9.000000347171181e+000	 6.066670000003318e+000	 1.001551954522149e+001
0	 9.000000347171177e+000	 6.133340000006533e+000	 1.001580261156901e+001
0	 9.000000347171174e+000	 6.200010000009550e+000	 1.001603996603907e+001
0	 9.000000347171179e+000	 6.266680000012268e+000	 1.001623082115284e+001
0	 9.000000347171175e+000	 6.333350000014583e+000	 1.001637438943155e+001
0	 9.000000347171177e+000	 6.400020000016401e+000	 1.001646988339642e+001
0	 9.000000347171179e+000	 6.466690000017616e+000	 1.001651651556864e+001
0	 9.000000347171179e+000	 6.533360000018135e+000	 1.001651349846941e+001
0	 9.000000347171179e+000	 6.600030000017849e+000	 1.001646004461996e+001
0	 9.000000347171181e+000	 6.666700000016665e+000	 1.001635536654146e+001
0	 9.066660599907664e+000	 5.999999999999998e+000	 1.001285173644304e+001
0	 9.066660599907664e+000	 6.066670000003315e+000	 1.001325026325853e+001
0	 9.066660599907666e+000	 6.133340000006532e+000	 1.001360205714232e+001
0	 9.066660599907667e+000	 6.200010000009553e+000	 1.001390636033723e+001
0	 9.066660599907666e+000	 6.266680000012268e+000	 1.001416241508609e+001
0	 9.066660599907664e+000	 6.333350000014582e+000	 1.001436946363173e+001
0	 9.066660599907666e+000	 6.400020000016402e+000	 1.001452674821697e+001
0	 9.066660599907666e+000	 6.466690000017617e+000	 1.001463351108463e+001
0	 9.066660599907666e+000	 6.533360000018134e+000	 1.001468899447754e+001
0	 9.066660599907666e+000	 6.600030000017851e+000	 1.001469244063853e+001
0	 9.066660599907664e+000	 6.666700000016666e+000	 1.001464309181041e+001
0	 9.133320952629653e+000	 5.999999999999999e+000	 1.001062237749855e+001
0	 9.133320952629651e+000	 6.066670000003315e+000	 1.001108850464097e+001
0	 9.133320952629651e+000	 6.133340000006532e+000	 1.001150602835730e+001
0	 9.133320952629651e+000	 6.200010000009550e+000	 1.001187421744372e+001
0	 9.133320952629655e+000	 6.266680000012268e+000	 1.001219234069642e+001
0	 9.133320952629651e+000	 6.333350000014585e+000	 1.001245966691154e+001
0	 9.133320952629649e+000	 6.400020000016400e+000	 1.001267546488527e+001
0	 9.133320952629655e+000	 6.466690000017618e+000	 1.001283900341377e+001
0	 9.133320952629653e+000	 6.533360000018135e+000	 1.001294955129320e+001
0	 9.133320952629649e+000	 6.600030000017851e+000	 1.001300637731974e+001
0	 9.133320952629653e+000	 6.666700000016665e+000	 1.001300875028955e+001
0	 9.199981422001555e+000	 6.000000000000000e+000	 1.000851039222590e+001
0	 9.199981422001555e+000	 6.066670000003318e+000	 1.000904097276403e+001
0	 9.199981422001551e+000	 6.133340000006533e+000	 1.000952101240337e+001
0	 9.199981422001557e+000	 6.200010000009553e+000	 1.000994980332515e+001
0	 9.199981422001557e+000	 6.266680000012268e+000	 1.001032663771061e+001
0	 9.199981422001555e+000	 6.333350000014585e+000	 1.001065080774096e+001
0	 9.199981422001558e+000	 6.400020000016402e+000	 1.001092160559746e+001
0	 9.199981422001555e+000	 6.466690000017617e+000	 1.001113832346132e+001
0	 9.199981422001555e+000	 6.533360000018134e+000	 1.001130025351378e+001
0	 9.199981422001555e+000	 6.600030000017848e+000	 1.001140668793609e+001
0	 9.199981422001555e+000	 6.666700000016665e+000	 1.001145691890943e+001
0	 9.266642024687791e+000	 6.000000000000000e+000	 1.000652269528784e+001
0	 9.266642024687792e+000	 6.066670000003316e+000	 1.000711437109954e+001
0	 9.266642024687792e+000	 6.133340000006531e+000	 1.000765349654434e+001
0	 9.266642024687791e+000	 6.200010000009550e+000	 1.000813938402023e+001
0	 9.266642024687789e+000	 6.266680000012267e+000	 1.000857134592523e+001
0	 9.266642024687792e+000	 6.333350000014586e+000	 1.000894869465736e+001
0	 9.266642024687791e+000	 6.400020000016402e+000	 1.000927074261465e+001
0	 9.266642024687791e+000	 6.466690000017617e+000	 1.000953680219510e+001
0	 9.266642024687791e+000	 6.533360000018133e+000	 1.000974618579672e+001
0	 9.266642024687796e+000	 6.600030000017851e+000	 1.000989820581751e+001
0	 9.266642024687791e+000	 6.666700000016667e+000	 1.000999217465552e+001
0	 9.333302777352785e+000	 6.000000000000001e+000	 1.000466620142586e+001
0	 9.333302777352781e+000	 6.066670000003315e+000	 1.000531540319591e+001
0	 9.333302777352783e+000	 6.133340000006534e+000	 1.000590996811840e+001
0	 9.333302777352783e+000	 6.200010000009552e+000	 1.000644922563982e+001
0	 9.333302777352781e+000	 6.266680000012266e+000	 1.000693250520671e+001
0	 9.333302777352783e+000	 6.333350000014586e+000	 1.000735913626559e+001
0	 9.333302777352783e+000	 6.400020000016400e+000	 1.000772844826299e+001
0	 9.333302777352783e+000	 6.466690000017617e+000	 1.000803977064544e+001
0	 9.333302777352785e+000	 6.533360000018136e+000	 1.000829243285945e+001
0	 9.333302777352783e+000	 6.600030000017850e+000	 1.000848576435154e+001
0	 9.333302777352783e+000	 6.666700000016666e+000	 1.000861909456825e+001
0	 8.666700000016666e+000	 6.666700000016665e+000	 1.002592554962726e+001
0	 8.666700000016666e+000	 6.733360000014533e+000	 1.002546755562539e+001
0	 8.666700000016668e+000	 6.800020000011599e+000	 1.002499081339078e+001
0	 8.666700000016668e+000	 6.866680000008068e+000	 1.002449425137122e+001
0	 8.666700000016666e+000	 6.933340000004133e+000	 1.002397679801450e+001
0	 8.666700000016666e+000	 7.000000000000001e+000	 1.002343738176844e+001
0	 8.666700000016665e+000	 7.066659999995867e+000	 1.002287493108081e+001
0	 8.666700000016665e+000	 7.133319999991934e+000	 1.002228837439944e+001
0	 8.666700000016668e+000	 7.199979999988400e+000	 1.002167664017212e+001
0	 8.666700000016666e+000	 7.266639999985467e+000	 1.002103865684667e+001
0	 8.666700000016665e+000	 7.333299999983335e+000	 1.002037335287085e+001
0	 8.733360002791901e+000	 6.666700000016667e+000	 1.002389226088010e+001
0	 8.733360002791903e+000	 6.733360000014534e+000	 1.002350249109761e+001
0	 8.733360002791905e+000	 6.800020000011600e+000	 1.002309261184379e+001
0	 8.733360002791903e+000	 6.866680000008067e+000	 1.002266160180025e+001
0	 8.733360002791901e+000	 6.933340000004133e+000	 1.002220843964856e+001
0	 8.733360002791903e+000	 6.999999999999999e+000	 1.002173210407029e+001
0	 8.733360002791899e+000	 7.066659999995866e+000	 1.002123157374700e+001
0	 8.733360002791905e+000	 7.133319999991935e+000	 1.002070582736027e+001
0	 8.733360002791905e+000	 7.199979999988400e+000	 1.002015384359169e+001
0	 8.733360002791901e+000	 7.266639999985468e+000	 1.001957460112280e+001
0	 8.733360002791903e+000	 7.333299999983335e+000	 1.001896707863523e+001
0	 8.800020022230555e+000	 6.666700000016666e+000	 1.002191402151467e+001
0	 8.800020022230555e+000	 6.733360000014533e+000	 1.002159014059662e+001
0	 8.800020022230555e+000	 6.800020000011600e+000	 1.002124483093106e+001
0	 8.800020022230553e+000	 6.866680000008066e+000	 1.002087711765652e+001
0	 8.800020022230559e+000	 6.933340000004135e+000	 1.002048602591149e+001
0	 8.800020022230557e+000	 7.000000000000001e+000	 1.002007058083447e+001
0	 8.800020022230557e+000	 7.066659999995866e+000	 1.001962980756399e+001
0	 8.800020022230553e+000	 7.133319999991935e+000	 1.001916273123854e+001
0	 8.800020022230555e+000	 7.199979999988401e+000	 1.001866837699661e+001
0	 8.800020022230553e+000	 7.266639999985467e+000	 1.001814576997673e+001
0	 8.800020022230557e+000	 7.333299999983335e+000	 1.001759393531741e+001
0	 8.866680074997042e+000	 6.666700000016669e+000	 1.001999540818676e+001
0	 8.866680074997040e+000	 6.733360000014534e+000	 1.001973482041230e+001
0	 8.866680074997042e+000	 6.800020000011601e+000	 1.001945152344203e+001
0	 8.866680074997040e+000	 6.866680000008069e+000	 1.001914458509454e+001
0	 8.866680074997044e+000	 6.933340000004134e+000	 1.001881307318838e+001
0	 8.866680074997042e+000	 7.000000000000002e+000	 1.001845605554212e+001
0	 8.866680074997042e+000	 7.066659999995867e+000	 1.001807259997433e+001
0	 8.866680074997042e+000	 7.133319999991934e+000	 1.001766177430358e+001
0	 8.866680074997042e+000	 7.199979999988402e+000	 1.001722264634843e+001
0	 8.866680074997042e+000	 7.266639999985468e+000	 1.001675428392746e+001
0	 8.866680074997042e+000	 7.333299999983335e+000	 1.001625575485925e+001
0	 8.933340177755774e+000	 6.666700000016665e+000	 1.001814099760713e+001
0	 8.933340177755776e+000	 6.733360000014533e+000	 1.001794084688682e+001
0	 8.933340177755774e+000	 6.800020000011598e+000	 1.001771674221586e+001
0	 8.933340177755776e+000	 6.866680000008067e+000	 1.001746779031594e+001
0	 8.933340177755776e+000	 6.933340000004134e+000	 1.001719309790879e+001
0	 8.933340177755774e+000	 6.999999999999998e+000	 1.001689177171616e+001
0	 8.933340177755776e+000	 7.066659999995867e+000	 1.001656291845979e+001
0	 8.933340177755778e+000	 7.133319999991936e+000	 1.001620564486140e+001
0	 8.933340177755778e+000	 7.199979999988400e+000	 1.001581905764273e+001
0	 8.933340177755778e+000	 7.266639999985468e+000	 1.001540226352552e+001
0	 8.933340177755776e+000	 7.333299999983334e+000	 1.001495436923152e+001
0	 9.000000347171181e+000	 6.666700000016665e+000	 1.001635536654146e+001
0	 9.000000347171183e+000	 6.733360000014532e+000	 1.001621253641480e+001
0	 9.000000347171177e+000	 6.800020000011598e+000	 1.001604454014147e+001
0	 9.000000347171177e+000	 6.866680000008066e+000	 1.001585051956948e+001
0	 9.000000347171181e+000	 6.933340000004135e+000	 1.001562961654681e+001
0	 9.000000347171177e+000	 6.999999999999999e+000	 1.001538097292145e+001
0	 9.000000347171181e+000	 7.066659999995868e+000	 1.001510373054139e+001
0	 9.000000347171181e+000	 7.133319999991935e+000	 1.001479703125462e+001
0	 9.000000347171179e+000	 7.199979999988400e+000	 1.001446001690909e+001
0	 9.000000347171183e+000	 7.266639999985467e+000	 1.001409182935284e+001
0	 9.000000347171181e+000	 7.333299999983333e+000	 1.001369161043384e+001
0	 9.066660599907664e+000	 6.666700000016666e+000	 1.001464309181041e+001
0	 9.066660599907666e+000	 6.733360000014534e+000	 1.001455420544306e+001
0	 9.066660599907667e+000	 6.800020000011601e+000	 1.001443897015753e+001
0	 9.066660599907666e+000	 6.866680000008066e+000	 1.001429655915107e+001
0	 9.066660599907666e+000	 6.933340000004134e+000	 1.001412614562103e+001
0	 9.066660599907669e+000	 6.999999999999999e+000	 1.001392690276471e+001
0	 9.066660599907667e+000	 7.066659999995868e+000	 1.001369800377942e+001
0	 9.066660599907666e+000	 7.133319999991934e+000	 1.001343862186248e+001
0	 9.066660599907667e+000	 7.199979999988400e+000	 1.001314793021118e+001
0	 9.066660599907666e+000	 7.266639999985467e+000	 1.001282510202286e+001
0	 9.066660599907664e+000	 7.333299999983335e+000	 1.001246931049482e+001
0	 9.133320952629653e+000	 6.666700000016665e+000	 1.001300875028955e+001
0	 9.133320952629653e+000	 6.733360000014534e+000	 1.001297017047095e+001
0	 9.133320952629649e+000	 6.800020000011600e+000	 1.001290408525243e+001
0	 9.133320952629653e+000	 6.866680000008066e+000	 1.001280969540372e+001
0	 9.133320952629651e+000	 6.933340000004134e+000	 1.001268620169452e+001
0	 9.133320952629651e+000	 6.999999999999999e+000	 1.001253280489451e+001
0	 9.133320952629651e+000	 7.066659999995866e+000	 1.001234870577340e+001
0	 9.133320952629653e+000	 7.133319999991934e+000	 1.001213310510088e+001
0	 9.133320952629651e+000	 7.199979999988401e+000	 1.001188520364665e+001
0	 9.133320952629653e+000	 7.266639999985467e+000	 1.001160420218043e+001
0	 9.133320952629655e+000	 7.333299999983335e+000	 1.001128930147188e+001
0	 9.199981422001555e+000	 6.666700000016665e+000	 1.001145691890943e+001
0	 9.199981422001558e+000	 6.733360000014534e+000	 1.001146474805004e+001
0	 9.199981422001553e+000	 6.800020000011599e+000	 1.001144393846439e+001
0	 9.199981422001555e+000	 6.866680000008067e+000	 1.001139371471762e+001
0	 9.199981422001555e+000	 6.933340000004133e+000	 1.001131330137489e+001
0	 9.199981422001555e+000	 7.000000000000000e+000	 1.001120192300133e+001
0	 9.199981422001557e+000	 7.066659999995869e+000	 1.001105880416210e+001
0	 9.199981422001555e+000	 7.133319999991935e+000	 1.001088316942234e+001
0	 9.199981422001553e+000	 7.199979999988400e+000	 1.001067424334722e+001
0	 9.199981422001555e+000	 7.266639999985466e+000	 1.001043125050186e+001
0	 9.199981422001555e+000	 7.333299999983335e+000	 1.001015341545143e+001
0	 9.266642024687791e+000	 6.666700000016667e+000	 1.000999217465552e+001
0	 9.266642024687791e+000	 6.733360000014530e+000	 1.001004225478434e+001
0	 9.266642024687791e+000	 6.800020000011600e+000	 1.001006258288132e+001
0	 9.266642024687794e+000	 6.866680000008067e+000	 1.001005240353005e+001
0	 9.266642024687794e+000	 6.933340000004134e+000	 1.001001096131422e+001
0	 9.266642024687789e+000	 6.999999999999998e+000	 1.000993750081751e+001
0	 9.266642024687792e+000	 7.066659999995867e+000	 1.000983126662356e+001
0	 9.266642024687794e+000	 7.133319999991936e+000	 1.000969150331604e+001
0	 9.266642024687792e+000	 7.199979999988400e+000	 1.000951745547862e+001
0	 9.266642024687792e+000	 7.266639999985467e+000	 1.000930836769493e+001
0	 9.266642024687791e+000	 7.333299999983332e+000	 1.000906348454870e+001
0	 9.333302777352783e+000	 6.666700000016666e+000	 1.000861909456825e+001
0	 9.333302777352783e+000	 6.733360000014532e+000	 1.000870700733021e+001
0	 9.333302777352783e+000	 6.800020000011600e+000	 1.000876407164087e+001
0	 9.333302777352783e+000	 6.866680000008068e+000	 1.000878954832542e+001
0	 9.333302777352781e+000	 6.933340000004135e+000	 1.000878269820912e+001
0	 9.333302777352781e+000	 6.999999999999999e+000	 1.000874278211725e+001
0	 9.333302777352783e+000	 7.066659999995867e+000	 1.000866906087505e+001
0	 9.333302777352783e+000	 7.133319999991934e+000	 1.000856079530775e+001
0	 9.333302777352783e+000	 7.199979999988400e+000	 1.000841724624062e+001
0	 9.333302777352783e+000	 7.266639999985467e+000	 1.000823767449892e+001
0	 9.333302777352785e+000	 7.333299999983335e+000	 1.000802134090787e+001
0	 8.666700000016665e+000	 7.333299999983335e+000	 1.002037335287085e+001
0	 8.666700000016666e+000	 7.399969999982151e+000	 1.001969397776789e+001
0	 8.666700000016668e+000	 7.466639999981867e+000	 1.001901393671033e+001
0	 8.666700000016668e+000	 7.533309999982383e+000	 1.001833208589470e+001
0	 8.666700000016668e+000	 7.599979999983599e+000	 1.001764728151754e+001
0	 8.666700000016666e+000	 7.666649999985415e+000	 1.001695837977540e+001
0	 8.666700000016666e+000	 7.733319999987733e+000	 1.001626423686484e+001
0	 8.666700000016666e+000	 7.799989999990450e+000	 1.001556370898239e+001
0	 8.666700000016663e+000	 7.866659999993464e+000	 1.001485565232459e+001
0	 8.666700000016666e+000	 7.933329999996683e+000	 1.001413892308800e+001
0	 8.666700000016666e+000	 7.999999999999999e+000	 1.001341237746916e+001
0	 8.733360002791903e+000	 7.333299999983335e+000	 1.001896707863523e+001
0	 8.733360002791899e+000	 7.399969999982149e+000	 1.001834446820864e+001
0	 8.733360002791899e+000	 7.466639999981866e+000	 1.001772010436315e+001
0	 8.733360002791898e+000	 7.533309999982383e+000	 1.001709289951162e+001
0	 8.733360002791901e+000	 7.599979999983598e+000	 1.001646176606688e+001
0	 8.733360002791905e+000	 7.666649999985416e+000	 1.001582561644178e+001
0	 8.733360002791901e+000	 7.733319999987733e+000	 1.001518336304916e+001
0	 8.733360002791905e+000	 7.799989999990449e+000	 1.001453391830187e+001
0	 8.733360002791903e+000	 7.866659999993466e+000	 1.001387619461275e+001
0	 8.733360002791903e+000	 7.933329999996683e+000	 1.001320910439464e+001
0	 8.733360002791903e+000	 7.999999999999999e+000	 1.001253156006038e+001
0	 8.800020022230557e+000	 7.333299999983335e+000	 1.001759393531741e+001
0	 8.800020022230555e+000	 7.399969999982151e+000	 1.001702603044270e+001
0	 8.800020022230555e+000	 7.466639999981867e+000	 1.001645534298348e+001
0	 8.800020022230553e+000	 7.533309999982382e+000	 1.001588083831481e+001
0	 8.800020022230557e+000	 7.599979999983601e+000	 1.001530148181181e+001
0	 8.800020022230553e+000	 7.666649999985416e+000	 1.001471623884952e+001
0	 8.800020022230555e+000	 7.733319999987734e+000	 1.001412407480309e+001
0	 8.800020022230555e+000	 7.799989999990451e+000	 1.001352395504755e+001
0	 8.800020022230555e+000	 7.866659999993468e+000	 1.001291484495803e+001
0	 8.800020022230555e+000	 7.933329999996682e+000	 1.001229570990964e+001
0	 8.800020022230557e+000	 8.000000000000004e+000	 1.001166551527741e+001
0	 8.866680074997042e+000	 7.333299999983335e+000	 1.001625575485925e+001
0	 8.866680074997042e+000	 7.399969999982151e+000	 1.001574021224731e+001
0	 8.866680074997040e+000	 7.466639999981867e+000	 1.001522092823071e+001
0	 8.866680074997039e+000	 7.533309999982383e+000	 1.001469691789264e+001
0	 8.866680074997040e+000	 7.599979999983600e+000	 1.001416719631641e+001
0	 8.866680074997044e+000	 7.666649999985416e+000	 1.001363077858521e+001
0	 8.866680074997044e+000	 7.733319999987732e+000	 1.001308667978232e+001
0	 8.866680074997042e+000	 7.799989999990450e+000	 1.001253391499097e+001
0	 8.866680074997040e+000	 7.866659999993467e+000	 1.001197149929444e+001
0	 8.866680074997039e+000	 7.933329999996683e+000	 1.001139844777595e+001
0	 8.866680074997044e+000	 8.000000000000002e+000	 1.001081377551877e+001
0	 8.933340177755776e+000	 7.333299999983334e+000	 1.001495436923151e+001
0	 8.933340177755774e+000	 7.399969999982150e+000	 1.001448856142605e+001
0	 8.933340177755778e+000	 7.466639999981866e+000	 1.001401813578809e+001
0	 8.933340177755778e+000	 7.533309999982384e+000	 1.001354215385493e+001
0	 8.933340177755774e+000	 7.599979999983599e+000	 1.001305967716383e+001
0	 8.933340177755779e+000	 7.666649999985416e+000	 1.001256976725210e+001
0	 8.933340177755776e+000	 7.733319999987733e+000	 1.001207148565701e+001
0	 8.933340177755778e+000	 7.799989999990448e+000	 1.001156389391587e+001
0	 8.933340177755774e+000	 7.866659999993465e+000	 1.001104605356594e+001
0	 8.933340177755776e+000	 7.933329999996684e+000	 1.001051702614452e+001
0	 8.933340177755776e+000	 8.000000000000000e+000	 1.000997587318889e+001
0	 9.000000347171181e+000	 7.333299999983333e+000	 1.001369161043384e+001
0	 9.000000347171177e+000	 7.399969999982148e+000	 1.001327262580887e+001
0	 9.000000347171181e+000	 7.466639999981867e+000	 1.001284824136283e+001
0	 9.000000347171183e+000	 7.533309999982383e+000	 1.001241756183293e+001
0	 9.000000347171179e+000	 7.599979999983600e+000	 1.001197969195634e+001
0	 9.000000347171175e+000	 7.666649999985415e+000	 1.001153373647022e+001
0	 9.000000347171179e+000	 7.733319999987732e+000	 1.001107880011178e+001
0	 9.000000347171177e+000	 7.799989999990450e+000	 1.001061398761817e+001
0	 9.000000347171179e+000	 7.866659999993466e+000	 1.001013840372660e+001
0	 9.000000347171179e+000	 7.933329999996682e+000	 1.000965115317422e+001
0	 9.000000347171179e+000	 8.000000000000000e+000	 1.000915134069822e+001
0	 9.066660599907664e+000	 7.333299999983335e+000	 1.001246931049482e+001
0	 9.066660599907664e+000	 7.399969999982150e+000	 1.001209395325212e+001
0	 9.066660599907667e+000	 7.466639999981867e+000	 1.001171252068601e+001
0	 9.066660599907667e+000	 7.533309999982382e+000	 1.001132415747939e+001
0	 9.066660599907667e+000	 7.599979999983600e+000	 1.001092800831519e+001
0	 9.066660599907666e+000	 7.666649999985417e+000	 1.001052321787628e+001
0	 9.066660599907666e+000	 7.733319999987734e+000	 1.001010893084560e+001
0	 9.066660599907667e+000	 7.799989999990448e+000	 1.000968429190605e+001
0	 9.066660599907666e+000	 7.866659999993467e+000	 1.000924844574051e+001
0	 9.066660599907664e+000	 7.933329999996683e+000	 1.000880053703190e+001
0	 9.066660599907669e+000	 8.000000000000000e+000	 1.000833971046313e+001
0	 9.133320952629655e+000	 7.333299999983335e+000	 1.001128930147188e+001
0	 9.133320952629649e+000	 7.399969999982150e+000	 1.001095409163851e+001
0	 9.133320952629649e+000	 7.466639999981865e+000	 1.001061224951256e+001
0	 9.133320952629655e+000	 7.533309999982383e+000	 1.001026295646849e+001
0	 9.133320952629649e+000	 7.599979999983599e+000	 1.000990539388072e+001
0	 9.133320952629653e+000	 7.666649999985417e+000	 1.000953874312374e+001
0	 9.133320952629653e+000	 7.733319999987733e+000	 1.000916218557196e+001
0	 9.133320952629651e+000	 7.799989999990449e+000	 1.000877490259985e+001
0	 9.133320952629653e+000	 7.866659999993467e+000	 1.000837607558184e+001
0	 9.133320952629651e+000	 7.933329999996684e+000	 1.000796488589239e+001
0	 9.133320952629651e+000	 8.000000000000000e+000	 1.000754051490593e+001
0	 9.199981422001555e+000	 7.333299999983335e+000	 1.001015341545143e+001
0	 9.199981422001557e+000	 7.399969999982152e+000	 1.000985458887718e+001
0	 9.199981422001555e+000	 7.466639999981866e+000	 1.000954870362140e+001
0	 9.199981422001555e+000	 7.533309999982385e+000	 1.000923497449586e+001
0	 9.199981422001553e+000	 7.599979999983598e+000	 1.000891261631238e+001
0	 9.199981422001555e+000	 7.666649999985417e+000	 1.000858084388275e+001
0	 9.199981422001555e+000	 7.733319999987733e+000	 1.000823887201874e+001
0	 9.199981422001555e+000	 7.799989999990450e+000	 1.000788591553216e+001
0	 9.199981422001553e+000	 7.866659999993467e+000	 1.000752118923480e+001
0	 9.199981422001555e+000	 7.933329999996682e+000	 1.000714390793845e+001
0	 9.199981422001553e+000	 8.000000000000000e+000	 1.000675328645492e+001
0	 9.266642024687791e+000	 7.333299999983332e+000	 1.000906348454870e+001
0	 9.266642024687792e+000	 7.399969999982150e+000	 1.000879699290361e+001
0	 9.266642024687791e+000	 7.466639999981865e+000	 1.000852315881527e+001
0	 9.266642024687791e+000	 7.533309999982384e+000	 1.000824122727864e+001
0	 9.266642024687792e+000	 7.599979999983600e+000	 1.000795044328863e+001
0	 9.266642024687794e+000	 7.666649999985417e+000	 1.000765005184018e+001
0	 9.266642024687791e+000	 7.733319999987732e+000	 1.000733929792826e+001
0	 9.266642024687792e+000	 7.799989999990449e+000	 1.000701742654776e+001
0	 9.266642024687792e+000	 7.866659999993466e+000	 1.000668368269363e+001
0	 9.266642024687792e+000	 7.933329999996682e+000	 1.000633731136084e+001
0	 9.266642024687792e+000	 8.000000000000000e+000	 1.000597755754430e+001
0	 9.333302777352785e+000	 7.333299999983335e+000	 1.000802134090787e+001
0	 9.333302777352781e+000	 7.399969999982150e+000	 1.000778285167966e+001
0	 9.333302777352783e+000	 7.466639999981866e+000	 1.000753689092087e+001
0	 9.333302777352783e+000	 7.533309999982383e+000	 1.000728273055534e+001
0	 9.333302777352785e+000	 7.599979999983600e+000	 1.000701964250698e+001
0	 9.333302777352783e+000	 7.666649999985418e+000	 1.000674689869965e+001
0	 9.333302777352783e+000	 7.733319999987732e+000	 1.000646377105724e+001
0	 9.333302777352783e+000	 7.799989999990449e+000	 1.000616953150363e+001
0	 9.333302777352781e+000	 7.866659999993466e+000	 1.000586345196266e+001
0	 9.333302777352781e+000	 7.933329999996683e+000	 1.000554480435827e+001
0	 9.333302777352783e+000	 8.000000000000000e+000	 1.000521286061426e+001
0	 8.666700000016666e+000	 7.999999999999999e+000	 1.001341237746916e+001
0	 8.666700000016666e+000	 8.066670000003317e+000	 1.001268899972446e+001
0	 8.666700000016666e+000	 8.133340000006534e+000	 1.001198165304474e+001
0	 8.666700000016666e+000	 8.200010000009550e+000	 1.001128901202828e+001
0	 8.666700000016666e+000	 8.266680000012268e+000	 1.001060975127332e+001
0	 8.666700000016666e+000	 8.333350000014585e+000	 1.000994254537813e+001
0	 8.666700000016668e+000	 8.400020000016401e+000	 1.000928606894094e+001
0	 8.666700000016666e+000	 8.466690000017618e+000	 1.000863899656002e+001
0	 8.666700000016665e+000	 8.533360000018133e+000	 1.000800000283363e+001
0	 8.666700000016666e+000	 8.600030000017851e+000	 1.000736776236003e+001
0	 8.666700000016666e+000	 8.666700000016666e+000	 1.000674094973745e+001
0	 8.733360002791903e+000	 7.999999999999999e+000	 1.001253156006038e+001
0	 8.733360002791899e+000	 8.066670000003315e+000	 1.001185626805883e+001
0	 8.733360002791903e+000	 8.133340000006530e+000	 1.001119581802082e+001
0	 8.733360002791903e+000	 8.200010000009552e+000	 1.001054894713213e+001
0	 8.733360002791901e+000	 8.266680000012267e+000	 1.000991439257860e+001
0	 8.733360002791903e+000	 8.333350000014583e+000	 1.000929089154599e+001
0	 8.733360002791901e+000	 8.400020000016399e+000	 1.000867718122011e+001
0	 8.733360002791901e+000	 8.466690000017618e+000	 1.000807199878678e+001
0	 8.733360002791899e+000	 8.533360000018131e+000	 1.000747408143180e+001
0	 8.733360002791899e+000	 8.600030000017851e+000	 1.000688216634094e+001
0	 8.733360002791903e+000	 8.666700000016666e+000	 1.000629499070003e+001
0	 8.800020022230557e+000	 8.000000000000004e+000	 1.001166551527741e+001
0	 8.800020022230557e+000	 8.066670000003315e+000	 1.001103670487838e+001
0	 8.800020022230555e+000	 8.133340000006536e+000	 1.001042161304635e+001
0	 8.800020022230553e+000	 8.200010000009547e+000	 1.000981904093167e+001
0	 8.800020022230555e+000	 8.266680000012268e+000	 1.000922778968468e+001
0	 8.800020022230552e+000	 8.333350000014582e+000	 1.000864666045572e+001
0	 8.800020022230555e+000	 8.400020000016401e+000	 1.000807445439506e+001
0	 8.800020022230557e+000	 8.466690000017618e+000	 1.000750997265312e+001
0	 8.800020022230557e+000	 8.533360000018135e+000	 1.000695201638018e+001
0	 8.800020022230553e+000	 8.600030000017849e+000	 1.000639938672659e+001
0	 8.800020022230553e+000	 8.666700000016666e+000	 1.000585088484269e+001
0	 8.866680074997044e+000	 8.000000000000002e+000	 1.001081377551877e+001
0	 8.866680074997039e+000	 8.066670000003317e+000	 1.001022968301911e+001
0	 8.866680074997042e+000	 8.133340000006534e+000	 1.000965827171233e+001
0	 8.866680074997040e+000	 8.200010000009550e+000	 1.000909840809019e+001
0	 8.866680074997044e+000	 8.266680000012270e+000	 1.000854895864451e+001
0	 8.866680074997039e+000	 8.333350000014582e+000	 1.000800878986710e+001
0	 8.866680074997040e+000	 8.400020000016401e+000	 1.000747676824974e+001
0	 8.866680074997040e+000	 8.466690000017618e+000	 1.000695176028425e+001
0	 8.866680074997037e+000	 8.533360000018131e+000	 1.000643263246242e+001
0	 8.866680074997040e+000	 8.600030000017851e+000	 1.000591825127605e+001
0	 8.866680074997042e+000	 8.666700000016670e+000	 1.000540748321696e+001
0	 8.933340177755776e+000	 8.000000000000000e+000	 1.000997587318889e+001
0	 8.933340177755778e+000	 8.066670000003319e+000	 1.000943457532114e+001
0	 8.933340177755774e+000	 8.133340000006532e+000	 1.000890502761192e+001
0	 8.933340177755778e+000	 8.200010000009550e+000	 1.000838616327141e+001
0	 8.933340177755776e+000	 8.266680000012267e+000	 1.000787691550974e+001
0	 8.933340177755778e+000	 8.333350000014585e+000	 1.000737621753709e+001
0	 8.933340177755776e+000	 8.400020000016403e+000	 1.000688300256358e+001
0	 8.933340177755778e+000	 8.466690000017618e+000	 1.000639620379939e+001
0	 8.933340177755776e+000	 8.533360000018133e+000	 1.000591475445470e+001
0	 8.933340177755774e+000	 8.600030000017849e+000	 1.000543758773961e+001
0	 8.933340177755776e+000	 8.666700000016665e+000	 1.000496363686432e+001
0	 9.000000347171179e+000	 8.000000000000000e+000	 1.000915134069822e+001
0	 9.000000347171179e+000	 8.066670000003315e+000	 1.000865075462852e+001
0	 9.000000347171179e+000	 8.133340000006534e+000	 1.000816111434048e+001
0	 9.000000347171175e+000	 8.200010000009549e+000	 1.000768142113939e+001
0	 9.000000347171179e+000	 8.266680000012267e+000	 1.000721067633067e+001
0	 9.000000347171175e+000	 8.333350000014583e+000	 1.000674788121961e+001
0	 9.000000347171175e+000	 8.400020000016401e+000	 1.000629203711155e+001
0	 9.000000347171181e+000	 8.466690000017618e+000	 1.000584214531183e+001
0	 9.000000347171177e+000	 8.533360000018133e+000	 1.000539720712582e+001
0	 9.000000347171179e+000	 8.600030000017851e+000	 1.000495622385882e+001
0	 9.000000347171181e+000	 8.666700000016665e+000	 1.000451819681620e+001
0	 9.066660599907669e+000	 8.000000000000000e+000	 1.000833971046313e+001
0	 9.066660599907666e+000	 8.066670000003315e+000	 1.000787759378938e+001
0	 9.066660599907667e+000	 8.133340000006534e+000	 1.000742576549546e+001
0	 9.066660599907667e+000	 8.200010000009552e+000	 1.000698329635869e+001
0	 9.066660599907666e+000	 8.266680000012268e+000	 1.000654925715633e+001
0	 9.066660599907667e+000	 8.333350000014585e+000	 1.000612271866570e+001
0	 9.066660599907667e+000	 8.400020000016399e+000	 1.000570275166411e+001
0	 9.066660599907666e+000	 8.466690000017618e+000	 1.000528842692883e+001
0	 9.066660599907667e+000	 8.533360000018135e+000	 1.000487881523721e+001
0	 9.066660599907664e+000	 8.600030000017849e+000	 1.000447298736649e+001
0	 9.066660599907666e+000	 8.666700000016668e+000	 1.000407001409402e+001
0	 9.133320952629651e+000	 8.000000000000000e+000	 1.000754051490593e+001
0	 9.133320952629651e+000	 8.066670000003317e+000	 1.000711446565587e+001
0	 9.133320952629653e+000	 8.133340000006532e+000	 1.000669821467661e+001
0	 9.133320952629651e+000	 8.200010000009550e+000	 1.000629090359415e+001
0	 9.133320952629653e+000	 8.266680000012268e+000	 1.000589167403445e+001
0	 9.133320952629649e+000	 8.333350000014585e+000	 1.000549966762349e+001
0	 9.133320952629651e+000	 8.400020000016401e+000	 1.000511402598725e+001
0	 9.133320952629653e+000	 8.466690000017618e+000	 1.000473389075172e+001
0	 9.133320952629653e+000	 8.533360000018137e+000	 1.000435840354287e+001
0	 9.133320952629651e+000	 8.600030000017849e+000	 1.000398670598668e+001
0	 9.133320952629653e+000	 8.666700000016666e+000	 1.000361793970914e+001
0	 9.199981422001553e+000	 8.000000000000000e+000	 1.000675328645492e+001
0	 9.199981422001555e+000	 8.066670000003317e+000	 1.000636074308413e+001
0	 9.199981422001555e+000	 8.133340000006532e+000	 1.000597769548574e+001
0	 9.199981422001555e+000	 8.200010000009550e+000	 1.000560335751108e+001
0	 9.199981422001557e+000	 8.266680000012268e+000	 1.000523694301144e+001
0	 9.199981422001553e+000	 8.333350000014583e+000	 1.000487766583814e+001
0	 9.199981422001555e+000	 8.400020000016399e+000	 1.000452473984249e+001
0	 9.199981422001553e+000	 8.466690000017616e+000	 1.000417737887583e+001
0	 9.199981422001555e+000	 8.533360000018135e+000	 1.000383479678946e+001
0	 9.199981422001555e+000	 8.600030000017849e+000	 1.000349620743468e+001
0	 9.199981422001557e+000	 8.666700000016666e+000	 1.000316082466283e+001
0	 9.266642024687792e+000	 8.000000000000000e+000	 1.000597755754430e+001
0	 9.266642024687792e+000	 8.066670000003317e+000	 1.000561579893434e+001
0	 9.266642024687792e+000	 8.133340000006534e+000	 1.000526344152690e+001
0	 9.266642024687791e+000	 8.200010000009550e+000	 1.000491977277516e+001
0	 9.266642024687791e+000	 8.266680000012267e+000	 1.000458408013242e+001
0	 9.266642024687792e+000	 8.333350000014583e+000	 1.000425565105190e+001
0	 9.266642024687794e+000	 8.400020000016403e+000	 1.000393377298685e+001
0	 9.266642024687792e+000	 8.466690000017616e+000	 1.000361773339053e+001
0	 9.266642024687791e+000	 8.533360000018131e+000	 1.000330681971620e+001
0	 9.266642024687791e+000	 8.600030000017851e+000	 1.000300031941707e+001
0	 9.266642024687794e+000	 8.666700000016668e+000	 1.000269751994641e+001
0	 9.333302777352783e+000	 8.000000000000000e+000	 1.000521286061426e+001
0	 9.333302777352783e+000	 8.066670000003319e+000	 1.000487900607074e+001
0	 9.333302777352783e+000	 8.133340000006532e+000	 1.000455468640624e+001
0	 9.333302777352783e+000	 8.200010000009552e+000	 1.000423926405249e+001
0	 9.333302777352783e+000	 8.266680000012267e+000	 1.000393210144120e+001
0	 9.333302777352783e+000	 8.333350000014585e+000	 1.000363256100409e+001
0	 9.333302777352785e+000	 8.400020000016403e+000	 1.000334000517287e+001
0	 9.333302777352785e+000	 8.466690000017618e+000	 1.000305379637925e+001
0	 9.333302777352783e+000	 8.533360000018135e+000	 1.000277329705494e+001
0	 9.333302777352783e+000	 8.600030000017849e+000	 1.000249786963165e+001
0	 9.333302777352783e+000	 8.666700000016666e+000	 1.000222687654109e+001
0	 8.666700000016666e+000	 8.666700000016666e+000	 1.000674094973745e+001
0	 8.666700000016666e+000	 8.733360002791901e+000	 1.000613217363573e+001
0	 8.666700000016665e+000	 8.800020022230553e+000	 1.000555383679317e+001
0	 8.666700000016666e+000	 8.866680074997039e+000	 1.000500458587600e+001
0	 8.666700000016665e+000	 8.933340177755778e+000	 1.000448306746536e+001
0	 8.666700000016665e+000	 9.000000347171181e+000	 1.000398792805720e+001
0	 8.666700000016666e+000	 9.066660599907667e+000	 1.000351781406228e+001
0	 8.666700000016666e+000	 9.133320952629655e+000	 1.000307137180624e+001
0	 8.666700000016668e+000	 9.199981422001558e+000	 1.000264724752958e+001
0	 8.666700000016668e+000	 9.266642024687798e+000	 1.000224408738755e+001
0	 8.666700000016666e+000	 9.333302777352783e+000	 1.000186053745033e+001
0	 8.733360002791903e+000	 8.666700000016666e+000	 1.000629499070003e+001
0	 8.733360002791903e+000	 8.733360002791901e+000	 1.000572468862853e+001
0	 8.733360002791905e+000	 8.800020022230559e+000	 1.000518321707828e+001
0	 8.733360002791901e+000	 8.866680074997040e+000	 1.000466931076251e+001
0	 8.733360002791903e+000	 8.933340177755776e+000	 1.000418170431438e+001
0	 8.733360002791903e+000	 9.000000347171183e+000	 1.000371913228702e+001
0	 8.733360002791901e+000	 9.066660599907667e+000	 1.000328032915346e+001
0	 8.733360002791901e+000	 9.133320952629655e+000	 1.000286402930673e+001
0	 8.733360002791901e+000	 9.199981422001557e+000	 1.000246896705971e+001
0	 8.733360002791901e+000	 9.266642024687796e+000	 1.000209387664529e+001
0	 8.733360002791899e+000	 9.333302777352781e+000	 1.000173749221631e+001
0	 8.800020022230553e+000	 8.666700000016666e+000	 1.000585088484269e+001
0	 8.800020022230555e+000	 8.733360002791903e+000	 1.000531818136847e+001
0	 8.800020022230553e+000	 8.800020022230553e+000	 1.000481279447088e+001
0	 8.800020022230553e+000	 8.866680074997040e+000	 1.000433354259886e+001
0	 8.800020022230552e+000	 8.933340177755778e+000	 1.000387924412624e+001
0	 8.800020022230555e+000	 9.000000347171181e+000	 1.000344871735162e+001
0	 8.800020022230557e+000	 9.066660599907671e+000	 1.000304078049848e+001
0	 8.800020022230553e+000	 9.133320952629656e+000	 1.000265425171509e+001
0	 8.800020022230555e+000	 9.199981422001558e+000	 1.000228794907460e+001
0	 8.800020022230553e+000	 9.266642024687796e+000	 1.000194069057494e+001
0	 8.800020022230553e+000	 9.333302777352781e+000	 1.000161129413891e+001
0	 8.866680074997042e+000	 8.666700000016670e+000	 1.000540748321696e+001
0	 8.866680074997039e+000	 8.733360002791899e+000	 1.000491153957309e+001
0	 8.866680074997040e+000	 8.800020022230555e+000	 1.000444149979455e+001
0	 8.866680074997040e+000	 8.866680074997044e+000	 1.000399626175470e+001
0	 8.866680074997042e+000	 8.933340177755781e+000	 1.000357472325642e+001
0	 8.866680074997039e+000	 9.000000347171181e+000	 1.000317578203210e+001
0	 8.866680074997040e+000	 9.066660599907667e+000	 1.000279833574362e+001
0	 8.866680074997039e+000	 9.133320952629656e+000	 1.000244128198236e+001
0	 8.866680074997039e+000	 9.199981422001557e+000	 1.000210351826923e+001
0	 8.866680074997040e+000	 9.266642024687794e+000	 1.000178394205464e+001
0	 8.866680074997042e+000	 9.333302777352785e+000	 1.000148145071843e+001
0	 8.933340177755776e+000	 8.666700000016665e+000	 1.000496363686432e+001
0	 8.933340177755778e+000	 8.733360002791903e+000	 1.000450365094863e+001
0	 8.933340177755774e+000	 8.800020022230553e+000	 1.000406826386045e+001
0	 8.933340177755778e+000	 8.866680074997044e+000	 1.000365644858608e+001
0	 8.933340177755776e+000	 8.933340177755779e+000	 1.000326717804587e+001
0	 8.933340177755774e+000	 9.000000347171181e+000	 1.000289942509406e+001
0	 8.933340177755778e+000	 9.066660599907667e+000	 1.000255216251887e+001
0	 8.933340177755778e+000	 9.133320952629656e+000	 1.000222436304247e+001
0	 8.933340177755779e+000	 9.199981422001560e+000	 1.000191499932092e+001
0	 8.933340177755776e+000	 9.266642024687796e+000	 1.000162304394432e+001
0	 8.933340177755776e+000	 9.333302777352781e+000	 1.000134746943666e+001
0	 9.000000347171181e+000	 8.666700000016665e+000	 1.000451819681620e+001
0	 9.000000347171183e+000	 8.733360002791901e+000	 1.000409340319011e+001
0	 9.000000347171177e+000	 8.800020022230553e+000	 1.000369201746729e+001
0	 9.000000347171183e+000	 8.866680074997042e+000	 1.000331308343557e+001
0	 9.000000347171181e+000	 8.933340177755779e+000	 1.000295564482097e+001
0	 9.000000347171177e+000	 9.000000347171183e+000	 1.000261874528766e+001
0	 9.000000347171179e+000	 9.066660599907666e+000	 1.000230142843796e+001
0	 9.000000347171181e+000	 9.133320952629653e+000	 1.000200273781231e+001
0	 9.000000347171181e+000	 9.199981422001560e+000	 1.000172171688934e+001
0	 9.000000347171181e+000	 9.266642024687796e+000	 1.000145740908585e+001
0	 9.000000347171181e+000	 9.333302777352785e+000	 1.000120885775676e+001
0	 9.066660599907666e+000	 8.666700000016668e+000	 1.000407001409402e+001
0	 9.066660599907666e+000	 8.733360002791903e+000	 1.000367968398121e+001
0	 9.066660599907667e+000	 8.800020022230555e+000	 1.000331169140133e+001
0	 9.066660599907664e+000	 8.866680074997044e+000	 1.000296514663219e+001
0	 9.066660599907666e+000	 8.933340177755779e+000	 1.000263915989361e+001
0	 9.066660599907667e+000	 9.000000347171183e+000	 1.000233284134759e+001
0	 9.066660599907664e+000	 9.066660599907666e+000	 1.000204530109824e+001
0	 9.066660599907666e+000	 9.133320952629656e+000	 1.000177564919176e+001
0	 9.066660599907666e+000	 9.199981422001558e+000	 1.000152299561648e+001
0	 9.066660599907664e+000	 9.266642024687794e+000	 1.000128645030283e+001
0	 9.066660599907667e+000	 9.333302777352783e+000	 1.000106512312338e+001
0	 9.133320952629653e+000	 8.666700000016666e+000	 1.000361793970914e+001
0	 9.133320952629651e+000	 8.733360002791903e+000	 1.000326138099437e+001
0	 9.133320952629653e+000	 8.800020022230555e+000	 1.000292621643647e+001
0	 9.133320952629653e+000	 8.866680074997042e+000	 1.000261161849142e+001
0	 9.133320952629653e+000	 8.933340177755779e+000	 1.000231675956108e+001
0	 9.133320952629655e+000	 9.000000347171181e+000	 1.000204081199307e+001
0	 9.133320952629653e+000	 9.066660599907671e+000	 1.000178294808086e+001
0	 9.133320952629651e+000	 9.133320952629655e+000	 1.000154234006369e+001
0	 9.133320952629651e+000	 9.199981422001560e+000	 1.000131816012671e+001
0	 9.133320952629653e+000	 9.266642024687796e+000	 1.000110958040074e+001
0	 9.133320952629651e+000	 9.333302777352785e+000	 1.000091577296257e+001
0	 9.199981422001557e+000	 8.666700000016666e+000	 1.000316082466283e+001
0	 9.199981422001553e+000	 8.733360002791901e+000	 1.000283738189076e+001
0	 9.199981422001553e+000	 8.800020022230555e+000	 1.000253452333405e+001
0	 9.199981422001555e+000	 8.866680074997040e+000	 1.000225147931525e+001
0	 9.199981422001558e+000	 8.933340177755781e+000	 1.000198748010618e+001
0	 9.199981422001557e+000	 9.000000347171183e+000	 1.000174175592787e+001
0	 9.199981422001555e+000	 9.066660599907667e+000	 1.000151353695060e+001
0	 9.199981422001557e+000	 9.133320952629653e+000	 1.000130205329395e+001
0	 9.199981422001557e+000	 9.199981422001558e+000	 1.000110653502669e+001
0	 9.199981422001555e+000	 9.266642024687798e+000	 1.000092621216687e+001
0	 9.199981422001553e+000	 9.333302777352779e+000	 1.000076031468182e+001
0	 9.266642024687794e+000	 8.666700000016668e+000	 1.000269751994641e+001
0	 9.266642024687791e+000	 8.733360002791901e+000	 1.000240657432028e+001
0	 9.266642024687791e+000	 8.800020022230555e+000	 1.000213554284307e+001
0	 9.266642024687791e+000	 8.866680074997042e+000	 1.000188370939212e+001
0	 9.266642024687791e+000	 8.933340177755778e+000	 1.000165035779714e+001
0	 9.266642024687792e+000	 9.000000347171181e+000	 1.000143477184025e+001
0	 9.266642024687794e+000	 9.066660599907669e+000	 1.000123623525598e+001
0	 9.266642024687792e+000	 9.133320952629655e+000	 1.000105403173127e+001
0	 9.266642024687794e+000	 9.199981422001558e+000	 1.000088744490549e+001
0	 9.266642024687794e+000	 9.266642024687798e+000	 1.000073575837035e+001
0	 9.266642024687792e+000	 9.333302777352785e+000	 1.000059825567004e+001
0	 9.333302777352783e+000	 8.666700000016666e+000	 1.000222687654109e+001
0	 9.333302777352781e+000	 8.733360002791901e+000	 1.000196784592152e+001
0	 9.333302777352783e+000	 8.800020022230557e+000	 1.000172820570004e+001
0	 9.333302777352781e+000	 8.866680074997039e+000	 1.000150728899692e+001
0	 9.333302777352781e+000	 8.933340177755778e+000	 1.000130442888764e+001
0	 9.333302777352783e+000	 9.000000347171181e+000	 1.000111895840305e+001
0	 9.333302777352785e+000	 9.066660599907667e+000	 1.000095021052921e+001
0	 9.333302777352781e+000	 9.133320952629655e+000	 1.000079751820747e+001
0	 9.333302777352781e+000	 9.199981422001558e+000	 1.000066021433446e+001
0	 9.333302777352781e+000	 9.266642024687794e+000	 1.000053763176211e+001
0	 9.333302777352785e+000	 9.333302777352785e+000	 1.000042910329761e+001
0	 8.666700000016666e+000	 9.333302777352783e+000	 1.000186053745033e+001
0	 8.666700000016668e+000	 9.399973674588178e+000	 1.000150679206491e+001
0	 8.666700000016666e+000	 9.466644621844619e+000	 1.000119320607544e+001
0	 8.666700000016668e+000	 9.533315502450000e+000	 1.000091849845850e+001
0	 8.666700000016665e+000	 9.599986199732197e+000	 1.000068138903042e+001
0	 8.666700000016666e+000	 9.666656597019095e+000	 1.000048059844708e+001
0	 8.666700000016668e+000	 9.733326577638577e+000	 1.000031484820423e+001
0	 8.666700000016668e+000	 9.799996024918521e+000	 1.000018286063724e+001
0	 8.666700000016666e+000	 9.866664822186822e+000	 1.000008335892149e+001
0	 8.666700000016666e+000	 9.933332852771352e+000	 1.000001506707217e+001
0	 8.666700000016666e+000	 1.000000000000000e+001	 9.999976709944527e+000
0	 8.733360002791899e+000	 9.333302777352781e+000	 1.000173749221631e+001
0	 8.733360002791905e+000	 9.399973674588177e+000	 1.000140895616076e+001
0	 8.733360002791903e+000	 9.466644621844621e+000	 1.000111760496109e+001
0	 8.733360002791903e+000	 9.533315502450002e+000	 1.000086230806685e+001
0	 8.733360002791901e+000	 9.599986199732197e+000	 1.000064193570733e+001
0	 8.733360002791905e+000	 9.666656597019095e+000	 1.000045535889157e+001
0	 8.733360002791899e+000	 9.733326577638575e+000	 1.000030144940826e+001
0	 8.733360002791905e+000	 9.799996024918524e+000	 1.000017907982606e+001
0	 8.733360002791903e+000	 9.866664822186824e+000	 1.000008712349336e+001
0	 8.733360002791903e+000	 9.933332852771354e+000	 1.000002445453867e+001
0	 8.733360002791903e+000	 1.000000000000000e+001	 9.999989947870430e+000
0	 8.800020022230553e+000	 9.333302777352781e+000	 1.000161129413891e+001
0	 8.800020022230555e+000	 9.399973674588175e+000	 1.000130778362666e+001
0	 8.800020022230555e+000	 9.466644621844623e+000	 1.000103842720204e+001
0	 8.800020022230553e+000	 9.533315502450000e+000	 1.000080226532569e+001
0	 8.800020022230555e+000	 9.599986199732195e+000	 1.000059833917804e+001
0	 8.800020022230557e+000	 9.666656597019097e+000	 1.000042569065946e+001
0	 8.800020022230552e+000	 9.733326577638577e+000	 1.000028336239007e+001
0	 8.800020022230553e+000	 9.799996024918524e+000	 1.000017039771004e+001
0	 8.800020022230555e+000	 9.866664822186822e+000	 1.000008584067940e+001
0	 8.800020022230557e+000	 9.933332852771356e+000	 1.000002873607837e+001
0	 8.800020022230555e+000	 1.000000000000000e+001	 9.999998129407175e+000
0	 8.866680074997042e+000	 9.333302777352785e+000	 1.000148145071843e+001
0	 8.866680074997042e+000	 9.399973674588178e+000	 1.000120288999044e+001
0	 8.866680074997039e+000	 9.466644621844617e+000	 1.000095541669623e+001
0	 8.866680074997039e+000	 9.533315502449998e+000	 1.000073826284616e+001
0	 8.866680074997042e+000	 9.599986199732197e+000	 1.000055066111086e+001
0	 8.866680074997037e+000	 9.666656597019092e+000	 1.000039184482111e+001
0	 8.866680074997040e+000	 9.733326577638575e+000	 1.000026104796804e+001
0	 8.866680074997037e+000	 9.799996024918519e+000	 1.000015750520307e+001
0	 8.866680074997039e+000	 9.866664822186820e+000	 1.000008045183789e+001
0	 8.866680074997040e+000	 9.933332852771352e+000	 1.000002912384486e+001
0	 8.866680074997039e+000	 1.000000000000000e+001	 1.000000275785663e+001
0	 8.933340177755776e+000	 9.333302777352781e+000	 1.000134746943666e+001
0	 8.933340177755778e+000	 9.399973674588175e+000	 1.000109389076105e+001
0	 8.933340177755776e+000	 9.466644621844619e+000	 1.000086831732255e+001
0	 8.933340177755778e+000	 9.533315502450002e+000	 1.000067019322040e+001
0	 8.933340177755779e+000	 9.599986199732198e+000	 1.000049896315494e+001
0	 8.933340177755776e+000	 9.666656597019092e+000	 1.000035407242762e+001
0	 8.933340177755776e+000	 9.733326577638570e+000	 1.000023496694114e+001
0	 8.933340177755778e+000	 9.799996024918524e+000	 1.000014109319935e+001
0	 8.933340177755776e+000	 9.866664822186822e+000	 1.000007189830731e+001
0	 8.933340177755778e+000	 9.933332852771354e+000	 1.000002682997148e+001
0	 8.933340177755776e+000	 1.000000000000000e+001	 1.000000533649970e+001
0	 9.000000347171181e+000	 9.333302777352785e+000	 1.000120885775676e+001
0	 9.000000347171181e+000	 9.399973674588178e+000	 1.000098040142864e+001
0	 9.000000347171179e+000	 9.466644621844619e+000	 1.000077687294089e+001
0	 9.000000347171179e+000	 9.533315502450000e+000	 1.000059794902123e+001
0	 9.000000347171181e+000	 9.599986199732200e+000	 1.000044330694012e+001
0	 9.000000347171179e+000	 9.666656597019093e+000	 1.000031262451069e+001
0	 9.000000347171181e+000	 9.733326577638575e+000	 1.000020558008895e+001
0	 9.000000347171177e+000	 9.799996024918521e+000	 1.000012185257358e+001
0	 9.000000347171179e+000	 9.866664822186824e+000	 1.000006112140624e+001
0	 9.000000347171181e+000	 9.933332852771352e+000	 1.000002306657132e+001
0	 9.000000347171181e+000	 1.000000000000000e+001	 1.000000736859647e+001
0	 9.066660599907667e+000	 9.333302777352783e+000	 1.000106512312338e+001
0	 9.066660599907666e+000	 9.399973674588175e+000	 1.000086203746447e+001
0	 9.066660599907666e+000	 9.466644621844619e+000	 1.000068082739208e+001
0	 9.066660599907664e+000	 9.533315502449998e+000	 1.000052142280245e+001
0	 9.066660599907666e+000	 9.599986199732195e+000	 1.000038375407708e+001
0	 9.066660599907664e+000	 9.666656597019095e+000	 1.000026775208278e+001
0	 9.066660599907666e+000	 9.733326577638577e+000	 1.000017334817154e+001
0	 9.066660599907664e+000	 9.799996024918521e+000	 1.000010047418080e+001
0	 9.066660599907666e+000	 9.866664822186824e+000	 1.000004906243331e+001
0	 9.066660599907662e+000	 9.933332852771352e+000	 1.000001904573726e+001
0	 9.066660599907666e+000	 1.000000000000000e+001	 1.000001035738636e+001
0	 9.133320952629651e+000	 9.333302777352785e+000	 1.000091577296257e+001
0	 9.133320952629649e+000	 9.399973674588173e+000	 1.000073841432099e+001
0	 9.133320952629653e+000	 9.466644621844623e+000	 1.000057992449793e+001
0	 9.133320952629651e+000	 9.533315502450002e+000	 1.000044050709865e+001
0	 9.133320952629653e+000	 9.599986199732197e+000	 1.000032036615726e+001
0	 9.133320952629653e+000	 9.666656597019093e+000	 1.000021970613689e+001
0	 9.133320952629653e+000	 9.733326577638573e+000	 1.000013873192959e+001
0	 9.133320952629651e+000	 9.799996024918526e+000	 1.000007764885641e+001
0	 9.133320952629651e+000	 9.866664822186822e+000	 1.000003666266747e+001
0	 9.133320952629649e+000	 9.933332852771351e+000	 1.000001597954182e+001
0	 9.133320952629653e+000	 1.000000000000000e+001	 1.000001580608788e+001
0	 9.199981422001553e+000	 9.333302777352779e+000	 1.000076031468182e+001
0	 9.199981422001555e+000	 9.399973674588175e+000	 1.000060914743179e+001
0	 9.199981422001555e+000	 9.466644621844619e+000	 1.000047390806127e+001
0	 9.199981422001555e+000	 9.533315502450002e+000	 1.000035509442525e+001
0	 9.199981422001555e+000	 9.599986199732198e+000	 1.000025320475279e+001
0	 9.199981422001555e+000	 9.666656597019095e+000	 1.000016873764686e+001
0	 9.199981422001557e+000	 9.733326577638577e+000	 1.000010219208438e+001
0	 9.199981422001555e+000	 9.799996024918524e+000	 1.000005406741629e+001
0	 9.199981422001551e+000	 9.866664822186820e+000	 1.000002486336762e+001
0	 9.199981422001555e+000	 9.933332852771352e+000	 1.000001508003735e+001
0	 9.199981422001557e+000	 1.000000000000000e+001	 1.000002521789881e+001
0	 9.266642024687792e+000	 9.333302777352785e+000	 1.000059825567004e+001
0	 9.266642024687792e+000	 9.399973674588177e+000	 1.000047385221163e+001
0	 9.266642024687792e+000	 9.466644621844623e+000	 1.000036252186580e+001
0	 9.266642024687791e+000	 9.533315502450000e+000	 1.000026507727861e+001
0	 9.266642024687792e+000	 9.599986199732195e+000	 1.000018233141668e+001
0	 9.266642024687792e+000	 9.666656597019093e+000	 1.000011509756714e+001
0	 9.266642024687792e+000	 9.733326577638575e+000	 1.000006418933768e+001
0	 9.266642024687794e+000	 9.799996024918526e+000	 1.000003042065663e+001
0	 9.266642024687792e+000	 9.866664822186820e+000	 1.000001460577288e+001
0	 9.266642024687791e+000	 9.933332852771352e+000	 1.000001755925595e+001
0	 9.266642024687792e+000	 1.000000000000000e+001	 1.000004009599619e+001
0	 9.333302777352785e+000	 9.333302777352785e+000	 1.000042910329761e+001
0	 9.333302777352781e+000	 9.399973674588177e+000	 1.000033214405641e+001
0	 9.333302777352785e+000	 9.466644621844621e+000	 1.000024550967630e+001
0	 9.333302777352783e+000	 9.533315502450002e+000	 1.000017034813588e+001
0	 9.333302777352783e+000	 9.599986199732197e+000	 1.000010780768261e+001
0	 9.333302777352781e+000	 9.666656597019095e+000	 1.000005903683285e+001
0	 9.333302777352783e+000	 9.733326577638573e+000	 1.000002518437189e+001
0	 9.333302777352779e+000	 9.799996024918521e+000	 1.000000739935406e+001
0	 9.333302777352783e+000	 9.866664822186822e+000	 1.000000683110248e+001
0	 9.333302777352783e+000	 9.933332852771356e+000	 1.000002462920941e+001
0	 9.333302777352781e+000	 9.999999999999998e+000	 1.000006194353612e+001
0	 9.333302777352781e+000	 0.000000000000000e+000	 9.779204418399056e+000
0	 9.333302777352785e+000	 6.666714722864757e-002	 9.779305037945859e+000
0	 9.333302777352785e+000	 1.333351778131789e-001	 9.779550526979907e+000
0	 9.333302777352783e+000	 2.000039750814772e-001	 9.779941320669600e+000
0	 9.333302777352779e+000	 2.666734223614256e-001	 9.780477856159868e+000
0	 9.333302777352783e+000	 3.333434029809070e-001	 9.781160572572079e+000
0	 9.333302777352783e+000	 4.000138002678045e-001	 9.781989911003906e+000
0	 9.333302777352783e+000	 4.666844975500011e-001	 9.782966314529260e+000
0	 9.333302777352781e+000	 5.333553781553801e-001	 9.784090228198275e+000
0	 9.333302777352785e+000	 6.000263254118248e-001	 9.785362099037403e+000
0	 9.333302777352783e+000	 6.666972226472177e-001	 9.786782376049413e+000
0	 9.399973674588175e+000	 0.000000000000000e+000	 9.767369605517981e+000
0	 9.399973674588173e+000	 6.666714722864754e-002	 9.767475220528619e+000
0	 9.399973674588175e+000	 1.333351778131789e-001	 9.767731690078509e+000
0	 9.399973674588175e+000	 2.000039750814772e-001	 9.768139384441158e+000
0	 9.399973674588175e+000	 2.666734223614256e-001	 9.768698675931741e+000
0	 9.399973674588173e+000	 3.333434029809069e-001	 9.769409938907092e+000
0	 9.399973674588177e+000	 4.000138002678044e-001	 9.770273549765438e+000
0	 9.399973674588175e+000	 4.666844975500012e-001	 9.771289886946436e+000
0	 9.399973674588175e+000	 5.333553781553803e-001	 9.772459330931154e+000
0	 9.399973674588177e+000	 6.000263254118246e-001	 9.773782264242055e+000
0	 9.399973674588177e+000	 6.666972226472175e-001	 9.775259071443170e+000
0	 9.466644621844621e+000	 0.000000000000000e+000	 9.755259900050158e+000
0	 9.466644621844621e+000	 6.666714722864757e-002	 9.755365891925695e+000
0	 9.466644621844623e+000	 1.333351778131789e-001	 9.755629982139281e+000
0	 9.466644621844623e+000	 2.000039750814773e-001	 9.756052498524113e+000
0	 9.466644621844619e+000	 2.666734223614255e-001	 9.756633771035558e+000
0	 9.466644621844621e+000	 3.333434029809069e-001	 9.757374131751112e+000
0	 9.466644621844621e+000	 4.000138002678044e-001	 9.758273914870191e+000
0	 9.466644621844617e+000	 4.666844975500012e-001	 9.759333456714042e+000
0	 9.466644621844623e+000	 5.333553781553805e-001	 9.760553095725792e+000
0	 9.466644621844621e+000	 6.000263254118248e-001	 9.761933172470512e+000
0	 9.466644621844619e+000	 6.666972226472178e-001	 9.763474029635203e+000
0	 9.533315502450000e+000	 0.000000000000000e+000	 9.742847726005783e+000
0	 9.533315502450000e+000	 6.666714722864757e-002	 9.742951099213991e+000
0	 9.533315502450002e+000	 1.333351778131790e-001	 9.743220814149566e+000
0	 9.533315502449998e+000	 2.000039750814772e-001	 9.743657178676589e+000
0	 9.533315502450002e+000	 2.666734223614256e-001	 9.744260502874448e+000
0	 9.533315502449995e+000	 3.333434029809068e-001	 9.745031099037639e+000
0	 9.533315502449998e+000	 4.000138002678043e-001	 9.745969281675704e+000
0	 9.533315502449998e+000	 4.666844975500012e-001	 9.747075367513087e+000
0	 9.533315502450000e+000	 5.333553781553803e-001	 9.748349675489109e+000
0	 9.533315502449996e+000	 6.000263254118247e-001	 9.749792526758139e+000
0	 9.533315502449996e+000	 6.666972226472177e-001	 9.751404244689521e+000
0	 9.599986199732195e+000	 0.000000000000000e+000	 9.730105509318889e+000
0	 9.599986199732195e+000	 6.666714722864756e-002	 9.730204891370942e+000
0	 9.599986199732193e+000	 1.333351778131789e-001	 9.730479598971927e+000
0	 9.599986199732197e+000	 2.000039750814773e-001	 9.730929942504801e+000
0	 9.599986199732198e+000	 2.666734223614256e-001	 9.731556234670800e+000
0	 9.599986199732195e+000	 3.333434029809068e-001	 9.732358790489201e+000
0	 9.599986199732197e+000	 4.000138002678044e-001	 9.733337927297258e+000
0	 9.599986199732197e+000	 4.666844975500011e-001	 9.734493964750058e+000
0	 9.599986199732195e+000	 5.333553781553804e-001	 9.735827224820532e+000
0	 9.599986199732197e+000	 6.000263254118247e-001	 9.737338031799457e+000
0	 9.599986199732195e+000	 6.666972226472177e-001	 9.739026712295701e+000
0	 9.666656597019093e+000	 0.000000000000000e+000	 9.717005677847522e+000
0	 9.666656597019095e+000	 6.666714722864757e-002	 9.717101319274804e+000
0	 9.666656597019090e+000	 1.333351778131789e-001	 9.717381751344394e+000
0	 9.666656597019093e+000	 2.000039750814772e-001	 9.717847309463211e+000
0	 9.666656597019093e+000	 2.666734223614256e-001	 9.718498331466495e+000
0	 9.666656597019093e+000	 3.333434029809069e-001	 9.719335157617635e+000
0	 9.666656597019092e+000	 4.000138002678044e-001	 9.720358130608059e+000
0	 9.666656597019092e+000	 4.666844975500011e-001	 9.721567595557154e+000
0	 9.666656597019092e+000	 5.333553781553803e-001	 9.722963900012166e+000
0	 9.666656597019092e+000	 6.000263254118247e-001	 9.724547393948374e+000
0	 9.666656597019092e+000	 6.666972226472177e-001	 9.726318429769110e+000
0	 9.733326577638573e+000	 0.000000000000000e+000	 9.703520661374043e+000
0	 9.733326577638575e+000	 6.666714722864754e-002	 9.703614435704896e+000
0	 9.733326577638575e+000	 1.333351778131790e-001	 9.703902687880831e+000
0	 9.733326577638575e+000	 2.000039750814773e-001	 9.704385800854897e+000
0	 9.733326577638573e+000	 2.666734223614256e-001	 9.705064160123163e+000
0	 9.733326577638572e+000	 3.333434029809069e-001	 9.705938153724295e+000
0	 9.733326577638573e+000	 4.000138002678044e-001	 9.707008172239517e+000
0	 9.733326577638575e+000	 4.666844975500012e-001	 9.708274608792456e+000
0	 9.733326577638572e+000	 5.333553781553801e-001	 9.709737859049227e+000
0	 9.733326577638575e+000	 6.000263254118249e-001	 9.711398321218393e+000
0	 9.733326577638573e+000	 6.666972226472175e-001	 9.713256396051101e+000
0	 9.799996024918521e+000	 0.000000000000000e+000	 9.689622891605440e+000
0	 9.799996024918521e+000	 6.666714722864756e-002	 9.689718295341969e+000
0	 9.799996024918524e+000	 1.333351778131790e-001	 9.690017827071031e+000
0	 9.799996024918523e+000	 2.000039750814772e-001	 9.690521939831793e+000
0	 9.799996024918521e+000	 2.666734223614255e-001	 9.691231089322539e+000
0	 9.799996024918521e+000	 3.333434029809069e-001	 9.692145733900476e+000
0	 9.799996024918524e+000	 4.000138002678044e-001	 9.693266334581542e+000
0	 9.799996024918521e+000	 4.666844975500012e-001	 9.694593355040373e+000
0	 9.799996024918523e+000	 5.333553781553803e-001	 9.696127261610192e+000
0	 9.799996024918523e+000	 6.000263254118248e-001	 9.697868523282951e+000
0	 9.799996024918523e+000	 6.666972226472177e-001	 9.699817611709436e+000
0	 9.866664822186820e+000	 0.000000000000000e+000	 9.675284802173676e+000
0	 9.866664822186818e+000	 6.666714722864756e-002	 9.675386954768506e+000
0	 9.866664822186818e+000	 1.333351778131789e-001	 9.675702589281372e+000
0	 9.866664822186818e+000	 2.000039750814772e-001	 9.676232251395067e+000
0	 9.866664822186822e+000	 2.666734223614256e-001	 9.676976489566741e+000
0	 9.866664822186820e+000	 3.333434029809069e-001	 9.677935855027643e+000
0	 9.866664822186818e+000	 4.000138002678044e-001	 9.679110901782972e+000
0	 9.866664822186820e+000	 4.666844975500011e-001	 9.680502186611870e+000
0	 9.866664822186820e+000	 5.333553781553803e-001	 9.682110269067172e+000
0	 9.866664822186818e+000	 6.000263254118247e-001	 9.683935711475765e+000
0	 9.866664822186820e+000	 6.666972226472175e-001	 9.685979078938502e+000
0	 9.933332852771351e+000	 0.000000000000000e+000	 9.660478828636165e+000
0	 9.933332852771354e+000	 6.666714722864757e-002	 9.660594472469189e+000
0	 9.933332852771352e+000	 1.333351778131790e-001	 9.660932396754978e+000
0	 9.933332852771351e+000	 2.000039750814772e-001	 9.661493262395563e+000
0	 9.933332852771351e+000	 2.666734223614256e-001	 9.662277733178765e+000
0	 9.933332852771352e+000	 3.333434029809069e-001	 9.663286475777902e+000
0	 9.933332852771351e+000	 4.000138002678044e-001	 9.664520159751902e+000
0	 9.933332852771352e+000	 4.666844975500012e-001	 9.665979457544935e+000
0	 9.933332852771351e+000	 5.333553781553803e-001	 9.667665044486402e+000
0	 9.933332852771352e+000	 6.000263254118247e-001	 9.669577598791239e+000
0	 9.933332852771351e+000	 6.666972226472177e-001	 9.671717801559796e+000
0	 1.000000000000000e+001	 0.000000000000000e+000	 9.645177408476208e+000
0	 1.000000000000000e+001	 6.666714722864756e-002	 9.645314908831342e+000
0	 9.999999999999998e+000	 1.333351778131789e-001	 9.645682673612352e+000
0	 1.000000000000000e+001	 2.000039750814772e-001	 9.646281501534256e+000
0	 1.000000000000000e+001	 2.666734223614256e-001	 9.647112194302851e+000
0	 1.000000000000000e+001	 3.333434029809069e-001	 9.648175556614534e+000
0	 1.000000000000000e+001	 4.000138002678044e-001	 9.649472396156197e+000
0	 1.000000000000000e+001	 4.666844975500011e-001	 9.651003523605020e+000
0	 1.000000000000000e+001	 5.333553781553803e-001	 9.652769752628590e+000
0	 1.000000000000000e+001	 6.000263254118248e-001	 9.654771899884834e+000
0	 1.000000000000000e+001	 6.666972226472175e-001	 9.657010785022242e+000
0	 9.333302777352783e+000	 6.666972226472177e-001	 9.786782376049413e+000
0	 9.333302777352783e+000	 7.333579753122046e-001	 9.788339360774915e+000
0	 9.333302777352783e+000	 8.000185779984417e-001	 9.790022211742240e+000
0	 9.333302777352781e+000	 8.666790473703453e-001	 9.791831992183465e+000
0	 9.333302777352781e+000	 9.333394000923320e-001	 9.793769765084409e+000
0	 9.333302777352783e+000	 9.999996528288190e-001	 9.795836593184614e+000
0	 9.333302777352785e+000	 1.066659822244222e+000	 9.798033538977343e+000
0	 9.333302777352785e+000	 1.133319925002959e+000	 9.800361664709612e+000
0	 9.333302777352785e+000	 1.199979977769445e+000	 9.802822032382169e+000
0	 9.333302777352785e+000	 1.266639997208098e+000	 9.805415703749471e+000
0	 9.333302777352785e+000	 1.333299999983334e+000	 9.808143740319743e+000
0	 9.399973674588177e+000	 6.666972226472175e-001	 9.775259071443168e+000
0	 9.399973674588173e+000	 7.333579753122048e-001	 9.776877533152463e+000
0	 9.399973674588175e+000	 8.000185779984415e-001	 9.778626379595229e+000
0	 9.399973674588178e+000	 8.666790473703453e-001	 9.780506721879247e+000
0	 9.399973674588178e+000	 9.333394000923323e-001	 9.782519670858145e+000
0	 9.399973674588178e+000	 9.999996528288191e-001	 9.784666337131329e+000
0	 9.399973674588173e+000	 1.066659822244222e+000	 9.786947831044063e+000
0	 9.399973674588177e+000	 1.133319925002959e+000	 9.789365262687419e+000
0	 9.399973674588177e+000	 1.199979977769445e+000	 9.791919741898285e+000
0	 9.399973674588173e+000	 1.266639997208098e+000	 9.794612378259394e+000
0	 9.399973674588177e+000	 1.333299999983334e+000	 9.797444281099301e+000
0	 9.466644621844619e+000	 6.666972226472178e-001	 9.763474029635203e+000
0	 9.466644621844619e+000	 7.333579753122046e-001	 9.765162182870085e+000
0	 9.466644621844621e+000	 8.000185779984417e-001	 9.766985171230042e+000
0	 9.466644621844619e+000	 8.666790473703452e-001	 9.768944144327742e+000
0	 9.466644621844619e+000	 9.333394000923322e-001	 9.771040251513879e+000
0	 9.466644621844619e+000	 9.999996528288189e-001	 9.773274641877118e+000
0	 9.466644621844621e+000	 1.066659822244223e+000	 9.775648464244132e+000
0	 9.466644621844621e+000	 1.133319925002958e+000	 9.778162867179622e+000
0	 9.466644621844619e+000	 1.199979977769445e+000	 9.780818998986300e+000
0	 9.466644621844623e+000	 1.266639997208098e+000	 9.783618007704863e+000
0	 9.466644621844617e+000	 1.333299999983334e+000	 9.786561041114009e+000
0	 9.533315502449996e+000	 6.666972226472177e-001	 9.751404244689521e+000
0	 9.533315502450000e+000	 7.333579753122048e-001	 9.753169576681531e+000
0	 9.533315502450002e+000	 8.000185779984417e-001	 9.755074348265193e+000
0	 9.533315502450002e+000	 8.666790473703454e-001	 9.757119738189243e+000
0	 9.533315502450000e+000	 9.333394000923322e-001	 9.759306924932332e+000
0	 9.533315502449998e+000	 9.999996528288190e-001	 9.761637086703114e+000
0	 9.533315502449996e+000	 1.066659822244222e+000	 9.764111401440143e+000
0	 9.533315502450000e+000	 1.133319925002959e+000	 9.766731046811959e+000
0	 9.533315502449998e+000	 1.199979977769445e+000	 9.769497200216996e+000
0	 9.533315502450000e+000	 1.266639997208098e+000	 9.772411038783700e+000
0	 9.533315502450002e+000	 1.333299999983334e+000	 9.775473739370430e+000
0	 9.599986199732195e+000	 6.666972226472177e-001	 9.739026712295701e+000
0	 9.599986199732195e+000	 7.333579753122048e-001	 9.740875982932517e+000
0	 9.599986199732195e+000	 8.000185779984415e-001	 9.742869673877468e+000
0	 9.599986199732195e+000	 8.666790473703452e-001	 9.745008983648416e+000
0	 9.599986199732197e+000	 9.333394000923321e-001	 9.747295110484558e+000
0	 9.599986199732195e+000	 9.999996528288190e-001	 9.749729252346382e+000
0	 9.599986199732195e+000	 1.066659822244222e+000	 9.752312606915673e+000
0	 9.599986199732193e+000	 1.133319925002958e+000	 9.755046371595553e+000
0	 9.599986199732197e+000	 1.199979977769445e+000	 9.757931743510460e+000
0	 9.599986199732195e+000	 1.266639997208098e+000	 9.760969919506163e+000
0	 9.599986199732197e+000	 1.333299999983334e+000	 9.764162096149738e+000
0	 9.666656597019092e+000	 6.666972226472177e-001	 9.726318429769112e+000
0	 9.666656597019092e+000	 7.333579753122046e-001	 9.728257671560892e+000
0	 9.666656597019092e+000	 8.000185779984415e-001	 9.730346912802148e+000
0	 9.666656597019095e+000	 8.666790473703454e-001	 9.732587362414687e+000
0	 9.666656597019093e+000	 9.333394000923323e-001	 9.734980229032196e+000
0	 9.666656597019088e+000	 9.999996528288189e-001	 9.737526721000025e+000
0	 9.666656597019093e+000	 1.066659822244222e+000	 9.740228046375398e+000
0	 9.666656597019093e+000	 1.133319925002959e+000	 9.743085412927266e+000
0	 9.666656597019093e+000	 1.199979977769445e+000	 9.746100028136349e+000
0	 9.666656597019092e+000	 1.266639997208098e+000	 9.749273099195204e+000
0	 9.666656597019092e+000	 1.333299999983334e+000	 9.752605833008094e+000
0	 9.733326577638573e+000	 6.666972226472175e-001	 9.713256396051099e+000
0	 9.733326577638575e+000	 7.333579753122048e-001	 9.715290914096999e+000
0	 9.733326577638575e+000	 8.000185779984417e-001	 9.717481831333247e+000
0	 9.733326577638573e+000	 8.666790473703451e-001	 9.719830357722344e+000
0	 9.733326577638575e+000	 9.333394000923323e-001	 9.722337702927623e+000
0	 9.733326577638573e+000	 9.999996528288189e-001	 9.725005076313549e+000
0	 9.733326577638573e+000	 1.066659822244222e+000	 9.727833686945498e+000
0	 9.733326577638572e+000	 1.133319925002959e+000	 9.730824743589876e+000
0	 9.733326577638573e+000	 1.199979977769445e+000	 9.733979454714115e+000
0	 9.733326577638575e+000	 1.266639997208098e+000	 9.737299028486591e+000
0	 9.733326577638575e+000	 1.333299999983334e+000	 9.740784672776732e+000
0	 9.799996024918523e+000	 6.666972226472177e-001	 9.699817611709440e+000
0	 9.799996024918521e+000	 7.333579753122048e-001	 9.701951983663847e+000
0	 9.799996024918521e+000	 8.000185779984413e-001	 9.704250197323930e+000
0	 9.799996024918523e+000	 8.666790473703451e-001	 9.706713454330854e+000
0	 9.799996024918521e+000	 9.333394000923320e-001	 9.709342956014405e+000
0	 9.799996024918523e+000	 9.999996528288189e-001	 9.712139903393014e+000
0	 9.799996024918521e+000	 1.066659822244222e+000	 9.715105497173788e+000
0	 9.799996024918519e+000	 1.133319925002958e+000	 9.718240937752404e+000
0	 9.799996024918523e+000	 1.199979977769445e+000	 9.721547425213245e+000
0	 9.799996024918523e+000	 1.266639997208098e+000	 9.725026159329328e+000
0	 9.799996024918523e+000	 1.333299999983334e+000	 9.728678339562313e+000
0	 9.866664822186820e+000	 6.666972226472175e-001	 9.685979078938502e+000
0	 9.866664822186820e+000	 7.333579753122048e-001	 9.688217154977540e+000
0	 9.866664822186820e+000	 8.000185779984417e-001	 9.690627780186569e+000
0	 9.866664822186818e+000	 8.666790473703451e-001	 9.693212138525272e+000
0	 9.866664822186818e+000	 9.333394000923320e-001	 9.695971413627479e+000
0	 9.866664822186820e+000	 9.999996528288190e-001	 9.698906788801510e+000
0	 9.866664822186820e+000	 1.066659822244222e+000	 9.702019447030109e+000
0	 9.866664822186820e+000	 1.133319925002959e+000	 9.705310570970330e+000
0	 9.866664822186820e+000	 1.199979977769445e+000	 9.708781342953632e+000
0	 9.866664822186820e+000	 1.266639997208098e+000	 9.712432944985846e+000
0	 9.866664822186818e+000	 1.333299999983334e+000	 9.716266558747236e+000
0	 9.933332852771351e+000	 6.666972226472177e-001	 9.671717801559796e+000
0	 9.933332852771352e+000	 7.333579753122047e-001	 9.674062704347575e+000
0	 9.933332852771351e+000	 8.000185779984418e-001	 9.676590350893500e+000
0	 9.933332852771352e+000	 8.666790473703454e-001	 9.679301898116529e+000
0	 9.933332852771352e+000	 9.333394000923323e-001	 9.682198502593559e+000
0	 9.933332852771351e+000	 9.999996528288190e-001	 9.685281320559437e+000
0	 9.933332852771349e+000	 1.066659822244222e+000	 9.688551507906762e+000
0	 9.933332852771351e+000	 1.133319925002958e+000	 9.692010220186079e+000
0	 9.933332852771352e+000	 1.199979977769445e+000	 9.695658612605852e+000
0	 9.933332852771352e+000	 1.266639997208098e+000	 9.699497840032402e+000
0	 9.933332852771351e+000	 1.333299999983334e+000	 9.703529056989943e+000
0	 1.000000000000000e+001	 6.666972226472175e-001	 9.657010785022242e+000
0	 1.000000000000000e+001	 7.333579753122049e-001	 9.659464909677485e+000
0	 1.000000000000000e+001	 8.000185779984417e-001	 9.662113681977088e+000
0	 1.000000000000000e+001	 8.666790473703454e-001	 9.664958222441952e+000
0	 1.000000000000000e+001	 9.333394000923322e-001	 9.667999651231686e+000
0	 1.000000000000000e+001	 9.999996528288191e-001	 9.671239088144853e+000
0	 1.000000000000000e+001	 1.066659822244222e+000	 9.674677652618696e+000
0	 1.000000000000000e+001	 1.133319925002959e+000	 9.678316463729352e+000
0	 1.000000000000000e+001	 1.199979977769445e+000	 9.682156640191691e+000
0	 1.000000000000000e+001	 1.266639997208098e+000	 9.686199300359489e+000
0	 1.000000000000000e+001	 1.333299999983334e+000	 9.690445562225266e+000
0	 9.333302777352785e+000	 1.333299999983334e+000	 9.808143740319743e+000
0	 9.333302777352783e+000	 1.399969999982150e+000	 9.810976294134417e+000
0	 9.333302777352785e+000	 1.466639999981866e+000	 9.813882896063243e+000
0	 9.333302777352783e+000	 1.533309999982383e+000	 9.816864933805945e+000
0	 9.333302777352783e+000	 1.599979999983600e+000	 9.819923795062184e+000
0	 9.333302777352783e+000	 1.666649999985416e+000	 9.823060867531657e+000
0	 9.333302777352783e+000	 1.733319999987733e+000	 9.826277538914070e+000
0	 9.333302777352781e+000	 1.799989999990450e+000	 9.829575196909081e+000
0	 9.333302777352783e+000	 1.866659999993466e+000	 9.832955229216429e+000
0	 9.333302777352783e+000	 1.933329999996683e+000	 9.836419023535774e+000
0	 9.333302777352783e+000	 2.000000000000000e+000	 9.839967967566834e+000
0	 9.399973674588177e+000	 1.333299999983334e+000	 9.797444281099304e+000
0	 9.399973674588177e+000	 1.399969999982150e+000	 9.800384821589567e+000
0	 9.399973674588177e+000	 1.466639999981866e+000	 9.803402796393581e+000
0	 9.399973674588177e+000	 1.533309999982383e+000	 9.806499758875182e+000
0	 9.399973674588175e+000	 1.599979999983600e+000	 9.809677262398228e+000
0	 9.399973674588175e+000	 1.666649999985416e+000	 9.812936860326570e+000
0	 9.399973674588175e+000	 1.733319999987733e+000	 9.816280106024072e+000
0	 9.399973674588180e+000	 1.799989999990450e+000	 9.819708552854575e+000
0	 9.399973674588175e+000	 1.866659999993466e+000	 9.823223754181941e+000
0	 9.399973674588180e+000	 1.933329999996684e+000	 9.826827263370015e+000
0	 9.399973674588177e+000	 2.000000000000000e+000	 9.830520633782673e+000
0	 9.466644621844617e+000	 1.333299999983334e+000	 9.786561041114009e+000
0	 9.466644621844623e+000	 1.399969999982150e+000	 9.789616967868147e+000
0	 9.466644621844619e+000	 1.466639999981867e+000	 9.792754107202059e+000
0	 9.466644621844623e+000	 1.533309999982383e+000	 9.795974139647116e+000
0	 9.466644621844619e+000	 1.599979999983599e+000	 9.799278745734666e+000
0	 9.466644621844619e+000	 1.666649999985416e+000	 9.802669605996067e+000
0	 9.466644621844621e+000	 1.733319999987733e+000	 9.806148400962659e+000
0	 9.466644621844621e+000	 1.799989999990450e+000	 9.809716811165833e+000
0	 9.466644621844621e+000	 1.866659999993466e+000	 9.813376517136911e+000
0	 9.466644621844621e+000	 1.933329999996683e+000	 9.817129199407271e+000
0	 9.466644621844623e+000	 2.000000000000000e+000	 9.820976538508264e+000
0	 9.533315502450002e+000	 1.333299999983334e+000	 9.775473739370433e+000
0	 9.533315502449998e+000	 1.399969999982150e+000	 9.778653808269539e+000
0	 9.533315502449996e+000	 1.466639999981866e+000	 9.781919205453445e+000
0	 9.533315502450002e+000	 1.533309999982383e+000	 9.785271700124989e+000
0	 9.533315502450000e+000	 1.599979999983600e+000	 9.788713061487011e+000
0	 9.533315502449998e+000	 1.666649999985416e+000	 9.792245058742360e+000
0	 9.533315502449998e+000	 1.733319999987733e+000	 9.795869461093895e+000
0	 9.533315502450000e+000	 1.799989999990450e+000	 9.799588037744467e+000
0	 9.533315502450000e+000	 1.866659999993466e+000	 9.803402557896925e+000
0	 9.533315502449998e+000	 1.933329999996683e+000	 9.807314790754113e+000
0	 9.533315502450000e+000	 2.000000000000000e+000	 9.811326505518904e+000
0	 9.599986199732197e+000	 1.333299999983334e+000	 9.764162096149738e+000
0	 9.599986199732193e+000	 1.399969999982150e+000	 9.767476419329112e+000
0	 9.599986199732198e+000	 1.466639999981867e+000	 9.770880469308338e+000
0	 9.599986199732198e+000	 1.533309999982383e+000	 9.774376065466003e+000
0	 9.599986199732193e+000	 1.599979999983599e+000	 9.777965027180708e+000
0	 9.599986199732195e+000	 1.666649999985416e+000	 9.781649173831031e+000
0	 9.599986199732197e+000	 1.733319999987733e+000	 9.785430324795557e+000
0	 9.599986199732195e+000	 1.799989999990449e+000	 9.789310299452874e+000
0	 9.599986199732197e+000	 1.866659999993466e+000	 9.793290917181590e+000
0	 9.599986199732197e+000	 1.933329999996683e+000	 9.797373997360262e+000
0	 9.599986199732198e+000	 2.000000000000000e+000	 9.801561359367520e+000
0	 9.666656597019092e+000	 1.333299999983334e+000	 9.752605833008094e+000
0	 9.666656597019092e+000	 1.399969999982150e+000	 9.756065878818298e+000
0	 9.666656597019093e+000	 1.466639999981867e+000	 9.759620278123316e+000
0	 9.666656597019090e+000	 1.533309999982383e+000	 9.763270861981502e+000
0	 9.666656597019095e+000	 1.599979999983600e+000	 9.767019461451302e+000
0	 9.666656597019092e+000	 1.666649999985416e+000	 9.770867907591102e+000
0	 9.666656597019092e+000	 1.733319999987733e+000	 9.774818031459335e+000
0	 9.666656597019092e+000	 1.799989999990450e+000	 9.778871664114403e+000
0	 9.666656597019095e+000	 1.866659999993466e+000	 9.783030636614722e+000
0	 9.666656597019093e+000	 1.933329999996684e+000	 9.787296780018709e+000
0	 9.666656597019092e+000	 2.000000000000000e+000	 9.791671925384772e+000
0	 9.733326577638575e+000	 1.333299999983334e+000	 9.740784672776734e+000
0	 9.733326577638570e+000	 1.399969999982150e+000	 9.744403265745017e+000
0	 9.733326577638575e+000	 1.466639999981866e+000	 9.748121012451259e+000
0	 9.733326577638572e+000	 1.533309999982383e+000	 9.751939717137233e+000
0	 9.733326577638573e+000	 1.599979999983599e+000	 9.755861184044678e+000
0	 9.733326577638573e+000	 1.666649999985416e+000	 9.759887217415376e+000
0	 9.733326577638575e+000	 1.733319999987733e+000	 9.764019621491105e+000
0	 9.733326577638572e+000	 1.799989999990450e+000	 9.768260200513591e+000
0	 9.733326577638573e+000	 1.866659999993466e+000	 9.772610758724643e+000
0	 9.733326577638572e+000	 1.933329999996683e+000	 9.777073100365962e+000
0	 9.733326577638573e+000	 2.000000000000000e+000	 9.781649029679382e+000
0	 9.799996024918523e+000	 1.333299999983334e+000	 9.728678339562313e+000
0	 9.799996024918524e+000	 1.399969999982150e+000	 9.732469660353720e+000
0	 9.799996024918519e+000	 1.466639999981866e+000	 9.736365054041574e+000
0	 9.799996024918523e+000	 1.533309999982383e+000	 9.740366259553563e+000
0	 9.799996024918521e+000	 1.599979999983599e+000	 9.744475015817359e+000
0	 9.799996024918521e+000	 1.666649999985416e+000	 9.748693061760648e+000
0	 9.799996024918523e+000	 1.733319999987733e+000	 9.753022136311108e+000
0	 9.799996024918523e+000	 1.799989999990450e+000	 9.757463978396411e+000
0	 9.799996024918519e+000	 1.866659999993466e+000	 9.762020326944246e+000
0	 9.799996024918521e+000	 1.933329999996683e+000	 9.766692920882289e+000
0	 9.799996024918524e+000	 2.000000000000000e+000	 9.771483499138231e+000
0	 9.866664822186818e+000	 1.333299999983334e+000	 9.716266558747236e+000
0	 9.866664822186822e+000	 1.399969999982150e+000	 9.720246144125868e+000
0	 9.866664822186817e+000	 1.466639999981866e+000	 9.724334785840464e+000
0	 9.866664822186820e+000	 1.533309999982383e+000	 9.728534119005815e+000
0	 9.866664822186818e+000	 1.599979999983599e+000	 9.732845778736699e+000
0	 9.866664822186820e+000	 1.666649999985416e+000	 9.737271400147908e+000
0	 9.866664822186820e+000	 1.733319999987733e+000	 9.741812618354262e+000
0	 9.866664822186820e+000	 1.799989999990450e+000	 9.746471068470491e+000
0	 9.866664822186820e+000	 1.866659999993466e+000	 9.751248385611442e+000
0	 9.866664822186820e+000	 1.933329999996683e+000	 9.756146204891907e+000
0	 9.866664822186820e+000	 2.000000000000000e+000	 9.761166161426653e+000
0	 9.933332852771351e+000	 1.333299999983334e+000	 9.703529056989945e+000
0	 9.933332852771351e+000	 1.399969999982150e+000	 9.707713799780212e+000
0	 9.933332852771351e+000	 1.466639999981866e+000	 9.712012591991309e+000
0	 9.933332852771352e+000	 1.533309999982383e+000	 9.716426926424550e+000
0	 9.933332852771351e+000	 1.599979999983599e+000	 9.720958295881266e+000
0	 9.933332852771351e+000	 1.666649999985416e+000	 9.725608193162781e+000
0	 9.933332852771352e+000	 1.733319999987733e+000	 9.730378111070422e+000
0	 9.933332852771351e+000	 1.799989999990450e+000	 9.735269542405522e+000
0	 9.933332852771351e+000	 1.866659999993466e+000	 9.740283979969362e+000
0	 9.933332852771351e+000	 1.933329999996683e+000	 9.745422916563362e+000
0	 9.933332852771352e+000	 2.000000000000000e+000	 9.750687844988780e+000
0	 1.000000000000000e+001	 1.333299999983334e+000	 9.690445562225266e+000
0	 1.000000000000000e+001	 1.399969999982150e+000	 9.694853711273121e+000
0	 1.000000000000000e+001	 1.466639999981866e+000	 9.699380857834978e+000
0	 1.000000000000000e+001	 1.533309999982383e+000	 9.704028313895977e+000
0	 9.999999999999998e+000	 1.599979999983599e+000	 9.708797391441191e+000
0	 1.000000000000000e+001	 1.666649999985416e+000	 9.713689402455765e+000
0	 1.000000000000000e+001	 1.733319999987733e+000	 9.718705658924792e+000
0	 1.000000000000000e+001	 1.799989999990450e+000	 9.723847472833398e+000
0	 1.000000000000000e+001	 1.866659999993466e+000	 9.729116156166658e+000
0	 1.000000000000000e+001	 1.933329999996683e+000	 9.734513020909736e+000
0	 1.000000000000000e+001	 2.000000000000000e+000	 9.740039379047696e+000
0	 9.333302777352783e+000	 2.000000000000000e+000	 9.839967967566834e+000
0	 9.333302777352783e+000	 2.066670000003318e+000	 9.843570361537434e+000
0	 9.333302777352783e+000	 2.133340000006534e+000	 9.847194829354601e+000
0	 9.333302777352785e+000	 2.200010000009550e+000	 9.850843244236756e+000
0	 9.333302777352781e+000	 2.266680000012267e+000	 9.854517479402293e+000
0	 9.333302777352783e+000	 2.333350000014584e+000	 9.858219408069672e+000
0	 9.333302777352781e+000	 2.400020000016401e+000	 9.861950903457300e+000
0	 9.333302777352785e+000	 2.466690000017617e+000	 9.865713838783606e+000
0	 9.333302777352781e+000	 2.533360000018134e+000	 9.869510087267017e+000
0	 9.333302777352783e+000	 2.600030000017850e+000	 9.873341522125942e+000
0	 9.333302777352785e+000	 2.666700000016666e+000	 9.877210016578834e+000
0	 9.399973674588177e+000	 2.000000000000000e+000	 9.830520633782673e+000
0	 9.399973674588180e+000	 2.066670000003318e+000	 9.834271606989439e+000
0	 9.399973674588177e+000	 2.133340000006534e+000	 9.838047894432432e+000
0	 9.399973674588177e+000	 2.200010000009550e+000	 9.841851004284381e+000
0	 9.399973674588177e+000	 2.266680000012267e+000	 9.845682444718010e+000
0	 9.399973674588173e+000	 2.333350000014584e+000	 9.849543723906034e+000
0	 9.399973674588173e+000	 2.400020000016400e+000	 9.853436350021200e+000
0	 9.399973674588175e+000	 2.466690000017618e+000	 9.857361831236201e+000
0	 9.399973674588178e+000	 2.533360000018134e+000	 9.861321675723785e+000
0	 9.399973674588177e+000	 2.600030000017851e+000	 9.865317391656669e+000
0	 9.399973674588178e+000	 2.666700000016666e+000	 9.869350487207594e+000
0	 9.466644621844623e+000	 2.000000000000000e+000	 9.820976538508264e+000
0	 9.466644621844621e+000	 2.066670000003317e+000	 9.824885333443254e+000
0	 9.466644621844621e+000	 2.133340000006534e+000	 9.828822089324147e+000
0	 9.466644621844621e+000	 2.200010000009550e+000	 9.832788045845145e+000
0	 9.466644621844621e+000	 2.266680000012267e+000	 9.836784442700376e+000
0	 9.466644621844621e+000	 2.333350000014584e+000	 9.840812519584057e+000
0	 9.466644621844621e+000	 2.400020000016400e+000	 9.844873516190342e+000
0	 9.466644621844621e+000	 2.466690000017617e+000	 9.848968672213408e+000
0	 9.466644621844619e+000	 2.533360000018134e+000	 9.853099227347423e+000
0	 9.466644621844621e+000	 2.600030000017851e+000	 9.857266421286582e+000
0	 9.466644621844617e+000	 2.666700000016666e+000	 9.861471493725043e+000
0	 9.533315502450000e+000	 2.000000000000000e+000	 9.811326505518904e+000
0	 9.533315502450000e+000	 2.066670000003318e+000	 9.815403223677096e+000
0	 9.533315502450002e+000	 2.133340000006534e+000	 9.819509999100205e+000
0	 9.533315502449998e+000	 2.200010000009550e+000	 9.823647899569622e+000
0	 9.533315502450000e+000	 2.266680000012267e+000	 9.827817992866750e+000
0	 9.533315502449998e+000	 2.333350000014585e+000	 9.832021346772971e+000
0	 9.533315502450000e+000	 2.400020000016401e+000	 9.836259029069703e+000
0	 9.533315502450002e+000	 2.466690000017618e+000	 9.840532107538369e+000
0	 9.533315502449998e+000	 2.533360000018134e+000	 9.844841649960323e+000
0	 9.533315502449998e+000	 2.600030000017851e+000	 9.849188724117004e+000
0	 9.533315502450000e+000	 2.666700000016667e+000	 9.853574397789773e+000
0	 9.599986199732198e+000	 2.000000000000000e+000	 9.801561359367520e+000
0	 9.599986199732198e+000	 2.066670000003318e+000	 9.805816961176516e+000
0	 9.599986199732197e+000	 2.133340000006534e+000	 9.810104209464090e+000
0	 9.599986199732197e+000	 2.200010000009550e+000	 9.814424096664261e+000
0	 9.599986199732197e+000	 2.266680000012267e+000	 9.818777615211070e+000
0	 9.599986199732195e+000	 2.333350000014584e+000	 9.823165757538581e+000
0	 9.599986199732193e+000	 2.400020000016400e+000	 9.827589516080828e+000
0	 9.599986199732195e+000	 2.466690000017617e+000	 9.832049883271823e+000
0	 9.599986199732197e+000	 2.533360000018134e+000	 9.836547851545644e+000
0	 9.599986199732195e+000	 2.600030000017850e+000	 9.841084413336306e+000
0	 9.599986199732198e+000	 2.666700000016667e+000	 9.845660561077887e+000
0	 9.666656597019092e+000	 2.000000000000000e+000	 9.791671925384772e+000
0	 9.666656597019093e+000	 2.066670000003317e+000	 9.796118230134566e+000
0	 9.666656597019093e+000	 2.133340000006534e+000	 9.800597306752552e+000
0	 9.666656597019090e+000	 2.200010000009550e+000	 9.805110168891547e+000
0	 9.666656597019093e+000	 2.266680000012267e+000	 9.809657830204259e+000
0	 9.666656597019092e+000	 2.333350000014585e+000	 9.814241304343447e+000
0	 9.666656597019092e+000	 2.400020000016401e+000	 9.818861604961883e+000
0	 9.666656597019092e+000	 2.466690000017617e+000	 9.823519745712293e+000
0	 9.666656597019092e+000	 2.533360000018133e+000	 9.828216740247463e+000
0	 9.666656597019090e+000	 2.600030000017851e+000	 9.832953602220105e+000
0	 9.666656597019093e+000	 2.666700000016666e+000	 9.837731345283014e+000
0	 9.733326577638573e+000	 2.000000000000000e+000	 9.781649029679382e+000
0	 9.733326577638577e+000	 2.066670000003318e+000	 9.786298715451991e+000
0	 9.733326577638575e+000	 2.133340000006534e+000	 9.790981877935867e+000
0	 9.733326577638575e+000	 2.200010000009550e+000	 9.795699648570201e+000
0	 9.733326577638573e+000	 2.266680000012267e+000	 9.800453158794202e+000
0	 9.733326577638575e+000	 2.333350000014584e+000	 9.805243540047075e+000
0	 9.733326577638575e+000	 2.400020000016401e+000	 9.810071923768012e+000
0	 9.733326577638575e+000	 2.466690000017617e+000	 9.814939441396234e+000
0	 9.733326577638573e+000	 2.533360000018134e+000	 9.819847224370953e+000
0	 9.733326577638577e+000	 2.600030000017851e+000	 9.824796404131341e+000
0	 9.733326577638575e+000	 2.666700000016667e+000	 9.829788112116646e+000
0	 9.799996024918524e+000	 2.000000000000000e+000	 9.771483499138231e+000
0	 9.799996024918519e+000	 2.066670000003317e+000	 9.776350102737510e+000
0	 9.799996024918524e+000	 2.133340000006534e+000	 9.781250510617875e+000
0	 9.799996024918524e+000	 2.200010000009551e+000	 9.786186068575356e+000
0	 9.799996024918521e+000	 2.266680000012267e+000	 9.791158122406076e+000
0	 9.799996024918523e+000	 2.333350000014584e+000	 9.796168017906066e+000
0	 9.799996024918521e+000	 2.400020000016401e+000	 9.801217100871439e+000
0	 9.799996024918523e+000	 2.466690000017617e+000	 9.806306717098256e+000
0	 9.799996024918523e+000	 2.533360000018134e+000	 9.811438212382583e+000
0	 9.799996024918523e+000	 2.600030000017850e+000	 9.816612932520526e+000
0	 9.799996024918523e+000	 2.666700000016667e+000	 9.821832223308133e+000
0	 9.866664822186820e+000	 2.000000000000000e+000	 9.761166161426653e+000
0	 9.866664822186820e+000	 2.066670000003317e+000	 9.766264078307973e+000
0	 9.866664822186820e+000	 2.133340000006534e+000	 9.771395793036373e+000
0	 9.866664822186820e+000	 2.200010000009550e+000	 9.776562962338854e+000
0	 9.866664822186822e+000	 2.266680000012267e+000	 9.781767242942516e+000
0	 9.866664822186820e+000	 2.333350000014584e+000	 9.787010291574426e+000
0	 9.866664822186820e+000	 2.400020000016400e+000	 9.792293764961634e+000
0	 9.866664822186820e+000	 2.466690000017617e+000	 9.797619319831231e+000
0	 9.866664822186822e+000	 2.533360000018134e+000	 9.802988612910271e+000
0	 9.866664822186820e+000	 2.600030000017851e+000	 9.808403300925827e+000
0	 9.866664822186820e+000	 2.666700000016666e+000	 9.813865040604961e+000
0	 9.933332852771352e+000	 2.000000000000000e+000	 9.750687844988780e+000
0	 9.933332852771352e+000	 2.066670000003317e+000	 9.756032329188725e+000
0	 9.933332852771351e+000	 2.133340000006534e+000	 9.761410314063268e+000
0	 9.933332852771351e+000	 2.200010000009550e+000	 9.766823863849378e+000
0	 9.933332852771349e+000	 2.266680000012267e+000	 9.772275042783882e+000
0	 9.933332852771351e+000	 2.333350000014584e+000	 9.777765915103636e+000
0	 9.933332852771351e+000	 2.400020000016401e+000	 9.783298545045607e+000
0	 9.933332852771351e+000	 2.466690000017617e+000	 9.788874996846595e+000
0	 9.933332852771352e+000	 2.533360000018134e+000	 9.794497334743557e+000
0	 9.933332852771351e+000	 2.600030000017851e+000	 9.800167622973378e+000
0	 9.933332852771352e+000	 2.666700000016666e+000	 9.805887925772877e+000
0	 1.000000000000000e+001	 2.000000000000000e+000	 9.740039379047696e+000
0	 9.999999999999998e+000	 2.066670000003316e+000	 9.745646543113725e+000
0	 1.000000000000000e+001	 2.133340000006534e+000	 9.751286663204994e+000
0	 9.999999999999998e+000	 2.200010000009550e+000	 9.756962307652819e+000
0	 1.000000000000000e+001	 2.266680000012268e+000	 9.762676044788424e+000
0	 1.000000000000000e+001	 2.333350000014584e+000	 9.768430442943059e+000
0	 1.000000000000000e+001	 2.400020000016401e+000	 9.774228070448007e+000
0	 1.000000000000000e+001	 2.466690000017617e+000	 9.780071495634486e+000
0	 1.000000000000000e+001	 2.533360000018134e+000	 9.785963286833848e+000
0	 1.000000000000000e+001	 2.600030000017850e+000	 9.791906012377259e+000
0	 1.000000000000000e+001	 2.666700000016666e+000	 9.797902240596054e+000
0	 9.333302777352785e+000	 2.666700000016666e+000	 9.877210016578831e+000
0	 9.333302777352783e+000	 2.733360000014533e+000	 9.881083404833692e+000
0	 9.333302777352781e+000	 2.800020000011600e+000	 9.884930131840406e+000
0	 9.333302777352783e+000	 2.866680000008067e+000	 9.888751237575745e+000
0	 9.333302777352781e+000	 2.933340000004133e+000	 9.892547762016477e+000
0	 9.333302777352785e+000	 3.000000000000000e+000	 9.896320745139366e+000
0	 9.333302777352783e+000	 3.066659999995867e+000	 9.900071226921209e+000
0	 9.333302777352781e+000	 3.133319999991933e+000	 9.903800247338756e+000
0	 9.333302777352783e+000	 3.199979999988400e+000	 9.907508846368794e+000
0	 9.333302777352783e+000	 3.266639999985467e+000	 9.911198063988081e+000
0	 9.333302777352785e+000	 3.333299999983334e+000	 9.914868940173417e+000
0	 9.399973674588178e+000	 2.666700000016666e+000	 9.869350487207592e+000
0	 9.399973674588177e+000	 2.733360000014532e+000	 9.873387818416806e+000
0	 9.399973674588175e+000	 2.800020000011600e+000	 9.877397288626597e+000
0	 9.399973674588178e+000	 2.866680000008067e+000	 9.881380153524356e+000
0	 9.399973674588180e+000	 2.933340000004134e+000	 9.885337668797465e+000
0	 9.399973674588180e+000	 3.000000000000000e+000	 9.889271090133274e+000
0	 9.399973674588178e+000	 3.066659999995867e+000	 9.893181673219164e+000
0	 9.399973674588177e+000	 3.133319999991933e+000	 9.897070673742507e+000
0	 9.399973674588175e+000	 3.199979999988400e+000	 9.900939347390660e+000
0	 9.399973674588175e+000	 3.266639999985467e+000	 9.904788949851010e+000
0	 9.399973674588178e+000	 3.333299999983334e+000	 9.908620736810937e+000
0	 9.466644621844617e+000	 2.666700000016666e+000	 9.861471493725047e+000
0	 9.466644621844617e+000	 2.733360000014533e+000	 9.865680441315034e+000
0	 9.466644621844617e+000	 2.800020000011600e+000	 9.869860651127763e+000
0	 9.466644621844621e+000	 2.866680000008067e+000	 9.874013547589639e+000
0	 9.466644621844617e+000	 2.933340000004133e+000	 9.878140555127114e+000
0	 9.466644621844623e+000	 3.000000000000000e+000	 9.882243098166589e+000
0	 9.466644621844621e+000	 3.066659999995868e+000	 9.886322601134527e+000
0	 9.466644621844619e+000	 3.133319999991933e+000	 9.890380488457366e+000
0	 9.466644621844621e+000	 3.199979999988400e+000	 9.894418184561522e+000
0	 9.466644621844619e+000	 3.266639999985467e+000	 9.898437113873447e+000
0	 9.466644621844619e+000	 3.333299999983334e+000	 9.902438700819547e+000
0	 9.533315502450000e+000	 2.666700000016667e+000	 9.853574397789773e+000
0	 9.533315502450000e+000	 2.733360000014533e+000	 9.857963844219441e+000
0	 9.533315502449998e+000	 2.800020000011599e+000	 9.862323877121755e+000
0	 9.533315502450002e+000	 2.866680000008067e+000	 9.866656042691563e+000
0	 9.533315502450000e+000	 2.933340000004133e+000	 9.870961887123695e+000
0	 9.533315502449998e+000	 3.000000000000000e+000	 9.875242956612981e+000
0	 9.533315502449996e+000	 3.066659999995867e+000	 9.879500797354236e+000
0	 9.533315502450000e+000	 3.133319999991933e+000	 9.883736955542330e+000
0	 9.533315502450000e+000	 3.199979999988401e+000	 9.887952977372054e+000
0	 9.533315502449998e+000	 3.266639999985467e+000	 9.892150409038274e+000
0	 9.533315502450000e+000	 3.333299999983334e+000	 9.896330796735809e+000
0	 9.599986199732198e+000	 2.666700000016667e+000	 9.845660561077887e+000
0	 9.599986199732197e+000	 2.733360000014533e+000	 9.850240597773750e+000
0	 9.599986199732195e+000	 2.800020000011600e+000	 9.854790624279122e+000
0	 9.599986199732197e+000	 2.866680000008067e+000	 9.859312261586959e+000
0	 9.599986199732195e+000	 2.933340000004133e+000	 9.863807130690164e+000
0	 9.599986199732195e+000	 3.000000000000000e+000	 9.868276852581683e+000
0	 9.599986199732195e+000	 3.066659999995868e+000	 9.872723048254461e+000
0	 9.599986199732193e+000	 3.133319999991933e+000	 9.877147338701423e+000
0	 9.599986199732193e+000	 3.199979999988400e+000	 9.881551344915522e+000
0	 9.599986199732193e+000	 3.266639999985467e+000	 9.885936687889686e+000
0	 9.599986199732197e+000	 3.333299999983334e+000	 9.890304988616867e+000
0	 9.666656597019093e+000	 2.666700000016666e+000	 9.837731345283014e+000
0	 9.666656597019093e+000	 2.733360000014534e+000	 9.842513272574676e+000
0	 9.666656597019090e+000	 2.800020000011600e+000	 9.847264550163345e+000
0	 9.666656597019093e+000	 2.866680000008067e+000	 9.851986826869643e+000
0	 9.666656597019092e+000	 2.933340000004133e+000	 9.856681751514214e+000
0	 9.666656597019093e+000	 3.000000000000000e+000	 9.861350972917668e+000
0	 9.666656597019095e+000	 3.066659999995866e+000	 9.865996139900668e+000
0	 9.666656597019093e+000	 3.133319999991933e+000	 9.870618901283818e+000
0	 9.666656597019092e+000	 3.199979999988400e+000	 9.875220905887796e+000
0	 9.666656597019093e+000	 3.266639999985468e+000	 9.879803802533207e+000
0	 9.666656597019092e+000	 3.333299999983333e+000	 9.884369240040696e+000
0	 9.733326577638575e+000	 2.666700000016667e+000	 9.829788112116642e+000
0	 9.733326577638575e+000	 2.733360000014533e+000	 9.834784439171983e+000
0	 9.733326577638575e+000	 2.800020000011600e+000	 9.839749312230863e+000
0	 9.733326577638572e+000	 2.866680000008066e+000	 9.844684360970584e+000
0	 9.733326577638575e+000	 2.933340000004133e+000	 9.849591215068431e+000
0	 9.733326577638577e+000	 3.000000000000000e+000	 9.854471504201760e+000
0	 9.733326577638575e+000	 3.066659999995866e+000	 9.859326858047849e+000
0	 9.733326577638572e+000	 3.133319999991933e+000	 9.864158906284027e+000
0	 9.733326577638575e+000	 3.199979999988400e+000	 9.868969278587590e+000
0	 9.733326577638573e+000	 3.266639999985468e+000	 9.873759604635872e+000
0	 9.733326577638575e+000	 3.333299999983335e+000	 9.878531514106172e+000
0	 9.799996024918523e+000	 2.666700000016667e+000	 9.821832223308130e+000
0	 9.799996024918521e+000	 2.733360000014533e+000	 9.827056668068664e+000
0	 9.799996024918521e+000	 2.800020000011599e+000	 9.832248567831329e+000
0	 9.799996024918521e+000	 2.866680000008066e+000	 9.837409486158011e+000
0	 9.799996024918523e+000	 2.933340000004133e+000	 9.842540986610540e+000
0	 9.799996024918519e+000	 3.000000000000000e+000	 9.847644632750798e+000
0	 9.799996024918523e+000	 3.066659999995867e+000	 9.852721988140633e+000
0	 9.799996024918521e+000	 3.133319999991933e+000	 9.857774616341922e+000
0	 9.799996024918524e+000	 3.199979999988401e+000	 9.862804080916538e+000
0	 9.799996024918521e+000	 3.266639999985468e+000	 9.867811945426327e+000
0	 9.799996024918523e+000	 3.333299999983334e+000	 9.872799773433171e+000
0	 9.866664822186820e+000	 2.666700000016666e+000	 9.813865040604961e+000
0	 9.866664822186820e+000	 2.733360000014533e+000	 9.819332529721095e+000
0	 9.866664822186818e+000	 2.800020000011599e+000	 9.824765974207736e+000
0	 9.866664822186820e+000	 2.866680000008067e+000	 9.830166824537614e+000
0	 9.866664822186820e+000	 2.933340000004133e+000	 9.835536531183385e+000
0	 9.866664822186818e+000	 2.999999999999999e+000	 9.840876544617732e+000
0	 9.866664822186820e+000	 3.066659999995868e+000	 9.846188315313377e+000
0	 9.866664822186822e+000	 3.133319999991933e+000	 9.851473293743002e+000
0	 9.866664822186820e+000	 3.199979999988400e+000	 9.856732930379305e+000
0	 9.866664822186818e+000	 3.266639999985467e+000	 9.861968675694964e+000
0	 9.866664822186818e+000	 3.333299999983333e+000	 9.867181980162696e+000
0	 9.933332852771352e+000	 2.666700000016666e+000	 9.805887925772877e+000
0	 9.933332852771352e+000	 2.733360000014533e+000	 9.811614594539204e+000
0	 9.933332852771349e+000	 2.800020000011600e+000	 9.817305188496547e+000
0	 9.933332852771352e+000	 2.866680000008067e+000	 9.822960998052615e+000
0	 9.933332852771352e+000	 2.933340000004133e+000	 9.828583313615130e+000
0	 9.933332852771349e+000	 2.999999999999999e+000	 9.834173425591773e+000
0	 9.933332852771351e+000	 3.066659999995866e+000	 9.839732624390265e+000
0	 9.933332852771351e+000	 3.133319999991934e+000	 9.845262200418345e+000
0	 9.933332852771352e+000	 3.199979999988400e+000	 9.850763444083679e+000
0	 9.933332852771351e+000	 3.266639999985467e+000	 9.856237645793957e+000
0	 9.933332852771351e+000	 3.333299999983334e+000	 9.861686095956964e+000
0	 1.000000000000000e+001	 2.666700000016666e+000	 9.797902240596054e+000
0	 1.000000000000000e+001	 2.733360000014533e+000	 9.803905432886628e+000
0	 1.000000000000000e+001	 2.800020000011600e+000	 9.809869867727855e+000
0	 1.000000000000000e+001	 2.866680000008067e+000	 9.815796628484005e+000
0	 1.000000000000000e+001	 2.933340000004133e+000	 9.821686798519480e+000
0	 1.000000000000000e+001	 3.000000000000000e+000	 9.827541461198543e+000
0	 1.000000000000000e+001	 3.066659999995867e+000	 9.833361699885529e+000
0	 9.999999999999998e+000	 3.133319999991933e+000	 9.839148597944794e+000
0	 1.000000000000000e+001	 3.199979999988401e+000	 9.844903238740629e+000
0	 1.000000000000000e+001	 3.266639999985467e+000	 9.850626705637410e+000
0	 1.000000000000000e+001	 3.333299999983334e+000	 9.856320081999435e+000
0	 9.333302777352785e+000	 3.333299999983334e+000	 9.914868940173419e+000
0	 9.333302777352781e+000	 3.399969999982149e+000	 9.918501304098500e+000
0	 9.333302777352785e+000	 3.466639999981867e+000	 9.922073709271466e+000
0	 9.333302777352783e+000	 3.533309999982383e+000	 9.925586930259016e+000
0	 9.333302777352785e+000	 3.599979999983600e+000	 9.929041741627840e+000
0	 9.333302777352783e+000	 3.666649999985417e+000	 9.932438917944658e+000
0	 9.333302777352783e+000	 3.733319999987733e+000	 9.935779233776122e+000
0	 9.333302777352783e+000	 3.799989999990450e+000	 9.939063463688980e+000
0	 9.333302777352783e+000	 3.866659999993466e+000	 9.942292382249876e+000
0	 9.333302777352783e+000	 3.933329999996683e+000	 9.945466764025525e+000
0	 9.333302777352785e+000	 4.000000000000000e+000	 9.948587383582638e+000
0	 9.399973674588178e+000	 3.333299999983334e+000	 9.908620736810939e+000
0	 9.399973674588177e+000	 3.399969999982150e+000	 9.912413569954230e+000
0	 9.399973674588177e+000	 3.466639999981866e+000	 9.916144814513535e+000
0	 9.399973674588178e+000	 3.533309999982383e+000	 9.919815202155512e+000
0	 9.399973674588175e+000	 3.599979999983600e+000	 9.923425464546842e+000
0	 9.399973674588175e+000	 3.666649999985416e+000	 9.926976333354174e+000
0	 9.399973674588175e+000	 3.733319999987732e+000	 9.930468540244199e+000
0	 9.399973674588178e+000	 3.799989999990450e+000	 9.933902816883579e+000
0	 9.399973674588177e+000	 3.866659999993467e+000	 9.937279894938964e+000
0	 9.399973674588177e+000	 3.933329999996684e+000	 9.940600506077040e+000
0	 9.399973674588175e+000	 4.000000000000000e+000	 9.943865381964461e+000
0	 9.466644621844619e+000	 3.333299999983334e+000	 9.902438700819547e+000
0	 9.466644621844623e+000	 3.399969999982150e+000	 9.906400517600513e+000
0	 9.466644621844619e+000	 3.466639999981867e+000	 9.910298460775987e+000
0	 9.466644621844623e+000	 3.533309999982383e+000	 9.914133238516412e+000
0	 9.466644621844617e+000	 3.599979999983598e+000	 9.917905558992246e+000
0	 9.466644621844619e+000	 3.666649999985417e+000	 9.921616130373902e+000
0	 9.466644621844621e+000	 3.733319999987733e+000	 9.925265660831849e+000
0	 9.466644621844621e+000	 3.799989999990450e+000	 9.928854858536473e+000
0	 9.466644621844621e+000	 3.866659999993467e+000	 9.932384431658278e+000
0	 9.466644621844619e+000	 3.933329999996684e+000	 9.935855088367651e+000
0	 9.466644621844621e+000	 4.000000000000000e+000	 9.939267536835040e+000
0	 9.533315502450000e+000	 3.333299999983334e+000	 9.896330796735809e+000
0	 9.533315502449996e+000	 3.399969999982150e+000	 9.900470197020427e+000
0	 9.533315502449998e+000	 3.466639999981866e+000	 9.904542853197176e+000
0	 9.533315502450003e+000	 3.533309999982384e+000	 9.908549469343923e+000
0	 9.533315502450002e+000	 3.599979999983600e+000	 9.912490749538550e+000
0	 9.533315502450000e+000	 3.666649999985416e+000	 9.916367397858949e+000
0	 9.533315502450000e+000	 3.733319999987733e+000	 9.920180118383033e+000
0	 9.533315502449996e+000	 3.799989999990449e+000	 9.923929615188659e+000
0	 9.533315502449998e+000	 3.866659999993467e+000	 9.927616592353733e+000
0	 9.533315502449998e+000	 3.933329999996684e+000	 9.931241753956140e+000
0	 9.533315502450000e+000	 4.000000000000001e+000	 9.934805804073768e+000
0	 9.599986199732197e+000	 3.333299999983334e+000	 9.890304988616867e+000
0	 9.599986199732195e+000	 3.399969999982149e+000	 9.894630657677489e+000
0	 9.599986199732195e+000	 3.466639999981866e+000	 9.898886196355996e+000
0	 9.599986199732198e+000	 3.533309999982384e+000	 9.903072324041496e+000
0	 9.599986199732193e+000	 3.599979999983599e+000	 9.907189760123119e+000
0	 9.599986199732195e+000	 3.666649999985415e+000	 9.911239223989940e+000
0	 9.599986199732195e+000	 3.733319999987732e+000	 9.915221435031091e+000
0	 9.599986199732197e+000	 3.799989999990450e+000	 9.919137112635687e+000
0	 9.599986199732197e+000	 3.866659999993467e+000	 9.922986976192814e+000
0	 9.599986199732197e+000	 3.933329999996684e+000	 9.926771745091603e+000
0	 9.599986199732198e+000	 4.000000000000001e+000	 9.930492138721155e+000
0	 9.666656597019092e+000	 3.333299999983333e+000	 9.884369240040700e+000
0	 9.666656597019092e+000	 3.399969999982151e+000	 9.888889948515658e+000
0	 9.666656597019093e+000	 3.466639999981867e+000	 9.893336694271975e+000
0	 9.666656597019092e+000	 3.533309999982383e+000	 9.897710231414063e+000
0	 9.666656597019095e+000	 3.599979999983600e+000	 9.902011314046314e+000
0	 9.666656597019088e+000	 3.666649999985415e+000	 9.906240696273098e+000
0	 9.666656597019093e+000	 3.733319999987733e+000	 9.910399132198819e+000
0	 9.666656597019090e+000	 3.799989999990450e+000	 9.914487375927898e+000
0	 9.666656597019092e+000	 3.866659999993467e+000	 9.918506181564672e+000
0	 9.666656597019093e+000	 3.933329999996684e+000	 9.922456303213558e+000
0	 9.666656597019092e+000	 4.000000000000001e+000	 9.926338494978944e+000
0	 9.733326577638575e+000	 3.333299999983335e+000	 9.878531514106172e+000
0	 9.733326577638575e+000	 3.399969999982150e+000	 9.883256117959542e+000
0	 9.733326577638575e+000	 3.466639999981867e+000	 9.887902550405423e+000
0	 9.733326577638575e+000	 3.533309999982383e+000	 9.892471619668045e+000
0	 9.733326577638573e+000	 3.599979999983600e+000	 9.896964133971629e+000
0	 9.733326577638573e+000	 3.666649999985416e+000	 9.901380901540392e+000
0	 9.733326577638573e+000	 3.733319999987732e+000	 9.905722730598612e+000
0	 9.733326577638573e+000	 3.799989999990450e+000	 9.909990429370470e+000
0	 9.733326577638575e+000	 3.866659999993467e+000	 9.914184806080202e+000
0	 9.733326577638573e+000	 3.933329999996684e+000	 9.918306668952026e+000
0	 9.733326577638573e+000	 4.000000000000000e+000	 9.922356826210184e+000
0	 9.799996024918523e+000	 3.333299999983334e+000	 9.872799773433171e+000
0	 9.799996024918521e+000	 3.399969999982150e+000	 9.877737213914537e+000
0	 9.799996024918519e+000	 3.466639999981865e+000	 9.882591967657554e+000
0	 9.799996024918519e+000	 3.533309999982382e+000	 9.887364916411510e+000
0	 9.799996024918523e+000	 3.599979999983601e+000	 9.892056941925782e+000
0	 9.799996024918521e+000	 3.666649999985417e+000	 9.896668925949664e+000
0	 9.799996024918524e+000	 3.733319999987733e+000	 9.901201750232476e+000
0	 9.799996024918523e+000	 3.799989999990450e+000	 9.905656296523517e+000
0	 9.799996024918523e+000	 3.866659999993467e+000	 9.910033446572147e+000
0	 9.799996024918523e+000	 3.933329999996684e+000	 9.914334082127654e+000
0	 9.799996024918521e+000	 4.000000000000000e+000	 9.918559084939348e+000
0	 9.866664822186818e+000	 3.333299999983333e+000	 9.867181980162696e+000
0	 9.866664822186820e+000	 3.399969999982150e+000	 9.872341283766819e+000
0	 9.866664822186818e+000	 3.466639999981866e+000	 9.877413148370497e+000
0	 9.866664822186822e+000	 3.533309999982383e+000	 9.882398548654267e+000
0	 9.866664822186820e+000	 3.599979999983600e+000	 9.887298459298767e+000
0	 9.866664822186822e+000	 3.666649999985416e+000	 9.892113854984542e+000
0	 9.866664822186820e+000	 3.733319999987733e+000	 9.896845710392142e+000
0	 9.866664822186818e+000	 3.799989999990450e+000	 9.901495000202170e+000
0	 9.866664822186820e+000	 3.866659999993466e+000	 9.906062699095141e+000
0	 9.866664822186818e+000	 3.933329999996683e+000	 9.910549781751664e+000
0	 9.866664822186820e+000	 4.000000000000001e+000	 9.914957222852278e+000
0	 9.933332852771351e+000	 3.333299999983334e+000	 9.861686095956966e+000
0	 9.933332852771354e+000	 3.399969999982150e+000	 9.867076374383471e+000
0	 9.933332852771351e+000	 3.466639999981867e+000	 9.872374294327408e+000
0	 9.933332852771352e+000	 3.533309999982383e+000	 9.877580942807862e+000
0	 9.933332852771352e+000	 3.599979999983600e+000	 9.882697406843914e+000
0	 9.933332852771352e+000	 3.666649999985416e+000	 9.887724773454654e+000
0	 9.933332852771349e+000	 3.733319999987733e+000	 9.892664129659167e+000
0	 9.933332852771351e+000	 3.799989999990450e+000	 9.897516562476513e+000
0	 9.933332852771351e+000	 3.866659999993466e+000	 9.902283158925766e+000
0	 9.933332852771351e+000	 3.933329999996684e+000	 9.906965006026008e+000
0	 9.933332852771351e+000	 4.000000000000000e+000	 9.911563190796334e+000
0	 1.000000000000000e+001	 3.333299999983334e+000	 9.856320081999435e+000
0	 1.000000000000000e+001	 3.399969999982150e+000	 9.861950532112587e+000
0	 1.000000000000000e+001	 3.466639999981866e+000	 9.867483606752602e+000
0	 1.000000000000000e+001	 3.533309999982383e+000	 9.872920524685677e+000
0	 1.000000000000000e+001	 3.599979999983600e+000	 9.878262504677956e+000
0	 1.000000000000000e+001	 3.666649999985416e+000	 9.883510765495613e+000
0	 1.000000000000000e+001	 3.733319999987733e+000	 9.888666525904796e+000
0	 1.000000000000000e+001	 3.799989999990449e+000	 9.893731004671691e+000
0	 1.000000000000000e+001	 3.866659999993467e+000	 9.898705420562447e+000
0	 1.000000000000000e+001	 3.933329999996684e+000	 9.903590992343226e+000
0	 1.000000000000000e+001	 4.000000000000000e+000	 9.908388938780233e+000
0	 9.333302777352785e+000	 4.000000000000000e+000	 9.948587383582636e+000
0	 9.333302777352783e+000	 4.066670000003317e+000	 9.951640137338726e+000
0	 9.333302777352783e+000	 4.133340000006534e+000	 9.954610600440553e+000
0	 9.333302777352783e+000	 4.200010000009550e+000	 9.957499065548655e+000
0	 9.333302777352779e+000	 4.266680000012268e+000	 9.960305825323530e+000
0	 9.333302777352783e+000	 4.333350000014584e+000	 9.963031172425687e+000
0	 9.333302777352783e+000	 4.400020000016402e+000	 9.965675399515666e+000
0	 9.333302777352783e+000	 4.466690000017617e+000	 9.968238799253951e+000
0	 9.333302777352785e+000	 4.533360000018134e+000	 9.970721664301077e+000
0	 9.333302777352783e+000	 4.600030000017850e+000	 9.973124287317550e+000
0	 9.333302777352785e+000	 4.666700000016667e+000	 9.975446960963865e+000
0	 9.399973674588175e+000	 4.000000000000000e+000	 9.943865381964463e+000
0	 9.399973674588178e+000	 4.066670000003318e+000	 9.947060017728816e+000
0	 9.399973674588177e+000	 4.133340000006535e+000	 9.950169626895239e+000
0	 9.399973674588177e+000	 4.200010000009550e+000	 9.953194518726733e+000
0	 9.399973674588177e+000	 4.266680000012267e+000	 9.956135002486310e+000
0	 9.399973674588175e+000	 4.333350000014584e+000	 9.958991387436955e+000
0	 9.399973674588175e+000	 4.400020000016400e+000	 9.961763982841660e+000
0	 9.399973674588177e+000	 4.466690000017619e+000	 9.964453097963459e+000
0	 9.399973674588178e+000	 4.533360000018135e+000	 9.967059042065298e+000
0	 9.399973674588177e+000	 4.600030000017850e+000	 9.969582124410206e+000
0	 9.399973674588175e+000	 4.666700000016666e+000	 9.972022654261160e+000
0	 9.466644621844621e+000	 4.000000000000000e+000	 9.939267536835040e+000
0	 9.466644621844621e+000	 4.066670000003317e+000	 9.942607052328867e+000
0	 9.466644621844621e+000	 4.133340000006535e+000	 9.945858653706202e+000
0	 9.466644621844621e+000	 4.200010000009550e+000	 9.949022664520390e+000
0	 9.466644621844621e+000	 4.266680000012267e+000	 9.952099408324813e+000
0	 9.466644621844619e+000	 4.333350000014583e+000	 9.955089208672854e+000
0	 9.466644621844621e+000	 4.400020000016401e+000	 9.957992389117885e+000
0	 9.466644621844623e+000	 4.466690000017619e+000	 9.960809273213256e+000
0	 9.466644621844619e+000	 4.533360000018133e+000	 9.963540184512326e+000
0	 9.466644621844623e+000	 4.600030000017850e+000	 9.966185446568522e+000
0	 9.466644621844619e+000	 4.666700000016665e+000	 9.968745382935149e+000
0	 9.533315502450000e+000	 4.000000000000001e+000	 9.934805804073770e+000
0	 9.533315502450000e+000	 4.066670000003318e+000	 9.938293899402618e+000
0	 9.533315502450002e+000	 4.133340000006534e+000	 9.941690950941192e+000
0	 9.533315502449998e+000	 4.200010000009551e+000	 9.944997294221249e+000
0	 9.533315502449998e+000	 4.266680000012266e+000	 9.948213264774477e+000
0	 9.533315502449996e+000	 4.333350000014584e+000	 9.951339198132581e+000
0	 9.533315502450000e+000	 4.400020000016401e+000	 9.954375429827262e+000
0	 9.533315502450000e+000	 4.466690000017619e+000	 9.957322295390254e+000
0	 9.533315502450000e+000	 4.533360000018133e+000	 9.960180130353230e+000
0	 9.533315502449996e+000	 4.600030000017851e+000	 9.962949270247920e+000
0	 9.533315502450000e+000	 4.666700000016667e+000	 9.965630050605995e+000
0	 9.599986199732198e+000	 4.000000000000001e+000	 9.930492138721156e+000
0	 9.599986199732198e+000	 4.066670000003319e+000	 9.934133216347846e+000
0	 9.599986199732193e+000	 4.133340000006534e+000	 9.937679787777384e+000
0	 9.599986199732198e+000	 4.200010000009551e+000	 9.941132198207805e+000
0	 9.599986199732197e+000	 4.266680000012268e+000	 9.944490792837160e+000
0	 9.599986199732197e+000	 4.333350000014584e+000	 9.947755916863530e+000
0	 9.599986199732197e+000	 4.400020000016402e+000	 9.950927915484961e+000
0	 9.599986199732197e+000	 4.466690000017617e+000	 9.954007133899497e+000
0	 9.599986199732198e+000	 4.533360000018133e+000	 9.956993917305224e+000
0	 9.599986199732197e+000	 4.600030000017851e+000	 9.959888610900165e+000
0	 9.599986199732193e+000	 4.666700000016665e+000	 9.962691559882382e+000
0	 9.666656597019092e+000	 4.000000000000001e+000	 9.926338494978944e+000
0	 9.666656597019095e+000	 4.066670000003319e+000	 9.930137659696692e+000
0	 9.666656597019092e+000	 4.133340000006534e+000	 9.933838432501361e+000
0	 9.666656597019092e+000	 4.200010000009552e+000	 9.937441165945423e+000
0	 9.666656597019093e+000	 4.266680000012268e+000	 9.940946212581274e+000
0	 9.666656597019090e+000	 4.333350000014583e+000	 9.944353924961417e+000
0	 9.666656597019093e+000	 4.400020000016402e+000	 9.947664655638267e+000
0	 9.666656597019090e+000	 4.466690000017617e+000	 9.950878757164265e+000
0	 9.666656597019092e+000	 4.533360000018133e+000	 9.953996582091872e+000
0	 9.666656597019092e+000	 4.600030000017851e+000	 9.957018482973499e+000
0	 9.666656597019092e+000	 4.666700000016665e+000	 9.959944812361599e+000
0	 9.733326577638573e+000	 4.000000000000000e+000	 9.922356826210184e+000
0	 9.733326577638577e+000	 4.066670000003318e+000	 9.926319885115538e+000
0	 9.733326577638575e+000	 4.133340000006535e+000	 9.930180152509347e+000
0	 9.733326577638575e+000	 4.200010000009550e+000	 9.933937985986521e+000
0	 9.733326577638575e+000	 4.266680000012268e+000	 9.937593743141894e+000
0	 9.733326577638573e+000	 4.333350000014585e+000	 9.941147781570352e+000
0	 9.733326577638573e+000	 4.400020000016402e+000	 9.944600458866798e+000
0	 9.733326577638575e+000	 4.466690000017617e+000	 9.947952132626073e+000
0	 9.733326577638573e+000	 4.533360000018134e+000	 9.951203160443049e+000
0	 9.733326577638577e+000	 4.600030000017851e+000	 9.954353899912601e+000
0	 9.733326577638575e+000	 4.666700000016666e+000	 9.957404708629605e+000
0	 9.799996024918521e+000	 4.000000000000000e+000	 9.918559084939348e+000
0	 9.799996024918523e+000	 4.066670000003319e+000	 9.922692547405196e+000
0	 9.799996024918523e+000	 4.133340000006534e+000	 9.926718214307172e+000
0	 9.799996024918523e+000	 4.200010000009551e+000	 9.930636445970556e+000
0	 9.799996024918521e+000	 4.266680000012268e+000	 9.934447602720699e+000
0	 9.799996024918521e+000	 4.333350000014583e+000	 9.938152044882898e+000
0	 9.799996024918523e+000	 4.400020000016402e+000	 9.941750132782492e+000
0	 9.799996024918523e+000	 4.466690000017618e+000	 9.945242226744785e+000
0	 9.799996024918523e+000	 4.533360000018134e+000	 9.948628687095113e+000
0	 9.799996024918523e+000	 4.600030000017851e+000	 9.951909874158744e+000
0	 9.799996024918523e+000	 4.666700000016666e+000	 9.955086148261014e+000
0	 9.866664822186820e+000	 4.000000000000001e+000	 9.914957222852282e+000
0	 9.866664822186820e+000	 4.066670000003317e+000	 9.919268300500931e+000
0	 9.866664822186820e+000	 4.133340000006534e+000	 9.923465883510284e+000
0	 9.866664822186818e+000	 4.200010000009550e+000	 9.927550332624112e+000
0	 9.866664822186822e+000	 4.266680000012268e+000	 9.931522008586114e+000
0	 9.866664822186818e+000	 4.333350000014583e+000	 9.935381272140036e+000
0	 9.866664822186818e+000	 4.400020000016401e+000	 9.939128484029631e+000
0	 9.866664822186820e+000	 4.466690000017617e+000	 9.942764004998637e+000
0	 9.866664822186820e+000	 4.533360000018134e+000	 9.946288195790725e+000
0	 9.866664822186818e+000	 4.600030000017850e+000	 9.949701417149679e+000
0	 9.866664822186822e+000	 4.666700000016667e+000	 9.953004029819187e+000
0	 9.933332852771351e+000	 4.000000000000000e+000	 9.911563190796333e+000
0	 9.933332852771352e+000	 4.066670000003317e+000	 9.916059797472405e+000
0	 9.933332852771352e+000	 4.133340000006534e+000	 9.920436424843858e+000
0	 9.933332852771349e+000	 4.200010000009551e+000	 9.924693431760803e+000
0	 9.933332852771349e+000	 4.266680000012266e+000	 9.928831177073256e+000
0	 9.933332852771351e+000	 4.333350000014583e+000	 9.932850019631257e+000
0	 9.933332852771351e+000	 4.400020000016402e+000	 9.936750318284847e+000
0	 9.933332852771351e+000	 4.466690000017617e+000	 9.940532431884096e+000
0	 9.933332852771351e+000	 4.533360000018134e+000	 9.944196719279020e+000
0	 9.933332852771351e+000	 4.600030000017850e+000	 9.947743539319689e+000
0	 9.933332852771351e+000	 4.666700000016666e+000	 9.951173250856130e+000
0	 1.000000000000000e+001	 4.000000000000000e+000	 9.908388938780234e+000
0	 1.000000000000000e+001	 4.066670000003317e+000	 9.913079690523730e+000
0	 1.000000000000000e+001	 4.133340000006535e+000	 9.917643102142730e+000
0	 9.999999999999998e+000	 4.200010000009550e+000	 9.922079528281390e+000
0	 1.000000000000000e+001	 4.266680000012268e+000	 9.926389323583889e+000
0	 1.000000000000000e+001	 4.333350000014584e+000	 9.930572842694373e+000
0	 1.000000000000000e+001	 4.400020000016401e+000	 9.934630440257044e+000
0	 1.000000000000000e+001	 4.466690000017617e+000	 9.938562470916033e+000
0	 1.000000000000000e+001	 4.533360000018134e+000	 9.942369289315460e+000
0	 9.999999999999998e+000	 4.600030000017850e+000	 9.946051250099545e+000
0	 1.000000000000000e+001	 4.666700000016666e+000	 9.949608707912457e+000
0	 9.333302777352785e+000	 4.666700000016667e+000	 9.975446960963863e+000
0	 9.333302777352783e+000	 4.733360000014533e+000	 9.977687636864744e+000
0	 9.333302777352783e+000	 4.800020000011600e+000	 9.979844610212894e+000
0	 9.333302777352781e+000	 4.866680000008067e+000	 9.981917661813775e+000
0	 9.333302777352781e+000	 4.933340000004134e+000	 9.983906572472838e+000
0	 9.333302777352783e+000	 5.000000000000000e+000	 9.985811122995528e+000
0	 9.333302777352785e+000	 5.066659999995867e+000	 9.987631094187318e+000
0	 9.333302777352783e+000	 5.133319999991935e+000	 9.989366266853667e+000
0	 9.333302777352783e+000	 5.199979999988400e+000	 9.991016421800024e+000
0	 9.333302777352781e+000	 5.266639999985467e+000	 9.992581339831871e+000
0	 9.333302777352785e+000	 5.333299999983335e+000	 9.994060801754658e+000
0	 9.399973674588175e+000	 4.666700000016666e+000	 9.972022654261162e+000
0	 9.399973674588171e+000	 4.733360000014533e+000	 9.974378159900629e+000
0	 9.399973674588175e+000	 4.800020000011601e+000	 9.976646560085186e+000
0	 9.399973674588180e+000	 4.866680000008066e+000	 9.978827670132501e+000
0	 9.399973674588180e+000	 4.933340000004133e+000	 9.980921305360244e+000
0	 9.399973674588180e+000	 5.000000000000001e+000	 9.982927281086070e+000
0	 9.399973674588178e+000	 5.066659999995868e+000	 9.984845412627660e+000
0	 9.399973674588178e+000	 5.133319999991933e+000	 9.986675515302677e+000
0	 9.399973674588175e+000	 5.199979999988400e+000	 9.988417404428803e+000
0	 9.399973674588177e+000	 5.266639999985467e+000	 9.990070895323715e+000
0	 9.399973674588177e+000	 5.333299999983334e+000	 9.991635803305067e+000
0	 9.466644621844619e+000	 4.666700000016665e+000	 9.968745382935150e+000
0	 9.466644621844619e+000	 4.733360000014534e+000	 9.971217044676525e+000
0	 9.466644621844617e+000	 4.800020000011598e+000	 9.973597919177603e+000
0	 9.466644621844619e+000	 4.866680000008067e+000	 9.975887851707844e+000
0	 9.466644621844619e+000	 4.933340000004132e+000	 9.978086687536660e+000
0	 9.466644621844621e+000	 5.000000000000000e+000	 9.980194271933513e+000
0	 9.466644621844621e+000	 5.066659999995867e+000	 9.982210450167839e+000
0	 9.466644621844621e+000	 5.133319999991936e+000	 9.984135067509078e+000
0	 9.466644621844619e+000	 5.199979999988400e+000	 9.985967969226650e+000
0	 9.466644621844619e+000	 5.266639999985467e+000	 9.987709000590048e+000
0	 9.466644621844617e+000	 5.333299999983333e+000	 9.989358006868693e+000
0	 9.533315502450000e+000	 4.666700000016667e+000	 9.965630050605995e+000
0	 9.533315502449998e+000	 4.733360000014534e+000	 9.968219035069918e+000
0	 9.533315502450000e+000	 4.800020000011601e+000	 9.970713268342436e+000
0	 9.533315502450000e+000	 4.866680000008066e+000	 9.973112621084484e+000
0	 9.533315502449998e+000	 4.933340000004134e+000	 9.975416963956972e+000
0	 9.533315502449998e+000	 5.000000000000000e+000	 9.977626167620839e+000
0	 9.533315502449996e+000	 5.066659999995867e+000	 9.979740102737003e+000
0	 9.533315502450003e+000	 5.133319999991934e+000	 9.981758639966403e+000
0	 9.533315502450000e+000	 5.199979999988401e+000	 9.983681649969981e+000
0	 9.533315502450002e+000	 5.266639999985467e+000	 9.985509003408659e+000
0	 9.533315502450000e+000	 5.333299999983334e+000	 9.987240570943364e+000
0	 9.599986199732193e+000	 4.666700000016665e+000	 9.962691559882385e+000
0	 9.599986199732197e+000	 4.733360000014533e+000	 9.965398873941007e+000
0	 9.599986199732197e+000	 4.800020000011600e+000	 9.968007187410786e+000
0	 9.599986199732197e+000	 4.866680000008067e+000	 9.970516391783981e+000
0	 9.599986199732195e+000	 4.933340000004134e+000	 9.972926378552794e+000
0	 9.599986199732195e+000	 5.000000000000000e+000	 9.975237039209489e+000
0	 9.599986199732193e+000	 5.066659999995867e+000	 9.977448265246300e+000
0	 9.599986199732195e+000	 5.133319999991934e+000	 9.979559948155453e+000
0	 9.599986199732195e+000	 5.199979999988400e+000	 9.981571979429214e+000
0	 9.599986199732197e+000	 5.266639999985468e+000	 9.983484250559805e+000
0	 9.599986199732197e+000	 5.333299999983335e+000	 9.985296653039507e+000
0	 9.666656597019092e+000	 4.666700000016665e+000	 9.959944812361600e+000
0	 9.666656597019093e+000	 4.733360000014534e+000	 9.962771303132755e+000
0	 9.666656597019092e+000	 4.800020000011599e+000	 9.965494255192690e+000
0	 9.666656597019092e+000	 4.866680000008065e+000	 9.968113576304830e+000
0	 9.666656597019093e+000	 4.933340000004134e+000	 9.970629174232627e+000
0	 9.666656597019095e+000	 5.000000000000001e+000	 9.973040956739480e+000
0	 9.666656597019095e+000	 5.066659999995866e+000	 9.975348831588843e+000
0	 9.666656597019093e+000	 5.133319999991934e+000	 9.977552706544163e+000
0	 9.666656597019092e+000	 5.199979999988400e+000	 9.979652489368871e+000
0	 9.666656597019093e+000	 5.266639999985467e+000	 9.981648087826406e+000
0	 9.666656597019092e+000	 5.333299999983335e+000	 9.983539409680221e+000
0	 9.733326577638575e+000	 4.666700000016666e+000	 9.957404708629605e+000
0	 9.733326577638575e+000	 4.733360000014533e+000	 9.960351063470951e+000
0	 9.733326577638573e+000	 4.800020000011599e+000	 9.963189049477077e+000
0	 9.733326577638573e+000	 4.866680000008066e+000	 9.965918586122532e+000
0	 9.733326577638575e+000	 4.933340000004135e+000	 9.968539592881800e+000
0	 9.733326577638573e+000	 5.000000000000000e+000	 9.971051989229419e+000
0	 9.733326577638575e+000	 5.066659999995866e+000	 9.973455694639927e+000
0	 9.733326577638572e+000	 5.133319999991933e+000	 9.975750628587820e+000
0	 9.733326577638575e+000	 5.199979999988400e+000	 9.977936710547668e+000
0	 9.733326577638575e+000	 5.266639999985469e+000	 9.980013859993981e+000
0	 9.733326577638575e+000	 5.333299999983334e+000	 9.981981996401306e+000
0	 9.799996024918523e+000	 4.666700000016666e+000	 9.955086148261017e+000
0	 9.799996024918519e+000	 4.733360000014532e+000	 9.958152894764258e+000
0	 9.799996024918521e+000	 4.800020000011600e+000	 9.961106147031927e+000
0	 9.799996024918523e+000	 4.866680000008067e+000	 9.963945831689561e+000
0	 9.799996024918521e+000	 4.933340000004134e+000	 9.966671875362613e+000
0	 9.799996024918521e+000	 5.000000000000000e+000	 9.969284204676553e+000
0	 9.799996024918523e+000	 5.066659999995867e+000	 9.971782746256848e+000
0	 9.799996024918523e+000	 5.133319999991935e+000	 9.974167426728981e+000
0	 9.799996024918523e+000	 5.199979999988400e+000	 9.976438172718433e+000
0	 9.799996024918523e+000	 5.266639999985467e+000	 9.978594910850706e+000
0	 9.799996024918523e+000	 5.333299999983334e+000	 9.980637567751259e+000
0	 9.866664822186822e+000	 4.666700000016667e+000	 9.953004029819185e+000
0	 9.866664822186822e+000	 4.733360000014533e+000	 9.956191535804129e+000
0	 9.866664822186822e+000	 4.800020000011601e+000	 9.959260123604150e+000
0	 9.866664822186820e+000	 4.866680000008067e+000	 9.962209722435448e+000
0	 9.866664822186818e+000	 4.933340000004133e+000	 9.965040261514245e+000
0	 9.866664822186820e+000	 4.999999999999999e+000	 9.967751670056698e+000
0	 9.866664822186820e+000	 5.066659999995866e+000	 9.970343877279033e+000
0	 9.866664822186820e+000	 5.133319999991935e+000	 9.972816812397443e+000
0	 9.866664822186822e+000	 5.199979999988400e+000	 9.975170404628162e+000
0	 9.866664822186822e+000	 5.266639999985468e+000	 9.977404583187376e+000
0	 9.866664822186820e+000	 5.333299999983334e+000	 9.979519277291310e+000
0	 9.933332852771351e+000	 4.666700000016666e+000	 9.951173250856130e+000
0	 9.933332852771351e+000	 4.733360000014533e+000	 9.954481724364930e+000
0	 9.933332852771349e+000	 4.800020000011599e+000	 9.957665553919579e+000
0	 9.933332852771352e+000	 4.866680000008067e+000	 9.960724666766657e+000
0	 9.933332852771351e+000	 4.933340000004133e+000	 9.963658990152716e+000
0	 9.933332852771351e+000	 5.000000000000000e+000	 9.966468451324261e+000
0	 9.933332852771351e+000	 5.066659999995868e+000	 9.969152977527969e+000
0	 9.933332852771352e+000	 5.133319999991934e+000	 9.971712496010319e+000
0	 9.933332852771351e+000	 5.199979999988401e+000	 9.974146934017945e+000
0	 9.933332852771351e+000	 5.266639999985467e+000	 9.976456218797416e+000
0	 9.933332852771351e+000	 5.333299999983335e+000	 9.978640277595329e+000
0	 1.000000000000000e+001	 4.666700000016666e+000	 9.949608707912457e+000
0	 1.000000000000000e+001	 4.733360000014534e+000	 9.953038197203806e+000
0	 1.000000000000000e+001	 4.800020000011600e+000	 9.956337011683072e+000
0	 1.000000000000000e+001	 4.866680000008066e+000	 9.959505072066627e+000
0	 1.000000000000000e+001	 4.933340000004134e+000	 9.962542299070844e+000
0	 1.000000000000000e+001	 5.000000000000000e+000	 9.965448613412214e+000
0	 1.000000000000000e+001	 5.066659999995866e+000	 9.968223935807071e+000
0	 9.999999999999998e+000	 5.133319999991934e+000	 9.970868186971831e+000
0	 1.000000000000000e+001	 5.199979999988400e+000	 9.973381287622926e+000
0	 1.000000000000000e+001	 5.266639999985467e+000	 9.975763158476765e+000
0	 1.000000000000000e+001	 5.333299999983334e+000	 9.978013720249768e+000
0	 9.333302777352785e+000	 5.333299999983335e+000	 9.994060801754658e+000
0	 9.333302777352783e+000	 5.399969999982150e+000	 9.995460756067129e+000
0	 9.333302777352785e+000	 5.466639999981866e+000	 9.996786550078971e+000
0	 9.333302777352781e+000	 5.533309999982382e+000	 9.998037709374136e+000
0	 9.333302777352783e+000	 5.599979999983600e+000	 9.999213759536598e+000
0	 9.333302777352781e+000	 5.666649999985415e+000	 1.000031422615031e+001
0	 9.333302777352783e+000	 5.733319999987732e+000	 1.000133863479921e+001
0	 9.333302777352783e+000	 5.799989999990450e+000	 1.000228651106726e+001
0	 9.333302777352781e+000	 5.866659999993467e+000	 1.000315738053842e+001
0	 9.333302777352783e+000	 5.933329999996682e+000	 1.000395076879663e+001
0	 9.333302777352785e+000	 6.000000000000001e+000	 1.000466620142586e+001
0	 9.399973674588177e+000	 5.333299999983334e+000	 9.991635803305066e+000
0	 9.399973674588177e+000	 5.399969999982148e+000	 9.993118198091720e+000
0	 9.399973674588177e+000	 5.466639999981865e+000	 9.994523509098586e+000
0	 9.399973674588175e+000	 5.533309999982382e+000	 9.995851275505608e+000
0	 9.399973674588175e+000	 5.599979999983599e+000	 9.997101036492740e+000
0	 9.399973674588175e+000	 5.666649999985416e+000	 9.998272331239933e+000
0	 9.399973674588175e+000	 5.733319999987733e+000	 9.999364698927137e+000
0	 9.399973674588177e+000	 5.799989999990449e+000	 1.000037767873430e+001
0	 9.399973674588175e+000	 5.866659999993465e+000	 1.000131080984137e+001
0	 9.399973674588177e+000	 5.933329999996684e+000	 1.000216363142829e+001
0	 9.399973674588177e+000	 6.000000000000002e+000	 1.000293568267500e+001
0	 9.466644621844617e+000	 5.333299999983333e+000	 9.989358006868692e+000
0	 9.466644621844621e+000	 5.399969999982151e+000	 9.990921256779883e+000
0	 9.466644621844619e+000	 5.466639999981867e+000	 9.992404339392950e+000
0	 9.466644621844621e+000	 5.533309999982384e+000	 9.993806801901499e+000
0	 9.466644621844619e+000	 5.599979999983598e+000	 9.995128191499115e+000
0	 9.466644621844623e+000	 5.666649999985418e+000	 9.996368055379433e+000
0	 9.466644621844619e+000	 5.733319999987733e+000	 9.997525940736054e+000
0	 9.466644621844621e+000	 5.799989999990449e+000	 9.998601394762545e+000
0	 9.466644621844619e+000	 5.866659999993467e+000	 9.999593964652535e+000
0	 9.466644621844617e+000	 5.933329999996683e+000	 1.000050319759961e+001
0	 9.466644621844619e+000	 5.999999999999998e+000	 1.000132864079738e+001
0	 9.533315502450000e+000	 5.333299999983334e+000	 9.987240570943362e+000
0	 9.533315502449996e+000	 5.399969999982149e+000	 9.988882889228508e+000
0	 9.533315502449998e+000	 5.466639999981865e+000	 9.990441775754560e+000
0	 9.533315502450003e+000	 5.533309999982383e+000	 9.991916780146459e+000
0	 9.533315502450000e+000	 5.599979999983599e+000	 9.993307452029168e+000
0	 9.533315502449998e+000	 5.666649999985416e+000	 9.994613341027653e+000
0	 9.533315502449998e+000	 5.733319999987733e+000	 9.995833996766860e+000
0	 9.533315502450002e+000	 5.799989999990449e+000	 9.996968968871734e+000
0	 9.533315502450002e+000	 5.866659999993469e+000	 9.998017806967226e+000
0	 9.533315502449998e+000	 5.933329999996682e+000	 9.998980060678312e+000
0	 9.533315502450000e+000	 6.000000000000000e+000	 9.999855279629934e+000
0	 9.599986199732197e+000	 5.333299999983335e+000	 9.985296653039505e+000
0	 9.599986199732195e+000	 5.399969999982151e+000	 9.987016051558712e+000
0	 9.599986199732197e+000	 5.466639999981865e+000	 9.988648552013174e+000
0	 9.599986199732197e+000	 5.533309999982383e+000	 9.990193700876919e+000
0	 9.599986199732193e+000	 5.599979999983598e+000	 9.991651044623897e+000
0	 9.599986199732195e+000	 5.666649999985415e+000	 9.993020129728116e+000
0	 9.599986199732195e+000	 5.733319999987731e+000	 9.994300502663558e+000
0	 9.599986199732198e+000	 5.799989999990449e+000	 9.995491709904211e+000
0	 9.599986199732195e+000	 5.866659999993466e+000	 9.996593297924033e+000
0	 9.599986199732195e+000	 5.933329999996682e+000	 9.997604813197041e+000
0	 9.599986199732197e+000	 5.999999999999998e+000	 9.998525802197207e+000
0	 9.666656597019092e+000	 5.333299999983335e+000	 9.983539409680219e+000
0	 9.666656597019093e+000	 5.399969999982152e+000	 9.985333698915838e+000
0	 9.666656597019095e+000	 5.466639999981866e+000	 9.987037401035915e+000
0	 9.666656597019093e+000	 5.533309999982384e+000	 9.988650053781074e+000
0	 9.666656597019095e+000	 5.599979999983598e+000	 9.990171194891934e+000
0	 9.666656597019090e+000	 5.666649999985415e+000	 9.991600362109111e+000
0	 9.666656597019093e+000	 5.733319999987732e+000	 9.992937093173214e+000
0	 9.666656597019092e+000	 5.799989999990450e+000	 9.994180925824896e+000
0	 9.666656597019095e+000	 5.866659999993467e+000	 9.995331397804751e+000
0	 9.666656597019093e+000	 5.933329999996684e+000	 9.996388046853385e+000
0	 9.666656597019092e+000	 6.000000000000001e+000	 9.997350410711444e+000
0	 9.733326577638575e+000	 5.333299999983334e+000	 9.981981996401304e+000
0	 9.733326577638577e+000	 5.399969999982150e+000	 9.983848785469570e+000
0	 9.733326577638575e+000	 5.466639999981868e+000	 9.985621054727234e+000
0	 9.733326577638575e+000	 5.533309999982384e+000	 9.987298327598989e+000
0	 9.733326577638572e+000	 5.599979999983598e+000	 9.988880127509560e+000
0	 9.733326577638573e+000	 5.666649999985416e+000	 9.990365977883664e+000
0	 9.733326577638575e+000	 5.733319999987732e+000	 9.991755402146065e+000
0	 9.733326577638572e+000	 5.799989999990449e+000	 9.993047923721434e+000
0	 9.733326577638573e+000	 5.866659999993466e+000	 9.994243066034503e+000
0	 9.733326577638573e+000	 5.933329999996683e+000	 9.995340352510011e+000
0	 9.733326577638575e+000	 6.000000000000001e+000	 9.996339306572654e+000
0	 9.799996024918523e+000	 5.333299999983334e+000	 9.980637567751257e+000
0	 9.799996024918523e+000	 5.399969999982150e+000	 9.982574264413879e+000
0	 9.799996024918519e+000	 5.466639999981864e+000	 9.984412244028924e+000
0	 9.799996024918521e+000	 5.533309999982383e+000	 9.986151010122516e+000
0	 9.799996024918523e+000	 5.599979999983600e+000	 9.987790066220720e+000
0	 9.799996024918521e+000	 5.666649999985416e+000	 9.989328915849661e+000
0	 9.799996024918521e+000	 5.733319999987734e+000	 9.990767062535417e+000
0	 9.799996024918523e+000	 5.799989999990450e+000	 9.992104009804093e+000
0	 9.799996024918523e+000	 5.866659999993468e+000	 9.993339261181776e+000
0	 9.799996024918521e+000	 5.933329999996682e+000	 9.994472320194547e+000
0	 9.799996024918521e+000	 6.000000000000000e+000	 9.995502690368511e+000
0	 9.866664822186820e+000	 5.333299999983334e+000	 9.979519277291310e+000
0	 9.866664822186820e+000	 5.399969999982150e+000	 9.981523087966991e+000
0	 9.866664822186822e+000	 5.466639999981866e+000	 9.983423698920188e+000
0	 9.866664822186820e+000	 5.533309999982383e+000	 9.985220588195359e+000
0	 9.866664822186820e+000	 5.599979999983600e+000	 9.986913233837015e+000
0	 9.866664822186822e+000	 5.666649999985417e+000	 9.988501113889640e+000
0	 9.866664822186820e+000	 5.733319999987732e+000	 9.989983706397737e+000
0	 9.866664822186820e+000	 5.799989999990449e+000	 9.991360489405777e+000
0	 9.866664822186820e+000	 5.866659999993466e+000	 9.992630940958259e+000
0	 9.866664822186822e+000	 5.933329999996684e+000	 9.993794539099614e+000
0	 9.866664822186820e+000	 5.999999999999998e+000	 9.994850761874377e+000
0	 9.933332852771351e+000	 5.333299999983335e+000	 9.978640277595329e+000
0	 9.933332852771351e+000	 5.399969999982150e+000	 9.980708207371462e+000
0	 9.933332852771351e+000	 5.466639999981866e+000	 9.982668148417487e+000
0	 9.933332852771351e+000	 5.533309999982383e+000	 9.984519547713042e+000
0	 9.933332852771351e+000	 5.599979999983599e+000	 9.986261852237684e+000
0	 9.933332852771352e+000	 5.666649999985417e+000	 9.987894508971003e+000
0	 9.933332852771351e+000	 5.733319999987733e+000	 9.989416964892591e+000
0	 9.933332852771352e+000	 5.799989999990449e+000	 9.990828666982043e+000
0	 9.933332852771351e+000	 5.866659999993467e+000	 9.992129062218945e+000
0	 9.933332852771352e+000	 5.933329999996684e+000	 9.993317597582804e+000
0	 9.933332852771349e+000	 5.999999999999998e+000	 9.994393720053322e+000
0	 1.000000000000000e+001	 5.333299999983334e+000	 9.978013720249766e+000
0	 1.000000000000000e+001	 5.399969999982149e+000	 9.980142572893950e+000
0	 1.000000000000000e+001	 5.466639999981866e+000	 9.982158320574568e+000
0	 9.999999999999998e+000	 5.533309999982383e+000	 9.984060373622741e+000
0	 1.000000000000000e+001	 5.599979999983600e+000	 9.985848142369425e+000
0	 1.000000000000000e+001	 5.666649999985417e+000	 9.987521037145674e+000
0	 1.000000000000000e+001	 5.733319999987733e+000	 9.989078468282481e+000
0	 1.000000000000000e+001	 5.799989999990450e+000	 9.990519846110928e+000
0	 1.000000000000000e+001	 5.866659999993467e+000	 9.991844580961942e+000
0	 1.000000000000000e+001	 5.933329999996683e+000	 9.993052083166628e+000
0	 1.000000000000000e+001	 6.000000000000000e+000	 9.994141763055959e+000
0	 9.333302777352785e+000	 6.000000000000001e+000	 1.000466620142586e+001
0	 9.333302777352781e+000	 6.066670000003315e+000	 1.000531540319591e+001
0	 9.333302777352783e+000	 6.133340000006534e+000	 1.000590996811840e+001
0	 9.333302777352783e+000	 6.200010000009552e+000	 1.000644922563982e+001
0	 9.333302777352781e+000	 6.266680000012266e+000	 1.000693250520671e+001
0	 9.333302777352783e+000	 6.333350000014586e+000	 1.000735913626559e+001
0	 9.333302777352783e+000	 6.400020000016400e+000	 1.000772844826299e+001
0	 9.333302777352783e+000	 6.466690000017617e+000	 1.000803977064544e+001
0	 9.333302777352785e+000	 6.533360000018136e+000	 1.000829243285945e+001
0	 9.333302777352783e+000	 6.600030000017850e+000	 1.000848576435154e+001
0	 9.333302777352783e+000	 6.666700000016666e+000	 1.000861909456825e+001
0	 9.399973674588177e+000	 6.000000000000002e+000	 1.000293568267500e+001
0	 9.399973674588178e+000	 6.066670000003318e+000	 1.000363902061015e+001
0	 9.399973674588177e+000	 6.133340000006533e+000	 1.000428557075111e+001
0	 9.399973674588177e+000	 6.200010000009551e+000	 1.000487467501095e+001
0	 9.399973674588175e+000	 6.266680000012268e+000	 1.000540567530274e+001
0	 9.399973674588173e+000	 6.333350000014582e+000	 1.000587791353955e+001
0	 9.399973674588175e+000	 6.400020000016401e+000	 1.000629073163445e+001
0	 9.399973674588178e+000	 6.466690000017617e+000	 1.000664347150049e+001
0	 9.399973674588177e+000	 6.533360000018133e+000	 1.000693547505074e+001
0	 9.399973674588177e+000	 6.600030000017849e+000	 1.000716608419827e+001
0	 9.399973674588177e+000	 6.666700000016666e+000	 1.000733464085612e+001
0	 9.466644621844619e+000	 5.999999999999998e+000	 1.000132864079738e+001
0	 9.466644621844619e+000	 6.066670000003318e+000	 1.000208275729367e+001
0	 9.466644621844621e+000	 6.133340000006534e+000	 1.000277787759351e+001
0	 9.466644621844621e+000	 6.200010000009551e+000	 1.000341335007622e+001
0	 9.466644621844619e+000	 6.266680000012267e+000	 1.000398852312119e+001
0	 9.466644621844621e+000	 6.333350000014584e+000	 1.000450274510772e+001
0	 9.466644621844619e+000	 6.400020000016399e+000	 1.000495536441519e+001
0	 9.466644621844623e+000	 6.466690000017619e+000	 1.000534572942297e+001
0	 9.466644621844619e+000	 6.533360000018135e+000	 1.000567318851036e+001
0	 9.466644621844621e+000	 6.600030000017852e+000	 1.000593709005673e+001
0	 9.466644621844617e+000	 6.666700000016665e+000	 1.000613678244144e+001
0	 9.533315502450000e+000	 6.000000000000000e+000	 9.999855279629934e+000
0	 9.533315502449998e+000	 6.066670000003316e+000	 1.000065640996202e+001
0	 9.533315502450003e+000	 6.133340000006533e+000	 1.000139626396154e+001
0	 9.533315502449998e+000	 6.200010000009551e+000	 1.000207419047387e+001
0	 9.533315502450000e+000	 6.266680000012266e+000	 1.000268953834446e+001
0	 9.533315502449996e+000	 6.333350000014583e+000	 1.000324165641870e+001
0	 9.533315502450000e+000	 6.400020000016399e+000	 1.000372989354199e+001
0	 9.533315502450002e+000	 6.466690000017616e+000	 1.000415359855975e+001
0	 9.533315502450000e+000	 6.533360000018135e+000	 1.000451212031738e+001
0	 9.533315502449998e+000	 6.600030000017851e+000	 1.000480480766030e+001
0	 9.533315502449998e+000	 6.666700000016666e+000	 1.000503100943390e+001
0	 9.599986199732197e+000	 5.999999999999998e+000	 9.998525802197207e+000
0	 9.599986199732195e+000	 6.066670000003315e+000	 9.999369774541959e+000
0	 9.599986199732193e+000	 6.133340000006532e+000	 1.000015010440692e+001
0	 9.599986199732197e+000	 6.200010000009550e+000	 1.000086613510328e+001
0	 9.599986199732195e+000	 6.266680000012268e+000	 1.000151720994229e+001
0	 9.599986199732195e+000	 6.333350000014583e+000	 1.000210267223512e+001
0	 9.599986199732195e+000	 6.400020000016402e+000	 1.000262186529300e+001
0	 9.599986199732195e+000	 6.466690000017614e+000	 1.000307413242715e+001
0	 9.599986199732197e+000	 6.533360000018133e+000	 1.000345881694877e+001
0	 9.599986199732195e+000	 6.600030000017851e+000	 1.000377526216906e+001
0	 9.599986199732197e+000	 6.666700000016666e+000	 1.000402281139926e+001
0	 9.666656597019092e+000	 6.000000000000001e+000	 9.997350410711444e+000
0	 9.666656597019092e+000	 6.066670000003316e+000	 9.998232646171607e+000
0	 9.666656597019093e+000	 6.133340000006532e+000	 9.999048772717233e+000
0	 9.666656597019092e+000	 6.200010000009553e+000	 9.999798122125020e+000
0	 9.666656597019093e+000	 6.266680000012268e+000	 1.000048002617160e+001
0	 9.666656597019092e+000	 6.333350000014583e+000	 1.000109381663367e+001
0	 9.666656597019092e+000	 6.400020000016398e+000	 1.000163882528787e+001
0	 9.666656597019093e+000	 6.466690000017618e+000	 1.000211438391089e+001
0	 9.666656597019095e+000	 6.533360000018133e+000	 1.000251982427938e+001
0	 9.666656597019092e+000	 6.600030000017852e+000	 1.000285447816999e+001
0	 9.666656597019092e+000	 6.666700000016666e+000	 1.000311767735941e+001
0	 9.733326577638575e+000	 6.000000000000001e+000	 9.996339306572654e+000
0	 9.733326577638573e+000	 6.066670000003315e+000	 9.997254819200446e+000
0	 9.733326577638573e+000	 6.133340000006532e+000	 9.998101641915984e+000
0	 9.733326577638573e+000	 6.200010000009551e+000	 9.998879088960875e+000
0	 9.733326577638575e+000	 6.266680000012268e+000	 9.999586474576748e+000
0	 9.733326577638573e+000	 6.333350000014583e+000	 1.000022311300519e+001
0	 9.733326577638575e+000	 6.400020000016400e+000	 1.000078831848782e+001
0	 9.733326577638572e+000	 6.466690000017618e+000	 1.000128140526625e+001
0	 9.733326577638573e+000	 6.533360000018132e+000	 1.000170168758206e+001
0	 9.733326577638573e+000	 6.600030000017850e+000	 1.000204847967691e+001
0	 9.733326577638573e+000	 6.666700000016666e+000	 1.000232109579238e+001
0	 9.799996024918521e+000	 6.000000000000000e+000	 9.995502690368511e+000
0	 9.799996024918521e+000	 6.066670000003315e+000	 9.996446087189341e+000
0	 9.799996024918523e+000	 6.133340000006534e+000	 9.997318084262515e+000
0	 9.799996024918523e+000	 6.200010000009552e+000	 9.998117972293883e+000
0	 9.799996024918523e+000	 6.266680000012268e+000	 9.998845041989288e+000
0	 9.799996024918523e+000	 6.333350000014585e+000	 9.999498584054534e+000
0	 9.799996024918524e+000	 6.400020000016402e+000	 1.000007788919546e+001
0	 9.799996024918524e+000	 6.466690000017619e+000	 1.000058224811787e+001
0	 9.799996024918521e+000	 6.533360000018133e+000	 1.000101095152761e+001
0	 9.799996024918523e+000	 6.600030000017851e+000	 1.000136329013049e+001
0	 9.799996024918523e+000	 6.666700000016667e+000	 1.000163855463235e+001
0	 9.866664822186820e+000	 5.999999999999998e+000	 9.994850761874377e+000
0	 9.866664822186820e+000	 6.066670000003317e+000	 9.995816242910443e+000
0	 9.866664822186820e+000	 6.133340000006533e+000	 9.996707471252071e+000
0	 9.866664822186820e+000	 6.200010000009551e+000	 9.997523708068288e+000
0	 9.866664822186818e+000	 6.266680000012266e+000	 9.998264214528192e+000
0	 9.866664822186822e+000	 6.333350000014584e+000	 9.998928251800733e+000
0	 9.866664822186820e+000	 6.400020000016402e+000	 9.999515081054998e+000
0	 9.866664822186820e+000	 6.466690000017616e+000	 1.000002396345995e+001
0	 9.866664822186822e+000	 6.533360000018135e+000	 1.000045416018469e+001
0	 9.866664822186818e+000	 6.600030000017849e+000	 1.000080493239823e+001
0	 9.866664822186820e+000	 6.666700000016667e+000	 1.000107554126960e+001
0	 9.933332852771349e+000	 5.999999999999998e+000	 9.994393720053322e+000
0	 9.933332852771352e+000	 6.066670000003317e+000	 9.995375078347262e+000
0	 9.933332852771352e+000	 6.133340000006535e+000	 9.996279173615699e+000
0	 9.933332852771351e+000	 6.200010000009550e+000	 9.997105231489508e+000
0	 9.933332852771351e+000	 6.266680000012268e+000	 9.997852477599567e+000
0	 9.933332852771351e+000	 6.333350000014584e+000	 9.998520137576776e+000
0	 9.933332852771352e+000	 6.400020000016401e+000	 9.999107437051979e+000
0	 9.933332852771352e+000	 6.466690000017617e+000	 9.999613601656094e+000
0	 9.933332852771351e+000	 6.533360000018134e+000	 1.000003785701996e+001
0	 9.933332852771352e+000	 6.600030000017851e+000	 1.000037942877450e+001
0	 9.933332852771351e+000	 6.666700000016665e+000	 1.000063754255056e+001
0	 1.000000000000000e+001	 6.000000000000000e+000	 9.994141763055959e+000
0	 1.000000000000000e+001	 6.066670000003317e+000	 9.995132384694550e+000
0	 1.000000000000000e+001	 6.133340000006534e+000	 9.996042561320225e+000
0	 1.000000000000000e+001	 6.200010000009551e+000	 9.996871477024047e+000
0	 1.000000000000000e+001	 6.266680000012268e+000	 9.997618315896840e+000
0	 1.000000000000000e+001	 6.333350000014584e+000	 9.998282262029699e+000
0	 1.000000000000000e+001	 6.400020000016401e+000	 9.998862499513516e+000
0	 1.000000000000000e+001	 6.466690000017618e+000	 9.999358212439249e+000
0	 1.000000000000000e+001	 6.533360000018134e+000	 9.999768584897911e+000
0	 1.000000000000000e+001	 6.600030000017850e+000	 1.000009280098039e+001
0	 1.000000000000000e+001	 6.666700000016666e+000	 1.000033004477767e+001
0	 9.333302777352783e+000	 6.666700000016666e+000	 1.000861909456825e+001
0	 9.333302777352783e+000	 6.733360000014532e+000	 1.000870700733021e+001
0	 9.333302777352783e+000	 6.800020000011600e+000	 1.000876407164087e+001
0	 9.333302777352783e+000	 6.866680000008068e+000	 1.000878954832542e+001
0	 9.333302777352781e+000	 6.933340000004135e+000	 1.000878269820912e+001
0	 9.333302777352781e+000	 6.999999999999999e+000	 1.000874278211725e+001
0	 9.333302777352783e+000	 7.066659999995867e+000	 1.000866906087505e+001
0	 9.333302777352783e+000	 7.133319999991934e+000	 1.000856079530775e+001
0	 9.333302777352783e+000	 7.199979999988400e+000	 1.000841724624062e+001
0	 9.333302777352783e+000	 7.266639999985467e+000	 1.000823767449892e+001
0	 9.333302777352785e+000	 7.333299999983335e+000	 1.000802134090787e+001
0	 9.399973674588177e+000	 6.666700000016666e+000	 1.000733464085613e+001
0	 9.399973674588177e+000	 6.733360000014532e+000	 1.000745621166174e+001
0	 9.399973674588175e+000	 6.800020000011598e+000	 1.000754585778723e+001
0	 9.399973674588178e+000	 6.866680000008066e+000	 1.000760285116079e+001
0	 9.399973674588177e+000	 6.933340000004134e+000	 1.000762646371060e+001
0	 9.399973674588178e+000	 6.999999999999999e+000	 1.000761596736491e+001
0	 9.399973674588177e+000	 7.066659999995868e+000	 1.000757063405192e+001
0	 9.399973674588178e+000	 7.133319999991935e+000	 1.000748973569982e+001
0	 9.399973674588175e+000	 7.199979999988399e+000	 1.000737254423684e+001
0	 9.399973674588177e+000	 7.266639999985468e+000	 1.000721833159119e+001
0	 9.399973674588177e+000	 7.333299999983336e+000	 1.000702636969105e+001
0	 9.466644621844617e+000	 6.666700000016665e+000	 1.000613678244145e+001
0	 9.466644621844619e+000	 6.733360000014531e+000	 1.000628788308243e+001
0	 9.466644621844617e+000	 6.800020000011599e+000	 1.000640601170450e+001
0	 9.466644621844619e+000	 6.866680000008065e+000	 1.000649044483419e+001
0	 9.466644621844621e+000	 6.933340000004134e+000	 1.000654045899808e+001
0	 9.466644621844623e+000	 7.000000000000001e+000	 1.000655533072274e+001
0	 9.466644621844619e+000	 7.066659999995867e+000	 1.000653433653471e+001
0	 9.466644621844619e+000	 7.133319999991933e+000	 1.000647675296059e+001
0	 9.466644621844617e+000	 7.199979999988400e+000	 1.000638185652695e+001
0	 9.466644621844619e+000	 7.266639999985466e+000	 1.000624892376031e+001
0	 9.466644621844619e+000	 7.333299999983332e+000	 1.000607723118729e+001
0	 9.533315502449998e+000	 6.666700000016666e+000	 1.000503100943390e+001
0	 9.533315502450000e+000	 6.733360000014534e+000	 1.000520697125471e+001
0	 9.533315502449998e+000	 6.800020000011600e+000	 1.000534894707555e+001
0	 9.533315502449998e+000	 6.866680000008068e+000	 1.000545621151679e+001
0	 9.533315502450000e+000	 6.933340000004133e+000	 1.000552803919876e+001
0	 9.533315502450000e+000	 7.000000000000000e+000	 1.000556370474180e+001
0	 9.533315502449995e+000	 7.066659999995866e+000	 1.000556248276629e+001
0	 9.533315502450002e+000	 7.133319999991934e+000	 1.000552364789253e+001
0	 9.533315502450000e+000	 7.199979999988401e+000	 1.000544647474090e+001
0	 9.533315502449998e+000	 7.266639999985468e+000	 1.000533023793176e+001
0	 9.533315502450000e+000	 7.333299999983334e+000	 1.000517421208541e+001
0	 9.599986199732197e+000	 6.666700000016666e+000	 1.000402281139926e+001
0	 9.599986199732198e+000	 6.733360000014532e+000	 1.000421842532660e+001
0	 9.599986199732197e+000	 6.800020000011600e+000	 1.000437907709875e+001
0	 9.599986199732197e+000	 6.866680000008067e+000	 1.000450403292521e+001
0	 9.599986199732195e+000	 6.933340000004133e+000	 1.000459255901547e+001
0	 9.599986199732197e+000	 7.000000000000000e+000	 1.000464392157903e+001
0	 9.599986199732198e+000	 7.066659999995867e+000	 1.000465738682540e+001
0	 9.599986199732197e+000	 7.133319999991935e+000	 1.000463222096406e+001
0	 9.599986199732198e+000	 7.199979999988402e+000	 1.000456769020455e+001
0	 9.599986199732195e+000	 7.266639999985467e+000	 1.000446306075636e+001
0	 9.599986199732195e+000	 7.333299999983333e+000	 1.000431759882899e+001
0	 9.666656597019092e+000	 6.666700000016666e+000	 1.000311767735941e+001
0	 9.666656597019092e+000	 6.733360000014531e+000	 1.000332719393194e+001
0	 9.666656597019090e+000	 6.800020000011601e+000	 1.000350081448805e+001
0	 9.666656597019090e+000	 6.866680000008066e+000	 1.000363779032168e+001
0	 9.666656597019095e+000	 6.933340000004134e+000	 1.000373737272672e+001
0	 9.666656597019093e+000	 6.999999999999998e+000	 1.000379881299711e+001
0	 9.666656597019093e+000	 7.066659999995867e+000	 1.000382136242675e+001
0	 9.666656597019095e+000	 7.133319999991933e+000	 1.000380427230957e+001
0	 9.666656597019092e+000	 7.199979999988401e+000	 1.000374679393949e+001
0	 9.666656597019093e+000	 7.266639999985467e+000	 1.000364817861042e+001
0	 9.666656597019093e+000	 7.333299999983336e+000	 1.000350767761630e+001
0	 9.733326577638573e+000	 6.666700000016666e+000	 1.000232109579238e+001
0	 9.733326577638575e+000	 6.733360000014534e+000	 1.000253822519019e+001
0	 9.733326577638575e+000	 6.800020000011601e+000	 1.000271857147289e+001
0	 9.733326577638570e+000	 6.866680000008064e+000	 1.000286136451392e+001
0	 9.733326577638573e+000	 6.933340000004133e+000	 1.000296583418667e+001
0	 9.733326577638573e+000	 6.999999999999998e+000	 1.000303121036456e+001
0	 9.733326577638573e+000	 7.066659999995866e+000	 1.000305672292101e+001
0	 9.733326577638573e+000	 7.133319999991934e+000	 1.000304160172940e+001
0	 9.733326577638573e+000	 7.199979999988399e+000	 1.000298507666316e+001
0	 9.733326577638577e+000	 7.266639999985469e+000	 1.000288637759570e+001
0	 9.733326577638575e+000	 7.333299999983334e+000	 1.000274473440045e+001
0	 9.799996024918523e+000	 6.666700000016667e+000	 1.000163855463235e+001
0	 9.799996024918523e+000	 6.733360000014534e+000	 1.000185646670660e+001
0	 9.799996024918523e+000	 6.800020000011600e+000	 1.000203675979834e+001
0	 9.799996024918523e+000	 6.866680000008066e+000	 1.000217863585528e+001
0	 9.799996024918523e+000	 6.933340000004132e+000	 1.000228129682519e+001
0	 9.799996024918523e+000	 7.000000000000001e+000	 1.000234394465577e+001
0	 9.799996024918523e+000	 7.066659999995867e+000	 1.000236578129475e+001
0	 9.799996024918523e+000	 7.133319999991935e+000	 1.000234600868987e+001
0	 9.799996024918521e+000	 7.199979999988400e+000	 1.000228382878883e+001
0	 9.799996024918523e+000	 7.266639999985467e+000	 1.000217844353939e+001
0	 9.799996024918523e+000	 7.333299999983336e+000	 1.000202905488927e+001
0	 9.866664822186820e+000	 6.666700000016667e+000	 1.000107554126960e+001
0	 9.866664822186822e+000	 6.733360000014534e+000	 1.000128686557213e+001
0	 9.866664822186818e+000	 6.800020000011598e+000	 1.000145979072496e+001
0	 9.866664822186818e+000	 6.866680000008067e+000	 1.000159348424468e+001
0	 9.866664822186820e+000	 6.933340000004133e+000	 1.000168711364782e+001
0	 9.866664822186822e+000	 7.000000000000000e+000	 1.000173984645092e+001
0	 9.866664822186818e+000	 7.066659999995866e+000	 1.000175085017056e+001
0	 9.866664822186818e+000	 7.133319999991934e+000	 1.000171929232329e+001
0	 9.866664822186820e+000	 7.199979999988400e+000	 1.000164434042564e+001
0	 9.866664822186818e+000	 7.266639999985466e+000	 1.000152516199417e+001
0	 9.866664822186820e+000	 7.333299999983333e+000	 1.000136092454543e+001
0	 9.933332852771351e+000	 6.666700000016665e+000	 1.000063754255056e+001
0	 9.933332852771351e+000	 6.733360000014533e+000	 1.000083436836342e+001
0	 9.933332852771349e+000	 6.800020000011599e+000	 1.000099207502893e+001
0	 9.933332852771351e+000	 6.866680000008066e+000	 1.000110978912655e+001
0	 9.933332852771351e+000	 6.933340000004132e+000	 1.000118663723576e+001
0	 9.933332852771351e+000	 6.999999999999998e+000	 1.000122174593605e+001
0	 9.933332852771351e+000	 7.066659999995867e+000	 1.000121424180696e+001
0	 9.933332852771351e+000	 7.133319999991935e+000	 1.000116325142796e+001
0	 9.933332852771352e+000	 7.199979999988401e+000	 1.000106790137849e+001
0	 9.933332852771352e+000	 7.266639999985467e+000	 1.000092731823810e+001
0	 9.933332852771352e+000	 7.333299999983335e+000	 1.000074062858634e+001
0	 1.000000000000000e+001	 6.666700000016666e+000	 1.000033004477767e+001
0	 1.000000000000000e+001	 6.733360000014533e+000	 1.000050392114284e+001
0	 1.000000000000000e+001	 6.800020000011600e+000	 1.000063802300187e+001
0	 9.999999999999998e+000	 6.866680000008066e+000	 1.000073142949083e+001
0	 1.000000000000000e+001	 6.933340000004133e+000	 1.000078321974583e+001
0	 1.000000000000000e+001	 7.000000000000000e+000	 1.000079247290296e+001
0	 9.999999999999998e+000	 7.066659999995865e+000	 1.000075826809836e+001
0	 9.999999999999998e+000	 7.133319999991934e+000	 1.000067968446806e+001
0	 1.000000000000000e+001	 7.199979999988400e+000	 1.000055580114819e+001
0	 1.000000000000000e+001	 7.266639999985467e+000	 1.000038569727489e+001
0	 1.000000000000000e+001	 7.333299999983335e+000	 1.000016845198416e+001
0	 9.333302777352785e+000	 7.333299999983335e+000	 1.000802134090787e+001
0	 9.333302777352781e+000	 7.399969999982150e+000	 1.000778285167966e+001
0	 9.333302777352783e+000	 7.466639999981866e+000	 1.000753689092087e+001
0	 9.333302777352783e+000	 7.533309999982383e+000	 1.000728273055534e+001
0	 9.333302777352785e+000	 7.599979999983600e+000	 1.000701964250698e+001
0	 9.333302777352783e+000	 7.666649999985418e+000	 1.000674689869965e+001
0	 9.333302777352783e+000	 7.733319999987732e+000	 1.000646377105724e+001
0	 9.333302777352783e+000	 7.799989999990449e+000	 1.000616953150363e+001
0	 9.333302777352781e+000	 7.866659999993466e+000	 1.000586345196266e+001
0	 9.333302777352781e+000	 7.933329999996683e+000	 1.000554480435827e+001
0	 9.333302777352783e+000	 8.000000000000000e+000	 1.000521286061426e+001
0	 9.399973674588177e+000	 7.333299999983336e+000	 1.000702636969105e+001
0	 9.399973674588177e+000	 7.399969999982148e+000	 1.000681177190282e+001
0	 9.399973674588177e+000	 7.466639999981865e+000	 1.000658972924182e+001
0	 9.399973674588177e+000	 7.533309999982385e+000	 1.000635953511467e+001
0	 9.399973674588175e+000	 7.599979999983599e+000	 1.000612048292793e+001
0	 9.399973674588175e+000	 7.666649999985417e+000	 1.000587186608821e+001
0	 9.399973674588175e+000	 7.733319999987731e+000	 1.000561297800208e+001
0	 9.399973674588177e+000	 7.799989999990449e+000	 1.000534311207612e+001
0	 9.399973674588173e+000	 7.866659999993465e+000	 1.000506156171694e+001
0	 9.399973674588178e+000	 7.933329999996685e+000	 1.000476762033111e+001
0	 9.399973674588175e+000	 8.000000000000000e+000	 1.000446058132520e+001
0	 9.466644621844619e+000	 7.333299999983332e+000	 1.000607723118729e+001
0	 9.466644621844623e+000	 7.399969999982151e+000	 1.000588248535944e+001
0	 9.466644621844619e+000	 7.466639999981865e+000	 1.000568047070608e+001
0	 9.466644621844624e+000	 7.533309999982385e+000	 1.000547049447079e+001
0	 9.466644621844619e+000	 7.599979999983599e+000	 1.000525186389705e+001
0	 9.466644621844619e+000	 7.666649999985416e+000	 1.000502388622842e+001
0	 9.466644621844619e+000	 7.733319999987729e+000	 1.000478586870841e+001
0	 9.466644621844621e+000	 7.799989999990450e+000	 1.000453711858056e+001
0	 9.466644621844619e+000	 7.866659999993466e+000	 1.000427694308840e+001
0	 9.466644621844617e+000	 7.933329999996682e+000	 1.000400464947546e+001
0	 9.466644621844623e+000	 8.000000000000000e+000	 1.000371954498525e+001
0	 9.533315502450000e+000	 7.333299999983334e+000	 1.000517421208541e+001
0	 9.533315502449995e+000	 7.399969999982148e+000	 1.000499478110366e+001
0	 9.533315502449998e+000	 7.466639999981865e+000	 1.000480840761845e+001
0	 9.533315502450000e+000	 7.533309999982383e+000	 1.000461440506457e+001
0	 9.533315502450002e+000	 7.599979999983598e+000	 1.000441208687680e+001
0	 9.533315502450000e+000	 7.666649999985416e+000	 1.000420076648990e+001
0	 9.533315502449998e+000	 7.733319999987731e+000	 1.000397975733864e+001
0	 9.533315502449998e+000	 7.799989999990450e+000	 1.000374837285783e+001
0	 9.533315502450000e+000	 7.866659999993467e+000	 1.000350592648222e+001
0	 9.533315502449998e+000	 7.933329999996683e+000	 1.000325173164656e+001
0	 9.533315502450000e+000	 8.000000000000000e+000	 1.000298510178570e+001
0	 9.599986199732195e+000	 7.333299999983333e+000	 1.000431759882899e+001
0	 9.599986199732195e+000	 7.399969999982148e+000	 1.000414844797331e+001
0	 9.599986199732195e+000	 7.466639999981865e+000	 1.000397283209589e+001
0	 9.599986199732198e+000	 7.533309999982382e+000	 1.000379006317705e+001
0	 9.599986199732193e+000	 7.599979999983598e+000	 1.000359945319713e+001
0	 9.599986199732195e+000	 7.666649999985415e+000	 1.000340031413639e+001
0	 9.599986199732195e+000	 7.733319999987733e+000	 1.000319195797520e+001
0	 9.599986199732198e+000	 7.799989999990449e+000	 1.000297369669386e+001
0	 9.599986199732195e+000	 7.866659999993467e+000	 1.000274484227269e+001
0	 9.599986199732197e+000	 7.933329999996682e+000	 1.000250470669201e+001
0	 9.599986199732198e+000	 8.000000000000000e+000	 1.000225260193211e+001
0	 9.666656597019093e+000	 7.333299999983336e+000	 1.000350767761630e+001
0	 9.666656597019092e+000	 7.399969999982150e+000	 1.000334327458988e+001
0	 9.666656597019093e+000	 7.466639999981865e+000	 1.000317303606756e+001
0	 9.666656597019092e+000	 7.533309999982384e+000	 1.000299626492940e+001
0	 9.666656597019095e+000	 7.599979999983599e+000	 1.000281226405549e+001
0	 9.666656597019088e+000	 7.666649999985415e+000	 1.000262033632586e+001
0	 9.666656597019092e+000	 7.733319999987733e+000	 1.000241978462057e+001
0	 9.666656597019093e+000	 7.799989999990451e+000	 1.000220991181971e+001
0	 9.666656597019095e+000	 7.866659999993466e+000	 1.000199002080334e+001
0	 9.666656597019093e+000	 7.933329999996684e+000	 1.000175941445151e+001
0	 9.666656597019092e+000	 8.000000000000002e+000	 1.000151739564428e+001
0	 9.733326577638575e+000	 7.333299999983334e+000	 1.000274473440045e+001
0	 9.733326577638573e+000	 7.399969999982149e+000	 1.000257904935860e+001
0	 9.733326577638573e+000	 7.466639999981865e+000	 1.000240831127485e+001
0	 9.733326577638573e+000	 7.533309999982383e+000	 1.000223180628299e+001
0	 9.733326577638573e+000	 7.599979999983600e+000	 1.000204882051690e+001
0	 9.733326577638573e+000	 7.666649999985415e+000	 1.000185864011040e+001
0	 9.733326577638573e+000	 7.733319999987731e+000	 1.000166055119734e+001
0	 9.733326577638572e+000	 7.799989999990449e+000	 1.000145383991155e+001
0	 9.733326577638573e+000	 7.866659999993466e+000	 1.000123779238689e+001
0	 9.733326577638575e+000	 7.933329999996683e+000	 1.000101169475718e+001
0	 9.733326577638573e+000	 8.000000000000000e+000	 1.000077483315626e+001
0	 9.799996024918523e+000	 7.333299999983336e+000	 1.000202905488927e+001
0	 9.799996024918523e+000	 7.399969999982151e+000	 1.000185556046843e+001
0	 9.799996024918521e+000	 7.466639999981865e+000	 1.000167794927133e+001
0	 9.799996024918524e+000	 7.533309999982384e+000	 1.000149548303933e+001
0	 9.799996024918523e+000	 7.599979999983601e+000	 1.000130742351388e+001
0	 9.799996024918521e+000	 7.666649999985417e+000	 1.000111303243634e+001
0	 9.799996024918521e+000	 7.733319999987733e+000	 1.000091157154813e+001
0	 9.799996024918524e+000	 7.799989999990450e+000	 1.000070230259063e+001
0	 9.799996024918523e+000	 7.866659999993467e+000	 1.000048448730523e+001
0	 9.799996024918523e+000	 7.933329999996683e+000	 1.000025738743338e+001
0	 9.799996024918521e+000	 8.000000000000002e+000	 1.000002026471642e+001
0	 9.866664822186820e+000	 7.333299999983333e+000	 1.000136092454543e+001
0	 9.866664822186818e+000	 7.399969999982149e+000	 1.000117259589206e+001
0	 9.866664822186822e+000	 7.466639999981867e+000	 1.000098124142287e+001
0	 9.866664822186818e+000	 7.533309999982384e+000	 1.000078609084021e+001
0	 9.866664822186820e+000	 7.599979999983600e+000	 1.000058637384652e+001
0	 9.866664822186820e+000	 7.666649999985417e+000	 1.000038132014424e+001
0	 9.866664822186820e+000	 7.733319999987733e+000	 1.000017015943568e+001
0	 9.866664822186820e+000	 7.799989999990449e+000	 9.999952121423350e+000
0	 9.866664822186818e+000	 7.866659999993466e+000	 9.999726435809562e+000
0	 9.866664822186820e+000	 7.933329999996683e+000	 9.999492332296807e+000
0	 9.866664822186820e+000	 8.000000000000000e+000	 9.999249040587403e+000
0	 9.933332852771352e+000	 7.333299999983335e+000	 1.000074062858634e+001
0	 9.933332852771352e+000	 7.399969999982150e+000	 1.000052994338593e+001
0	 9.933332852771351e+000	 7.466639999981866e+000	 1.000031747890750e+001
0	 9.933332852771352e+000	 7.533309999982384e+000	 1.000010242516755e+001
0	 9.933332852771352e+000	 7.599979999983600e+000	 9.999883972182477e+000
0	 9.933332852771352e+000	 7.666649999985416e+000	 9.999661309968776e+000
0	 9.933332852771349e+000	 7.733319999987732e+000	 9.999433628542857e+000
0	 9.933332852771351e+000	 7.799989999990449e+000	 9.999200117921221e+000
0	 9.933332852771351e+000	 7.866659999993466e+000	 9.998959968120236e+000
0	 9.933332852771352e+000	 7.933329999996684e+000	 9.998712369156436e+000
0	 9.933332852771352e+000	 8.000000000000000e+000	 9.998456511046207e+000
0	 1.000000000000000e+001	 7.333299999983335e+000	 1.000016845198416e+001
0	 1.000000000000000e+001	 7.399969999982150e+000	 9.999927390490136e+000
0	 1.000000000000000e+001	 7.466639999981865e+000	 9.999685952715552e+000
0	 1.000000000000000e+001	 7.533309999982385e+000	 9.999443281343483e+000
0	 1.000000000000000e+001	 7.599979999983599e+000	 9.999198519056943e+000
0	 1.000000000000000e+001	 7.666649999985417e+000	 9.998950808538968e+000
0	 1.000000000000000e+001	 7.733319999987733e+000	 9.998699292472601e+000
0	 1.000000000000000e+001	 7.799989999990449e+000	 9.998443113540889e+000
0	 1.000000000000000e+001	 7.866659999993465e+000	 9.998181414426892e+000
0	 1.000000000000000e+001	 7.933329999996683e+000	 9.997913337813612e+000
0	 1.000000000000000e+001	 8.000000000000000e+000	 9.997638026384118e+000
0	 9.333302777352783e+000	 8.000000000000000e+000	 1.000521286061426e+001
0	 9.333302777352783e+000	 8.066670000003319e+000	 1.000487900607074e+001
0	 9.333302777352783e+000	 8.133340000006532e+000	 1.000455468640624e+001
0	 9.333302777352783e+000	 8.200010000009552e+000	 1.000423926405249e+001
0	 9.333302777352783e+000	 8.266680000012267e+000	 1.000393210144120e+001
0	 9.333302777352783e+000	 8.333350000014585e+000	 1.000363256100409e+001
0	 9.333302777352785e+000	 8.400020000016403e+000	 1.000334000517287e+001
0	 9.333302777352785e+000	 8.466690000017618e+000	 1.000305379637925e+001
0	 9.333302777352783e+000	 8.533360000018135e+000	 1.000277329705494e+001
0	 9.333302777352783e+000	 8.600030000017849e+000	 1.000249786963165e+001
0	 9.333302777352783e+000	 8.666700000016666e+000	 1.000222687654109e+001
0	 9.399973674588175e+000	 8.000000000000000e+000	 1.000446058132520e+001
0	 9.399973674588177e+000	 8.066670000003319e+000	 1.000415189133373e+001
0	 9.399973674588177e+000	 8.133340000006538e+000	 1.000385308980484e+001
0	 9.399973674588178e+000	 8.200010000009552e+000	 1.000356360936565e+001
0	 9.399973674588175e+000	 8.266680000012267e+000	 1.000328288264324e+001
0	 9.399973674588173e+000	 8.333350000014583e+000	 1.000301034226472e+001
0	 9.399973674588175e+000	 8.400020000016399e+000	 1.000274542085717e+001
0	 9.399973674588177e+000	 8.466690000017618e+000	 1.000248755104769e+001
0	 9.399973674588178e+000	 8.533360000018137e+000	 1.000223616546340e+001
0	 9.399973674588175e+000	 8.600030000017849e+000	 1.000199069673135e+001
0	 9.399973674588177e+000	 8.666700000016668e+000	 1.000175057747868e+001
0	 9.466644621844623e+000	 8.000000000000000e+000	 1.000371954498525e+001
0	 9.466644621844619e+000	 8.066670000003317e+000	 1.000343321294777e+001
0	 9.466644621844621e+000	 8.133340000006532e+000	 1.000315735976889e+001
0	 9.466644621844623e+000	 8.200010000009552e+000	 1.000289147730601e+001
0	 9.466644621844619e+000	 8.266680000012267e+000	 1.000263505741653e+001
0	 9.466644621844621e+000	 8.333350000014585e+000	 1.000238759195785e+001
0	 9.466644621844621e+000	 8.400020000016399e+000	 1.000214857278733e+001
0	 9.466644621844623e+000	 8.466690000017621e+000	 1.000191749176238e+001
0	 9.466644621844619e+000	 8.533360000018133e+000	 1.000169384074038e+001
0	 9.466644621844621e+000	 8.600030000017851e+000	 1.000147711157872e+001
0	 9.466644621844619e+000	 8.666700000016665e+000	 1.000126679613481e+001
0	 9.533315502450000e+000	 8.000000000000000e+000	 1.000298510178570e+001
0	 9.533315502450000e+000	 8.066670000003319e+000	 1.000271786103256e+001
0	 9.533315502450000e+000	 8.133340000006532e+000	 1.000246198464551e+001
0	 9.533315502450000e+000	 8.200010000009550e+000	 1.000221701274747e+001
0	 9.533315502450002e+000	 8.266680000012268e+000	 1.000198248546135e+001
0	 9.533315502449996e+000	 8.333350000014583e+000	 1.000175794291004e+001
0	 9.533315502450000e+000	 8.400020000016399e+000	 1.000154292521645e+001
0	 9.533315502450000e+000	 8.466690000017618e+000	 1.000133697250349e+001
0	 9.533315502450000e+000	 8.533360000018135e+000	 1.000113962489404e+001
0	 9.533315502449998e+000	 8.600030000017849e+000	 1.000095042251103e+001
0	 9.533315502450000e+000	 8.666700000016666e+000	 1.000076890547734e+001
0	 9.599986199732198e+000	 8.000000000000000e+000	 1.000225260193211e+001
0	 9.599986199732197e+000	 8.066670000003315e+000	 1.000200072574286e+001
0	 9.599986199732193e+000	 8.133340000006532e+000	 1.000176145283643e+001
0	 9.599986199732197e+000	 8.200010000009549e+000	 1.000153436063659e+001
0	 9.599986199732197e+000	 8.266680000012270e+000	 1.000131902656723e+001
0	 9.599986199732195e+000	 8.333350000014583e+000	 1.000111502805211e+001
0	 9.599986199732195e+000	 8.400020000016399e+000	 1.000092194251510e+001
0	 9.599986199732200e+000	 8.466690000017618e+000	 1.000073934738004e+001
0	 9.599986199732197e+000	 8.533360000018133e+000	 1.000056682007069e+001
0	 9.599986199732195e+000	 8.600030000017851e+000	 1.000040393801095e+001
0	 9.599986199732197e+000	 8.666700000016666e+000	 1.000025027862459e+001
0	 9.666656597019092e+000	 8.000000000000002e+000	 1.000151739564428e+001
0	 9.666656597019093e+000	 8.066670000003317e+000	 1.000127669726853e+001
0	 9.666656597019092e+000	 8.133340000006532e+000	 1.000105025279789e+001
0	 9.666656597019092e+000	 8.200010000009550e+000	 1.000083766599263e+001
0	 9.666656597019092e+000	 8.266680000012268e+000	 1.000063854061297e+001
0	 9.666656597019095e+000	 8.333350000014587e+000	 1.000045248041911e+001
0	 9.666656597019093e+000	 8.400020000016399e+000	 1.000027908917133e+001
0	 9.666656597019092e+000	 8.466690000017614e+000	 1.000011797062982e+001
0	 9.666656597019093e+000	 8.533360000018135e+000	 9.999968728554846e+000
0	 9.666656597019090e+000	 8.600030000017849e+000	 9.999830966706618e+000
0	 9.666656597019093e+000	 8.666700000016666e+000	 9.999704288845411e+000
0	 9.733326577638573e+000	 8.000000000000000e+000	 1.000077483315626e+001
0	 9.733326577638575e+000	 8.066670000003320e+000	 1.000054066583445e+001
0	 9.733326577638573e+000	 8.133340000006532e+000	 1.000032287304086e+001
0	 9.733326577638573e+000	 8.200010000009552e+000	 1.000012107390760e+001
0	 9.733326577638575e+000	 8.266680000012270e+000	 9.999934887566738e+000
0	 9.733326577638575e+000	 8.333350000014583e+000	 9.999763933150373e+000
0	 9.733326577638573e+000	 8.400020000016403e+000	 9.999607829790595e+000
0	 9.733326577638575e+000	 8.466690000017620e+000	 9.999466196619498e+000
0	 9.733326577638573e+000	 8.533360000018135e+000	 9.999338652769144e+000
0	 9.733326577638573e+000	 8.600030000017851e+000	 9.999224817371648e+000
0	 9.733326577638575e+000	 8.666700000016668e+000	 9.999124309559091e+000
0	 9.799996024918521e+000	 8.000000000000002e+000	 1.000002026471642e+001
0	 9.799996024918523e+000	 8.066670000003319e+000	 9.999787521700611e+000
0	 9.799996024918523e+000	 8.133340000006532e+000	 9.999573802130797e+000
0	 9.799996024918523e+000	 8.200010000009552e+000	 9.999378729546159e+000
0	 9.799996024918523e+000	 8.266680000012268e+000	 9.999201927485999e+000
0	 9.799996024918524e+000	 8.333350000014585e+000	 9.999043019489481e+000
0	 9.799996024918524e+000	 8.400020000016403e+000	 9.998901629095919e+000
0	 9.799996024918524e+000	 8.466690000017616e+000	 9.998777379844485e+000
0	 9.799996024918521e+000	 8.533360000018133e+000	 9.998669895274452e+000
0	 9.799996024918521e+000	 8.600030000017851e+000	 9.998578798925049e+000
0	 9.799996024918521e+000	 8.666700000016666e+000	 9.998503714335516e+000
0	 9.866664822186820e+000	 8.000000000000000e+000	 9.999249040587403e+000
0	 9.866664822186818e+000	 8.066670000003315e+000	 9.999012155162188e+000
0	 9.866664822186820e+000	 8.133340000006532e+000	 9.998797528687838e+000
0	 9.866664822186818e+000	 8.200010000009552e+000	 9.998604778145831e+000
0	 9.866664822186820e+000	 8.266680000012270e+000	 9.998433520517542e+000
0	 9.866664822186820e+000	 8.333350000014583e+000	 9.998283372784364e+000
0	 9.866664822186818e+000	 8.400020000016401e+000	 9.998153951927780e+000
0	 9.866664822186818e+000	 8.466690000017616e+000	 9.998044874929111e+000
0	 9.866664822186822e+000	 8.533360000018133e+000	 9.997955758769853e+000
0	 9.866664822186820e+000	 8.600030000017849e+000	 9.997886220431340e+000
0	 9.866664822186818e+000	 8.666700000016666e+000	 9.997835876895021e+000
0	 9.933332852771352e+000	 8.000000000000000e+000	 9.998456511046207e+000
0	 9.933332852771351e+000	 8.066670000003317e+000	 9.998209456549352e+000
0	 9.933332852771351e+000	 8.133340000006532e+000	 9.997988541386777e+000
0	 9.933332852771351e+000	 8.200010000009550e+000	 9.997793365016786e+000
0	 9.933332852771352e+000	 8.266680000012267e+000	 9.997623526897547e+000
0	 9.933332852771349e+000	 8.333350000014582e+000	 9.997478626487244e+000
0	 9.933332852771352e+000	 8.400020000016401e+000	 9.997358263244184e+000
0	 9.933332852771351e+000	 8.466690000017616e+000	 9.997262036626584e+000
0	 9.933332852771351e+000	 8.533360000018135e+000	 9.997189546092605e+000
0	 9.933332852771351e+000	 8.600030000017849e+000	 9.997140391100542e+000
0	 9.933332852771352e+000	 8.666700000016668e+000	 9.997114171108589e+000
0	 1.000000000000000e+001	 8.000000000000000e+000	 9.997638026384118e+000
0	 1.000000000000000e+001	 8.066670000003317e+000	 9.997374316227523e+000
0	 1.000000000000000e+001	 8.133340000006534e+000	 9.997141328957094e+000
0	 9.999999999999998e+000	 8.200010000009550e+000	 9.996938635542012e+000
0	 1.000000000000000e+001	 8.266680000012267e+000	 9.996765806951501e+000
0	 1.000000000000000e+001	 8.333350000014583e+000	 9.996622414154688e+000
0	 1.000000000000000e+001	 8.400020000016401e+000	 9.996508028120758e+000
0	 1.000000000000000e+001	 8.466690000017616e+000	 9.996422219818919e+000
0	 1.000000000000000e+001	 8.533360000018133e+000	 9.996364560218318e+000
0	 1.000000000000000e+001	 8.600030000017851e+000	 9.996334620288200e+000
0	 1.000000000000000e+001	 8.666700000016666e+000	 9.996331970997685e+000
0	 9.333302777352783e+000	 8.666700000016666e+000	 1.000222687654109e+001
0	 9.333302777352781e+000	 8.733360002791901e+000	 1.000196784592152e+001
0	 9.333302777352783e+000	 8.800020022230557e+000	 1.000172820570004e+001
0	 9.333302777352781e+000	 8.866680074997039e+000	 1.000150728899693e+001
0	 9.333302777352781e+000	 8.933340177755778e+000	 1.000130442888764e+001
0	 9.333302777352783e+000	 9.000000347171181e+000	 1.000111895840305e+001
0	 9.333302777352785e+000	 9.066660599907667e+000	 1.000095021052921e+001
0	 9.333302777352781e+000	 9.133320952629655e+000	 1.000079751820747e+001
0	 9.333302777352781e+000	 9.199981422001558e+000	 1.000066021433446e+001
0	 9.333302777352781e+000	 9.266642024687794e+000	 1.000053763176211e+001
0	 9.333302777352785e+000	 9.333302777352785e+000	 1.000042910329761e+001
0	 9.399973674588177e+000	 8.666700000016668e+000	 1.000175057747868e+001
0	 9.399973674588177e+000	 8.733360002791901e+000	 1.000152266090738e+001
0	 9.399973674588175e+000	 8.800020022230557e+000	 1.000131369758540e+001
0	 9.399973674588177e+000	 8.866680074997040e+000	 1.000112307308680e+001
0	 9.399973674588175e+000	 8.933340177755779e+000	 1.000095017294352e+001
0	 9.399973674588177e+000	 9.000000347171181e+000	 1.000079438264531e+001
0	 9.399973674588178e+000	 9.066660599907671e+000	 1.000065508763976e+001
0	 9.399973674588180e+000	 9.133320952629655e+000	 1.000053167333229e+001
0	 9.399973674588173e+000	 9.199981422001558e+000	 1.000042352508611e+001
0	 9.399973674588177e+000	 9.266642024687796e+000	 1.000033002822229e+001
0	 9.399973674588175e+000	 9.333302777352783e+000	 1.000025056801977e+001
0	 9.466644621844619e+000	 8.666700000016665e+000	 1.000126679613481e+001
0	 9.466644621844621e+000	 8.733360002791905e+000	 1.000106903846283e+001
0	 9.466644621844621e+000	 8.800020022230555e+000	 1.000088989171675e+001
0	 9.466644621844623e+000	 8.866680074997044e+000	 1.000072880464408e+001
0	 9.466644621844619e+000	 8.933340177755778e+000	 1.000058522595220e+001
0	 9.466644621844617e+000	 9.000000347171179e+000	 1.000045860430845e+001
0	 9.466644621844624e+000	 9.066660599907671e+000	 1.000034838834004e+001
0	 9.466644621844621e+000	 9.133320952629656e+000	 1.000025402663414e+001
0	 9.466644621844623e+000	 9.199981422001560e+000	 1.000017496773786e+001
0	 9.466644621844619e+000	 9.266642024687794e+000	 1.000011066015817e+001
0	 9.466644621844619e+000	 9.333302777352785e+000	 1.000006055236200e+001
0	 9.533315502450000e+000	 8.666700000016666e+000	 1.000076890547734e+001
0	 9.533315502449998e+000	 8.733360002791905e+000	 1.000060049939422e+001
0	 9.533315502449995e+000	 8.800020022230552e+000	 1.000045056488155e+001
0	 9.533315502450002e+000	 8.866680074997042e+000	 1.000031862457978e+001
0	 9.533315502449996e+000	 8.933340177755778e+000	 1.000020420109069e+001
0	 9.533315502450000e+000	 9.000000347171184e+000	 1.000010681697746e+001
0	 9.533315502450000e+000	 9.066660599907667e+000	 1.000002599476472e+001
0	 9.533315502450000e+000	 9.133320952629653e+000	 9.999961256938416e+000
0	 9.533315502450003e+000	 9.199981422001562e+000	 9.999912125945929e+000
0	 9.533315502450000e+000	 9.266642024687792e+000	 9.999878124196032e+000
0	 9.533315502449996e+000	 9.333302777352783e+000	 9.999858774058865e+000
0	 9.599986199732197e+000	 8.666700000016666e+000	 1.000025027862459e+001
0	 9.599986199732195e+000	 8.733360002791901e+000	 1.000011056466122e+001
0	 9.599986199732197e+000	 8.800020022230557e+000	 9.999989494021087e+000
0	 9.599986199732195e+000	 8.866680074997042e+000	 9.999886673957191e+000
0	 9.599986199732197e+000	 8.933340177755779e+000	 9.999801711684700e+000
0	 9.599986199732195e+000	 9.000000347171181e+000	 9.999734214380771e+000
0	 9.599986199732197e+000	 9.066660599907669e+000	 9.999683789184681e+000
0	 9.599986199732195e+000	 9.133320952629655e+000	 9.999650043197805e+000
0	 9.599986199732197e+000	 9.199981422001558e+000	 9.999632583483546e+000
0	 9.599986199732198e+000	 9.266642024687798e+000	 9.999631017067426e+000
0	 9.599986199732197e+000	 9.333302777352785e+000	 9.999644950937045e+000
0	 9.666656597019093e+000	 8.666700000016666e+000	 9.999704288845409e+000
0	 9.666656597019092e+000	 8.733360002791903e+000	 9.999592755376757e+000
0	 9.666656597019093e+000	 8.800020022230557e+000	 9.999500456230409e+000
0	 9.666656597019093e+000	 8.866680074997042e+000	 9.999427093991924e+000
0	 9.666656597019095e+000	 8.933340177755779e+000	 9.999372371208738e+000
0	 9.666656597019092e+000	 9.000000347171181e+000	 9.999335990390074e+000
0	 9.666656597019092e+000	 9.066660599907666e+000	 9.999317654006964e+000
0	 9.666656597019093e+000	 9.133320952629655e+000	 9.999317064492340e+000
0	 9.666656597019093e+000	 9.199981422001558e+000	 9.999333924240863e+000
0	 9.666656597019093e+000	 9.266642024687798e+000	 9.999367935609113e+000
0	 9.666656597019093e+000	 9.333302777352783e+000	 9.999418800915375e+000
0	 9.733326577638575e+000	 8.666700000016668e+000	 9.999124309559091e+000
0	 9.733326577638573e+000	 8.733360002791901e+000	 9.999040592807022e+000
0	 9.733326577638575e+000	 8.800020022230557e+000	 9.998977228758447e+000
0	 9.733326577638573e+000	 8.866680074997039e+000	 9.998934026051810e+000
0	 9.733326577638575e+000	 8.933340177755778e+000	 9.998910793286022e+000
0	 9.733326577638575e+000	 9.000000347171183e+000	 9.998907339020407e+000
0	 9.733326577638573e+000	 9.066660599907667e+000	 9.998923471774779e+000
0	 9.733326577638575e+000	 9.133320952629655e+000	 9.998959000029448e+000
0	 9.733326577638575e+000	 9.199981422001558e+000	 9.999013732225109e+000
0	 9.733326577638573e+000	 9.266642024687796e+000	 9.999087476762973e+000
0	 9.733326577638575e+000	 9.333302777352783e+000	 9.999180042004710e+000
0	 9.799996024918521e+000	 8.666700000016666e+000	 9.998503714335516e+000
0	 9.799996024918524e+000	 8.733360002791903e+000	 9.998447598371474e+000
0	 9.799996024918523e+000	 8.800020022230555e+000	 9.998413589007956e+000
0	 9.799996024918521e+000	 8.866680074997040e+000	 9.998401611657011e+000
0	 9.799996024918521e+000	 8.933340177755776e+000	 9.998411591688516e+000
0	 9.799996024918521e+000	 9.000000347171181e+000	 9.998443454430168e+000
0	 9.799996024918523e+000	 9.066660599907667e+000	 9.998497125167509e+000
0	 9.799996024918524e+000	 9.133320952629655e+000	 9.998572529143875e+000
0	 9.799996024918521e+000	 9.199981422001557e+000	 9.998669591560461e+000
0	 9.799996024918523e+000	 9.266642024687798e+000	 9.998788237576278e+000
0	 9.799996024918519e+000	 9.333302777352781e+000	 9.998928392308184e+000
0	 9.866664822186818e+000	 8.666700000016666e+000	 9.997835876895021e+000
0	 9.866664822186818e+000	 8.733360002791901e+000	 9.997807293642897e+000
0	 9.866664822186818e+000	 8.800020022230555e+000	 9.997803314535524e+000
0	 9.866664822186820e+000	 8.866680074997040e+000	 9.997823992479974e+000
0	 9.866664822186820e+000	 8.933340177755779e+000	 9.997869380337004e+000
0	 9.866664822186820e+000	 9.000000347171183e+000	 9.997939530921151e+000
0	 9.866664822186820e+000	 9.066660599907667e+000	 9.998034497000701e+000
0	 9.866664822186822e+000	 9.133320952629656e+000	 9.998154331297751e+000
0	 9.866664822186820e+000	 9.199981422001558e+000	 9.998299086488130e+000
0	 9.866664822186818e+000	 9.266642024687796e+000	 9.998468815201397e+000
0	 9.866664822186820e+000	 9.333302777352781e+000	 9.998663570020911e+000
0	 9.933332852771352e+000	 8.666700000016668e+000	 9.997114171108589e+000
0	 9.933332852771351e+000	 8.733360002791903e+000	 9.997113200347332e+000
0	 9.933332852771352e+000	 8.800020022230555e+000	 9.997140183051609e+000
0	 9.933332852771351e+000	 8.866680074997040e+000	 9.997195310345465e+000
0	 9.933332852771351e+000	 8.933340177755778e+000	 9.997278773300996e+000
0	 9.933332852771349e+000	 9.000000347171179e+000	 9.997390762938469e+000
0	 9.933332852771351e+000	 9.066660599907667e+000	 9.997531470226218e+000
0	 9.933332852771351e+000	 9.133320952629656e+000	 9.997701086080641e+000
0	 9.933332852771352e+000	 9.199981422001558e+000	 9.997899801366318e+000
0	 9.933332852771352e+000	 9.266642024687798e+000	 9.998127806895974e+000
0	 9.933332852771351e+000	 9.333302777352783e+000	 9.998385293430241e+000
0	 1.000000000000000e+001	 8.666700000016666e+000	 9.996331970997685e+000
0	 1.000000000000000e+001	 8.733360002791903e+000	 9.996358840364282e+000
0	 1.000000000000000e+001	 8.800020022230555e+000	 9.996417972420636e+000
0	 1.000000000000000e+001	 8.866680074997042e+000	 9.996509707230636e+000
0	 1.000000000000000e+001	 8.933340177755779e+000	 9.996634384798918e+000
0	 1.000000000000000e+001	 9.000000347171183e+000	 9.996792345070698e+000
0	 1.000000000000000e+001	 9.066660599907667e+000	 9.996983927932011e+000
0	 1.000000000000000e+001	 9.133320952629655e+000	 9.997209473209457e+000
0	 1.000000000000000e+001	 9.199981422001557e+000	 9.997469320670374e+000
0	 1.000000000000000e+001	 9.266642024687796e+000	 9.997763810022901e+000
0	 9.999999999999998e+000	 9.333302777352781e+000	 9.998093280915718e+000
0	 9.333302777352785e+000	 9.333302777352785e+000	 1.000042910329761e+001
0	 9.333302777352781e+000	 9.399973674588177e+000	 1.000033214405641e+001
0	 9.333302777352785e+000	 9.466644621844621e+000	 1.000024550967630e+001
0	 9.333302777352783e+000	 9.533315502450002e+000	 1.000017034813588e+001
0	 9.333302777352783e+000	 9.599986199732197e+000	 1.000010780768261e+001
0	 9.333302777352781e+000	 9.666656597019095e+000	 1.000005903683286e+001
0	 9.333302777352783e+000	 9.733326577638573e+000	 1.000002518437189e+001
0	 9.333302777352779e+000	 9.799996024918521e+000	 1.000000739935406e+001
0	 9.333302777352783e+000	 9.866664822186822e+000	 1.000000683110248e+001
0	 9.333302777352783e+000	 9.933332852771356e+000	 1.000002462920941e+001
0	 9.333302777352781e+000	 9.999999999999998e+000	 1.000006194353612e+001
0	 9.399973674588175e+000	 9.333302777352783e+000	 1.000025056801977e+001
0	 9.399973674588175e+000	 9.399973674588173e+000	 1.000018123795065e+001
0	 9.399973674588175e+000	 9.466644621844619e+000	 1.000011954660717e+001
0	 9.399973674588177e+000	 9.533315502450002e+000	 1.000006696938668e+001
0	 9.399973674588177e+000	 9.599986199732197e+000	 1.000002498190556e+001
0	 9.399973674588175e+000	 9.666656597019095e+000	 9.999995059999300e+000
0	 9.399973674588175e+000	 9.733326577638572e+000	 9.999978679722258e+000
0	 9.399973674588177e+000	 9.799996024918524e+000	 9.999977317348156e+000
0	 9.399973674588175e+000	 9.866664822186820e+000	 9.999992449369566e+000
0	 9.399973674588177e+000	 9.933332852771354e+000	 1.000002555249836e+001
0	 9.399973674588175e+000	 1.000000000000000e+001	 1.000007810366547e+001
0	 9.466644621844619e+000	 9.333302777352785e+000	 1.000006055236200e+001
0	 9.466644621844623e+000	 9.399973674588175e+000	 1.000001921008147e+001
0	 9.466644621844623e+000	 9.466644621844624e+000	 9.999982757196648e+000
0	 9.466644621844617e+000	 9.533315502449998e+000	 9.999952960055571e+000
0	 9.466644621844617e+000	 9.599986199732193e+000	 9.999931585176428e+000
0	 9.466644621844621e+000	 9.666656597019093e+000	 9.999920399247445e+000
0	 9.466644621844619e+000	 9.733326577638573e+000	 9.999921169127052e+000
0	 9.466644621844623e+000	 9.799996024918524e+000	 9.999935661843702e+000
0	 9.466644621844621e+000	 9.866664822186822e+000	 9.999965644596106e+000
0	 9.466644621844621e+000	 9.933332852771354e+000	 1.000001288475308e+001
0	 9.466644621844621e+000	 1.000000000000000e+001	 1.000007914985366e+001
0	 9.533315502449996e+000	 9.333302777352783e+000	 9.999858774058865e+000
0	 9.533315502449995e+000	 9.399973674588173e+000	 9.999846902416984e+000
0	 9.533315502449998e+000	 9.466644621844617e+000	 9.999837005412100e+000
0	 9.533315502449996e+000	 9.533315502449998e+000	 9.999831103881817e+000
0	 9.533315502450000e+000	 9.599986199732197e+000	 9.999831218784649e+000
0	 9.533315502450000e+000	 9.666656597019095e+000	 9.999839371200183e+000
0	 9.533315502450000e+000	 9.733326577638573e+000	 9.999857582328982e+000
0	 9.533315502450000e+000	 9.799996024918524e+000	 9.999887873492700e+000
0	 9.533315502450002e+000	 9.866664822186822e+000	 9.999932266133916e+000
0	 9.533315502449998e+000	 9.933332852771352e+000	 9.999992781816443e+000
0	 9.533315502450000e+000	 1.000000000000000e+001	 1.000007144222500e+001
0	 9.599986199732197e+000	 9.333302777352785e+000	 9.999644950937046e+000
0	 9.599986199732197e+000	 9.399973674588175e+000	 9.999665157003003e+000
0	 9.599986199732197e+000	 9.466644621844623e+000	 9.999684155282743e+000
0	 9.599986199732197e+000	 9.533315502449998e+000	 9.999704184648525e+000
0	 9.599986199732198e+000	 9.599986199732198e+000	 9.999727484043346e+000
0	 9.599986199732195e+000	 9.666656597019093e+000	 9.999756292480864e+000
0	 9.599986199732198e+000	 9.733326577638577e+000	 9.999792849045349e+000
0	 9.599986199732197e+000	 9.799996024918521e+000	 9.999839392891863e+000
0	 9.599986199732193e+000	 9.866664822186822e+000	 9.999898163246217e+000
0	 9.599986199732197e+000	 9.933332852771352e+000	 9.999971399404856e+000
0	 9.599986199732195e+000	 1.000000000000000e+001	 1.000006134073501e+001
0	 9.666656597019093e+000	 9.333302777352783e+000	 9.999418800915375e+000
0	 9.666656597019092e+000	 9.399973674588175e+000	 9.999474815963120e+000
0	 9.666656597019093e+000	 9.466644621844621e+000	 9.999526070899432e+000
0	 9.666656597019090e+000	 9.533315502449998e+000	 9.999574986182664e+000
0	 9.666656597019093e+000	 9.599986199732198e+000	 9.999623982289156e+000
0	 9.666656597019093e+000	 9.666656597019092e+000	 9.999675479713364e+000
0	 9.666656597019092e+000	 9.733326577638577e+000	 9.999731898967767e+000
0	 9.666656597019090e+000	 9.799996024918519e+000	 9.999795660582940e+000
0	 9.666656597019093e+000	 9.866664822186822e+000	 9.999869185107531e+000
0	 9.666656597019095e+000	 9.933332852771356e+000	 9.999954893108363e+000
0	 9.666656597019093e+000	 1.000000000000000e+001	 1.000005520517020e+001
0	 9.733326577638575e+000	 9.333302777352783e+000	 9.999180042004712e+000
0	 9.733326577638575e+000	 9.399973674588177e+000	 9.999276721498614e+000
0	 9.733326577638573e+000	 9.466644621844621e+000	 9.999364616414926e+000
0	 9.733326577638577e+000	 9.533315502450002e+000	 9.999446292355048e+000
0	 9.733326577638575e+000	 9.599986199732197e+000	 9.999524314882322e+000
0	 9.733326577638575e+000	 9.666656597019095e+000	 9.999601249522273e+000
0	 9.733326577638573e+000	 9.733326577638575e+000	 9.999679661762396e+000
0	 9.733326577638573e+000	 9.799996024918523e+000	 9.999762117052347e+000
0	 9.733326577638573e+000	 9.866664822186822e+000	 9.999851180803759e+000
0	 9.733326577638573e+000	 9.933332852771352e+000	 9.999949418390470e+000
0	 9.733326577638573e+000	 1.000000000000000e+001	 1.000005939514835e+001
0	 9.799996024918519e+000	 9.333302777352781e+000	 9.998928392308182e+000
0	 9.799996024918519e+000	 9.399973674588173e+000	 9.999071715888588e+000
0	 9.799996024918519e+000	 9.466644621844617e+000	 9.999201656043734e+000
0	 9.799996024918523e+000	 9.533315502450002e+000	 9.999320887080307e+000
0	 9.799996024918524e+000	 9.599986199732198e+000	 9.999432083206633e+000
0	 9.799996024918523e+000	 9.666656597019093e+000	 9.999537918532615e+000
0	 9.799996024918523e+000	 9.733326577638575e+000	 9.999641067069813e+000
0	 9.799996024918521e+000	 9.799996024918523e+000	 9.999744202731327e+000
0	 9.799996024918521e+000	 9.866664822186822e+000	 9.999849999332026e+000
0	 9.799996024918521e+000	 9.933332852771352e+000	 9.999961130588366e+000
0	 9.799996024918521e+000	 1.000000000000000e+001	 1.000008027011844e+001
0	 9.866664822186820e+000	 9.333302777352781e+000	 9.998663570020913e+000
0	 9.866664822186818e+000	 9.399973674588175e+000	 9.998860641489854e+000
0	 9.866664822186818e+000	 9.466644621844619e+000	 9.999039054062155e+000
0	 9.866664822186820e+000	 9.533315502450000e+000	 9.999201554317120e+000
0	 9.866664822186818e+000	 9.599986199732195e+000	 9.999350888669570e+000
0	 9.866664822186820e+000	 9.666656597019093e+000	 9.999489803370143e+000
0	 9.866664822186820e+000	 9.733326577638575e+000	 9.999621044505025e+000
0	 9.866664822186820e+000	 9.799996024918524e+000	 9.999747357996114e+000
0	 9.866664822186820e+000	 9.866664822186822e+000	 9.999871489600920e+000
0	 9.866664822186820e+000	 9.933332852771354e+000	 9.999996184912746e+000
0	 9.866664822186820e+000	 1.000000000000000e+001	 1.000012418936040e+001
0	 9.933332852771351e+000	 9.333302777352783e+000	 9.998385293430243e+000
0	 9.933332852771349e+000	 9.399973674588175e+000	 9.998644340737032e+000
0	 9.933332852771351e+000	 9.466644621844619e+000	 9.998878674808305e+000
0	 9.933332852771352e+000	 9.533315502450000e+000	 9.999091078067750e+000
0	 9.933332852771351e+000	 9.599986199732197e+000	 9.999284332702096e+000
0	 9.933332852771351e+000	 9.666656597019093e+000	 9.999461220661081e+000
0	 9.933332852771349e+000	 9.733326577638573e+000	 9.999624523657612e+000
0	 9.933332852771351e+000	 9.799996024918523e+000	 9.999777023167709e+000
0	 9.933332852771351e+000	 9.866664822186822e+000	 9.999921500430359e+000
0	 9.933332852771352e+000	 9.933332852771354e+000	 1.000006073644791e+001
0	 9.933332852771351e+000	 1.000000000000000e+001	 1.000019751198557e+001
0	 9.999999999999998e+000	 9.333302777352781e+000	 9.998093280915720e+000
0	 1.000000000000000e+001	 9.399973674588175e+000	 9.998423656142418e+000
0	 1.000000000000000e+001	 9.466644621844621e+000	 9.998722382682056e+000
0	 1.000000000000000e+001	 9.533315502450000e+000	 9.998992242378622e+000
0	 1.000000000000000e+001	 9.599986199732198e+000	 9.999236016758868e+000
0	 1.000000000000000e+001	 9.666656597019093e+000	 9.999456487032315e+000
0	 1.000000000000000e+001	 9.733326577638575e+000	 9.999656434091538e+000
0	 1.000000000000000e+001	 9.799996024918523e+000	 9.999838638511850e+000
0	 1.000000000000000e+001	 9.866664822186824e+000	 1.000000588055160e+001
0	 1.000000000000000e+001	 9.933332852771354e+000	 1.000016094015168e+001
0	 1.000000000000000e+001	 1.000000000000000e+001	 1.000030659693631e+001
1	 1.000000000000000e+000	 0.000000000000000e+000	 3.108826324194044e+001
1	 9.999553790721549e-001	 9.446392261750536e-003	 3.108215584786106e+001
1	 9.998208276644109e-001	 1.892867080636967e-002	 3.106331881350379e+001
1	 9.995953221430520e-001	 2.844573836262591e-002	 3.103174837408972e+001
1	 9.992778519071311e-001	 3.799646941872217e-002	 3.098744006593038e+001
1	 9.988674201817245e-001	 4.757971027342477e-002	 3.093038861528246e+001
1	 9.983630448185402e-001	 5.719427911104237e-002	 3.086058782675985e+001
1	 9.977637591031844e-001	 6.683896610081597e-002	 3.077803047156446e+001
1	 9.970686125683426e-001	 7.651253352126189e-002	 3.068270817580850e+001
1	 9.962766718121099e-001	 8.621371590998764e-002	 3.057461130920999e+001
1	 9.953870213206724e-001	 9.594122023947824e-002	 3.045372887445396e+001
1	 1.026666858896873e+000	 0.000000000000000e+000	 2.928115590282911e+001
1	 1.026621048068823e+000	 9.698297869740000e-003	 2.928257639353275e+001
1	 1.026482908597070e+000	 1.943343899728710e-002	 2.927222184710413e+001
1	 1.026251389550869e+000	 2.920429685057105e-002	 2.925002970274272e+001
1	 1.025925453379797e+000	 3.900971590386779e-002	 2.921593752233934e+001
1	 1.025504076728145e+000	 4.884851169029192e-002	 2.916988298642584e+001
1	 1.024986251256887e+000	 5.871947087877486e-002	 2.911180389122556e+001
1	 1.024370984472468e+000	 6.862135137610566e-002	 2.904163814691549e+001
1	 1.023657300561674e+000	 7.855288245458952e-002	 2.895932377721123e+001
1	 1.022844241231782e+000	 8.851276490585899e-002	 2.886479892038909e+001
1	 1.021930866555178e+000	 9.849967122134781e-002	 2.875800183185958e+001
1	 1.053334071134978e+000	 0.000000000000000e+000	 2.776256708173997e+001
1	 1.053287070390996e+000	 9.950206815530270e-003	 2.776726157318180e+001
1	 1.053145342807795e+000	 1.993821387648614e-002	 2.776130071268748e+001
1	 1.052907810157237e+000	 2.996286538957084e-002	 2.774457023437016e+001
1	 1.052573407939045e+000	 4.002297581473556e-002	 2.771695613151231e+001
1	 1.052141086216367e+000	 5.011732991903531e-002	 2.767834473337535e+001
1	 1.051609810459081e+000	 6.024468285560676e-002	 2.762862278496400e+001
1	 1.050978562394118e+000	 7.040376026835926e-002	 2.756767752976013e+001
1	 1.050246340862016e+000	 8.059325842294959e-002	 2.749539679543696e+001
1	 1.049412162678889e+000	 9.081184436458797e-002	 2.741166908255686e+001
1	 1.048475063502990e+000	 1.010581561031999e-001	 2.731638365625198e+001
1	 1.080001590045551e+000	 0.000000000000000e+000	 2.650209594682196e+001
1	 1.079953399371986e+000	 1.020211865827080e-002	 2.650627470713152e+001
1	 1.079808083636172e+000	 2.044299456059085e-002	 2.650102755500652e+001
1	 1.079564537312246e+000	 3.072144265210019e-002	 2.648619497201372e+001
1	 1.079221668949764e+000	 4.103624737807987e-002	 2.646161718256321e+001
1	 1.078778402030408e+000	 5.138616273917135e-002	 2.642713428659159e+001
1	 1.078233675832652e+000	 6.176991237235381e-002	 2.638258639735621e+001
1	 1.077586446303606e+000	 7.218618965828590e-002	 2.632781378431581e+001
1	 1.076835686937252e+000	 8.263365785559590e-002	 2.626265702106197e+001
1	 1.075980389658250e+000	 9.311095026268368e-002	 2.618695713825335e+001
1	 1.075019565710423e+000	 1.036166704075697e-001	 2.610055578149339e+001
1	 1.106669368959824e+000	 0.000000000000000e+000	 2.547227093352740e+001
1	 1.106619988345106e+000	 1.045403295711104e-002	 2.547256365009478e+001
1	 1.106471084421780e+000	 2.094778016622530e-002	 2.546471965405021e+001
1	 1.106221524365987e+000	 3.148002731063400e-002	 2.544854005008222e+001
1	 1.105870189776840e+000	 4.204952882065516e-002	 2.542382454579221e+001
1	 1.105415977554288e+000	 5.265500793021637e-002	 2.539037161639228e+001
1	 1.104857800785134e+000	 6.329515675983194e-002	 2.534797867696753e+001
1	 1.104194589636403e+000	 7.396863642659464e-002	 2.529644226229240e+001
1	 1.103425292255272e+000	 8.467407718178245e-002	 2.523555821417311e+001
1	 1.102548875674684e+000	 9.541007857665527e-002	 2.516512187627239e+001
1	 1.101564326723789e+000	 1.061752096569922e-001	 2.508492829635410e+001
1	 1.133337361209029e+000	 0.000000000000000e+000	 2.464820523364744e+001
1	 1.133286790643667e+000	 1.070594927120045e-002	 2.464162154044968e+001
1	 1.133134298504202e+000	 2.145256981001351e-002	 2.462820480724174e+001
1	 1.132878724668551e+000	 3.223861803764715e-002	 2.460772211492177e+001
1	 1.132518923785160e+000	 4.306281836921582e-002	 2.457993741021242e+001
1	 1.132053766172025e+000	 5.392386327168684e-002	 2.454461167953489e+001
1	 1.131482138724057e+000	 6.482041334885690e-002	 2.450150313319408e+001
1	 1.130802945827984e+000	 7.575109745399460e-002	 2.445036739992868e+001
1	 1.130015110283960e+000	 8.671451283076302e-002	 2.439095773185962e+001
1	 1.129117574233009e+000	 9.770922528301183e-002	 2.432302521984919e+001
1	 1.128109300089399e+000	 1.087337693740023e-001	 2.424631901926169e+001
1	 1.160005520124402e+000	 0.000000000000000e+000	 2.400729977475282e+001
1	 1.159953759600982e+000	 1.095786715968847e-002	 2.399119431480316e+001
1	 1.159797679223019e+000	 2.195736260857955e-002	 2.396953283828150e+001
1	 1.159536091570028e+000	 3.299721350561456e-002	 2.394205328086038e+001
1	 1.159167824339611e+000	 4.407611425051633e-002	 2.390848813379878e+001
1	 1.158691721267636e+000	 5.519272654309909e-002	 2.386856460508147e+001
1	 1.158106643056953e+000	 6.634567947024450e-002	 2.382200479390396e+001
1	 1.157411468313821e+000	 7.753356962119486e-002	 2.376852587867109e+001
1	 1.156605094491205e+000	 8.875496123179154e-002	 2.370784031865475e+001
1	 1.155686438838045e+000	 1.000083863582625e-001	 2.363965606943157e+001
1	 1.154654439353568e+000	 1.112923450811353e-001	 2.356367681219587e+001
1	 1.186673799037173e+000	 0.000000000000000e+000	 2.352898622399406e+001
1	 1.186620848550362e+000	 1.120978618172458e-002	 2.350102763579321e+001
1	 1.186461179917815e+000	 2.246215767854747e-002	 2.346872598098840e+001
1	 1.186193578420510e+000	 3.375581238701111e-002	 2.343179449673057e+001
1	 1.185816844805080e+000	 4.508941469131111e-002	 2.338993811421307e+001
1	 1.185329796225141e+000	 5.646159552396950e-002	 2.334285358600900e+001
1	 1.184731267191354e+000	 6.787095245481060e-002	 2.329022963007217e+001
1	 1.184020110529385e+000	 7.931604980890453e-002	 2.323174709073322e+001
1	 1.183195198344893e+000	 9.079541881412187e-002	 2.316707911699657e+001
1	 1.182255422994611e+000	 1.023075577789163e-001	 2.309589135841867e+001
1	 1.181199698062607e+000	 1.138509323009261e-001	 2.301784217881884e+001
1	 1.213342151278578e+000	 0.000000000000000e+000	 2.319450386217762e+001
1	 1.213288010825120e+000	 1.146170589645821e-002	 2.315264717301135e+001
1	 1.213124753928167e+000	 2.296695413654130e-002	 2.310756216077993e+001
1	 1.212851138570086e+000	 3.451441335431171e-002	 2.305894141693462e+001
1	 1.212465938546455e+000	 4.610271791835455e-002	 2.300646583403530e+001
1	 1.211967944428558e+000	 5.773046799381450e-002	 2.294980467898754e+001
1	 1.211355964534790e+000	 6.939622963337105e-002	 2.288861568654184e+001
1	 1.210628825910150e+000	 8.109853489783273e-002	 2.282254517359576e+001
1	 1.209785375312910e+000	 9.283588200700788e-002	 2.275122817481475e+001
1	 1.208824480207525e+000	 1.046067355214826e-001	 2.267428860005911e+001
1	 1.207745029762831e+000	 1.164095265559097e-001	 2.259133941407482e+001
1	 1.240010530179849e+000	 0.000000000000000e+000	 2.298670523221075e+001
1	 1.239955199758569e+000	 1.171362586303883e-002	 2.292916721894578e+001
1	 1.239788354593661e+000	 2.347175109918509e-002	 2.286938622422024e+001
1	 1.239508725368846e+000	 3.527301507999124e-002	 2.280703788662424e+001
1	 1.239115058928623e+000	 4.711602215840111e-002	 2.274178223972854e+001
1	 1.238606119261905e+000	 5.899934173215044e-002	 2.267326371162566e+001
1	 1.237980688494794e+000	 7.092150833674160e-002	 2.260111114860862e+001
1	 1.237237567891589e+000	 8.288102176868853e-002	 2.252493786378319e+001
1	 1.236375578863144e+000	 9.487634723970345e-002	 2.244434171138539e+001
1	 1.235393563981607e+000	 1.069059155624702e-001	 2.235890518754739e+001
1	 1.234290388000549e+000	 1.189681233686213e-001	 2.226819555822400e+001
1	 1.266678889072220e+000	 0.000000000000000e+000	 2.288988632379639e+001
1	 1.266622368684020e+000	 1.196554564061589e-002	 2.281512346653765e+001
1	 1.266451935253877e+000	 2.397654768310291e-002	 2.273894500022179e+001
1	 1.266166292166884e+000	 3.603161623652462e-002	 2.266101297376769e+001
1	 1.265764159316470e+000	 4.812932563820523e-002	 2.258096942840706e+001
1	 1.265244274109201e+000	 6.026821451849370e-002	 2.249843630457816e+001
1	 1.264605392478897e+000	 7.244678589573809e-002	 2.241301537710519e+001
1	 1.263846289909173e+000	 8.466350730218103e-002	 2.232428821976041e+001
1	 1.262965762463481e+000	 9.691681094146248e-002	 2.223181620028225e+001
1	 1.261962627821675e+000	 1.092050938783884e-001	 2.213514050689433e+001
1	 1.260835726322077e+000	 1.215267182615958e-001	 2.203378220733994e+001
1	 9.953870213206724e-001	 9.594122023947824e-002	 3.045372887445396e+001
1	 9.943989199946589e-001	 1.056922649420928e-001	 3.031978414175962e+001
1	 9.933113650226917e-001	 1.154669775827053e-001	 3.017238863696591e+001
1	 9.921235000424145e-001	 1.252640057452699e-001	 3.001143265307859e+001
1	 9.908344898374512e-001	 1.350819710464206e-001	 2.983682388379016e+001
1	 9.894435211587168e-001	 1.449194694473043e-001	 2.964848795621256e+001
1	 9.879498035443918e-001	 1.547750715930050e-001	 2.944636895133145e+001
1	 9.863525701375676e-001	 1.646473231798204e-001	 2.923042991088150e+001
1	 9.846510785005697e-001	 1.745347453506194e-001	 2.900065332932835e+001
1	 9.828446114249161e-001	 1.844358351184653e-001	 2.875704162963728e+001
1	 9.809324777358747e-001	 1.943490658186562e-001	 2.849961762150173e+001
1	 1.021930866555178e+000	 9.849967122134781e-002	 2.875800183185958e+001
1	 1.020916415669762e+000	 1.085107456576842e-001	 2.863918778293768e+001
1	 1.019799859022319e+000	 1.185461191814804e-001	 2.850852711580240e+001
1	 1.018580317413973e+000	 1.286044033119972e-001	 2.836589205263537e+001
1	 1.017256933355725e+000	 1.386841829087085e-001	 2.821116913709673e+001
1	 1.015828871911665e+000	 1.487840164914495e-001	 2.804425972365258e+001
1	 1.014295321540812e+000	 1.589024365888926e-001	 2.786508045813519e+001
1	 1.012655494936566e+000	 1.690379501156183e-001	 2.767356374840745e+001
1	 1.010908629862745e+000	 1.791890387780153e-001	 2.746965822398981e+001
1	 1.009053989985139e+000	 1.893541595092008e-001	 2.725332918349516e+001
1	 1.007090865697531e+000	 1.995317449331146e-001	 2.702455902871065e+001
1	 1.048475063502990e+000	 1.010581561031999e-001	 2.731638365625198e+001
1	 1.047434262709218e+000	 1.113292637187003e-001	 2.721017189471882e+001
1	 1.046288704002161e+000	 1.216253015794872e-001	 2.709360187675570e+001
1	 1.045037485346122e+000	 1.319448451396527e-001	 2.696652227796725e+001
1	 1.043679726979181e+000	 1.422864425010265e-001	 2.682879312345749e+001
1	 1.042214572278316e+000	 1.526486147416389e-001	 2.668028624362238e+001
1	 1.040641188623105e+000	 1.630298562732486e-001	 2.652088572478178e+001
1	 1.038958768256984e+000	 1.734286352282083e-001	 2.635048835368094e+001
1	 1.037166529144998e+000	 1.838433938759065e-001	 2.616900405487424e+001
1	 1.035263715826961e+000	 1.942725490689864e-001	 2.597635631998753e+001
1	 1.033249600264920e+000	 2.047144927194935e-001	 2.577248262784392e+001
1	 1.075019565710423e+000	 1.036166704075697e-001	 2.610055578149339e+001
1	 1.073952414705431e+000	 1.141478141926027e-001	 2.600434185559660e+001
1	 1.072777853605359e+000	 1.247045193880078e-001	 2.589915782496252e+001
1	 1.071494957537422e+000	 1.352853253822968e-001	 2.578482363994719e+001
1	 1.070102824466526e+000	 1.458887435192349e-001	 2.566116772602388e+001
1	 1.068600576082287e+000	 1.565132574346200e-001	 2.552802741545536e+001
1	 1.066987358684599e+000	 1.671573234228618e-001	 2.538524937751088e+001
1	 1.065262344066698e+000	 1.778193708336415e-001	 2.523269004640131e+001
1	 1.063424730394631e+000	 1.884978024988976e-001	 2.507021604608507e+001
1	 1.061473743082011e+000	 1.991909951903410e-001	 2.489770461107542e+001
1	 1.059408635658941e+000	 2.098973001076576e-001	 2.471504400236388e+001
1	 1.101564326723789e+000	 1.061752096569922e-001	 2.508492829635410e+001
1	 1.100470825250804e+000	 1.169663921468526e-001	 2.499603904313784e+001
1	 1.099267261475050e+000	 1.277837672183244e-001	 2.489948170792860e+001
1	 1.097952687686433e+000	 1.386258381939897e-001	 2.479504260554968e+001
1	 1.096526179576468e+000	 1.494910796591940e-001	 2.468251374045056e+001
1	 1.094986837147195e+000	 1.603779378071404e-001	 2.456169322326247e+001
1	 1.093333785618622e+000	 1.712848308145205e-001	 2.443238568970395e+001
1	 1.091566176333586e+000	 1.822101492479693e-001	 2.429440272113968e+001
1	 1.089683187658943e+000	 1.931522565015935e-001	 2.414756326606932e+001
1	 1.087684025881921e+000	 2.041094892657834e-001	 2.399169406179749e+001
1	 1.085567926100498e+000	 2.150801580274720e-001	 2.382663005551233e+001
1	 1.128109300089399e+000	 1.087337693740023e-001	 2.424631901926169e+001
1	 1.126989447937741e+000	 1.197849926489115e-001	 2.416201904414764e+001
1	 1.125756881254374e+000	 1.308630396817190e-001	 2.407127963765068e+001
1	 1.124410629491716e+000	 1.419663777287919e-001	 2.397384881183898e+001
1	 1.122949746067712e+000	 1.530934446167641e-001	 2.386947756391856e+001
1	 1.121373309296657e+000	 1.642426490959474e-001	 2.375792028630360e+001
1	 1.119680423318503e+000	 1.754123712250134e-001	 2.363893518294348e+001
1	 1.117870219025528e+000	 1.866009627872430e-001	 2.351228469132611e+001
1	 1.115941854985237e+000	 1.978067477385986e-001	 2.337773590954509e+001
1	 1.113894518358322e+000	 2.090280226878327e-001	 2.323506102778714e+001
1	 1.111727425810493e+000	 2.202630574088016e-001	 2.308403776356519e+001
1	 1.154654439353568e+000	 1.112923450811353e-001	 2.356367681219587e+001
1	 1.153508236358646e+000	 1.226036107662409e-001	 2.348117422316184e+001
1	 1.152246666586472e+000	 1.339423313894738e-001	 2.339339906591239e+001
1	 1.150868736651832e+000	 1.453069381407635e-001	 2.330005660317740e+001
1	 1.149373477698965e+000	 1.566958320878054e-001	 2.320085245217483e+001
1	 1.147759946354290e+000	 1.681073845377886e-001	 2.309549299648887e+001
1	 1.146027225677570e+000	 1.795399374311290e-001	 2.298368580821463e+001
1	 1.144174426110399e+000	 1.909918037675140e-001	 2.286514007989215e+001
1	 1.142200686420812e+000	 2.024612680645178e-001	 2.273956706571502e+001
1	 1.140105174642845e+000	 2.139465868490073e-001	 2.260668053146083e+001
1	 1.137887089009828e+000	 2.254459891815113e-001	 2.246619721255302e+001
1	 1.181199698062607e+000	 1.138509323009261e-001	 2.301784217881885e+001
1	 1.180027144105923e+000	 1.254222415663019e-001	 2.293429367562086e+001
1	 1.178736571114482e+000	 1.370216369528710e-001	 2.284658822419628e+001
1	 1.177326962865341e+000	 1.486475135839651e-001	 2.275438409208354e+001
1	 1.175797328228936e+000	 1.602982357681785e-001	 2.265733733797563e+001
1	 1.174146702143711e+000	 1.719721373694114e-001	 2.255510223339205e+001
1	 1.172374146589153e+000	 1.836675222096557e-001	 2.244733169873082e+001
1	 1.170478751556079e+000	 1.953826645048333e-001	 2.233367775331486e+001
1	 1.168459636012969e+000	 2.071158093339556e-001	 2.221379197900269e+001
1	 1.166315948867122e+000	 2.188651731418263e-001	 2.208732599688835e+001
1	 1.164046869919403e+000	 2.306289442754662e-001	 2.195393195657011e+001
1	 1.207745029762831e+000	 1.164095265559097e-001	 2.259133941407482e+001
1	 1.206546124771974e+000	 1.282408801165561e-001	 2.250385481751336e+001
1	 1.205226548481543e+000	 1.401009509831926e-001	 2.241328726771079e+001
1	 1.203785261830803e+000	 1.519880982124569e-001	 2.231924397416227e+001
1	 1.202221251416331e+000	 1.639006493537434e-001	 2.222132743555048e+001
1	 1.200533530488537e+000	 1.758369008275634e-001	 2.211913587891627e+001
1	 1.198721139946579e+000	 1.877951183373822e-001	 2.201226371742857e+001
1	 1.196783149330445e+000	 1.997735373152525e-001	 2.190030202644705e+001
1	 1.194718657809009e+000	 2.117703634015168e-001	 2.178283903752001e+001
1	 1.192526795162783e+000	 2.237837729588086e-001	 2.165946064990698e+001
1	 1.190206722760122e+000	 2.358119136205312e-001	 2.152975095916271e+001
1	 1.234290388000549e+000	 1.189681233686213e-001	 2.226819555822400e+001
1	 1.233065131949204e+000	 1.310595214844649e-001	 2.217384185166699e+001
1	 1.231716552330795e+000	 1.431802680917210e-001	 2.207744635353096e+001
1	 1.230243587246780e+000	 1.553286861802993e-001	 2.197856131958956e+001
1	 1.228645201019855e+000	 1.675030665403604e-001	 2.187673184876311e+001
1	 1.226920385212384e+000	 1.797016681489920e-001	 2.177149634723747e+001
1	 1.225068159643175e+000	 1.919227185910969e-001	 2.166238701550671e+001
1	 1.223087573401376e+000	 2.041644145148226e-001	 2.154893035810234e+001
1	 1.220977705856232e+000	 2.164249221218061e-001	 2.143064771571154e+001
1	 1.218737667661458e+000	 2.287023776924730e-001	 2.130705581932678e+001
1	 1.216366601752886e+000	 2.409948881465710e-001	 2.117766736600612e+001
1	 1.260835726322077e+000	 1.215267182615958e-001	 2.203378220733994e+001
1	 1.259584119230017e+000	 1.338781607374896e-001	 2.192958715207871e+001
1	 1.258206536305377e+000	 1.462595828897382e-001	 2.182436668578234e+001
1	 1.256701892811832e+000	 1.586692716415527e-001	 2.171761436782980e+001
1	 1.255069130798217e+000	 1.711054810238902e-001	 2.160881420564941e+001
1	 1.253307220138871e+000	 1.835664325704446e-001	 2.149744115099992e+001
1	 1.251415159572273e+000	 1.960503157475885e-001	 2.138296162360787e+001
1	 1.249391977736748e+000	 2.085552884195949e-001	 2.126483406198106e+001
1	 1.247236734201940e+000	 2.210794773494281e-001	 2.114250950115007e+001
1	 1.244948520494780e+000	 2.336209787353382e-001	 2.101543217702017e+001
1	 1.242526461118596e+000	 2.461778587834510e-001	 2.088304015694445e+001
1	 9.809324777358747e-001	 1.943490658186562e-001	 2.849961762150173e+001
1	 9.789137024229728e-001	 2.042743766435053e-001	 2.822929772716203e+001
1	 9.767879280981021e-001	 2.142087061355223e-001	 2.794706543914824e+001
1	 9.745545470450379e-001	 2.241504565049763e-001	 2.765295465376050e+001
1	 9.722129807570792e-001	 2.340980083161345e-001	 2.734701808806683e+001
1	 9.697626806991601e-001	 2.440497210832210e-001	 2.702932765638368e+001
1	 9.672031290579123e-001	 2.540039338948809e-001	 2.669997482684218e+001
1	 9.645338394785437e-001	 2.639589660669880e-001	 2.635907095685315e+001
1	 9.617543577873684e-001	 2.739131178235835e-001	 2.600674760629982e+001
1	 9.588642626988490e-001	 2.838646710056856e-001	 2.564315682730703e+001
1	 9.558631665059840e-001	 2.938118898076575e-001	 2.526847142945618e+001
1	 1.007090865697531e+000	 1.995317449331146e-001	 2.702455902871065e+001
1	 1.005018255988954e+000	 2.097217326205241e-001	 2.678419916992544e+001
1	 1.002835793940865e+000	 2.199209794745262e-001	 2.653316972138124e+001
1	 1.000542855631143e+000	 2.301278450974099e-001	 2.627147647994560e+001
1	 9.981388471261151e-001	 2.403406668682315e-001	 2.599914291767415e+001
1	 9.956232052629930e-001	 2.505577605546663e-001	 2.571621056875538e+001
1	 9.929953984199389e-001	 2.607774209541257e-001	 2.542273939814348e+001
1	 9.902549272725891e-001	 2.709979225639719e-001	 2.511880815070716e+001
1	 9.874013255358587e-001	 2.812175202806164e-001	 2.480451467973503e+001
1	 9.844341606898323e-001	 2.914344501272308e-001	 2.447997625365217e+001
1	 9.813530346885656e-001	 3.016469300097511e-001	 2.414532983982395e+001
1	 1.033249600264920e+000	 2.047144927194935e-001	 2.577248262784393e+001
1	 1.031123155447073e+000	 2.151691607766280e-001	 2.555822292027915e+001
1	 1.028884004924326e+000	 2.256333285029850e-001	 2.533448753594658e+001
1	 1.026531508568457e+000	 2.361053128922975e-001	 2.510124816966597e+001
1	 1.024065057018631e+000	 2.465834081378281e-001	 2.485849307810188e+001
1	 1.021484072484157e+000	 2.570658862601133e-001	 2.460622748661091e+001
1	 1.018788009534555e+000	 2.675509977647321e-001	 2.434447397953731e+001
1	 1.015976355875734e+000	 2.780369723299311e-001	 2.407327287278350e+001
1	 1.013048633111059e+000	 2.885220195238799e-001	 2.379268256749241e+001
1	 1.010004397486102e+000	 2.990043295512846e-001	 2.350277988368785e+001
1	 1.006843240615852e+000	 3.094820740290298e-001	 2.320366037273660e+001
1	 1.059408635658941e+000	 2.098973001076576e-001	 2.471504400236388e+001
1	 1.057228355112487e+000	 2.206166515784633e-001	 2.452311042641834e+001
1	 1.054932515462900e+000	 2.313457432239041e-001	 2.432285228751057e+001
1	 1.052520460375683e+000	 2.420828494286582e-001	 2.411420149550008e+001
1	 1.049991565062670e+000	 2.528262211996881e-001	 2.389710543847194e+001
1	 1.047345237105108e+000	 2.635740868098780e-001	 2.367152741858389e+001
1	 1.044580917263728e+000	 2.743246524724556e-001	 2.343744707327464e+001
1	 1.041698080274572e+000	 2.850761030460262e-001	 2.319486078064623e+001
1	 1.038696235629327e+000	 2.958266027699860e-001	 2.294378204783738e+001
1	 1.035574928338934e+000	 3.065742960300392e-001	 2.268424188121148e+001
1	 1.032333739679205e+000	 3.173173081534752e-001	 2.241628913719375e+001
1	 1.085567926100498e+000	 2.150801580274720e-001	 2.382663005551233e+001
1	 1.083333809300356e+000	 2.260641954926754e-001	 2.365332620089646e+001
1	 1.080981279971006e+000	 2.370582136402892e-001	 2.347281160274242e+001
1	 1.078509665571524e+000	 2.480604442455112e-001	 2.328497299185484e+001
1	 1.075918325886272e+000	 2.590690951285747e-001	 2.308971152109850e+001
1	 1.073206653868300e+000	 2.700823508142762e-001	 2.288694323903335e+001
1	 1.070374076469423e+000	 2.810983732230515e-001	 2.267659955097424e+001
1	 1.067420055455696e+000	 2.921153023934179e-001	 2.245862766626007e+001
1	 1.064344088207020e+000	 3.031312572355475e-001	 2.223299103051626e+001
1	 1.061145708499603e+000	 3.141443363156863e-001	 2.199966974169555e+001
1	 1.057824487269989e+000	 3.251526186710684e-001	 2.175866094868779e+001
1	 1.111727425810493e+000	 2.202630574088016e-001	 2.308403776356519e+001
1	 1.109439472325838e+000	 2.315117829859109e-001	 2.292573754391757e+001
1	 1.107030252863060e+000	 2.427707297551455e-001	 2.276130809265239e+001
1	 1.104499078674683e+000	 2.540380868818758e-001	 2.259058582898252e+001
1	 1.101845294117478e+000	 2.653120189992516e-001	 2.241342056341251e+001
1	 1.099068277516187e+000	 2.765906668836241e-001	 2.222967601766968e+001
1	 1.096167442013604e+000	 2.878721481622747e-001	 2.203923033427131e+001
1	 1.093142236405699e+000	 2.991545580532664e-001	 2.184197657447101e+001
1	 1.089992145960496e+000	 3.104359701371768e-001	 2.163782320332150e+001
1	 1.086716693219385e+000	 3.217144371604181e-001	 2.142669456058563e+001
1	 1.083315438779566e+000	 3.329879918697909e-001	 2.120853131622706e+001
1	 1.137887089009828e+000	 2.254459891815113e-001	 2.246619721255302e+001
1	 1.135545298504095e+000	 2.369594045248153e-001	 2.231933841637671e+001
1	 1.133079388553482e+000	 2.484832815714788e-001	 2.216740412144693e+001
1	 1.130488654203866e+000	 2.600157668767713e-001	 2.201017554027148e+001
1	 1.127772424384331e+000	 2.715549818864824e-001	 2.184744626940939e+001
1	 1.124930062791226e+000	 2.830990236282377e-001	 2.167902286395320e+001
1	 1.121960968758237e+000	 2.946459654358806e-001	 2.150472540400260e+001
1	 1.118864578111176e+000	 3.061938577067329e-001	 2.132438805182052e+001
1	 1.115640364006114e+000	 3.177407286914862e-001	 2.113785959834685e+001
1	 1.112287837749558e+000	 3.292845853164264e-001	 2.094500399773563e+001
1	 1.108806549599299e+000	 3.408234140376239e-001	 2.074570088857268e+001
1	 1.164046869919403e+000	 2.306289442754662e-001	 2.195393195657011e+001
1	 1.161651242150283e+000	 2.424070505760348e-001	 2.181501052179212e+001
1	 1.159128641456689e+000	 2.541958590922946e-001	 2.167204366356299e+001
1	 1.156478346677774e+000	 2.659934737692165e-001	 2.152475270856439e+001
1	 1.153699671314873e+000	 2.777979728650303e-001	 2.137287038211663e+001
1	 1.150791964435869e+000	 2.896074096584329e-001	 2.121614144523483e+001
1	 1.147754611565289e+000	 3.014198131896246e-001	 2.105432332617614e+001
1	 1.144587035558720e+000	 3.132331890349774e-001	 2.088718674510173e+001
1	 1.141288697460231e+000	 3.250455201150880e-001	 2.071451633045627e+001
1	 1.137859097341395e+000	 3.368547675359032e-001	 2.053611122564890e+001
1	 1.134297775120553e+000	 3.486588714625484e-001	 2.035178568460542e+001
1	 1.190206722760122e+000	 2.358119136205312e-001	 2.152975095916271e+001
1	 1.187757257579563e+000	 2.478547116062153e-001	 2.139531587594908e+001
1	 1.185177965987098e+000	 2.599084523205985e-001	 2.125784554626071e+001
1	 1.182468110615112e+000	 2.719711970982310e-001	 2.111699692874189e+001
1	 1.179626989537143e+000	 2.840409810096590e-001	 2.097243741553865e+001
1	 1.176653937192574e+000	 2.961158135845260e-001	 2.082384553974190e+001
1	 1.173548325296723e+000	 3.081936795692618e-001	 2.067091167996163e+001
1	 1.170309563734924e+000	 3.202725397191609e-001	 2.051333876057769e+001
1	 1.166937101439205e+000	 3.323503316245950e-001	 2.035084294618329e+001
1	 1.163430427246173e+000	 3.444249705710406e-001	 2.018315432871118e+001
1	 1.159789070734689e+000	 3.564943504325457e-001	 2.001001760570991e+001
1	 1.216366601752886e+000	 2.409948881465710e-001	 2.117766736600612e+001
1	 1.213863299107094e+000	 2.533023780820027e-001	 2.104431612681247e+001
1	 1.211227316559127e+000	 2.656210512593958e-001	 2.090892335570199e+001
1	 1.208457900534584e+000	 2.779489264028339e-001	 2.077107734094198e+001
1	 1.205554333679185e+000	 2.902839953951322e-001	 2.063037585802154e+001
1	 1.202515935803794e+000	 3.026242240168329e-001	 2.048642695510231e+001
1	 1.199342064814506e+000	 3.149675527205473e-001	 2.033884973837926e+001
1	 1.196032117626381e+000	 3.273118974404437e-001	 2.018727515580703e+001
1	 1.192585531059394e+000	 3.396551504366193e-001	 2.003134677760891e+001
1	 1.189001782715169e+000	 3.519951811740304e-001	 1.987072157195134e+001
1	 1.185280391833071e+000	 3.643298372355973e-001	 1.970507067413529e+001
1	 1.242526461118596e+000	 2.461778587834510e-001	 2.088304015694445e+001
1	 1.239969321048035e+000	 2.587500404700431e-001	 2.074741468471592e+001
1	 1.237276647587192e+000	 2.713336459116922e-001	 2.061072807930437e+001
1	 1.234447670954891e+000	 2.839266512220444e-001	 2.047249582088076e+001
1	 1.231481658369039e+000	 2.965270050962132e-001	 2.033224194811530e+001
1	 1.228377915011984e+000	 3.091326295656696e-001	 2.018949992908036e+001
1	 1.225135784980603e+000	 3.217414207892365e-001	 2.004381353497977e+001
1	 1.221754652219686e+000	 3.343512498799867e-001	 1.989473771505828e+001
1	 1.218233941437156e+000	 3.469599637677736e-001	 1.974183947099733e+001
1	 1.214573118999657e+000	 3.595653860970647e-001	 1.958469872905962e+001
1	 1.210771693807061e+000	 3.721653181596841e-001	 1.942290920820510e+001
1	 9.558631665059840e-001	 2.938118898076575e-001	 2.526847142945618e+001
1	 9.527507155138414e-001	 3.037530213952426e-001	 2.488311596937682e+001
1	 9.495265899749483e-001	 3.136862962449286e-001	 2.448756136772404e+001
1	 9.461905054388915e-001	 3.236099293720238e-001	 2.408209076619869e+001
1	 9.427422136050960e-001	 3.335221213151299e-001	 2.366702097172118e+001
1	 9.391815029145866e-001	 3.434210590039753e-001	 2.324270271163903e+001
1	 9.355081991183116e-001	 3.533049166519174e-001	 2.280952083922783e+001
1	 9.317221658209343e-001	 3.631718566724364e-001	 2.236789448798436e+001
1	 9.278233049990163e-001	 3.730200306188906e-001	 2.191827717329775e+001
1	 9.238115574925392e-001	 3.828475801467559e-001	 2.146115684017714e+001
1	 9.196869034687286e-001	 3.926526379975133e-001	 2.099705585581548e+001
1	 9.813530346885656e-001	 3.016469300097511e-001	 2.414532983982395e+001
1	 9.781575844051821e-001	 3.118531603513708e-001	 2.380126516940391e+001
1	 9.748474815655586e-001	 3.220513244408870e-001	 2.344850848962079e+001
1	 9.714224341338947e-001	 3.322395896935919e-001	 2.308728802690168e+001
1	 9.678821871882342e-001	 3.424161086620216e-001	 2.271786096705372e+001
1	 9.642265235280022e-001	 3.525790199269325e-001	 2.234051369942321e+001
1	 9.604552642574868e-001	 3.627264490136036e-001	 2.195556201856339e+001
1	 9.565682693441295e-001	 3.728565093327700e-001	 2.156335128207266e+001
1	 9.525654381505310e-001	 3.829673031454391e-001	 2.116425652333902e+001
1	 9.484467099390737e-001	 3.930569225507893e-001	 2.075868251800468e+001
1	 9.442120643481219e-001	 4.031234504962961e-001	 2.034706380304955e+001
1	 1.006843240615852e+000	 3.094820740290298e-001	 2.320366037273660e+001
1	 1.003564789941372e+000	 3.199534066371333e-001	 2.289617923413196e+001
1	 1.000168708661770e+000	 3.304164634760867e-001	 2.258122253124237e+001
1	 9.966546971557494e-001	 3.408693643605512e-001	 2.225896504998537e+001
1	 9.930224938798730e-001	 3.513102138563777e-001	 2.192960674793478e+001
1	 9.892718759918836e-001	 3.617371021947264e-001	 2.159337299962472e+001
1	 9.854026599493357e-001	 3.721481062121692e-001	 2.125051480528829e+001
1	 9.814147020823928e-001	 3.825412903160630e-001	 2.090130896180890e+001
1	 9.773078991396468e-001	 3.929147074744280e-001	 2.054605819472226e+001
1	 9.730821888058523e-001	 4.032664002295056e-001	 2.018509125017503e+001
1	 9.687375501904938e-001	 4.135944017341220e-001	 1.981876294581744e+001
1	 1.032333739679205e+000	 3.173173081534752e-001	 2.241628913719375e+001
1	 1.028972287659047e+000	 3.280537460765929e-001	 2.214086789958542e+001
1	 1.025490226950689e+000	 3.387816987110449e-001	 2.185895141352829e+001
1	 1.021887250347247e+000	 3.494992382703296e-001	 2.157066238448804e+001
1	 1.018163089683721e+000	 3.602044213330747e-001	 2.127614577049648e+001
1	 1.014317516476093e+000	 3.708952897803031e-001	 2.097556904023719e+001
1	 1.010350342535127e+000	 3.815698717593335e-001	 2.066912239926074e+001
1	 1.006261420553655e+000	 3.922261826735969e-001	 2.035701898317494e+001
1	 1.002050644666225e+000	 4.028622261975743e-001	 2.003949501670824e+001
1	 9.977179509799359e-001	 4.134759953160150e-001	 1.971680993760022e+001
1	 9.932633180753755e-001	 4.240654733865391e-001	 1.938924648433599e+001
1	 1.057824487269989e+000	 3.251526186710684e-001	 2.175866094868779e+001
1	 1.054380033094837e+000	 3.361541644938118e-001	 2.151094192911162e+001
1	 1.050811992119420e+000	 3.471470155062801e-001	 2.125752114671531e+001
1	 1.047120049551180e+000	 3.581291963203556e-001	 2.099847048288985e+001
1	 1.043303930603482e+000	 3.690987155269895e-001	 2.073388197642538e+001
1	 1.039363401150493e+000	 3.800535666566078e-001	 2.046386810551396e+001
1	 1.035298268356127e+000	 3.909917291668158e-001	 2.018856204139510e+001
1	 1.031108381275849e+000	 4.019111694566532e-001	 1.990811787251308e+001
1	 1.026793631430127e+000	 4.128098419065946e-001	 1.962271079810015e+001
1	 1.022353953348383e+000	 4.236856899434282e-001	 1.933253729014879e+001
1	 1.017789325082299e+000	 4.345366471290957e-001	 1.903781522278946e+001
1	 1.083315438779566e+000	 3.329879918697909e-001	 2.120853131622706e+001
1	 1.079787981785381e+000	 3.442546477128530e-001	 2.098430717823322e+001
1	 1.076133959855069e+000	 3.555123992223094e-001	 2.075503259144953e+001
1	 1.072353050610339e+000	 3.667592234080572e-001	 2.052072977561749e+001
1	 1.068444972642865e+000	 3.779930808729982e-001	 2.028143979613600e+001
1	 1.064409486184943e+000	 3.892119167965864e-001	 2.003722288066255e+001
1	 1.060246393753604e+000	 4.004136619463352e-001	 1.978815870973396e+001
1	 1.055955540766905e+000	 4.115962337165134e-001	 1.953434668025753e+001
1	 1.051536816131212e+000	 4.227575371932062e-001	 1.927590614076135e+001
1	 1.046990152798253e+000	 4.338954662448556e-001	 1.901297659733632e+001
1	 1.042315528290796e+000	 4.450079046373393e-001	 1.874571788924959e+001
1	 1.108806549599299e+000	 3.408234140376239e-001	 2.074570088857268e+001
1	 1.105196089267310e+000	 3.523551815577792e-001	 2.054090083228970e+001
1	 1.101456085844741e+000	 3.638778352196508e-001	 2.033160002101205e+001
1	 1.097586209367518e+000	 3.753893044308631e-001	 2.011777208991591e+001
1	 1.093586171805575e+000	 3.868875018059776e-001	 1.989940895474986e+001
1	 1.089455727749307e+000	 3.983703241731845e-001	 1.967652117330227e+001
1	 1.085194675068824e+000	 4.098356536096109e-001	 1.944913828217182e+001
1	 1.080802855544754e+000	 4.212813585044585e-001	 1.921730910763162e+001
1	 1.076280155469341e+000	 4.327052946491252e-001	 1.898110204941039e+001
1	 1.071626506216607e+000	 4.441053063534078e-001	 1.874060533625526e+001
1	 1.066841884780397e+000	 4.554792275868185e-001	 1.849592725218314e+001
1	 1.134297775120553e+000	 3.486588714625484e-001	 2.035178568460542e+001
1	 1.130604311077259e+000	 3.604557518526529e-001	 2.016246318681251e+001
1	 1.126778325775542e+000	 3.722433088588220e-001	 1.996912491303480e+001
1	 1.122819481665506e+000	 3.840194242862013e-001	 1.977169691327012e+001
1	 1.118727484095319e+000	 3.957819627608041e-001	 1.957012366620251e+001
1	 1.114502082013446e+000	 4.075287727593477e-001	 1.936436849542804e+001
1	 1.110143068643055e+000	 4.192576876683624e-001	 1.915441396121249e+001
1	 1.105650282127328e+000	 4.309665268717704e-001	 1.894026222646899e+001
1	 1.101023606144375e+000	 4.426530968660690e-001	 1.872193539567683e+001
1	 1.096262970490503e+000	 4.543151924021958e-001	 1.849947582549962e+001
1	 1.091368351630633e+000	 4.659505976530814e-001	 1.827294640590408e+001
1	 1.159789070734689e+000	 3.564943504325457e-001	 2.001001760570991e+001
1	 1.156012602751863e+000	 3.685563444215371e-001	 1.983233950563851e+001
1	 1.152100635334577e+000	 3.806088055003410e-001	 1.965109955387491e+001
1	 1.148052823347096e+000	 3.926495678714999e-001	 1.946617714373237e+001
1	 1.143868865515805e+000	 4.046764481723542e-001	 1.927747092801277e+001
1	 1.139548505147221e+000	 4.166872465280218e-001	 1.908489929954125e+001
1	 1.135091530817564e+000	 4.286797476343087e-001	 1.888840084644028e+001
1	 1.130497777032559e+000	 4.406517218697299e-001	 1.868793478068989e+001
1	 1.125767124856174e+000	 4.526009264357540e-001	 1.848348133855535e+001
1	 1.120899502507002e+000	 4.645251065243294e-001	 1.827504215149953e+001
1	 1.115894885921037e+000	 4.764219965116759e-001	 1.806264058624045e+001
1	 1.185280391833071e+000	 3.643298372355973e-001	 1.970507067413529e+001
1	 1.181420919827755e+000	 3.766569450884943e-001	 1.953530743145478e+001
1	 1.177422970208952e+000	 3.889743105047254e-001	 1.936243597022266e+001
1	 1.173286190255080e+000	 4.012797200841873e-001	 1.918628989074067e+001
1	 1.169010272070738e+000	 4.135709424755045e-001	 1.900672353841192e+001
1	 1.164594953320496e+000	 4.258457294521522e-001	 1.882361255782211e+001
1	 1.160040017933619e+000	 4.381018170191692e-001	 1.863685441977771e+001
1	 1.155345296778378e+000	 4.503369265496192e-001	 1.844636891966991e+001
1	 1.150510668304600e+000	 4.625487659498976e-001	 1.825209864556809e+001
1	 1.145536059153163e+000	 4.747350308529197e-001	 1.805400941448474e+001
1	 1.140421444731140e+000	 4.868934058381502e-001	 1.785209067529945e+001
1	 1.210771693807061e+000	 3.721653181596841e-001	 1.942290920820510e+001
1	 1.206829217841571e+000	 3.847575396775871e-001	 1.925742618520884e+001
1	 1.202745286085772e+000	 3.973398092324930e-001	 1.908931645754602e+001
1	 1.198519538232249e+000	 4.099098658216918e-001	 1.891836863679268e+001
1	 1.194151659763825e+000	 4.224654301051314e-001	 1.874439419452642e+001
1	 1.189641382703130e+000	 4.350042055046847e-001	 1.856722809890568e+001
1	 1.184988486332486e+000	 4.475238793346628e-001	 1.838672942146291e+001
1	 1.180192797882715e+000	 4.600221239627187e-001	 1.820278191226555e+001
1	 1.175254193189512e+000	 4.724965980002161e-001	 1.801529454163589e+001
1	 1.170172597316046e+000	 4.849449475210771e-001	 1.782420200666277e+001
1	 1.164947985140473e+000	 4.973648073080526e-001	 1.762946520078783e+001
1	 9.196869034687286e-001	 3.926526379975133e-001	 2.099705585581548e+001
1	 9.154500070382964e-001	 4.024318639757796e-001	 2.052763990542341e+001
1	 9.111003186645378e-001	 4.121848497096857e-001	 2.005426314334638e+001
1	 9.066379396471510e-001	 4.219097086716465e-001	 1.957722187241171e+001
1	 9.020630121438826e-001	 4.316045495771123e-001	 1.909681915007976e+001
1	 8.973757194803052e-001	 4.412674774614075e-001	 1.861336468259452e+001
1	 8.925762864264074e-001	 4.508965947721493e-001	 1.812717470906428e+001
1	 8.876649794392210e-001	 4.604900024760815e-001	 1.763857187543958e+001
1	 8.826421068707412e-001	 4.700458011791232e-001	 1.714788509837554e+001
1	 8.775080191404553e-001	 4.795620922583880e-001	 1.665544941898673e+001
1	 8.722631088718381e-001	 4.890369790048946e-001	 1.616160584652615e+001
1	 9.442120643481219e-001	 4.031234504962961e-001	 2.034706380304954e+001
1	 9.398621831981485e-001	 4.131634577139968e-001	 1.993039577331651e+001
1	 9.353965022980482e-001	 4.231765249420750e-001	 1.950946409384678e+001
1	 9.308151256488799e-001	 4.331607153452563e-001	 1.908460561287663e+001
1	 9.261181991993086e-001	 4.431140872044483e-001	 1.865616783878149e+001
1	 9.213059111636404e-001	 4.530346950222970e-001	 1.822450877180900e+001
1	 9.163784923057911e-001	 4.629205906447350e-001	 1.778999671765584e+001
1	 9.113362161883818e-001	 4.727698243973318e-001	 1.735301008288371e+001
1	 9.061793993862046e-001	 4.825804462352117e-001	 1.691393715220908e+001
1	 9.009084016633495e-001	 4.923505069052576e-001	 1.647317584774694e+001
1	 8.955236261133457e-001	 5.020780591192977e-001	 1.603113347032889e+001
1	 9.687375501904938e-001	 4.135944017341220e-001	 1.981876294581744e+001
1	 9.642746828240307e-001	 4.238951936465678e-001	 1.944760313158971e+001
1	 9.596930078607578e-001	 4.341683458149260e-001	 1.907201551794119e+001
1	 9.549926320031290e-001	 4.444118710955526e-001	 1.869236201963638e+001
1	 9.501737049907746e-001	 4.546237773341320e-001	 1.830901873814526e+001
1	 9.452364199267954e-001	 4.648020684999468e-001	 1.792237575136873e+001
1	 9.401810135691121e-001	 4.749447458365617e-001	 1.753283687801574e+001
1	 9.350077665860249e-001	 4.850498090276872e-001	 1.714081941662247e+001
1	 9.297170037752286e-001	 4.951152573769659e-001	 1.674675385926805e+001
1	 9.243090942455402e-001	 5.051390910003677e-001	 1.635108358009968e+001
1	 9.187844515606748e-001	 5.151193120298432e-001	 1.595426449884391e+001
1	 9.932633180753755e-001	 4.240654733865391e-001	 1.938924648433600e+001
1	 9.886874631931889e-001	 4.346270529926760e-001	 1.905703574915891e+001
1	 9.839897928328978e-001	 4.451602930922763e-001	 1.872034940505171e+001
1	 9.791704163983789e-001	 4.556631562327355e-001	 1.837956016459073e+001
1	 9.742294874202677e-001	 4.661335998239209e-001	 1.803505810122907e+001
1	 9.691672038905157e-001	 4.765695773011598e-001	 1.768725041650308e+001
1	 9.639838085611113e-001	 4.869690393050530e-001	 1.733656117554170e+001
1	 9.586795892061150e-001	 4.973299348768570e-001	 1.698343101084058e+001
1	 9.532548788462155e-001	 5.076502126681390e-001	 1.662831679434024e+001
1	 9.477100559350589e-001	 5.179278221633580e-001	 1.627169127792396e+001
1	 9.420455445066669e-001	 5.281607149139946e-001	 1.591404270253022e+001
1	 1.017789325082299e+000	 4.345366471290957e-001	 1.903781522278946e+001
1	 1.013100481582870e+000	 4.453590169715063e-001	 1.873860941789290e+001
1	 1.008286814694700e+000	 4.561523475381651e-001	 1.843497633964047e+001
1	 1.003348436523110e+000	 4.669145510670051e-001	 1.812728632316981e+001
1	 9.982855043897772e-001	 4.776435345315741e-001	 1.781592991026080e+001
1	 9.930982211755461e-001	 4.883372008327391e-001	 1.750131761267538e+001
1	 9.877868356265308e-001	 4.989934500076330e-001	 1.718387963825612e+001
1	 9.823516426226164e-001	 5.096101804545525e-001	 1.686406557968828e+001
1	 9.767929834075642e-001	 5.201852901724832e-001	 1.654234406592009e+001
1	 9.711112457799381e-001	 5.307166780138687e-001	 1.621920237632754e+001
1	 9.653068642441641e-001	 5.412022449492143e-001	 1.589514601780284e+001
1	 1.042315528290796e+000	 4.450079046373393e-001	 1.874571788924960e+001
1	 1.037513695270321e+000	 4.560910668022424e-001	 1.847412998356090e+001
1	 1.032584030926394e+000	 4.671444899166304e-001	 1.819824098990980e+001
1	 1.027526650065803e+000	 4.781660359085613e-001	 1.791840668122611e+001
1	 1.022341713801290e+000	 4.891535613148496e-001	 1.763500557617235e+001
1	 1.017029429902632e+000	 5.001049185014880e-001	 1.734843871651405e+001
1	 1.011590053110111e+000	 5.110179569017253e-001	 1.705912940247039e+001
1	 1.006023885409494e+000	 5.218905242704837e-001	 1.676752288586571e+001
1	 1.000331276267676e+000	 5.327204679537507e-001	 1.647408602100466e+001
1	 9.945126228282096e-001	 5.435056361715400e-001	 1.617930687329557e+001
1	 9.885683700660080e-001	 5.542438793129652e-001	 1.588369428575246e+001
1	 1.066841884780397e+000	 4.554792275868185e-001	 1.849592725218314e+001
1	 1.061927061532788e+000	 4.668231837040687e-001	 1.824707611041101e+001
1	 1.056881399008212e+000	 4.781367009917106e-001	 1.799411130209159e+001
1	 1.051705014714938e+000	 4.894175910676042e-001	 1.773736275249585e+001
1	 1.046398073556794e+000	 5.006636600315061e-001	 1.747718538477653e+001
1	 1.040960788192517e+000	 5.118727097142092e-001	 1.721395892857936e+001
1	 1.035393419356594e+000	 5.230425389447538e-001	 1.694808768258753e+001
1	 1.029696276140712e+000	 5.341709448343606e-001	 1.668000023071058e+001
1	 1.023869716234950e+000	 5.452557240756947e-001	 1.641014911173897e+001
1	 1.017914146127906e+000	 5.562946742560117e-001	 1.613901044239846e+001
1	 1.011830021265040e+000	 5.672855951827097e-001	 1.586708349385278e+001
1	 1.091368351630633e+000	 4.659505976530814e-001	 1.827294640590408e+001
1	 1.086340537647517e+000	 4.775553488961693e-001	 1.804241131884724e+001
1	 1.081178876420385e+000	 4.891289615274444e-001	 1.780799610141277e+001
1	 1.075883488158995e+000	 5.006691968543336e-001	 1.756999436414652e+001
1	 1.070454541558279e+000	 5.121738105393018e-001	 1.732872669864293e+001
1	 1.064892254165948e+000	 5.236405538777059e-001	 1.708454053398358e+001
1	 1.059196892710721e+000	 5.350671750941420e-001	 1.683780994376160e+001
1	 1.053368773390236e+000	 5.464514206558941e-001	 1.658893540326863e+001
1	 1.047408262117787e+000	 5.577910366020672e-001	 1.633834349653755e+001
1	 1.041315774727059e+000	 5.690837698869241e-001	 1.608648657305424e+001
1	 1.035091777134104e+000	 5.803273697359112e-001	 1.583384235407443e+001
1	 1.115894885921037e+000	 4.764219965116759e-001	 1.806264058624045e+001
1	 1.110754080891756e+000	 4.882875435977283e-001	 1.784642079521758e+001
1	 1.105476420643145e+000	 5.001212522878700e-001	 1.762658673196963e+001
1	 1.100062028086456e+000	 5.119208335789502e-001	 1.740338597158275e+001
1	 1.094511075707730e+000	 5.236839926959949e-001	 1.717709480075682e+001
1	 1.088823785943670e+000	 5.354084303987813e-001	 1.694801813808804e+001
1	 1.083000431517234e+000	 5.470918443073142e-001	 1.671648940226146e+001
1	 1.077041335732030e+000	 5.587319302447943e-001	 1.648287032757087e+001
1	 1.070946872724587e+000	 5.703263835966207e-001	 1.624755072630491e+001
1	 1.064717467673700e+000	 5.818729006839174e-001	 1.601094819766285e+001
1	 1.058353596966040e+000	 5.933691801500316e-001	 1.577350778299354e+001
1	 1.140421444731140e+000	 4.868934058381502e-001	 1.785209067529945e+001
1	 1.135167648542750e+000	 4.990197490279299e-001	 1.764656924665737e+001
1	 1.129773989156722e+000	 5.111135540370256e-001	 1.743771911876787e+001
1	 1.124240592185799e+000	 5.231724815516531e-001	 1.722573279253767e+001
1	 1.118567633907137e+000	 5.351941863593439e-001	 1.701083297342126e+001
1	 1.112755341646426e+000	 5.471763186842383e-001	 1.679327257104420e+001
1	 1.106803994120874e+000	 5.591165255416938e-001	 1.657333464470579e+001
1	 1.100713921740058e+000	 5.710124521107712e-001	 1.635133229399474e+001
1	 1.094485506863751e+000	 5.828617431231077e-001	 1.612760849387660e+001
1	 1.088119184015863e+000	 5.946620442666314e-001	 1.590253587373958e+001
1	 1.081615440053690e+000	 6.064110036025346e-001	 1.567651644001825e+001
1	 1.164947985140473e+000	 4.973648073080526e-001	 1.762946520078783e+001
1	 1.159581197877747e+000	 5.097519464059583e-001	 1.743137670130372e+001
1	 1.154071539441347e+000	 5.221058475389500e-001	 1.723025324398838e+001
1	 1.148419138145507e+000	 5.344241210826426e-001	 1.702622384130590e+001
1	 1.142624174058487e+000	 5.467043713871074e-001	 1.681944897928056e+001
1	 1.136686879394964e+000	 5.589441981408801e-001	 1.661012071148144e+001
1	 1.130607538866382e+000	 5.711411977547047e-001	 1.639846269747660e+001
1	 1.124386489988285e+000	 5.832929647635357e-001	 1.618473018478413e+001
1	 1.118024123343679e+000	 5.953970932452810e-001	 1.596920993347269e+001
1	 1.111520882801578e+000	 6.074511782547065e-001	 1.575222008269406e+001
1	 1.104877265689896e+000	 6.194528172708822e-001	 1.553410995856469e+001
1	 8.722631088718381e-001	 4.890369790048946e-001	 1.616160584652615e+001
1	 8.669069994773564e-001	 4.984699794031350e-001	 1.566575242032493e+001
1	 8.614409475685219e-001	 5.078577791162043e-001	 1.516788945575921e+001
1	 8.558654737743154e-001	 5.171984938406529e-001	 1.466906872821651e+001
1	 8.501811411206635e-001	 5.264902458615942e-001	 1.417037509922283e+001
1	 8.443885549780590e-001	 5.357311652289508e-001	 1.367292533026984e+001
1	 8.384883629704415e-001	 5.449193909360232e-001	 1.317786682854811e+001
1	 8.324812548450976e-001	 5.540530720989082e-001	 1.268637632628795e+001
1	 8.263679623034136e-001	 5.631303691352767e-001	 1.219965849559817e+001
1	 8.201492587923700e-001	 5.721494549410070e-001	 1.171894450087175e+001
1	 8.138259592567364e-001	 5.811085160631598e-001	 1.124549049101473e+001
1	 8.955236261133457e-001	 5.020780591192977e-001	 1.603113347032889e+001
1	 8.900246861062579e-001	 5.117626080080405e-001	 1.558778555721100e+001
1	 8.844128717634382e-001	 5.214007508515945e-001	 1.514347025089357e+001
1	 8.786887175973517e-001	 5.309905530979979e-001	 1.469896548324982e+001
1	 8.728528016480038e-001	 5.405300869595506e-001	 1.425507391550931e+001
1	 8.669057454291611e-001	 5.500174326204224e-001	 1.381262210994619e+001
1	 8.608482138348055e-001	 5.594506794466541e-001	 1.337245965111335e+001
1	 8.546809150055599e-001	 5.688279271970237e-001	 1.293545821775729e+001
1	 8.484046001549335e-001	 5.781472872332618e-001	 1.250251060668442e+001
1	 8.420200633552514e-001	 5.874068837280613e-001	 1.207452970998494e+001
1	 8.355281412832462e-001	 5.966048548693306e-001	 1.165244744715348e+001
1	 9.187844515606748e-001	 5.151193120298432e-001	 1.595426449884391e+001
1	 9.131426790481644e-001	 5.250554127421397e-001	 1.555658252240321e+001
1	 9.073851003396591e-001	 5.349439020332116e-001	 1.515849306746203e+001
1	 9.015122638313120e-001	 5.447827951019330e-001	 1.476055067402711e+001
1	 8.955247625774229e-001	 5.545701140871350e-001	 1.436332806262086e+001
1	 8.894232342352665e-001	 5.643038893065866e-001	 1.396741560268572e+001
1	 8.832083609691115e-001	 5.739821604984207e-001	 1.357342074459329e+001
1	 8.768808693131817e-001	 5.836029780634552e-001	 1.318196741591715e+001
1	 8.704415299933851e-001	 5.931644043068414e-001	 1.279369538272234e+001
1	 8.638911577076851e-001	 6.026645146774508e-001	 1.240925957672265e+001
1	 8.572306108650805e-001	 6.121013990034107e-001	 1.202932938925094e+001
1	 9.420455445066669e-001	 5.281607149139946e-001	 1.591404270253023e+001
1	 9.362609378459224e-001	 5.383483703426760e-001	 1.555575298712552e+001
1	 9.303575930951712e-001	 5.484872089601938e-001	 1.519722366509702e+001
1	 9.243360725344286e-001	 5.585751957156878e-001	 1.483883282091359e+001
1	 9.181969842324795e-001	 5.686103026739566e-001	 1.448097187971173e+001
1	 9.119409819903062e-001	 5.785905102858034e-001	 1.412404531412096e+001
1	 9.055687652426796e-001	 5.885138086608936e-001	 1.376847032532806e+001
1	 8.990810789176518e-001	 5.983781988415262e-001	 1.341467649865048e+001
1	 8.924787132537713e-001	 6.081816940757199e-001	 1.306310543395141e+001
1	 8.857625035748910e-001	 6.179223210879754e-001	 1.271421035129810e+001
1	 8.789333300225429e-001	 6.275981213460914e-001	 1.236845567232968e+001
1	 9.653068642441641e-001	 5.412022449492143e-001	 1.589514601780285e+001
1	 9.593794220423776e-001	 5.516414575468932e-001	 1.557048624840312e+001
1	 9.533303098279591e-001	 5.620306479316777e-001	 1.524544419554098e+001
1	 9.471601037649345e-001	 5.723677308024932e-001	 1.492026524810427e+001
1	 9.408694269367316e-001	 5.826506281496252e-001	 1.459520491538952e+001
1	 9.344589492882121e-001	 5.928772705564345e-001	 1.427052871662635e+001
1	 9.279293875248308e-001	 6.030455985036434e-001	 1.394651205209342e+001
1	 9.212815049686621e-001	 6.131535636745614e-001	 1.362344005578899e+001
1	 9.145161113710950e-001	 6.231991302596035e-001	 1.330160742966204e+001
1	 9.076340626820888e-001	 6.331802762584340e-001	 1.298131825945823e+001
1	 9.006362607759364e-001	 6.430949947780623e-001	 1.266288581227773e+001
1	 9.885683700660080e-001	 5.542438793129652e-001	 1.588369428575246e+001
1	 9.824980911803788e-001	 5.649346510920354e-001	 1.558736537925062e+001
1	 9.763032103360101e-001	 5.755741952468014e-001	 1.529027478663921e+001
1	 9.699843175810624e-001	 5.861603762255794e-001	 1.499257608393728e+001
1	 9.635420510137376e-001	 5.966910659437502e-001	 1.469443128592039e+001
1	 9.569770967229156e-001	 6.071641451168405e-001	 1.439601086495518e+001
1	 9.502901886848859e-001	 6.175775045962409e-001	 1.409749375562278e+001
1	 9.434821086159001e-001	 6.279290467058839e-001	 1.379906734486852e+001
1	 9.365536857803576e-001	 6.382166865781973e-001	 1.350092744744715e+001
1	 9.295057967545002e-001	 6.484383534876271e-001	 1.320327826646633e+001
1	 9.223393651455634e-001	 6.585919921800144e-001	 1.290633233886693e+001
1	 1.011830021265040e+000	 5.672855951827097e-001	 1.586708349385278e+001
1	 1.005616904802770e+000	 5.782279277153465e-001	 1.559420699803433e+001
1	 9.992762544173094e-001	 5.891178272047021e-001	 1.532001972076714e+001
1	 9.928086740410455e-001	 5.999531078481775e-001	 1.504462169546173e+001
1	 9.862148167870557e-001	 6.107315914859411e-001	 1.476812117771468e+001
1	 9.794953848883495e-001	 6.214511089653824e-001	 1.449063474218187e+001
1	 9.726511295921650e-001	 6.321095015082566e-001	 1.421228736639878e+001
1	 9.656828510090559e-001	 6.427046220788176e-001	 1.393321250113825e+001
1	 9.585913979165628e-001	 6.532343367512070e-001	 1.365355212692435e+001
1	 9.513776675173451e-001	 6.636965260743545e-001	 1.337345679635048e+001
1	 9.440426051517269e-001	 6.740890864326373e-001	 1.309308566188009e+001
1	 1.035091777134104e+000	 5.803273697359112e-001	 1.583384235407444e+001
1	 1.028735822452400e+000	 5.915212641540699e-001	 1.557992262937411e+001
1	 1.022249401869843e+000	 6.026615201045174e-001	 1.532403434115659e+001
1	 1.015633133203116e+000	 6.137459015335169e-001	 1.506625987311878e+001
1	 1.008887684580245e+000	 6.247721802058077e-001	 1.480669101275050e+001
1	 1.002013774378445e+000	 6.357381371004209e-001	 1.454542907690164e+001
1	 9.950121711159885e-001	 6.466415638092610e-001	 1.428258502252070e+001
1	 9.878836932978198e-001	 6.574802639366864e-001	 1.401827954208575e+001
1	 9.806292092147125e-001	 6.682520544983372e-001	 1.375264314327802e+001
1	 9.732496366958434e-001	 6.789547673174153e-001	 1.348581621248368e+001
1	 9.657459428147288e-001	 6.895862504166215e-001	 1.321794906174301e+001
1	 1.058353596966040e+000	 5.933691801500316e-001	 1.577350778299354e+001
1	 1.051854803672116e+000	 6.048146371454501e-001	 1.553439833670166e+001
1	 1.045222612491598e+000	 6.162052502453843e-001	 1.529260949903066e+001
1	 1.038457655125506e+000	 6.275387331448290e-001	 1.504823972878818e+001
1	 1.031560614716861e+000	 6.388128075329591e-001	 1.480139940734990e+001
1	 1.024532225787134e+000	 6.500252045203179e-001	 1.455221094533150e+001
1	 1.017373274125678e+000	 6.611736660688250e-001	 1.430080886982115e+001
1	 1.010084596631881e+000	 6.722559464228142e-001	 1.404733989169534e+001
1	 1.002667081109809e+000	 6.832698135392944e-001	 1.379196295258313e+001
1	 9.951216660152161e-001	 6.942130505156094e-001	 1.353484925108860e+001
1	 9.874493401548727e-001	 7.050834570126574e-001	 1.327618224792997e+001
1	 1.081615440053690e+000	 6.064110036025346e-001	 1.567651644001825e+001
1	 1.074973808004762e+000	 6.181080234267304e-001	 1.544838987743569e+001
1	 1.068195846080558e+000	 6.297489939264407e-001	 1.521687090246575e+001
1	 1.061282199866449e+000	 6.413315785453437e-001	 1.498210579261070e+001
1	 1.054233567520466e+000	 6.528534488970053e-001	 1.474425654813689e+001
1	 1.047050699708348e+000	 6.643122862234333e-001	 1.450350093386812e+001
1	 1.039734399490552e+000	 6.757057828565188e-001	 1.426003249418072e+001
1	 1.032285522160929e+000	 6.870316436805244e-001	 1.401406054079611e+001
1	 1.024704975036855e+000	 6.982875875937834e-001	 1.376581011302850e+001
1	 1.016993717200683e+000	 7.094713489677370e-001	 1.351552191021076e+001
1	 1.009152759192461e+000	 7.205806791014351e-001	 1.326345219608718e+001
1	 1.104877265689896e+000	 6.194528172708822e-001	 1.553410995856468e+001
1	 1.098092794993187e+000	 6.314013997351550e-001	 1.531343109447764e+001
1	 1.091169062434710e+000	 6.432927274468235e-001	 1.508869117213435e+001
1	 1.084106727484178e+000	 6.551244135982918e-001	 1.486011421727561e+001
1	 1.076906503314615e+000	 6.668940797275553e-001	 1.462794500898618e+001
1	 1.069569156736019e+000	 6.785993572081285e-001	 1.439244901209594e+001
1	 1.062095508079932e+000	 6.902378887419132e-001	 1.415391227275626e+001
1	 1.054486431034654e+000	 7.018073298531413e-001	 1.391264127692972e+001
1	 1.046742852430854e+000	 7.133053503815100e-001	 1.366896277162107e+001
1	 1.038865751977465e+000	 7.247296359725971e-001	 1.342322354876788e+001
1	 1.030856161947795e+000	 7.360778895636447e-001	 1.317579019180341e+001
1	 8.138259592567364e-001	 5.811085160631598e-001	 1.124549049101473e+001
1	 8.073989196223579e-001	 5.900057536711100e-001	 1.078030290311640e+001
1	 8.008690357874088e-001	 5.988393841156299e-001	 1.032363043618226e+001
1	 7.942372439580684e-001	 6.076076406512598e-001	 9.875597386271737e+000
1	 7.875045204774031e-001	 6.163087747742401e-001	 9.436310834550856e+000
1	 7.806718813845675e-001	 6.249410573556360e-001	 9.005860905696778e+000
1	 7.737403819358265e-001	 6.335027797617577e-001	 8.584321057455748e+000
1	 7.667111160878265e-001	 6.419922549603809e-001	 8.171748400692309e+000
1	 7.595852159436007e-001	 6.504078186112841e-001	 7.768184049185071e+000
1	 7.523638511618763e-001	 6.587478301396494e-001	 7.373653498346681e+000
1	 7.450482283302942e-001	 6.670106737908847e-001	 6.988167031965053e+000
1	 8.355281412832462e-001	 5.966048548693306e-001	 1.165244744715348e+001
1	 8.289297126895775e-001	 6.057393538572367e-001	 1.123620791790619e+001
1	 8.222256973632530e-001	 6.148085494782434e-001	 1.082527851041805e+001
1	 8.154170564761907e-001	 6.238106278733666e-001	 1.041988318381869e+001
1	 8.085047924075216e-001	 6.327437939117713e-001	 1.002023728639162e+001
1	 8.014899482910344e-001	 6.416062723541129e-001	 9.626547640351609e+000
1	 7.943736075234262e-001	 6.503963090028356e-001	 9.239012642292787e+000
1	 7.871568932337913e-001	 6.591121718378924e-001	 8.857822378966336e+000
1	 7.798409677148595e-001	 6.677521521363643e-001	 8.483158758003565e+000
1	 7.724270318165429e-001	 6.763145655744852e-001	 8.115195653158986e+000
1	 7.649163243024476e-001	 6.847977533105901e-001	 7.754099063610372e+000
1	 8.572306108650805e-001	 6.121013990034107e-001	 1.202932938925095e+001
1	 8.504607910413642e-001	 6.214731625150546e-001	 1.165313990289793e+001
1	 8.435826419166745e-001	 6.307779264339034e-001	 1.127967896366986e+001
1	 8.365971496289765e-001	 6.400138297868191e-001	 1.090925445973571e+001
1	 8.295053425937876e-001	 6.491790308152675e-001	 1.054217281925495e+001
1	 8.223082910398663e-001	 6.582717081688778e-001	 1.017873894303990e+001
1	 8.150071065046908e-001	 6.672900620856198e-001	 9.819256139923782e+000
1	 8.076029412901695e-001	 6.762323155570230e-001	 9.464026064776192e+000
1	 8.000969878791011e-001	 6.850967154768765e-001	 9.113348659100804e+000
1	 7.924904783129740e-001	 6.938815337718781e-001	 8.767522094141150e+000
1	 7.847846835317627e-001	 7.025850685127173e-001	 8.426842716414397e+000
1	 8.789333300225429e-001	 6.275981213460914e-001	 1.236845567232968e+001
1	 8.719921169979256e-001	 6.372071521100241e-001	 1.202464720699905e+001
1	 8.649398320725696e-001	 6.467474870358032e-001	 1.168152520965167e+001
1	 8.577774863507546e-001	 6.562172180355882e-001	 1.133946725918733e+001
1	 8.505061342846643e-001	 6.656144567226070e-001	 1.099885525061779e+001
1	 8.431268731983189e-001	 6.749373356349260e-001	 1.066007519588058e+001
1	 8.356408427702822e-001	 6.841840094455123e-001	 1.032351701679564e+001
1	 8.280492244755902e-001	 6.933526561569474e-001	 9.989574330359366e+000
1	 8.203532409874395e-001	 7.024414782792147e-001	 9.658644226587612e+000
1	 8.125541555392345e-001	 7.114487039889694e-001	 9.331127039139039e+000
1	 8.046532712476672e-001	 7.203725882687514e-001	 9.007426108970378e+000
1	 9.006362607759364e-001	 6.430949947780623e-001	 1.266288581227772e+001
1	 8.935236528794699e-001	 6.529412951076056e-001	 1.234489988564337e+001
1	 8.862972304558356e-001	 6.627172033371349e-001	 1.202602200378472e+001
1	 8.789580295758553e-001	 6.724207642636473e-001	 1.170668654958200e+001
1	 8.715071307286160e-001	 6.820500428716689e-001	 1.138733669436014e+001
1	 8.639456583336481e-001	 6.916031255872529e-001	 1.106842408599241e+001
1	 8.562747802108592e-001	 7.010781215179124e-001	 1.075040852088874e+001
1	 8.484957070086822e-001	 7.104731636768402e-001	 1.043375760027969e+001
1	 8.406096915909896e-001	 7.197864101897744e-001	 1.011894637124998e+001
1	 8.326180283833888e-001	 7.290160454828978e-001	 9.806456953013317e+000
1	 8.245220526795862e-001	 7.381602814501764e-001	 9.496778148962985e+000
1	 9.223393651455634e-001	 6.585919921800144e-001	 1.290633233886693e+001
1	 9.150553610062056e-001	 6.686755639732592e-001	 1.260861648313263e+001
1	 9.076547996913685e-001	 6.786870473910930e-001	 1.230882520370320e+001
1	 9.001387422386069e-001	 6.886244401149673e-001	 1.200743802502890e+001
1	 8.925082951741051e-001	 6.984857605003322e-001	 1.170494649279414e+001
1	 8.847646100131097e-001	 7.082690488608533e-001	 1.140185376742968e+001
1	 8.769088827170830e-001	 7.179723687382210e-001	 1.109867419546155e+001
1	 8.689423531080759e-001	 7.275938081558755e-001	 1.079593285929505e+001
1	 8.608663042408664e-001	 7.371314808549521e-001	 1.049416510609230e+001
1	 8.526820617335016e-001	 7.465835275108047e-001	 1.019391605645488e+001
1	 8.443909930569482e-001	 7.559481169284779e-001	 9.895740093679645e+000
1	 9.440426051517269e-001	 6.740890864326373e-001	 1.309308566188008e+001
1	 9.365872036983388e-001	 6.844099311724453e-001	 1.281100090794684e+001
1	 9.290125024040664e-001	 6.946569912508703e-001	 1.252598983370428e+001
1	 9.213195872733394e-001	 7.048282172335207e-001	 1.223856655449469e+001
1	 9.135095908695964e-001	 7.149215808464764e-001	 1.194925925847209e+001
1	 9.055836918039592e-001	 7.249350762907215e-001	 1.165860972271535e+001
1	 8.975431141796130e-001	 7.348667215418383e-001	 1.136717280325620e+001
1	 8.893891269924004e-001	 7.447145596332283e-001	 1.107551589978167e+001
1	 8.811230434881836e-001	 7.544766599211421e-001	 1.078421839583647e+001
1	 8.727462204776373e-001	 7.641511193298295e-001	 1.049387107541813e+001
1	 8.642600576091790e-001	 7.737360635751406e-001	 1.020507551692087e+001
1	 9.657459428147288e-001	 6.895862504166215e-001	 1.321794906174301e+001
1	 9.581191432760791e-001	 7.001443691706241e-001	 1.294768781428740e+001
1	 9.503703012188257e-001	 7.106270069696601e-001	 1.267392514766181e+001
1	 9.425005276143821e-001	 7.210320672632804e-001	 1.239720022918904e+001
1	 9.345109810635532e-001	 7.313574751479801e-001	 1.211806722245037e+001
1	 9.264028672734521e-001	 7.416011787118533e-001	 1.183709474234721e+001
1	 9.181774384891096e-001	 7.517611503641648e-001	 1.155486528220927e+001
1	 9.098359928802851e-001	 7.618353881480728e-001	 1.127197461383859e+001
1	 9.013798738840571e-001	 7.718219170347401e-001	 1.098903116145156e+001
1	 8.928104695038603e-001	 7.817187901971132e-001	 1.070665535055218e+001
1	 8.841292115657057e-001	 7.915240902616486e-001	 1.042547893283845e+001
1	 9.874493401548727e-001	 7.050834570126574e-001	 1.327618224792997e+001
1	 9.796511420596337e-001	 7.158788504332553e-001	 1.301469518194434e+001
1	 9.717281587605429e-001	 7.265970666006559e-001	 1.274935561432752e+001
1	 9.636815261960641e-001	 7.372359618482176e-001	 1.248071914824795e+001
1	 9.555124290044385e-001	 7.477934146427221e-001	 1.220935622685311e+001
1	 9.472220999888442e-001	 7.582673269592433e-001	 1.193585154285954e+001
1	 9.388118195362328e-001	 7.686556256406014e-001	 1.166080342030256e+001
1	 9.302829149903598e-001	 7.789562637395833e-001	 1.138482316943986e+001
1	 9.216367599796002e-001	 7.891672218421419e-001	 1.110853441587414e+001
1	 9.128747737002358e-001	 7.992865093697955e-001	 1.083257240503243e+001
1	 9.039984201559549e-001	 8.093121658594877e-001	 1.055758328320674e+001
1	 1.009152759192461e+000	 7.205806791014351e-001	 1.326345219608718e+001
1	 1.001183162369211e+000	 7.316133474258008e-001	 1.300838301147065e+001
1	 9.930860376541154e-001	 7.425671421970512e-001	 1.274928693397187e+001
1	 9.848625459527152e-001	 7.534398726323051e-001	 1.248672822981603e+001
1	 9.765138979407163e-001	 7.642293705685814e-001	 1.222128481343393e+001
1	 9.680413535173916e-001	 7.749334918678867e-001	 1.195354762645595e+001
1	 9.594462212116428e-001	 7.855501178065477e-001	 1.168411999089986e+001
1	 9.507298575412535e-001	 7.960771564469348e-001	 1.141361693762288e+001
1	 9.418936663259282e-001	 8.065125439897427e-001	 1.114266451117715e+001
1	 9.329390979548276e-001	 8.168542461050162e-001	 1.087189905227393e+001
1	 9.238676486093538e-001	 8.271002592401421e-001	 1.060196645912351e+001
1	 1.030856161947795e+000	 7.360778895636447e-001	 1.317579019180341e+001
1	 1.022715166525019e+000	 7.473478326137195e-001	 1.292541723394984e+001
1	 1.014443900524439e+000	 7.585372058120380e-001	 1.267097634530513e+001
1	 1.006043549818665e+000	 7.696437712595147e-001	 1.241303345463257e+001
1	 9.975153511208504e-001	 7.806653141634373e-001	 1.215216595212845e+001
1	 9.888605914263493e-001	 7.915996442727785e-001	 1.188896205205381e+001
1	 9.800806074060003e-001	 8.024445972974047e-001	 1.162402013345410e+001
1	 9.711767847515960e-001	 8.131980363093015e-001	 1.135794806009100e+001
1	 9.621505574741556e-001	 8.238578531239378e-001	 1.109136248076882e+001
1	 9.530034071557008e-001	 8.344219696599167e-001	 1.082488811129340e+001
1	 9.437368621553292e-001	 8.448883392750972e-001	 1.055915699935427e+001
1	 7.450482283302942e-001	 6.670106737908847e-001	 6.988167031965048e+000
1	 7.376407085647760e-001	 6.751935382033578e-001	 6.610786579653935e+000
1	 7.301414800067997e-001	 6.832961067697868e-001	 6.240730636938594e+000
1	 7.225518559652614e-001	 6.913168456532408e-001	 5.878396248831227e+000
1	 7.148731837902085e-001	 6.992542498395045e-001	 5.524169190745159e+000
1	 7.071068440770070e-001	 7.071068440770069e-001	 5.178423833714879e+000
1	 6.992542498395046e-001	 7.148731837902086e-001	 4.841523028096605e+000
1	 6.913168456532407e-001	 7.225518559652614e-001	 4.513818005767187e+000
1	 6.832961067697868e-001	 7.301414800067997e-001	 4.195648300790809e+000
1	 6.751935382033579e-001	 7.376407085647760e-001	 3.887341688479850e+000
1	 6.670106737908847e-001	 7.450482283302943e-001	 3.589214142729913e+000
1	 7.649163243024476e-001	 6.847977533105901e-001	 7.754099063610376e+000
1	 7.573112692520885e-001	 6.931988290128908e-001	 7.399065849089981e+000
1	 7.496120598240782e-001	 7.015174676312072e-001	 7.049403547718383e+000
1	 7.418200443491130e-001	 7.097520944260171e-001	 6.705592590939224e+000
1	 7.339366061068124e-001	 7.179011642491269e-001	 6.368104232971104e+000
1	 7.259631625086618e-001	 7.259631625086618e-001	 6.037400255497996e+000
1	 7.179011642491264e-001	 7.339366061068126e-001	 5.713932687759336e+000
1	 7.097520944260168e-001	 7.418200443491130e-001	 5.398143542405332e+000
1	 7.015174676312068e-001	 7.496120598240780e-001	 5.090464567444576e+000
1	 6.931988290128908e-001	 7.573112692520886e-001	 4.791317014569795e+000
1	 6.847977533105903e-001	 7.649163243024477e-001	 4.501111424109834e+000
1	 7.847846835317627e-001	 7.025850685127173e-001	 8.426842716414397e+000
1	 7.769820905793919e-001	 7.112043583964481e-001	 8.090518144239782e+000
1	 7.690828976316781e-001	 7.197390699298709e-001	 7.757828880950036e+000
1	 7.610884880415944e-001	 7.281875874703213e-001	 7.429326168382194e+000
1	 7.530002810188171e-001	 7.365483257350832e-001	 7.105554054119644e+000
1	 7.448197307914483e-001	 7.448197307914483e-001	 6.787048955049261e+000
1	 7.365483257350833e-001	 7.530002810188171e-001	 6.474339233352406e+000
1	 7.281875874703212e-001	 7.610884880415944e-001	 6.167944785603588e+000
1	 7.197390699298712e-001	 7.690828976316783e-001	 5.868376645619897e+000
1	 7.112043583964484e-001	 7.769820905793919e-001	 5.576136601667900e+000
1	 7.025850685127173e-001	 7.847846835317627e-001	 5.291716828603489e+000
1	 8.046532712476672e-001	 7.203725882687514e-001	 9.007426108970376e+000
1	 7.966531381217792e-001	 7.292100948435913e-001	 8.686666515216276e+000
1	 7.885539593546564e-001	 7.379608817771644e-001	 8.368015984253631e+000
1	 7.803571533219557e-001	 7.466232925231846e-001	 8.052085030537079e+000
1	 7.720641751638337e-001	 7.551957016639452e-001	 7.739478853476626e+000
1	 7.636765159254422e-001	 7.636765159254418e-001	 7.430796778202240e+000
1	 7.551957016639452e-001	 7.720641751638339e-001	 7.126631705902383e+000
1	 7.466232925231846e-001	 7.803571533219557e-001	 6.827569574684001e+000
1	 7.379608817771644e-001	 7.885539593546562e-001	 6.534188831871586e+000
1	 7.292100948435912e-001	 7.966531381217792e-001	 6.247059918638952e+000
1	 7.203725882687513e-001	 8.046532712476668e-001	 5.966744767832195e+000
1	 8.245220526795862e-001	 7.381602814501764e-001	 9.496778148962985e+000
1	 8.163243774543456e-001	 7.472160068438808e-001	 9.188887099262932e+000
1	 8.080252109180682e-001	 7.561828712844724e-001	 8.881780422534128e+000
1	 7.996260064694477e-001	 7.650591773216392e-001	 8.576117306263491e+000
1	 7.911282551794755e-001	 7.738432594022843e-001	 8.272553403438337e+000
1	 7.825334849107183e-001	 7.825334849107182e-001	 7.971740167902557e+000
1	 7.738432594022845e-001	 7.911282551794753e-001	 7.674324196529849e+000
1	 7.650591773216392e-001	 7.996260064694477e-001	 7.380946579395072e+000
1	 7.561828712844722e-001	 8.080252109180682e-001	 7.092242259104136e+000
1	 7.472160068438808e-001	 8.163243774543455e-001	 6.808839400419878e+000
1	 7.381602814501764e-001	 8.245220526795862e-001	 6.531358771297685e+000
1	 8.443909930569482e-001	 7.559481169284779e-001	 9.895740093679644e+000
1	 8.359957741521835e-001	 7.652220628868781e-001	 9.598426291372388e+000
1	 8.274966182469707e-001	 7.744050065631816e-001	 9.300766661006087e+000
1	 8.188950137633203e-001	 7.834952096027164e-001	 9.003459313395116e+000
1	 8.101924877033535e-001	 7.924909663166712e-001	 8.707200511353841e+000
1	 8.013906047473510e-001	 8.013906047473510e-001	 8.412683916164252e+000
1	 7.924909663166713e-001	 8.101924877033534e-001	 8.120599838198908e+000
1	 7.834952096027162e-001	 8.188950137633202e-001	 7.831634493080224e+000
1	 7.744050065631813e-001	 8.274966182469704e-001	 7.546469264741575e+000
1	 7.652220628868780e-001	 8.359957741521834e-001	 7.265779976741316e+000
1	 7.559481169284781e-001	 8.443909930569481e-001	 6.990236173158194e+000
1	 8.642600576091790e-001	 7.737360635751406e-001	 1.020507551692087e+001
1	 8.556672937903875e-001	 7.832282314621443e-001	 9.916415547958248e+000
1	 8.469681472664187e-001	 7.926272557246766e-001	 9.626467621392582e+000
1	 8.381641414828237e-001	 8.019313571034474e-001	 9.335959793372165e+000
1	 8.292568393730803e-001	 8.111387897736772e-001	 9.045619868693700e+000
1	 8.202478424354156e-001	 8.202478424354154e-001	 8.756174574116344e+000
1	 8.111387897736770e-001	 8.292568393730803e-001	 8.468348733258736e+000
1	 8.019313571034478e-001	 8.381641414828240e-001	 8.182864444627086e+000
1	 7.926272557246764e-001	 8.469681472664185e-001	 7.900440264312696e+000
1	 7.832282314621443e-001	 8.556672937903874e-001	 7.621790394887604e+000
1	 7.737360635751404e-001	 8.642600576091787e-001	 7.347623882010455e+000
1	 8.841292115657057e-001	 7.915240902616486e-001	 1.042547893283845e+001
1	 8.753389019440514e-001	 8.012344810592407e-001	 1.014388419568660e+001
1	 8.664397639014685e-001	 8.108495868803437e-001	 9.860241602867603e+000
1	 8.574333559072089e-001	 8.203675875608653e-001	 9.575300880185322e+000
1	 8.483212768262674e-001	 8.297866971398730e-001	 9.289813012707905e+000
1	 8.391051649749869e-001	 8.391051649749869e-001	 9.004529359947469e+000
1	 8.297866971398730e-001	 8.483212768262672e-001	 8.720200770136611e+000
1	 8.203675875608647e-001	 8.574333559072087e-001	 8.437576695282971e+000
1	 8.108495868803441e-001	 8.664397639014688e-001	 8.157404308682397e+000
1	 8.012344810592408e-001	 8.753389019440514e-001	 7.880427626563931e+000
1	 7.915240902616488e-001	 8.841292115657058e-001	 7.607386635530260e+000
1	 9.039984201559549e-001	 8.093121658594877e-001	 1.055758328320674e+001
1	 8.950105641882689e-001	 8.192407801677287e-001	 1.028177055218784e+001
1	 8.859114340771768e-001	 8.290719681415687e-001	 1.000332697293095e+001
1	 8.767026233157251e-001	 8.388038687119999e-001	 9.723016305754326e+000
1	 8.673857667005268e-001	 8.484346557818302e-001	 9.441604998306683e+000
1	 8.579625393661392e-001	 8.579625393661392e-001	 9.159861256980294e+000
1	 8.484346557818305e-001	 8.673857667005271e-001	 8.878554115015612e+000
1	 8.388038687120000e-001	 8.767026233157254e-001	 8.598452499081031e+000
1	 8.290719681415686e-001	 8.859114340771765e-001	 8.320324296118690e+000
1	 8.192407801677285e-001	 8.950105641882691e-001	 8.044935422244215e+000
1	 8.093121658594878e-001	 9.039984201559550e-001	 7.773048895483993e+000
1	 9.238676486093538e-001	 8.271002592401421e-001	 1.060196645912351e+001
1	 9.146822460981339e-001	 8.372470972771690e-001	 1.033093161262895e+001
1	 9.053831237185985e-001	 8.472943676197365e-001	 1.005685496373441e+001
1	 8.959719099876236e-001	 8.572401682938835e-001	 9.780507257525745e+000
1	 8.864502756334715e-001	 8.670826330661203e-001	 9.502663275119264e+000
1	 8.768199326089481e-001	 8.768199326089481e-001	 9.224100875080920e+000
1	 8.670826330661202e-001	 8.864502756334713e-001	 8.945600029207281e+000
1	 8.572401682938836e-001	 8.959719099876237e-001	 8.667941854526914e+000
1	 8.472943676197366e-001	 9.053831237185989e-001	 8.391907643391225e+000
1	 8.372470972771690e-001	 9.146822460981339e-001	 8.118277893528903e+000
1	 8.271002592401424e-001	 9.238676486093539e-001	 7.847831339936867e+000
1	 9.437368621553292e-001	 8.448883392750972e-001	 1.055915699935427e+001
1	 9.343539132487400e-001	 8.552534008771232e-001	 1.029215151337333e+001
1	 9.248547987507910e-001	 8.655167534262337e-001	 1.002186085289893e+001
1	 9.152411822021542e-001	 8.756764540435483e-001	 9.749056234086273e+000
1	 9.055147702627122e-001	 8.857305963593138e-001	 9.474514181371111e+000
1	 8.956773117034881e-001	 8.956773117034879e-001	 9.199015552121766e+000
1	 8.857305963593135e-001	 9.055147702627118e-001	 8.923344553396435e+000
1	 8.756764540435483e-001	 9.152411822021546e-001	 8.648287752709695e+000
1	 8.655167534262336e-001	 9.248547987507910e-001	 8.374633084727890e+000
1	 8.552534008771232e-001	 9.343539132487404e-001	 8.103168855823411e+000
1	 8.448883392750972e-001	 9.437368621553289e-001	 7.834682748422515e+000
1	 6.670106737908847e-001	 7.450482283302943e-001	 3.589214142729915e+000
1	 6.587478301396494e-001	 7.523638511618765e-001	 3.301965769065865e+000
1	 6.504078186112842e-001	 7.595852159436007e-001	 3.025970666750525e+000
1	 6.419922549603809e-001	 7.667111160878266e-001	 2.760889923223469e+000
1	 6.335027797617576e-001	 7.737403819358266e-001	 2.506351963201031e+000
1	 6.249410573556360e-001	 7.806718813845673e-001	 2.261953721569847e+000
1	 6.163087747742402e-001	 7.875045204774029e-001	 2.027261864881568e+000
1	 6.076076406512597e-001	 7.942372439580682e-001	 1.801814058485921e+000
1	 5.988393841156297e-001	 8.008690357874089e-001	 1.585120276247273e+000
1	 5.900057536711102e-001	 8.073989196223580e-001	 1.376664149700371e+000
1	 5.811085160631598e-001	 8.138259592567366e-001	 1.175904353425725e+000
1	 6.847977533105903e-001	 7.649163243024477e-001	 4.501111424109835e+000
1	 6.763145655744852e-001	 7.724270318165427e-001	 4.220084666032005e+000
1	 6.677521521363645e-001	 7.798409677148591e-001	 3.948237914358298e+000
1	 6.591121718378921e-001	 7.871568932337911e-001	 3.685469200052187e+000
1	 6.503963090028354e-001	 7.943736075234261e-001	 3.431647426948413e+000
1	 6.416062723541127e-001	 8.014899482910342e-001	 3.186613132252345e+000
1	 6.327437939117713e-001	 8.085047924075214e-001	 2.950179292166999e+000
1	 6.238106278733668e-001	 8.154170564761906e-001	 2.722132170569270e+000
1	 6.148085494782432e-001	 8.222256973632529e-001	 2.502232208557950e+000
1	 6.057393538572367e-001	 8.289297126895776e-001	 2.290214952613785e+000
1	 5.966048548693305e-001	 8.355281412832460e-001	 2.085792019029024e+000
1	 7.025850685127173e-001	 7.847846835317627e-001	 5.291716828603488e+000
1	 6.938815337718784e-001	 7.924904783129741e-001	 5.014969010133949e+000
1	 6.850967154768765e-001	 8.000969878791007e-001	 4.745584726427446e+000
1	 6.762323155570231e-001	 8.076029412901697e-001	 4.483662836331353e+000
1	 6.672900620856199e-001	 8.150071065046909e-001	 4.229276401582586e+000
1	 6.582717081688777e-001	 8.223082910398660e-001	 3.982473089972944e+000
1	 6.491790308152675e-001	 8.295053425937875e-001	 3.743275620166098e+000
1	 6.400138297868191e-001	 8.365971496289766e-001	 3.511682246854454e+000
1	 6.307779264339032e-001	 8.435826419166744e-001	 3.287667284853178e+000
1	 6.214731625150546e-001	 8.504607910413643e-001	 3.071181670641540e+000
1	 6.121013990034108e-001	 8.572306108650805e-001	 2.862153559778205e+000
1	 7.203725882687513e-001	 8.046532712476668e-001	 5.966744767832198e+000
1	 7.114487039889692e-001	 8.125541555392345e-001	 5.692777156860035e+000
1	 7.024414782792146e-001	 8.203532409874392e-001	 5.424592634973074e+000
1	 6.933526561569472e-001	 8.280492244755902e-001	 5.162457545380489e+000
1	 6.841840094455125e-001	 8.356408427702823e-001	 4.906615572062666e+000
1	 6.749373356349260e-001	 8.431268731983186e-001	 4.657287837803282e+000
1	 6.656144567226071e-001	 8.505061342846643e-001	 4.414673040386205e+000
1	 6.562172180355884e-001	 8.577774863507547e-001	 4.178947626308722e+000
1	 6.467474870358031e-001	 8.649398320725701e-001	 3.950266001275404e+000
1	 6.372071521100242e-001	 8.719921169979257e-001	 3.728760776648523e+000
1	 6.275981213460913e-001	 8.789333300225430e-001	 3.514543050948680e+000
1	 7.381602814501764e-001	 8.245220526795862e-001	 6.531358771297686e+000
1	 7.290160454828978e-001	 8.326180283833887e-001	 6.259073791299289e+000
1	 7.197864101897744e-001	 8.406096915909893e-001	 5.991208714569556e+000
1	 7.104731636768403e-001	 8.484957070086823e-001	 5.728166530052522e+000
1	 7.010781215179122e-001	 8.562747802108590e-001	 5.470330525354363e+000
1	 6.916031255872529e-001	 8.639456583336480e-001	 5.218064129257076e+000
1	 6.820500428716689e-001	 8.715071307286159e-001	 4.971710788897251e+000
1	 6.724207642636472e-001	 8.789580295758553e-001	 4.731593881523533e+000
1	 6.627172033371349e-001	 8.862972304558358e-001	 4.498016660659527e+000
1	 6.529412951076056e-001	 8.935236528794698e-001	 4.271262236417546e+000
1	 6.430949947780623e-001	 9.006362607759364e-001	 4.051593589623698e+000
1	 7.559481169284781e-001	 8.443909930569481e-001	 6.990236173158192e+000
1	 7.465835275108046e-001	 8.526820617335015e-001	 6.718899648416754e+000
1	 7.371314808549523e-001	 8.608663042408662e-001	 6.450820100852057e+000
1	 7.275938081558755e-001	 8.689423531080758e-001	 6.186508595591191e+000
1	 7.179723687382209e-001	 8.769088827170829e-001	 5.926459285326498e+000
1	 7.082690488608531e-001	 8.847646100131094e-001	 5.671149044584995e+000
1	 6.984857605003324e-001	 8.925082951741054e-001	 5.421037135146730e+000
1	 6.886244401149672e-001	 9.001387422386068e-001	 5.176564902987568e+000
1	 6.786870473910929e-001	 9.076547996913688e-001	 4.938155507041842e+000
1	 6.686755639732592e-001	 9.150553610062054e-001	 4.706213680001355e+000
1	 6.585919921800143e-001	 9.223393651455637e-001	 4.481125521285425e+000
1	 7.737360635751404e-001	 8.642600576091787e-001	 7.347623882010452e+000
1	 7.641511193298297e-001	 8.727462204776373e-001	 7.076831622473930e+000
1	 7.544766599211421e-001	 8.811230434881837e-001	 6.808318236733348e+000
1	 7.447145596332284e-001	 8.893891269924004e-001	 6.542676356876107e+000
1	 7.348667215418384e-001	 8.975431141796132e-001	 6.280484332462367e+000
1	 7.249350762907216e-001	 9.055836918039592e-001	 6.022305701699312e+000
1	 7.149215808464765e-001	 9.135095908695964e-001	 5.768688690226473e+000
1	 7.048282172335211e-001	 9.213195872733393e-001	 5.520165738257107e+000
1	 6.946569912508702e-001	 9.290125024040665e-001	 5.277253056745815e+000
1	 6.844099311724451e-001	 9.365872036983388e-001	 5.040450213177985e+000
1	 6.740890864326371e-001	 9.440426051517269e-001	 4.810239747499096e+000
1	 7.915240902616488e-001	 8.841292115657058e-001	 7.607386635530260e+000
1	 7.817187901971133e-001	 8.928104695038603e-001	 7.337034776528262e+000
1	 7.718219170347404e-001	 9.013798738840566e-001	 7.068154461254101e+000
1	 7.618353881480726e-001	 9.098359928802852e-001	 6.801395254541688e+000
1	 7.517611503641647e-001	 9.181774384891093e-001	 6.537394918704491e+000
1	 7.416011787118532e-001	 9.264028672734520e-001	 6.276778764829153e+000
1	 7.313574751479801e-001	 9.345109810635528e-001	 6.020159028118296e+000
1	 7.210320672632805e-001	 9.425005276143821e-001	 5.768134268306084e+000
1	 7.106270069696604e-001	 9.503703012188259e-001	 5.521288796102044e+000
1	 7.001443691706238e-001	 9.581191432760791e-001	 5.280192126549697e+000
1	 6.895862504166215e-001	 9.657459428147289e-001	 5.045398460113733e+000
1	 8.093121658594878e-001	 9.039984201559550e-001	 7.773048895483993e+000
1	 7.992865093697956e-001	 9.128747737002357e-001	 7.503307497439519e+000
1	 7.891672218421421e-001	 9.216367599796003e-001	 7.234388272206870e+000
1	 7.789562637395834e-001	 9.302829149903599e-001	 6.966974793179506e+000
1	 7.686556256406014e-001	 9.388118195362331e-001	 6.701741169632954e+000
1	 7.582673269592434e-001	 9.472220999888442e-001	 6.439351319588050e+000
1	 7.477934146427221e-001	 9.555124290044386e-001	 6.180458263134365e+000
1	 7.372359618482176e-001	 9.636815261960642e-001	 5.925703437429267e+000
1	 7.265970666006560e-001	 9.717281587605431e-001	 5.675716034525569e+000
1	 7.158788504332554e-001	 9.796511420596339e-001	 5.431112363121087e+000
1	 7.050834570126574e-001	 9.874493401548725e-001	 5.192495235255027e+000
1	 8.271002592401424e-001	 9.238676486093539e-001	 7.847831339936867e+000
1	 8.168542461050162e-001	 9.329390979548276e-001	 7.579120827663149e+000
1	 8.065125439897430e-001	 9.418936663259283e-001	 7.310729364787371e+000
1	 7.960771564469348e-001	 9.507298575412534e-001	 7.043353171836590e+000
1	 7.855501178065477e-001	 9.594462212116431e-001	 6.777681209601211e+000
1	 7.749334918678870e-001	 9.680413535173917e-001	 6.514394413405912e+000
1	 7.642293705685817e-001	 9.765138979407164e-001	 6.254164944223025e+000
1	 7.534398726323051e-001	 9.848625459527152e-001	 5.997655457948484e+000
1	 7.425671421970508e-001	 9.930860376541151e-001	 5.745518394110934e+000
1	 7.316133474258006e-001	 1.001183162369211e+000	 5.498395285227872e+000
1	 7.205806791014349e-001	 1.009152759192461e+000	 5.256916087965522e+000
1	 8.448883392750972e-001	 9.437368621553289e-001	 7.834682748422515e+000
1	 8.344219696599167e-001	 9.530034071557008e-001	 7.567652831516111e+000
1	 8.238578531239381e-001	 9.621505574741556e-001	 7.300574362986148e+000
1	 8.131980363093013e-001	 9.711767847515960e-001	 7.034136280041620e+000
1	 8.024445972974045e-001	 9.800806074060000e-001	 6.769022337459133e+000
1	 7.915996442727785e-001	 9.888605914263495e-001	 6.505910341625282e+000
1	 7.806653141634374e-001	 9.975153511208504e-001	 6.245471397769250e+000
1	 7.696437712595143e-001	 1.006043549818665e+000	 5.988369171732899e+000
1	 7.585372058120381e-001	 1.014443900524439e+000	 5.735259167581693e+000
1	 7.473478326137194e-001	 1.022715166525019e+000	 5.486788022313877e+000
1	 7.360778895636446e-001	 1.030856161947795e+000	 5.243592818876278e+000
1	 5.811085160631598e-001	 8.138259592567366e-001	 1.175904353425725e+000
1	 5.721494549410069e-001	 8.201492587923700e-001	 9.826686188427852e-001
1	 5.631303691352768e-001	 8.263679623034137e-001	 7.975196753586601e-001
1	 5.540530720989082e-001	 8.324812548450976e-001	 6.209849657314825e-001
1	 5.449193909360233e-001	 8.384883629704416e-001	 4.535703073691697e-001
1	 5.357311652289508e-001	 8.443885549780590e-001	 2.957593260974635e-001
1	 5.264902458615941e-001	 8.501811411206632e-001	 1.480129310859585e-001
1	 5.171984938406530e-001	 8.558654737743153e-001	 1.076883159086758e-002
1	 5.078577791162044e-001	 8.614409475685220e-001	-1.155589039377219e-001
1	 4.984699794031350e-001	 8.669069994773565e-001	-2.305802459400199e-001
1	 4.890369790048946e-001	 8.722631088718381e-001	-3.339295586962870e-001
1	 5.966048548693305e-001	 8.355281412832460e-001	 2.085792019029024e+000
1	 5.874068837280612e-001	 8.420200633552515e-001	 1.889090834707104e+000
1	 5.781472872332619e-001	 8.484046001549332e-001	 1.700643107527097e+000
1	 5.688279271970236e-001	 8.546809150055600e-001	 1.520733402132484e+000
1	 5.594506794466541e-001	 8.608482138348056e-001	 1.349624649407281e+000
1	 5.500174326204225e-001	 8.669057454291612e-001	 1.187558003899703e+000
1	 5.405300869595506e-001	 8.728528016480037e-001	 1.034752738244478e+000
1	 5.309905530979980e-001	 8.786887175973518e-001	 8.914061744055430e-001
1	 5.214007508515943e-001	 8.844128717634381e-001	 7.576936514737069e-001
1	 5.117626080080407e-001	 8.900246861062580e-001	 6.337685296656582e-001
1	 5.020780591192976e-001	 8.955236261133456e-001	 5.197622300917688e-001
1	 6.121013990034108e-001	 8.572306108650805e-001	 2.862153559778205e+000
1	 6.026645146774508e-001	 8.638911577076851e-001	 2.660918826356141e+000
1	 5.931644043068414e-001	 8.704415299933851e-001	 2.467952636526305e+000
1	 5.836029780634551e-001	 8.768808693131815e-001	 2.283359063908300e+000
1	 5.739821604984206e-001	 8.832083609691114e-001	 2.107220559234591e+000
1	 5.643038893065867e-001	 8.894232342352666e-001	 1.939598133797771e+000
1	 5.545701140871351e-001	 8.955247625774229e-001	 1.780531576673400e+000
1	 5.447827951019328e-001	 9.015122638313119e-001	 1.630039704892612e+000
1	 5.349439020332116e-001	 9.073851003396593e-001	 1.488120645664354e+000
1	 5.250554127421397e-001	 9.131426790481644e-001	 1.354752149682653e+000
1	 5.151193120298434e-001	 9.187844515606746e-001	 1.229891934489202e+000
1	 6.275981213460913e-001	 8.789333300225430e-001	 3.514543050948680e+000
1	 6.179223210879753e-001	 8.857625035748911e-001	 3.308077568092249e+000
1	 6.081816940757200e-001	 8.924787132537714e-001	 3.109764233990631e+000
1	 5.983781988415263e-001	 8.990810789176523e-001	 2.919584515257327e+000
1	 5.885138086608936e-001	 9.055687652426796e-001	 2.737498288205181e+000
1	 5.785905102858034e-001	 9.119409819903062e-001	 2.563444255188391e+000
1	 5.686103026739566e-001	 9.181969842324796e-001	 2.397340392391709e+000
1	 5.585751957156880e-001	 9.243360725344287e-001	 2.239084427769810e+000
1	 5.484872089601938e-001	 9.303575930951712e-001	 2.088554347784123e+000
1	 5.383483703426760e-001	 9.362609378459221e-001	 1.945608931526687e+000
1	 5.281607149139947e-001	 9.420455445066668e-001	 1.810088310774646e+000
1	 6.430949947780623e-001	 9.006362607759364e-001	 4.051593589623698e+000
1	 6.331802762584339e-001	 9.076340626820887e-001	 3.839535302773216e+000
1	 6.231991302596035e-001	 9.145161113710947e-001	 3.635399449392323e+000
1	 6.131535636745613e-001	 9.212815049686620e-001	 3.439098704283711e+000
1	 6.030455985036434e-001	 9.279293875248309e-001	 3.250524208448717e+000
1	 5.928772705564346e-001	 9.344589492882121e-001	 3.069546129264529e+000
1	 5.826506281496252e-001	 9.408694269367316e-001	 2.896014250632763e+000
1	 5.723677308024933e-001	 9.471601037649344e-001	 2.729758591510575e+000
1	 5.620306479316777e-001	 9.533303098279593e-001	 2.570590051181491e+000
1	 5.516414575468932e-001	 9.593794220423780e-001	 2.418301079579357e+000
1	 5.412022449492145e-001	 9.653068642441643e-001	 2.272666370939835e+000
1	 6.585919921800143e-001	 9.223393651455637e-001	 4.481125521285425e+000
1	 6.484383534876271e-001	 9.295057967545003e-001	 4.263415974308312e+000
1	 6.382166865781973e-001	 9.365536857803575e-001	 4.053302276213766e+000
1	 6.279290467058838e-001	 9.434821086159000e-001	 3.850678439599642e+000
1	 6.175775045962408e-001	 9.502901886848859e-001	 3.655417025665666e+000
1	 6.071641451168404e-001	 9.569770967229155e-001	 3.467369762851473e+000
1	 5.966910659437502e-001	 9.635420510137375e-001	 3.286368194790036e+000
1	 5.861603762255796e-001	 9.699843175810625e-001	 3.112224355860995e+000
1	 5.755741952468013e-001	 9.763032103360099e-001	 2.944731472578765e+000
1	 5.649346510920354e-001	 9.824980911803787e-001	 2.783664689008486e+000
1	 5.542438793129650e-001	 9.885683700660078e-001	 2.628781814368827e+000
1	 6.740890864326371e-001	 9.440426051517269e-001	 4.810239747499096e+000
1	 6.636965260743544e-001	 9.513776675173450e-001	 4.587096161467517e+000
1	 6.532343367512071e-001	 9.585913979165628e-001	 4.371139908256779e+000
1	 6.427046220788175e-001	 9.656828510090558e-001	 4.162293121522326e+000
1	 6.321095015082566e-001	 9.726511295921652e-001	 3.960456593637856e+000
1	 6.214511089653824e-001	 9.794953848883493e-001	 3.765510370764778e+000
1	 6.107315914859413e-001	 9.862148167870557e-001	 3.577314377369460e+000
1	 5.999531078481774e-001	 9.928086740410452e-001	 3.395709068507423e+000
1	 5.891178272047021e-001	 9.992762544173094e-001	 3.220516108144231e+000
1	 5.782279277153465e-001	 1.005616904802770e+000	 3.051539071740927e+000
1	 5.672855951827097e-001	 1.011830021265040e+000	 2.888564171294579e+000
1	 6.895862504166215e-001	 9.657459428147289e-001	 5.045398460113733e+000
1	 6.789547673174153e-001	 9.732496366958434e-001	 4.817288949577379e+000
1	 6.682520544983374e-001	 9.806292092147124e-001	 4.595889918744728e+000
1	 6.574802639366865e-001	 9.878836932978199e-001	 4.381195360436304e+000
1	 6.466415638092610e-001	 9.950121711159885e-001	 4.173178065666078e+000
1	 6.357381371004210e-001	 1.002013774378445e+000	 3.971790116158348e+000
1	 6.247721802058078e-001	 1.008887684580245e+000	 3.776963407202705e+000
1	 6.137459015335171e-001	 1.015633133203115e+000	 3.588610199358416e+000
1	 6.026615201045172e-001	 1.022249401869843e+000	 3.406623697466954e+000
1	 5.915212641540699e-001	 1.028735822452400e+000	 3.230878655382098e+000
1	 5.803273697359112e-001	 1.035091777134104e+000	 3.061232004785564e+000
1	 7.050834570126574e-001	 9.874493401548725e-001	 5.192495235255027e+000
1	 6.942130505156096e-001	 9.951216660152163e-001	 4.960116748508256e+000
1	 6.832698135392946e-001	 1.002667081109809e+000	 4.733915949823488e+000
1	 6.722559464228139e-001	 1.010084596631881e+000	 4.513999652283818e+000
1	 6.611736660688249e-001	 1.017373274125678e+000	 4.300453637501668e+000
1	 6.500252045203178e-001	 1.024532225787134e+000	 4.093342969374778e+000
1	 6.388128075329590e-001	 1.031560614716861e+000	 3.892712339802175e+000
1	 6.275387331448292e-001	 1.038457655125505e+000	 3.698586445217525e+000
1	 6.162052502453843e-001	 1.045222612491598e+000	 3.510970392733873e+000
1	 6.048146371454500e-001	 1.051854803672116e+000	 3.329850134636990e+000
1	 5.933691801500317e-001	 1.058353596966040e+000	 3.155192929912051e+000
1	 7.205806791014349e-001	 1.009152759192461e+000	 5.256916087965522e+000
1	 7.094713489677368e-001	 1.016993717200683e+000	 5.021174720022080e+000
1	 6.982875875937835e-001	 1.024704975036855e+000	 4.791033641111351e+000
1	 6.870316436805243e-001	 1.032285522160929e+000	 4.566750908030150e+000
1	 6.757057828565186e-001	 1.039734399490552e+000	 4.348563748674227e+000
1	 6.643122862234333e-001	 1.047050699708348e+000	 4.136688623360874e+000
1	 6.528534488970051e-001	 1.054233567520466e+000	 3.931321320442317e+000
1	 6.413315785453437e-001	 1.061282199866449e+000	 3.732637085559142e+000
1	 6.297489939264407e-001	 1.068195846080558e+000	 3.540790783810209e+000
1	 6.181080234267304e-001	 1.074973808004762e+000	 3.355917094042830e+000
1	 6.064110036025345e-001	 1.081615440053690e+000	 3.178130734399641e+000
1	 7.360778895636446e-001	 1.030856161947795e+000	 5.243592818876278e+000
1	 7.247296359725970e-001	 1.038865751977465e+000	 5.005586197604896e+000
1	 7.133053503815099e-001	 1.046742852430853e+000	 4.772568234964671e+000
1	 7.018073298531414e-001	 1.054486431034654e+000	 4.544984331487266e+000
1	 6.902378887419132e-001	 1.062095508079932e+000	 4.323259294863616e+000
1	 6.785993572081287e-001	 1.069569156736019e+000	 4.107797077483359e+000
1	 6.668940797275553e-001	 1.076906503314615e+000	 3.898980551280848e+000
1	 6.551244135982919e-001	 1.084106727484178e+000	 3.697171319874862e+000
1	 6.432927274468238e-001	 1.091169062434711e+000	 3.502709567899759e+000
1	 6.314013997351549e-001	 1.098092794993187e+000	 3.315913947336262e+000
1	 6.194528172708822e-001	 1.104877265689896e+000	 3.137081500562846e+000
1	 4.890369790048946e-001	 8.722631088718381e-001	-3.339295586962866e-001
1	 4.795620922583881e-001	 8.775080191404551e-001	-4.260674979261618e-001
1	 4.700458011791232e-001	 8.826421068707412e-001	-5.079231819340808e-001
1	 4.604900024760815e-001	 8.876649794392211e-001	-5.798207130305597e-001
1	 4.508965947721494e-001	 8.925762864264075e-001	-6.421000463894334e-001
1	 4.412674774614076e-001	 8.973757194803049e-001	-6.951161540978790e-001
1	 4.316045495771122e-001	 9.020630121438827e-001	-7.392381768090179e-001
1	 4.219097086716463e-001	 9.066379396471509e-001	-7.748485649202374e-001
1	 4.121848497096857e-001	 9.111003186645378e-001	-8.023422111892037e-001
1	 4.024318639757797e-001	 9.154500070382965e-001	-8.221255766858128e-001
1	 3.926526379975132e-001	 9.196869034687285e-001	-8.346158119611785e-001
1	 5.020780591192976e-001	 8.955236261133456e-001	 5.197622300917687e-001
1	 4.923505069052577e-001	 9.009084016633495e-001	 4.151428626876270e-001
1	 4.825804462352116e-001	 9.061793993862045e-001	 3.191643720789902e-001
1	 4.727698243973318e-001	 9.113362161883821e-001	 2.316580185343664e-001
1	 4.629205906447350e-001	 9.163784923057907e-001	 1.524401071529069e-001
1	 4.530346950222971e-001	 9.213059111636405e-001	 8.131255996028067e-002
1	 4.431140872044483e-001	 9.261181991993087e-001	 1.806350311589095e-002
1	 4.331607153452562e-001	 9.308151256488805e-001	-3.753213220212343e-002
1	 4.231765249420750e-001	 9.353965022980483e-001	-8.571199667647714e-002
1	 4.131634577139968e-001	 9.398621831981483e-001	-1.267256989411802e-001
1	 4.031234504962961e-001	 9.442120643481219e-001	-1.608341723280018e-001
1	 5.151193120298434e-001	 9.187844515606746e-001	 1.229891934489200e+000
1	 5.051390910003677e-001	 9.243090942455401e-001	 1.112991774305528e+000
1	 4.951152573769660e-001	 9.297170037752285e-001	 1.003488125018488e+000
1	 4.850498090276871e-001	 9.350077665860251e-001	 9.013440903129646e-001
1	 4.749447458365615e-001	 9.401810135691118e-001	 8.065082255840340e-001
1	 4.648020684999469e-001	 9.452364199267955e-001	 7.189148860794532e-001
1	 4.546237773341318e-001	 9.501737049907746e-001	 6.384845930720811e-001
1	 4.444118710955525e-001	 9.549926320031293e-001	 5.651244170342485e-001
1	 4.341683458149260e-001	 9.596930078607578e-001	 4.987283767619687e-001
1	 4.238951936465678e-001	 9.642746828240306e-001	 4.391778533759649e-001
1	 4.135944017341220e-001	 9.687375501904937e-001	 3.863420181131975e-001
1	 5.281607149139947e-001	 9.420455445066668e-001	 1.810088310774647e+000
1	 5.179278221633582e-001	 9.477100559350589e-001	 1.681471054606599e+000
1	 5.076502126681389e-001	 9.532548788462153e-001	 1.559368031777581e+000
1	 4.973299348768570e-001	 9.586795892061151e-001	 1.443852476280037e+000
1	 4.869690393050531e-001	 9.639838085611113e-001	 1.334983008073173e+000
1	 4.765695773011600e-001	 9.691672038905160e-001	 1.232803795196992e+000
1	 4.661335998239208e-001	 9.742294874202679e-001	 1.137344737040708e+000
1	 4.556631562327353e-001	 9.791704163983791e-001	 1.048621668064003e+000
1	 4.451602930922763e-001	 9.839897928328978e-001	 9.666365812307903e-001
1	 4.346270529926761e-001	 9.886874631931889e-001	 8.913778703824040e-001
1	 4.240654733865391e-001	 9.932633180753756e-001	 8.228205907438613e-001
1	 5.412022449492145e-001	 9.653068642441643e-001	 2.272666370939835e+000
1	 5.307166780138688e-001	 9.711112457799381e-001	 2.133223786190092e+000
1	 5.201852901724832e-001	 9.767929834075642e-001	 1.999743689289752e+000
1	 5.096101804545524e-001	 9.823516426226164e-001	 1.872389363389682e+000
1	 4.989934500076330e-001	 9.877868356265306e-001	 1.751308955673872e+000
1	 4.883372008327391e-001	 9.930982211755457e-001	 1.636635489586987e+000
1	 4.776435345315740e-001	 9.982855043897769e-001	 1.528486901546015e+000
1	 4.669145510670052e-001	 1.003348436523110e+000	 1.426966101685761e+000
1	 4.561523475381651e-001	 1.008286814694700e+000	 1.332161058136739e+000
1	 4.453590169715064e-001	 1.013100481582870e+000	 1.244144904286706e+000
1	 4.345366471290956e-001	 1.017789325082299e+000	 1.162976068431625e+000
1	 5.542438793129650e-001	 9.885683700660078e-001	 2.628781814368827e+000
1	 5.435056361715400e-001	 9.945126228282096e-001	 2.479702865925858e+000
1	 5.327204679537508e-001	 1.000331276267676e+000	 2.336336607787473e+000
1	 5.218905242704836e-001	 1.006023885409494e+000	 2.198917769436965e+000
1	 5.110179569017254e-001	 1.011590053110111e+000	 2.067664981150204e+000
1	 5.001049185014881e-001	 1.017029429902632e+000	 1.942780670861799e+000
1	 4.891535613148496e-001	 1.022341713801290e+000	 1.824450989052236e+000
1	 4.781660359085612e-001	 1.027526650065803e+000	 1.712845761383357e+000
1	 4.671444899166303e-001	 1.032584030926394e+000	 1.608118468748936e+000
1	 4.560910668022425e-001	 1.037513695270321e+000	 1.510406254345358e+000
1	 4.450079046373392e-001	 1.042315528290796e+000	 1.419829957311460e+000
1	 5.672855951827097e-001	 1.011830021265040e+000	 2.888564171294580e+000
1	 5.562946742560117e-001	 1.017914146127906e+000	 2.731307698465074e+000
1	 5.452557240756947e-001	 1.023869716234950e+000	 2.579790113160080e+000
1	 5.341709448343607e-001	 1.029696276140713e+000	 2.434300330695061e+000
1	 5.230425389447537e-001	 1.035393419356594e+000	 2.295109776140077e+000
1	 5.118727097142094e-001	 1.040960788192517e+000	 2.162472198883846e+000
1	 5.006636600315061e-001	 1.046398073556794e+000	 2.036623518960409e+000
1	 4.894175910676042e-001	 1.051705014714938e+000	 1.917781704977636e+000
1	 4.781367009917106e-001	 1.056881399008212e+000	 1.806146683411143e+000
1	 4.668231837040688e-001	 1.061927061532788e+000	 1.701900278956099e+000
1	 4.554792275868185e-001	 1.066841884780397e+000	 1.605206185559800e+000
1	 5.803273697359112e-001	 1.035091777134104e+000	 3.061232004785564e+000
1	 5.690837698869242e-001	 1.041315774727058e+000	 2.897502469902002e+000
1	 5.577910366020671e-001	 1.047408262117787e+000	 2.739790397061599e+000
1	 5.464514206558939e-001	 1.053368773390236e+000	 2.588422848501186e+000
1	 5.350671750941420e-001	 1.059196892710721e+000	 2.443707589669197e+000
1	 5.236405538777063e-001	 1.064892254165948e+000	 2.305932853208679e+000
1	 5.121738105393017e-001	 1.070454541558278e+000	 2.175367138655008e+000
1	 5.006691968543336e-001	 1.075883488158995e+000	 2.052259047727767e+000
1	 4.891289615274445e-001	 1.081178876420385e+000	 1.936837155012834e+000
1	 4.775553488961694e-001	 1.086340537647517e+000	 1.829309913747431e+000
1	 4.659505976530813e-001	 1.091368351630633e+000	 1.729865596342166e+000
1	 5.933691801500317e-001	 1.058353596966040e+000	 3.155192929912051e+000
1	 5.818729006839174e-001	 1.064717467673700e+000	 2.986918833789936e+000
1	 5.703263835966207e-001	 1.070946872724587e+000	 2.825171613456010e+000
1	 5.587319302447942e-001	 1.077041335732030e+000	 2.670301553263577e+000
1	 5.470918443073142e-001	 1.083000431517234e+000	 2.522637429933190e+000
1	 5.354084303987815e-001	 1.088823785943670e+000	 2.382486256460463e+000
1	 5.236839926959950e-001	 1.094511075707730e+000	 2.250133065897801e+000
1	 5.119208335789500e-001	 1.100062028086456e+000	 2.125840734866187e+000
1	 5.001212522878700e-001	 1.105476420643145e+000	 2.009849846560466e+000
1	 4.882875435977285e-001	 1.110754080891756e+000	 1.902378592917458e+000
1	 4.764219965116759e-001	 1.115894885921038e+000	 1.803622715529550e+000
1	 6.064110036025345e-001	 1.081615440053690e+000	 3.178130734399641e+000
1	 5.946620442666316e-001	 1.088119184015863e+000	 3.007445354726684e+000
1	 5.828617431231078e-001	 1.094485506863751e+000	 2.844007421871251e+000
1	 5.710124521107711e-001	 1.100713921740057e+000	 2.688176535659450e+000
1	 5.591165255416937e-001	 1.106803994120874e+000	 2.540288183375651e+000
1	 5.471763186842386e-001	 1.112755341646426e+000	 2.400653492986448e+000
1	 5.351941863593440e-001	 1.118567633907137e+000	 2.269559030607895e+000
1	 5.231724815516528e-001	 1.124240592185799e+000	 2.147266641984307e+000
1	 5.111135540370255e-001	 1.129773989156722e+000	 2.034013337646345e+000
1	 4.990197490279300e-001	 1.135167648542750e+000	 1.930011221313088e+000
1	 4.868934058381502e-001	 1.140421444731140e+000	 1.835447461008113e+000
1	 6.194528172708822e-001	 1.104877265689896e+000	 3.137081500562845e+000
1	 6.074511782547066e-001	 1.111520882801578e+000	 2.966305659957977e+000
1	 5.953970932452810e-001	 1.118024123343679e+000	 2.803690973593250e+000
1	 5.832929647635355e-001	 1.124386489988285e+000	 2.649593382427596e+000
1	 5.711411977547047e-001	 1.130607538866382e+000	 2.504341725271222e+000
1	 5.589441981408803e-001	 1.136686879394963e+000	 2.368237529700063e+000
1	 5.467043713871074e-001	 1.142624174058487e+000	 2.241554851790743e+000
1	 5.344241210826425e-001	 1.148419138145507e+000	 2.124540164298161e+000
1	 5.221058475389497e-001	 1.154071539441348e+000	 2.017412292783453e+000
1	 5.097519464059584e-001	 1.159581197877748e+000	 1.920362399095648e+000
1	 4.973648073080526e-001	 1.164947985140473e+000	 1.833554011502329e+000
1	 3.926526379975132e-001	 9.196869034687285e-001	-8.346158119611802e-001
1	 3.828475801467559e-001	 9.238115574925391e-001	-8.398231831771315e-001
1	 3.730200306188907e-001	 9.278233049990166e-001	-8.377539300563688e-001
1	 3.631718566724362e-001	 9.317221658209343e-001	-8.288462788214205e-001
1	 3.533049166519174e-001	 9.355081991183117e-001	-8.135583744511618e-001
1	 3.434210590039752e-001	 9.391815029145867e-001	-7.923671950943163e-001
1	 3.335221213151299e-001	 9.427422136050959e-001	-7.657674544443085e-001
1	 3.236099293720238e-001	 9.461905054388913e-001	-7.342704945027238e-001
1	 3.136862962449284e-001	 9.495265899749484e-001	-6.984031711162341e-001
1	 3.037530213952426e-001	 9.527507155138413e-001	-6.587067346405759e-001
1	 2.938118898076575e-001	 9.558631665059840e-001	-6.157357080460959e-001
1	 4.031234504962961e-001	 9.442120643481219e-001	-1.608341723280005e-001
1	 3.930569225507894e-001	 9.484467099390739e-001	-1.882301678367790e-001
1	 3.829673031454391e-001	 9.525654381505309e-001	-2.091388375988550e-001
1	 3.728565093327699e-001	 9.565682693441295e-001	-2.239055806082507e-001
1	 3.627264490136036e-001	 9.604552642574867e-001	-2.328936291424525e-001
1	 3.525790199269324e-001	 9.642265235280020e-001	-2.364831331078124e-001
1	 3.424161086620217e-001	 9.678821871882344e-001	-2.350702326151947e-001
1	 3.322395896935920e-001	 9.714224341338947e-001	-2.290661208700579e-001
1	 3.220513244408869e-001	 9.748474815655585e-001	-2.188960994333675e-001
1	 3.118531603513708e-001	 9.781575844051822e-001	-2.049986278894562e-001
1	 3.016469300097510e-001	 9.813530346885655e-001	-1.878243699188355e-001
1	 4.135944017341220e-001	 9.687375501904937e-001	 3.863420181131973e-001
1	 4.032664002295056e-001	 9.730821888058526e-001	 3.398996141016859e-001
1	 3.929147074744283e-001	 9.773078991396467e-001	 2.994659900057852e-001
1	 3.825412903160629e-001	 9.814147020823927e-001	 2.647712444360469e-001
1	 3.721481062121691e-001	 9.854026599493362e-001	 2.355290276620831e-001
1	 3.617371021947264e-001	 9.892718759918838e-001	 2.114373226729141e-001
1	 3.513102138563777e-001	 9.930224938798731e-001	 1.921792382360517e-001
1	 3.408693643605511e-001	 9.966546971557493e-001	 1.774238121278854e-001
1	 3.304164634760866e-001	 1.000168708661771e+000	 1.668268227284599e-001
1	 3.199534066371332e-001	 1.003564789941372e+000	 1.600316071923860e-001
1	 3.094820740290298e-001	 1.006843240615851e+000	 1.566698844323866e-001
1	 4.240654733865391e-001	 9.932633180753756e-001	 8.228205907438624e-001
1	 4.134759953160149e-001	 9.977179509799360e-001	 7.605546571520399e-001
1	 4.028622261975744e-001	 1.002050644666225e+000	 7.040805432695525e-001
1	 3.922261826735969e-001	 1.006261420553655e+000	 6.531877537619675e-001
1	 3.815698717593334e-001	 1.010350342535127e+000	 6.076500630156649e-001
1	 3.708952897803031e-001	 1.014317516476094e+000	 5.672261952902153e-001
1	 3.602044213330747e-001	 1.018163089683721e+000	 5.316605175700668e-001
1	 3.494992382703296e-001	 1.021887250347247e+000	 5.006837434753098e-001
1	 3.387816987110449e-001	 1.025490226950689e+000	 4.740136465986737e-001
1	 3.280537460765928e-001	 1.028972287659046e+000	 4.513557816507945e-001
1	 3.173173081534751e-001	 1.032333739679205e+000	 4.324042118167181e-001
1	 4.345366471290956e-001	 1.017789325082299e+000	 1.162976068431624e+000
1	 4.236856899434281e-001	 1.022353953348383e+000	 1.088182391619217e+000
1	 4.128098419065946e-001	 1.026793631430127e+000	 1.019180733010304e+000
1	 4.019111694566532e-001	 1.031108381275849e+000	 9.558050304722602e-001
1	 3.909917291668158e-001	 1.035298268356127e+000	 8.978735731802076e-001
1	 3.800535666566078e-001	 1.039363401150493e+000	 8.451896130473594e-001
1	 3.690987155269896e-001	 1.043303930603482e+000	 7.975419900184170e-001
1	 3.581291963203556e-001	 1.047120049551180e+000	 7.547057696959312e-001
1	 3.471470155062800e-001	 1.050811992119419e+000	 7.164428917708582e-001
1	 3.361541644938117e-001	 1.054380033094837e+000	 6.825028277414749e-001
1	 3.251526186710684e-001	 1.057824487269988e+000	 6.526232464120313e-001
1	 4.450079046373392e-001	 1.042315528290796e+000	 1.419829957311461e+000
1	 4.338954662448556e-001	 1.046990152798254e+000	 1.335870392510983e+000
1	 4.227575371932061e-001	 1.051536816131212e+000	 1.257879959051380e+000
1	 4.115962337165132e-001	 1.055955540766905e+000	 1.185723068494569e+000
1	 4.004136619463352e-001	 1.060246393753604e+000	 1.119247956360580e+000
1	 3.892119167965862e-001	 1.064409486184943e+000	 1.058287255666558e+000
1	 3.779930808729983e-001	 1.068444972642865e+000	 1.002658585940824e+000
1	 3.667592234080574e-001	 1.072353050610339e+000	 9.521651562196837e-001
1	 3.555123992223092e-001	 1.076133959855069e+000	 9.065963805358437e-001
1	 3.442546477128529e-001	 1.079787981785380e+000	 8.657285044117470e-001
1	 3.329879918697909e-001	 1.083315438779565e+000	 8.293252408766778e-001
1	 4.554792275868185e-001	 1.066841884780397e+000	 1.605206185559800e+000
1	 4.441053063534077e-001	 1.071626506216606e+000	 1.515502609017405e+000
1	 4.327052946491253e-001	 1.076280155469341e+000	 1.432085649892842e+000
1	 4.212813585044584e-001	 1.080802855544754e+000	 1.354837154023455e+000
1	 4.098356536096108e-001	 1.085194675068824e+000	 1.283621679918803e+000
1	 3.983703241731844e-001	 1.089455727749307e+000	 1.218287064009591e+000
1	 3.868875018059778e-001	 1.093586171805575e+000	 1.158665003416592e+000
1	 3.753893044308633e-001	 1.097586209367518e+000	 1.104571654720308e+000
1	 3.638778352196507e-001	 1.101456085844741e+000	 1.055808247210331e+000
1	 3.523551815577790e-001	 1.105196089267309e+000	 1.012161709088765e+000
1	 3.408234140376239e-001	 1.108806549599300e+000	 9.734053051109409e-001
1	 4.659505976530813e-001	 1.091368351630633e+000	 1.729865596342166e+000
1	 4.543151924021956e-001	 1.096262970490503e+000	 1.637894541614020e+000
1	 4.426530968660690e-001	 1.101023606144375e+000	 1.552634708207918e+000
1	 4.309665268717702e-001	 1.105650282127328e+000	 1.473973174109867e+000
1	 4.192576876683623e-001	 1.110143068643055e+000	 1.401778057505171e+000
1	 4.075287727593477e-001	 1.114502082013446e+000	 1.335899102216209e+000
1	 3.957819627608041e-001	 1.118727484095320e+000	 1.276168283130253e+000
1	 3.840194242862013e-001	 1.122819481665506e+000	 1.222400430004613e+000
1	 3.722433088588219e-001	 1.126778325775542e+000	 1.174393868030764e+000
1	 3.604557518526529e-001	 1.130604311077259e+000	 1.131931073533879e+000
1	 3.486588714625483e-001	 1.134297775120553e+000	 1.094779343185640e+000
1	 4.764219965116759e-001	 1.115894885921038e+000	 1.803622715529550e+000
1	 4.645251065243294e-001	 1.120899502507003e+000	 1.712910603767614e+000
1	 4.526009264357542e-001	 1.125767124856174e+000	 1.629411105569376e+000
1	 4.406517218697297e-001	 1.130497777032559e+000	 1.553005092525467e+000
1	 4.286797476343086e-001	 1.135091530817564e+000	 1.483552263506795e+000
1	 4.166872465280216e-001	 1.139548505147221e+000	 1.420891777750321e+000
1	 4.046764481723542e-001	 1.143868865515805e+000	 1.364842910817481e+000
1	 3.926495678715000e-001	 1.148052823347096e+000	 1.315205731656852e+000
1	 3.806088055003410e-001	 1.152100635334577e+000	 1.271761798992858e+000
1	 3.685563444215369e-001	 1.156012602751862e+000	 1.234274875254412e+000
1	 3.564943504325456e-001	 1.159789070734689e+000	 1.202491656257541e+000
1	 4.868934058381502e-001	 1.140421444731140e+000	 1.835447461008113e+000
1	 4.747350308529195e-001	 1.145536059153163e+000	 1.749566348634709e+000
1	 4.625487659498976e-001	 1.150510668304600e+000	 1.671448312119938e+000
1	 4.503369265496188e-001	 1.155345296778378e+000	 1.600957275899245e+000
1	 4.381018170191691e-001	 1.160040017933618e+000	 1.537933257274297e+000
1	 4.258457294521522e-001	 1.164594953320496e+000	 1.482193073671944e+000
1	 4.135709424755044e-001	 1.169010272070738e+000	 1.433531076062977e+000
1	 4.012797200841874e-001	 1.173286190255080e+000	 1.391719906554067e+000
1	 3.889743105047253e-001	 1.177422970208952e+000	 1.356511278154831e+000
1	 3.766569450884943e-001	 1.181420919827755e+000	 1.327636774709195e+000
1	 3.643298372355972e-001	 1.185280391833070e+000	 1.304808668983019e+000
1	 4.973648073080526e-001	 1.164947985140473e+000	 1.833554011502328e+000
1	 4.849449475210769e-001	 1.170172597316046e+000	 1.756117789955586e+000
1	 4.724965980002161e-001	 1.175254193189512e+000	 1.687018794813724e+000
1	 4.600221239627185e-001	 1.180192797882715e+000	 1.626093901497562e+000
1	 4.475238793346627e-001	 1.184988486332486e+000	 1.573152839732411e+000
1	 4.350042055046847e-001	 1.189641382703130e+000	 1.527979000651345e+000
1	 4.224654301051314e-001	 1.194151659763825e+000	 1.490330273740380e+000
1	 4.099098658216919e-001	 1.198519538232249e+000	 1.459939911363138e+000
1	 3.973398092324927e-001	 1.202745286085772e+000	 1.436517418583574e+000
1	 3.847575396775870e-001	 1.206829217841571e+000	 1.419749465996533e+000
1	 3.721653181596841e-001	 1.210771693807061e+000	 1.409300823272973e+000
1	 2.938118898076575e-001	 9.558631665059840e-001	-6.157357080460959e-001
1	 2.838646710056857e-001	 9.588642626988490e-001	-5.699645690609700e-001
1	 2.739131178235836e-001	 9.617543577873683e-001	-5.218000116332413e-001
1	 2.639589660669879e-001	 9.645338394785438e-001	-4.717067103221962e-001
1	 2.540039338948808e-001	 9.672031290579124e-001	-4.201521056751314e-001
1	 2.440497210832210e-001	 9.697626806991601e-001	-3.676056279586564e-001
1	 2.340980083161345e-001	 9.722129807570793e-001	-3.145379339208022e-001
1	 2.241504565049763e-001	 9.745545470450379e-001	-2.614201577515216e-001
1	 2.142087061355221e-001	 9.767879280981019e-001	-2.087231773503778e-001
1	 2.042743766435053e-001	 9.789137024229727e-001	-1.569168969405403e-001
1	 1.943490658186562e-001	 9.809324777358748e-001	-1.064695470060186e-001
1	 3.016469300097510e-001	 9.813530346885655e-001	-1.878243699188355e-001
1	 2.914344501272309e-001	 9.844341606898324e-001	-1.675525916081537e-001
1	 2.812175202806164e-001	 9.874013255358588e-001	-1.443312238818996e-001
1	 2.709979225639717e-001	 9.902549272725887e-001	-1.185761980122862e-001
1	 2.607774209541256e-001	 9.929953984199387e-001	-9.070776072166024e-002
1	 2.505577605546663e-001	 9.956232052629931e-001	-6.114972506412249e-002
1	 2.403406668682315e-001	 9.981388471261151e-001	-3.032873140802369e-002
1	 2.301278450974099e-001	 1.000542855631143e+000	 1.326480286888356e-003
1	 2.199209794745261e-001	 1.002835793940866e+000	 3.338578575950635e-002
1	 2.097217326205240e-001	 1.005018255988954e+000	 6.541837822627263e-002
1	 1.995317449331146e-001	 1.007090865697531e+000	 9.699345563080686e-002
1	 3.094820740290298e-001	 1.006843240615851e+000	 1.566698844323866e-001
1	 2.990043295512846e-001	 1.010004397486102e+000	 1.567606885679903e-001
1	 2.885220195238800e-001	 1.013048633111059e+000	 1.603189953990089e-001
1	 2.780369723299310e-001	 1.015976355875734e+000	 1.669574797811050e-001
1	 2.675509977647321e-001	 1.018788009534555e+000	 1.762831018473497e-001
1	 2.570658862601133e-001	 1.021484072484157e+000	 1.878978551410001e-001
1	 2.465834081378282e-001	 1.024065057018631e+000	 2.013995067835065e-001
1	 2.361053128922975e-001	 1.026531508568457e+000	 2.163823284258856e-001
1	 2.256333285029849e-001	 1.028884004924326e+000	 2.324378167875125e-001
1	 2.151691607766280e-001	 1.031123155447072e+000	 2.491554026415749e-001
1	 2.047144927194935e-001	 1.033249600264919e+000	 2.661231471633878e-001
1	 3.173173081534751e-001	 1.032333739679205e+000	 4.324042118167181e-001
1	 3.065742960300392e-001	 1.035574928338934e+000	 4.172973091882508e-001
1	 2.958266027699861e-001	 1.038696235629327e+000	 4.061349282068018e-001
1	 2.850761030460261e-001	 1.041698080274572e+000	 3.985394798581574e-001
1	 2.743246524724556e-001	 1.044580917263728e+000	 3.941264019978136e-001
1	 2.635740868098779e-001	 1.047345237105108e+000	 3.925049316297719e-001
1	 2.528262211996881e-001	 1.049991565062670e+000	 3.932788705916455e-001
1	 2.420828494286583e-001	 1.052520460375683e+000	 3.960473433092169e-001
1	 2.313457432239041e-001	 1.054932515462900e+000	 4.004055453395265e-001
1	 2.206166515784631e-001	 1.057228355112487e+000	 4.059454814742227e-001
1	 2.098973001076576e-001	 1.059408635658941e+000	 4.122566922354444e-001
1	 3.251526186710684e-001	 1.057824487269988e+000	 6.526232464120313e-001
1	 3.141443363156863e-001	 1.061145708499603e+000	 6.269991147692663e-001
1	 3.031312572355475e-001	 1.064344088207020e+000	 6.057532476101974e-001
1	 2.921153023934178e-001	 1.067420055455696e+000	 5.885000669553370e-001
1	 2.810983732230514e-001	 1.070374076469423e+000	 5.748458957287216e-001
1	 2.700823508142761e-001	 1.073206653868300e+000	 5.643897783763051e-001
1	 2.590690951285748e-001	 1.075918325886272e+000	 5.567242955289886e-001
1	 2.480604442455113e-001	 1.078509665571524e+000	 5.514363712584890e-001
1	 2.370582136402890e-001	 1.080981279971006e+000	 5.481080715341516e-001
1	 2.260641954926754e-001	 1.083333809300356e+000	 5.463173925432572e-001
1	 2.150801580274720e-001	 1.085567926100498e+000	 5.456390375999468e-001
1	 3.329879918697909e-001	 1.083315438779565e+000	 8.293252408766778e-001
1	 3.217144371604180e-001	 1.086716693219385e+000	 7.975901013011024e-001
1	 3.104359701371768e-001	 1.089992145960497e+000	 7.706215360185228e-001
1	 2.991545580532664e-001	 1.093142236405700e+000	 7.480092899926630e-001
1	 2.878721481622746e-001	 1.096167442013604e+000	 7.293340079339573e-001
1	 2.765906668836241e-001	 1.099068277516187e+000	 7.141681266049982e-001
1	 2.653120189992517e-001	 1.101845294117479e+000	 7.020767610992683e-001
1	 2.540380868818759e-001	 1.104499078674684e+000	 6.926185835037535e-001
1	 2.427707297551454e-001	 1.107030252863060e+000	 6.853466924129097e-001
1	 2.315117829859108e-001	 1.109439472325838e+000	 6.798094718277608e-001
1	 2.202630574088016e-001	 1.111727425810493e+000	 6.755514380352085e-001
1	 3.408234140376239e-001	 1.108806549599300e+000	 9.734053051109409e-001
1	 3.292845853164264e-001	 1.112287837749558e+000	 9.397163819098474e-001
1	 3.177407286914863e-001	 1.115640364006114e+000	 9.111349519032099e-001
1	 3.061938577067327e-001	 1.118864578111176e+000	 8.872103363906659e-001
1	 2.946459654358807e-001	 1.121960968758238e+000	 8.674818731414581e-001
1	 2.830990236282377e-001	 1.124930062791226e+000	 8.514799029632973e-001
1	 2.715549818864824e-001	 1.127772424384332e+000	 8.387267494924315e-001
1	 2.600157668767713e-001	 1.130488654203866e+000	 8.287376904445942e-001
1	 2.484832815714786e-001	 1.133079388553482e+000	 8.210219186370279e-001
1	 2.369594045248153e-001	 1.135545298504094e+000	 8.150834911571392e-001
1	 2.254459891815113e-001	 1.137887089009828e+000	 8.104222651291542e-001
1	 3.486588714625483e-001	 1.134297775120553e+000	 1.094779343185640e+000
1	 3.368547675359032e-001	 1.137859097341395e+000	 1.063067291747402e+000
1	 3.250455201150881e-001	 1.141288697460231e+000	 1.036754480289858e+000
1	 3.132331890349773e-001	 1.144587035558720e+000	 1.015334916516003e+000
1	 3.014198131896246e-001	 1.147754611565289e+000	 9.982918528941543e-001
1	 2.896074096584329e-001	 1.150791964435870e+000	 9.850988893679489e-001
1	 2.777979728650303e-001	 1.153699671314873e+000	 9.752210678721450e-001
1	 2.659934737692166e-001	 1.156478346677774e+000	 9.681159567015966e-001
1	 2.541958590922944e-001	 1.159128641456689e+000	 9.632347228566918e-001
1	 2.424070505760347e-001	 1.161651242150283e+000	 9.600231905660472e-001
1	 2.306289442754662e-001	 1.164046869919403e+000	 9.579228842706193e-001
1	 3.564943504325456e-001	 1.159789070734689e+000	 1.202491656257541e+000
1	 3.444249705710406e-001	 1.163430427246174e+000	 1.176480532112215e+000
1	 3.323503316245950e-001	 1.166937101439205e+000	 1.156109598671115e+000
1	 3.202725397191608e-001	 1.170309563734924e+000	 1.140803441273080e+000
1	 3.081936795692617e-001	 1.173548325296723e+000	 1.129975224139248e+000
1	 2.961158135845260e-001	 1.176653937192574e+000	 1.123027930462588e+000
1	 2.840409810096591e-001	 1.179626989537143e+000	 1.119355592247414e+000
1	 2.719711970982311e-001	 1.182468110615112e+000	 1.118344507726292e+000
1	 2.599084523205983e-001	 1.185177965987098e+000	 1.119374444269248e+000
1	 2.478547116062153e-001	 1.187757257579563e+000	 1.121819824789487e+000
1	 2.358119136205312e-001	 1.190206722760122e+000	 1.125050895742364e+000
1	 3.643298372355972e-001	 1.185280391833070e+000	 1.304808668983019e+000
1	 3.519951811740304e-001	 1.189001782715169e+000	 1.288033755156884e+000
1	 3.396551504366194e-001	 1.192585531059394e+000	 1.277087703098733e+000
1	 3.273118974404436e-001	 1.196032117626382e+000	 1.271312280771300e+000
1	 3.149675527205472e-001	 1.199342064814506e+000	 1.270037269701162e+000
1	 3.026242240168329e-001	 1.202515935803794e+000	 1.272581863103348e+000
1	 2.902839953951322e-001	 1.205554333679185e+000	 1.278256051077068e+000
1	 2.779489264028340e-001	 1.208457900534583e+000	 1.286361990455530e+000
1	 2.656210512593957e-001	 1.211227316559127e+000	 1.296195356992317e+000
1	 2.533023780820027e-001	 1.213863299107094e+000	 1.307046677671117e+000
1	 2.409948881465711e-001	 1.216366601752886e+000	 1.318202641032275e+000
1	 3.721653181596841e-001	 1.210771693807061e+000	 1.409300823272973e+000
1	 3.595653860970648e-001	 1.214573118999657e+000	 1.405124586321903e+000
1	 3.469599637677736e-001	 1.218233941437156e+000	 1.406912244521367e+000
1	 3.343512498799867e-001	 1.221754652219686e+000	 1.413910006869848e+000
1	 3.217414207892364e-001	 1.225135784980603e+000	 1.425351626361876e+000
1	 3.091326295656695e-001	 1.228377915011984e+000	 1.440459976269984e+000
1	 2.965270050962132e-001	 1.231481658369039e+000	 1.458448610212558e+000
1	 2.839266512220445e-001	 1.234447670954891e+000	 1.478523303321546e+000
1	 2.713336459116921e-001	 1.237276647587193e+000	 1.499883571937279e+000
1	 2.587500404700431e-001	 1.239969321048035e+000	 1.521724169380371e+000
1	 2.461778587834510e-001	 1.242526461118597e+000	 1.543236555470969e+000
1	 1.943490658186562e-001	 9.809324777358748e-001	-1.064695470060186e-001
1	 1.844358351184653e-001	 9.828446114249160e-001	-5.726362404092054e-002
1	 1.745347453506193e-001	 9.846510785005697e-001	-9.123047696443459e-003
1	 1.646473231798204e-001	 9.863525701375676e-001	 3.755325262089819e-002
1	 1.547750715930049e-001	 9.879498035443917e-001	 8.236956361327348e-002
1	 1.449194694473043e-001	 9.894435211587169e-001	 1.249339036243796e-001
1	 1.350819710464206e-001	 9.908344898374509e-001	 1.648585201777260e-001
1	 1.252640057452698e-001	 9.921235000424143e-001	 2.017603690665597e-001
1	 1.154669775827054e-001	 9.933113650226918e-001	 2.352615746066057e-001
1	 1.056922649420928e-001	 9.943989199946589e-001	 2.649898707096056e-001
1	 9.594122023947826e-002	 9.953870213206723e-001	 2.905790224940091e-001
1	 1.995317449331146e-001	 1.007090865697531e+000	 9.699345563080736e-002
1	 1.893541595092008e-001	 1.009053989985139e+000	 1.282889890200637e-001
1	 1.791890387780153e-001	 1.010908629862745e+000	 1.595186436755075e-001
1	 1.690379501156183e-001	 1.012655494936566e+000	 1.902931885125413e-001
1	 1.589024365888925e-001	 1.014295321540812e+000	 2.202260378223911e-001
1	 1.487840164914495e-001	 1.015828871911665e+000	 2.489337737616659e-001
1	 1.386841829087086e-001	 1.017256933355725e+000	 2.760366512897398e-001
1	 1.286044033119972e-001	 1.018580317413973e+000	 3.011590850828905e-001
1	 1.185461191814805e-001	 1.019799859022319e+000	 3.239301180065624e-001
1	 1.085107456576841e-001	 1.020916415669762e+000	 3.439838707822901e-001
1	 9.849967122134784e-002	 1.021930866555178e+000	 3.609599725399143e-001
1	 2.047144927194935e-001	 1.033249600264919e+000	 2.661231471633878e-001
1	 1.942725490689864e-001	 1.035263715826961e+000	 2.835860075838334e-001
1	 1.838433938759064e-001	 1.037166529144998e+000	 3.018041812414888e-001
1	 1.734286352282083e-001	 1.038958768256984e+000	 3.203818005345389e-001
1	 1.630298562732485e-001	 1.040641188623105e+000	 3.389253892648533e-001
1	 1.526486147416389e-001	 1.042214572278316e+000	 3.570444094106176e-001
1	 1.422864425010266e-001	 1.043679726979181e+000	 3.743517898773585e-001
1	 1.319448451396527e-001	 1.045037485346122e+000	 3.904644367243214e-001
1	 1.216253015794873e-001	 1.046288704002161e+000	 4.050037244180632e-001
1	 1.113292637187003e-001	 1.047434262709218e+000	 4.175959677259198e-001
1	 1.010581561032000e-001	 1.048475063502990e+000	 4.278728739114217e-001
1	 2.098973001076576e-001	 1.059408635658941e+000	 4.122566922354449e-001
1	 1.991909951903410e-001	 1.061473743082011e+000	 4.196569230422658e-001
1	 1.884978024988975e-001	 1.063424730394631e+000	 4.284609619127406e-001
1	 1.778193708336415e-001	 1.065262344066698e+000	 4.382510111595257e-001
1	 1.671573234228617e-001	 1.066987358684599e+000	 4.486117133447961e-001
1	 1.565132574346200e-001	 1.068600576082287e+000	 4.591307389853460e-001
1	 1.458887435192350e-001	 1.070102824466526e+000	 4.693993548821626e-001
1	 1.352853253822968e-001	 1.071494957537422e+000	 4.790129725344177e-001
1	 1.247045193880079e-001	 1.072777853605359e+000	 4.875716761561956e-001
1	 1.141478141926026e-001	 1.073952414705431e+000	 4.946807298801474e-001
1	 1.036166704075698e-001	 1.075019565710423e+000	 4.999510637864592e-001
1	 2.150801580274720e-001	 1.085567926100498e+000	 5.456390375999468e-001
1	 2.041094892657835e-001	 1.087684025881921e+000	 5.464686946025479e-001
1	 1.931522565015935e-001	 1.089683187658944e+000	 5.491829978602288e-001
1	 1.822101492479693e-001	 1.091566176333586e+000	 5.533278668098358e-001
1	 1.712848308145205e-001	 1.093333785618622e+000	 5.584520002054872e-001
1	 1.603779378071404e-001	 1.094986837147195e+000	 5.641075207914802e-001
1	 1.494910796591941e-001	 1.096526179576468e+000	 5.698505983920282e-001
1	 1.386258381939897e-001	 1.097952687686433e+000	 5.752420508322998e-001
1	 1.277837672183244e-001	 1.099267261475050e+000	 5.798479221757938e-001
1	 1.169663921468526e-001	 1.100470825250804e+000	 5.832400378283054e-001
1	 1.061752096569922e-001	 1.101564326723789e+000	 5.849965361252802e-001
1	 2.202630574088016e-001	 1.111727425810493e+000	 6.755514380352090e-001
1	 2.090280226878327e-001	 1.113894518358322e+000	 6.730507887973489e-001
1	 1.978067477385986e-001	 1.115941854985237e+000	 6.727525327408384e-001
1	 1.866009627872431e-001	 1.117870219025528e+000	 6.741528057219991e-001
1	 1.754123712250134e-001	 1.119680423318503e+000	 6.767511407971927e-001
1	 1.642426490959474e-001	 1.121373309296657e+000	 6.800511853419025e-001
1	 1.530934446167642e-001	 1.122949746067712e+000	 6.835613935514795e-001
1	 1.419663777287918e-001	 1.124410629491716e+000	 6.867956936896975e-001
1	 1.308630396817190e-001	 1.125756881254375e+000	 6.892741295268282e-001
1	 1.197849926489115e-001	 1.126989447937741e+000	 6.905234754869583e-001
1	 1.087337693740024e-001	 1.128109300089399e+000	 6.900778250964725e-001
1	 2.254459891815113e-001	 1.137887089009828e+000	 8.104222651291542e-001
1	 2.139465868490073e-001	 1.140105174642845e+000	 8.076029824605268e-001
1	 2.024612680645177e-001	 1.142200686420812e+000	 8.071448932839985e-001
1	 1.909918037675141e-001	 1.144174426110399e+000	 8.084816227400907e-001
1	 1.795399374311289e-001	 1.146027225677570e+000	 8.110510795098591e-001
1	 1.681073845377886e-001	 1.147759946354290e+000	 8.142962603551328e-001
1	 1.566958320878055e-001	 1.149373477698965e+000	 8.176660262019688e-001
1	 1.453069381407635e-001	 1.150868736651832e+000	 8.206158490784997e-001
1	 1.339423313894738e-001	 1.152246666586471e+000	 8.226085293043549e-001
1	 1.226036107662408e-001	 1.153508236358646e+000	 8.231148824173117e-001
1	 1.112923450811353e-001	 1.154654439353569e+000	 8.216143954048715e-001
1	 2.306289442754662e-001	 1.164046869919403e+000	 9.579228842706188e-001
1	 2.188651731418263e-001	 1.166315948867122e+000	 9.575886389524855e-001
1	 2.071158093339555e-001	 1.168459636012968e+000	 9.596192118386210e-001
1	 1.953826645048334e-001	 1.170478751556079e+000	 9.633736940727105e-001
1	 1.836675222096557e-001	 1.172374146589153e+000	 9.682166057159904e-001
1	 1.719721373694115e-001	 1.174146702143711e+000	 9.735188022233736e-001
1	 1.602982357681785e-001	 1.175797328228937e+000	 9.786583478441607e-001
1	 1.486475135839651e-001	 1.177326962865341e+000	 9.830213551965731e-001
1	 1.370216369528710e-001	 1.178736571114481e+000	 9.860027903672370e-001
1	 1.254222415663019e-001	 1.180027144105923e+000	 9.870072429824829e-001
1	 1.138509323009261e-001	 1.181199698062607e+000	 9.854496607977873e-001
1	 2.358119136205312e-001	 1.190206722760122e+000	 1.125050895742364e+000
1	 2.237837729588087e-001	 1.192526795162783e+000	 1.129815691249904e+000
1	 2.117703634015168e-001	 1.194718657809009e+000	 1.136797192340315e+000
1	 1.997735373152525e-001	 1.196783149330445e+000	 1.145268574663323e+000
1	 1.877951183373821e-001	 1.198721139946578e+000	 1.154509838609281e+000
1	 1.758369008275634e-001	 1.200533530488537e+000	 1.163808831817362e+000
1	 1.639006493537435e-001	 1.202221251416331e+000	 1.172462233229245e+000
1	 1.519880982124569e-001	 1.203785261830803e+000	 1.179776497870974e+000
1	 1.401009509831927e-001	 1.205226548481543e+000	 1.185068761661921e+000
1	 1.282408801165560e-001	 1.206546124771974e+000	 1.187667705660401e+000
1	 1.164095265559098e-001	 1.207745029762831e+000	 1.186914379267655e+000
1	 2.409948881465711e-001	 1.216366601752886e+000	 1.318202641032275e+000
1	 2.287023776924730e-001	 1.218737667661458e+000	 1.330507181448392e+000
1	 2.164249221218060e-001	 1.220977705856232e+000	 1.344731718614813e+000
1	 2.041644145148226e-001	 1.223087573401375e+000	 1.360052717560491e+000
1	 1.919227185910969e-001	 1.225068159643175e+000	 1.375655106476105e+000
1	 1.797016681489920e-001	 1.226920385212384e+000	 1.390733428968690e+000
1	 1.675030665403606e-001	 1.228645201019855e+000	 1.404492951739964e+000
1	 1.553286861802993e-001	 1.230243587246780e+000	 1.416150726800247e+000
1	 1.431802680917211e-001	 1.231716552330795e+000	 1.424936607460252e+000
1	 1.310595214844649e-001	 1.233065131949204e+000	 1.430094217471863e+000
1	 1.189681233686213e-001	 1.234290388000549e+000	 1.430881872815200e+000
1	 2.461778587834510e-001	 1.242526461118597e+000	 1.543236555470969e+000
1	 2.336209787353383e-001	 1.244948520494780e+000	 1.565362894895855e+000
1	 2.210794773494281e-001	 1.247236734201940e+000	 1.588966801120350e+000
1	 2.085552884195949e-001	 1.249391977736748e+000	 1.613117770199707e+000
1	 1.960503157475883e-001	 1.251415159572273e+000	 1.636895635187037e+000
1	 1.835664325704446e-001	 1.253307220138870e+000	 1.659391861498445e+000
1	 1.711054810238903e-001	 1.255069130798217e+000	 1.679710790855012e+000
1	 1.586692716415527e-001	 1.256701892811832e+000	 1.696970832837276e+000
1	 1.462595828897382e-001	 1.258206536305377e+000	 1.710305603234466e+000
1	 1.338781607374896e-001	 1.259584119230017e+000	 1.718865008519363e+000
1	 1.215267182615959e-001	 1.260835726322077e+000	 1.721816275921819e+000
1	 9.594122023947826e-002	 9.953870213206723e-001	 2.905790224940091e-001
1	 8.621371590998771e-002	 9.962766718121099e-001	 3.115939197004828e-001
1	 7.651253352126196e-002	 9.970686125683425e-001	 3.279918160006415e-001
1	 6.683896610081594e-002	 9.977637591031844e-001	 3.400205825828591e-001
1	 5.719427911104236e-002	 9.983630448185401e-001	 3.479411627620158e-001
1	 4.757971027342479e-002	 9.988674201817246e-001	 3.520268094623849e-001
1	 3.799646941872222e-002	 9.992778519071311e-001	 3.525623265694828e-001
1	 2.844573836262598e-002	 9.995953221430518e-001	 3.498433153805221e-001
1	 1.892867080636962e-002	 9.998208276644112e-001	 3.441754273334196e-001
1	 9.446392261750505e-003	 9.999553790721549e-001	 3.358736241355367e-001
1	 0.000000000000000e+000	 1.000000000000000e+000	 3.252614463570256e-001
1	 9.849967122134784e-002	 1.021930866555178e+000	 3.609599725399153e-001
1	 8.851276490585905e-002	 1.022844241231782e+000	 3.748701802930921e-001
1	 7.855288245458961e-002	 1.023657300561674e+000	 3.860099774940466e-001
1	 6.862135137610560e-002	 1.024370984472468e+000	 3.944644585848945e-001
1	 5.871947087877485e-002	 1.024986251256887e+000	 4.003298069933673e-001
1	 4.884851169029193e-002	 1.025504076728145e+000	 4.037128181604373e-001
1	 3.900971590386785e-002	 1.025925453379796e+000	 4.047304207819077e-001
1	 2.920429685057112e-002	 1.026251389550869e+000	 4.035091971754747e-001
1	 1.943343899728704e-002	 1.026482908597069e+000	 4.001849036602650e-001
1	 9.698297869739969e-003	 1.026621048068823e+000	 3.949019917994170e-001
1	 0.000000000000000e+000	 1.026666858896873e+000	 3.878131313255816e-001
1	 1.010581561032000e-001	 1.048475063502990e+000	 4.278728739114217e-001
1	 9.081184436458804e-002	 1.049412162678889e+000	 4.361545861935507e-001
1	 8.059325842294968e-002	 1.050246340862016e+000	 4.429565747753022e-001
1	 7.040376026835922e-002	 1.050978562394118e+000	 4.482194497899090e-001
1	 6.024468285560673e-002	 1.051609810459080e+000	 4.518937164721081e-001
1	 5.011732991903532e-002	 1.052141086216367e+000	 4.539395420490007e-001
1	 4.002297581473560e-002	 1.052573407939045e+000	 4.543265152470633e-001
1	 2.996286538957090e-002	 1.052907810157237e+000	 4.530333990823665e-001
1	 1.993821387648608e-002	 1.053145342807795e+000	 4.500478775922224e-001
1	 9.950206815530237e-003	 1.053287070390996e+000	 4.453662971561129e-001
1	 0.000000000000000e+000	 1.053334071134978e+000	 4.389934030399217e-001
1	 1.036166704075698e-001	 1.075019565710423e+000	 4.999510637864592e-001
1	 9.311095026268376e-002	 1.075980389658250e+000	 5.039034612433493e-001
1	 8.263365785559605e-002	 1.076835686937253e+000	 5.071843189640043e-001
1	 7.218618965828585e-002	 1.077586446303605e+000	 5.096065215911814e-001
1	 6.176991237235380e-002	 1.078233675832652e+000	 5.109924112042344e-001
1	 5.138616273917136e-002	 1.078778402030408e+000	 5.111737584334487e-001
1	 4.103624737807992e-002	 1.079221668949764e+000	 5.099917206389358e-001
1	 3.072144265210026e-002	 1.079564537312246e+000	 5.072967876412400e-001
1	 2.044299456059079e-002	 1.079808083636172e+000	 5.029487155003843e-001
1	 1.020211865827077e-002	 1.079953399371986e+000	 4.968164488474952e-001
1	 0.000000000000000e+000	 1.080001590045551e+000	 4.887780322778849e-001
1	 1.061752096569922e-001	 1.101564326723789e+000	 5.849965361252802e-001
1	 9.541007857665534e-002	 1.102548875674683e+000	 5.857588671828733e-001
1	 8.467407718178258e-002	 1.103425292255272e+000	 5.862416640660766e-001
1	 7.396863642659460e-002	 1.104194589636403e+000	 5.861454589101042e-001
1	 6.329515675983193e-002	 1.104857800785134e+000	 5.851805299904033e-001
1	 5.265500793021638e-002	 1.105415977554288e+000	 5.830670392685406e-001
1	 4.204952882065519e-002	 1.105870189776840e+000	 5.795351514831569e-001
1	 3.148002731063408e-002	 1.106221524365987e+000	 5.743251351566863e-001
1	 2.094778016622522e-002	 1.106471084421780e+000	 5.671874459158790e-001
1	 1.045403295711100e-002	 1.106619988345106e+000	 5.578827925457521e-001
1	 0.000000000000000e+000	 1.106669368959824e+000	 5.461821862194530e-001
1	 1.087337693740024e-001	 1.128109300089399e+000	 6.900778250964735e-001
1	 9.770922528301190e-002	 1.129117574233009e+000	 6.886444805220280e-001
1	 8.671451283076313e-002	 1.130015110283961e+000	 6.869675092191193e-001
1	 7.575109745399455e-002	 1.130802945827984e+000	 6.846492083735281e-001
1	 6.482041334885687e-002	 1.131482138724057e+000	 6.813026093479825e-001
1	 5.392386327168685e-002	 1.132053766172024e+000	 6.765517455418637e-001
1	 4.306281836921587e-002	 1.132518923785159e+000	 6.700318962945953e-001
1	 3.223861803764724e-002	 1.132878724668551e+000	 6.613898071510984e-001
1	 2.145256981001344e-002	 1.133134298504202e+000	 6.502838868481441e-001
1	 1.070594927120041e-002	 1.133286790643667e+000	 6.363843814144263e-001
1	 0.000000000000000e+000	 1.133337361209029e+000	 6.193735258148436e-001
1	 1.112923450811353e-001	 1.154654439353569e+000	 8.216143954048719e-001
1	 1.000083863582626e-001	 1.155686438838045e+000	 8.188482529155116e-001
1	 8.875496123179164e-002	 1.156605094491205e+000	 8.155728463631731e-001
1	 7.753356962119480e-002	 1.157411468313820e+000	 8.113052155518765e-001
1	 6.634567947024449e-002	 1.158106643056953e+000	 8.055747972900496e-001
1	 5.519272654309911e-002	 1.158691721267636e+000	 7.979237889645633e-001
1	 4.407611425051639e-002	 1.159167824339611e+000	 7.879074826657437e-001
1	 3.299721350561465e-002	 1.159536091570028e+000	 7.750945701899390e-001
1	 2.195736260857948e-002	 1.159797679223020e+000	 7.590674192947439e-001
1	 1.095786715968844e-002	 1.159953759600982e+000	 7.394223216328605e-001
1	 0.000000000000000e+000	 1.160005520124402e+000	 7.157697128340032e-001
1	 1.138509323009261e-001	 1.181199698062607e+000	 9.854496607977873e-001
1	 1.023075577789164e-001	 1.182255422994611e+000	 9.820939328329931e-001
1	 9.079541881412197e-002	 1.183195198344892e+000	 9.777114056716338e-001
1	 7.931604980890450e-002	 1.184020110529385e+000	 9.717458017898860e-001
1	 6.787095245481058e-002	 1.184731267191354e+000	 9.636555559565717e-001
1	 5.646159552396952e-002	 1.185329796225141e+000	 9.529142413049520e-001
1	 4.508941469131115e-002	 1.185816844805080e+000	 9.390109604618391e-001
1	 3.375581238701120e-002	 1.186193578420510e+000	 9.214507021237465e-001
1	 2.246215767854739e-002	 1.186461179917814e+000	 8.997546635333185e-001
1	 1.120978618172454e-002	 1.186620848550362e+000	 8.734605393649431e-001
1	 0.000000000000000e+000	 1.186673799037173e+000	 8.421227775819903e-001
1	 1.164095265559098e-001	 1.207745029762831e+000	 1.186914379267655e+000
1	 1.046067355214827e-001	 1.208824480207525e+000	 1.183603161198159e+000
1	 9.283588200700799e-002	 1.209785375312910e+000	 1.178540990433812e+000
1	 8.109853489783266e-002	 1.210628825910150e+000	 1.171109265888843e+000
1	 6.939622963337101e-002	 1.211355964534790e+000	 1.160707046159984e+000
1	 5.773046799381452e-002	 1.211967944428558e+000	 1.146751506141349e+000
1	 4.610271791835461e-002	 1.212465938546455e+000	 1.128678353189634e+000
1	 3.451441335431180e-002	 1.212851138570085e+000	 1.105942203353420e+000
1	 2.296695413654122e-002	 1.213124753928167e+000	 1.078016918249781e+000
1	 1.146170589645817e-002	 1.213288010825121e+000	 1.044395903233708e+000
1	 0.000000000000000e+000	 1.213342151278578e+000	 1.004592367568081e+000
1	 1.189681233686213e-001	 1.234290388000549e+000	 1.430881872815200e+000
1	 1.069059155624703e-001	 1.235393563981607e+000	 1.428149559181798e+000
1	 9.487634723970358e-002	 1.236375578863144e+000	 1.422776902199827e+000
1	 8.288102176868849e-002	 1.237237567891589e+000	 1.414093106125301e+000
1	 7.092150833674156e-002	 1.237980688494794e+000	 1.401448595789573e+000
1	 5.899934173215044e-002	 1.238606119261905e+000	 1.384215472953796e+000
1	 4.711602215840118e-002	 1.239115058928623e+000	 1.361787926686885e+000
1	 3.527301507999132e-002	 1.239508725368847e+000	 1.333582598460195e+000
1	 2.347175109918501e-002	 1.239788354593661e+000	 1.299038902725455e+000
1	 1.171362586303879e-002	 1.239955199758569e+000	 1.257619303810717e+000
1	 0.000000000000000e+000	 1.240010530179849e+000	 1.208809550034498e+000
1	 1.215267182615959e-001	 1.260835726322077e+000	 1.721816275921819e+000
1	 1.092050938783885e-001	 1.261962627821675e+000	 1.720105987612397e+000
1	 9.691681094146261e-002	 1.262965762463481e+000	 1.714738621200369e+000
1	 8.466350730218102e-002	 1.263846289909173e+000	 1.705000523189506e+000
1	 7.244678589573805e-002	 1.264605392478897e+000	 1.690203418030577e+000
1	 6.026821451849371e-002	 1.265244274109201e+000	 1.669684834466690e+000
1	 4.812932563820527e-002	 1.265764159316470e+000	 1.642808480348242e+000
1	 3.603161623652470e-002	 1.266166292166884e+000	 1.608964566842722e+000
1	 2.397654768310283e-002	 1.266451935253878e+000	 1.567570083042771e+000
1	 1.196554564061585e-002	 1.266622368684020e+000	 1.518069022046601e+000
1	 0.000000000000000e+000	 1.266678889072220e+000	 1.459932559651391e+000
1	 1.266678889072220e+000	 0.000000000000000e+000	 2.288988632379639e+001
1	 1.266622368684020e+000	 1.196554564061589e-002	 2.281512346653765e+001
1	 1.266451935253877e+000	 2.397654768310291e-002	 2.273894500022179e+001
1	 1.266166292166884e+000	 3.603161623652462e-002	 2.266101297376769e+001
1	 1.265764159316470e+000	 4.812932563820523e-002	 2.258096942840706e+001
1	 1.265244274109201e+000	 6.026821451849370e-002	 2.249843630457816e+001
1	 1.264605392478897e+000	 7.244678589573809e-002	 2.241301537710519e+001
1	 1.263846289909173e+000	 8.466350730218103e-002	 2.232428821976041e+001
1	 1.262965762463481e+000	 9.691681094146248e-002	 2.223181620028225e+001
1	 1.261962627821675e+000	 1.092050938783884e-001	 2.213514050689433e+001
1	 1.260835726322077e+000	 1.215267182615958e-001	 2.203378220733994e+001
1	 1.293343190136031e+000	 0.000000000000000e+000	 2.291367377294700e+001
1	 1.293285479961983e+000	 1.221742708636594e-002	 2.282079161452569e+001
1	 1.293111458812611e+000	 2.448126745774412e-002	 2.272713631281808e+001
1	 1.292819802778529e+000	 3.679010196516097e-002	 2.263235186954893e+001
1	 1.292409204806197e+000	 4.914247493488750e-002	 2.253605802711599e+001
1	 1.291878375723875e+000	 6.153689423456663e-002	 2.243785009179477e+001
1	 1.291226045277082e+000	 7.397183137018699e-002	 2.233729878942667e+001
1	 1.290450963172669e+000	 8.644572161462837e-002	 2.223395015497409e+001
1	 1.289551900130541e+000	 9.895696416848014e-002	 2.212732545730275e+001
1	 1.288527648942039e+000	 1.115039223538046e-001	 2.201692116052407e+001
1	 1.287377025533950e+000	 1.240849238414894e-001	 2.190220892319807e+001
1	 1.320007431208043e+000	 0.000000000000000e+000	 2.307203336644004e+001
1	 1.319948531250828e+000	 1.246930796544279e-002	 2.296026329386552e+001
1	 1.319770922390312e+000	 2.498598609687761e-002	 2.284820807729911e+001
1	 1.319473253422687e+000	 3.754858598735979e-002	 2.273548203441943e+001
1	 1.319054190347506e+000	 5.015562195217481e-002	 2.262167173580896e+001
1	 1.318512417414774e+000	 6.280557109632907e-002	 2.250633578003439e+001
1	 1.317846638181773e+000	 7.549687341352278e-002	 2.238900460524029e+001
1	 1.317055576578640e+000	 8.822793191734575e-002	 2.226918033885587e+001
1	 1.316137977981790e+000	 1.009971128054111e-001	 2.214633668699108e+001
1	 1.315092610294107e+000	 1.138027456571139e-001	 2.201991886506799e+001
1	 1.313918265030891e+000	 1.266431236656700e-001	 2.188934357119823e+001
1	 1.346671618954121e+000	 0.000000000000000e+000	 2.335726815408856e+001
1	 1.346611529216121e+000	 1.272118834083839e-002	 2.322532215170481e+001
1	 1.346430332651642e+000	 2.549070372671897e-002	 2.309348000665387e+001
1	 1.346126650762511e+000	 3.830706849278583e-002	 2.296131533526911e+001
1	 1.345699122601420e+000	 5.116876694340033e-002	 2.282837125053286e+001
1	 1.345146405840180e+000	 6.407424542099521e-002	 2.269416012336527e+001
1	 1.344467177847875e+000	 7.702191240704667e-002	 2.255816338429459e+001
1	 1.343660136777989e+000	 9.001013865592052e-002	 2.241983136725825e+001
1	 1.342724002663489e+000	 1.030372573623213e-001	 2.227858319725612e+001
1	 1.341657518518851e+000	 1.161015643630453e-001	 2.213380672354351e+001
1	 1.340459451447940e+000	 1.292013183737075e-001	 2.198485850001237e+001
1	 1.373335760040133e+000	 0.000000000000000e+000	 2.376227899524828e+001
1	 1.373274480523431e+000	 1.297306827554474e-002	 2.360838998171843e+001
1	 1.373089696261269e+000	 2.599542047348386e-002	 2.345494598943355e+001
1	 1.372780001461154e+000	 3.906554967110389e-002	 2.330146948753399e+001
1	 1.372344008228968e+000	 5.218191016189716e-002	 2.314745038722486e+001
1	 1.371780347658369e+000	 6.534291752577912e-002	 2.299234582246952e+001
1	 1.371087670930294e+000	 7.854694873205979e-002	 2.283557997477790e+001
1	 1.370264650421613e+000	 9.179234227594005e-002	 2.267654394392200e+001
1	 1.369309980821893e+000	 1.050773983492762e-001	 2.251459566637757e+001
1	 1.368222380257244e+000	 1.184003790463279e-001	 2.234905988325161e+001
1	 1.367000591420135e+000	 1.317595086051721e-001	 2.217922815940981e+001
1	 1.399999861131944e+000	 0.000000000000000e+000	 2.428050762297056e+001
1	 1.399937391838324e+000	 1.322494783255377e-002	 2.410246594680459e+001
1	 1.399749019883856e+000	 2.650013646338788e-002	 2.392520988125329e+001
1	 1.399433312181770e+000	 3.982402971197879e-002	 2.374820083034905e+001
1	 1.398988853891178e+000	 5.319505186099847e-002	 2.357086625970471e+001
1	 1.398414249527623e+000	 6.661158772789501e-002	 2.339259952875830e+001
1	 1.397708124083939e+000	 8.007198276986338e-002	 2.321275977067658e+001
1	 1.396869124160417e+000	 9.357454322299176e-002	 2.303067182176842e+001
1	 1.395895919103263e+000	 1.071175362763417e-001	 2.284562620221871e+001
1	 1.394787202150259e+000	 1.206991902816908e-001	 2.265687914990672e+001
1	 1.393541691582514e+000	 1.343176949996336e-001	 2.246365270901914e+001
1	 1.426663928895422e+000	 0.000000000000000e+000	 2.490588609380308e+001
1	 1.426600269826366e+000	 1.347682707485748e-002	 2.470107261826730e+001
1	 1.426408310184067e+000	 2.700485182264663e-002	 2.449742849760641e+001
1	 1.426086589587512e+000	 4.058250880507529e-002	 2.429434464131248e+001
1	 1.425633666249075e+000	 5.420819229403738e-002	 2.409117728856353e+001
1	 1.425048118106222e+000	 6.788025634455705e-002	 2.388724792319486e+001
1	 1.424328543963713e+000	 8.159701490175864e-002	 2.368184323974899e+001
1	 1.423473564645299e+000	 9.535674194266300e-002	 2.347421516241101e+001
1	 1.422481824153855e+000	 1.091576716535834e-001	 2.326358091858799e+001
1	 1.421351990838867e+000	 1.229979986438629e-001	 2.304912316883388e+001
1	 1.420082758570117e+000	 1.368758781966621e-001	 2.282999019475923e+001
1	 1.453327969996434e+000	 0.000000000000000e+000	 2.563279180302272e+001
1	 1.453263121153126e+000	 1.372870606544782e-002	 2.539820795593063e+001
1	 1.453067573826569e+000	 2.750956667747578e-002	 2.516526088300678e+001
1	 1.452739840341533e+000	 4.134098714005818e-002	 2.493326202242364e+001
1	 1.452278451963687e+000	 5.522133171434702e-002	 2.470148803509635e+001
1	 1.451681960052446e+000	 6.914892369297943e-002	 2.446918083265607e+001
1	 1.450948937224526e+000	 8.312204550904671e-002	 2.423554765978192e+001
1	 1.450077978527162e+000	 9.713893888054116e-002	 2.399976123259400e+001
1	 1.449067702619928e+000	 1.111978049910672e-001	 2.376095993475011e+001
1	 1.447916752964040e+000	 1.252968047075733e-001	 2.351824807282182e+001
1	 1.446623799017982e+000	 1.394340588358277e-001	 2.327069619245139e+001
1	 1.479991991100845e+000	 0.000000000000000e+000	 2.645600736332061e+001
1	 1.479925952484172e+000	 1.398058486731675e-002	 2.618830247984165e+001
1	 1.479726817476025e+000	 2.801428115409090e-002	 2.592282306481193e+001
1	 1.479393071106987e+000	 4.209946490659224e-002	 2.565879252835797e+001
1	 1.478923217696040e+000	 5.623447037526055e-002	 2.539539999942091e+001
1	 1.478315782024575e+000	 7.041759009037626e-002	 2.513180049617231e+001
1	 1.477569310521282e+000	 8.464707497302883e-002	 2.486711515393323e+001
1	 1.476682372456906e+000	 9.892113448221362e-002	 2.460043151213507e+001
1	 1.475653561147740e+000	 1.132379367988586e-001	 2.433080386178863e+001
1	 1.474481495166753e+000	 1.275956090475512e-001	 2.405725365484654e+001
1	 1.473164819561149e+000	 1.419922375567004e-001	 2.377876997676013e+001
1	 1.506655998874523e+000	 0.000000000000000e+000	 2.737068474435918e+001
1	 1.506588770485068e+000	 1.423246354345626e-002	 2.706618099032609e+001
1	 1.506386047797100e+000	 2.851899537870764e-002	 2.676464761217720e+001
1	 1.506046288547027e+000	 4.285794229434228e-002	 2.646521182560535e+001
1	 1.505567970107163e+000	 5.724760853011108e-002	 2.616696764382177e+001
1	 1.504949590680887e+000	 7.168625585396170e-002	 2.586897621907814e+001
1	 1.504189670508888e+000	 8.617210367500611e-002	 2.557026624470597e+001
1	 1.503286753085432e+000	 1.007033291932677e-001	 2.526983441898947e+001
1	 1.502239406383549e+000	 1.152780675870236e-001	 2.496664597210124e+001
1	 1.501046224087976e+000	 1.298944122385254e-001	 2.465963525723601e+001
1	 1.499705826834654e+000	 1.445504149988501e-001	 2.434770640697701e+001
1	 1.533319999983334e+000	 0.000000000000000e+000	 2.837231315446232e+001
1	 1.533251581821385e+000	 1.448434215685831e-002	 2.802702828265859e+001
1	 1.533045271454459e+000	 2.902370947754160e-002	 2.768564741514094e+001
1	 1.532699499324805e+000	 4.361641949297308e-002	 2.734719376999060e+001
1	 1.532212715858081e+000	 5.826074643223178e-002	 2.701065900517609e+001
1	 1.531583392679665e+000	 7.295492130094992e-002	 2.667500375912319e+001
1	 1.530810023842251e+000	 8.769713199627981e-002	 2.633915825468942e+001
1	 1.529891127063641e+000	 1.024855234592909e-001	 2.600202296757957e+001
1	 1.528825244973612e+000	 1.173181978656276e-001	 2.566246936013616e+001
1	 1.527610946368682e+000	 1.321932148552252e-001	 2.531934068132900e+001
1	 1.526246827473539e+000	 1.471085918018469e-001	 2.497145283365154e+001
1	 1.260835726322077e+000	 1.215267182615958e-001	 2.203378220733994e+001
1	 1.259584119230017e+000	 1.338781607374896e-001	 2.192958715207871e+001
1	 1.258206536305377e+000	 1.462595828897382e-001	 2.182436668578234e+001
1	 1.256701892811832e+000	 1.586692716415527e-001	 2.171761436782980e+001
1	 1.255069130798217e+000	 1.711054810238902e-001	 2.160881420564941e+001
1	 1.253307220138871e+000	 1.835664325704446e-001	 2.149744115099992e+001
1	 1.251415159572273e+000	 1.960503157475885e-001	 2.138296162360787e+001
1	 1.249391977736748e+000	 2.085552884195949e-001	 2.126483406198106e+001
1	 1.247236734201940e+000	 2.210794773494281e-001	 2.114250950115007e+001
1	 1.244948520494780e+000	 2.336209787353382e-001	 2.101543217702017e+001
1	 1.242526461118596e+000	 2.461778587834510e-001	 2.088304015694445e+001
1	 1.287377025533950e+000	 1.240849238414894e-001	 2.190220892319807e+001
1	 1.286099071410704e+000	 1.366963711093230e-001	 2.178532403624724e+001
1	 1.284692489592918e+000	 1.493384291424060e-001	 2.166835970464677e+001
1	 1.283156172509960e+000	 1.620093488027418e-001	 2.155074950217565e+001
1	 1.281489039940201e+000	 1.747073473676788e-001	 2.143191535862508e+001
1	 1.279690040073258e+000	 1.874306089332176e-001	 2.131126809764505e+001
1	 1.277758150570499e+000	 2.001772848530018e-001	 2.118820800613610e+001
1	 1.275692379622538e+000	 2.129454942133351e-001	 2.106212543503973e+001
1	 1.273491767002438e+000	 2.257333243445114e-001	 2.093240143130317e+001
1	 1.271155385113263e+000	 2.385388313687072e-001	 2.079840840071629e+001
1	 1.268682340028648e+000	 2.513600407846233e-001	 2.065951080123728e+001
1	 1.313918265030891e+000	 1.266431236656700e-001	 2.188934357119823e+001
1	 1.312613963935719e+000	 1.395145751404187e-001	 2.175709548697201e+001
1	 1.311178383290003e+000	 1.524172684678870e-001	 2.162561244522230e+001
1	 1.309610392688861e+000	 1.653494184489529e-001	 2.149426903859923e+001
1	 1.307908889640256e+000	 1.783092056074409e-001	 2.136242666579194e+001
1	 1.306072800649137e+000	 1.912947766017440e-001	 2.122943412243423e+001
1	 1.304101082299808e+000	 2.043042446728650e-001	 2.109462822716710e+001
1	 1.301992722335230e+000	 2.173356901292264e-001	 2.095733448270494e+001
1	 1.299746740731929e+000	 2.303871608685431e-001	 2.081686777166858e+001
1	 1.297362190769153e+000	 2.434566729370094e-001	 2.067253308685970e+001
1	 1.294838160090887e+000	 2.565422111259951e-001	 2.052362629556295e+001
1	 1.340459451447940e+000	 1.292013183737075e-001	 2.198485850001238e+001
1	 1.339128803433513e+000	 1.423327735353478e-001	 2.183461656018353e+001
1	 1.337664224017839e+000	 1.554961016359137e-001	 2.168590989477382e+001
1	 1.336064559961831e+000	 1.686894814152311e-001	 2.153805505470711e+001
1	 1.334328686503093e+000	 1.819110566436752e-001	 2.139035436714531e+001
1	 1.332455508461953e+000	 1.951589365421073e-001	 2.124209659058907e+001
1	 1.330443961345699e+000	 2.084311962389667e-001	 2.109255760818688e+001
1	 1.328293012449679e+000	 2.217258772648734e-001	 2.094100115905728e+001
1	 1.326001661953930e+000	 2.350409880850432e-001	 2.078667960733661e+001
1	 1.323568944013922e+000	 2.483745046697696e-001	 2.062883474856836e+001
1	 1.320993927844035e+000	 2.617243711031739e-001	 2.046669865295235e+001
1	 1.367000591420135e+000	 1.317595086051721e-001	 2.217922815940981e+001
1	 1.365643596532541e+000	 1.451509669986814e-001	 2.200840109438154e+001
1	 1.364150018397633e+000	 1.585749294162189e-001	 2.183983039032495e+001
1	 1.362518680942165e+000	 1.720295385366216e-001	 2.167277543583137e+001
1	 1.360748437133422e+000	 1.855129013768804e-001	 2.150648086591023e+001
1	 1.358838170107153e+000	 1.990230897203908e-001	 2.134017729208949e+001
1	 1.356786794293666e+000	 2.125581405830955e-001	 2.117308207323425e+001
1	 1.354593256540739e+000	 2.261160567178805e-001	 2.100440012681036e+001
1	 1.352256537231954e+000	 2.396948071575316e-001	 2.083332478021871e+001
1	 1.349775651399042e+000	 2.532923277965123e-001	 2.065903866172200e+001
1	 1.347149649826810e+000	 2.669065220117671e-001	 2.048071463037958e+001
1	 1.393541691582514e+000	 1.343176949996336e-001	 2.246365270901914e+001
1	 1.392158349861254e+000	 1.479691562349905e-001	 2.226968563548565e+001
1	 1.390635773050592e+000	 1.616537525785351e-001	 2.207867006095731e+001
1	 1.388972762243157e+000	 1.753695906481697e-001	 2.188980903565605e+001
1	 1.387168148135953e+000	 1.891147407075555e-001	 2.170229080772939e+001
1	 1.385220792180180e+000	 2.028872371026778e-001	 2.151528963884955e+001
1	 1.383129587729204e+000	 2.166850787370401e-001	 2.132796666251520e+001
1	 1.380893461183264e+000	 2.305062295858520e-001	 2.113947078466967e+001
1	 1.378511373129517e+000	 2.443486192495283e-001	 2.094893962613963e+001
1	 1.375982319475984e+000	 2.582101435467623e-001	 2.075550050628696e+001
1	 1.373305332577932e+000	 2.720886651473819e-001	 2.055827146715247e+001
1	 1.420082758570117e+000	 1.368758781966621e-001	 2.282999019475923e+001
1	 1.418673070048106e+000	 1.507873419488461e-001	 2.261036189390418e+001
1	 1.417121494597922e+000	 1.647325718925951e-001	 2.239437574429377e+001
1	 1.415426810478104e+000	 1.787096385849206e-001	 2.218117923046350e+001
1	 1.413587826115396e+000	 1.927165755361990e-001	 2.196990545044978e+001
1	 1.411603381276482e+000	 2.067513796550519e-001	 2.175967402710379e+001
1	 1.409472348237812e+000	 2.208120117325893e-001	 2.154959206358236e+001
1	 1.407193632952109e+000	 2.348963969663925e-001	 2.133875514248217e+001
1	 1.404766176210132e+000	 2.490024255245532e-001	 2.112624836796542e+001
1	 1.402188954796221e+000	 2.631279531500440e-001	 2.091114745010718e+001
1	 1.399460982636122e+000	 2.772708018056259e-001	 2.069251983057231e+001
1	 1.446623799017982e+000	 1.394340588358277e-001	 2.327069619245138e+001
1	 1.445187763721549e+000	 1.536055248448193e-001	 2.302291663788671e+001
1	 1.443607189660832e+000	 1.678113881281315e-001	 2.277948528868508e+001
1	 1.441880832260298e+000	 1.820496831819193e-001	 2.253949478886807e+001
1	 1.440007477676460e+000	 1.963184067633098e-001	 2.230202425960788e+001
1	 1.437985943991505e+000	 2.106155183435960e-001	 2.206614031620980e+001
1	 1.435815082404983e+000	 2.249389406015317e-001	 2.183089813025013e+001
1	 1.433493778422127e+000	 2.392865599571062e-001	 2.159534253615424e+001
1	 1.431020953037317e+000	 2.536562271461264e-001	 2.135850918137437e+001
1	 1.428395563911226e+000	 2.680457578358819e-001	 2.111942571920112e+001
1	 1.425616606540098e+000	 2.824529332821062e-001	 2.087711304311335e+001
1	 1.473164819561149e+000	 1.419922375567004e-001	 2.377876997676013e+001
1	 1.471702437510035e+000	 1.564237056274813e-001	 2.350037808520506e+001
1	 1.470092864860527e+000	 1.708902020548769e-001	 2.322707430952459e+001
1	 1.468334834203037e+000	 1.853897252742113e-001	 2.295789713431871e+001
1	 1.466427109423857e+000	 1.999202352893867e-001	 2.269187281822051e+001
1	 1.464368486920693e+000	 2.144796541343939e-001	 2.242801652625807e+001
1	 1.462157796816215e+000	 2.290658663756561e-001	 2.216533350786682e+001
1	 1.459793904168173e+000	 2.436767196555978e-001	 2.190282031962298e+001
1	 1.457275710174585e+000	 2.583100252777679e-001	 2.163946609163634e+001
1	 1.454602153372468e+000	 2.729635588338008e-001	 2.137425383640760e+001
1	 1.451772210828581e+000	 2.876350608724305e-001	 2.110616179881997e+001
1	 1.499705826834654e+000	 1.445504149988501e-001	 2.434770640697701e+001
1	 1.498217098042018e+000	 1.592418850014028e-001	 2.403626798802244e+001
1	 1.496578526818215e+000	 1.739690144425641e-001	 2.373070860002716e+001
1	 1.494788822919614e+000	 1.887297656968416e-001	 2.343001320830863e+001
1	 1.492846727962297e+000	 2.035220620149284e-001	 2.313315626854090e+001
1	 1.490751016659494e+000	 2.183437879935286e-001	 2.283910298398087e+001
1	 1.488500498057003e+000	 2.331927900867511e-001	 2.254681060836852e+001
1	 1.486094016765102e+000	 2.480668771594715e-001	 2.225522979332595e+001
1	 1.483530454185450e+000	 2.629638210829976e-001	 2.196330597894008e+001
1	 1.480808729731422e+000	 2.778813573733251e-001	 2.166998082607391e+001
1	 1.477927802040291e+000	 2.928171858722059e-001	 2.137419368880942e+001
1	 1.526246827473539e+000	 1.471085918018469e-001	 2.497145283365154e+001
1	 1.524731751945950e+000	 1.620600636711551e-001	 2.462455871783450e+001
1	 1.523064182155104e+000	 1.770478260609258e-001	 2.428440150807048e+001
1	 1.521242805023325e+000	 1.920698052848553e-001	 2.394991325243497e+001
1	 1.519266339896488e+000	 2.071238878404338e-001	 2.362001761229187e+001
1	 1.517133539803352e+000	 2.222079208870836e-001	 2.329363125365816e+001
1	 1.514843192712843e+000	 2.373197127666054e-001	 2.296966528380650e+001
1	 1.512394122787768e+000	 2.524570335663319e-001	 2.264702673165300e+001
1	 1.509785191633430e+000	 2.676176157253354e-001	 2.232462007032981e+001
1	 1.507015299539557e+000	 2.827991546839795e-001	 2.200134878019669e+001
1	 1.504083386713946e+000	 2.979993095770399e-001	 2.167611695039670e+001
1	 1.242526461118596e+000	 2.461778587834510e-001	 2.088304015694445e+001
1	 1.239969321048035e+000	 2.587500404700431e-001	 2.074741468471592e+001
1	 1.237276647587192e+000	 2.713336459116922e-001	 2.061072807930437e+001
1	 1.234447670954891e+000	 2.839266512220444e-001	 2.047249582088076e+001
1	 1.231481658369039e+000	 2.965270050962132e-001	 2.033224194811530e+001
1	 1.228377915011984e+000	 3.091326295656696e-001	 2.018949992908036e+001
1	 1.225135784980603e+000	 3.217414207892365e-001	 2.004381353497977e+001
1	 1.221754652219686e+000	 3.343512498799867e-001	 1.989473771505828e+001
1	 1.218233941437156e+000	 3.469599637677736e-001	 1.974183947099733e+001
1	 1.214573118999657e+000	 3.595653860970647e-001	 1.958469872905962e+001
1	 1.210771693807061e+000	 3.721653181596841e-001	 1.942290920820510e+001
1	 1.268682340028648e+000	 2.513600407846233e-001	 2.065951080123728e+001
1	 1.266071370725263e+000	 2.641968739471594e-001	 2.051805778111020e+001
1	 1.263322014977708e+000	 2.770453713412648e-001	 2.037649407977338e+001
1	 1.260433486800480e+000	 2.899034664766287e-001	 2.023426359020834e+001
1	 1.257405037986019e+000	 3.027690648672337e-001	 2.009081801899278e+001
1	 1.254235959090373e+000	 3.156400448021336e-001	 1.994561784571321e+001
1	 1.250925580403296e+000	 3.285142581531009e-001	 1.979813328789440e+001
1	 1.247473272901273e+000	 3.413895312189304e-001	 1.964784526968552e+001
1	 1.243878449182009e+000	 3.542636656061270e-001	 1.949424639248675e+001
1	 1.240140564378870e+000	 3.671344391456396e-001	 1.933684190564753e+001
1	 1.236259117053800e+000	 3.799996068452375e-001	 1.917515067531863e+001
1	 1.294838160090887e+000	 2.565422111259951e-001	 2.052362629556295e+001
1	 1.292173361675890e+000	 2.696436951690278e-001	 2.037278266520305e+001
1	 1.289367323769279e+000	 2.827570839196106e-001	 2.022273897069839e+001
1	 1.286419244181258e+000	 2.958802682835723e-001	 2.007287375577921e+001
1	 1.283328359278822e+000	 3.090111105938581e-001	 1.992257297431057e+001
1	 1.280093944991751e+000	 3.221474453972028e-001	 1.977123103707563e+001
1	 1.276715317802694e+000	 3.352870802784264e-001	 1.961825186619075e+001
1	 1.273191835719854e+000	 3.484277967221452e-001	 1.946304995526696e+001
1	 1.269522899230740e+000	 3.615673510116164e-001	 1.930505143336833e+001
1	 1.265707952235458e+000	 3.747034751643715e-001	 1.914369513075695e+001
1	 1.261746482958037e+000	 3.878338779042281e-001	 1.897843364435832e+001
1	 1.320993927844035e+000	 2.617243711031739e-001	 2.046669865295236e+001
1	 1.318275300425168e+000	 2.750905054974155e-001	 2.030320388466860e+001
1	 1.315412580472970e+000	 2.884687850747152e-001	 2.014139170803911e+001
1	 1.312404949593380e+000	 3.018570581371237e-001	 1.998058125018101e+001
1	 1.309251628727974e+000	 3.152531438366363e-001	 1.982009897338115e+001
1	 1.305951879180282e+000	 3.286548329777549e-001	 1.965927980818572e+001
1	 1.302505003625874e+000	 3.420598888584344e-001	 1.949746829567969e+001
1	 1.298910347104691e+000	 3.554660481492021e-001	 1.933401973693344e+001
1	 1.295167297994062e+000	 3.688710218101569e-001	 1.916830134752329e+001
1	 1.291275288960849e+000	 3.822724960455040e-001	 1.899969341496484e+001
1	 1.287233797891179e+000	 3.956681332952001e-001	 1.882759045683572e+001
1	 1.347149649826810e+000	 2.669065220117671e-001	 2.048071463037958e+001
1	 1.344377193498347e+000	 2.805373062940901e-001	 2.030158723406731e+001
1	 1.341457791599845e+000	 2.941804762345625e-001	 2.012500807549180e+001
1	 1.338390609533002e+000	 3.078338375315319e-001	 1.995024251620732e+001
1	 1.335174852813998e+000	 3.214951661561187e-001	 1.977656349452871e+001
1	 1.331809768120134e+000	 3.351622091706677e-001	 1.960325274393203e+001
1	 1.328294644319918e+000	 3.488326855863470e-001	 1.942960202166274e+001
1	 1.324628813485048e+000	 3.625042872596722e-001	 1.925491434537988e+001
1	 1.320811651882687e+000	 3.761746798276636e-001	 1.907850523558878e+001
1	 1.316842580946469e+000	 3.898415036812795e-001	 1.889970396154102e+001
1	 1.312721068224635e+000	 4.035023749766975e-001	 1.871785478821319e+001
1	 1.373305332577932e+000	 2.720886651473819e-001	 2.055827146715247e+001
1	 1.370479047420677e+000	 2.859840989208189e-001	 2.036078773108736e+001
1	 1.367502963660969e+000	 2.998921588271373e-001	 2.016671098640220e+001
1	 1.364376230496282e+000	 3.138106079610459e-001	 1.997525822000443e+001
1	 1.361098038017419e+000	 3.277371791128551e-001	 1.978565454267735e+001
1	 1.357667618275472e+000	 3.416695756028192e-001	 1.959713449186087e+001
1	 1.354084246331905e+000	 3.556054721553858e-001	 1.940894334513178e+001
1	 1.350347241290185e+000	 3.695425158131266e-001	 1.922033844205276e+001
1	 1.346455967307327e+000	 3.834783268900515e-001	 1.903059051197774e+001
1	 1.342409834583748e+000	 3.974104999639416e-001	 1.883898500532321e+001
1	 1.338208300329813e+000	 4.113366049072643e-001	 1.864482342574344e+001
1	 1.399460982636122e+000	 2.772708018056259e-001	 2.069251983057232e+001
1	 1.396580868717411e+000	 2.914308847393696e-001	 2.047419454906871e+001
1	 1.393548103167406e+000	 3.056038342804243e-001	 2.026013748112555e+001
1	 1.390361818979375e+000	 3.197873709199146e-001	 2.004952238923284e+001
1	 1.387021190818762e+000	 3.339791842673958e-001	 1.984153200218941e+001
1	 1.383525436110463e+000	 3.481769339010871e-001	 1.963535940139170e+001
1	 1.379873816108914e+000	 3.623782502587722e-001	 1.943020941780305e+001
1	 1.376065636949365e+000	 3.765807355691361e-001	 1.922530003710217e+001
1	 1.372100250678695e+000	 3.907819648232359e-001	 1.901986381042389e+001
1	 1.367977056264114e+000	 4.049794867857330e-001	 1.881314926802343e+001
1	 1.363695500578122e+000	 4.191708250454448e-001	 1.860442233312061e+001
1	 1.425616606540098e+000	 2.824529332821062e-001	 2.087711304311336e+001
1	 1.422682663913799e+000	 2.968776651115094e-001	 2.063568201229896e+001
1	 1.419593216630219e+000	 3.113155040224080e-001	 2.039939155982547e+001
1	 1.416347381478437e+000	 3.257641279023868e-001	 2.016737715097153e+001
1	 1.412944317698551e+000	 3.402211831802908e-001	 1.993878434561702e+001
1	 1.409383228089274e+000	 3.546842856923493e-001	 1.971277026722254e+001
1	 1.405663360098026e+000	 3.691510215897284e-001	 1.948850508197235e+001
1	 1.401784006891852e+000	 3.836189482872719e-001	 1.926517348539847e+001
1	 1.397744508407502e+000	 3.980855954531314e-001	 1.904197619371408e+001
1	 1.393544252378993e+000	 4.125484660388972e-001	 1.881813143700079e+001
1	 1.389182675340970e+000	 4.270050373497829e-001	 1.859287645131612e+001
1	 1.451772210828581e+000	 2.876350608724305e-001	 2.110616179881997e+001
1	 1.448784439535093e+000	 3.023244413990055e-001	 2.083956588936980e+001
1	 1.445638310560474e+000	 3.170271694810730e-001	 2.057900211467509e+001
1	 1.442332924489626e+000	 3.317408804027114e-001	 2.032357236305735e+001
1	 1.438867425137311e+000	 3.464631774120902e-001	 2.007239002281407e+001
1	 1.435241000676072e+000	 3.611916326034839e-001	 1.982458153312226e+001
1	 1.431452884746319e+000	 3.759237878414755e-001	 1.957928794410291e+001
1	 1.427502357546905e+000	 3.906571557271049e-001	 1.933566648317202e+001
1	 1.423388746904461e+000	 4.053892206056537e-001	 1.909289212471190e+001
1	 1.419111429319816e+000	 4.201174396156769e-001	 1.885015916001169e+001
1	 1.414669830989763e+000	 4.348392437788227e-001	 1.860668276434624e+001
1	 1.477927802040291e+000	 2.928171858722059e-001	 2.137419368880942e+001
1	 1.474886202106543e+000	 3.077712149636254e-001	 2.108056432816663e+001
1	 1.471683391469234e+000	 3.227388320844039e-001	 2.079388532964649e+001
1	 1.468318454509097e+000	 3.377176299151375e-001	 2.051322953256459e+001
1	 1.464790519615566e+000	 3.527051685233442e-001	 2.023768295051319e+001
1	 1.461098760335022e+000	 3.676989762613686e-001	 1.996634640346959e+001
1	 1.457242396500875e+000	 3.826965507072358e-001	 1.969833715758835e+001
1	 1.453220695343789e+000	 3.976953596482062e-001	 1.943279056960041e+001
1	 1.449032972580285e+000	 4.126928421067173e-001	 1.916886173264944e+001
1	 1.444678593478009e+000	 4.276864094083155e-001	 1.890572712030936e+001
1	 1.440156973895912e+000	 4.426734462911082e-001	 1.864258622544746e+001
1	 1.504083386713946e+000	 2.979993095770399e-001	 2.167611695039670e+001
1	 1.500987958153399e+000	 3.132179871671365e-001	 2.135376286739639e+001
1	 1.497728465867564e+000	 3.284504932603852e-001	 2.103931100398248e+001
1	 1.494303978033006e+000	 3.436943779339137e-001	 2.073180949948753e+001
1	 1.490713607613841e+000	 3.589471580746027e-001	 2.043032160315777e+001
1	 1.486956513530291e+000	 3.742063182928812e-001	 2.013392738679109e+001
1	 1.483031901808774e+000	 3.894693118802305e-001	 1.984172546311769e+001
1	 1.478939026711766e+000	 4.047335618101468e-001	 1.955283470663381e+001
1	 1.474677191845686e+000	 4.199964617822379e-001	 1.926639597350594e+001
1	 1.470245751245001e+000	 4.352553773090560e-001	 1.898157381707600e+001
1	 1.465644110430824e+000	 4.505076468451837e-001	 1.869755819541974e+001
1	 1.210771693807061e+000	 3.721653181596841e-001	 1.942290920820510e+001
1	 1.206829217841571e+000	 3.847575396775871e-001	 1.925742618520884e+001
1	 1.202745286085772e+000	 3.973398092324930e-001	 1.908931645754602e+001
1	 1.198519538232249e+000	 4.099098658216918e-001	 1.891836863679268e+001
1	 1.194151659763825e+000	 4.224654301051314e-001	 1.874439419452642e+001
1	 1.189641382703130e+000	 4.350042055046847e-001	 1.856722809890568e+001
1	 1.184988486332486e+000	 4.475238793346628e-001	 1.838672942146291e+001
1	 1.180192797882715e+000	 4.600221239627187e-001	 1.820278191226555e+001
1	 1.175254193189512e+000	 4.724965980002161e-001	 1.801529454163589e+001
1	 1.170172597316046e+000	 4.849449475210771e-001	 1.782420200666277e+001
1	 1.164947985140473e+000	 4.973648073080526e-001	 1.762946520078783e+001
1	 1.236259117053800e+000	 3.799996068452375e-001	 1.917515067531863e+001
1	 1.232233649757977e+000	 3.928569016887678e-001	 1.901021735956212e+001
1	 1.228063748948146e+000	 4.057040350748470e-001	 1.884321778352864e+001
1	 1.223749046732216e+000	 4.185386984054039e-001	 1.867389673362108e+001
1	 1.219289221972249e+000	 4.313585643590141e-001	 1.850202409647037e+001
1	 1.214684001049800e+000	 4.441612880133066e-001	 1.832739557931579e+001
1	 1.209933158600961e+000	 4.569445079992766e-001	 1.814983339763899e+001
1	 1.205036518219666e+000	 4.697058476866244e-001	 1.796918692798286e+001
1	 1.199993953127882e+000	 4.824429163991847e-001	 1.778533332392597e+001
1	 1.194805386811314e+000	 4.951533106594304e-001	 1.759817809323013e+001
1	 1.189470793619292e+000	 5.078346154609772e-001	 1.740765563423245e+001
1	 1.261746482958037e+000	 3.878338779042281e-001	 1.897843364435832e+001
1	 1.257638024518648e+000	 4.009562454770290e-001	 1.881044300098263e+001
1	 1.253382154848216e+000	 4.140682420983951e-001	 1.864104534592458e+001
1	 1.248978498470000e+000	 4.271675115750019e-001	 1.846994316402018e+001
1	 1.244426727625320e+000	 4.402516786041618e-001	 1.829686593010942e+001
1	 1.239726563054677e+000	 4.533183499193709e-001	 1.812157090725532e+001
1	 1.234877774747946e+000	 4.663651154684180e-001	 1.794384390975033e+001
1	 1.229880182662189e+000	 4.793895496231639e-001	 1.776350002863906e+001
1	 1.224733657405657e+000	 4.923892124200253e-001	 1.758038431752781e+001
1	 1.219438120886602e+000	 5.053616508301388e-001	 1.739437243650161e+001
1	 1.213993546925534e+000	 5.183044000580986e-001	 1.720537125202656e+001
1	 1.287233797891179e+000	 3.956681332952001e-001	 1.882759045683572e+001
1	 1.283042348474234e+000	 4.090555730671776e-001	 1.865332751180802e+001
1	 1.278700510115135e+000	 4.224324323941558e-001	 1.847839623235518e+001
1	 1.274207899752516e+000	 4.357963074876533e-001	 1.830245829299388e+001
1	 1.269564183006969e+000	 4.491447750638160e-001	 1.812520391382731e+001
1	 1.264769074977957e+000	 4.624753935121033e-001	 1.794635273089055e+001
1	 1.259822341009157e+000	 4.757857040971966e-001	 1.776565462929394e+001
1	 1.254723797420769e+000	 4.890732321932149e-001	 1.758289053671032e+001
1	 1.249473312207339e+000	 5.023354885492570e-001	 1.739787317479597e+001
1	 1.244070805699674e+000	 5.155699705852225e-001	 1.721044776618695e+001
1	 1.238516251189468e+000	 5.287741637167839e-001	 1.702049269477254e+001
1	 1.312721068224635e+000	 4.035023749766975e-001	 1.871785478821319e+001
1	 1.308446627975386e+000	 4.171548864840204e-001	 1.853446617892638e+001
1	 1.304018821078061e+000	 4.307966080531482e-001	 1.835120947040162e+001
1	 1.299437256886679e+000	 4.444250883005265e-001	 1.816770698824095e+001
1	 1.294701594401127e+000	 4.580378559612176e-001	 1.798361084001640e+001
1	 1.289811543079843e+000	 4.716324210807296e-001	 1.779860385226029e+001
1	 1.284766863620316e+000	 4.852062762407214e-001	 1.761240046872466e+001
1	 1.279567368705895e+000	 4.987568978176555e-001	 1.742474760729196e+001
1	 1.274212923717429e+000	 5.122817472733993e-001	 1.723542547296425e+001
1	 1.268703447408290e+000	 5.257782724767012e-001	 1.704424832441127e+001
1	 1.263038912541362e+000	 5.392439090544005e-001	 1.685106519161990e+001
1	 1.338208300329813e+000	 4.113366049072643e-001	 1.864482342574344e+001
1	 1.333850869372756e+000	 4.252541877523638e-001	 1.844978985159615e+001
1	 1.329337094066145e+000	 4.391607711663916e-001	 1.825573346209507e+001
1	 1.324666576179405e+000	 4.530538561707893e-001	 1.806223866776535e+001
1	 1.319838968091726e+000	 4.669309235196080e-001	 1.786892059213871e+001
1	 1.314853973620533e+000	 4.807894349144758e-001	 1.767542607012069e+001
1	 1.309711348817139e+000	 4.946268342541015e-001	 1.748143460654354e+001
1	 1.304410902728050e+000	 5.084405489173637e-001	 1.728665929214218e+001
1	 1.298952498120429e+000	 5.222279910789710e-001	 1.709084767423539e+001
1	 1.293336052170214e+000	 5.359865590565953e-001	 1.689378257944841e+001
1	 1.287561537111484e+000	 5.497136386883157e-001	 1.669528288587616e+001
1	 1.363695500578122e+000	 4.191708250454448e-001	 1.860442233312061e+001
1	 1.359255079016994e+000	 4.333534788970149e-001	 1.839553358082997e+001
1	 1.354655335408544e+000	 4.475249238249043e-001	 1.818849707079597e+001
1	 1.349895863937609e+000	 4.616826132556096e-001	 1.798286070680068e+001
1	 1.344976310362695e+000	 4.758239799622282e-001	 1.777820374413945e+001
1	 1.339896372860226e+000	 4.899464373025678e-001	 1.757413784429412e+001
1	 1.334655802835345e+000	 5.040473804924456e-001	 1.737030808914055e+001
1	 1.329254405697723e+000	 5.181241879132170e-001	 1.716639395180077e+001
1	 1.323692041600839e+000	 5.321742224524918e-001	 1.696211022129447e+001
1	 1.317968626143207e+000	 5.461948328769254e-001	 1.675720787819775e+001
1	 1.312084131030102e+000	 5.601833552358968e-001	 1.655147491858094e+001
1	 1.389182675340970e+000	 4.270050373497829e-001	 1.859287645131612e+001
1	 1.384659263258752e+000	 4.414527619427804e-001	 1.836820871149270e+001
1	 1.379973551434412e+000	 4.558890681197056e-001	 1.814628389132520e+001
1	 1.375125126468206e+000	 4.703113617121550e-001	 1.792661477255630e+001
1	 1.370113627497968e+000	 4.847170275123194e-001	 1.770874584629539e+001
1	 1.364938747059123e+000	 4.991034305342312e-001	 1.749225441910932e+001
1	 1.359600231910653e+000	 5.134679173108632e-001	 1.727675167841596e+001
1	 1.354097883825400e+000	 5.278078172260935e-001	 1.706188371418040e+001
1	 1.348431560343163e+000	 5.421204438804806e-001	 1.684733249395792e+001
1	 1.342601175485032e+000	 5.564030964897108e-001	 1.663281678837942e+001
1	 1.336606700427484e+000	 5.706530613145109e-001	 1.641809304423876e+001
1	 1.414669830989763e+000	 4.348392437788227e-001	 1.860668276434624e+001
1	 1.410063428448682e+000	 4.495520389144668e-001	 1.836457799161509e+001
1	 1.405291748472902e+000	 4.642532061418142e-001	 1.812610930183654e+001
1	 1.400354370078112e+000	 4.789401036975940e-001	 1.789075571749249e+001
1	 1.395250925781475e+000	 4.936100683931229e-001	 1.765802805865213e+001
1	 1.389981102477423e+000	 5.082604168986921e-001	 1.742747009576231e+001
1	 1.384544642278781e+000	 5.228884470644629e-001	 1.719865966191563e+001
1	 1.378941343321566e+000	 5.374914392768713e-001	 1.697120972150446e+001
1	 1.373171060531900e+000	 5.520666578494572e-001	 1.674476939220910e+001
1	 1.367233706353451e+000	 5.666113524469723e-001	 1.651902491732012e+001
1	 1.361129251433898e+000	 5.811227595415255e-001	 1.629370058545596e+001
1	 1.440156973895912e+000	 4.426734462911082e-001	 1.864258622544746e+001
1	 1.435467580937434e+000	 4.576513118368814e-001	 1.838163332509126e+001
1	 1.430609932853170e+000	 4.726173399822491e-001	 1.812519995277384e+001
1	 1.425583601074242e+000	 4.875688413690944e-001	 1.787273271412348e+001
1	 1.420388211497145e+000	 5.025031048278797e-001	 1.762370984118478e+001
1	 1.415023445375325e+000	 5.174173986851759e-001	 1.737764238734752e+001
1	 1.409489040175448e+000	 5.323089721083543e-001	 1.713407538232530e+001
1	 1.403784790396708e+000	 5.471750564864277e-001	 1.689258894401580e+001
1	 1.397910548351551e+000	 5.620128668459404e-001	 1.665279934411157e+001
1	 1.391866224906227e+000	 5.768196033007297e-001	 1.641436002438043e+001
1	 1.385651790179613e+000	 5.915924525343077e-001	 1.617696256059211e+001
1	 1.465644110430824e+000	 4.505076468451837e-001	 1.869755819541974e+001
1	 1.460871727075660e+000	 4.657505827348306e-001	 1.841657584594163e+001
1	 1.455928110904371e+000	 4.809814717320294e-001	 1.814097539621022e+001
1	 1.450812825763512e+000	 4.961975768838239e-001	 1.787017235845466e+001
1	 1.445525490928912e+000	 5.113961390398313e-001	 1.760361345028669e+001
1	 1.440065782013028e+000	 5.265743781829089e-001	 1.734077782735383e+001
1	 1.434433431836373e+000	 5.417294947976459e-001	 1.708117827700081e+001
1	 1.428628231261313e+000	 5.568586712756410e-001	 1.682436236971032e+001
1	 1.422650029986620e+000	 5.719590733564495e-001	 1.656991356512884e+001
1	 1.416498737301121e+000	 5.870278516030030e-001	 1.631745226952928e+001
1	 1.410174322794896e+000	 6.020621429102250e-001	 1.606663684161732e+001
1	 1.164947985140473e+000	 4.973648073080526e-001	 1.762946520078783e+001
1	 1.159581197877747e+000	 5.097519464059583e-001	 1.743137670130372e+001
1	 1.154071539441347e+000	 5.221058475389500e-001	 1.723025324398838e+001
1	 1.148419138145507e+000	 5.344241210826426e-001	 1.702622384130590e+001
1	 1.142624174058487e+000	 5.467043713871074e-001	 1.681944897928056e+001
1	 1.136686879394964e+000	 5.589441981408801e-001	 1.661012071148144e+001
1	 1.130607538866382e+000	 5.711411977547047e-001	 1.639846269747660e+001
1	 1.124386489988285e+000	 5.832929647635357e-001	 1.618473018478413e+001
1	 1.118024123343679e+000	 5.953970932452810e-001	 1.596920993347269e+001
1	 1.111520882801578e+000	 6.074511782547065e-001	 1.575222008269406e+001
1	 1.104877265689896e+000	 6.194528172708822e-001	 1.553410995856469e+001
1	 1.189470793619292e+000	 5.078346154609772e-001	 1.740765563423246e+001
1	 1.183991032474813e+000	 5.204825107846713e-001	 1.721409134496763e+001
1	 1.178365392638336e+000	 5.330964684657114e-001	 1.701780970610437e+001
1	 1.172594005125170e+000	 5.456740485767645e-001	 1.681887647280535e+001
1	 1.166677053794102e+000	 5.582128050381114e-001	 1.661738994707481e+001
1	 1.160614775748049e+000	 5.707102870103701e-001	 1.641348116618062e+001
1	 1.154407461691780e+000	 5.831640403073666e-001	 1.620731403449641e+001
1	 1.148055456245717e+000	 5.955716088276521e-001	 1.599908539758877e+001
1	 1.141559158214848e+000	 6.079305360031093e-001	 1.578902505749916e+001
1	 1.134919020811867e+000	 6.202383662630417e-001	 1.557739572830066e+001
1	 1.128135551833708e+000	 6.324926465120909e-001	 1.536449293114607e+001
1	 1.213993546925534e+000	 5.183044000580986e-001	 1.720537125202656e+001
1	 1.208400812153459e+000	 5.312130510209823e-001	 1.701370523582617e+001
1	 1.202659191177848e+000	 5.440870646650543e-001	 1.681967846083150e+001
1	 1.196768817715077e+000	 5.569239507601439e-001	 1.662330156411300e+001
1	 1.190729879414451e+000	 5.697212127968530e-001	 1.642461863215717e+001
1	 1.184542618267112e+000	 5.824763494079926e-001	 1.622370746956016e+001
1	 1.178207330971136e+000	 5.951868558105830e-001	 1.602067981020454e+001
1	 1.171724369251810e+000	 6.078502252668817e-001	 1.581568146957107e+001
1	 1.165094140136081e+000	 6.204639505628590e-001	 1.560889243696301e+001
1	 1.158317106180301e+000	 6.330255255024672e-001	 1.540052690655116e+001
1	 1.151393785650396e+000	 6.455324464160297e-001	 1.519083324628529e+001
1	 1.238516251189468e+000	 5.287741637167839e-001	 1.702049269477254e+001
1	 1.232810543015708e+000	 5.419435697974288e-001	 1.682830193862964e+001
1	 1.226952941132905e+000	 5.550776388845086e-001	 1.663413487531649e+001
1	 1.220943581958496e+000	 5.681738304451133e-001	 1.643795470145405e+001
1	 1.214782656932294e+000	 5.812295975402648e-001	 1.623975880206726e+001
1	 1.208470412933654e+000	 5.942423882750677e-001	 1.603957908591385e+001
1	 1.202007152653947e+000	 6.072096472698342e-001	 1.583748226246783e+001
1	 1.195393234923308e+000	 6.201288171506310e-001	 1.563357005906617e+001
1	 1.188629074990625e+000	 6.329973400576118e-001	 1.542797937685261e+001
1	 1.181715144755887e+000	 6.458126591694798e-001	 1.522088238428515e+001
1	 1.174651972953994e+000	 6.585722202423398e-001	 1.501248654711087e+001
1	 1.263038912541362e+000	 5.392439090544005e-001	 1.685106519161990e+001
1	 1.257220231163583e+000	 5.526740697965494e-001	 1.665611384678958e+001
1	 1.251246648576530e+000	 5.660681938716050e-001	 1.645958824928910e+001
1	 1.245118303898696e+000	 5.794236904440049e-001	 1.626141140720988e+001
1	 1.238835392360393e+000	 5.927379621452803e-001	 1.606154109901651e+001
1	 1.232398165729178e+000	 6.060084065529144e-001	 1.585997026236221e+001
1	 1.225806932689711e+000	 6.192324176906022e-001	 1.565672732383619e+001
1	 1.219062059176956e+000	 6.324073875483049e-001	 1.545187646803635e+001
1	 1.212163968661729e+000	 6.455307076204506e-001	 1.524551784448655e+001
1	 1.205113142387636e+000	 6.585997704605783e-001	 1.503778771105071e+001
1	 1.197910119558531e+000	 6.716119712506629e-001	 1.482885851263514e+001
1	 1.287561537111484e+000	 5.497136386883157e-001	 1.669528288587615e+001
1	 1.281629882699106e+000	 5.634045537008822e-001	 1.649550800901676e+001
1	 1.275540319581744e+000	 5.770587323738733e-001	 1.629456906046377e+001
1	 1.269292989578943e+000	 5.906735335691515e-001	 1.609235571840593e+001
1	 1.262888091711506e+000	 6.042463094888311e-001	 1.588879286242280e+001
1	 1.256325882635189e+000	 6.177744071828526e-001	 1.568384100308922e+001
1	 1.249606677027924e+000	 6.312551700783681e-001	 1.547749665189188e+001
1	 1.242730847929497e+000	 6.446859395293100e-001	 1.526979262976358e+001
1	 1.235698827032637e+000	 6.580640563844562e-001	 1.506079831266762e+001
1	 1.228511104924556e+000	 6.713868625722594e-001	 1.485061981279766e+001
1	 1.221168231278044e+000	 6.846517027006408e-001	 1.463940009410010e+001
1	 1.312084131030102e+000	 5.601833552358968e-001	 1.655147491858094e+001
1	 1.306039503724299e+000	 5.741350241929648e-001	 1.634497354557431e+001
1	 1.299833960221570e+000	 5.880492571388442e-001	 1.613771764043504e+001
1	 1.293467645042504e+000	 6.019233626328854e-001	 1.592957004618074e+001
1	 1.286940760998396e+000	 6.157546424478506e-001	 1.572042909289987e+001
1	 1.280253569633189e+000	 6.295403931062016e-001	 1.551022905586454e+001
1	 1.273406391618082e+000	 6.432779074386127e-001	 1.529894055343619e+001
1	 1.266399607097675e+000	 6.569644761630513e-001	 1.508657088300836e+001
1	 1.259233655986598e+000	 6.705973894827110e-001	 1.487316429335859e+001
1	 1.251909038215656e+000	 6.841739387010215e-001	 1.465880219191578e+001
1	 1.244426313926563e+000	 6.976914178519144e-001	 1.444360328559139e+001
1	 1.336606700427484e+000	 5.706530613145109e-001	 1.641809304423876e+001
1	 1.330449100341185e+000	 5.848654839553354e-001	 1.620311044996551e+001
1	 1.324127576569028e+000	 5.990397709140478e-001	 1.598777409732443e+001
1	 1.317642276332648e+000	 6.131731804475389e-001	 1.577192615169854e+001
1	 1.310993406233822e+000	 6.272629638992715e-001	 1.555544441108588e+001
1	 1.304181232704681e+000	 6.413063672642813e-001	 1.533824278082691e+001
1	 1.297206082409683e+000	 6.553006327768172e-001	 1.512027168770305e+001
1	 1.290068342598234e+000	 6.692430005189354e-001	 1.490151843161590e+001
1	 1.282768461406858e+000	 6.831307100482967e-001	 1.468200747318469e+001
1	 1.275306948109946e+000	 6.969610020433622e-001	 1.446180065573512e+001
1	 1.267684373318120e+000	 7.107311199641255e-001	 1.424099736029582e+001
1	 1.361129251433898e+000	 5.811227595415255e-001	 1.629370058545596e+001
1	 1.354858678651786e+000	 5.955959356705326e-001	 1.606861960130824e+001
1	 1.348421174697141e+000	 6.100302764470145e-001	 1.584356932792351e+001
1	 1.341816889492642e+000	 6.244229898254444e-001	 1.561837709768575e+001
1	 1.335046033430547e+000	 6.387712767200264e-001	 1.539290588582964e+001
1	 1.328108877831169e+000	 6.530723325984108e-001	 1.516705479024698e+001
1	 1.321005755352224e+000	 6.673233490984624e-001	 1.494075945033885e+001
1	 1.313737060347918e+000	 6.815215156663675e-001	 1.471399240311269e+001
1	 1.306303249176666e+000	 6.956640212142953e-001	 1.448676337485315e+001
1	 1.298704840456433e+000	 7.097480557957786e-001	 1.425911950683246e+001
1	 1.290942415266750e+000	 7.237708122969158e-001	 1.403114551366947e+001
1	 1.385651790179613e+000	 5.915924525343077e-001	 1.617696256059211e+001
1	 1.379268244758125e+000	 6.063263820210936e-001	 1.594029383739232e+001
1	 1.372714760678931e+000	 6.210207764852744e-001	 1.570401698434462e+001
1	 1.365991490565752e+000	 6.356727935789341e-001	 1.546795005471216e+001
1	 1.359098648601329e+000	 6.502795837870480e-001	 1.523194662402131e+001
1	 1.352036510994155e+000	 6.648382920499099e-001	 1.499589626374548e+001
1	 1.344805416395201e+000	 6.793460594090302e-001	 1.475972495380232e+001
1	 1.337405766263471e+000	 6.938000246747536e-001	 1.452339543207875e+001
1	 1.329838025179267e+000	 7.081973261137887e-001	 1.428690747932869e+001
1	 1.322102721104127e+000	 7.225351031547689e-001	 1.405029813792600e+001
1	 1.314200445586484e+000	 7.368104981099263e-001	 1.381364186310055e+001
1	 1.410174322794896e+000	 6.020621429102250e-001	 1.606663684161732e+001
1	 1.403677804762223e+000	 6.170568256895567e-001	 1.581700995928733e+001
1	 1.397008340587419e+000	 6.320112737763581e-001	 1.556810627897329e+001
1	 1.390166085595247e+000	 6.469225945203407e-001	 1.531973985815572e+001
1	 1.383151257758930e+000	 6.617878879772692e-001	 1.507176002934162e+001
1	 1.375964138175143e+000	 6.766042485600979e-001	 1.482405185673372e+001
1	 1.368605071488112e+000	 6.913687667140008e-001	 1.457653653157289e+001
1	 1.361074466261639e+000	 7.060785306134997e-001	 1.432917170440683e+001
1	 1.353372795297910e+000	 7.207306278798588e-001	 1.408195175267048e+001
1	 1.345500595902038e+000	 7.353221473168310e-001	 1.383490798210209e+001
1	 1.337458470091355e+000	 7.498501806627994e-001	 1.358810876066534e+001
1	 1.104877265689896e+000	 6.194528172708822e-001	 1.553410995856468e+001
1	 1.098092794993187e+000	 6.314013997351550e-001	 1.531343109447764e+001
1	 1.091169062434710e+000	 6.432927274468235e-001	 1.508869117213435e+001
1	 1.084106727484178e+000	 6.551244135982918e-001	 1.486011421727561e+001
1	 1.076906503314615e+000	 6.668940797275553e-001	 1.462794500898618e+001
1	 1.069569156736019e+000	 6.785993572081285e-001	 1.439244901209594e+001
1	 1.062095508079932e+000	 6.902378887419132e-001	 1.415391227275626e+001
1	 1.054486431034654e+000	 7.018073298531413e-001	 1.391264127692973e+001
1	 1.046742852430854e+000	 7.133053503815100e-001	 1.366896277162107e+001
1	 1.038865751977465e+000	 7.247296359725971e-001	 1.342322354876788e+001
1	 1.030856161947795e+000	 7.360778895636447e-001	 1.317579019180341e+001
1	 1.128135551833708e+000	 6.324926465120909e-001	 1.536449293114607e+001
1	 1.121208264223476e+000	 6.446927533389900e-001	 1.514864367525471e+001
1	 1.114138783211110e+000	 6.568344001685658e-001	 1.492821792267873e+001
1	 1.106927782148541e+000	 6.689151499495939e-001	 1.470352366956856e+001
1	 1.099575989221505e+000	 6.809325741521235e-001	 1.447489490961663e+001
1	 1.092084187381794e+000	 6.928842542887643e-001	 1.424269144437070e+001
1	 1.084453214229405e+000	 7.047677834389823e-001	 1.400729864611357e+001
1	 1.076683961844281e+000	 7.165807677744921e-001	 1.376912717321313e+001
1	 1.068777376567416e+000	 7.283208280838213e-001	 1.352861263796376e+001
1	 1.060734458731179e+000	 7.399856012941009e-001	 1.328621522706038e+001
1	 1.052556262338826e+000	 7.515727419881261e-001	 1.304241927496673e+001
1	 1.151393785650396e+000	 6.455324464160297e-001	 1.519083324628529e+001
1	 1.144323681448046e+000	 6.579840770396939e-001	 1.497797644446862e+001
1	 1.137108452309784e+000	 6.703760424240129e-001	 1.476023744289850e+001
1	 1.129748785469733e+000	 6.827058552742500e-001	 1.453799251073276e+001
1	 1.122245424126297e+000	 6.949710369926212e-001	 1.431164841298194e+001
1	 1.114599167373023e+000	 7.071691192309458e-001	 1.408164211643276e+001
1	 1.106810870078322e+000	 7.192976454463669e-001	 1.384844043894441e+001
1	 1.098881442713736e+000	 7.313541724581945e-001	 1.361253964216300e+001
1	 1.090811851130529e+000	 7.433362720038976e-001	 1.337446496784285e+001
1	 1.082603116284461e+000	 7.552415322922724e-001	 1.313477011810736e+001
1	 1.074256313908682e+000	 7.670675595517769e-001	 1.289403668012729e+001
1	 1.174651972953994e+000	 6.585722202423398e-001	 1.501248654711086e+001
1	 1.167439052445210e+000	 6.712753741597765e-001	 1.480084797591883e+001
1	 1.160078075472602e+000	 6.839176575982479e-001	 1.458419874275339e+001
1	 1.152569743152447e+000	 6.964965330196067e-001	 1.436296857753874e+001
1	 1.144914813695786e+000	 7.090094717583353e-001	 1.413762149191831e+001
1	 1.137114102337887e+000	 7.214539556055635e-001	 1.390865539782877e+001
1	 1.129168481215533e+000	 7.338274783962134e-001	 1.367660166161644e+001
1	 1.121078879191826e+000	 7.461275475972879e-001	 1.344202459386241e+001
1	 1.112846281628262e+000	 7.583516858952986e-001	 1.320552087524527e+001
1	 1.104471730103942e+000	 7.704974327808040e-001	 1.296771891893714e+001
1	 1.095956322081866e+000	 7.825623461280227e-001	 1.272927817019379e+001
1	 1.197910119558531e+000	 6.716119712506629e-001	 1.482885851263514e+001
1	 1.190554382993286e+000	 6.845666480217496e-001	 1.461672199220041e+001
1	 1.183047658441432e+000	 6.974592490763552e-001	 1.439959361759432e+001
1	 1.175390660901376e+000	 7.102871866330096e-001	 1.417794258368856e+001
1	 1.167584163596768e+000	 7.230478819585515e-001	 1.395227547134310e+001
1	 1.159628997904562e+000	 7.357387669835083e-001	 1.372313579506308e+001
1	 1.151526053229886e+000	 7.483572859206673e-001	 1.349110347968623e+001
1	 1.143276276827363e+000	 7.609008968848122e-001	 1.325679426636430e+001
1	 1.134880673568683e+000	 7.733670735115833e-001	 1.302085904828447e+001
1	 1.126340305656252e+000	 7.857533065733875e-001	 1.278398313675972e+001
1	 1.117656292282877e+000	 7.980571055902893e-001	 1.254688545850072e+001
1	 1.221168231278044e+000	 6.846517027006408e-001	 1.463940009410010e+001
1	 1.213669678870589e+000	 6.978579019481238e-001	 1.442510306658445e+001
1	 1.206017206958142e+000	 7.110008202434178e-001	 1.420595257522880e+001
1	 1.198211544421214e+000	 7.240778195618056e-001	 1.398244403826538e+001
1	 1.190253479496037e+000	 7.370862711025564e-001	 1.375511271108220e+001
1	 1.182143859701229e+000	 7.500235569356701e-001	 1.352453317883551e+001
1	 1.173883591710230e+000	 7.628870716518743e-001	 1.329131877285418e+001
1	 1.165473641169157e+000	 7.756742240138078e-001	 1.305612091117748e+001
1	 1.156915032459861e+000	 7.883824386063120e-001	 1.281962836376398e+001
1	 1.148208848408022e+000	 8.010091574837155e-001	 1.258256644310677e+001
1	 1.139356229936217e+000	 8.135518418120015e-001	 1.234569612118790e+001
1	 1.244426313926563e+000	 6.976914178519144e-001	 1.444360328559139e+001
1	 1.236784945855437e+000	 7.111491392614100e-001	 1.422553280695426e+001
1	 1.228986726764600e+000	 7.245423744845198e-001	 1.400284121978717e+001
1	 1.221032399416653e+000	 7.378684352533408e-001	 1.377603762194985e+001
1	 1.212922767060388e+000	 7.511246426996362e-001	 1.354567277289090e+001
1	 1.204658693356066e+000	 7.643083290329400e-001	 1.331233854656867e+001
1	 1.196241102245413e+000	 7.774168392219808e-001	 1.307666730416031e+001
1	 1.187670977766017e+000	 7.904475326773144e-001	 1.283933118695767e+001
1	 1.178949363809866e+000	 8.033977849330436e-001	 1.260104133005583e+001
1	 1.170077363825882e+000	 8.162649893254801e-001	 1.236254699764931e+001
1	 1.161056140466386e+000	 8.290465586665842e-001	 1.212463464095861e+001
1	 1.267684373318120e+000	 7.107311199641255e-001	 1.424099736029581e+001
1	 1.259900189726144e+000	 7.244403632841190e-001	 1.401758645987982e+001
1	 1.251956223602675e+000	 7.380839151847439e-001	 1.378985703371463e+001
1	 1.243853231592387e+000	 7.516590371549613e-001	 1.355831996220485e+001
1	 1.235592031956618e+000	 7.651630002590770e-001	 1.332352900947461e+001
1	 1.227173504497251e+000	 7.785930868462080e-001	 1.308608025146910e+001
1	 1.218598590424284e+000	 7.919465922631326e-001	 1.284661142103811e+001
1	 1.209868292166755e+000	 8.052208265683716e-001	 1.260580117043731e+001
1	 1.200983673126766e+000	 8.184131162453378e-001	 1.236436825189923e+001
1	 1.191945857376462e+000	 8.315208059123731e-001	 1.212307061714113e+001
1	 1.182756029297883e+000	 8.445412600274632e-001	 1.188270443689429e+001
1	 1.290942415266750e+000	 7.237708122969158e-001	 1.403114551366947e+001
1	 1.283015416261027e+000	 7.377315773387618e-001	 1.380086988183677e+001
1	 1.274925703214236e+000	 7.516254457291739e-001	 1.356662650767295e+001
1	 1.266674046653109e+000	 7.654496287140142e-001	 1.332891675710561e+001
1	 1.258261279851520e+000	 7.792013472901653e-001	 1.308828552228200e+001
1	 1.249688298752963e+000	 7.928778339463646e-001	 1.284532063927725e+001
1	 1.240956061835691e+000	 8.064763344074757e-001	 1.260065222114152e+001
1	 1.232065589920179e+000	 8.199941093800192e-001	 1.235495190674024e+001
1	 1.223017965918630e+000	 8.334284362967542e-001	 1.210893202606217e+001
1	 1.213814334526392e+000	 8.467766110580868e-001	 1.186334468289029e+001
1	 1.204455901855211e+000	 8.600359497680635e-001	 1.161898075595245e+001
1	 1.314200445586484e+000	 7.368104981099263e-001	 1.381364186310055e+001
1	 1.306130631238402e+000	 7.510227847478495e-001	 1.357501683208115e+001
1	 1.297895171341149e+000	 7.651669695028937e-001	 1.333280257524585e+001
1	 1.289494850303512e+000	 7.792402133778452e-001	 1.308748020461840e+001
1	 1.280930516411890e+000	 7.932396873021873e-001	 1.283957444237963e+001
1	 1.272203081751379e+000	 8.071625739043004e-001	 1.258965304219341e+001
1	 1.263313522068484e+000	 8.210060692871558e-001	 1.233832612536019e+001
1	 1.254262876575102e+000	 8.347673848052973e-001	 1.208624543225175e+001
1	 1.245052247693526e+000	 8.484437488408523e-001	 1.183410348970246e+001
1	 1.235682800742303e+000	 8.620324085763136e-001	 1.158263269525555e+001
1	 1.226155763562868e+000	 8.755306317618103e-001	 1.133260431938535e+001
1	 1.337458470091355e+000	 7.498501806627994e-001	 1.358810876066534e+001
1	 1.329245840436585e+000	 7.643139888338926e-001	 1.333968654801998e+001
1	 1.320864633725284e+000	 7.787084898909862e-001	 1.308806231533960e+001
1	 1.312315648248289e+000	 7.930307945938000e-001	 1.283368670014085e+001
1	 1.303599747304523e+000	 8.072780238044296e-001	 1.257705349507468e+001
1	 1.294717859120680e+000	 8.214473102909055e-001	 1.231869908649577e+001
1	 1.285670976711510e+000	 8.355358005343189e-001	 1.205920180844970e+001
1	 1.276460157680332e+000	 8.495406565372459e-001	 1.179918121251274e+001
1	 1.267086523959525e+000	 8.634590576311914e-001	 1.153929725413957e+001
1	 1.257551261490825e+000	 8.772882022807456e-001	 1.128024939639551e+001
1	 1.247855619845356e+000	 8.910253098821287e-001	 1.102277563217196e+001
1	 1.030856161947795e+000	 7.360778895636447e-001	 1.317579019180341e+001
1	 1.022715166525019e+000	 7.473478326137195e-001	 1.292541723394984e+001
1	 1.014443900524439e+000	 7.585372058120380e-001	 1.267097634530513e+001
1	 1.006043549818665e+000	 7.696437712595147e-001	 1.241303345463257e+001
1	 9.975153511208504e-001	 7.806653141634373e-001	 1.215216595212845e+001
1	 9.888605914263493e-001	 7.915996442727785e-001	 1.188896205205381e+001
1	 9.800806074060003e-001	 8.024445972974047e-001	 1.162402013345410e+001
1	 9.711767847515960e-001	 8.131980363093015e-001	 1.135794806009100e+001
1	 9.621505574741556e-001	 8.238578531239378e-001	 1.109136248076882e+001
1	 9.530034071557008e-001	 8.344219696599167e-001	 1.082488811129340e+001
1	 9.437368621553292e-001	 8.448883392750972e-001	 1.055915699935427e+001
1	 1.052556262338826e+000	 7.515727419881261e-001	 1.304241927496673e+001
1	 1.044243894396206e+000	 7.630799236604066e-001	 1.279582939170025e+001
1	 1.035798513607119e+000	 7.745048394403977e-001	 1.254508921479766e+001
1	 1.027221330807447e+000	 7.858452043199752e-001	 1.229076686314868e+001
1	 1.018513608743844e+000	 7.970987568837924e-001	 1.203343982910868e+001
1	 1.009676661503627e+000	 8.082632607748014e-001	 1.177369432657095e+001
1	 1.000711853895297e+000	 8.193365061433413e-001	 1.151212462088117e+001
1	 9.916206007802294e-001	 8.303163110778581e-001	 1.124933234176573e+001
1	 9.824043663561701e-001	 8.412005230153463e-001	 1.098592578049439e+001
1	 9.730646633932649e-001	 8.519870201296238e-001	 1.072251917254410e+001
1	 9.636030524234189e-001	 8.626737126955777e-001	 1.045973196707346e+001
1	 1.074256313908682e+000	 7.670675595517769e-001	 1.289403668012729e+001
1	 1.065772573831665e+000	 7.788119793124742e-001	 1.265060020577825e+001
1	 1.057153078645655e+000	 7.904724371441629e-001	 1.240277538670268e+001
1	 1.048399064149761e+000	 8.020466009297870e-001	 1.215113977273039e+001
1	 1.039511819124084e+000	 8.135321626314671e-001	 1.189627933342048e+001
1	 1.030492684747856e+000	 8.249268397862400e-001	 1.163878778157239e+001
1	 1.021343053967182e+000	 8.362283769850172e-001	 1.137926588027286e+001
1	 1.012064370812964e+000	 8.474345473328055e-001	 1.111832073471211e+001
1	 1.002658129669613e+000	 8.585431538882246e-001	 1.085656507004610e+001
1	 9.931258744953387e-001	 8.695520310804036e-001	 1.059461649662472e+001
1	 9.834691979947897e-001	 8.804590461013546e-001	 1.033309676394320e+001
1	 1.095956322081866e+000	 7.825623461280227e-001	 1.272927817019379e+001
1	 1.087301210213081e+000	 7.945440035026687e-001	 1.248818221894724e+001
1	 1.078507600978236e+000	 8.064400029149779e-001	 1.224235108944976e+001
1	 1.069576755139626e+000	 8.182479651390546e-001	 1.199237853471177e+001
1	 1.060509987510751e+000	 8.299655355145810e-001	 1.173886686240891e+001
1	 1.051308666362708e+000	 8.415903854727679e-001	 1.148242622414798e+001
1	 1.041974212779163e+000	 8.531202140451907e-001	 1.122367388796660e+001
1	 1.032508099960486e+000	 8.645527493535050e-001	 1.096323349537294e+001
1	 1.022911852477707e+000	 8.758857500780444e-001	 1.070173430427889e+001
1	 1.013187045477039e+000	 8.871170069033347e-001	 1.043981041922186e+001
1	 1.003335303835817e+000	 8.982443439385991e-001	 1.017810001030919e+001
1	 1.117656292282877e+000	 7.980571055902893e-001	 1.254688545850072e+001
1	 1.108829808922140e+000	 8.102760001637359e-001	 1.230714815502042e+001
1	 1.099862085943054e+000	 8.224075407444853e-001	 1.206226332041835e+001
1	 1.090754409071060e+000	 8.344493009978826e-001	 1.181284725093460e+001
1	 1.081508119153021e+000	 8.463988796412525e-001	 1.155952597906112e+001
1	 1.072124611551856e+000	 8.582539020000586e-001	 1.130293451917262e+001
1	 1.062605335488745e+000	 8.700120215466197e-001	 1.104371609415020e+001
1	 1.052951793333486e+000	 8.816709214193184e-001	 1.078252134439184e+001
1	 1.043165539843673e+000	 8.932283159202766e-001	 1.052000752065569e+001
1	 1.033248181353480e+000	 9.046819519894958e-001	 1.025683766223025e+001
1	 1.023201374912877e+000	 9.160296106534807e-001	 9.993679761970384e+000
1	 1.139356229936217e+000	 8.135518418120015e-001	 1.234569612118790e+001
1	 1.130358375340526e+000	 8.260079732284229e-001	 1.210617947611640e+001
1	 1.121216538878298e+000	 8.383750546243289e-001	 1.186107739499086e+001
1	 1.111932031238083e+000	 8.506506125563763e-001	 1.161103465805462e+001
1	 1.102506219300071e+000	 8.628321991195993e-001	 1.135670797121911e+001
1	 1.092940525518970e+000	 8.749173935337853e-001	 1.109876515894033e+001
1	 1.083236427253435e+000	 8.869038037120627e-001	 1.083788433396385e+001
1	 1.073395456042649e+000	 8.987890678096056e-001	 1.057475304543174e+001
1	 1.063419196830736e+000	 9.105708557503934e-001	 1.031006740690799e+001
1	 1.053309287139780e+000	 9.222468707299641e-001	 1.004453120593807e+001
1	 1.043067416192346e+000	 9.338148506921709e-001	 9.778854996812301e+000
1	 1.161056140466386e+000	 8.290465586665842e-001	 1.212463464095861e+001
1	 1.151886914849926e+000	 8.417399266294754e-001	 1.188405622327746e+001
1	 1.142570965122156e+000	 8.543425485461513e-001	 1.163746589204348e+001
1	 1.133109626934713e+000	 8.668519038646394e-001	 1.138554248284050e+001
1	 1.123504293201081e+000	 8.792654980577411e-001	 1.112897991824559e+001
1	 1.113756413467723e+000	 8.915808642396221e-001	 1.086848633908324e+001
1	 1.103867493230738e+000	 9.037955647642769e-001	 1.060478320658953e+001
1	 1.093839093198666e+000	 9.159071928037287e-001	 1.033860437709248e+001
1	 1.083672828502116e+000	 9.279133739038656e-001	 1.007069515089191e+001
1	 1.073370367851056e+000	 9.398117675158186e-001	 9.801811297098382e+000
1	 1.062933432640599e+000	 9.516000685008400e-001	 9.532718056257929e+000
1	 1.182756029297883e+000	 8.445412600274632e-001	 1.188270443689429e+001
1	 1.173415432832025e+000	 8.574718642996397e-001	 1.163964797560650e+001
1	 1.163925370012821e+000	 8.703100265015967e-001	 1.139019881650672e+001
1	 1.154287201454969e+000	 8.830531789727772e-001	 1.113507507952067e+001
1	 1.144502346105226e+000	 8.956987805637957e-001	 1.087501407151581e+001
1	 1.134572280601786e+000	 9.082443182832425e-001	 1.061077134729741e+001
1	 1.124498538578164e+000	 9.206873089260210e-001	 1.034311973376924e+001
1	 1.114282709912222e+000	 9.330253006810482e-001	 1.007284831898894e+001
1	 1.103926439921037e+000	 9.452558747161652e-001	 9.800761407946023e+000
1	 1.093431428502421e+000	 9.573766467381373e-001	 9.527677446986260e+000
1	 1.082799429224013e+000	 9.693852685256590e-001	 9.254427918893352e+000
1	 1.204455901855211e+000	 8.600359497680635e-001	 1.161898075595245e+001
1	 1.194943934668507e+000	 8.732037901716623e-001	 1.137190578684174e+001
1	 1.185279758888481e+000	 8.862774924823083e-001	 1.111813482548422e+001
1	 1.175464760092871e+000	 8.992544419308942e-001	 1.085843018747128e+001
1	 1.165500383261686e+000	 9.121320507458814e-001	 1.059357838301956e+001
1	 1.155388132124831e+000	 9.249077598303189e-001	 1.032438909928876e+001
1	 1.145129568453215e+000	 9.375790404200531e-001	 1.005169413637500e+001
1	 1.134726311294007e+000	 9.501433957209261e-001	 9.776346298844556e+000
1	 1.124180036150719e+000	 9.625983625227634e-001	 9.499218244797982e+000
1	 1.113492474108993e+000	 9.749415127879983e-001	 9.221201294572401e+000
1	 1.102665410908964e+000	 9.871704552127985e-001	 8.943204201303804e+000
1	 1.226155763562868e+000	 8.755306317618103e-001	 1.133260431938535e+001
1	 1.216472425741059e+000	 8.889357081782895e-001	 1.107985497826497e+001
1	 1.206634137087326e+000	 9.022449504799290e-001	 1.082021338615513e+001
1	 1.196642308142437e+000	 9.154556967890949e-001	 1.055449067043477e+001
1	 1.186498409919638e+000	 9.285653127121178e-001	 1.028352803982285e+001
1	 1.176203973240529e+000	 9.415711930465260e-001	 1.000819567979880e+001
1	 1.165760588013400e+000	 9.544707634691313e-001	 9.729391590504534e+000
1	 1.155169902454707e+000	 9.672614822027226e-001	 9.448040369141046e+000
1	 1.144433622254387e+000	 9.799408416591322e-001	 9.165091939025807e+000
1	 1.133553509685888e+000	 9.925063700564804e-001	 8.881520227625488e+000
1	 1.122531382661828e+000	 1.004955633008429e+000	 8.598321796019311e+000
1	 1.247855619845356e+000	 8.910253098821287e-001	 1.102277563217196e+001
1	 1.238000911431365e+000	 9.046676222522669e-001	 1.076258868368887e+001
1	 1.227988509947546e+000	 9.182124044861023e-001	 1.049544775202028e+001
1	 1.217819850897685e+000	 9.316569475974837e-001	 1.022221711777298e+001
1	 1.207496431328260e+000	 9.449985705706225e-001	 9.943797881931156e+000
1	 1.197019809152552e+000	 9.582346220975364e-001	 9.661126766346699e+000
1	 1.186391602416225e+000	 9.713624822960134e-001	 9.375174843850239e+000
1	 1.175613488505012e+000	 9.843795644057992e-001	 9.086946200155321e+000
1	 1.164687203295262e+000	 9.972833164607429e-001	 8.797476529914803e+000
1	 1.153614540248221e+000	 1.010071222934661e+000	 8.507831669469613e+000
1	 1.142397349448981e+000	 1.022740806358721e+000	 8.219106069004772e+000
1	 9.437368621553292e-001	 8.448883392750972e-001	 1.055915699935427e+001
1	 9.343539132487400e-001	 8.552534008771232e-001	 1.029215151337333e+001
1	 9.248547987507910e-001	 8.655167534262337e-001	 1.002186085289893e+001
1	 9.152411822021542e-001	 8.756764540435483e-001	 9.749056234086273e+000
1	 9.055147702627122e-001	 8.857305963593138e-001	 9.474514181371113e+000
1	 8.956773117034881e-001	 8.956773117034879e-001	 9.199015552121766e+000
1	 8.857305963593135e-001	 9.055147702627118e-001	 8.923344553396435e+000
1	 8.756764540435483e-001	 9.152411822021546e-001	 8.648287752709701e+000
1	 8.655167534262336e-001	 9.248547987507910e-001	 8.374633084727890e+000
1	 8.552534008771232e-001	 9.343539132487404e-001	 8.103168855823411e+000
1	 8.448883392750972e-001	 9.437368621553289e-001	 7.834682748422516e+000
1	 9.636030524234189e-001	 8.626737126955777e-001	 1.045973196707346e+001
1	 9.540225871798312e-001	 8.732569646578550e-001	 1.019553983101719e+001
1	 9.443235109940164e-001	 8.837363665345823e-001	 9.927931384549323e+000
1	 9.345075224251110e-001	 8.941099345481917e-001	 9.657672350587301e+000
1	 9.245763640591428e-001	 9.043757221987769e-001	 9.385534826253513e+000
1	 9.145318214797459e-001	 9.145318214797458e-001	 9.112296303702212e+000
1	 9.043757221987767e-001	 9.245763640591429e-001	 8.838738681124855e+000
1	 8.941099345481919e-001	 9.345075224251110e-001	 8.565647265854379e+000
1	 8.837363665345825e-001	 9.443235109940160e-001	 8.293809771508077e+000
1	 8.732569646578552e-001	 9.540225871798311e-001	 8.024015311126311e+000
1	 8.626737126955777e-001	 9.636030524234188e-001	 7.757053388271123e+000
1	 9.834691979947897e-001	 8.804590461013546e-001	 1.033309676394320e+001
1	 9.736912168585270e-001	 8.912604879328961e-001	 1.007004012394701e+001
1	 9.637921794347112e-001	 9.019559386510658e-001	 9.803485486691496e+000
1	 9.537738193008559e-001	 9.125433735797032e-001	 9.534187638272124e+000
1	 9.436379149690517e-001	 9.230208060888488e-001	 9.262908476913069e+000
1	 9.333862888354512e-001	 9.333862888354511e-001	 8.990416042650931e+000
1	 9.230208060888487e-001	 9.436379149690515e-001	 8.717483535844700e+000
1	 9.125433735797034e-001	 9.537738193008564e-001	 8.444888326419266e+000
1	 9.019559386510658e-001	 9.637921794347114e-001	 8.173410955774545e+000
1	 8.912604879328957e-001	 9.736912168585270e-001	 7.903834133309436e+000
1	 8.804590461013545e-001	 9.834691979947897e-001	 7.636941729524462e+000
1	 1.003335303835817e+000	 8.982443439385991e-001	 1.017810001030919e+001
1	 9.933598072018451e-001	 9.092639752029758e-001	 9.914732623899653e+000
1	 9.832608089399147e-001	 9.201754743304356e-001	 9.647820645596893e+000
1	 9.730400776458450e-001	 9.309767757463133e-001	 9.378102914078893e+000
1	 9.626994277577085e-001	 9.416658526906770e-001	 9.106325803693304e+000
1	 9.522407184841031e-001	 9.522407184841031e-001	 8.833242275237737e+000
1	 9.416658526906770e-001	 9.626994277577085e-001	 8.559610914770589e+000
1	 9.309767757463132e-001	 9.730400776458451e-001	 8.286194962318499e+000
1	 9.201754743304355e-001	 9.832608089399147e-001	 8.013761332373898e+000
1	 9.092639752029756e-001	 9.933598072018450e-001	 7.743079628096050e+000
1	 8.982443439385988e-001	 1.003335303835817e+000	 7.474921151144407e+000
1	 1.023201374912877e+000	 9.160296106534807e-001	 9.993679761970384e+000
1	 1.013028363126802e+000	 9.272674309688241e-001	 9.728769012318576e+000
1	 1.002729404376667e+000	 9.383949781274455e-001	 9.460288926492039e+000
1	 9.923063022765317e-001	 9.494101456562505e-001	 9.188957784523034e+000
1	 9.817609071903852e-001	 9.603108666654103e-001	 8.915501523831971e+000
1	 9.710951151391997e-001	 9.710951151391994e-001	 8.640652822936975e+000
1	 9.603108666654103e-001	 9.817609071903853e-001	 8.365150172936717e+000
1	 9.494101456562506e-001	 9.923063022765318e-001	 8.089736938565563e+000
1	 9.383949781274457e-001	 1.002729404376667e+000	 7.815160410646223e+000
1	 9.272674309688241e-001	 1.013028363126802e+000	 7.542170851787693e+000
1	 9.160296106534808e-001	 1.023201374912877e+000	 7.271520537192215e+000
1	 1.043067416192346e+000	 9.338148506921709e-001	 9.778854996812303e+000
1	 1.032696889550414e+000	 9.452708597311709e-001	 9.511365619998783e+000
1	 1.022197970612008e+000	 9.566144545968488e-001	 9.240291780027224e+000
1	 1.011572498009371e+000	 9.678434879177446e-001	 8.966326956004750e+000
1	 1.000822358032352e+000	 9.789558526741965e-001	 8.690172115926384e+000
1	 9.899494835142406e-001	 9.899494835142404e-001	 8.412534844769747e+000
1	 9.789558526741967e-001	 1.000822358032352e+000	 8.134128460629746e+000
1	 9.678434879177446e-001	 1.011572498009371e+000	 7.855671120597080e+000
1	 9.566144545968488e-001	 1.022197970612008e+000	 7.577884918111317e+000
1	 9.452708597311709e-001	 1.032696889550413e+000	 7.301494973540784e+000
1	 9.338148506921710e-001	 1.043067416192346e+000	 7.027228519757743e+000
1	 1.062933432640599e+000	 9.516000685008400e-001	 9.532718056257929e+000
1	 1.052365391389698e+000	 9.632742659907464e-001	 9.261797389426247e+000
1	 1.041666512512977e+000	 9.748339082933978e-001	 8.987275431226490e+000
1	 1.030838669660818e+000	 9.862768071390247e-001	 8.709816958934763e+000
1	 1.019883785048881e+000	 9.976008153781840e-001	 8.430093790732698e+000
1	 1.008803828322724e+000	 1.008803828322724e+000	 8.148783969294975e+000
1	 9.976008153781842e-001	 1.019883785048881e+000	 7.866570934192266e+000
1	 9.862768071390249e-001	 1.030838669660818e+000	 7.584142684692461e+000
1	 9.748339082933980e-001	 1.041666512512977e+000	 7.302190934569357e+000
1	 9.632742659907462e-001	 1.052365391389697e+000	 7.021410260546737e+000
1	 9.516000685008400e-001	 1.062933432640599e+000	 6.742497246021894e+000
1	 1.082799429224013e+000	 9.693852685256590e-001	 9.254427918893352e+000
1	 1.072033873561670e+000	 9.812776542482794e-001	 8.979392501846432e+000
1	 1.061135034946614e+000	 9.930533437718464e-001	 8.700726776100774e+000
1	 1.050104822047326e+000	 1.004710107928321e+000	 8.419063232524243e+000
1	 1.038945193005243e+000	 1.016245759438521e+000	 8.135040685374857e+000
1	 1.027658154278150e+000	 1.027658154278149e+000	 7.849303522166009e+000
1	 1.016245759438521e+000	 1.038945193005243e+000	 7.562500943617487e+000
1	 1.004710107928321e+000	 1.050104822047327e+000	 7.275286195130073e+000
1	 9.930533437718467e-001	 1.061135034946614e+000	 6.988315791243010e+000
1	 9.812776542482794e-001	 1.072033873561670e+000	 6.702248734551795e+000
1	 9.693852685256590e-001	 1.082799429224013e+000	 6.417745730576200e+000
1	 1.102665410908964e+000	 9.871704552127985e-001	 8.943204201303804e+000
1	 1.091702340983348e+000	 9.992810290045007e-001	 8.663527585218434e+000
1	 1.080603542779960e+000	 1.011272765586947e+000	 8.380169721891916e+000
1	 1.069370959985351e+000	 1.023143394893862e+000	 8.093727524747628e+000
1	 1.058006586666708e+000	 1.034890689516356e+000	 7.804803252783110e+000
1	 1.046512466094015e+000	 1.046512466094015e+000	 7.514003837198152e+000
1	 1.034890689516356e+000	 1.058006586666708e+000	 7.221940199862186e+000
1	 1.023143394893862e+000	 1.069370959985352e+000	 6.929226564888087e+000
1	 1.011272765586948e+000	 1.080603542779960e+000	 6.636479764596819e+000
1	 9.992810290045006e-001	 1.091702340983348e+000	 6.344318541171989e+000
1	 9.871704552127985e-001	 1.102665410908964e+000	 6.053362845312136e+000
1	 1.122531382661828e+000	 1.004955633008429e+000	 8.598321796019310e+000
1	 1.111370798571747e+000	 1.017284394760140e+000	 8.313623431082556e+000
1	 1.100072040880052e+000	 1.029492178293453e+000	 8.025161915981517e+000
1	 1.088637088291348e+000	 1.041576672643878e+000	 7.733495568428713e+000
1	 1.077067970798547e+000	 1.053535610272836e+000	 7.439186822173780e+000
1	 1.065366768483820e+000	 1.065366768483820e+000	 7.142801640600988e+000
1	 1.053535610272836e+000	 1.077067970798547e+000	 6.844908924391036e+000
1	 1.041576672643877e+000	 1.088637088291348e+000	 6.546079914319137e+000
1	 1.029492178293453e+000	 1.100072040880052e+000	 6.246887590273400e+000
1	 1.017284394760140e+000	 1.111370798571748e+000	 5.947906067587109e+000
1	 1.004955633008429e+000	 1.122531382661828e+000	 5.649709991784664e+000
1	 1.142397349448981e+000	 1.022740806358721e+000	 8.219106069004770e+000
1	 1.131039251243886e+000	 1.035287756015926e+000	 7.929141158384473e+000
1	 1.119540534113931e+000	 1.047711586446118e+000	 7.635291816146701e+000
1	 1.107903211781769e+000	 1.060009945786597e+000	 7.338074999833073e+000
1	 1.096129350166033e+000	 1.072180526369110e+000	 7.038010309746666e+000
1	 1.084221066161063e+000	 1.084221066161063e+000	 6.735619499467231e+000
1	 1.072180526369110e+000	 1.096129350166033e+000	 6.431425983115443e+000
1	 1.060009945786597e+000	 1.107903211781770e+000	 6.125954340219945e+000
1	 1.047711586446118e+000	 1.119540534113932e+000	 5.819729819046028e+000
1	 1.035287756015926e+000	 1.131039251243886e+000	 5.513277839247697e+000
1	 1.022740806358721e+000	 1.142397349448981e+000	 5.207123494707432e+000
1	 8.448883392750972e-001	 9.437368621553289e-001	 7.834682748422516e+000
1	 8.344219696599167e-001	 9.530034071557008e-001	 7.567652831516112e+000
1	 8.238578531239381e-001	 9.621505574741556e-001	 7.300574362986148e+000
1	 8.131980363093013e-001	 9.711767847515960e-001	 7.034136280041620e+000
1	 8.024445972974045e-001	 9.800806074060000e-001	 6.769022337459133e+000
1	 7.915996442727785e-001	 9.888605914263495e-001	 6.505910341625279e+000
1	 7.806653141634374e-001	 9.975153511208504e-001	 6.245471397769250e+000
1	 7.696437712595143e-001	 1.006043549818665e+000	 5.988369171732897e+000
1	 7.585372058120381e-001	 1.014443900524439e+000	 5.735259167581695e+000
1	 7.473478326137194e-001	 1.022715166525019e+000	 5.486788022313877e+000
1	 7.360778895636446e-001	 1.030856161947795e+000	 5.243592818876278e+000
1	 8.626737126955777e-001	 9.636030524234188e-001	 7.757053388271123e+000
1	 8.519870201296237e-001	 9.730646633932647e-001	 7.491339809328105e+000
1	 8.412005230153468e-001	 9.824043663561702e-001	 7.225299564883128e+000
1	 8.303163110778579e-001	 9.916206007802297e-001	 6.959614149147669e+000
1	 8.193365061433412e-001	 1.000711853895297e+000	 6.694961661881124e+000
1	 8.082632607748013e-001	 1.009676661503627e+000	 6.432016045872123e+000
1	 7.970987568837924e-001	 1.018513608743844e+000	 6.171446334425046e+000
1	 7.858452043199751e-001	 1.027221330807447e+000	 5.913915910211387e+000
1	 7.745048394403975e-001	 1.035798513607119e+000	 5.660081776810749e+000
1	 7.630799236604067e-001	 1.044243894396206e+000	 5.410593844229201e+000
1	 7.515727419881260e-001	 1.052556262338826e+000	 5.166094229639437e+000
1	 8.804590461013545e-001	 9.834691979947897e-001	 7.636941729524464e+000
1	 8.695520310804036e-001	 9.931258744953385e-001	 7.371098643765636e+000
1	 8.585431538882248e-001	 1.002658129669613e+000	 7.104688685959572e+000
1	 8.474345473328057e-001	 1.012064370812964e+000	 6.838403906597422e+000
1	 8.362283769850171e-001	 1.021343053967182e+000	 6.572934307963764e+000
1	 8.249268397862399e-001	 1.030492684747855e+000	 6.308967055632233e+000
1	 8.135321626314672e-001	 1.039511819124085e+000	 6.047185697721273e+000
1	 8.020466009297869e-001	 1.048399064149761e+000	 5.788269393339521e+000
1	 7.904724371441629e-001	 1.057153078645654e+000	 5.532892151620722e+000
1	 7.788119793124740e-001	 1.065772573831665e+000	 5.281722082714363e+000
1	 7.670675595517766e-001	 1.074256313908682e+000	 5.035420662062162e+000
1	 8.982443439385988e-001	 1.003335303835817e+000	 7.474921151144407e+000
1	 8.871170069033352e-001	 1.013187045477039e+000	 7.207608478126015e+000
1	 8.758857500780446e-001	 1.022911852477707e+000	 6.939509488753056e+000
1	 8.645527493535050e-001	 1.032508099960486e+000	 6.671343782880909e+000
1	 8.531202140451906e-001	 1.041974212779163e+000	 6.403829835818330e+000
1	 8.415903854727679e-001	 1.051308666362708e+000	 6.137684155360165e+000
1	 8.299655355145811e-001	 1.060509987510751e+000	 5.873620445246769e+000
1	 8.182479651390547e-001	 1.069576755139626e+000	 5.612348776602127e+000
1	 8.064400029149780e-001	 1.078507600978236e+000	 5.354574768878046e+000
1	 7.945440035026685e-001	 1.087301210213081e+000	 5.100998781798878e+000
1	 7.825623461280228e-001	 1.095956322081866e+000	 4.852315119766595e+000
1	 9.160296106534808e-001	 1.023201374912877e+000	 7.271520537192214e+000
1	 9.046819519894961e-001	 1.033248181353480e+000	 7.001495748994046e+000
1	 8.932283159202767e-001	 1.043165539843673e+000	 6.730470148859848e+000
1	 8.816709214193184e-001	 1.052951793333486e+000	 6.459206951026194e+000
1	 8.700120215466197e-001	 1.062605335488745e+000	 6.188468763918039e+000
1	 8.582539020000589e-001	 1.072124611551856e+000	 5.919016665118253e+000
1	 8.463988796412522e-001	 1.081508119153020e+000	 5.651609282310934e+000
1	 8.344493009978825e-001	 1.090754409071060e+000	 5.387001881928683e+000
1	 8.224075407444851e-001	 1.099862085943054e+000	 5.125945467207614e+000
1	 8.102760001637358e-001	 1.108829808922140e+000	 4.869185887321455e+000
1	 7.980571055902892e-001	 1.117656292282877e+000	 4.617462959228526e+000
1	 9.338148506921710e-001	 1.043067416192346e+000	 7.027228519757744e+000
1	 9.222468707299640e-001	 1.053309287139780e+000	 6.753339211388157e+000
1	 9.105708557503933e-001	 1.063419196830736e+000	 6.478224935489656e+000
1	 8.987890678096057e-001	 1.073395456042650e+000	 6.202707728309981e+000
1	 8.869038037120626e-001	 1.083236427253435e+000	 5.927609150412873e+000
1	 8.749173935337853e-001	 1.092940525518970e+000	 5.653749252790845e+000
1	 8.628321991195993e-001	 1.102506219300071e+000	 5.381945549356004e+000
1	 8.506506125563762e-001	 1.111932031238083e+000	 5.113011997767492e+000
1	 8.383750546243285e-001	 1.121216538878297e+000	 4.847757990525723e+000
1	 8.260079732284228e-001	 1.130358375340526e+000	 4.586987358227264e+000
1	 8.135518418120015e-001	 1.139356229936217e+000	 4.331497386832870e+000
1	 9.516000685008400e-001	 1.062933432640599e+000	 6.742497246021896e+000
1	 9.398117675158186e-001	 1.073370367851056e+000	 6.463674400310623e+000
1	 9.279133739038658e-001	 1.083672828502116e+000	 6.183379254916102e+000
1	 9.159071928037287e-001	 1.093839093198666e+000	 5.902507082415028e+000
1	 9.037955647642770e-001	 1.103867493230739e+000	 5.621952436316385e+000
1	 8.915808642396224e-001	 1.113756413467723e+000	 5.342607982273715e+000
1	 8.792654980577412e-001	 1.123504293201081e+000	 5.065363336910178e+000
1	 8.668519038646394e-001	 1.133109626934713e+000	 4.791103916496025e+000
1	 8.543425485461513e-001	 1.142570965122156e+000	 4.520709797682188e+000
1	 8.417399266294754e-001	 1.151886914849926e+000	 4.255054592452361e+000
1	 8.290465586665842e-001	 1.161056140466386e+000	 3.995004339406440e+000
1	 9.693852685256590e-001	 1.082799429224013e+000	 6.417745730576200e+000
1	 9.573766467381373e-001	 1.093431428502421e+000	 6.132997601093686e+000
1	 9.452558747161655e-001	 1.103926439921036e+000	 5.846494138658512e+000
1	 9.330253006810483e-001	 1.114282709912222e+000	 5.559217531374710e+000
1	 9.206873089260209e-001	 1.124498538578164e+000	 5.272148645373843e+000
1	 9.082443182832425e-001	 1.134572280601786e+000	 4.986265695774907e+000
1	 8.956987805637957e-001	 1.144502346105226e+000	 4.702542927302262e+000
1	 8.830531789727772e-001	 1.154287201454969e+000	 4.421949307129833e+000
1	 8.703100265015967e-001	 1.163925370012821e+000	 4.145447232477472e+000
1	 8.574718642996397e-001	 1.173415432832025e+000	 3.873991255432999e+000
1	 8.445412600274632e-001	 1.182756029297883e+000	 3.608526827417635e+000
1	 9.871704552127985e-001	 1.102665410908964e+000	 6.053362845312138e+000
1	 9.749415127879983e-001	 1.113492474108992e+000	 5.761769390498332e+000
1	 9.625983625227639e-001	 1.124180036150719e+000	 5.468090246430581e+000
1	 9.501433957209258e-001	 1.134726311294006e+000	 5.173407513768588e+000
1	 9.375790404200532e-001	 1.145129568453215e+000	 4.878801021755383e+000
1	 9.249077598303189e-001	 1.155388132124830e+000	 4.585346814217054e+000
1	 9.121320507458818e-001	 1.165500383261687e+000	 4.294115648053897e+000
1	 8.992544419308943e-001	 1.175464760092871e+000	 4.006171507169798e+000
1	 8.862774924823080e-001	 1.185279758888481e+000	 3.722570134731525e+000
1	 8.732037901716623e-001	 1.194943934668507e+000	 3.444357586589180e+000
1	 8.600359497680634e-001	 1.204455901855211e+000	 3.172568808618212e+000
1	 1.004955633008429e+000	 1.122531382661828e+000	 5.649709991784662e+000
1	 9.925063700564805e-001	 1.133553509685887e+000	 5.350417801749222e+000
1	 9.799408416591326e-001	 1.144433622254387e+000	 5.048651443977404e+000
1	 9.672614822027223e-001	 1.155169902454707e+000	 4.745605294804132e+000
1	 9.544707634691311e-001	 1.165760588013400e+000	 4.442470175227530e+000
1	 9.415711930465260e-001	 1.176203973240529e+000	 4.140431627838191e+000
1	 9.285653127121181e-001	 1.186498409919638e+000	 3.840668209843205e+000
1	 9.154556967890950e-001	 1.196642308142436e+000	 3.544349805556296e+000
1	 9.022449504799286e-001	 1.206634137087326e+000	 3.252635961658650e+000
1	 8.889357081782892e-001	 1.216472425741059e+000	 2.966674248460074e+000
1	 8.755306317618103e-001	 1.226155763562868e+000	 2.687598650305170e+000
1	 1.022740806358721e+000	 1.142397349448981e+000	 5.207123494707432e+000
1	 1.010071222934661e+000	 1.153614540248221e+000	 4.899341159289599e+000
1	 9.972833164607429e-001	 1.164687203295261e+000	 4.588628007555154e+000
1	 9.843795644057992e-001	 1.175613488505011e+000	 4.276302464788184e+000
1	 9.713624822960134e-001	 1.186391602416225e+000	 3.963677793764401e+000
1	 9.582346220975365e-001	 1.197019809152552e+000	 3.652060139056669e+000
1	 9.449985705706224e-001	 1.207496431328260e+000	 3.342746591789530e+000
1	 9.316569475974839e-001	 1.217819850897686e+000	 3.037023278685558e+000
1	 9.182124044861019e-001	 1.227988509947546e+000	 2.736163479165432e+000
1	 9.046676222522668e-001	 1.238000911431365e+000	 2.441425774172019e+000
1	 8.910253098821288e-001	 1.247855619845356e+000	 2.154052230286180e+000
1	 7.360778895636446e-001	 1.030856161947795e+000	 5.243592818876278e+000
1	 7.247296359725970e-001	 1.038865751977465e+000	 5.005586197604893e+000
1	 7.133053503815099e-001	 1.046742852430853e+000	 4.772568234964671e+000
1	 7.018073298531414e-001	 1.054486431034654e+000	 4.544984331487265e+000
1	 6.902378887419132e-001	 1.062095508079932e+000	 4.323259294863617e+000
1	 6.785993572081287e-001	 1.069569156736019e+000	 4.107797077483361e+000
1	 6.668940797275553e-001	 1.076906503314615e+000	 3.898980551280846e+000
1	 6.551244135982919e-001	 1.084106727484178e+000	 3.697171319874860e+000
1	 6.432927274468238e-001	 1.091169062434711e+000	 3.502709567899760e+000
1	 6.314013997351549e-001	 1.098092794993187e+000	 3.315913947336260e+000
1	 6.194528172708822e-001	 1.104877265689896e+000	 3.137081500562845e+000
1	 7.515727419881260e-001	 1.052556262338826e+000	 5.166094229639437e+000
1	 7.399856012941009e-001	 1.060734458731179e+000	 4.926305616560348e+000
1	 7.283208280838214e-001	 1.068777376567416e+000	 4.690960555230923e+000
1	 7.165807677744921e-001	 1.076683961844282e+000	 4.460694787839789e+000
1	 7.047677834389825e-001	 1.084453214229405e+000	 4.236123658020234e+000
1	 6.928842542887642e-001	 1.092084187381793e+000	 4.017841510923555e+000
1	 6.809325741521235e-001	 1.099575989221505e+000	 3.806421133833468e+000
1	 6.689151499495940e-001	 1.106927782148541e+000	 3.602413237977500e+000
1	 6.568344001685657e-001	 1.114138783211110e+000	 3.406345982082976e+000
1	 6.446927533389901e-001	 1.121208264223477e+000	 3.218724538117756e+000
1	 6.324926465120909e-001	 1.128135551833708e+000	 3.040030699548013e+000
1	 7.670675595517766e-001	 1.074256313908682e+000	 5.035420662062162e+000
1	 7.552415322922724e-001	 1.082603116284461e+000	 4.793526731537133e+000
1	 7.433362720038976e-001	 1.090811851130529e+000	 4.555683956942093e+000
1	 7.313541724581945e-001	 1.098881442713736e+000	 4.322690958313047e+000
1	 7.192976454463670e-001	 1.106810870078322e+000	 4.095326035821398e+000
1	 7.071691192309457e-001	 1.114599167373023e+000	 3.874346273659525e+000
1	 6.949710369926212e-001	 1.122245424126297e+000	 3.660486687478163e+000
1	 6.827058552742502e-001	 1.129748785469733e+000	 3.454459416618411e+000
1	 6.703760424240128e-001	 1.137108452309784e+000	 3.256952962258291e+000
1	 6.579840770396939e-001	 1.144323681448046e+000	 3.068631472468923e+000
1	 6.455324464160299e-001	 1.151393785650397e+000	 2.890134075048851e+000
1	 7.825623461280228e-001	 1.095956322081866e+000	 4.852315119766595e+000
1	 7.704974327808040e-001	 1.104471730103942e+000	 4.607890821380289e+000
1	 7.583516858952986e-001	 1.112846281628261e+000	 4.367266848365367e+000
1	 7.461275475972876e-001	 1.121078879191826e+000	 4.131378826466224e+000
1	 7.338274783962134e-001	 1.129168481215533e+000	 3.901142027698866e+000
1	 7.214539556055636e-001	 1.137114102337887e+000	 3.677450217709419e+000
1	 7.090094717583351e-001	 1.144914813695785e+000	 3.461174549479786e+000
1	 6.964965330196068e-001	 1.152569743152447e+000	 3.253162505134088e+000
1	 6.839176575982479e-001	 1.160078075472602e+000	 3.054236887461189e+000
1	 6.712753741597766e-001	 1.167439052445210e+000	 2.865194862629920e+000
1	 6.585722202423399e-001	 1.174651972953994e+000	 2.686807055429458e+000
1	 7.980571055902892e-001	 1.117656292282877e+000	 4.617462959228526e+000
1	 7.857533065733875e-001	 1.126340305656252e+000	 4.369989419808391e+000
1	 7.733670735115833e-001	 1.134880673568682e+000	 4.126196660179072e+000
1	 7.609008968848122e-001	 1.143276276827363e+000	 3.887132907715924e+000
1	 7.483572859206671e-001	 1.151526053229886e+000	 3.653825892452617e+000
1	 7.357387669835083e-001	 1.159628997904562e+000	 3.427281476079653e+000
1	 7.230478819585516e-001	 1.167584163596768e+000	 3.208482329880707e+000
1	 7.102871866330097e-001	 1.175390660901376e+000	 2.998386663794876e+000
1	 6.974592490763553e-001	 1.183047658441432e+000	 2.797927008643849e+000
1	 6.845666480217496e-001	 1.190554382993286e+000	 2.608009053408969e+000
1	 6.716119712506630e-001	 1.197910119558531e+000	 2.429510539285835e+000
1	 8.135518418120015e-001	 1.139356229936217e+000	 4.331497386832870e+000
1	 8.010091574837157e-001	 1.148208848408022e+000	 4.080369060028638e+000
1	 7.883824386063120e-001	 1.156915032459861e+000	 3.832923755204817e+000
1	 7.756742240138076e-001	 1.165473641169156e+000	 3.590299253518191e+000
1	 7.628870716518743e-001	 1.173883591710230e+000	 3.353612588011770e+000
1	 7.500235569356702e-001	 1.182143859701230e+000	 3.123958491041962e+000
1	 7.370862711025564e-001	 1.190253479496037e+000	 2.902407893036645e+000
1	 7.240778195618057e-001	 1.198211544421214e+000	 2.690006475135899e+000
1	 7.110008202434178e-001	 1.206017206958142e+000	 2.487773278105366e+000
1	 6.978579019481238e-001	 1.213669678870590e+000	 2.296699369747527e+000
1	 6.846517027006408e-001	 1.221168231278044e+000	 2.117746572865379e+000
1	 8.290465586665842e-001	 1.161056140466386e+000	 3.995004339406440e+000
1	 8.162649893254802e-001	 1.170077363825882e+000	 3.739535487218787e+000
1	 8.033977849330439e-001	 1.178949363809866e+000	 3.487864899643126e+000
1	 7.904475326773142e-001	 1.187670977766017e+000	 3.241198118615576e+000
1	 7.774168392219807e-001	 1.196241102245413e+000	 3.000719582425575e+000
1	 7.643083290329399e-001	 1.204658693356066e+000	 2.767590927083370e+000
1	 7.511246426996361e-001	 1.212922767060388e+000	 2.542949341223452e+000
1	 7.378684352533409e-001	 1.221032399416653e+000	 2.327905977387920e+000
1	 7.245423744845195e-001	 1.228986726764600e+000	 2.123544422362420e+000
1	 7.111491392614100e-001	 1.236784945855437e+000	 1.930919229062464e+000
1	 6.976914178519145e-001	 1.244426313926563e+000	 1.751054512285870e+000
1	 8.445412600274632e-001	 1.182756029297883e+000	 3.608526827417635e+000
1	 8.315208059123731e-001	 1.191945857376462e+000	 3.347957407226416e+000
1	 8.184131162453380e-001	 1.200983673126766e+000	 3.091406352135233e+000
1	 8.052208265683714e-001	 1.209868292166755e+000	 2.840126334627921e+000
1	 7.919465922631326e-001	 1.218598590424284e+000	 2.595348465469354e+000
1	 7.785930868462081e-001	 1.227173504497251e+000	 2.358280483342945e+000
1	 7.651630002590770e-001	 1.235592031956618e+000	 2.130105000048069e+000
1	 7.516590371549616e-001	 1.243853231592387e+000	 1.911977804324113e+000
1	 7.380839151847439e-001	 1.251956223602676e+000	 1.705026227191112e+000
1	 7.244403632841193e-001	 1.259900189726144e+000	 1.510347571511044e+000
1	 7.107311199641254e-001	 1.267684373318120e+000	 1.329007608283074e+000
1	 8.600359497680634e-001	 1.204455901855211e+000	 3.172568808618212e+000
1	 8.467766110580867e-001	 1.213814334526392e+000	 2.906069829984228e+000
1	 8.334284362967542e-001	 1.223017965918630e+000	 2.643906618856703e+000
1	 8.199941093800189e-001	 1.232065589920179e+000	 2.387359427026027e+000
1	 8.064763344074756e-001	 1.240956061835692e+000	 2.137686386013808e+000
1	 7.928778339463644e-001	 1.249688298752962e+000	 1.896121618213161e+000
1	 7.792013472901653e-001	 1.258261279851520e+000	 1.663873405437059e+000
1	 7.654496287140141e-001	 1.266674046653108e+000	 1.442122418100912e+000
1	 7.516254457291737e-001	 1.274925703214236e+000	 1.232020008078317e+000
1	 7.377315773387618e-001	 1.283015416261027e+000	 1.034686568078031e+000
1	 7.237708122969158e-001	 1.290942415266750e+000	 8.512099601920012e-001
1	 8.755306317618103e-001	 1.226155763562868e+000	 2.687598650305170e+000
1	 8.620324085763136e-001	 1.235682800742303e+000	 2.414277057854641e+000
1	 8.484437488408522e-001	 1.245052247693526e+000	 2.145698916019831e+000
1	 8.347673848052971e-001	 1.254262876575102e+000	 1.883153507282955e+000
1	 8.210060692871558e-001	 1.263313522068484e+000	 1.627907336746471e+000
1	 8.071625739043004e-001	 1.272203081751379e+000	 1.381202196988224e+000
1	 7.932396873021873e-001	 1.280930516411890e+000	 1.144253292006207e+000
1	 7.792402133778448e-001	 1.289494850303511e+000	 9.182474235705928e-001
1	 7.651669695028934e-001	 1.297895171341149e+000	 7.043412431103053e-001
1	 7.510227847478496e-001	 1.306130631238402e+000	 5.036595720631788e-001
1	 7.368104981099266e-001	 1.314200445586484e+000	 3.172937934145038e-001
1	 8.910253098821288e-001	 1.247855619845356e+000	 2.154052230286180e+000
1	 8.772882022807453e-001	 1.257551261490825e+000	 1.872955362133001e+000
1	 8.634590576311915e-001	 1.267086523959525e+000	 1.597093375407681e+000
1	 8.495406565372458e-001	 1.276460157680332e+000	 1.327746967574355e+000
1	 8.355358005343191e-001	 1.285670976711510e+000	 1.066173304827939e+000
1	 8.214473102909056e-001	 1.294717859120681e+000	 8.136040719285533e-001
1	 8.072780238044295e-001	 1.303599747304523e+000	 5.712435826436588e-001
1	 7.930307945938002e-001	 1.312315648248288e+000	 3.402669541465689e-001
1	 7.787084898909862e-001	 1.320864633725284e+000	 1.218183485229563e-001
1	 7.643139888338927e-001	 1.329245840436585e+000	-8.299071566425093e-002
1	 7.498501806627993e-001	 1.337458470091355e+000	-2.730829790101794e-001
1	 6.194528172708822e-001	 1.104877265689896e+000	 3.137081500562844e+000
1	 6.074511782547066e-001	 1.111520882801578e+000	 2.966305659957977e+000
1	 5.953970932452810e-001	 1.118024123343679e+000	 2.803690973593249e+000
1	 5.832929647635355e-001	 1.124386489988285e+000	 2.649593382427597e+000
1	 5.711411977547047e-001	 1.130607538866382e+000	 2.504341725271222e+000
1	 5.589441981408803e-001	 1.136686879394963e+000	 2.368237529700062e+000
1	 5.467043713871074e-001	 1.142624174058487e+000	 2.241554851790744e+000
1	 5.344241210826425e-001	 1.148419138145507e+000	 2.124540164298160e+000
1	 5.221058475389497e-001	 1.154071539441348e+000	 2.017412292783453e+000
1	 5.097519464059584e-001	 1.159581197877748e+000	 1.920362399095648e+000
1	 4.973648073080526e-001	 1.164947985140473e+000	 1.833554011502329e+000
1	 6.324926465120909e-001	 1.128135551833708e+000	 3.040030699548013e+000
1	 6.202383662630420e-001	 1.134919020811867e+000	 2.870398113514915e+000
1	 6.079305360031093e-001	 1.141559158214848e+000	 2.709848214564839e+000
1	 5.955716088276520e-001	 1.148055456245717e+000	 2.558732667740218e+000
1	 5.831640403073667e-001	 1.154407461691780e+000	 2.417373109751337e+000
1	 5.707102870103700e-001	 1.160614775748049e+000	 2.286060978196495e+000
1	 5.582128050381113e-001	 1.166677053794103e+000	 2.165057394060056e+000
1	 5.456740485767643e-001	 1.172594005125170e+000	 2.054593096962293e+000
1	 5.330964684657112e-001	 1.178365392638335e+000	 1.954868432513744e+000
1	 5.204825107846715e-001	 1.183991032474813e+000	 1.866053391012916e+000
1	 5.078346154609772e-001	 1.189470793619292e+000	 1.788287696611807e+000
1	 6.455324464160299e-001	 1.151393785650397e+000	 2.890134075048850e+000
1	 6.330255255024671e-001	 1.158317106180301e+000	 2.721582615815478e+000
1	 6.204639505628590e-001	 1.165094140136081e+000	 2.562888455700229e+000
1	 6.078502252668818e-001	 1.171724369251810e+000	 2.414409646526952e+000
1	 5.951868558105830e-001	 1.178207330971136e+000	 2.276471776483808e+000
1	 5.824763494079930e-001	 1.184542618267112e+000	 2.149367811789504e+000
1	 5.697212127968527e-001	 1.190729879414451e+000	 2.033357995655469e+000
1	 5.569239507601437e-001	 1.196768817715077e+000	 1.928669803929618e+000
1	 5.440870646650543e-001	 1.202659191177848e+000	 1.835497956680445e+000
1	 5.312130510209822e-001	 1.208400812153459e+000	 1.754004484854194e+000
1	 5.183044000580986e-001	 1.213993546925534e+000	 1.684318851021742e+000
1	 6.585722202423399e-001	 1.174651972953994e+000	 2.686807055429458e+000
1	 6.458126591694799e-001	 1.181715144755887e+000	 2.519144886031640e+000
1	 6.329973400576118e-001	 1.188629074990625e+000	 2.361994528319787e+000
1	 6.201288171506310e-001	 1.195393234923308e+000	 2.215730388902029e+000
1	 6.072096472698343e-001	 1.202007152653947e+000	 2.080692446766793e+000
1	 5.942423882750678e-001	 1.208470412933654e+000	 1.957186082426374e+000
1	 5.812295975402648e-001	 1.214782656932294e+000	 1.845481967949952e+000
1	 5.681738304451132e-001	 1.220943581958496e+000	 1.745816017242081e+000
1	 5.550776388845088e-001	 1.226952941132905e+000	 1.658389395788384e+000
1	 5.419435697974289e-001	 1.232810543015708e+000	 1.583368588956715e+000
1	 5.287741637167839e-001	 1.238516251189468e+000	 1.520885527815882e+000
1	 6.716119712506630e-001	 1.197910119558531e+000	 2.429510539285835e+000
1	 6.585997704605783e-001	 1.205113142387636e+000	 2.262426188204730e+000
1	 6.455307076204506e-001	 1.212163968661729e+000	 2.106412800171990e+000
1	 6.324073875483049e-001	 1.219062059176956e+000	 1.961870463827850e+000
1	 6.192324176906023e-001	 1.225806932689711e+000	 1.829163329486582e+000
1	 6.060084065529144e-001	 1.232398165729178e+000	 1.708619401611239e+000
1	 5.927379621452800e-001	 1.238835392360392e+000	 1.600530395358924e+000
1	 5.794236904440047e-001	 1.245118303898696e+000	 1.505151656582094e+000
1	 5.660681938716050e-001	 1.251246648576530e+000	 1.422702144526075e+000
1	 5.526740697965494e-001	 1.257220231163583e+000	 1.353364476323777e+000
1	 5.392439090544005e-001	 1.263038912541362e+000	 1.297285032251220e+000
1	 6.846517027006408e-001	 1.221168231278044e+000	 2.117746572865379e+000
1	 6.713868625722598e-001	 1.228511104924556e+000	 1.950818049288375e+000
1	 6.580640563844562e-001	 1.235698827032637e+000	 1.795447132488137e+000
1	 6.446859395293096e-001	 1.242730847929497e+000	 1.652068328431399e+000
1	 6.312551700783683e-001	 1.249606677027924e+000	 1.521079130663271e+000
1	 6.177744071828529e-001	 1.256325882635189e+000	 1.402839752725580e+000
1	 6.042463094888311e-001	 1.262888091711506e+000	 1.297672927428526e+000
1	 5.906735335691515e-001	 1.269292989578943e+000	 1.205863772445065e+000
1	 5.770587323738733e-001	 1.275540319581744e+000	 1.127659721543076e+000
1	 5.634045537008823e-001	 1.281629882699106e+000	 1.063270520622886e+000
1	 5.497136386883157e-001	 1.287561537111484e+000	 1.012868287581939e+000
1	 6.976914178519145e-001	 1.244426313926563e+000	 1.751054512285871e+000
1	 6.841739387010217e-001	 1.251909038215656e+000	 1.583757569589643e+000
1	 6.705973894827110e-001	 1.259233655986598e+000	 1.428453514783947e+000
1	 6.569644761630512e-001	 1.266399607097674e+000	 1.285619458742601e+000
1	 6.432779074386129e-001	 1.273406391618082e+000	 1.155694847011016e+000
1	 6.295403931062018e-001	 1.280253569633188e+000	 1.039081109483196e+000
1	 6.157546424478506e-001	 1.286940760998396e+000	 9.361413793279351e-001
1	 6.019233626328853e-001	 1.293467645042504e+000	 8.472002807710827e-001
1	 5.880492571388442e-001	 1.299833960221569e+000	 7.725437851778056e-001
1	 5.741350241929648e-001	 1.306039503724299e+000	 7.124191347234309e-001
1	 5.601833552358967e-001	 1.312084131030102e+000	 6.670348327850093e-001
1	 7.107311199641254e-001	 1.267684373318120e+000	 1.329007608283074e+000
1	 6.969610020433620e-001	 1.275306948109945e+000	 1.160723249516957e+000
1	 6.831307100482968e-001	 1.282768461406858e+000	 1.004835290353897e+000
1	 6.692430005189350e-001	 1.290068342598233e+000	 8.618711266212776e-001
1	 6.553006327768171e-001	 1.297206082409683e+000	 7.323202428096461e-001
1	 6.413063672642816e-001	 1.304181232704681e+000	 6.166337569749101e-001
1	 6.272629638992716e-001	 1.310993406233822e+000	 5.152240369089470e-001
1	 6.131731804475384e-001	 1.317642276332648e+000	 4.284643873751461e-001
1	 5.990397709140476e-001	 1.324127576569028e+000	 3.566888080365246e-001
1	 5.848654839553358e-001	 1.330449100341185e+000	 3.001918215351882e-001
1	 5.706530613145106e-001	 1.336606700427484e+000	 2.592283710215134e-001
1	 7.237708122969158e-001	 1.290942415266750e+000	 8.512099601920001e-001
1	 7.097480557957788e-001	 1.298704840456433e+000	 6.812312675119892e-001
1	 6.956640212142951e-001	 1.306303249176665e+000	 5.240388979531447e-001
1	 6.815215156663675e-001	 1.313737060347918e+000	 3.802177413674856e-001
1	 6.673233490984625e-001	 1.321005755352224e+000	 2.503149238994121e-001
1	 6.530723325984112e-001	 1.328108877831169e+000	 1.348392266837232e-001
1	 6.387712767200264e-001	 1.335046033430547e+000	 3.426057746399687e-002
1	 6.244229898254440e-001	 1.341816889492641e+000	-5.099038482911504e-002
1	 6.100302764470144e-001	 1.348421174697141e+000	-1.205226726794386e-001
1	 5.955959356705326e-001	 1.354858678651786e+000	-1.739852400832435e-001
1	 5.811227595415254e-001	 1.361129251433898e+000	-2.110672006316160e-001
1	 7.368104981099266e-001	 1.314200445586484e+000	 3.172937934145060e-001
1	 7.225351031547691e-001	 1.322102721104127e+000	 1.448321532636049e-001
1	 7.081973261137888e-001	 1.329838025179267e+000	-1.444993428912474e-002
1	 6.938000246747534e-001	 1.337405766263471e+000	-1.599033139488927e-001
1	 6.793460594090302e-001	 1.344805416395201e+000	-2.909160651839761e-001
1	 6.648382920499100e-001	 1.352036510994155e+000	-4.069142306005882e-001
1	 6.502795837870479e-001	 1.359098648601329e+000	-5.073624701018042e-001
1	 6.356727935789340e-001	 1.365991490565752e+000	-5.917646404991334e-001
1	 6.210207764852744e-001	 1.372714760678931e+000	-6.596643004324958e-001
1	 6.063263820210938e-001	 1.379268244758125e+000	-7.106451406411237e-001
1	 5.915924525343077e-001	 1.385651790179613e+000	-7.443313398091620e-001
1	 7.498501806627993e-001	 1.337458470091355e+000	-2.730829790101794e-001
1	 7.353221473168309e-001	 1.345500595902038e+000	-4.488921919192907e-001
1	 7.207306278798588e-001	 1.353372795297910e+000	-6.111095977811438e-001
1	 7.060785306134998e-001	 1.361074466261638e+000	-7.590154116685640e-001
1	 6.913687667140009e-001	 1.368605071488112e+000	-8.919261846242808e-001
1	 6.766042485600982e-001	 1.375964138175143e+000	-1.009195699453829e+000
1	 6.617878879772690e-001	 1.383151257758930e+000	-1.110215791356404e+000
1	 6.469225945203407e-001	 1.390166085595247e+000	-1.194417092720147e+000
1	 6.320112737763581e-001	 1.397008340587419e+000	-1.261269701604440e+000
1	 6.170568256895568e-001	 1.403677804762223e+000	-1.310283773628443e+000
1	 6.020621429102250e-001	 1.410174322794896e+000	-1.341010037176532e+000
1	 4.973648073080526e-001	 1.164947985140473e+000	 1.833554011502328e+000
1	 4.849449475210769e-001	 1.170172597316046e+000	 1.756117789955585e+000
1	 4.724965980002161e-001	 1.175254193189512e+000	 1.687018794813724e+000
1	 4.600221239627185e-001	 1.180192797882715e+000	 1.626093901497562e+000
1	 4.475238793346627e-001	 1.184988486332486e+000	 1.573152839732411e+000
1	 4.350042055046847e-001	 1.189641382703130e+000	 1.527979000651345e+000
1	 4.224654301051314e-001	 1.194151659763825e+000	 1.490330273740379e+000
1	 4.099098658216919e-001	 1.198519538232249e+000	 1.459939911363138e+000
1	 3.973398092324927e-001	 1.202745286085772e+000	 1.436517418583574e+000
1	 3.847575396775870e-001	 1.206829217841571e+000	 1.419749465996533e+000
1	 3.721653181596841e-001	 1.210771693807061e+000	 1.409300823272974e+000
1	 5.078346154609772e-001	 1.189470793619292e+000	 1.788287696611807e+000
1	 4.951533106594304e-001	 1.194805386811314e+000	 1.720565915342033e+000
1	 4.824429163991849e-001	 1.199993953127882e+000	 1.661713647682906e+000
1	 4.697058476866244e-001	 1.205036518219667e+000	 1.611538669372014e+000
1	 4.569445079992764e-001	 1.209933158600962e+000	 1.569818283164411e+000
1	 4.441612880133066e-001	 1.214684001049800e+000	 1.536300231816473e+000
1	 4.313585643590141e-001	 1.219289221972249e+000	 1.510703644649263e+000
1	 4.185386984054039e-001	 1.223749046732216e+000	 1.492720015136130e+000
1	 4.057040350748469e-001	 1.228063748948146e+000	 1.482014206938523e+000
1	 3.928569016887677e-001	 1.232233649757978e+000	 1.478225485804797e+000
1	 3.799996068452374e-001	 1.236259117053800e+000	 1.480968574743122e+000
1	 5.183044000580986e-001	 1.213993546925534e+000	 1.684318851021742e+000
1	 5.053616508301387e-001	 1.219438120886603e+000	 1.625288185145909e+000
1	 4.923892124200254e-001	 1.224733657405657e+000	 1.575581822938949e+000
1	 4.793895496231638e-001	 1.229880182662189e+000	 1.534983813488045e+000
1	 4.663651154684179e-001	 1.234877774747946e+000	 1.503244709899309e+000
1	 4.533183499193709e-001	 1.239726563054676e+000	 1.480082575488702e+000
1	 4.402516786041618e-001	 1.244426727625320e+000	 1.465184027016087e+000
1	 4.271675115750019e-001	 1.248978498470000e+000	 1.458205312143801e+000
1	 4.140682420983949e-001	 1.253382154848216e+000	 1.458773418281734e+000
1	 4.009562454770290e-001	 1.257638024518649e+000	 1.466487209967299e+000
1	 3.878338779042280e-001	 1.261746482958037e+000	 1.480918591925504e+000
1	 5.287741637167839e-001	 1.238516251189468e+000	 1.520885527815882e+000
1	 5.155699705852225e-001	 1.244070805699674e+000	 1.469627820773355e+000
1	 5.023354885492571e-001	 1.249473312207339e+000	 1.428091311915660e+000
1	 4.890732321932147e-001	 1.254723797420769e+000	 1.396041387788705e+000
1	 4.757857040971966e-001	 1.259822341009158e+000	 1.373207205388996e+000
1	 4.624753935121033e-001	 1.264769074977958e+000	 1.359282779389962e+000
1	 4.491447750638161e-001	 1.269564183006969e+000	 1.353928109611084e+000
1	 4.357963074876533e-001	 1.274207899752516e+000	 1.356770345679519e+000
1	 4.224324323941557e-001	 1.278700510115136e+000	 1.367404985811326e+000
1	 4.090555730671776e-001	 1.283042348474234e+000	 1.385397106624850e+000
1	 3.956681332952000e-001	 1.287233797891179e+000	 1.410282620894743e+000
1	 5.392439090544005e-001	 1.263038912541362e+000	 1.297285032251220e+000
1	 5.257782724767011e-001	 1.268703447408290e+000	 1.252979128050761e+000
1	 5.122817472733993e-001	 1.274212923717429e+000	 1.218751500119286e+000
1	 4.987568978176553e-001	 1.279567368705895e+000	 1.194353651637045e+000
1	 4.852062762407214e-001	 1.284766863620316e+000	 1.179498398392614e+000
1	 4.716324210807296e-001	 1.289811543079843e+000	 1.173861025335387e+000
1	 4.580378559612177e-001	 1.294701594401128e+000	 1.177080486317290e+000
1	 4.444250883005267e-001	 1.299437256886679e+000	 1.188760643771433e+000
1	 4.307966080531481e-001	 1.304018821078061e+000	 1.208471545046782e+000
1	 4.171548864840204e-001	 1.308446627975386e+000	 1.235750732105167e+000
1	 4.035023749766974e-001	 1.312721068224635e+000	 1.270104581279441e+000
1	 5.497136386883157e-001	 1.287561537111484e+000	 1.012868287581940e+000
1	 5.359865590565952e-001	 1.293336052170213e+000	 9.747826409837139e-001
1	 5.222279910789711e-001	 1.298952498120428e+000	 9.471092339108942e-001
1	 5.084405489173633e-001	 1.304410902728050e+000	 9.295902021252958e-001
1	 4.946268342541013e-001	 1.309711348817139e+000	 9.219267992208459e-001
1	 4.807894349144759e-001	 1.314853973620533e+000	 9.237806112195367e-001
1	 4.669309235196081e-001	 1.319838968091726e+000	 9.347748170614807e-001
1	 4.530538561707893e-001	 1.324666576179405e+000	 9.544954915586277e-001
1	 4.391607711663913e-001	 1.329337094066145e+000	 9.824929473541676e-001
1	 4.252541877523637e-001	 1.333850869372756e+000	 1.018283112412454e+000
1	 4.113366049072643e-001	 1.338208300329813e+000	 1.061348939557610e+000
1	 5.601833552358967e-001	 1.312084131030102e+000	 6.670348327850093e-001
1	 5.461948328769253e-001	 1.317968626143207e+000	 6.345208101676724e-001
1	 5.321742224524917e-001	 1.323692041600839e+000	 6.127453283298797e-001
1	 5.181241879132170e-001	 1.329254405697723e+000	 6.014454280100979e-001
1	 5.040473804924455e-001	 1.334655802835345e+000	 6.003153243542041e-001
1	 4.899464373025677e-001	 1.339896372860226e+000	 6.090076686693760e-001
1	 4.758239799622283e-001	 1.344976310362696e+000	 6.271348585404912e-001
1	 4.616826132556096e-001	 1.349895863937608e+000	 6.542703927308615e-001
1	 4.475249238249042e-001	 1.354655335408544e+000	 6.899502672555995e-001
1	 4.333534788970148e-001	 1.359255079016994e+000	 7.336744089998484e-001
1	 4.191708250454448e-001	 1.363695500578122e+000	 7.849081432441551e-001
1	 5.706530613145106e-001	 1.336606700427484e+000	 2.592283710215147e-001
1	 5.564030964897108e-001	 1.342601175485032e+000	 2.317141658924035e-001
1	 5.421204438804808e-001	 1.348431560343163e+000	 2.152714593964428e-001
1	 5.278078172260935e-001	 1.354097883825399e+000	 2.096362439615810e-001
1	 5.134679173108632e-001	 1.359600231910653e+000	 2.144999834965440e-001
1	 4.991034305342312e-001	 1.364938747059123e+000	 2.295109117818198e-001
1	 4.847170275123195e-001	 1.370113627497968e+000	 2.542753814670020e-001
1	 4.703113617121550e-001	 1.375125126468206e+000	 2.883592599704847e-001
1	 4.558890681197054e-001	 1.379973551434411e+000	 3.312893685456410e-001
1	 4.414527619427803e-001	 1.384659263258752e+000	 3.825549607563752e-001
1	 4.270050373497829e-001	 1.389182675340970e+000	 4.416092365950666e-001
1	 5.811227595415254e-001	 1.361129251433898e+000	-2.110672006316167e-001
1	 5.666113524469723e-001	 1.367233706353451e+000	-2.340821039346042e-001
1	 5.520666578494572e-001	 1.373171060531899e+000	-2.456726076034512e-001
1	 5.374914392768710e-001	 1.378941343321566e+000	-2.460999302295341e-001
1	 5.228884470644628e-001	 1.384544642278781e+000	-2.356712914248226e-001
1	 5.082604168986920e-001	 1.389981102477423e+000	-2.147385869730316e-001
1	 4.936100683931231e-001	 1.395250925781474e+000	-1.836970113508901e-001
1	 4.789401036975942e-001	 1.400354370078113e+000	-1.429836314216610e-001
1	 4.642532061418141e-001	 1.405291748472903e+000	-9.307591513762274e-002
1	 4.495520389144668e-001	 1.410063428448682e+000	-3.449021911240296e-002
1	 4.348392437788227e-001	 1.414669830989763e+000	 3.221976106584192e-002
1	 5.915924525343077e-001	 1.385651790179613e+000	-7.443313398091632e-001
1	 5.768196033007296e-001	 1.391866224906227e+000	-7.632812124415455e-001
1	 5.620128668459405e-001	 1.397910548351552e+000	-7.704214954775802e-001
1	 5.471750564864276e-001	 1.403784790396708e+000	-7.660069758380154e-001
1	 5.323089721083540e-001	 1.409489040175448e+000	-7.503396928994182e-001
1	 5.174173986851759e-001	 1.415023445375324e+000	-7.237675970510998e-001
1	 5.025031048278797e-001	 1.420388211497145e+000	-6.866831538109421e-001
1	 4.875688413690945e-001	 1.425583601074242e+000	-6.395218973753659e-001
1	 4.726173399822490e-001	 1.430609932853171e+000	-5.827609375173769e-001
1	 4.576513118368814e-001	 1.435467580937434e+000	-5.169174237712497e-001
1	 4.426734462911082e-001	 1.440156973895912e+000	-4.425469708573894e-001
1	 6.020621429102250e-001	 1.410174322794896e+000	-1.341010037176532e+000
1	 5.870278516030029e-001	 1.416498737301121e+000	-1.356267513267396e+000
1	 5.719590733564497e-001	 1.422650029986620e+000	-1.359286433968535e+000
1	 5.568586712756409e-001	 1.428628231261313e+000	-1.350311692909988e+000
1	 5.417294947976459e-001	 1.434433431836373e+000	-1.329636475254734e+000
1	 5.265743781829089e-001	 1.440065782013029e+000	-1.297600909231500e+000
1	 5.113961390398313e-001	 1.445525490928912e+000	-1.254590661620294e+000
1	 4.961975768838239e-001	 1.450812825763512e+000	-1.201035481116039e+000
1	 4.809814717320292e-001	 1.455928110904371e+000	-1.137407693536459e+000
1	 4.657505827348304e-001	 1.460871727075660e+000	-1.064220652868971e+000
1	 4.505076468451836e-001	 1.465644110430823e+000	-9.820271521656396e-001
1	 3.721653181596841e-001	 1.210771693807061e+000	 1.409300823272974e+000
1	 3.595653860970648e-001	 1.214573118999657e+000	 1.405124586321904e+000
1	 3.469599637677736e-001	 1.218233941437156e+000	 1.406912244521366e+000
1	 3.343512498799867e-001	 1.221754652219686e+000	 1.413910006869850e+000
1	 3.217414207892364e-001	 1.225135784980603e+000	 1.425351626361876e+000
1	 3.091326295656695e-001	 1.228377915011984e+000	 1.440459976269985e+000
1	 2.965270050962132e-001	 1.231481658369039e+000	 1.458448610212558e+000
1	 2.839266512220445e-001	 1.234447670954891e+000	 1.478523303321546e+000
1	 2.713336459116921e-001	 1.237276647587193e+000	 1.499883571937278e+000
1	 2.587500404700431e-001	 1.239969321048035e+000	 1.521724169380371e+000
1	 2.461778587834510e-001	 1.242526461118597e+000	 1.543236555470969e+000
1	 3.799996068452374e-001	 1.236259117053800e+000	 1.480968574743122e+000
1	 3.671344391456395e-001	 1.240140564378870e+000	 1.490166615703116e+000
1	 3.542636656061270e-001	 1.243878449182008e+000	 1.505452501659627e+000
1	 3.413895312189302e-001	 1.247473272901273e+000	 1.525976977856957e+000
1	 3.285142581531008e-001	 1.250925580403296e+000	 1.550877753772283e+000
1	 3.156400448021336e-001	 1.254235959090374e+000	 1.579281262532674e+000
1	 3.027690648672338e-001	 1.257405037986019e+000	 1.610304400886592e+000
1	 2.899034664766288e-001	 1.260433486800481e+000	 1.643056246761933e+000
1	 2.770453713412645e-001	 1.263322014977708e+000	 1.676639751573151e+000
1	 2.641968739471592e-001	 1.266071370725263e+000	 1.710153404576754e+000
1	 2.513600407846233e-001	 1.268682340028648e+000	 1.742692866712235e+000
1	 3.878338779042280e-001	 1.261746482958037e+000	 1.480918591925504e+000
1	 3.747034751643715e-001	 1.265707952235458e+000	 1.501986906367908e+000
1	 3.615673510116165e-001	 1.269522899230740e+000	 1.529295849651369e+000
1	 3.484277967221451e-001	 1.273191835719855e+000	 1.561912736896024e+000
1	 3.352870802784262e-001	 1.276715317802694e+000	 1.598890961865154e+000
1	 3.221474453972028e-001	 1.280093944991751e+000	 1.639271930048069e+000
1	 3.090111105938582e-001	 1.283328359278823e+000	 1.682086969753056e+000
1	 2.958802682835722e-001	 1.286419244181258e+000	 1.726359217960883e+000
1	 2.827570839196105e-001	 1.289367323769279e+000	 1.771105477834083e+000
1	 2.696436951690276e-001	 1.292173361675890e+000	 1.815338044928600e+000
1	 2.565422111259951e-001	 1.294838160090888e+000	 1.858066499306565e+000
1	 3.956681332952000e-001	 1.287233797891179e+000	 1.410282620894743e+000
1	 3.822724960455041e-001	 1.291275288960849e+000	 1.441992454812002e+000
1	 3.688710218101570e-001	 1.295167297994062e+000	 1.480119573433930e+000
1	 3.554660481492020e-001	 1.298910347104691e+000	 1.523659246545188e+000
1	 3.420598888584344e-001	 1.302505003625874e+000	 1.571591641647849e+000
1	 3.286548329777549e-001	 1.305951879180282e+000	 1.622883921676934e+000
1	 3.152531438366364e-001	 1.309251628727975e+000	 1.676492318846344e+000
1	 3.018570581371236e-001	 1.312404949593379e+000	 1.731364181093520e+000
1	 2.884687850747150e-001	 1.315412580472970e+000	 1.786439987750147e+000
1	 2.750905054974154e-001	 1.318275300425168e+000	 1.840655331229023e+000
1	 2.617243711031739e-001	 1.320993927844035e+000	 1.892942861683095e+000
1	 4.035023749766974e-001	 1.312721068224635e+000	 1.270104581279441e+000
1	 3.898415036812796e-001	 1.316842580946469e+000	 1.311481052419400e+000
1	 3.761746798276636e-001	 1.320811651882687e+000	 1.359470759335928e+000
1	 3.625042872596722e-001	 1.324628813485048e+000	 1.413007712817294e+000
1	 3.488326855863470e-001	 1.328294644319918e+000	 1.471009354784206e+000
1	 3.351622091706676e-001	 1.331809768120133e+000	 1.532378812006302e+000
1	 3.214951661561188e-001	 1.335174852813998e+000	 1.596007124713667e+000
1	 3.078338375315319e-001	 1.338390609533002e+000	 1.660775446289578e+000
1	 2.941804762345622e-001	 1.341457791599845e+000	 1.725557210402475e+000
1	 2.805373062940900e-001	 1.344377193498346e+000	 1.789220262105931e+000
1	 2.669065220117670e-001	 1.347149649826810e+000	 1.850628949617637e+000
1	 4.113366049072643e-001	 1.338208300329813e+000	 1.061348939557610e+000
1	 3.974104999639416e-001	 1.342409834583748e+000	 1.111651694744806e+000
1	 3.834783268900516e-001	 1.346455967307327e+000	 1.168778703653925e+000
1	 3.695425158131264e-001	 1.350347241290185e+000	 1.231612951557841e+000
1	 3.556054721553857e-001	 1.354084246331904e+000	 1.299019111558162e+000
1	 3.416695756028192e-001	 1.357667618275472e+000	 1.369845946041148e+000
1	 3.277371791128551e-001	 1.361098038017419e+000	 1.442928682419552e+000
1	 3.138106079610459e-001	 1.364376230496281e+000	 1.517091359064839e+000
1	 2.998921588271372e-001	 1.367502963660970e+000	 1.591149137513093e+000
1	 2.859840989208189e-001	 1.370479047420677e+000	 1.663910577212590e+000
1	 2.720886651473818e-001	 1.373305332577932e+000	 1.734179869272026e+000
1	 4.191708250454448e-001	 1.363695500578122e+000	 7.849081432441551e-001
1	 4.049794867857331e-001	 1.367977056264114e+000	 8.436138233418318e-001
1	 3.907819648232359e-001	 1.372100250678695e+000	 9.093659295432703e-001
1	 3.765807355691360e-001	 1.376065636949365e+000	 9.810061435598481e-001
1	 3.623782502587722e-001	 1.379873816108914e+000	 1.057355823180113e+000
1	 3.481769339010870e-001	 1.383525436110463e+000	 1.137218543548390e+000
1	 3.339791842673958e-001	 1.387021190818762e+000	 1.219382612727926e+000
1	 3.197873709199146e-001	 1.390361818979375e+000	 1.302623557170779e+000
1	 3.056038342804242e-001	 1.393548103167406e+000	 1.385706572902651e+000
1	 2.914308847393696e-001	 1.396580868717411e+000	 1.467388938425247e+000
1	 2.772708018056258e-001	 1.399460982636122e+000	 1.546422385537924e+000
1	 4.270050373497829e-001	 1.389182675340970e+000	 4.416092365950666e-001
1	 4.125484660388972e-001	 1.393544252378993e+000	 5.083955500917250e-001
1	 3.980855954531315e-001	 1.397744508407502e+000	 5.824579909812324e-001
1	 3.836189482872718e-001	 1.401784006891852e+000	 6.626061853765589e-001
1	 3.691510215897282e-001	 1.405663360098026e+000	 7.476271629349587e-001
1	 3.546842856923493e-001	 1.409383228089274e+000	 8.362880303587896e-001
1	 3.402211831802909e-001	 1.412944317698551e+000	 9.273386197737333e-001
1	 3.257641279023869e-001	 1.416347381478438e+000	 1.019514107320336e+000
1	 3.113155040224079e-001	 1.419593216630219e+000	 1.111537597492373e+000
1	 2.968776651115092e-001	 1.422682663913800e+000	 1.202122668953832e+000
1	 2.824529332821062e-001	 1.425616606540098e+000	 1.289975877775521e+000
1	 4.348392437788227e-001	 1.414669830989763e+000	 3.221976106584192e-002
1	 4.201174396156771e-001	 1.419111429319816e+000	 1.069509923726914e-001
1	 4.053892206056536e-001	 1.423388746904461e+000	 1.891922167899679e-001
1	 3.906571557271050e-001	 1.427502357546906e+000	 2.777298129602840e-001
1	 3.759237878414754e-001	 1.431452884746319e+000	 3.713250368690730e-001
1	 3.611916326034839e-001	 1.435241000676072e+000	 4.687168202640057e-001
1	 3.464631774120903e-001	 1.438867425137311e+000	 5.686245451203341e-001
1	 3.317408804027114e-001	 1.442332924489626e+000	 6.697507892052023e-001
1	 3.170271694810728e-001	 1.445638310560474e+000	 7.707840379930190e-001
1	 3.023244413990053e-001	 1.448784439535093e+000	 8.704013583921750e-001
1	 2.876350608724304e-001	 1.451772210828581e+000	 9.672710299576689e-001
1	 4.426734462911082e-001	 1.440156973895912e+000	-4.425469708573894e-001
1	 4.276864094083155e-001	 1.444678593478009e+000	-3.598331707641742e-001
1	 4.126928421067176e-001	 1.449032972580286e+000	-2.693744739527308e-001
1	 3.976953596482061e-001	 1.453220695343790e+000	-1.723993498268614e-001
1	 3.826965507072357e-001	 1.457242396500876e+000	-7.016416370655752e-002
1	 3.676989762613686e-001	 1.461098760335022e+000	 3.604973947922911e-002
1	 3.527051685233442e-001	 1.464790519615566e+000	 1.449389292796927e-001
1	 3.377176299151375e-001	 1.468318454509096e+000	 2.551807563546797e-001
1	 3.227388320844036e-001	 1.471683391469234e+000	 3.654361866238978e-001
1	 3.077712149636253e-001	 1.474886202106543e+000	 4.743525981166748e-001
1	 2.928171858722058e-001	 1.477927802040290e+000	 5.805665359257370e-001
1	 4.505076468451836e-001	 1.465644110430823e+000	-9.820271521656396e-001
1	 4.352553773090560e-001	 1.470245751245001e+000	-8.911318265736740e-001
1	 4.199964617822380e-001	 1.474677191845686e+000	-7.922585720624658e-001
1	 4.047335618101466e-001	 1.478939026711766e+000	-6.866426869385462e-001
1	 3.894693118802304e-001	 1.483031901808773e+000	-5.755503795902078e-001
1	 3.742063182928812e-001	 1.486956513530291e+000	-4.602757410670502e-001
1	 3.589471580746028e-001	 1.490713607613841e+000	-3.421377375956454e-001
1	 3.436943779339139e-001	 1.494303978033006e+000	-2.224772285529902e-001
1	 3.284504932603850e-001	 1.497728465867564e+000	-1.026540152107756e-001
1	 3.132179871671365e-001	 1.500987958153400e+000	 1.595607465369429e-002
1	 2.979993095770399e-001	 1.504083386713946e+000	 1.319640614072558e-001
1	 2.461778587834510e-001	 1.242526461118597e+000	 1.543236555470968e+000
1	 2.336209787353383e-001	 1.244948520494780e+000	 1.565362894895855e+000
1	 2.210794773494281e-001	 1.247236734201940e+000	 1.588966801120349e+000
1	 2.085552884195949e-001	 1.249391977736748e+000	 1.613117770199707e+000
1	 1.960503157475883e-001	 1.251415159572273e+000	 1.636895635187039e+000
1	 1.835664325704446e-001	 1.253307220138870e+000	 1.659391861498445e+000
1	 1.711054810238903e-001	 1.255069130798217e+000	 1.679710790855012e+000
1	 1.586692716415527e-001	 1.256701892811832e+000	 1.696970832837276e+000
1	 1.462595828897382e-001	 1.258206536305377e+000	 1.710305603234466e+000
1	 1.338781607374896e-001	 1.259584119230017e+000	 1.718865008519363e+000
1	 1.215267182615959e-001	 1.260835726322077e+000	 1.721816275921818e+000
1	 2.513600407846233e-001	 1.268682340028648e+000	 1.742692866712235e+000
1	 2.385388313687072e-001	 1.271155385113263e+000	 1.775310144717276e+000
1	 2.257333243445114e-001	 1.273491767002438e+000	 1.808972760459835e+000
1	 2.129454942133351e-001	 1.275692379622538e+000	 1.842642347464664e+000
1	 2.001772848530018e-001	 1.277758150570499e+000	 1.875292593527345e+000
1	 1.874306089332176e-001	 1.279690040073258e+000	 1.905910687282538e+000
1	 1.747073473676788e-001	 1.281489039940201e+000	 1.933498706515541e+000
1	 1.620093488027417e-001	 1.283156172509960e+000	 1.957074947157602e+000
1	 1.493384291424061e-001	 1.284692489592919e+000	 1.975675192073902e+000
1	 1.366963711093230e-001	 1.286099071410704e+000	 1.988353918917813e+000
1	 1.240849238414895e-001	 1.287377025533950e+000	 1.994185446486700e+000
1	 2.565422111259951e-001	 1.294838160090888e+000	 1.858066499306564e+000
1	 2.434566729370095e-001	 1.297362190769154e+000	 1.900470235775756e+000
1	 2.303871608685430e-001	 1.299746740731929e+000	 1.943637148852080e+000
1	 2.173356901292265e-001	 1.301992722335230e+000	 1.986428788647882e+000
1	 2.043042446728649e-001	 1.304101082299809e+000	 2.027719947804022e+000
1	 1.912947766017440e-001	 1.306072800649137e+000	 2.066400262363588e+000
1	 1.783092056074410e-001	 1.307908889640256e+000	 2.101375748272659e+000
1	 1.653494184489528e-001	 1.309610392688861e+000	 2.131570272328453e+000
1	 1.524172684678871e-001	 1.311178383290003e+000	 2.155926956580987e+000
1	 1.395145751404186e-001	 1.312613963935719e+000	 2.173409515377342e+000
1	 1.266431236656700e-001	 1.313918265030891e+000	 2.183003524416374e+000
1	 2.617243711031739e-001	 1.320993927844035e+000	 1.892942861683095e+000
1	 2.483745046697697e-001	 1.323568944013921e+000	 1.944621816051363e+000
1	 2.350409880850431e-001	 1.326001661953930e+000	 1.996911951848257e+000
1	 2.217258772648734e-001	 1.328293012449679e+000	 2.048582058596796e+000
1	 2.084311962389666e-001	 1.330443961345699e+000	 2.098414847974171e+000
1	 1.951589365421072e-001	 1.332455508461953e+000	 2.145208712114438e+000
1	 1.819110566436752e-001	 1.334328686503093e+000	 2.187779412115969e+000
1	 1.686894814152311e-001	 1.336064559961831e+000	 2.224961695425958e+000
1	 1.554961016359138e-001	 1.337664224017839e+000	 2.255610840978970e+000
1	 1.423327735353477e-001	 1.339128803433513e+000	 2.278604131166263e+000
1	 1.292013183737076e-001	 1.340459451447940e+000	 2.292842249907629e+000
1	 2.669065220117670e-001	 1.347149649826810e+000	 1.850628949617639e+000
1	 2.532923277965124e-001	 1.349775651399042e+000	 1.911250109567937e+000
1	 2.396948071575314e-001	 1.352256537231954e+000	 1.972442265213577e+000
1	 2.261160567178805e-001	 1.354593256540739e+000	 2.032888347462527e+000
1	 2.125581405830954e-001	 1.356786794293665e+000	 2.091285399169345e+000
1	 1.990230897203908e-001	 1.358838170107152e+000	 2.146346494012675e+000
1	 1.855129013768806e-001	 1.360748437133422e+000	 2.196802580823480e+000
1	 1.720295385366216e-001	 1.362518680942165e+000	 2.241404251863989e+000
1	 1.585749294162189e-001	 1.364150018397633e+000	 2.278923433778197e+000
1	 1.451509669986813e-001	 1.365643596532541e+000	 2.308155000150994e+000
1	 1.317595086051721e-001	 1.367000591420134e+000	 2.327918304825388e+000
1	 2.720886651473818e-001	 1.373305332577932e+000	 1.734179869272026e+000
1	 2.582101435467623e-001	 1.375982319475984e+000	 1.803574868866515e+000
1	 2.443486192495282e-001	 1.378511373129517e+000	 1.873595529633171e+000
1	 2.305062295858520e-001	 1.380893461183264e+000	 1.942845437058633e+000
1	 2.166850787370401e-001	 1.383129587729205e+000	 2.009942005903845e+000
1	 2.028872371026779e-001	 1.385220792180180e+000	 2.073518562820361e+000
1	 1.891147407075556e-001	 1.387168148135953e+000	 2.132226350311534e+000
1	 1.753695906481697e-001	 1.388972762243157e+000	 2.184736450340150e+000
1	 1.616537525785352e-001	 1.390635773050592e+000	 2.229741626121014e+000
1	 1.479691562349904e-001	 1.392158349861254e+000	 2.265958080871079e+000
1	 1.343176949996336e-001	 1.393541691582514e+000	 2.292127132515355e+000
1	 2.772708018056258e-001	 1.399460982636122e+000	 1.546422385537923e+000
1	 2.631279531500440e-001	 1.402188954796221e+000	 1.624575192465319e+000
1	 2.490024255245531e-001	 1.404766176210133e+000	 1.703487486594802e+000
1	 2.348963969663925e-001	 1.407193632952109e+000	 1.781689661476911e+000
1	 2.208120117325892e-001	 1.409472348237812e+000	 1.857725200869284e+000
1	 2.067513796550518e-001	 1.411603381276482e+000	 1.930152928273995e+000
1	 1.927165755361991e-001	 1.413587826115396e+000	 1.997549174341235e+000
1	 1.787096385849205e-001	 1.415426810478104e+000	 2.058509860217570e+000
1	 1.647325718925951e-001	 1.417121494597922e+000	 2.111652495170761e+000
1	 1.507873419488461e-001	 1.418673070048106e+000	 2.155618087070747e+000
1	 1.368758781966621e-001	 1.420082758570117e+000	 2.189072964551263e+000
1	 2.824529332821062e-001	 1.425616606540098e+000	 1.289975877775522e+000
1	 2.680457578358820e-001	 1.428395563911225e+000	 1.377011609988233e+000
1	 2.536562271461264e-001	 1.431020953037317e+000	 1.465005276603461e+000
1	 2.392865599571062e-001	 1.433493778422127e+000	 1.552419899416505e+000
1	 2.249389406015317e-001	 1.435815082404983e+000	 1.637730409858608e+000
1	 2.106155183435960e-001	 1.437985943991505e+000	 1.719426068654617e+000
1	 1.963184067633099e-001	 1.440007477676460e+000	 1.796012800475873e+000
1	 1.820496831819193e-001	 1.441880832260298e+000	 1.866015441421215e+000
1	 1.678113881281316e-001	 1.443607189660832e+000	 1.927979897424918e+000
1	 1.536055248448193e-001	 1.445187763721549e+000	 1.980475211954900e+000
1	 1.394340588358278e-001	 1.446623799017982e+000	 2.022095541623010e+000
1	 2.876350608724304e-001	 1.451772210828581e+000	 9.672710299576691e-001
1	 2.729635588338008e-001	 1.454602153372468e+000	 1.063445779596857e+000
1	 2.583100252777679e-001	 1.457275710174585e+000	 1.160828040171200e+000
1	 2.436767196555977e-001	 1.459793904168173e+000	 1.257818972622228e+000
1	 2.290658663756560e-001	 1.462157796816215e+000	 1.352830039271533e+000
1	 2.144796541343938e-001	 1.464368486920693e+000	 1.444285596812000e+000
1	 1.999202352893869e-001	 1.466427109423858e+000	 1.530625402015940e+000
1	 1.853897252742113e-001	 1.468334834203037e+000	 1.610307027721069e+000
1	 1.708902020548770e-001	 1.470092864860527e+000	 1.681808186937478e+000
1	 1.564237056274812e-001	 1.471702437510035e+000	 1.743628963197209e+000
1	 1.419922375567005e-001	 1.473164819561149e+000	 1.794293945541233e+000
1	 2.928171858722058e-001	 1.477927802040290e+000	 5.805665359257360e-001
1	 2.778813573733250e-001	 1.480808729731422e+000	 6.862580935605146e-001
1	 2.629638210829975e-001	 1.483530454185451e+000	 7.934453309874550e-001
1	 2.480668771594715e-001	 1.486094016765102e+000	 9.004727718154352e-001
1	 2.331927900867510e-001	 1.488500498057003e+000	 1.005693217933486e+000
1	 2.183437879935285e-001	 1.490751016659494e+000	 1.107470519064203e+000
1	 2.035220620149286e-001	 1.492846727962296e+000	 1.204182253329611e+000
1	 1.887297656968415e-001	 1.494788822919614e+000	 1.294222316097835e+000
1	 1.739690144425642e-001	 1.496578526818215e+000	 1.376003414672012e+000
1	 1.592418850014027e-001	 1.498217098042018e+000	 1.447959466677328e+000
1	 1.445504149988502e-001	 1.499705826834654e+000	 1.508547900289852e+000
1	 2.979993095770399e-001	 1.504083386713946e+000	 1.319640614072568e-001
1	 2.827991546839796e-001	 1.507015299539558e+000	 2.476634466381039e-001
1	 2.676176157253354e-001	 1.509785191633430e+000	 3.651736076259462e-001
1	 2.524570335663319e-001	 1.512394122787768e+000	 4.827873867820582e-001
1	 2.373197127666052e-001	 1.514843192712843e+000	 5.988034788027817e-001
1	 2.222079208870836e-001	 1.517133539803352e+000	 7.115293800258374e-001
1	 2.071238878404339e-001	 1.519266339896488e+000	 8.192842476563987e-001
1	 1.920698052848553e-001	 1.521242805023325e+000	 9.204016658120747e-001
1	 1.770478260609259e-001	 1.523064182155104e+000	 1.013232315646437e+000
1	 1.620600636711550e-001	 1.524731751945949e+000	 1.096146547115761e+000
1	 1.471085918018470e-001	 1.526246827473539e+000	 1.167536850256660e+000
1	 1.215267182615959e-001	 1.260835726322077e+000	 1.721816275921818e+000
1	 1.092050938783885e-001	 1.261962627821675e+000	 1.720105987612396e+000
1	 9.691681094146261e-002	 1.262965762463481e+000	 1.714738621200369e+000
1	 8.466350730218102e-002	 1.263846289909173e+000	 1.705000523189507e+000
1	 7.244678589573805e-002	 1.264605392478897e+000	 1.690203418030577e+000
1	 6.026821451849371e-002	 1.265244274109201e+000	 1.669684834466691e+000
1	 4.812932563820527e-002	 1.265764159316470e+000	 1.642808480348241e+000
1	 3.603161623652470e-002	 1.266166292166884e+000	 1.608964566842722e+000
1	 2.397654768310283e-002	 1.266451935253878e+000	 1.567570083042771e+000
1	 1.196554564061585e-002	 1.266622368684020e+000	 1.518069022046601e+000
1	 0.000000000000000e+000	 1.266678889072220e+000	 1.459932559651391e+000
1	 1.240849238414895e-001	 1.287377025533950e+000	 1.994185446486700e+000
1	 1.115039223538047e-001	 1.288527648942039e+000	 1.994266473490421e+000
1	 9.895696416848027e-002	 1.289551900130541e+000	 1.989777283199932e+000
1	 8.644572161462832e-002	 1.290450963172669e+000	 1.979955935632787e+000
1	 7.397183137018699e-002	 1.291226045277082e+000	 1.964070025919473e+000
1	 6.153689423456665e-002	 1.291878375723875e+000	 1.941417088799047e+000
1	 4.914247493488754e-002	 1.292409204806197e+000	 1.911324945760178e+000
1	 3.679010196516106e-002	 1.292819802778529e+000	 1.873151995982186e+000
1	 2.448126745774404e-002	 1.293111458812611e+000	 1.826287452308494e+000
1	 1.221742708636590e-002	 1.293285479961983e+000	 1.770151523564832e+000
1	 0.000000000000000e+000	 1.293343190136031e+000	 1.704195544599474e+000
1	 1.266431236656700e-001	 1.313918265030891e+000	 2.183003524416374e+000
1	 1.138027456571140e-001	 1.315092610294107e+000	 2.186002655178529e+000
1	 1.009971128054113e-001	 1.316137977981790e+000	 2.183794707814927e+000
1	 8.822793191734571e-002	 1.317055576578640e+000	 2.175550520497309e+000
1	 7.549687341352278e-002	 1.317846638181773e+000	 2.160474053784596e+000
1	 6.280557109632910e-002	 1.318512417414775e+000	 2.137802817666769e+000
1	 5.015562195217487e-002	 1.319054190347506e+000	 2.106808234931955e+000
1	 3.754858598735988e-002	 1.319473253422687e+000	 2.066795942173870e+000
1	 2.498598609687752e-002	 1.319770922390312e+000	 2.017106029848179e+000
1	 1.246930796544274e-002	 1.319948531250828e+000	 1.957113222866567e+000
1	 0.000000000000000e+000	 1.320007431208043e+000	 1.886227003294499e+000
1	 1.292013183737076e-001	 1.340459451447940e+000	 2.292842249907628e+000
1	 1.161015643630454e-001	 1.341657518518851e+000	 2.299849551045253e+000
1	 1.030372573623214e-001	 1.342724002663488e+000	 2.301240837822907e+000
1	 9.001013865592045e-002	 1.343660136777989e+000	 2.296101885961162e+000
1	 7.702191240704664e-002	 1.344467177847875e+000	 2.283554632165191e+000
1	 6.407424542099523e-002	 1.345146405840180e+000	 2.262757666709273e+000
1	 5.116876694340037e-002	 1.345699122601420e+000	 2.232906655532961e+000
1	 3.830706849278592e-002	 1.346126650762511e+000	 2.193234693272152e+000
1	 2.549070372671889e-002	 1.346430332651642e+000	 2.143012588747762e+000
1	 1.272118834083836e-002	 1.346611529216121e+000	 2.081549084527722e+000
1	 0.000000000000000e+000	 1.346671618954121e+000	 2.008191012262340e+000
1	 1.317595086051721e-001	 1.367000591420134e+000	 2.327918304825388e+000
1	 1.184003790463280e-001	 1.368222380257244e+000	 2.339989967974318e+000
1	 1.050773983492763e-001	 1.369309980821893e+000	 2.346220006595248e+000
1	 9.179234227593996e-002	 1.370264650421613e+000	 2.345592303113562e+000
1	 7.854694873205979e-002	 1.371087670930294e+000	 2.337129410427954e+000
1	 6.534291752577912e-002	 1.371780347658369e+000	 2.319893151729280e+000
1	 5.218191016189722e-002	 1.372344008228968e+000	 2.292985142543743e+000
1	 3.906554967110398e-002	 1.372780001461154e+000	 2.255547236470188e+000
1	 2.599542047348377e-002	 1.373089696261269e+000	 2.206761896192077e+000
1	 1.297306827554469e-002	 1.373274480523431e+000	 2.145852491454692e+000
1	 0.000000000000000e+000	 1.373335760040133e+000	 2.072083525793519e+000
1	 1.343176949996336e-001	 1.393541691582514e+000	 2.292127132515354e+000
1	 1.206991902816909e-001	 1.394787202150259e+000	 2.310288049686138e+000
1	 1.071175362763418e-001	 1.395895919103263e+000	 2.322523857280313e+000
1	 9.357454322299168e-002	 1.396869124160417e+000	 2.327700646449728e+000
1	 8.007198276986338e-002	 1.397708124083939e+000	 2.324725177276698e+000
1	 6.661158772789504e-002	 1.398414249527623e+000	 2.312545626322199e+000
1	 5.319505186099852e-002	 1.398988853891178e+000	 2.290152248646138e+000
1	 3.982402971197888e-002	 1.399433312181770e+000	 2.256577955755276e+000
1	 2.650013646338779e-002	 1.399749019883856e+000	 2.210898811067438e+000
1	 1.322494783255373e-002	 1.399937391838324e+000	 2.152234444602503e+000
1	 0.000000000000000e+000	 1.399999861131944e+000	 2.079748388725154e+000
1	 1.368758781966621e-001	 1.420082758570117e+000	 2.189072964551263e+000
1	 1.229979986438630e-001	 1.421351990838867e+000	 2.214319062443177e+000
1	 1.091576716535836e-001	 1.422481824153855e+000	 2.233660569931372e+000
1	 9.535674194266292e-002	 1.423473564645299e+000	 2.245830752074820e+000
1	 8.159701490175862e-002	 1.424328543963714e+000	 2.249605047014498e+000
1	 6.788025634455708e-002	 1.425048118106222e+000	 2.243802000637332e+000
1	 5.420819229403744e-002	 1.425633666249075e+000	 2.227284107502281e+000
1	 4.058250880507539e-002	 1.426086589587512e+000	 2.198958559417029e+000
1	 2.700485182264656e-002	 1.426408310184067e+000	 2.157777903204959e+000
1	 1.347682707485744e-002	 1.426600269826366e+000	 2.102740609345986e+000
1	 0.000000000000000e+000	 1.426663928895422e+000	 2.032891553307533e+000
1	 1.394340588358278e-001	 1.446623799017982e+000	 2.022095541623010e+000
1	 1.252968047075734e-001	 1.447916752964040e+000	 2.055395901434218e+000
1	 1.111978049910673e-001	 1.449067702619928e+000	 2.082880870811527e+000
1	 9.713893888054107e-002	 1.450077978527162e+000	 2.103136653751314e+000
1	 8.312204550904669e-002	 1.450948937224526e+000	 2.114792652676995e+000
1	 6.914892369297943e-002	 1.451681960052446e+000	 2.116522628576628e+000
1	 5.522133171434710e-002	 1.452278451963687e+000	 2.107045758745789e+000
1	 4.134098714005827e-002	 1.452739840341533e+000	 2.085127593400510e+000
1	 2.750956667747569e-002	 1.453067573826568e+000	 2.049580912601239e+000
1	 1.372870606544777e-002	 1.453263121153126e+000	 1.999266485094646e+000
1	 0.000000000000000e+000	 1.453327969996434e+000	 1.933093730834433e+000
1	 1.419922375567005e-001	 1.473164819561149e+000	 1.794293945541232e+000
1	 1.275956090475513e-001	 1.474481495166753e+000	 1.836592731465895e+000
1	 1.132379367988588e-001	 1.475653561147740e+000	 1.873201229746499e+000
1	 9.892113448221356e-002	 1.476682372456906e+000	 1.902545090593545e+000
1	 8.464707497302880e-002	 1.477569310521282e+000	 1.923093723565294e+000
1	 7.041759009037629e-002	 1.478315782024575e+000	 1.933361720583423e+000
1	 5.623447037526061e-002	 1.478923217696040e+000	 1.931910167457383e+000
1	 4.209946490659234e-002	 1.479393071106987e+000	 1.917347845005798e+000
1	 2.801428115409081e-002	 1.479726817476025e+000	 1.888332321065427e+000
1	 1.398058486731671e-002	 1.479925952484172e+000	 1.843570934870356e+000
1	 0.000000000000000e+000	 1.479991991100845e+000	 1.781821675464012e+000
1	 1.445504149988502e-001	 1.499705826834654e+000	 1.508547900289851e+000
1	 1.298944122385256e-001	 1.501046224087976e+000	 1.560766117019283e+000
1	 1.152780675870237e-001	 1.502239406383549e+000	 1.607424593925376e+000
1	 1.007033291932677e-001	 1.503286753085432e+000	 1.646775624451867e+000
1	 8.617210367500609e-002	 1.504189670508888e+000	 1.677115371251770e+000
1	 7.168625585396170e-002	 1.504949590680887e+000	 1.696785588598450e+000
1	 5.724760853011116e-002	 1.505567970107163e+000	 1.704175223777904e+000
1	 4.285794229434238e-002	 1.506046288547026e+000	 1.697721898320225e+000
1	 2.851899537870754e-002	 1.506386047797100e+000	 1.675913270161433e+000
1	 1.423246354345621e-002	 1.506588770485069e+000	 1.637288278047712e+000
1	 0.000000000000000e+000	 1.506655998874523e+000	 1.580438269701384e+000
1	 1.471085918018470e-001	 1.526246827473539e+000	 1.167536850256658e+000
1	 1.321932148552253e-001	 1.527610946368682e+000	 1.230573947329125e+000
1	 1.173181978656277e-001	 1.528825244973612e+000	 1.288158958073674e+000
1	 1.024855234592909e-001	 1.529891127063641e+000	 1.338358657993797e+000
1	 8.769713199627979e-002	 1.530810023842251e+000	 1.379283363039177e+000
1	 7.295492130094994e-002	 1.531583392679665e+000	 1.409088987106295e+000
1	 5.826074643223184e-002	 1.532212715858080e+000	 1.425978968566378e+000
1	 4.361641949297316e-002	 1.532699499324805e+000	 1.428206066399424e+000
1	 2.902370947754151e-002	 1.533045271454459e+000	 1.414074026776371e+000
1	 1.448434215685826e-002	 1.533251581821384e+000	 1.381939121185063e+000
1	 0.000000000000000e+000	 1.533319999983334e+000	 1.330211557434212e+000
1	 1.533319999983334e+000	 0.000000000000000e+000	 2.837231315446232e+001
1	 1.533251581821385e+000	 1.448434215685831e-002	 2.802702828265859e+001
1	 1.533045271454459e+000	 2.902370947754160e-002	 2.768564741514094e+001
1	 1.532699499324805e+000	 4.361641949297308e-002	 2.734719376999060e+001
1	 1.532212715858081e+000	 5.826074643223178e-002	 2.701065900517609e+001
1	 1.531583392679665e+000	 7.295492130094992e-002	 2.667500375912319e+001
1	 1.530810023842251e+000	 8.769713199627981e-002	 2.633915825468942e+001
1	 1.529891127063641e+000	 1.024855234592909e-001	 2.600202296757957e+001
1	 1.528825244973612e+000	 1.173181978656276e-001	 2.566246936013616e+001
1	 1.527610946368682e+000	 1.321932148552252e-001	 2.531934068132900e+001
1	 1.526246827473539e+000	 1.471085918018469e-001	 2.497145283365154e+001
1	 1.559987999982150e+000	 0.000000000000000e+000	 2.945401498267345e+001
1	 1.559918391869258e+000	 1.473625854557675e-002	 2.906508305485594e+001
1	 1.559708493285285e+000	 2.952849927044130e-002	 2.868105029214555e+001
1	 1.559356707374226e+000	 4.437501044347395e-002	 2.830083662445870e+001
1	 1.558861457611046e+000	 5.927403627859133e-002	 2.792333222865294e+001
1	 1.558221189039145e+000	 7.422377701450698e-002	 2.754739827286545e+001
1	 1.557434369519299e+000	 8.922238903169809e-002	 2.717186772700740e+001
1	 1.556499490988984e+000	 1.042679850074528e-001	 2.679554624015783e+001
1	 1.555415070730929e+000	 1.193586341098443e-001	 2.641721308548161e+001
1	 1.554179652649703e+000	 1.344923622314419e-001	 2.603562217317008e+001
1	 1.552791808555088e+000	 1.496671522635357e-001	 2.564950313177114e+001
1	 1.586655999981867e+000	 0.000000000000000e+000	 3.060472558378218e+001
1	 1.586585201918022e+000	 1.498817493449890e-002	 3.017090395702808e+001
1	 1.586371715116970e+000	 3.003328906368751e-002	 2.974287599854457e+001
1	 1.586013915424462e+000	 4.513360139441185e-002	 2.931946701328576e+001
1	 1.585510199364770e+000	 6.028732612543465e-002	 2.889947414413467e+001
1	 1.584858985399321e+000	 7.549263272855974e-002	 2.848166730235952e+001
1	 1.584058715196978e+000	 9.074764606759800e-002	 2.806479016683463e+001
1	 1.583107854914894e+000	 1.060504465560655e-001	 2.764756125250445e+001
1	 1.582004896488756e+000	 1.213990703544733e-001	 2.722867504843458e+001
1	 1.580748358931190e+000	 1.367915096080340e-001	 2.680680322565427e+001
1	 1.579336789637071e+000	 1.522257127255743e-001	 2.638059591484709e+001
1	 1.613323999982383e+000	 0.000000000000000e+000	 3.181485882633118e+001
1	 1.613252011967577e+000	 1.524009132357382e-002	 3.133533506464271e+001
1	 1.613034936949426e+000	 3.053807885719378e-002	 3.086237864598283e+001
1	 1.612671123475432e+000	 4.589219234567800e-002	 3.039472839791867e+001
1	 1.612158941119188e+000	 6.130061597264207e-002	 2.993109637058807e+001
1	 1.611496781760144e+000	 7.676148844298673e-002	 2.947016893627737e+001
1	 1.610683060875255e+000	 9.227290310386339e-002	 2.901060796023450e+001
1	 1.609716218841355e+000	 1.078329081050230e-001	 2.855105204295782e+001
1	 1.608594722247091e+000	 1.234395065994216e-001	 2.809011783405339e+001
1	 1.607317065213149e+000	 1.390906569849222e-001	 2.762640141759912e+001
1	 1.605881770719505e+000	 1.547842731878955e-001	 2.715847976879467e+001
1	 1.639991999983600e+000	 0.000000000000000e+000	 3.307545210132014e+001
1	 1.639918822017828e+000	 1.549200771275063e-002	 3.254981599314578e+001
1	 1.639698158782560e+000	 3.104286865087362e-002	 3.203138121559614e+001
1	 1.639328331527060e+000	 4.665078329716376e-002	 3.151880778433767e+001
1	 1.638807682874235e+000	 6.231390582009395e-002	 3.101073012499193e+001
1	 1.638134578121566e+000	 7.803034415766653e-002	 3.050575832544936e+001
1	 1.637307406554097e+000	 9.379816014037826e-002	 3.000247946175644e+001
1	 1.636324582768350e+000	 1.096153696542197e-001	 2.949945899760468e+001
1	 1.635184548005932e+000	 1.254799428445966e-001	 2.899524225729035e+001
1	 1.633885771495591e+000	 1.413898043620276e-001	 2.848835597184650e+001
1	 1.632426751802406e+000	 1.573428336504320e-001	 2.797730989787807e+001
1	 1.666659999985417e+000	 0.000000000000000e+000	 3.437811643771896e+001
1	 1.666585632068675e+000	 1.574392410197842e-002	 3.380633425219310e+001
1	 1.666361380616284e+000	 3.154765844464056e-002	 3.324223004599613e+001
1	 1.665985539579266e+000	 4.740937424876035e-002	 3.268439223714675e+001
1	 1.665456424629847e+000	 6.332719566767057e-002	 3.213138465225202e+001
1	 1.664772374483535e+000	 7.929919987247770e-002	 3.158174791574432e+001
1	 1.663931752233472e+000	 9.532341717702640e-002	 3.103400091490083e+001
1	 1.662932946695863e+000	 1.113978312035495e-001	 3.048664234048867e+001
1	 1.661774373765276e+000	 1.275203790899053e-001	 2.993815230270691e+001
1	 1.660454477778524e+000	 1.436889517392707e-001	 2.938699402191896e+001
1	 1.658971732885789e+000	 1.599013941131163e-001	 2.883161559348565e+001
1	 1.693327999987733e+000	 0.000000000000000e+000	 3.571499133172581e+001
1	 1.693252442120022e+000	 1.599584049120630e-002	 3.509738210208287e+001
1	 1.693024602450508e+000	 3.205244823840814e-002	 3.448775362183133e+001
1	 1.692642747631973e+000	 4.816796520035906e-002	 3.388462950278690e+001
1	 1.692105166385958e+000	 6.434048551525225e-002	 3.328650958320684e+001
1	 1.691410170846005e+000	 8.056805558729877e-002	 3.269187143867280e+001
1	 1.690556097913347e+000	 9.684867421369173e-002	 3.209917197084162e+001
1	 1.689541310623874e+000	 1.131802927529067e-001	 3.150684907374645e+001
1	 1.688364199525119e+000	 1.295608153352550e-001	 3.091332337714803e+001
1	 1.687023184061957e+000	 1.459880991165722e-001	 3.031700006624830e+001
1	 1.685516713969673e+000	 1.624599545758813e-001	 2.971627077688543e+001
1	 1.719995999990450e+000	 0.000000000000000e+000	 3.707870377817369e+001
1	 1.719919252171772e+000	 1.624775688038337e-002	 3.641591742375314e+001
1	 1.719687824285143e+000	 3.255723803208991e-002	 3.576122519617075e+001
1	 1.719299955685101e+000	 4.892655615185122e-002	 3.511309229589794e+001
1	 1.718753908142506e+000	 6.535377536271933e-002	 3.446996079439732e+001
1	 1.718047967208927e+000	 8.183691130200831e-002	 3.383025125187678e+001
1	 1.717180443593690e+000	 9.837393125025810e-002	 3.319236441487749e+001
1	 1.716149674552369e+000	 1.149627543021854e-001	 3.255468299324114e+001
1	 1.714954025285460e+000	 1.316012515805530e-001	 3.191557351581040e+001
1	 1.713591890345899e+000	 1.482872464938531e-001	 3.127338826401984e+001
1	 1.712061695054074e+000	 1.650185150386594e-001	 3.062646728233266e+001
1	 1.746663999993467e+000	 0.000000000000000e+000	 3.846233105497828e+001
1	 1.746586062223828e+000	 1.649967326945873e-002	 3.775532817339118e+001
1	 1.746351046120097e+000	 3.306202782559937e-002	 3.705632883696737e+001
1	 1.745957163738572e+000	 4.968514710312810e-002	 3.636374585732702e+001
1	 1.745402649899424e+000	 6.636706520995209e-002	 3.567596939534709e+001
1	 1.744685763572250e+000	 8.310576701648488e-002	 3.499136867148449e+001
1	 1.743804789274466e+000	 9.989918828660942e-002	 3.430829375778322e+001
1	 1.742758038481331e+000	 1.167452158512797e-001	 3.362507745099668e+001
1	 1.741543851046296e+000	 1.336416878257062e-001	 3.294003722605899e+001
1	 1.740160596630359e+000	 1.505863938710342e-001	 3.225147726893287e+001
1	 1.738606676139007e+000	 1.675770755013836e-001	 3.155769058765243e+001
1	 1.773331999996684e+000	 0.000000000000000e+000	 3.985936686554983e+001
1	 1.773252872276091e+000	 1.675158965838147e-002	 3.910940004430819e+001
1	 1.773014267955283e+000	 3.356681761885008e-002	 3.836712853715411e+001
1	 1.772614371792308e+000	 5.044373805408099e-002	 3.763091843938260e+001
1	 1.772051391656649e+000	 6.738035505683089e-002	 3.689911351412461e+001
1	 1.771323559935927e+000	 8.437462273060700e-002	 3.617003698138105e+001
1	 1.770429134955646e+000	 1.014244453226296e-001	 3.544199339047754e+001
1	 1.769366402410742e+000	 1.185276774000839e-001	 3.471327057528176e+001
1	 1.768133676807624e+000	 1.356821240706220e-001	 3.398214169131968e+001
1	 1.766729302915345e+000	 1.528855412480361e-001	 3.324686733371450e+001
1	 1.765151657224491e+000	 1.701356359639863e-001	 3.250569773465553e+001
1	 1.800000000000000e+000	 0.000000000000000e+000	 4.126369049091846e+001
1	 1.799919682328466e+000	 1.700350604710072e-002	 4.047228700345750e+001
1	 1.799677489790610e+000	 3.407160741175556e-002	 3.968804007064590e+001
1	 1.799271579846229e+000	 5.120232900460112e-002	 3.890927441475235e+001
1	 1.798700133414114e+000	 6.839364490323605e-002	 3.813429259098105e+001
1	 1.797961356299907e+000	 8.564347844425327e-002	 3.736137684177503e+001
1	 1.797053480637195e+000	 1.029497023582024e-001	 3.658879103616869e+001
1	 1.795974766340585e+000	 1.203101389484920e-001	 3.581478269346317e+001
1	 1.794723502569440e+000	 1.377225603152076e-001	 3.503758509028739e+001
1	 1.793298009200867e+000	 1.551846886247796e-001	 3.425541944988977e+001
1	 1.791696638310540e+000	 1.726941964264003e-001	 3.346649721228189e+001
1	 1.526246827473539e+000	 1.471085918018469e-001	 2.497145283365154e+001
1	 1.524731751945950e+000	 1.620600636711551e-001	 2.462455871783450e+001
1	 1.523064182155104e+000	 1.770478260609258e-001	 2.428440150807048e+001
1	 1.521242805023325e+000	 1.920698052848553e-001	 2.394991325243497e+001
1	 1.519266339896488e+000	 2.071238878404338e-001	 2.362001761229187e+001
1	 1.517133539803352e+000	 2.222079208870836e-001	 2.329363125365816e+001
1	 1.514843192712843e+000	 2.373197127666054e-001	 2.296966528380650e+001
1	 1.512394122787768e+000	 2.524570335663319e-001	 2.264702673165300e+001
1	 1.509785191633430e+000	 2.676176157253354e-001	 2.232462007032981e+001
1	 1.507015299539557e+000	 2.827991546839795e-001	 2.200134878019669e+001
1	 1.504083386713946e+000	 2.979993095770399e-001	 2.167611695039670e+001
1	 1.552791808555088e+000	 1.496671522635357e-001	 2.564950313177114e+001
1	 1.551250382341223e+000	 1.648786649929308e-001	 2.526491352593415e+001
1	 1.549553809634328e+000	 1.801270994193072e-001	 2.488791329657967e+001
1	 1.547700754519251e+000	 1.954103457901381e-001	 2.451738767286993e+001
1	 1.545689914068317e+000	 2.107262538441939e-001	 2.415221588132291e+001
1	 1.543520019622557e+000	 2.260726332979972e-001	 2.379127266804031e+001
1	 1.541189838070859e+000	 2.414472543753199e-001	 2.343342986521357e+001
1	 1.538698173125491e+000	 2.568478483801319e-001	 2.307755800016860e+001
1	 1.536043866592424e+000	 2.722721083133523e-001	 2.272252794505733e+001
1	 1.533225799634873e+000	 2.877176895336973e-001	 2.236721260515124e+001
1	 1.530242894028381e+000	 3.031822104628573e-001	 2.201048864354006e+001
1	 1.579336789637071e+000	 1.522257127255743e-001	 2.638059591484709e+001
1	 1.577769012736920e+000	 1.676972663150494e-001	 2.595638754398600e+001
1	 1.576043437113978e+000	 1.832063727780419e-001	 2.554052952188041e+001
1	 1.574158704015620e+000	 1.987508862957980e-001	 2.513187147773371e+001
1	 1.572113488240613e+000	 2.143286198483647e-001	 2.472925954417383e+001
1	 1.569906499442260e+000	 2.299373457093609e-001	 2.433153799496964e+001
1	 1.567536483429407e+000	 2.455747959845261e-001	 2.393755092547993e+001
1	 1.565002223463775e+000	 2.612386631944633e-001	 2.354614397382365e+001
1	 1.562302541552006e+000	 2.769266009019343e-001	 2.315616608060211e+001
1	 1.559436299730789e+000	 2.926362243840045e-001	 2.276647128484801e+001
1	 1.556402401343417e+000	 3.083651113492743e-001	 2.237592055372053e+001
1	 1.605881770719505e+000	 1.547842731878955e-001	 2.715847976879467e+001
1	 1.604287643133057e+000	 1.705158676374521e-001	 2.669294598708796e+001
1	 1.602533064594071e+000	 1.862856461370759e-001	 2.623642721280406e+001
1	 1.600616653512444e+000	 2.020914268017832e-001	 2.578774810176550e+001
1	 1.598537062413384e+000	 2.179309858528943e-001	 2.534573243975850e+001
1	 1.596292979262458e+000	 2.338020581211211e-001	 2.490920488087349e+001
1	 1.593883128788470e+000	 2.497023375941674e-001	 2.447699272646140e+001
1	 1.591306273802593e+000	 2.656294780092663e-001	 2.404792774243445e+001
1	 1.588561216512131e+000	 2.815810934910187e-001	 2.362084801248061e+001
1	 1.585646799827250e+000	 2.975547592348355e-001	 2.319459982460256e+001
1	 1.582561908658987e+000	 3.135480122362240e-001	 2.276803958823453e+001
1	 1.632426751802406e+000	 1.573428336504320e-001	 2.797730989787808e+001
1	 1.630806273529654e+000	 1.733344689600800e-001	 2.746894659821185e+001
1	 1.629022692074626e+000	 1.893649194963554e-001	 2.697016214879784e+001
1	 1.627074603009735e+000	 2.054319673080419e-001	 2.647976630481016e+001
1	 1.624960636586632e+000	 2.215333518577308e-001	 2.599657069696404e+001
1	 1.622679459083146e+000	 2.376667705332243e-001	 2.551939065609460e+001
1	 1.620229774148032e+000	 2.538298792041876e-001	 2.504704707567459e+001
1	 1.617610324141914e+000	 2.700202928244812e-001	 2.457836830975309e+001
1	 1.614819891472758e+000	 2.862355860805423e-001	 2.411219210363754e+001
1	 1.611857299924204e+000	 3.024732940861247e-001	 2.364736755448130e+001
1	 1.608721415975027e+000	 3.187309131236401e-001	 2.318275709878300e+001
1	 1.658971732885789e+000	 1.599013941131163e-001	 2.883161559348564e+001
1	 1.657324903926732e+000	 1.761530702828741e-001	 2.827910824427766e+001
1	 1.655512319555662e+000	 1.924441928558264e-001	 2.773663855823956e+001
1	 1.653532552507511e+000	 2.087725078145225e-001	 2.720301094423153e+001
1	 1.651384210760366e+000	 2.251357178628224e-001	 2.667703454993097e+001
1	 1.649065938904318e+000	 2.415314829456167e-001	 2.615752515871029e+001
1	 1.646576419508075e+000	 2.579574208145299e-001	 2.564330712122887e+001
1	 1.643914374481710e+000	 2.744111076400478e-001	 2.513321531898771e+001
1	 1.641078566433845e+000	 2.908900786704421e-001	 2.462609715693447e+001
1	 1.638067800021593e+000	 3.073918289378069e-001	 2.412081458204969e+001
1	 1.634880923291471e+000	 3.239138140114559e-001	 2.361624612468993e+001
1	 1.685516713969673e+000	 1.624599545758813e-001	 2.971627077688543e+001
1	 1.683843534324310e+000	 1.789716716057755e-001	 2.911848247968579e+001
1	 1.682001947037197e+000	 1.955234662154352e-001	 2.853108168005538e+001
1	 1.679990502005782e+000	 2.121130483211732e-001	 2.795287650913415e+001
1	 1.677807784934589e+000	 2.287380838681173e-001	 2.738268281659816e+001
1	 1.675452418725971e+000	 2.453961953582446e-001	 2.681932612631624e+001
1	 1.672923064868585e+000	 2.620849624251379e-001	 2.626164362295949e+001
1	 1.670218424821950e+000	 2.788019224559066e-001	 2.570848616658943e+001
1	 1.667337241395350e+000	 2.955445712606550e-001	 2.515872033209271e+001
1	 1.664278300119365e+000	 3.123103637898162e-001	 2.461123047017580e+001
1	 1.661040430608252e+000	 3.290967148996047e-001	 2.406492078648234e+001
1	 1.712061695054074e+000	 1.650185150386594e-001	 3.062646728233266e+001
1	 1.710362164722407e+000	 1.817902729287253e-001	 2.998242775524039e+001
1	 1.708491574519249e+000	 1.986027395751275e-001	 2.934901287787935e+001
1	 1.706448451504562e+000	 2.154535888279422e-001	 2.872504311664695e+001
1	 1.704231359109308e+000	 2.323404498735635e-001	 2.810934975146062e+001
1	 1.701838898548098e+000	 2.492609077710546e-001	 2.750077687706642e+001
1	 1.699269710229544e+000	 2.662125040359551e-001	 2.689818343101229e+001
1	 1.696522475162606e+000	 2.831927372719976e-001	 2.630044524510063e+001
1	 1.693595916357230e+000	 3.001990638511179e-001	 2.570645711698162e+001
1	 1.690488800217466e+000	 3.172288986420876e-001	 2.511513489839792e+001
1	 1.687199937925307e+000	 3.342796157880200e-001	 2.452541759644672e+001
1	 1.738606676139007e+000	 1.675770755013836e-001	 3.155769058765243e+001
1	 1.736880795121043e+000	 1.846088742516645e-001	 3.086658598973597e+001
1	 1.734981202001836e+000	 2.016820129348496e-001	 3.018622703394902e+001
1	 1.732906401003865e+000	 2.187941293347777e-001	 2.951545470713358e+001
1	 1.730654933284528e+000	 2.359428158791092e-001	 2.885312401879473e+001
1	 1.728225378370697e+000	 2.531256201839929e-001	 2.819810603530334e+001
1	 1.725616355590934e+000	 2.703400456469253e-001	 2.754928993595773e+001
1	 1.722826525503650e+000	 2.875835520882610e-001	 2.690558508751979e+001
1	 1.719854591319444e+000	 3.048535564417678e-001	 2.626592313369242e+001
1	 1.716699300315840e+000	 3.221474334945551e-001	 2.562926009586106e+001
1	 1.713359445242568e+000	 3.394625166766351e-001	 2.499457848128387e+001
1	 1.765151657224491e+000	 1.701356359639863e-001	 3.250569773465553e+001
1	 1.763399425520238e+000	 1.874274755745342e-001	 3.176686125549300e+001
1	 1.761470829484977e+000	 2.047612862945475e-001	 3.103877198275322e+001
1	 1.759364350503703e+000	 2.221346698416280e-001	 3.032029920685232e+001
1	 1.757078507460254e+000	 2.395451818847026e-001	 2.961032956313247e+001
1	 1.754611858193762e+000	 2.569903325970059e-001	 2.890776908654746e+001
1	 1.751963000952741e+000	 2.744675872579916e-001	 2.821154528289366e+001
1	 1.749130575845050e+000	 2.919743669046370e-001	 2.752060921301289e+001
1	 1.746113266281949e+000	 3.095080490325418e-001	 2.683393758625272e+001
1	 1.742909800414432e+000	 3.270659683471534e-001	 2.615053485933217e+001
1	 1.739518952559972e+000	 3.446454175653835e-001	 2.546943533663207e+001
1	 1.791696638310540e+000	 1.726941964264003e-001	 3.346649721228189e+001
1	 1.789918055920011e+000	 1.902460768972756e-001	 3.267940035860746e+001
1	 1.787960456968690e+000	 2.078405596541674e-001	 3.190292977289154e+001
1	 1.785822300004091e+000	 2.254752103484413e-001	 3.113599045402314e+001
1	 1.783502081636491e+000	 2.431475478902916e-001	 3.037750818022266e+001
1	 1.780998338017287e+000	 2.608550450100400e-001	 2.962643157212509e+001
1	 1.778309646314947e+000	 2.785951288690977e-001	 2.888173416659578e+001
1	 1.775434626186778e+000	 2.963651817210658e-001	 2.814241649752677e+001
1	 1.772371941244703e+000	 3.141625416233767e-001	 2.740750817972885e+001
1	 1.769120300513190e+000	 3.319845031998169e-001	 2.667606999190733e+001
1	 1.765678459877450e+000	 3.498283184541985e-001	 2.594719595458998e+001
1	 1.504083386713946e+000	 2.979993095770399e-001	 2.167611695039670e+001
1	 1.500987958153399e+000	 3.132179871671365e-001	 2.135376286739639e+001
1	 1.497728465867564e+000	 3.284504932603852e-001	 2.103931100398248e+001
1	 1.494303978033006e+000	 3.436943779339137e-001	 2.073180949948753e+001
1	 1.490713607613841e+000	 3.589471580746027e-001	 2.043032160315777e+001
1	 1.486956513530291e+000	 3.742063182928812e-001	 2.013392738679109e+001
1	 1.483031901808774e+000	 3.894693118802305e-001	 1.984172546311769e+001
1	 1.478939026711766e+000	 4.047335618101468e-001	 1.955283470663381e+001
1	 1.474677191845686e+000	 4.199964617822379e-001	 1.926639597350594e+001
1	 1.470245751245001e+000	 4.352553773090560e-001	 1.898157381707600e+001
1	 1.465644110430824e+000	 4.505076468451837e-001	 1.869755819541975e+001
1	 1.530242894028381e+000	 3.031822104628573e-001	 2.201048864354006e+001
1	 1.527093628768171e+000	 3.186655762418404e-001	 2.165738933869735e+001
1	 1.523777446333049e+000	 3.341630110338180e-001	 2.131314728105219e+001
1	 1.520293398692991e+000	 3.496720223060635e-001	 2.097679284435690e+001
1	 1.516640583384481e+000	 3.651900837583482e-001	 2.064737369365899e+001
1	 1.512818144699393e+000	 3.807146362526285e-001	 2.032395657276339e+001
1	 1.508825274855080e+000	 3.962430887872052e-001	 2.000562909495201e+001
1	 1.504661215143897e+000	 4.117728195150920e-001	 1.969150153345690e+001
1	 1.500325257060339e+000	 4.273011768062745e-001	 1.938070860809007e+001
1	 1.495816743404018e+000	 4.428254803534433e-001	 1.907241126434843e+001
1	 1.491135069356658e+000	 4.583430223207199e-001	 1.876579844123487e+001
1	 1.556402401343417e+000	 3.083651113492743e-001	 2.237592055372053e+001
1	 1.553199299383525e+000	 3.241131653171373e-001	 2.198972711671811e+001
1	 1.549826426799085e+000	 3.398755288078223e-001	 2.161331562348530e+001
1	 1.546282819353484e+000	 3.556496666787523e-001	 2.124570802106290e+001
1	 1.542567559155575e+000	 3.714330094425919e-001	 2.088594595960527e+001
1	 1.538679775868886e+000	 3.872229542128295e-001	 2.053309264409863e+001
1	 1.534618647901714e+000	 4.030168656945872e-001	 2.018623468623064e+001
1	 1.530383403576289e+000	 4.188120772204010e-001	 1.984448395269912e+001
1	 1.525973322275190e+000	 4.346058918306374e-001	 1.950697940615666e+001
1	 1.521387735563173e+000	 4.503955833981296e-001	 1.917288893490687e+001
1	 1.516626028282580e+000	 4.661783977965402e-001	 1.884141116739388e+001
1	 1.582561908658987e+000	 3.135480122362240e-001	 2.276803958823453e+001
1	 1.579304969999390e+000	 3.295607543929612e-001	 2.234655136792328e+001
1	 1.575875407265591e+000	 3.455880465823346e-001	 2.193574180560001e+001
1	 1.572272240014396e+000	 3.616273110519195e-001	 2.153463333170446e+001
1	 1.568494534927030e+000	 3.776759351272775e-001	 2.114227071649575e+001
1	 1.564541407038679e+000	 3.937312721734312e-001	 2.075772297577143e+001
1	 1.560412020948581e+000	 4.097906426023273e-001	 2.038008527302343e+001
1	 1.556105592008850e+000	 4.258513349260275e-001	 2.000848081411647e+001
1	 1.551621387490148e+000	 4.419106068552816e-001	 1.964206273048774e+001
1	 1.546958727722380e+000	 4.579656864430683e-001	 1.928001594678892e+001
1	 1.542116987208505e+000	 4.740137732725954e-001	 1.892155902882437e+001
1	 1.608721415975027e+000	 3.187309131236401e-001	 2.318275709878300e+001
1	 1.605410640615688e+000	 3.350083434692462e-001	 2.272391205977941e+001
1	 1.601924387732486e+000	 3.513005643572913e-001	 2.227661660654563e+001
1	 1.598261660675640e+000	 3.676049554255052e-001	 2.183990216216048e+001
1	 1.594421510698755e+000	 3.839188608123485e-001	 2.141282534592764e+001
1	 1.590403038208676e+000	 4.002395901343809e-001	 2.099446992313160e+001
1	 1.586205393995587e+000	 4.165644195103766e-001	 2.058394874692053e+001
1	 1.581827780441484e+000	 4.328905926319244e-001	 2.018040568820537e+001
1	 1.577269452705119e+000	 4.492153218801608e-001	 1.978301754938211e+001
1	 1.572529719881547e+000	 4.655357894882130e-001	 1.939099595761384e+001
1	 1.567607946134350e+000	 4.818491487488354e-001	 1.900358923334845e+001
1	 1.634880923291471e+000	 3.239138140114559e-001	 2.361624612468993e+001
1	 1.631516311232345e+000	 3.404559325459265e-001	 2.311811197548751e+001
1	 1.627973368199684e+000	 3.570130821326286e-001	 2.263237460877096e+001
1	 1.624251081337129e+000	 3.735825997994487e-001	 2.215808257428543e+001
1	 1.620348486470660e+000	 3.901617864977486e-001	 2.169431268924972e+001
1	 1.616264669378785e+000	 4.067479080956263e-001	 2.124017202245880e+001
1	 1.611998767042638e+000	 4.233381964186860e-001	 2.079479986561934e+001
1	 1.607549968874099e+000	 4.399298503380456e-001	 2.035736968761576e+001
1	 1.602917517920016e+000	 4.565200369052302e-001	 1.992709106733011e+001
1	 1.598100712040590e+000	 4.731058925335174e-001	 1.950321160057593e+001
1	 1.593098905060033e+000	 4.896845242252110e-001	 1.908501877665401e+001
1	 1.661040430608252e+000	 3.290967148996047e-001	 2.406492078648234e+001
1	 1.657621981849287e+000	 3.459035216229360e-001	 2.352568680617394e+001
1	 1.654022348667107e+000	 3.627255999082827e-001	 2.299967499989358e+001
1	 1.650240501998774e+000	 3.795602441736897e-001	 2.248595882650367e+001
1	 1.646275462242652e+000	 3.964047121834209e-001	 2.198364329388209e+001
1	 1.642126300548912e+000	 4.132562260571145e-001	 2.149186696793737e+001
1	 1.637792140089639e+000	 4.301119733272061e-001	 2.100980396338893e+001
1	 1.633272157306602e+000	 4.469691080443441e-001	 2.053666591182422e+001
1	 1.628565583134742e+000	 4.638247519304442e-001	 2.007170390247862e+001
1	 1.623671704199419e+000	 4.806759955789353e-001	 1.961421039113041e+001
1	 1.618589863985467e+000	 4.975198997016720e-001	 1.916352107246103e+001
1	 1.687199937925307e+000	 3.342796157880200e-001	 2.452541759644672e+001
1	 1.683727652466438e+000	 3.513511107002090e-001	 2.394338709506753e+001
1	 1.680071329134671e+000	 3.684381176841904e-001	 2.337538416053523e+001
1	 1.676229922660488e+000	 3.855378885481679e-001	 2.282051461350833e+001
1	 1.672202438014640e+000	 4.026476378693090e-001	 2.227791931122786e+001
1	 1.667987931718963e+000	 4.197645440187934e-001	 2.174677617225111e+001
1	 1.663585513136496e+000	 4.368857502358879e-001	 2.122630217691928e+001
1	 1.658994345738899e+000	 4.540083657507736e-001	 2.071575533888978e+001
1	 1.654213648349210e+000	 4.711294669557572e-001	 2.021443664300848e+001
1	 1.649242696357944e+000	 4.882460986244200e-001	 1.972169194475426e+001
1	 1.644080822910571e+000	 5.053552751781691e-001	 1.923691382645826e+001
1	 1.713359445242568e+000	 3.394625166766351e-001	 2.499457848128387e+001
1	 1.709833323083724e+000	 3.567986997776795e-001	 2.436816183573048e+001
1	 1.706120309602293e+000	 3.741506354602879e-001	 2.375655984724675e+001
1	 1.702219343322184e+000	 3.915155329228228e-001	 2.315891784133414e+001
1	 1.698129413786532e+000	 4.088905635553564e-001	 2.257441986966115e+001
1	 1.693849562888844e+000	 4.262728619806097e-001	 2.200229074154770e+001
1	 1.689378886183114e+000	 4.436595271446825e-001	 2.144179802459763e+001
1	 1.684716534170896e+000	 4.610476234572876e-001	 2.089225400963470e+001
1	 1.679861713563326e+000	 4.784341819811238e-001	 2.035301763505241e+001
1	 1.674813688516081e+000	 4.958162016699257e-001	 1.982349636565923e+001
1	 1.669571781835260e+000	 5.131906506546526e-001	 1.930314802108172e+001
1	 1.739518952559972e+000	 3.446454175653835e-001	 2.546943533663207e+001
1	 1.735938993701071e+000	 3.622462888552817e-001	 2.479714355022304e+001
1	 1.732169290069892e+000	 3.798631532365110e-001	 2.414043680261015e+001
1	 1.728208763983774e+000	 3.974931772975942e-001	 2.349850677617751e+001
1	 1.724056389558237e+000	 4.151334892415066e-001	 2.287058776731244e+001
1	 1.719711194058461e+000	 4.327811799425113e-001	 2.225595871588395e+001
1	 1.715172259229400e+000	 4.504333040535404e-001	 2.165394519673873e+001
1	 1.710438722602501e+000	 4.680868811638395e-001	 2.106392136819834e+001
1	 1.705509778777000e+000	 4.857388970064985e-001	 2.048531187251079e+001
1	 1.700384680673739e+000	 5.033863047154056e-001	 1.991759368319304e+001
1	 1.695062740759450e+000	 5.210260261310729e-001	 1.936029789419812e+001
1	 1.765678459877450e+000	 3.498283184541985e-001	 2.594719595458998e+001
1	 1.762044664318403e+000	 3.676938779329496e-001	 2.522763469372027e+001
1	 1.758218270537386e+000	 3.855756710127969e-001	 2.452441364450644e+001
1	 1.754198184645169e+000	 4.034708216724215e-001	 2.383677742449419e+001
1	 1.749983365329663e+000	 4.213764149277031e-001	 2.316401734777676e+001
1	 1.745572825227723e+000	 4.392894979044454e-001	 2.250547344391080e+001
1	 1.740965632275259e+000	 4.572070809624127e-001	 2.186053643118216e+001
1	 1.736160911033618e+000	 4.751261388703825e-001	 2.122864963903822e+001
1	 1.731157843990140e+000	 4.930436120318356e-001	 2.060931087448868e+001
1	 1.725955672830830e+000	 5.109564077608136e-001	 2.000207422727419e+001
1	 1.720553699683057e+000	 5.288614016073797e-001	 1.940655180861648e+001
1	 1.465644110430824e+000	 4.505076468451837e-001	 1.869755819541975e+001
1	 1.460871727075660e+000	 4.657505827348306e-001	 1.841657584594163e+001
1	 1.455928110904371e+000	 4.809814717320294e-001	 1.814097539621022e+001
1	 1.450812825763512e+000	 4.961975768838239e-001	 1.787017235845466e+001
1	 1.445525490928912e+000	 5.113961390398313e-001	 1.760361345028669e+001
1	 1.440065782013028e+000	 5.265743781829089e-001	 1.734077782735383e+001
1	 1.434433431836373e+000	 5.417294947976459e-001	 1.708117827700081e+001
1	 1.428628231261313e+000	 5.568586712756410e-001	 1.682436236971032e+001
1	 1.422650029986620e+000	 5.719590733564495e-001	 1.656991356512884e+001
1	 1.416498737301121e+000	 5.870278516030030e-001	 1.631745226952928e+001
1	 1.410174322794896e+000	 6.020621429102250e-001	 1.606663684161732e+001
1	 1.491135069356658e+000	 4.583430223207199e-001	 1.876579844123487e+001
1	 1.486279683158418e+000	 4.738510683077294e-001	 1.846308028873466e+001
1	 1.481250086007147e+000	 4.893468578788444e-001	 1.816657342688137e+001
1	 1.476045834163695e+000	 5.048276064791276e-001	 1.787567092506348e+001
1	 1.470666540282229e+000	 5.202905069701495e-001	 1.758979671911138e+001
1	 1.465111874333372e+000	 5.357327309837993e-001	 1.730840687012392e+001
1	 1.459381564490777e+000	 5.511514303145783e-001	 1.703099078493948e+001
1	 1.453475397979445e+000	 5.665437383493174e-001	 1.675707239497874e+001
1	 1.447393221884075e+000	 5.819067715331873e-001	 1.648621129021987e+001
1	 1.441134943915833e+000	 5.972376308707768e-001	 1.621800380510918e+001
1	 1.434700533135920e+000	 6.125334034609495e-001	 1.595208405326541e+001
1	 1.516626028282580e+000	 4.661783977965402e-001	 1.884141116739388e+001
1	 1.511687639241224e+000	 4.819515538809139e-001	 1.851469743455377e+001
1	 1.506572061109939e+000	 4.977122440259598e-001	 1.819499305243116e+001
1	 1.501278842563869e+000	 5.134576360747547e-001	 1.788168417829232e+001
1	 1.495807589635517e+000	 5.291848749008191e-001	 1.757418789546165e+001
1	 1.490157966653669e+000	 5.448910837850698e-001	 1.727195347985335e+001
1	 1.484329697145122e+000	 5.605733658319159e-001	 1.697446362777694e+001
1	 1.478322564697501e+000	 5.762288054234166e-001	 1.668123564171789e+001
1	 1.472136413781435e+000	 5.918544697103531e-001	 1.639182257082911e+001
1	 1.465771150530427e+000	 6.074474101389680e-001	 1.610581430291215e+001
1	 1.459226743476797e+000	 6.230046640120598e-001	 1.582283860472291e+001
1	 1.542116987208505e+000	 4.740137732725954e-001	 1.892155902882437e+001
1	 1.537095595323997e+000	 4.900520394543282e-001	 1.856874766132777e+001
1	 1.531894036212673e+000	 5.060776301733111e-001	 1.822372183523042e+001
1	 1.526511850963969e+000	 5.220876656706314e-001	 1.788587565913343e+001
1	 1.520948638988720e+000	 5.380792428317555e-001	 1.755463461213550e+001
1	 1.515204058973875e+000	 5.540494365866256e-001	 1.722945680006199e+001
1	 1.509277829799371e+000	 5.699953013495547e-001	 1.690983417161482e+001
1	 1.503169731415458e+000	 5.859138724978268e-001	 1.659529369113725e+001
1	 1.496879605678688e+000	 6.018021678878297e-001	 1.628539846472341e+001
1	 1.490407357144906e+000	 6.176571894074572e-001	 1.597974881645107e+001
1	 1.483752953817541e+000	 6.334759245634387e-001	 1.567798331157434e+001
1	 1.567607946134350e+000	 4.818491487488354e-001	 1.900358923334845e+001
1	 1.562503551406660e+000	 4.981525250279171e-001	 1.862272564091034e+001
1	 1.557216011315279e+000	 5.144430163208340e-001	 1.825041075719319e+001
1	 1.551744859363929e+000	 5.307176952666832e-001	 1.788606088172997e+001
1	 1.546089688341783e+000	 5.469736107628745e-001	 1.752912450097388e+001
1	 1.540250151293942e+000	 5.632077893883718e-001	 1.717908351664686e+001
1	 1.534225962453488e+000	 5.794172368673900e-001	 1.683545443169850e+001
1	 1.528016898133288e+000	 5.955989395724354e-001	 1.649778949057746e+001
1	 1.521622797575823e+000	 6.117498660655001e-001	 1.616567777056129e+001
1	 1.515043563759269e+000	 6.278669686761254e-001	 1.583874622094385e+001
1	 1.508279164158169e+000	 6.439471851149696e-001	 1.551666064694504e+001
1	 1.593098905060033e+000	 4.896845242252110e-001	 1.908501877665401e+001
1	 1.587911507489136e+000	 5.062530106016241e-001	 1.867428639481332e+001
1	 1.582537986417684e+000	 5.228084024684645e-001	 1.827286114550748e+001
1	 1.576977867763687e+000	 5.393477248628366e-001	 1.788019517486769e+001
1	 1.571230737694647e+000	 5.558679786940914e-001	 1.749577399233253e+001
1	 1.565296243613825e+000	 5.723661421902139e-001	 1.711911765394130e+001
1	 1.559174095107435e+000	 5.888391723853176e-001	 1.674978189999060e+001
1	 1.552864064850969e+000	 6.052840066471303e-001	 1.638735924378226e+001
1	 1.546365989472827e+000	 6.216975642432467e-001	 1.603148000824293e+001
1	 1.539679770373518e+000	 6.380767479448533e-001	 1.568181330725865e+001
1	 1.532805374498695e+000	 6.544184456665354e-001	 1.533806796864071e+001
1	 1.618589863985467e+000	 4.975198997016720e-001	 1.916352107246103e+001
1	 1.613319463571345e+000	 5.143534961753936e-001	 1.872123266757831e+001
1	 1.607859961519817e+000	 5.311737886161386e-001	 1.828901283379566e+001
1	 1.602210876163177e+000	 5.479777544590171e-001	 1.786636267236289e+001
1	 1.596371787047260e+000	 5.647623466253220e-001	 1.745281817292791e+001
1	 1.590342335933476e+000	 5.815244949920563e-001	 1.704795133497709e+001
1	 1.584122227761178e+000	 5.982611079032335e-001	 1.665137123947655e+001
1	 1.577711231568475e+000	 6.149690737218001e-001	 1.626272506748458e+001
1	 1.571109181369688e+000	 6.316452624209524e-001	 1.588169906256948e+001
1	 1.564315976987654e+000	 6.482865272135218e-001	 1.550801943394107e+001
1	 1.557331584839137e+000	 6.648897062180198e-001	 1.514145319728984e+001
1	 1.644080822910571e+000	 5.053552751781691e-001	 1.923691382645826e+001
1	 1.638727419653209e+000	 5.224539817491696e-001	 1.876150347478008e+001
1	 1.633181936621605e+000	 5.395391747637919e-001	 1.829693342461977e+001
1	 1.627443884562336e+000	 5.566077840551512e-001	 1.784276632765403e+001
1	 1.621512836399563e+000	 5.736567145564816e-001	 1.739860158718851e+001
1	 1.615388428252850e+000	 5.906828477938049e-001	 1.696407640130213e+001
1	 1.609070360414681e+000	 6.076830434210331e-001	 1.653886675113317e+001
1	 1.602558398285783e+000	 6.246541407963322e-001	 1.612268833113685e+001
1	 1.595852373266393e+000	 6.415929605984999e-001	 1.571529741822067e+001
1	 1.588952183601679e+000	 6.584963064820117e-001	 1.531649167675323e+001
1	 1.581857795179509e+000	 6.753609667693055e-001	 1.492611089654052e+001
1	 1.669571781835260e+000	 5.131906506546526e-001	 1.930314802108172e+001
1	 1.664135375734650e+000	 5.305544673228969e-001	 1.879316370012155e+001
1	 1.658503911722976e+000	 5.479045609113603e-001	 1.829480853562507e+001
1	 1.652676892961098e+000	 5.652378136511652e-001	 1.780771884313435e+001
1	 1.646653885751501e+000	 5.825510824874859e-001	 1.733156988127392e+001
1	 1.640434520571898e+000	 5.998412005953645e-001	 1.686607680048786e+001
1	 1.634018493067907e+000	 6.171049789386121e-001	 1.641099553098158e+001
1	 1.627405565002866e+000	 6.343392078706147e-001	 1.596612360677341e+001
1	 1.620595565162932e+000	 6.515406587757719e-001	 1.553130092285348e+001
1	 1.613588390215593e+000	 6.687060857502039e-001	 1.510641042255273e+001
1	 1.606384005519828e+000	 6.858322273202755e-001	 1.469137871234159e+001
1	 1.695062740759450e+000	 5.210260261310729e-001	 1.936029789419812e+001
1	 1.689543331815590e+000	 5.386549528965192e-001	 1.881439463118456e+001
1	 1.683825886823860e+000	 5.562699470587799e-001	 1.828093292577506e+001
1	 1.677909901359400e+000	 5.738678432469843e-001	 1.775963441793196e+001
1	 1.671794935103017e+000	 5.914454504182500e-001	 1.725026220105524e+001
1	 1.665480612890576e+000	 6.089995533966403e-001	 1.675262166051309e+001
1	 1.658966625720819e+000	 6.265269144558662e-001	 1.626656124458007e+001
1	 1.652252731719701e+000	 6.440242749445355e-001	 1.579197316477805e+001
1	 1.645338757059289e+000	 6.614883569526509e-001	 1.532879402272690e+001
1	 1.638224596829399e+000	 6.789158650179793e-001	 1.487700536073662e+001
1	 1.630910215860108e+000	 6.963034878708130e-001	 1.443663413350805e+001
1	 1.720553699683057e+000	 5.288614016073797e-001	 1.940655180861648e+001
1	 1.714951287895950e+000	 5.467554384699808e-001	 1.882348533648935e+001
1	 1.709147861924183e+000	 5.646353332059860e-001	 1.825370241040528e+001
1	 1.703142909757176e+000	 5.824978728425351e-001	 1.769702122925748e+001
1	 1.696935984454057e+000	 6.003398183486900e-001	 1.715330426586431e+001
1	 1.690526705208835e+000	 6.181579061975373e-001	 1.662245897978876e+001
1	 1.683914758373382e+000	 6.359488499726911e-001	 1.610443845492327e+001
1	 1.677099898436262e+000	 6.537093420179821e-001	 1.559924195894092e+001
1	 1.670081948955454e+000	 6.714360551290194e-001	 1.510691542184815e+001
1	 1.662860803443095e+000	 6.891256442852184e-001	 1.462755183101924e+001
1	 1.655436426200365e+000	 7.067747484208016e-001	 1.416129154025050e+001
1	 1.410174322794896e+000	 6.020621429102250e-001	 1.606663684161732e+001
1	 1.403677804762223e+000	 6.170568256895567e-001	 1.581700995928733e+001
1	 1.397008340587419e+000	 6.320112737763581e-001	 1.556810627897329e+001
1	 1.390166085595247e+000	 6.469225945203407e-001	 1.531973985815572e+001
1	 1.383151257758930e+000	 6.617878879772692e-001	 1.507176002934162e+001
1	 1.375964138175143e+000	 6.766042485600979e-001	 1.482405185673372e+001
1	 1.368605071488112e+000	 6.913687667140008e-001	 1.457653653157289e+001
1	 1.361074466261639e+000	 7.060785306134997e-001	 1.432917170440683e+001
1	 1.353372795297910e+000	 7.207306278798588e-001	 1.408195175267048e+001
1	 1.345500595902038e+000	 7.353221473168310e-001	 1.383490798210209e+001
1	 1.337458470091355e+000	 7.498501806627994e-001	 1.358810876066534e+001
1	 1.434700533135920e+000	 6.125334034609495e-001	 1.595208405326541e+001
1	 1.428091025549134e+000	 6.277888786388084e-001	 1.568785212059932e+001
1	 1.421305563884740e+000	 6.430034193492565e-001	 1.542471226185736e+001
1	 1.414344306168952e+000	 6.581740826320957e-001	 1.516247889241997e+001
1	 1.407207474166046e+000	 6.732979181063205e-001	 1.490100138198797e+001
1	 1.399895353861613e+000	 6.883719696499761e-001	 1.464016448673967e+001
1	 1.392408295894034e+000	 7.033932771043159e-001	 1.437988872005104e+001
1	 1.384746715932977e+000	 7.183588780004508e-001	 1.412013066008671e+001
1	 1.376911095003749e+000	 7.332658093066115e-001	 1.386088319270296e+001
1	 1.368901979756440e+000	 7.481111091940828e-001	 1.360217568824429e+001
1	 1.360719982678853e+000	 7.628918188198210e-001	 1.334407411096249e+001
1	 1.459226743476797e+000	 6.230046640120598e-001	 1.582283860472291e+001
1	 1.452504246335858e+000	 6.385209315883906e-001	 1.554216067657759e+001
1	 1.445602787181828e+000	 6.539955649224104e-001	 1.526305183370430e+001
1	 1.438522526742372e+000	 6.694255707440153e-001	 1.498533040901922e+001
1	 1.431263690572821e+000	 6.848079482354361e-001	 1.470884934577222e+001
1	 1.423826569547684e+000	 7.001396907398114e-001	 1.443349660093012e+001
1	 1.416211520299499e+000	 7.154177874944814e-001	 1.415919548698352e+001
1	 1.408418965603801e+000	 7.306392253871504e-001	 1.388590495054746e+001
1	 1.400449394709020e+000	 7.458009907330195e-001	 1.361361978626016e+001
1	 1.392303363610223e+000	 7.609000710709124e-001	 1.334237078462669e+001
1	 1.383981495265687e+000	 7.759334569763623e-001	 1.307222481260287e+001
1	 1.483752953817541e+000	 6.334759245634387e-001	 1.567798331157434e+001
1	 1.476917467122426e+000	 6.492529845381935e-001	 1.537923725370312e+001
1	 1.469900010478731e+000	 6.649877104957208e-001	 1.508264430233053e+001
1	 1.462700747315572e+000	 6.806770588560147e-001	 1.478803021653896e+001
1	 1.455319906979338e+000	 6.963179783645463e-001	 1.449525499784084e+001
1	 1.447757785233454e+000	 7.119074118295533e-001	 1.420421326056984e+001
1	 1.440014744704620e+000	 7.274422978844636e-001	 1.391483454052889e+001
1	 1.432091215274239e+000	 7.429195727735806e-001	 1.362708354033416e+001
1	 1.423987694413863e+000	 7.583361721590806e-001	 1.334096031003047e+001
1	 1.415704747463540e+000	 7.736890329473285e-001	 1.305650036169770e+001
1	 1.407243007852023e+000	 7.889750951324396e-001	 1.277377471691761e+001
1	 1.508279164158169e+000	 6.439471851149696e-001	 1.551666064694504e+001
1	 1.501330687908871e+000	 6.599850374881072e-001	 1.519842890361345e+001
1	 1.494197233775495e+000	 6.759798560690888e-001	 1.488304024179628e+001
1	 1.486878967888615e+000	 6.919285469680097e-001	 1.457033130768498e+001
1	 1.479376123385674e+000	 7.078280084935836e-001	 1.426017259748508e+001
1	 1.471689000919019e+000	 7.236751329191492e-001	 1.395246879063858e+001
1	 1.463817969109509e+000	 7.394668082742285e-001	 1.364715902110967e+001
1	 1.455763464944417e+000	 7.551999201597240e-001	 1.334421708524925e+001
1	 1.447525994118421e+000	 7.708713535847911e-001	 1.304365158489274e+001
1	 1.439106131316547e+000	 7.864779948233394e-001	 1.274550600449059e+001
1	 1.430504520438026e+000	 8.020167332880692e-001	 1.244985872122274e+001
1	 1.532805374498695e+000	 6.544184456665354e-001	 1.533806796864071e+001
1	 1.525743908695221e+000	 6.707170904380223e-001	 1.499912446889454e+001
1	 1.518494457072168e+000	 6.869720016424157e-001	 1.466381899097188e+001
1	 1.511057188461564e+000	 7.031800350799156e-001	 1.433200248448028e+001
1	 1.503432339791911e+000	 7.193380386224789e-001	 1.400355933155650e+001
1	 1.495620216604477e+000	 7.354428540085495e-001	 1.367840763878110e+001
1	 1.487621193514281e+000	 7.514913186637426e-001	 1.335649946693809e+001
1	 1.479435714614465e+000	 7.674802675455639e-001	 1.303782099721820e+001
1	 1.471064293822835e+000	 7.834065350101486e-001	 1.272239263260631e+001
1	 1.462507515169399e+000	 7.992669566989542e-001	 1.241026903334027e+001
1	 1.453766033023863e+000	 8.150583714432672e-001	 1.210153908548202e+001
1	 1.557331584839137e+000	 6.648897062180198e-001	 1.514145319728984e+001
1	 1.550157129481510e+000	 6.814491433878283e-001	 1.478075129228074e+001
1	 1.542791680368797e+000	 6.979641472156025e-001	 1.442458638847225e+001
1	 1.535235409034484e+000	 7.144315231916468e-001	 1.407282711337155e+001
1	 1.527488556198130e+000	 7.308480687511643e-001	 1.372537508393890e+001
1	 1.519551432289924e+000	 7.472105750977020e-001	 1.338216515309215e+001
1	 1.511424417919046e+000	 7.635158290529712e-001	 1.304316559381311e+001
1	 1.503107964284511e+000	 7.797606149310816e-001	 1.270837821954620e+001
1	 1.494602593527249e+000	 7.959417164351500e-001	 1.237783843972185e+001
1	 1.485908899022250e+000	 8.120559185741813e-001	 1.205161524938810e+001
1	 1.477027545609700e+000	 8.281000095980499e-001	 1.172981115208796e+001
1	 1.581857795179509e+000	 6.753609667693055e-001	 1.492611089654052e+001
1	 1.574570350267766e+000	 6.921811963374154e-001	 1.454277223199154e+001
1	 1.567088903665430e+000	 7.089562927885509e-001	 1.416497271830645e+001
1	 1.559413629607439e+000	 7.256830113031196e-001	 1.379260199614570e+001
1	 1.551544772604411e+000	 7.423580988795705e-001	 1.342558222646598e+001
1	 1.543482647975456e+000	 7.589782961865553e-001	 1.306386828754566e+001
1	 1.535227642323919e+000	 7.755403394418812e-001	 1.270744790934625e+001
1	 1.526780213954683e+000	 7.920409623162604e-001	 1.235634174399795e+001
1	 1.518140893231805e+000	 8.084768978597926e-001	 1.201060337134284e+001
1	 1.509310282875257e+000	 8.248448804490292e-001	 1.167031923862095e+001
1	 1.500289058195703e+000	 8.411416477524337e-001	 1.133560853354239e+001
1	 1.606384005519828e+000	 6.858322273202755e-001	 1.469137871234159e+001
1	 1.598983571054024e+000	 7.029132492866742e-001	 1.428468295048669e+001
1	 1.591386126962114e+000	 7.199484383611617e-001	 1.388463084372154e+001
1	 1.583591850180492e+000	 7.369344994142486e-001	 1.349113634427933e+001
1	 1.575600989010834e+000	 7.538681290076297e-001	 1.310414542899237e+001
1	 1.567413863661173e+000	 7.707460172750590e-001	 1.272363624280117e+001
1	 1.559030866729012e+000	 7.875648498304381e-001	 1.234961917931163e+001
1	 1.550452463625108e+000	 8.043213097010831e-001	 1.198213689729329e+001
1	 1.541679192936645e+000	 8.210120792840731e-001	 1.162126427215977e+001
1	 1.532711666728574e+000	 8.376338423235071e-001	 1.126710828162720e+001
1	 1.523550570782039e+000	 8.541832859064347e-001	 1.091980782490519e+001
1	 1.630910215860108e+000	 6.963034878708130e-001	 1.443663413350805e+001
1	 1.623396791840312e+000	 7.136453022354944e-001	 1.400600944785744e+001
1	 1.615683350258895e+000	 7.309405839333361e-001	 1.358323450942996e+001
1	 1.607770070753706e+000	 7.481859875249498e-001	 1.316825084583264e+001
1	 1.599657205417480e+000	 7.653781591352731e-001	 1.276103148660214e+001
1	 1.591345079347169e+000	 7.825137383631613e-001	 1.236158104919012e+001
1	 1.582834091134438e+000	 7.995893602186086e-001	 1.196993576168736e+001
1	 1.574124713295916e+000	 8.166016570855321e-001	 1.158616342129202e+001
1	 1.565217492641910e+000	 8.335472607079891e-001	 1.121036328767770e+001
1	 1.556113050582356e+000	 8.504228041976230e-001	 1.084266591057461e+001
1	 1.546812083368873e+000	 8.672249240600691e-001	 1.048323289103802e+001
1	 1.655436426200365e+000	 7.067747484208016e-001	 1.416129154025050e+001
1	 1.647810012626662e+000	 7.243773551837668e-001	 1.370630581448289e+001
1	 1.639980573555821e+000	 7.419327295049750e-001	 1.326047679475781e+001
1	 1.631948291327146e+000	 7.594374756351380e-001	 1.282377681529040e+001
1	 1.623713421824428e+000	 7.768881892624319e-001	 1.239620916217730e+001
1	 1.615276295033542e+000	 7.942814594508109e-001	 1.197780809787855e+001
1	 1.606637315540310e+000	 8.116138706063586e-001	 1.156863882210920e+001
1	 1.597796962967233e+000	 8.288820044695902e-001	 1.116879736826428e+001
1	 1.588755792347744e+000	 8.460824421315375e-001	 1.077841043465544e+001
1	 1.579514434436757e+000	 8.632117660713861e-001	 1.039763514999666e+001
1	 1.570073595956371e+000	 8.802665622133532e-001	 1.002665877274068e+001
1	 1.337458470091355e+000	 7.498501806627994e-001	 1.358810876066534e+001
1	 1.329245840436585e+000	 7.643139888338926e-001	 1.333968654801998e+001
1	 1.320864633725284e+000	 7.787084898909862e-001	 1.308806231533960e+001
1	 1.312315648248289e+000	 7.930307945938000e-001	 1.283368670014085e+001
1	 1.303599747304523e+000	 8.072780238044296e-001	 1.257705349507468e+001
1	 1.294717859120680e+000	 8.214473102909055e-001	 1.231869908649577e+001
1	 1.285670976711510e+000	 8.355358005343189e-001	 1.205920180844970e+001
1	 1.276460157680332e+000	 8.495406565372459e-001	 1.179918121251274e+001
1	 1.267086523959525e+000	 8.634590576311914e-001	 1.153929725413957e+001
1	 1.257551261490825e+000	 8.772882022807456e-001	 1.128024939639551e+001
1	 1.247855619845356e+000	 8.910253098821287e-001	 1.102277563217196e+001
1	 1.360719982678853e+000	 7.628918188198210e-001	 1.334407411096249e+001
1	 1.352364516298867e+000	 7.776071862455712e-001	 1.308476515367113e+001
1	 1.343837540915352e+000	 7.922520411454747e-001	 1.282270408857040e+001
1	 1.335139868703277e+000	 8.068234440286460e-001	 1.255830322854970e+001
1	 1.326272377976344e+000	 8.213184656822814e-001	 1.229201719611961e+001
1	 1.317236013105266e+000	 8.357341890065823e-001	 1.202434239162015e+001
1	 1.308031784375627e+000	 8.500677108533143e-001	 1.175581637825079e+001
1	 1.298660767784928e+000	 8.643161438656809e-001	 1.148701718431858e+001
1	 1.289124104778561e+000	 8.784766183172065e-001	 1.121856252331816e+001
1	 1.279423001924546e+000	 8.925462839472684e-001	 1.095110893267487e+001
1	 1.269558730526954e+000	 9.065223117909245e-001	 1.068535083220113e+001
1	 1.383981495265687e+000	 7.759334569763623e-001	 1.307222481260287e+001
1	 1.375483192160448e+000	 7.909003836567357e-001	 1.280141966089311e+001
1	 1.366810448104691e+000	 8.057955923994367e-001	 1.252843622508406e+001
1	 1.357964089157520e+000	 8.206160934629746e-001	 1.225364295018493e+001
1	 1.348945008647412e+000	 8.353589075596424e-001	 1.197744949557468e+001
1	 1.339754167089103e+000	 8.500210677218110e-001	 1.170030624402795e+001
1	 1.330392592039014e+000	 8.645996211719169e-001	 1.142270372950180e+001
1	 1.320861377888823e+000	 8.790916311937900e-001	 1.114517198402214e+001
1	 1.311161685596942e+000	 8.934941790029705e-001	 1.086827980421949e+001
1	 1.301294742357671e+000	 9.078043656136207e-001	 1.059263393827717e+001
1	 1.291261841208033e+000	 9.220193136996339e-001	 1.031887819426880e+001
1	 1.407243007852023e+000	 7.889750951324396e-001	 1.277377471691761e+001
1	 1.398601868021504e+000	 8.041935810674046e-001	 1.249106642765861e+001
1	 1.389783355293484e+000	 8.193391436528905e-001	 1.220687084630665e+001
1	 1.380788309611204e+000	 8.344087428967986e-001	 1.192150736827628e+001
1	 1.371617639317917e+000	 8.493993494365167e-001	 1.163533526471288e+001
1	 1.362272321072382e+000	 8.643079464365847e-001	 1.134875324319499e+001
1	 1.352753399701855e+000	 8.791315314901063e-001	 1.106219892966232e+001
1	 1.343061987992202e+000	 8.938671185215376e-001	 1.077614827182860e+001
1	 1.333199266414842e+000	 9.085117396884321e-001	 1.049111486454574e+001
1	 1.323166482790366e+000	 9.230624472797356e-001	 1.020764919779051e+001
1	 1.312964951888744e+000	 9.375163156081748e-001	 9.926337828153731e+000
1	 1.430504520438026e+000	 8.020167332880692e-001	 1.244985872122274e+001
1	 1.421720543882209e+000	 8.174867784775972e-001	 1.215502968603910e+001
1	 1.412756262481913e+000	 8.328826949058533e-001	 1.185951521448219e+001
1	 1.403612530064516e+000	 8.482013923301294e-001	 1.156358080868023e+001
1	 1.394290269988049e+000	 8.634397913129078e-001	 1.126753027040283e+001
1	 1.384790475055292e+000	 8.785948251508937e-001	 1.097170532400103e+001
1	 1.375114207364341e+000	 8.936634418078613e-001	 1.067648516355085e+001
1	 1.365262598095244e+000	 9.086426058488873e-001	 1.038228592436308e+001
1	 1.355236847232435e+000	 9.235293003735394e-001	 1.008956007921952e+001
1	 1.345038223222794e+000	 9.383205289455460e-001	 9.798795759894652e+000
1	 1.334668062569236e+000	 9.530133175164640e-001	 9.510516004720991e+000
1	 1.453766033023863e+000	 8.150583714432672e-001	 1.210153908548202e+001
1	 1.444839219742738e+000	 8.307799758873320e-001	 1.179454891267529e+001
1	 1.435729169670161e+000	 8.464262461583425e-001	 1.148778012186063e+001
1	 1.426436750517643e+000	 8.619940417629792e-001	 1.118143979457621e+001
1	 1.416962900657996e+000	 8.774802331888187e-001	 1.087577150401924e+001
1	 1.407308629038023e+000	 8.928817038647322e-001	 1.057105501050503e+001
1	 1.397475015026657e+000	 9.081953521251606e-001	 1.026760588461208e+001
1	 1.387463208198132e+000	 9.234180931758037e-001	 9.965775058060027e+000
1	 1.377274428049897e+000	 9.385468610582417e-001	 9.665948302555126e+000
1	 1.366909963655117e+000	 9.535786106109838e-001	 9.368545637027118e+000
1	 1.356371173249661e+000	 9.685103194244188e-001	 9.074020663872055e+000
1	 1.477027545609700e+000	 8.281000095980499e-001	 1.172981115208795e+001
1	 1.467957895603269e+000	 8.440731732966296e-001	 1.141078550278816e+001
1	 1.458702076858409e+000	 8.599697974103761e-001	 1.109298748716430e+001
1	 1.449260970970773e+000	 8.757866911953606e-001	 1.077656153531774e+001
1	 1.439635531327949e+000	 8.915206750642536e-001	 1.046168653434098e+001
1	 1.429826783020763e+000	 9.071685825780912e-001	 1.014857560631521e+001
1	 1.419835822688992e+000	 9.227272624419833e-001	 9.837475817971932e+000
1	 1.409663818301048e+000	 9.381935805022509e-001	 9.528667821930904e+000
1	 1.399312008867401e+000	 9.535644217424867e-001	 9.222465429603730e+000
1	 1.388781704087501e+000	 9.688366922759821e-001	 8.919215116030708e+000
1	 1.378074283930169e+000	 9.840073213319565e-001	 8.619295457099051e+000
1	 1.500289058195703e+000	 8.411416477524337e-001	 1.133560853354239e+001
1	 1.491076571463974e+000	 8.573663707055079e-001	 1.100482882331934e+001
1	 1.481674984046840e+000	 8.735133486619712e-001	 1.067637724536940e+001
1	 1.472085191424092e+000	 8.895793406272855e-001	 1.035033162558157e+001
1	 1.462308161998095e+000	 9.055611169392154e-001	 1.002680199036678e+001
1	 1.452344937003705e+000	 9.214554612909641e-001	 9.705930436967991e+000
1	 1.442196630351531e+000	 9.372591727583078e-001	 9.387890939899110e+000
1	 1.431864428404175e+000	 9.529690678281924e-001	 9.072889093272661e+000
1	 1.421349589685121e+000	 9.685819824262231e-001	 8.761161788940187e+000
1	 1.410653444520108e+000	 9.840947739404731e-001	 8.452976830536434e+000
1	 1.399777394610910e+000	 9.995043232389941e-001	 8.148632483686498e+000
1	 1.523550570782039e+000	 8.541832859064347e-001	 1.091980782490520e+001
1	 1.514195247325030e+000	 8.706595681139866e-001	 1.057770171155672e+001
1	 1.504647891235637e+000	 8.870568999131455e-001	 1.023911360633002e+001
1	 1.494909411877786e+000	 9.033719900587659e-001	 9.904051039215077e+000
1	 1.484980792668627e+000	 9.196015588137076e-001	 9.572551267039168e+000
1	 1.474863090987035e+000	 9.357423400033417e-001	 9.244681245633242e+000
1	 1.464557438014463e+000	 9.517910830741139e-001	 8.920537543070374e+000
1	 1.454065038507694e+000	 9.677445551535929e-001	 8.600246193566292e+000
1	 1.443387170503232e+000	 9.835995431093992e-001	 8.283962491782068e+000
1	 1.432525184953105e+000	 9.993528556043897e-001	 7.971870727422385e+000
1	 1.421480505292034e+000	 1.015001325145448e+000	 7.664183860177896e+000
1	 1.546812083368873e+000	 8.672249240600691e-001	 1.048323289103802e+001
1	 1.537313923186612e+000	 8.839527655220844e-001	 1.013036547761825e+001
1	 1.527620798424980e+000	 9.006004511639167e-001	 9.782290748685586e+000
1	 1.517733632332044e+000	 9.171646394898141e-001	 9.438942492027643e+000
1	 1.507653423339732e+000	 9.336420006877344e-001	 9.100281535679686e+000
1	 1.497381244970944e+000	 9.500292187152168e-001	 8.766295831273940e+000
1	 1.486918245677973e+000	 9.663229933893792e-001	 8.437000483875650e+000
1	 1.476265648611787e+000	 9.825200424784158e-001	 8.112437727708482e+000
1	 1.465424751321909e+000	 9.986171037919641e-001	 7.792676847306320e+000
1	 1.454396925386652e+000	 1.014610937267665e+000	 7.477814043767432e+000
1	 1.443183615973692e+000	 1.030498327051237e+000	 7.167972245927857e+000
1	 1.570073595956371e+000	 8.802665622133532e-001	 1.002665877274068e+001
1	 1.560432599048893e+000	 8.972459629298201e-001	 9.663724462248428e+000
1	 1.550593705615053e+000	 9.141440024143019e-001	 9.306938007617916e+000
1	 1.540557852787052e+000	 9.309572889204422e-001	 8.956156238972516e+000
1	 1.530326054011600e+000	 9.476824425612989e-001	 8.611260131243284e+000
1	 1.519899398955622e+000	 9.643160974265818e-001	 8.272155007824155e+000
1	 1.509279053342250e+000	 9.808549037040831e-001	 7.938770696592729e+000
1	 1.498466258716638e+000	 9.972955298026260e-001	 7.611061637494521e+000
1	 1.487462332141325e+000	 1.013634664473865e+000	 7.289006941006788e+000
1	 1.476268665820915e+000	 1.029869018930230e+000	 6.972610396920243e+000
1	 1.464886726656035e+000	 1.045995328956277e+000	 6.661900433002661e+000
1	 1.247855619845356e+000	 8.910253098821287e-001	 1.102277563217196e+001
1	 1.238000911431365e+000	 9.046676222522669e-001	 1.076258868368887e+001
1	 1.227988509947546e+000	 9.182124044861023e-001	 1.049544775202028e+001
1	 1.217819850897685e+000	 9.316569475974837e-001	 1.022221711777298e+001
1	 1.207496431328260e+000	 9.449985705706225e-001	 9.943797881931156e+000
1	 1.197019809152552e+000	 9.582346220975364e-001	 9.661126766346699e+000
1	 1.186391602416225e+000	 9.713624822960134e-001	 9.375174843850239e+000
1	 1.175613488505012e+000	 9.843795644057992e-001	 9.086946200155321e+000
1	 1.164687203295262e+000	 9.972833164607429e-001	 8.797476529914803e+000
1	 1.153614540248221e+000	 1.010071222934661e+000	 8.507831669469613e+000
1	 1.142397349448981e+000	 1.022740806358721e+000	 8.219106069004772e+000
1	 1.269558730526954e+000	 9.065223117909245e-001	 1.068535083220113e+001
1	 1.259532625819865e+000	 9.204018956938826e-001	 1.041699360604050e+001
1	 1.249346085393796e+000	 9.341822531847158e-001	 1.014184272657714e+001
1	 1.239000569719292e+000	 9.478606281616913e-001	 9.860803606831871e+000
1	 1.228497601879959e+000	 9.614342929799052e-001	 9.574824765476707e+000
1	 1.217838766884827e+000	 9.749005502189513e-001	 9.284896549371618e+000
1	 1.207025710921144e+000	 9.882567344307593e-001	 8.992049773663196e+000
1	 1.196060140548291e+000	 1.001500213865284e+000	 8.697354281744254e+000
1	 1.184943821833555e+000	 1.014628392171736e+000	 8.401917427592556e+000
1	 1.173678579430655e+000	 1.027638710073067e+000	 8.106882483219080e+000
1	 1.162266295601971e+000	 1.040528647011485e+000	 7.813426974161509e+000
1	 1.291261841208033e+000	 9.220193136996339e-001	 1.031887819426880e+001
1	 1.281064340207938e+000	 9.361361691354978e-001	 1.004280557426070e+001
1	 1.270703660839725e+000	 9.501521018834158e-001	 9.760350217435740e+000
1	 1.260181288540694e+000	 9.640643087260686e-001	 9.472431366193824e+000
1	 1.249498772431579e+000	 9.778700153894413e-001	 9.180015950296625e+000
1	 1.238657724617147e+000	 9.915664783407002e-001	 8.884117272557004e+000
1	 1.227659819426233e+000	 1.005150986565916e+000	 8.585793603221241e+000
1	 1.216506792591863e+000	 1.018620863325253e+000	 8.286146685396890e+000
1	 1.205200440372255e+000	 1.031973467883280e+000	 7.986320154120620e+000
1	 1.193742618613598e+000	 1.045206197212085e+000	 7.687497871896336e+000
1	 1.182135241755561e+000	 1.058316487664915e+000	 7.390902183762561e+000
1	 1.312964951888744e+000	 9.375163156081748e-001	 9.926337828153729e+000
1	 1.302596054595719e+000	 9.518704425770157e-001	 9.643128209692211e+000
1	 1.292061236285450e+000	 9.661219505820893e-001	 9.354138001225604e+000
1	 1.281362007361988e+000	 9.802679892904931e-001	 9.060274287384749e+000
1	 1.270499942983189e+000	 9.943057377990964e-001	 8.762494777553467e+000
1	 1.259476682349561e+000	 1.008232406462639e+000	 8.461806494686542e+000
1	 1.248293927931517e+000	 1.022045238701332e+000	 8.159264367056414e+000
1	 1.236953444635726e+000	 1.035741512785547e+000	 7.855969725262822e+000
1	 1.225457058911339e+000	 1.049318543595212e+000	 7.553068707095922e+000
1	 1.213806657797006e+000	 1.062773684351549e+000	 7.251750573094880e+000
1	 1.202004187909683e+000	 1.076104328318845e+000	 6.953245935886983e+000
1	 1.334668062569236e+000	 9.530133175164640e-001	 9.510516004720991e+000
1	 1.324127768983342e+000	 9.676047160183382e-001	 9.220863261051198e+000
1	 1.313418811731085e+000	 9.820917992806265e-001	 8.926167809019363e+000
1	 1.302542726183266e+000	 9.964716698548412e-001	 8.627299818635171e+000
1	 1.291501113534862e+000	 1.010741460208737e+000	 8.325181433123451e+000
1	 1.280295640082116e+000	 1.024898334584625e+000	 8.020785499789945e+000
1	 1.268928036437022e+000	 1.038939490836855e+000	 7.715134201077187e+000
1	 1.257400096679885e+000	 1.052862162246009e+000	 7.409297588055014e+000
1	 1.245713677450784e+000	 1.066663619307370e+000	 7.104392018854350e+000
1	 1.233870696980833e+000	 1.080341171491293e+000	 6.801578504810990e+000
1	 1.221873134064270e+000	 1.093892168973107e+000	 6.502060967337491e+000
1	 1.356371173249661e+000	 9.685103194244188e-001	 9.074020663872057e+000
1	 1.345659483370942e+000	 9.833389894593682e-001	 8.778726755109087e+000
1	 1.334776387176746e+000	 9.980616479789166e-001	 8.479211810867094e+000
1	 1.323723445004623e+000	 1.012675350418991e+000	 8.176285481235425e+000
1	 1.312502284086669e+000	 1.027177182618228e+000	 7.870809200896701e+000
1	 1.301114597814863e+000	 1.041564262706513e+000	 7.563694999970903e+000
1	 1.289562144942771e+000	 1.055833742972335e+000	 7.255904215261256e+000
1	 1.277846748724337e+000	 1.069982811706480e+000	 6.948446103988287e+000
1	 1.265970295990567e+000	 1.084008695019590e+000	 6.642376362361109e+000
1	 1.253934736165034e+000	 1.097908658631153e+000	 6.338795551593608e+000
1	 1.241742080219257e+000	 1.111680009627535e+000	 6.038847434224191e+000
1	 1.378074283930169e+000	 9.840073213319565e-001	 8.619295457099053e+000
1	 1.367191197758651e+000	 9.990732629000086e-001	 8.319263621244724e+000
1	 1.356133962622546e+000	 1.014031496676848e+000	 8.015867542654098e+000
1	 1.344904163826153e+000	 1.028879030982817e+000	 7.709833825207350e+000
1	 1.333503454638683e+000	 1.043612905027437e+000	 7.401939180251017e+000
1	 1.321933555547848e+000	 1.058230190828161e+000	 7.093009354424330e+000
1	 1.310196253448787e+000	 1.072727995107619e+000	 6.783917960979673e+000
1	 1.298293400769084e+000	 1.087103461166803e+000	 6.475585216457257e+000
1	 1.286226914530664e+000	 1.101353770731710e+000	 6.168976584828997e+000
1	 1.273998775349563e+000	 1.115476145770962e+000	 5.865101331476547e+000
1	 1.261611026374577e+000	 1.129467850281964e+000	 5.565010989613477e+000
1	 1.399777394610910e+000	 9.995043232389941e-001	 8.148632483686498e+000
1	 1.388722912146604e+000	 1.014807536340161e+000	 7.844860955501775e+000
1	 1.377491538068603e+000	 1.030001345374311e+000	 7.538571444341101e+000
1	 1.366084882647951e+000	 1.045082711546199e+000	 7.230385993677926e+000
1	 1.354504625190976e+000	 1.060048627436228e+000	 6.920973634386514e+000
1	 1.342752513281120e+000	 1.074896118949426e+000	 6.611049465685253e+000
1	 1.330830361955098e+000	 1.089622247242557e+000	 6.301373645481207e+000
1	 1.318740052814126e+000	 1.104224110626819e+000	 5.992750291683749e+000
1	 1.306483533071053e+000	 1.118698846443568e+000	 5.686026296293937e+000
1	 1.294062814534374e+000	 1.133043632910556e+000	 5.382090054311079e+000
1	 1.281479972530163e+000	 1.147255690936225e+000	 5.081870109728574e+000
1	 1.421480505292034e+000	 1.015001325145448e+000	 7.664183860177896e+000
1	 1.410254626534935e+000	 1.030541809779729e+000	 7.357760069555563e+000
1	 1.398849113515031e+000	 1.045971194071194e+000	 7.049611157996446e+000
1	 1.387265601470111e+000	 1.061286392109012e+000	 6.740234044650867e+000
1	 1.375505795743618e+000	 1.076484349844469e+000	 6.430168115849254e+000
1	 1.363571471014727e+000	 1.091562047070162e+000	 6.119994494480944e+000
1	 1.351464470461725e+000	 1.106516499376995e+000	 5.810335227434869e+000
1	 1.339186704859462e+000	 1.121344760086371e+000	 5.501852392312426e+000
1	 1.326740151611712e+000	 1.136043922155000e+000	 5.195247124838103e+000
1	 1.314126853719423e+000	 1.150611120049767e+000	 4.891258568606419e+000
1	 1.301348918685950e+000	 1.165043531590152e+000	 4.590662749013129e+000
1	 1.443183615973692e+000	 1.030498327051237e+000	 7.167972245927858e+000
1	 1.431786340923777e+000	 1.046276083218615e+000	 6.860067452499749e+000
1	 1.420206688961944e+000	 1.061941042767387e+000	 6.551136716175008e+000
1	 1.408446320292726e+000	 1.077490072671134e+000	 6.241532160982942e+000
1	 1.396506966296683e+000	 1.092920072252026e+000	 5.931642497966885e+000
1	 1.384390428748719e+000	 1.108227975190228e+000	 5.621892517550161e+000
1	 1.372098578968695e+000	 1.123410751510783e+000	 5.312742511320074e+000
1	 1.359633356905095e+000	 1.138465409545300e+000	 5.004687624018471e+000
1	 1.346996770152616e+000	 1.153388997865844e+000	 4.698257136712525e+000
1	 1.334190892904664e+000	 1.168178607188432e+000	 4.394013682302790e+000
1	 1.321217864841871e+000	 1.182831372243579e+000	 4.092552394707318e+000
1	 1.464886726656035e+000	 1.045995328956277e+000	 6.661900433002661e+000
1	 1.453318055313266e+000	 1.062010356656721e+000	 6.353764758203255e+000
1	 1.441564264409459e+000	 1.077910891462778e+000	 6.045170735724863e+000
1	 1.429627039115891e+000	 1.093693753232441e+000	 5.736306863868175e+000
1	 1.417508136850242e+000	 1.109355794658762e+000	 5.427391025663368e+000
1	 1.405209386483143e+000	 1.124893903309479e+000	 5.118670238053483e+000
1	 1.392732687476031e+000	 1.140305003643770e+000	 4.810420344492773e+000
1	 1.380080008951025e+000	 1.155586059003449e+000	 4.502945651264147e+000
1	 1.367253388693743e+000	 1.170734073575938e+000	 4.196578507967269e+000
1	 1.354254932090050e+000	 1.185746094326383e+000	 3.891678832776305e+000
1	 1.341086810997859e+000	 1.200619212896339e+000	 3.588633583212634e+000
1	 1.142397349448981e+000	 1.022740806358721e+000	 8.219106069004770e+000
1	 1.131039251243886e+000	 1.035287756015926e+000	 7.929141158384473e+000
1	 1.119540534113931e+000	 1.047711586446118e+000	 7.635291816146701e+000
1	 1.107903211781769e+000	 1.060009945786597e+000	 7.338074999833073e+000
1	 1.096129350166033e+000	 1.072180526369110e+000	 7.038010309746666e+000
1	 1.084221066161063e+000	 1.084221066161063e+000	 6.735619499467231e+000
1	 1.072180526369110e+000	 1.096129350166033e+000	 6.431425983115441e+000
1	 1.060009945786597e+000	 1.107903211781770e+000	 6.125954340219945e+000
1	 1.047711586446118e+000	 1.119540534113932e+000	 5.819729819046029e+000
1	 1.035287756015926e+000	 1.131039251243886e+000	 5.513277839247697e+000
1	 1.022740806358721e+000	 1.142397349448981e+000	 5.207123494707432e+000
1	 1.162266295601971e+000	 1.040528647011485e+000	 7.813426974161509e+000
1	 1.150710653660098e+000	 1.053293817296594e+000	 7.518972284755495e+000
1	 1.139011947103368e+000	 1.065933727024969e+000	 7.220380242352441e+000
1	 1.127172224677734e+000	 1.078445983429568e+000	 6.918146664021510e+000
1	 1.115193588232937e+000	 1.090828238706443e+000	 6.612768968837021e+000
1	 1.103078191481013e+000	 1.103078191481013e+000	 6.304745749624590e+000
1	 1.090828238706443e+000	 1.115193588232937e+000	 5.994576343417434e+000
1	 1.078445983429568e+000	 1.127172224677734e+000	 5.682760401334035e+000
1	 1.065933727024968e+000	 1.139011947103368e+000	 5.369797458588609e+000
1	 1.053293817296594e+000	 1.150710653660097e+000	 5.056186505344948e+000
1	 1.040528647011485e+000	 1.162266295601972e+000	 4.742425559121914e+000
1	 1.182135241755561e+000	 1.058316487664915e+000	 7.390902183762561e+000
1	 1.170382056076979e+000	 1.071299878577974e+000	 7.093417986258720e+000
1	 1.158483360093529e+000	 1.084155867604568e+000	 6.791351363932770e+000
1	 1.146441237574461e+000	 1.096882021073315e+000	 6.485218490679184e+000
1	 1.134257826300627e+000	 1.109475951044568e+000	 6.175537181415438e+000
1	 1.121935316801759e+000	 1.121935316801759e+000	 5.862826445459164e+000
1	 1.109475951044568e+000	 1.134257826300627e+000	 5.547606038706979e+000
1	 1.096882021073315e+000	 1.146441237574461e+000	 5.230396015356344e+000
1	 1.084155867604569e+000	 1.158483360093529e+000	 4.911716279912652e+000
1	 1.071299878577974e+000	 1.170382056076979e+000	 4.592086140222816e+000
1	 1.058316487664915e+000	 1.182135241755561e+000	 4.272023862272202e+000
1	 1.202004187909683e+000	 1.076104328318845e+000	 6.953245935886982e+000
1	 1.190053458494446e+000	 1.089305939859901e+000	 6.653830562777813e+000
1	 1.177954773084311e+000	 1.102378008184755e+000	 6.349233165977260e+000
1	 1.165710250471834e+000	 1.115318058717681e+000	 6.040029550999989e+000
1	 1.153322064368974e+000	 1.128123663383335e+000	 5.726798248339136e+000
1	 1.140792442123159e+000	 1.140792442123158e+000	 5.410119971139050e+000
1	 1.128123663383335e+000	 1.153322064368973e+000	 5.090577069936853e+000
1	 1.115318058717681e+000	 1.165710250471834e+000	 4.768752985414847e+000
1	 1.102378008184754e+000	 1.177954773084312e+000	 4.445231700110664e+000
1	 1.089305939859901e+000	 1.190053458494445e+000	 4.120597190032923e+000
1	 1.076104328318845e+000	 1.202004187909682e+000	 3.795432877130751e+000
1	 1.221873134064270e+000	 1.093892168973107e+000	 6.502060967337492e+000
1	 1.209724860912411e+000	 1.107312001142208e+000	 6.201474354907433e+000
1	 1.197426186075614e+000	 1.120600148765364e+000	 5.894986769089046e+000
1	 1.184979263369735e+000	 1.133754096362508e+000	 5.583270843869880e+000
1	 1.172386302437845e+000	 1.146771375722591e+000	 5.267004034539241e+000
1	 1.159649567445070e+000	 1.159649567445070e+000	 4.946867904436601e+000
1	 1.146771375722591e+000	 1.172386302437845e+000	 4.623547405256743e+000
1	 1.133754096362507e+000	 1.184979263369735e+000	 4.297730152219079e+000
1	 1.120600148765364e+000	 1.197426186075614e+000	 3.970105695421919e+000
1	 1.107312001142208e+000	 1.209724860912411e+000	 3.641364788710992e+000
1	 1.093892168973107e+000	 1.221873134064270e+000	 3.312198657396708e+000
1	 1.241742080219257e+000	 1.111680009627535e+000	 6.038847434224191e+000
1	 1.229396263330790e+000	 1.125318062424730e+000	 5.737532781076181e+000
1	 1.216897599067334e+000	 1.138822289346235e+000	 5.429511778832260e+000
1	 1.204248276268045e+000	 1.152190134007636e+000	 5.115589141859247e+000
1	 1.191450540507110e+000	 1.165419088062188e+000	 4.796577484030608e+000
1	 1.178506692767354e+000	 1.178506692767353e+000	 4.473296361312595e+000
1	 1.165419088062188e+000	 1.191450540507110e+000	 4.146571302655215e+000
1	 1.152190134007636e+000	 1.204248276268046e+000	 3.817232831023346e+000
1	 1.138822289346235e+000	 1.216897599067333e+000	 3.486115476429553e+000
1	 1.125318062424730e+000	 1.229396263330790e+000	 3.154056782847629e+000
1	 1.111680009627535e+000	 1.241742080219257e+000	 2.821896310901654e+000
1	 1.261611026374577e+000	 1.129467850281964e+000	 5.565010989613477e+000
1	 1.249067665749498e+000	 1.143324123707302e+000	 5.263114709709122e+000
1	 1.236369012059369e+000	 1.157044429927205e+000	 4.953651129693441e+000
1	 1.223517289166649e+000	 1.170626171652911e+000	 4.637590473794830e+000
1	 1.210514778576640e+000	 1.184066800401973e+000	 4.315914897270299e+000
1	 1.197363818089865e+000	 1.197363818089865e+000	 3.989617213446580e+000
1	 1.184066800401974e+000	 1.210514778576640e+000	 3.659699602113755e+000
1	 1.170626171652911e+000	 1.223517289166650e+000	 3.327172301792948e+000
1	 1.157044429927205e+000	 1.236369012059368e+000	 2.993052288442037e+000
1	 1.143324123707303e+000	 1.249067665749498e+000	 2.658361943195352e+000
1	 1.129467850281964e+000	 1.261611026374577e+000	 2.324127711761113e+000
1	 1.281479972530163e+000	 1.147255690936225e+000	 5.081870109728576e+000
1	 1.268739068168448e+000	 1.161330184989758e+000	 4.779260238600189e+000
1	 1.255840425051615e+000	 1.175266570508109e+000	 4.468195478417861e+000
1	 1.242786302065429e+000	 1.189062209298173e+000	 4.149843283354787e+000
1	 1.229579016646303e+000	 1.202714512741798e+000	 3.825387996657771e+000
1	 1.216220943412465e+000	 1.216220943412465e+000	 3.496029192502311e+000
1	 1.202714512741798e+000	 1.229579016646304e+000	 3.162979990582501e+000
1	 1.189062209298173e+000	 1.242786302065429e+000	 2.827465346799440e+000
1	 1.175266570508110e+000	 1.255840425051614e+000	 2.490720323473346e+000
1	 1.161330184989758e+000	 1.268739068168449e+000	 2.153988342555798e+000
1	 1.147255690936225e+000	 1.281479972530163e+000	 1.818519425360318e+000
1	 1.301348918685950e+000	 1.165043531590152e+000	 4.590662749013129e+000
1	 1.288410470587557e+000	 1.179336246271932e+000	 4.286945944849025e+000
1	 1.275311838043971e+000	 1.193488711088788e+000	 3.973887194882460e+000
1	 1.262055314964265e+000	 1.207498246943265e+000	 3.652881298311618e+000
1	 1.248643254715969e+000	 1.221362225081510e+000	 3.325345802819007e+000
1	 1.235078068735010e+000	 1.235078068735010e+000	 2.992718893234204e+000
1	 1.221362225081510e+000	 1.248643254715969e+000	 2.656457242682190e+000
1	 1.207498246943265e+000	 1.262055314964265e+000	 2.318033830575612e+000
1	 1.193488711088788e+000	 1.275311838043970e+000	 1.978935731893725e+000
1	 1.179336246271932e+000	 1.288410470587557e+000	 1.640661882265017e+000
1	 1.165043531590152e+000	 1.301348918685950e+000	 1.304720823427640e+000
1	 1.321217864841871e+000	 1.182831372243579e+000	 4.092552394707317e+000
1	 1.308081873006736e+000	 1.197342307553658e+000	 3.787089661095095e+000
1	 1.294783251036333e+000	 1.211710851669076e+000	 3.471423992871546e+000
1	 1.281324327863042e+000	 1.225934284588030e+000	 3.147206140883136e+000
1	 1.267707492785507e+000	 1.240009937420960e+000	 2.816116341593410e+000
1	 1.253935194057360e+000	 1.253935194057359e+000	 2.479861686083095e+000
1	 1.240009937420960e+000	 1.267707492785507e+000	 2.140173439687267e+000
1	 1.225934284588030e+000	 1.281324327863042e+000	 1.798804317771225e+000
1	 1.211710851669076e+000	 1.294783251036333e+000	 1.457525723260008e+000
1	 1.197342307553658e+000	 1.308081873006736e+000	 1.118124951634350e+000
1	 1.182831372243579e+000	 1.321217864841870e+000	 7.824023691849764e-001
1	 1.341086810997859e+000	 1.200619212896339e+000	 3.588633583212634e+000
1	 1.327753275425903e+000	 1.215348368834772e+000	 3.280554827176745e+000
1	 1.314254664028600e+000	 1.229932992248813e+000	 2.961462238100671e+000
1	 1.300593340761640e+000	 1.244370322232309e+000	 2.633289706040461e+000
1	 1.286771730854787e+000	 1.258657649759996e+000	 2.298008199280917e+000
1	 1.272792319379371e+000	 1.272792319379371e+000	 1.957622548648621e+000
1	 1.258657649759996e+000	 1.286771730854787e+000	 1.614168169043156e+000
1	 1.244370322232309e+000	 1.300593340761641e+000	 1.269707724978973e+000
1	 1.229932992248813e+000	 1.314254664028600e+000	 9.263277470753983e-001
1	 1.215348368834772e+000	 1.327753275425902e+000	 5.861352065579055e-001
1	 1.200619212896339e+000	 1.341086810997858e+000	 2.512540549369772e-001
1	 1.022740806358721e+000	 1.142397349448981e+000	 5.207123494707432e+000
1	 1.010071222934661e+000	 1.153614540248221e+000	 4.899341159289597e+000
1	 9.972833164607429e-001	 1.164687203295261e+000	 4.588628007555152e+000
1	 9.843795644057992e-001	 1.175613488505011e+000	 4.276302464788184e+000
1	 9.713624822960134e-001	 1.186391602416225e+000	 3.963677793764402e+000
1	 9.582346220975365e-001	 1.197019809152552e+000	 3.652060139056671e+000
1	 9.449985705706224e-001	 1.207496431328260e+000	 3.342746591789530e+000
1	 9.316569475974839e-001	 1.217819850897686e+000	 3.037023278685560e+000
1	 9.182124044861019e-001	 1.227988509947546e+000	 2.736163479165430e+000
1	 9.046676222522668e-001	 1.238000911431365e+000	 2.441425774172019e+000
1	 8.910253098821288e-001	 1.247855619845356e+000	 2.154052230286182e+000
1	 1.040528647011485e+000	 1.162266295601972e+000	 4.742425559121914e+000
1	 1.027638710073067e+000	 1.173678579430655e+000	 4.426554310377743e+000
1	 1.014628392171736e+000	 1.184943821833555e+000	 4.107329338461011e+000
1	 1.001500213865284e+000	 1.196060140548291e+000	 3.786178000090668e+000
1	 9.882567344307596e-001	 1.207025710921144e+000	 3.464520781015517e+000
1	 9.749005502189513e-001	 1.217838766884827e+000	 3.143769130653131e+000
1	 9.614342929799058e-001	 1.228497601879960e+000	 2.825323321599158e+000
1	 9.478606281616914e-001	 1.239000569719292e+000	 2.510570338274763e+000
1	 9.341822531847158e-001	 1.249346085393796e+000	 2.200881798883640e+000
1	 9.204018956938826e-001	 1.259532625819865e+000	 1.897611914743440e+000
1	 9.065223117909241e-001	 1.269558730526953e+000	 1.602095490935901e+000
1	 1.058316487664915e+000	 1.182135241755561e+000	 4.272023862272201e+000
1	 1.045206197212085e+000	 1.193742618613598e+000	 3.949552652939520e+000
1	 1.031973467883280e+000	 1.205200440372255e+000	 3.623447567622314e+000
1	 1.018620863325253e+000	 1.216506792591863e+000	 3.295204579768909e+000
1	 1.005150986565916e+000	 1.227659819426233e+000	 2.966311192702298e+000
1	 9.915664783407000e-001	 1.238657724617147e+000	 2.638244132422334e+000
1	 9.778700153894413e-001	 1.249498772431579e+000	 2.312467069105705e+000
1	 9.640643087260685e-001	 1.260181288540694e+000	 1.990428371857834e+000
1	 9.501521018834153e-001	 1.270703660839725e+000	 1.673558901163833e+000
1	 9.361361691354979e-001	 1.281064340207938e+000	 1.363269843362920e+000
1	 9.220193136996340e-001	 1.291261841208033e+000	 1.060950591340722e+000
1	 1.076104328318845e+000	 1.202004187909682e+000	 3.795432877130751e+000
1	 1.062773684351549e+000	 1.213806657797006e+000	 3.467753143070689e+000
1	 1.049318543595212e+000	 1.225457058911340e+000	 3.136302994175823e+000
1	 1.035741512785547e+000	 1.236953444635727e+000	 2.802608644459984e+000
1	 1.022045238701332e+000	 1.248293927931518e+000	 2.468186341120263e+000
1	 1.008232406462639e+000	 1.259476682349561e+000	 2.134539981392969e+000
1	 9.943057377990965e-001	 1.270499942983189e+000	 1.803158761359061e+000
1	 9.802679892904931e-001	 1.281362007361988e+000	 1.475514861406442e+000
1	 9.661219505820892e-001	 1.292061236285451e+000	 1.153061172936440e+000
1	 9.518704425770156e-001	 1.302596054595719e+000	 8.372290707734711e-001
1	 9.375163156081747e-001	 1.312964951888744e+000	 5.294262355929108e-001
1	 1.093892168973107e+000	 1.221873134064270e+000	 3.312198657396709e+000
1	 1.080341171491293e+000	 1.233870696980833e+000	 2.980610660502829e+000
1	 1.066663619307370e+000	 1.245713677450784e+000	 2.645260127870560e+000
1	 1.052862162246009e+000	 1.257400096679885e+000	 2.307666950366082e+000
1	 1.038939490836855e+000	 1.268928036437022e+000	 1.969339651413476e+000
1	 1.024898334584625e+000	 1.280295640082117e+000	 1.631772991981401e+000
1	 1.010741460208737e+000	 1.291501113534862e+000	 1.296445610214044e+000
1	 9.964716698548413e-001	 1.302542726183266e+000	 9.648177004326617e-001
1	 9.820917992806263e-001	 1.313418811731085e+000	 6.383287361095218e-001
1	 9.676047160183381e-001	 1.324127768983342e+000	 3.183952412787611e-001
1	 9.530133175164638e-001	 1.334668062569236e+000	 6.408614697582096e-003
1	 1.111680009627535e+000	 1.241742080219257e+000	 2.821896310901653e+000
1	 1.097908658631153e+000	 1.253934736165034e+000	 2.487614974548943e+000
1	 1.084008695019590e+000	 1.265970295990567e+000	 2.149724152028006e+000
1	 1.069982811706480e+000	 1.277846748724338e+000	 1.809702543792125e+000
1	 1.055833742972335e+000	 1.289562144942771e+000	 1.469016172304354e+000
1	 1.041564262706513e+000	 1.301114597814863e+000	 1.129116037535709e+000
1	 1.027177182618228e+000	 1.312502284086669e+000	 7.914358092596578e-001
1	 1.012675350418990e+000	 1.323723445004623e+000	 4.573895607617219e-001
1	 9.980616479789162e-001	 1.334776387176746e+000	 1.283695484521810e-001
1	 9.833389894593683e-001	 1.345659483370942e+000	-1.942559582708227e-001
1	 9.685103194244189e-001	 1.356371173249662e+000	-5.091447927148369e-001
1	 1.129467850281964e+000	 1.261611026374577e+000	 2.324127711761113e+000
1	 1.115476145770963e+000	 1.273998775349563e+000	 1.988287996746314e+000
1	 1.101353770731711e+000	 1.286226914530664e+000	 1.649137720728569e+000
1	 1.087103461166803e+000	 1.298293400769084e+000	 1.308081116062178e+000
1	 1.072727995107619e+000	 1.310196253448788e+000	 9.665085110292925e-001
1	 1.058230190828162e+000	 1.321933555547848e+000	 6.257940966396118e-001
1	 1.043612905027437e+000	 1.333503454638683e+000	 2.872937318528324e-001
1	 1.028879030982817e+000	 1.344904163826153e+000	-4.765720839328978e-002
1	 1.014031496676848e+000	 1.356133962622547e+000	-3.777459380957016e-001
1	 9.990732629000086e-001	 1.367191197758652e+000	-7.016843139320808e-001
1	 9.840073213319562e-001	 1.378074283930169e+000	-1.018210833885678e+000
1	 1.147255690936225e+000	 1.281479972530163e+000	 1.818519425360318e+000
1	 1.133043632910556e+000	 1.294062814534374e+000	 1.482181289080933e+000
1	 1.118698846443568e+000	 1.306483533071053e+000	 1.142978053949775e+000
1	 1.104224110626819e+000	 1.318740052814126e+000	 8.022076975313746e-001
1	 1.089622247242556e+000	 1.330830361955098e+000	 4.611531464392203e-001
1	 1.074896118949426e+000	 1.342752513281120e+000	 1.210802137360547e-001
1	 1.060048627436229e+000	 1.354504625190975e+000	-2.167644241300589e-001
1	 1.045082711546199e+000	 1.366084882647951e+000	-5.511552068275890e-001
1	 1.030001345374311e+000	 1.377491538068603e+000	-8.808896221858938e-001
1	 1.014807536340161e+000	 1.388722912146604e+000	-1.204790087030812e+000
1	 9.995043232389940e-001	 1.399777394610910e+000	-1.521705773211906e+000
1	 1.165043531590152e+000	 1.301348918685950e+000	 1.304720823427638e+000
1	 1.150611120049767e+000	 1.314126853719422e+000	 9.688738004782643e-001
1	 1.136043922155001e+000	 1.326740151611712e+000	 6.307542988124233e-001
1	 1.121344760086371e+000	 1.339186704859463e+000	 2.915236544517127e-001
1	 1.106516499376995e+000	 1.351464470461725e+000	-4.767292015075336e-002
1	 1.091562047070163e+000	 1.363571471014728e+000	-3.857081702114433e-001
1	 1.076484349844469e+000	 1.375505795743618e+000	-7.214745925671351e-001
1	 1.061286392109012e+000	 1.387265601470110e+000	-1.053886185926809e+000
1	 1.045971194071194e+000	 1.398849113515031e+000	-1.381880154006719e+000
1	 1.030541809779729e+000	 1.410254626534935e+000	-1.704418558268366e+000
1	 1.015001325145448e+000	 1.421480505292034e+000	-2.020489917128945e+000
1	 1.182831372243579e+000	 1.321217864841870e+000	 7.824023691849763e-001
1	 1.168178607188432e+000	 1.334190892904663e+000	 4.479698075303374e-001
1	 1.153388997865845e+000	 1.346996770152616e+000	 1.120051289217381e-001
1	 1.138465409545300e+000	 1.359633356905095e+000	-2.244960431885489e-001
1	 1.123410751510783e+000	 1.372098578968695e+000	-5.605552119176682e-001
1	 1.108227975190228e+000	 1.384390428748719e+000	-8.952125559721694e-001
1	 1.092920072252026e+000	 1.396506966296683e+000	-1.227528438389452e+000
1	 1.077490072671134e+000	 1.408446320292725e+000	-1.556584872049441e+000
1	 1.061941042767387e+000	 1.420206688961944e+000	-1.881486939129963e+000
1	 1.046276083218615e+000	 1.431786340923777e+000	-2.201364161812959e+000
1	 1.030498327051237e+000	 1.443183615973693e+000	-2.515371821689469e+000
1	 1.200619212896339e+000	 1.341086810997858e+000	 2.512540549369766e-001
1	 1.185746094326383e+000	 1.354254932090050e+000	-8.090296172126911e-002
1	 1.170734073575938e+000	 1.367253388693743e+000	-4.137034428885555e-001
1	 1.155586059003449e+000	 1.380080008951025e+000	-7.463453109549408e-001
1	 1.140305003643770e+000	 1.392732687476032e+000	-1.078044552633040e+000
1	 1.124893903309479e+000	 1.405209386483143e+000	-1.408036427553163e+000
1	 1.109355794658762e+000	 1.417508136850241e+000	-1.735576636926274e+000
1	 1.093693753232441e+000	 1.429627039115892e+000	-2.059942450036235e+000
1	 1.077910891462778e+000	 1.441564264409459e+000	-2.380433786442340e+000
1	 1.062010356656721e+000	 1.453318055313266e+000	-2.696374251897469e+000
1	 1.045995328956277e+000	 1.464886726656035e+000	-3.007112126116794e+000
1	 8.910253098821288e-001	 1.247855619845356e+000	 2.154052230286182e+000
1	 8.772882022807453e-001	 1.257551261490825e+000	 1.872955362133001e+000
1	 8.634590576311915e-001	 1.267086523959525e+000	 1.597093375407681e+000
1	 8.495406565372458e-001	 1.276460157680332e+000	 1.327746967574355e+000
1	 8.355358005343191e-001	 1.285670976711510e+000	 1.066173304827939e+000
1	 8.214473102909056e-001	 1.294717859120681e+000	 8.136040719285557e-001
1	 8.072780238044295e-001	 1.303599747304523e+000	 5.712435826436588e-001
1	 7.930307945938002e-001	 1.312315648248288e+000	 3.402669541465676e-001
1	 7.787084898909862e-001	 1.320864633725284e+000	 1.218183485229546e-001
1	 7.643139888338927e-001	 1.329245840436585e+000	-8.299071566425093e-002
1	 7.498501806627993e-001	 1.337458470091355e+000	-2.730829790101795e-001
1	 9.065223117909241e-001	 1.269558730526953e+000	 1.602095490935901e+000
1	 8.925462839472682e-001	 1.279423001924546e+000	 1.313314367877225e+000
1	 8.784766183172065e-001	 1.289124104778561e+000	 1.030220284199920e+000
1	 8.643161438656806e-001	 1.298660767784928e+000	 7.540701675612144e-001
1	 8.500677108533142e-001	 1.308031784375627e+000	 4.860966986631773e-001
1	 8.357341890065820e-001	 1.317236013105266e+000	 2.275063728399437e-001
1	 8.213184656822814e-001	 1.326272377976344e+000	-2.052237655285091e-002
1	 8.068234440286461e-001	 1.335139868703277e+000	-2.568409896215154e-001
1	 7.922520411454743e-001	 1.343837540915351e+000	-4.803325231640324e-001
1	 7.776071862455714e-001	 1.352364516298867e+000	-6.899133227242845e-001
1	 7.628918188198212e-001	 1.360719982678853e+000	-8.845346207605328e-001
1	 9.220193136996340e-001	 1.291261841208033e+000	 1.060950591340722e+000
1	 9.078043656136207e-001	 1.301294742357671e+000	 7.656524376173052e-001
1	 8.934941790029707e-001	 1.311161685596942e+000	 4.763372622409932e-001
1	 8.790916311937900e-001	 1.320861377888824e+000	 1.942253248433445e-001
1	 8.645996211719170e-001	 1.330392592039014e+000	-7.948790831522348e-002
1	 8.500210677218111e-001	 1.339754167089103e+000	-3.436336685414773e-001
1	 8.353589075596423e-001	 1.348945008647412e+000	-5.970717263929335e-001
1	 8.206160934629750e-001	 1.357964089157520e+000	-8.386921675891843e-001
1	 8.057955923994367e-001	 1.366810448104691e+000	-1.067417100090397e+000
1	 7.909003836567353e-001	 1.375483192160448e+000	-1.282202289488479e+000
1	 7.759334569763624e-001	 1.383981495265687e+000	-1.482038720068373e+000
1	 9.375163156081747e-001	 1.312964951888744e+000	 5.294262355929108e-001
1	 9.230624472797354e-001	 1.323166482790366e+000	 2.287674064040434e-001
1	 9.085117396884321e-001	 1.333199266414842e+000	-6.576572266900059e-002
1	 8.938671185215374e-001	 1.343061987992202e+000	-3.530018309392834e-001
1	 8.791315314901061e-001	 1.352753399701856e+000	-6.317947725546559e-001
1	 8.643079464365844e-001	 1.362272321072382e+000	-9.010254246122145e-001
1	 8.493993494365169e-001	 1.371617639317917e+000	-1.159603472522125e+000
1	 8.344087428967989e-001	 1.380788309611204e+000	-1.406469129468738e+000
1	 8.193391436528904e-001	 1.389783355293484e+000	-1.640594787012571e+000
1	 8.041935810674046e-001	 1.398601868021504e+000	-1.860986594085212e+000
1	 7.889750951324397e-001	 1.407243007852023e+000	-2.066685961837155e+000
1	 9.530133175164638e-001	 1.334668062569236e+000	 6.408614697582096e-003
1	 9.383205289455460e-001	 1.345038223222794e+000	-2.984646968304711e-001
1	 9.235293003735396e-001	 1.355236847232435e+000	-5.972199971293436e-001
1	 9.086426058488871e-001	 1.365262598095244e+000	-8.887465888780383e-001
1	 8.936634418078615e-001	 1.375114207364341e+000	-1.171959170138809e+000
1	 8.785948251508936e-001	 1.384790475055292e+000	-1.445799605084077e+000
1	 8.634397913129078e-001	 1.394290269988049e+000	-1.709238632198405e+000
1	 8.482013923301294e-001	 1.403612530064517e+000	-1.961277506947860e+000
1	 8.328826949058532e-001	 1.412756262481913e+000	-2.200949576107663e+000
1	 8.174867784775971e-001	 1.421720543882209e+000	-2.427321781139648e+000
1	 8.020167332880693e-001	 1.430504520438026e+000	-2.639496088219910e+000
1	 9.685103194244189e-001	 1.356371173249662e+000	-5.091447927148369e-001
1	 9.535786106109838e-001	 1.366909963655117e+000	-8.170959051209223e-001
1	 9.385468610582419e-001	 1.377274428049897e+000	-1.119084478926576e+000
1	 9.234180931758037e-001	 1.387463208198132e+000	-1.414071575638399e+000
1	 9.081953521251606e-001	 1.397475015026658e+000	-1.701043715557689e+000
1	 8.928817038647322e-001	 1.407308629038023e+000	-1.979014550338896e+000
1	 8.774802331888189e-001	 1.416962900657996e+000	-2.247026473699857e+000
1	 8.619940417629793e-001	 1.426436750517643e+000	-2.504152167464048e+000
1	 8.464262461583425e-001	 1.435729169670161e+000	-2.749496080305968e+000
1	 8.307799758873323e-001	 1.444839219742739e+000	-2.982195836771593e+000
1	 8.150583714432672e-001	 1.453766033023863e+000	-3.201423574345971e+000
1	 9.840073213319562e-001	 1.378074283930169e+000	-1.018210833885678e+000
1	 9.688366922759821e-001	 1.388781704087501e+000	-1.328111978181829e+000
1	 9.535644217424868e-001	 1.399312008867400e+000	-1.632351378818783e+000
1	 9.381935805022507e-001	 1.409663818301048e+000	-1.929972477214609e+000
1	 9.227272624419833e-001	 1.419835822688992e+000	-2.220044083397132e+000
1	 9.071685825780912e-001	 1.429826783020764e+000	-2.501661930103392e+000
1	 8.915206750642536e-001	 1.439635531327948e+000	-2.773950166151216e+000
1	 8.757866911953608e-001	 1.449260970970773e+000	-3.036062786489011e+000
1	 8.599697974103759e-001	 1.458702076858409e+000	-3.287184996514160e+000
1	 8.440731732966296e-001	 1.467957895603269e+000	-3.526534508445529e+000
1	 8.281000095980499e-001	 1.477027545609700e+000	-3.753362767730112e+000
1	 9.995043232389940e-001	 1.399777394610910e+000	-1.521705773211906e+000
1	 9.840947739404727e-001	 1.410653444520108e+000	-1.832437540142923e+000
1	 9.685819824262233e-001	 1.421349589685121e+000	-2.137951371893566e+000
1	 9.529690678281922e-001	 1.431864428404175e+000	-2.437383228400629e+000
1	 9.372591727583082e-001	 1.442196630351531e+000	-2.729894197750143e+000
1	 9.214554612909641e-001	 1.452344937003705e+000	-3.014671911987922e+000
1	 9.055611169392154e-001	 1.462308161998095e+000	-3.290931903757301e+000
1	 8.895793406272856e-001	 1.472085191424091e+000	-3.557918901434050e+000
1	 8.735133486619712e-001	 1.481674984046840e+000	-3.814908060605226e+000
1	 8.573663707055079e-001	 1.491076571463974e+000	-4.061206129925642e+000
1	 8.411416477524336e-001	 1.500289058195703e+000	-4.296152549572295e+000
1	 1.015001325145448e+000	 1.421480505292034e+000	-2.020489917128945e+000
1	 9.993528556043898e-001	 1.432525184953105e+000	-2.330940746627972e+000
1	 9.835995431093997e-001	 1.443387170503232e+000	-2.636758295189384e+000
1	 9.677445551535926e-001	 1.454065038507694e+000	-2.937180726864933e+000
1	 9.517910830741139e-001	 1.464557438014463e+000	-3.231470946237768e+000
1	 9.357423400033419e-001	 1.474863090987035e+000	-3.518917856546222e+000
1	 9.196015588137076e-001	 1.484980792668627e+000	-3.798837560616924e+000
1	 9.033719900587662e-001	 1.494909411877786e+000	-4.070574502578259e+000
1	 8.870568999131454e-001	 1.504647891235637e+000	-4.333502548492902e+000
1	 8.706595681139866e-001	 1.514195247325030e+000	-4.587026004226763e+000
1	 8.541832859064348e-001	 1.523550570782039e+000	-4.830580569045691e+000
1	 1.030498327051237e+000	 1.443183615973693e+000	-2.515371821689469e+000
1	 1.014610937267665e+000	 1.454396925386652e+000	-2.824437530722444e+000
1	 9.986171037919640e-001	 1.465424751321909e+000	-3.129593421449902e+000
1	 9.825200424784156e-001	 1.476265648611788e+000	-3.430189121873810e+000
1	 9.663229933893792e-001	 1.486918245677973e+000	-3.725598468683252e+000
1	 9.500292187152167e-001	 1.497381244970944e+000	-4.015220588699449e+000
1	 9.336420006877344e-001	 1.507653423339732e+000	-4.298480925532378e+000
1	 9.171646394898144e-001	 1.517733632332045e+000	-4.574832209756609e+000
1	 9.006004511639166e-001	 1.527620798424980e+000	-4.843755371073367e+000
1	 8.839527655220841e-001	 1.537313923186611e+000	-5.104760391091606e+000
1	 8.672249240600692e-001	 1.546812083368872e+000	-5.357387095524903e+000
1	 1.045995328956277e+000	 1.464886726656035e+000	-3.007112126116794e+000
1	 1.029869018930230e+000	 1.476268665820915e+000	-3.313695471503134e+000
1	 1.013634664473865e+000	 1.487462332141325e+000	-3.617229352969919e+000
1	 9.972955298026258e-001	 1.498466258716639e+000	-3.917183721775734e+000
1	 9.808549037040830e-001	 1.509279053342249e+000	-4.213052064551730e+000
1	 9.643160974265818e-001	 1.519899398955622e+000	-4.504352289459166e+000
1	 9.476824425612986e-001	 1.530326054011600e+000	-4.790627560372439e+000
1	 9.309572889204426e-001	 1.540557852787053e+000	-5.071447077768729e+000
1	 9.141440024143019e-001	 1.550593705615053e+000	-5.346406805154054e+000
1	 8.972459629298201e-001	 1.560432599048893e+000	-5.615130140007374e+000
1	 8.802665622133532e-001	 1.570073595956371e+000	-5.877268528376163e+000
1	 7.498501806627993e-001	 1.337458470091355e+000	-2.730829790101800e-001
1	 7.353221473168309e-001	 1.345500595902038e+000	-4.488921919192908e-001
1	 7.207306278798588e-001	 1.353372795297910e+000	-6.111095977811444e-001
1	 7.060785306134998e-001	 1.361074466261638e+000	-7.590154116685632e-001
1	 6.913687667140009e-001	 1.368605071488112e+000	-8.919261846242813e-001
1	 6.766042485600982e-001	 1.375964138175143e+000	-1.009195699453828e+000
1	 6.617878879772690e-001	 1.383151257758930e+000	-1.110215791356405e+000
1	 6.469225945203407e-001	 1.390166085595247e+000	-1.194417092720146e+000
1	 6.320112737763581e-001	 1.397008340587419e+000	-1.261269701604439e+000
1	 6.170568256895568e-001	 1.403677804762223e+000	-1.310283773628443e+000
1	 6.020621429102250e-001	 1.410174322794896e+000	-1.341010037176533e+000
1	 7.628918188198212e-001	 1.360719982678853e+000	-8.845346207605327e-001
1	 7.481111091940829e-001	 1.368901979756440e+000	-1.064615208992622e+000
1	 7.332658093066115e-001	 1.376911095003749e+000	-1.230767437882545e+000
1	 7.183588780004508e-001	 1.384746715932977e+000	-1.382201669350253e+000
1	 7.033932771043161e-001	 1.392408295894034e+000	-1.518163517896752e+000
1	 6.883719696499764e-001	 1.399895353861612e+000	-1.637934918089509e+000
1	 6.732979181063208e-001	 1.407207474166046e+000	-1.740835116172842e+000
1	 6.581740826320958e-001	 1.414344306168952e+000	-1.826221584773856e+000
1	 6.430034193492565e-001	 1.421305563884740e+000	-1.893490859879192e+000
1	 6.277888786388084e-001	 1.428091025549134e+000	-1.942079299464349e+000
1	 6.125334034609495e-001	 1.434700533135920e+000	-1.971463763359536e+000
1	 7.759334569763624e-001	 1.383981495265687e+000	-1.482038720068373e+000
1	 7.609000710709125e-001	 1.392303363610223e+000	-1.667296212418957e+000
1	 7.458009907330193e-001	 1.400449394709020e+000	-1.838472029338238e+000
1	 7.306392253871503e-001	 1.408418965603801e+000	-1.994714065690486e+000
1	 7.154177874944816e-001	 1.416211520299499e+000	-2.135204377039456e+000
1	 7.001396907398116e-001	 1.423826569547684e+000	-2.259160407621926e+000
1	 6.848079482354358e-001	 1.431263690572821e+000	-2.365836141855317e+000
1	 6.694255707440150e-001	 1.438522526742372e+000	-2.454523178014611e+000
1	 6.539955649224103e-001	 1.445602787181828e+000	-2.524551722927212e+000
1	 6.385209315883906e-001	 1.452504246335858e+000	-2.575291506749316e+000
1	 6.230046640120596e-001	 1.459226743476797e+000	-2.606152617099439e+000
1	 7.889750951324397e-001	 1.407243007852023e+000	-2.066685961837154e+000
1	 7.736890329473286e-001	 1.415704747463540e+000	-2.257985571242020e+000
1	 7.583361721590805e-001	 1.423987694413863e+000	-2.435237340425807e+000
1	 7.429195727735806e-001	 1.432091215274239e+000	-2.597533661560416e+000
1	 7.274422978844638e-001	 1.440014744704620e+000	-2.743999983965407e+000
1	 7.119074118295534e-001	 1.447757785233454e+000	-2.873796191815070e+000
1	 6.963179783645463e-001	 1.455319906979338e+000	-2.986117904909480e+000
1	 6.806770588560146e-001	 1.462700747315572e+000	-3.080197700827915e+000
1	 6.649877104957208e-001	 1.469900010478731e+000	-3.155306257008791e+000
1	 6.492529845381936e-001	 1.476917467122426e+000	-3.210753411518240e+000
1	 6.334759245634387e-001	 1.483752953817541e+000	-3.245889141494190e+000
1	 8.020167332880693e-001	 1.430504520438026e+000	-2.639496088219909e+000
1	 7.864779948233396e-001	 1.439106131316547e+000	-2.837665334068432e+000
1	 7.708713535847912e-001	 1.447525994118420e+000	-3.022011386644886e+000
1	 7.551999201597239e-001	 1.455763464944417e+000	-3.191577705489654e+000
1	 7.394668082742286e-001	 1.463817969109509e+000	-3.345439689097712e+000
1	 7.236751329191496e-001	 1.471689000919019e+000	-3.482706192025775e+000
1	 7.078280084935832e-001	 1.479376123385674e+000	-3.602520964710503e+000
1	 6.919285469680097e-001	 1.486878967888615e+000	-3.704064014022947e+000
1	 6.759798560690888e-001	 1.494197233775495e+000	-3.786552882812896e+000
1	 6.599850374881072e-001	 1.501330687908871e+000	-3.849243846926143e+000
1	 6.439471851149695e-001	 1.508279164158169e+000	-3.891433028408223e+000
1	 8.150583714432672e-001	 1.453766033023863e+000	-3.201423574345970e+000
1	 7.992669566989544e-001	 1.462507515169399e+000	-3.407254694998148e+000
1	 7.834065350101485e-001	 1.471064293822835e+000	-3.599681507224967e+000
1	 7.674802675455636e-001	 1.479435714614465e+000	-3.777704738929968e+000
1	 7.514913186637425e-001	 1.487621193514281e+000	-3.940355921356889e+000
1	 7.354428540085497e-001	 1.495620216604477e+000	-4.086699035655960e+000
1	 7.193380386224788e-001	 1.503432339791911e+000	-4.215832081926417e+000
1	 7.031800350799152e-001	 1.511057188461564e+000	-4.326888568484991e+000
1	 6.869720016424156e-001	 1.518494457072168e+000	-4.419038919343028e+000
1	 6.707170904380223e-001	 1.525743908695221e+000	-4.491491798112835e+000
1	 6.544184456665354e-001	 1.532805374498695e+000	-4.543495346799856e+000
1	 8.281000095980499e-001	 1.477027545609700e+000	-3.753362767730112e+000
1	 8.120559185741816e-001	 1.485908899022251e+000	-3.967614943061804e+000
1	 7.959417164351506e-001	 1.494602593527250e+000	-4.169079143038609e+000
1	 7.797606149310815e-001	 1.503107964284512e+000	-4.356719219105754e+000
1	 7.635158290529713e-001	 1.511424417919046e+000	-4.529528670407373e+000
1	 7.472105750977021e-001	 1.519551432289924e+000	-4.686532410239627e+000
1	 7.308480687511642e-001	 1.527488556198130e+000	-4.826788454862578e+000
1	 7.144315231916465e-001	 1.535235409034484e+000	-4.949389532161121e+000
1	 6.979641472156025e-001	 1.542791680368797e+000	-5.053464607886760e+000
1	 6.814491433878283e-001	 1.550157129481510e+000	-5.138180327452467e+000
1	 6.648897062180196e-001	 1.557331584839138e+000	-5.202742371500253e+000
1	 8.411416477524336e-001	 1.500289058195703e+000	-4.296152549572295e+000
1	 8.248448804490295e-001	 1.509310282875257e+000	-4.519553951220915e+000
1	 8.084768978597926e-001	 1.518140893231805e+000	-4.730984170034687e+000
1	 7.920409623162603e-001	 1.526780213954683e+000	-4.929375711809880e+000
1	 7.755403394418811e-001	 1.535227642323919e+000	-5.113689551929330e+000
1	 7.589782961865559e-001	 1.543482647975457e+000	-5.282917012476714e+000
1	 7.423580988795706e-001	 1.551544772604411e+000	-5.436081561706531e+000
1	 7.256830113031192e-001	 1.559413629607439e+000	-5.572240533119787e+000
1	 7.089562927885509e-001	 1.567088903665430e+000	-5.690486761641800e+000
1	 6.921811963374156e-001	 1.574570350267766e+000	-5.789950134644462e+000
1	 6.753609667693055e-001	 1.581857795179509e+000	-5.869799055808419e+000
1	 8.541832859064348e-001	 1.523550570782039e+000	-4.830580569045691e+000
1	 8.376338423235072e-001	 1.532711666728574e+000	-5.063830254140794e+000
1	 8.210120792840733e-001	 1.541679192936644e+000	-5.286128835695304e+000
1	 8.043213097010831e-001	 1.550452463625108e+000	-5.496382700106367e+000
1	 7.875648498304384e-001	 1.559030866729012e+000	-5.693525500480068e+000
1	 7.707460172750591e-001	 1.567413863661173e+000	-5.876520135505079e+000
1	 7.538681290076296e-001	 1.575600989010834e+000	-6.044360650793856e+000
1	 7.369344994142486e-001	 1.583591850180492e+000	-6.196074059717145e+000
1	 7.199484383611615e-001	 1.591386126962113e+000	-6.330722081009096e+000
1	 7.029132492866742e-001	 1.598983571054023e+000	-6.447402790672363e+000
1	 6.858322273202755e-001	 1.606384005519828e+000	-6.545252185969391e+000
1	 8.672249240600692e-001	 1.546812083368872e+000	-5.357387095524905e+000
1	 8.504228041976235e-001	 1.556113050582356e+000	-5.601156758025585e+000
1	 8.335472607079892e-001	 1.565217492641910e+000	-5.835201340305511e+000
1	 8.166016570855321e-001	 1.574124713295916e+000	-6.058406049373668e+000
1	 7.995893602186089e-001	 1.582834091134438e+000	-6.269682129147702e+000
1	 7.825137383631615e-001	 1.591345079347169e+000	-6.467968932492097e+000
1	 7.653781591352729e-001	 1.599657205417480e+000	-6.652235915946479e+000
1	 7.481859875249496e-001	 1.607770070753707e+000	-6.821484553965885e+000
1	 7.309405839333361e-001	 1.615683350258895e+000	-6.974750169745599e+000
1	 7.136453022354947e-001	 1.623396791840312e+000	-7.111103679962265e+000
1	 6.963034878708130e-001	 1.630910215860108e+000	-7.229653251023397e+000
1	 8.802665622133532e-001	 1.570073595956371e+000	-5.877268528376167e+000
1	 8.632117660713863e-001	 1.579514434436757e+000	-6.132204120673633e+000
1	 8.460824421315376e-001	 1.588755792347744e+000	-6.378849099872578e+000
1	 8.288820044695899e-001	 1.597796962967234e+000	-6.616072164328302e+000
1	 8.116138706063589e-001	 1.606637315540310e+000	-6.842766790554475e+000
1	 7.942814594508111e-001	 1.615276295033541e+000	-7.057853390115205e+000
1	 7.768881892624316e-001	 1.623713421824429e+000	-7.260281389544710e+000
1	 7.594374756351380e-001	 1.631948291327146e+000	-7.449031229924263e+000
1	 7.419327295049752e-001	 1.639980573555821e+000	-7.623116283001861e+000
1	 7.243773551837668e-001	 1.647810012626662e+000	-7.781584681002900e+000
1	 7.067747484208015e-001	 1.655436426200365e+000	-7.923521057544700e+000
1	 6.020621429102250e-001	 1.410174322794896e+000	-1.341010037176533e+000
1	 5.870278516030029e-001	 1.416498737301121e+000	-1.356267513267395e+000
1	 5.719590733564497e-001	 1.422650029986620e+000	-1.359286433968535e+000
1	 5.568586712756409e-001	 1.428628231261313e+000	-1.350311692909987e+000
1	 5.417294947976459e-001	 1.434433431836373e+000	-1.329636475254734e+000
1	 5.265743781829089e-001	 1.440065782013029e+000	-1.297600909231501e+000
1	 5.113961390398313e-001	 1.445525490928912e+000	-1.254590661620293e+000
1	 4.961975768838239e-001	 1.450812825763512e+000	-1.201035481116040e+000
1	 4.809814717320292e-001	 1.455928110904371e+000	-1.137407693536459e+000
1	 4.657505827348304e-001	 1.460871727075660e+000	-1.064220652868973e+000
1	 4.505076468451836e-001	 1.465644110430823e+000	-9.820271521656396e-001
1	 6.125334034609495e-001	 1.434700533135920e+000	-1.971463763359536e+000
1	 5.972376308707766e-001	 1.441134943915833e+000	-1.984742308943405e+000
1	 5.819067715331873e-001	 1.447393221884075e+000	-1.985453342694279e+000
1	 5.665437383493174e-001	 1.453475397979446e+000	-1.973811441155286e+000
1	 5.511514303145781e-001	 1.459381564490778e+000	-1.950080326545147e+000
1	 5.357327309837993e-001	 1.465111874333371e+000	-1.914571549202877e+000
1	 5.202905069701495e-001	 1.470666540282229e+000	-1.867643111960745e+000
1	 5.048276064791278e-001	 1.476045834163695e+000	-1.809698040354455e+000
1	 4.893468578788444e-001	 1.481250086007147e+000	-1.741182902624611e+000
1	 4.738510683077294e-001	 1.486279683158419e+000	-1.662586283497026e+000
1	 4.583430223207198e-001	 1.491135069356658e+000	-1.574437215748891e+000
1	 6.230046640120596e-001	 1.459226743476797e+000	-2.606152617099440e+000
1	 6.074474101389679e-001	 1.465771150530428e+000	-2.620525247732518e+000
1	 5.918544697103533e-001	 1.472136413781435e+000	-2.622239428589522e+000
1	 5.762288054234166e-001	 1.478322564697501e+000	-2.611443139905936e+000
1	 5.605733658319158e-001	 1.484329697145122e+000	-2.588334198994403e+000
1	 5.448910837850698e-001	 1.490157966653669e+000	-2.553159038905059e+000
1	 5.291848749008191e-001	 1.495807589635517e+000	-2.506211425973024e+000
1	 5.134576360747548e-001	 1.501278842563868e+000	-2.447831120034976e+000
1	 4.977122440259597e-001	 1.506572061109939e+000	-2.378402481152520e+000
1	 4.819515538809139e-001	 1.511687639241224e+000	-2.298353026723434e+000
1	 4.661783977965402e-001	 1.516626028282580e+000	-2.208151942893469e+000
1	 6.334759245634387e-001	 1.483752953817541e+000	-3.245889141494190e+000
1	 6.176571894074571e-001	 1.490407357144906e+000	-3.264398524170430e+000
1	 6.018021678878300e-001	 1.496879605678688e+000	-3.270377761268337e+000
1	 5.859138724978267e-001	 1.503169731415457e+000	-3.263873693466545e+000
1	 5.699953013495547e-001	 1.509277829799371e+000	-3.244983527969134e+000
1	 5.540494365866255e-001	 1.515204058973874e+000	-3.213853776998559e+000
1	 5.380792428317556e-001	 1.520948638988721e+000	-3.170679131143603e+000
1	 5.220876656706315e-001	 1.526511850963969e+000	-3.115701271110771e+000
1	 5.060776301733108e-001	 1.531894036212673e+000	-3.049207621497570e+000
1	 4.900520394543282e-001	 1.537095595323997e+000	-2.971530050266747e+000
1	 4.740137732725954e-001	 1.542116987208505e+000	-2.883043517645690e+000
1	 6.439471851149695e-001	 1.508279164158169e+000	-3.891433028408223e+000
1	 6.278669686761252e-001	 1.515043563759268e+000	-3.917093455558396e+000
1	 6.117498660655004e-001	 1.521622797575824e+000	-3.930553728402884e+000
1	 5.955989395724353e-001	 1.528016898133288e+000	-3.931726627870877e+000
1	 5.794172368673897e-001	 1.534225962453487e+000	-3.920575669649018e+000
1	 5.632077893883719e-001	 1.540250151293942e+000	-3.897114264545699e+000
1	 5.469736107628745e-001	 1.546089688341782e+000	-3.861404808713115e+000
1	 5.307176952666834e-001	 1.551744859363929e+000	-3.813557706936501e+000
1	 5.144430163208340e-001	 1.557216011315279e+000	-3.753730332289695e+000
1	 4.981525250279170e-001	 1.562503551406660e+000	-3.682125925538763e+000
1	 4.818491487488355e-001	 1.567607946134351e+000	-3.598992437741146e+000
1	 6.544184456665354e-001	 1.532805374498695e+000	-4.543495346799854e+000
1	 6.380767479448531e-001	 1.539679770373518e+000	-4.579294552361869e+000
1	 6.216975642432467e-001	 1.546365989472827e+000	-4.603408850484827e+000
1	 6.052840066471301e-001	 1.552864064850969e+000	-4.615585561331239e+000
1	 5.888391723853175e-001	 1.559174095107435e+000	-4.615622947526329e+000
1	 5.723661421902138e-001	 1.565296243613825e+000	-4.603369656956084e+000
1	 5.558679786940914e-001	 1.571230737694648e+000	-4.578724089483680e+000
1	 5.393477248628367e-001	 1.576977867763687e+000	-4.541633690351194e+000
1	 5.228084024684643e-001	 1.582537986417684e+000	-4.492094173150467e+000
1	 5.062530106016239e-001	 1.587911507489136e+000	-4.430148675351746e+000
1	 4.896845242252109e-001	 1.593098905060032e+000	-4.355886849473915e+000
1	 6.648897062180196e-001	 1.557331584839138e+000	-5.202742371500252e+000
1	 6.482865272135217e-001	 1.564315976987654e+000	-5.251643203984270e+000
1	 6.316452624209525e-001	 1.571109181369688e+000	-5.289544235117830e+000
1	 6.149690737218001e-001	 1.577711231568476e+000	-5.315997346753730e+000
1	 5.982611079032335e-001	 1.584122227761179e+000	-5.330605411032146e+000
1	 5.815244949920564e-001	 1.590342335933476e+000	-5.333022074791233e+000
1	 5.647623466253220e-001	 1.596371787047260e+000	-5.322951461036152e+000
1	 5.479777544590173e-001	 1.602210876163178e+000	-5.300147789691273e+000
1	 5.311737886161385e-001	 1.607859961519817e+000	-5.264414920005424e+000
1	 5.143534961753934e-001	 1.613319463571345e+000	-5.215605817117938e+000
1	 4.975198997016720e-001	 1.618589863985467e+000	-5.153621945415842e+000
1	 6.753609667693055e-001	 1.581857795179509e+000	-5.869799055808417e+000
1	 6.584963064820117e-001	 1.588952183601679e+000	-5.934741021660104e+000
1	 6.415929605985001e-001	 1.595852373266394e+000	-5.989523709963685e+000
1	 6.246541407963321e-001	 1.602558398285783e+000	-6.033474921911015e+000
1	 6.076830434210330e-001	 1.609070360414681e+000	-6.065973337532192e+000
1	 5.906828477938049e-001	 1.615388428252850e+000	-6.086448699598494e+000
1	 5.736567145564815e-001	 1.621512836399564e+000	-6.094381906825657e+000
1	 5.566077840551514e-001	 1.627443884562336e+000	-6.089305017958798e+000
1	 5.395391747637919e-001	 1.633181936621605e+000	-6.070801168502387e+000
1	 5.224539817491696e-001	 1.638727419653209e+000	-6.038504402029443e+000
1	 5.053552751781693e-001	 1.644080822910571e+000	-5.992099418165210e+000
1	 6.858322273202755e-001	 1.606384005519828e+000	-6.545252185969389e+000
1	 6.687060857502040e-001	 1.613588390215593e+000	-6.629152875113033e+000
1	 6.515406587757721e-001	 1.620595565162931e+000	-6.703876668685949e+000
1	 6.343392078706145e-001	 1.627405565002866e+000	-6.768499898517683e+000
1	 6.171049789386121e-001	 1.634018493067907e+000	-6.822149505121149e+000
1	 5.998412005953645e-001	 1.640434520571898e+000	-6.864003677751078e+000
1	 5.825510824874860e-001	 1.646653885751501e+000	-6.893292395122504e+000
1	 5.652378136511652e-001	 1.652676892961099e+000	-6.909297867633326e+000
1	 5.479045609113603e-001	 1.658503911722977e+000	-6.911354882153000e+000
1	 5.305544673228969e-001	 1.664135375734651e+000	-6.898851050650076e+000
1	 5.131906506546526e-001	 1.669571781835260e+000	-6.871226964135710e+000
1	 6.963034878708130e-001	 1.630910215860108e+000	-7.229653251023398e+000
1	 6.789158650179793e-001	 1.638224596829399e+000	-7.335409655215735e+000
1	 6.614883569526509e-001	 1.645338757059289e+000	-7.433100660104327e+000
1	 6.440242749445354e-001	 1.652252731719701e+000	-7.521524917692261e+000
1	 6.265269144558660e-001	 1.658966625720819e+000	-7.599531260341931e+000
1	 6.089995533966401e-001	 1.665480612890576e+000	-7.666019852503933e+000
1	 5.914454504182501e-001	 1.671794935103017e+000	-7.719943233606450e+000
1	 5.738678432469846e-001	 1.677909901359400e+000	-7.760307252112616e+000
1	 5.562699470587798e-001	 1.683825886823860e+000	-7.786171891014951e+000
1	 5.386549528965191e-001	 1.689543331815590e+000	-7.796651985294752e+000
1	 5.210260261310727e-001	 1.695062740759449e+000	-7.790917832119240e+000
1	 7.067747484208015e-001	 1.655436426200365e+000	-7.923521057544700e+000
1	 6.891256442852183e-001	 1.662860803443095e+000	-8.054010791068460e+000
1	 6.714360551290197e-001	 1.670081948955455e+000	-8.177663747189664e+000
1	 6.537093420179819e-001	 1.677099898436262e+000	-8.292975796034988e+000
1	 6.359488499726910e-001	 1.683914758373383e+000	-8.398492402098549e+000
1	 6.181579061975374e-001	 1.690526705208835e+000	-8.492810342081514e+000
1	 6.003398183486900e-001	 1.696935984454057e+000	-8.574579303546535e+000
1	 5.824978728425352e-001	 1.703142909757176e+000	-8.642503363464931e+000
1	 5.646353332059857e-001	 1.709147861924183e+000	-8.695342346044441e+000
1	 5.467554384699808e-001	 1.714951287895949e+000	-8.731913059531260e+000
1	 5.288614016073797e-001	 1.720553699683057e+000	-8.751090411978030e+000
1	 4.505076468451836e-001	 1.465644110430823e+000	-9.820271521656396e-001
1	 4.352553773090560e-001	 1.470245751245001e+000	-8.911318265736740e-001
1	 4.199964617822380e-001	 1.474677191845686e+000	-7.922585720624658e-001
1	 4.047335618101466e-001	 1.478939026711766e+000	-6.866426869385457e-001
1	 3.894693118802304e-001	 1.483031901808773e+000	-5.755503795902084e-001
1	 3.742063182928812e-001	 1.486956513530291e+000	-4.602757410670502e-001
1	 3.589471580746028e-001	 1.490713607613841e+000	-3.421377375956455e-001
1	 3.436943779339139e-001	 1.494303978033006e+000	-2.224772285529892e-001
1	 3.284504932603850e-001	 1.497728465867564e+000	-1.026540152107756e-001
1	 3.132179871671365e-001	 1.500987958153400e+000	 1.595607465369429e-002
1	 2.979993095770399e-001	 1.504083386713946e+000	 1.319640614072558e-001
1	 4.583430223207198e-001	 1.491135069356658e+000	-1.574437215748891e+000
1	 4.428254803534434e-001	 1.495816743404018e+000	-1.477190063441086e+000
1	 4.273011768062746e-001	 1.500325257060339e+000	-1.371722085658073e+000
1	 4.117728195150919e-001	 1.504661215143897e+000	-1.259253513899518e+000
1	 3.962430887872050e-001	 1.508825274855079e+000	-1.141038726559550e+000
1	 3.807146362526286e-001	 1.512818144699393e+000	-1.018363141127648e+000
1	 3.651900837583481e-001	 1.516640583384481e+000	-8.925401229748128e-001
1	 3.496720223060635e-001	 1.520293398692991e+000	-7.649079165008405e-001
1	 3.341630110338178e-001	 1.523777446333049e+000	-6.368266042103287e-001
1	 3.186655762418404e-001	 1.527093628768171e+000	-5.096750990680899e-001
1	 3.031822104628572e-001	 1.530242894028381e+000	-3.848481752586594e-001
1	 4.661783977965402e-001	 1.516626028282580e+000	-2.208151942893469e+000
1	 4.503955833981298e-001	 1.521387735563174e+000	-2.108413819050136e+000
1	 4.346058918306376e-001	 1.525973322275190e+000	-2.000180394131412e+000
1	 4.188120772204008e-001	 1.530383403576289e+000	-1.884621989835236e+000
1	 4.030168656945870e-001	 1.534618647901714e+000	-1.762946514771811e+000
1	 3.872229542128294e-001	 1.538679775868886e+000	-1.636396330142891e+000
1	 3.714330094425919e-001	 1.542567559155575e+000	-1.506245127090497e+000
1	 3.556496666787524e-001	 1.546282819353483e+000	-1.373794821679521e+000
1	 3.398755288078220e-001	 1.549826426799085e+000	-1.240372473276098e+000
1	 3.241131653171372e-001	 1.553199299383525e+000	-1.107327231871702e+000
1	 3.083651113492741e-001	 1.556402401343417e+000	-9.760273196818805e-001
1	 4.740137732725954e-001	 1.542116987208505e+000	-2.883043517645690e+000
1	 4.579656864430685e-001	 1.546958727722380e+000	-2.784529971366272e+000
1	 4.419106068552816e-001	 1.551621387490147e+000	-2.677203365322555e+000
1	 4.258513349260272e-001	 1.556105592008849e+000	-2.562150937041954e+000
1	 4.097906426023272e-001	 1.560412020948581e+000	-2.440501148299417e+000
1	 3.937312721734311e-001	 1.564541407038679e+000	-2.313420576661971e+000
1	 3.776759351272775e-001	 1.568494534927030e+000	-2.182110812259354e+000
1	 3.616273110519196e-001	 1.572272240014395e+000	-2.047805365868556e+000
1	 3.455880465823344e-001	 1.575875407265591e+000	-1.911766594209914e+000
1	 3.295607543929611e-001	 1.579304969999389e+000	-1.775282648150926e+000
1	 3.135480122362239e-001	 1.582561908658987e+000	-1.639664449301901e+000
1	 4.818491487488355e-001	 1.567607946134351e+000	-3.598992437741146e+000
1	 4.655357894882131e-001	 1.572529719881547e+000	-3.505283163364905e+000
1	 4.492153218801609e-001	 1.577269452705120e+000	-3.402388844682585e+000
1	 4.328905926319242e-001	 1.581827780441484e+000	-3.291282020774219e+000
1	 4.165644195103765e-001	 1.586205393995588e+000	-3.172980284114702e+000
1	 4.002395901343810e-001	 1.590403038208677e+000	-3.048543248997282e+000
1	 3.839188608123486e-001	 1.594421510698755e+000	-2.919069517244968e+000
1	 3.676049554255053e-001	 1.598261660675640e+000	-2.785693647359561e+000
1	 3.513005643572911e-001	 1.601924387732485e+000	-2.649583133084743e+000
1	 3.350083434692461e-001	 1.605410640615688e+000	-2.511935397171433e+000
1	 3.187309131236400e-001	 1.608721415975027e+000	-2.373974805939434e+000
1	 4.896845242252109e-001	 1.593098905060032e+000	-4.355886849473915e+000
1	 4.731058925335175e-001	 1.598100712040590e+000	-4.270434381753972e+000
1	 4.565200369052304e-001	 1.602917517920015e+000	-4.175360416944280e+000
1	 4.399298503380454e-001	 1.607549968874099e+000	-4.071492641640464e+000
1	 4.233381964186858e-001	 1.611998767042638e+000	-3.959707811641000e+000
1	 4.067479080956263e-001	 1.616264669378785e+000	-3.840928846975285e+000
1	 3.901617864977485e-001	 1.620348486470660e+000	-3.716121914821066e+000
1	 3.735825997994487e-001	 1.624251081337129e+000	-3.586293506461018e+000
1	 3.570130821326285e-001	 1.627973368199685e+000	-3.452487514274592e+000
1	 3.404559325459264e-001	 1.631516311232345e+000	-3.315782314598296e+000
1	 3.239138140114558e-001	 1.634880923291471e+000	-3.177287862109460e+000
1	 4.975198997016720e-001	 1.618589863985467e+000	-5.153621945415842e+000
1	 4.806759955789353e-001	 1.623671704199418e+000	-5.079759669997815e+000
1	 4.638247519304444e-001	 1.628565583134742e+000	-4.995765379299072e+000
1	 4.469691080443440e-001	 1.633272157306602e+000	-4.902293121646378e+000
1	 4.301119733272060e-001	 1.637792140089639e+000	-4.800050212208886e+000
1	 4.132562260571145e-001	 1.642126300548911e+000	-4.689794503152727e+000
1	 3.964047121834209e-001	 1.646275462242652e+000	-4.572331630854904e+000
1	 3.795602441736897e-001	 1.650240501998774e+000	-4.448512246265153e+000
1	 3.627255999082826e-001	 1.654022348667107e+000	-4.319229234379209e+000
1	 3.459035216229358e-001	 1.657621981849287e+000	-4.185414928648463e+000
1	 3.290967148996046e-001	 1.661040430608253e+000	-4.048038326000072e+000
1	 5.053552751781693e-001	 1.644080822910571e+000	-5.992099418165210e+000
1	 4.882460986244200e-001	 1.649242696357944e+000	-5.933048961065454e+000
1	 4.711294669557573e-001	 1.654213648349210e+000	-5.863272903126118e+000
1	 4.540083657507736e-001	 1.658994345738900e+000	-5.783224152014910e+000
1	 4.368857502358878e-001	 1.663585513136496e+000	-5.693413257184975e+000
1	 4.197645440187933e-001	 1.667987931718962e+000	-5.594405902546911e+000
1	 4.026476378693090e-001	 1.672202438014639e+000	-5.486820363967178e+000
1	 3.855378885481678e-001	 1.676229922660488e+000	-5.371324937560976e+000
1	 3.684381176841902e-001	 1.680071329134671e+000	-5.248635344656417e+000
1	 3.513511107002089e-001	 1.683727652466438e+000	-5.119512119198644e+000
1	 3.342796157880199e-001	 1.687199937925307e+000	-4.984757983241436e+000
1	 5.131906506546526e-001	 1.669571781835260e+000	-6.871226964135710e+000
1	 4.958162016699257e-001	 1.674813688516081e+000	-6.830105017108814e+000
1	 4.784341819811238e-001	 1.679861713563327e+000	-6.777572364121076e+000
1	 4.610476234572875e-001	 1.684716534170897e+000	-6.713854474806277e+000
1	 4.436595271446824e-001	 1.689378886183114e+000	-6.639239008578151e+000
1	 4.262728619806095e-001	 1.693849562888843e+000	-6.554073576149857e+000
1	 4.088905635553564e-001	 1.698129413786532e+000	-6.458763452269022e+000
1	 3.915155329228229e-001	 1.702219343322185e+000	-6.353769245460730e+000
1	 3.741506354602876e-001	 1.706120309602293e+000	-6.239604530514034e+000
1	 3.567986997776794e-001	 1.709833323083725e+000	-6.116833449375885e+000
1	 3.394625166766352e-001	 1.713359445242568e+000	-5.986068286031983e+000
1	 5.210260261310727e-001	 1.695062740759449e+000	-7.790917832119240e+000
1	 5.033863047154056e-001	 1.700384680673738e+000	-7.770742464813610e+000
1	 4.857388970064985e-001	 1.705509778777000e+000	-7.738371823097340e+000
1	 4.680868811638395e-001	 1.710438722602501e+000	-7.693778773725209e+000
1	 4.504333040535402e-001	 1.715172259229400e+000	-7.637003090281739e+000
1	 4.327811799425113e-001	 1.719711194058462e+000	-7.568149528879657e+000
1	 4.151334892415067e-001	 1.724056389558237e+000	-7.487385840112848e+000
1	 3.974931772975942e-001	 1.728208763983774e+000	-7.394940722821122e+000
1	 3.798631532365108e-001	 1.732169290069892e+000	-7.291101725210166e+000
1	 3.622462888552815e-001	 1.735938993701071e+000	-7.176213098839916e+000
1	 3.446454175653834e-001	 1.739518952559972e+000	-7.050673610948958e+000
1	 5.288614016073797e-001	 1.720553699683057e+000	-8.751090411978030e+000
1	 5.109564077608135e-001	 1.725955672830829e+000	-8.754786916501043e+000
1	 4.930436120318358e-001	 1.731157843990140e+000	-8.745396641834486e+000
1	 4.751261388703822e-001	 1.736160911033619e+000	-8.722615752422238e+000
1	 4.572070809624126e-001	 1.740965632275259e+000	-8.686212201883434e+000
1	 4.392894979044454e-001	 1.745572825227723e+000	-8.636024167283983e+000
1	 4.213764149277031e-001	 1.749983365329664e+000	-8.571958403372381e+000
1	 4.034708216724216e-001	 1.754198184645169e+000	-8.493988522047674e+000
1	 3.855756710127967e-001	 1.758218270537386e+000	-8.402153202359596e+000
1	 3.676938779329494e-001	 1.762044664318403e+000	-8.296554336356167e+000
1	 3.498283184541985e-001	 1.765678459877450e+000	-8.177355116094343e+000
1	 2.979993095770399e-001	 1.504083386713946e+000	 1.319640614072568e-001
1	 2.827991546839796e-001	 1.507015299539558e+000	 2.476634466381039e-001
1	 2.676176157253354e-001	 1.509785191633430e+000	 3.651736076259462e-001
1	 2.524570335663319e-001	 1.512394122787768e+000	 4.827873867820594e-001
1	 2.373197127666052e-001	 1.514843192712843e+000	 5.988034788027828e-001
1	 2.222079208870836e-001	 1.517133539803352e+000	 7.115293800258387e-001
1	 2.071238878404339e-001	 1.519266339896488e+000	 8.192842476563987e-001
1	 1.920698052848553e-001	 1.521242805023325e+000	 9.204016658120759e-001
1	 1.770478260609259e-001	 1.523064182155104e+000	 1.013232315646438e+000
1	 1.620600636711550e-001	 1.524731751945949e+000	 1.096146547115762e+000
1	 1.471085918018470e-001	 1.526246827473539e+000	 1.167536850256660e+000
1	 3.031822104628572e-001	 1.530242894028381e+000	-3.848481752586596e-001
1	 2.877176895336974e-001	 1.533225799634873e+000	-2.599394476551427e-001
1	 2.722721083133522e-001	 1.536043866592425e+000	-1.327257906494014e-001
1	 2.568478483801319e-001	 1.538698173125490e+000	-4.942145924185970e-003
1	 2.414472543753198e-001	 1.541189838070859e+000	 1.216794754634556e-001
1	 2.260726332979972e-001	 1.543520019622557e+000	 2.454130957341058e-001
1	 2.107262538441941e-001	 1.545689914068317e+000	 3.645417832389196e-001
1	 1.954103457901381e-001	 1.547700754519251e+000	 4.773605721533050e-001
1	 1.801270994193073e-001	 1.549553809634328e+000	 5.821792859708255e-001
1	 1.648786649929307e-001	 1.551250382341223e+000	 6.773252620727426e-001
1	 1.496671522635357e-001	 1.552791808555088e+000	 7.611459749620850e-001
1	 3.083651113492741e-001	 1.556402401343417e+000	-9.760273196818816e-001
1	 2.926362243840046e-001	 1.559436299730789e+000	-8.439361513322922e-001
1	 2.769266009019342e-001	 1.562302541552006e+000	-7.087035266242928e-001
1	 2.612386631944633e-001	 1.565002223463775e+000	-5.720506334021839e-001
1	 2.455747959845260e-001	 1.567536483429407e+000	-4.356992339725944e-001
1	 2.299373457093609e-001	 1.569906499442260e+000	-3.013684643512403e-001
1	 2.143286198483649e-001	 1.572113488240614e+000	-1.707717206190725e-001
1	 1.987508862957979e-001	 1.574158704015620e+000	-4.561363601983817e-002
1	 1.832063727780419e-001	 1.576043437113978e+000	 7.241284789101392e-002
1	 1.676972663150494e-001	 1.577769012736919e+000	 1.816293130570441e-001
1	 1.522257127255744e-001	 1.579336789637071e+000	 2.803745970191497e-001
1	 3.135480122362239e-001	 1.582561908658987e+000	-1.639664449301901e+000
1	 2.975547592348355e-001	 1.585646799827250e+000	-1.502224255445513e+000
1	 2.815810934910186e-001	 1.588561216512131e+000	-1.360458128969590e+000
1	 2.656294780092664e-001	 1.591306273802593e+000	-1.216034081395687e+000
1	 2.497023375941673e-001	 1.593883128788470e+000	-1.070624770447013e+000
1	 2.338020581211211e-001	 1.596292979262458e+000	-9.259042547853295e-001
1	 2.179309858528945e-001	 1.598537062413384e+000	-7.835448308670270e-001
1	 2.020914268017831e-001	 1.600616653512443e+000	-6.452139557857671e-001
1	 1.862856461370760e-001	 1.602533064594071e+000	-5.125712596499887e-001
1	 1.705158676374521e-001	 1.604287643133056e+000	-3.872656507262796e-001
1	 1.547842731878955e-001	 1.605881770719505e+000	-2.709325162626927e-001
1	 3.187309131236400e-001	 1.608721415975027e+000	-2.373974805939435e+000
1	 3.024732940861249e-001	 1.611857299924204e+000	-2.232838100599612e+000
1	 2.862355860805422e-001	 1.614819891472758e+000	-2.085837823766063e+000
1	 2.700202928244812e-001	 1.617610324141914e+000	-1.934551366004130e+000
1	 2.538298792041875e-001	 1.620229774148032e+000	-1.780565386784700e+000
1	 2.376667705332243e-001	 1.622679459083146e+000	-1.625472576805035e+000
1	 2.215333518577310e-001	 1.624960636586633e+000	-1.470868495191037e+000
1	 2.054319673080420e-001	 1.627074603009736e+000	-1.318348485648508e+000
1	 1.893649194963556e-001	 1.629022692074626e+000	-1.169504675321389e+000
1	 1.733344689600799e-001	 1.630806273529654e+000	-1.025923059806286e+000
1	 1.573428336504320e-001	 1.632426751802406e+000	-8.891806774623220e-001
1	 3.239138140114558e-001	 1.634880923291471e+000	-3.177287862109460e+000
1	 3.073918289378070e-001	 1.638067800021593e+000	-3.033937836396859e+000
1	 2.908900786704420e-001	 1.641078566433846e+000	-2.882828558064840e+000
1	 2.744111076400478e-001	 1.643914374481710e+000	-2.725411203350261e+000
1	 2.579574208145298e-001	 1.646576419508075e+000	-2.563151376382035e+000
1	 2.415314829456166e-001	 1.649065938904318e+000	-2.397525929776645e+000
1	 2.251357178628226e-001	 1.651384210760366e+000	-2.230019850680785e+000
1	 2.087725078145225e-001	 1.653532552507511e+000	-2.062123216494613e+000
1	 1.924441928558265e-001	 1.655512319555662e+000	-1.895328224213490e+000
1	 1.761530702828740e-001	 1.657324903926732e+000	-1.731126297034485e+000
1	 1.599013941131164e-001	 1.658971732885789e+000	-1.571005271575644e+000
1	 3.290967148996046e-001	 1.661040430608253e+000	-4.048038326000071e+000
1	 3.123103637898164e-001	 1.664278300119365e+000	-3.903799514690075e+000
1	 2.955445712606549e-001	 1.667337241395350e+000	-3.749543155140084e+000
1	 2.788019224559066e-001	 1.670218424821950e+000	-3.586560350526229e+000
1	 2.620849624251379e-001	 1.672923064868585e+000	-3.416162313428666e+000
1	 2.453961953582447e-001	 1.675452418725971e+000	-3.239677294078301e+000
1	 2.287380838681175e-001	 1.677807784934590e+000	-3.058447562467218e+000
1	 2.121130483211732e-001	 1.679990502005783e+000	-2.873826448687538e+000
1	 1.955234662154353e-001	 1.682001947037197e+000	-2.687175445590456e+000
1	 1.789716716057754e-001	 1.683843534324309e+000	-2.499861377584265e+000
1	 1.624599545758813e-001	 1.685516713969673e+000	-2.313253639114686e+000
1	 3.342796157880199e-001	 1.687199937925307e+000	-4.984757983241433e+000
1	 3.172288986420876e-001	 1.690488800217466e+000	-4.840806104441838e+000
1	 3.001990638511178e-001	 1.693595916357230e+000	-4.684211478607819e+000
1	 2.831927372719975e-001	 1.696522475162606e+000	-4.516072904182760e+000
1	 2.662125040359551e-001	 1.699269710229544e+000	-4.337515480147216e+000
1	 2.492609077710546e-001	 1.701838898548099e+000	-4.149687690060727e+000
1	 2.323404498735637e-001	 1.704231359109308e+000	-3.953758526279368e+000
1	 2.154535888279422e-001	 1.706448451504562e+000	-3.750914658810777e+000
1	 1.986027395751276e-001	 1.708491574519248e+000	-3.542357653025718e+000
1	 1.817902729287252e-001	 1.710362164722407e+000	-3.329301240197100e+000
1	 1.650185150386595e-001	 1.712061695054074e+000	-3.112968644588087e+000
1	 3.394625166766352e-001	 1.713359445242568e+000	-5.986068286031984e+000
1	 3.221474334945552e-001	 1.716699300315839e+000	-5.843439329692191e+000
1	 3.048535564417678e-001	 1.719854591319444e+000	-5.685171497588287e+000
1	 2.875835520882611e-001	 1.722826525503650e+000	-5.512140579451452e+000
1	 2.703400456469252e-001	 1.725616355590934e+000	-5.325255354187940e+000
1	 2.531256201839929e-001	 1.728225378370697e+000	-5.125454876703529e+000
1	 2.359428158791093e-001	 1.730654933284528e+000	-4.913705789150504e+000
1	 2.187941293347777e-001	 1.732906401003865e+000	-4.690999661126774e+000
1	 2.016820129348497e-001	 1.734981202001836e+000	-4.458350363144616e+000
1	 1.846088742516645e-001	 1.736880795121043e+000	-4.216791477472886e+000
1	 1.675770755013836e-001	 1.738606676139007e+000	-3.967373750236193e+000
1	 3.446454175653834e-001	 1.739518952559972e+000	-7.050673610948957e+000
1	 3.270659683471535e-001	 1.742909800414432e+000	-6.910272243987943e+000
1	 3.095080490325418e-001	 1.746113266281949e+000	-6.750861158059986e+000
1	 2.919743669046372e-001	 1.749130575845050e+000	-6.573063866000751e+000
1	 2.744675872579915e-001	 1.751963000952741e+000	-6.377544044577286e+000
1	 2.569903325970060e-001	 1.754611858193762e+000	-6.165003069993232e+000
1	 2.395451818847027e-001	 1.757078507460254e+000	-5.936177560040339e+000
1	 2.221346698416279e-001	 1.759364350503703e+000	-5.691836927459632e+000
1	 2.047612862945476e-001	 1.761470829484977e+000	-5.432780948904090e+000
1	 1.874274755745342e-001	 1.763399425520239e+000	-5.159837353718142e+000
1	 1.701356359639863e-001	 1.765151657224491e+000	-4.873859436565445e+000
1	 3.498283184541985e-001	 1.765678459877450e+000	-8.177355116094342e+000
1	 3.319845031998169e-001	 1.769120300513190e+000	-8.039962464895480e+000
1	 3.141625416233765e-001	 1.772371941244703e+000	-7.879810976795613e+000
1	 2.963651817210658e-001	 1.775434626186778e+000	-7.697243970259954e+000
1	 2.785951288690975e-001	 1.778309646314947e+000	-7.492652577846741e+000
1	 2.608550450100400e-001	 1.780998338017287e+000	-7.266473575269361e+000
1	 2.431475478902918e-001	 1.783502081636491e+000	-7.019187197339969e+000
1	 2.254752103484412e-001	 1.785822300004091e+000	-6.751314945362199e+000
1	 2.078405596541675e-001	 1.787960456968690e+000	-6.463417390413020e+000
1	 1.902460768972755e-001	 1.789918055920011e+000	-6.156091976821087e+000
1	 1.726941964264004e-001	 1.791696638310540e+000	-5.829970830006918e+000
1	 1.471085918018470e-001	 1.526246827473539e+000	 1.167536850256658e+000
1	 1.321932148552253e-001	 1.527610946368682e+000	 1.230573947329125e+000
1	 1.173181978656277e-001	 1.528825244973612e+000	 1.288158958073674e+000
1	 1.024855234592909e-001	 1.529891127063641e+000	 1.338358657993799e+000
1	 8.769713199627979e-002	 1.530810023842251e+000	 1.379283363039175e+000
1	 7.295492130094994e-002	 1.531583392679665e+000	 1.409088987106295e+000
1	 5.826074643223184e-002	 1.532212715858080e+000	 1.425978968566380e+000
1	 4.361641949297316e-002	 1.532699499324805e+000	 1.428206066399424e+000
1	 2.902370947754151e-002	 1.533045271454459e+000	 1.414074026776369e+000
1	 1.448434215685826e-002	 1.533251581821384e+000	 1.381939121185065e+000
1	 0.000000000000000e+000	 1.533319999983334e+000	 1.330211557434212e+000
1	 1.496671522635357e-001	 1.552791808555088e+000	 7.611459749620850e-001
1	 1.344923622314420e-001	 1.554179652649703e+000	 8.369639050821863e-001
1	 1.193586341098445e-001	 1.555415070730929e+000	 9.077393624906337e-001
1	 1.042679850074528e-001	 1.556499490988984e+000	 9.713586690020283e-001
1	 8.922238903169807e-002	 1.557434369519299e+000	 1.025750891232573e+000
1	 7.422377701450698e-002	 1.558221189039145e+000	 1.068890240441603e+000
1	 5.927403627859138e-002	 1.558861457611046e+000	 1.098798331876615e+000
1	 4.437501044347406e-002	 1.559356707374226e+000	 1.113546303893493e+000
1	 2.952849927044121e-002	 1.559708493285285e+000	 1.111256797419355e+000
1	 1.473625854557671e-002	 1.559918391869258e+000	 1.090105796609732e+000
1	 0.000000000000000e+000	 1.559987999982150e+000	 1.048324331823048e+000
1	 1.522257127255744e-001	 1.579336789637071e+000	 2.803745970191497e-001
1	 1.367915096080341e-001	 1.580748358931190e+000	 3.721228411530674e-001
1	 1.213990703544734e-001	 1.582004896488756e+000	 4.598830644336092e-001
1	 1.060504465560655e-001	 1.583107854914895e+000	 5.413821707646283e-001
1	 9.074764606759797e-002	 1.584058715196978e+000	 6.143885184306054e-001
1	 7.549263272855974e-002	 1.584858985399321e+000	 6.767146421101463e-001
1	 6.028732612543471e-002	 1.585510199364770e+000	 7.262198261271063e-001
1	 4.513360139441194e-002	 1.586013915424461e+000	 7.608125289001771e-001
1	 3.003328906368742e-002	 1.586371715116971e+000	 7.784526588773315e-001
1	 1.498817493449885e-002	 1.586585201918022e+000	 7.771537025575356e-001
1	 0.000000000000000e+000	 1.586655999981867e+000	 7.549847054993056e-001
1	 1.547842731878955e-001	 1.605881770719505e+000	-2.709325162626931e-001
1	 1.390906569849223e-001	 1.607317065213150e+000	-1.599408448229724e-001
1	 1.234395065994218e-001	 1.608594722247091e+000	-5.123770101099180e-002
1	 1.078329081050230e-001	 1.609716218841355e+000	 5.276414569129937e-002
1	 9.227290310386338e-002	 1.610683060875255e+000	 1.496916064714813e-001
1	 7.676148844298673e-002	 1.611496781760144e+000	 2.372142980684015e-001
1	 6.130061597264214e-002	 1.612158941119188e+000	 3.130474118456889e-001
1	 4.589219234567812e-002	 1.612671123475431e+000	 3.749544267045170e-001
1	 3.053807885719368e-002	 1.613034936949425e+000	 4.207496658373860e-001
1	 1.524009132357377e-002	 1.613252011967577e+000	 4.483006976649342e-001
1	 0.000000000000000e+000	 1.613323999982383e+000	 4.555305816254848e-001
1	 1.573428336504320e-001	 1.632426751802406e+000	-8.891806774623220e-001
1	 1.413898043620276e-001	 1.633885771495591e+000	-7.554794764355683e-001
1	 1.254799428445967e-001	 1.635184548005932e+000	-6.217220785303115e-001
1	 1.096153696542196e-001	 1.636324582768350e+000	-4.904423893550541e-001
1	 9.379816014037826e-002	 1.637307406554097e+000	-3.641368801092096e-001
1	 7.803034415766655e-002	 1.638134578121565e+000	-2.452612783299632e-001
1	 6.231390582009404e-002	 1.638807682874235e+000	-1.362274203067223e-001
1	 4.665078329716386e-002	 1.639328331527060e+000	-3.940026583037921e-002
1	 3.104286865087352e-002	 1.639698158782560e+000	 4.290492443220381e-002
1	 1.549200771275058e-002	 1.639918822017827e+000	 1.084252490145605e-001
1	 0.000000000000000e+000	 1.639991999983600e+000	 1.549526636043442e-001
1	 1.599013941131164e-001	 1.658971732885789e+000	-1.571005271575644e+000
1	 1.436889517392707e-001	 1.660454477778524e+000	-1.410985241514810e+000
1	 1.275203790899055e-001	 1.661774373765276e+000	-1.247918881031411e+000
1	 1.113978312035494e-001	 1.662932946695862e+000	-1.084443824597264e+000
1	 9.532341717702637e-002	 1.663931752233472e+000	-9.231629810317168e-001
1	 7.929919987247772e-002	 1.664772374483535e+000	-7.666409576195026e-001
1	 6.332719566767064e-002	 1.665456424629846e+000	-6.174006505976482e-001
1	 4.740937424876045e-002	 1.665985539579266e+000	-4.779200030002316e-001
1	 3.154765844464044e-002	 1.666361380616284e+000	-3.506289304472288e-001
1	 1.574392410197837e-002	 1.666585632068675e+000	-2.379064150761819e-001
1	 0.000000000000000e+000	 1.666659999985417e+000	-1.420777674425151e-001
1	 1.624599545758813e-001	 1.685516713969673e+000	-2.313253639114686e+000
1	 1.459880991165724e-001	 1.687023184061957e+000	-2.123171304179808e+000
1	 1.295608153352552e-001	 1.688364199525119e+000	-1.926406929681846e+000
1	 1.131802927529066e-001	 1.689541310623874e+000	-1.725685530503514e+000
1	 9.684867421369169e-002	 1.690556097913347e+000	-1.523700557709541e+000
1	 8.056805558729877e-002	 1.691410170846005e+000	-1.323110073067531e+000
1	 6.434048551525232e-002	 1.692105166385958e+000	-1.126533093514778e+000
1	 4.816796520035917e-002	 1.692642747631972e+000	-9.365461068823930e-001
1	 3.205244823840803e-002	 1.693024602450508e+000	-7.556797597653601e-001
1	 1.599584049120625e-002	 1.693252442120022e+000	-5.864157180201883e-001
1	 0.000000000000000e+000	 1.693327999987733e+000	-4.311836999785407e-001
1	 1.650185150386595e-001	 1.712061695054074e+000	-3.112968644588085e+000
1	 1.482872464938533e-001	 1.713591890345898e+000	-2.888954673998033e+000
1	 1.316012515805531e-001	 1.714954025285460e+000	-2.653977222879251e+000
1	 1.149627543021853e-001	 1.716149674552370e+000	-2.410833331218468e+000
1	 9.837393125025805e-002	 1.717180443593689e+000	-2.162292081260869e+000
1	 8.183691130200831e-002	 1.718047967208927e+000	-1.911090538802577e+000
1	 6.535377536271937e-002	 1.718753908142505e+000	-1.659929866908261e+000
1	 4.892655615185134e-002	 1.719299955685101e+000	-1.411471613689056e+000
1	 3.255723803208980e-002	 1.719687824285142e+000	-1.168334175340493e+000
1	 1.624775688038331e-002	 1.719919252171772e+000	-9.330894352112295e-001
1	 0.000000000000000e+000	 1.719995999990450e+000	-7.082595792641214e-001
1	 1.675770755013836e-001	 1.738606676139007e+000	-3.967373750236193e+000
1	 1.505863938710343e-001	 1.740160596630359e+000	-3.705440644462294e+000
1	 1.336416878257064e-001	 1.741543851046296e+000	-3.427616738682212e+000
1	 1.167452158512796e-001	 1.742758038481330e+000	-3.136756675171726e+000
1	 9.989918828660938e-002	 1.743804789274466e+000	-2.835691180487416e+000
1	 8.310576701648489e-002	 1.744685763572250e+000	-2.527222789276998e+000
1	 6.636706520995218e-002	 1.745402649899424e+000	-2.214121741918760e+000
1	 4.968514710312822e-002	 1.745957163738571e+000	-1.899122057958385e+000
1	 3.306202782559926e-002	 1.746351046120098e+000	-1.584917786854522e+000
1	 1.649967326945867e-002	 1.746586062223828e+000	-1.274159437105069e+000
1	 0.000000000000000e+000	 1.746663999993467e+000	-9.694505843968703e-001
1	 1.701356359639863e-001	 1.765151657224491e+000	-4.873859436565449e+000
1	 1.528855412480362e-001	 1.766729302915345e+000	-4.569908635586826e+000
1	 1.356821240706222e-001	 1.768133676807624e+000	-4.244493698750195e+000
1	 1.185276774000838e-001	 1.769366402410742e+000	-3.900513324204652e+000
1	 1.014244453226295e-001	 1.770429134955646e+000	-3.540846764552120e+000
1	 8.437462273060702e-002	 1.771323559935927e+000	-3.168349348334132e+000
1	 6.738035505683096e-002	 1.772051391656648e+000	-2.785848175704650e+000
1	 5.044373805408110e-002	 1.772614371792308e+000	-2.396137990591252e+000
1	 3.356681761884998e-002	 1.773014267955283e+000	-2.001977231177468e+000
1	 1.675158965838142e-002	 1.773252872276091e+000	-1.606084260084418e+000
1	 0.000000000000000e+000	 1.773331999996684e+000	-1.211133775187131e+000
1	 1.726941964264004e-001	 1.791696638310540e+000	-5.829970830006915e+000
1	 1.551846886247798e-001	 1.793298009200867e+000	-5.479799295001883e+000
1	 1.377225603152077e-001	 1.794723502569440e+000	-5.101944142220793e+000
1	 1.203101389484920e-001	 1.795974766340585e+000	-4.699335403732110e+000
1	 1.029497023582024e-001	 1.797053480637194e+000	-4.274888557044240e+000
1	 8.564347844425330e-002	 1.797961356299908e+000	-3.831499858876158e+000
1	 6.839364490323611e-002	 1.798700133414114e+000	-3.372041852445929e+000
1	 5.120232900460125e-002	 1.799271579846228e+000	-2.899359050917458e+000
1	 3.407160741175545e-002	 1.799677489790610e+000	-2.416263799165449e+000
1	 1.700350604710066e-002	 1.799919682328466e+000	-1.925532315551548e+000
1	 0.000000000000000e+000	 1.800000000000000e+000	-1.429900914950547e+000
1	 1.800000000000000e+000	 0.000000000000000e+000	 4.126369049091846e+001
1	 1.799919682328466e+000	 1.700350604710072e-002	 4.047228700345750e+001
1	 1.799677489790610e+000	 3.407160741175556e-002	 3.968804007064590e+001
1	 1.799271579846229e+000	 5.120232900460112e-002	 3.890927441475235e+001
1	 1.798700133414114e+000	 6.839364490323605e-002	 3.813429259098105e+001
1	 1.797961356299907e+000	 8.564347844425327e-002	 3.736137684177503e+001
1	 1.797053480637195e+000	 1.029497023582024e-001	 3.658879103616869e+001
1	 1.795974766340585e+000	 1.203101389484920e-001	 3.581478269346317e+001
1	 1.794723502569440e+000	 1.377225603152076e-001	 3.503758509028739e+001
1	 1.793298009200867e+000	 1.551846886247796e-001	 3.425541944988977e+001
1	 1.791696638310540e+000	 1.726941964264003e-001	 3.346649721228189e+001
1	 1.826668000003317e+000	 0.000000000000000e+000	 4.268689561498215e+001
1	 1.826586492380854e+000	 1.725542243558252e-002	 4.185476413527621e+001
1	 1.826340711625984e+000	 3.457639720425813e-002	 4.102898281925633e+001
1	 1.825928787900252e+000	 5.196091995461603e-002	 4.020784510268314e+001
1	 1.825348875171750e+000	 6.940693474908760e-002	 3.938962306488372e+001
1	 1.824599152664132e+000	 8.691233415734241e-002	 3.857256934688129e+001
1	 1.823677826319064e+000	 1.044749593932500e-001	 3.775491915515539e+001
1	 1.822583130270824e+000	 1.220926004964327e-001	 3.693489235020913e+001
1	 1.821313328331721e+000	 1.397629965593995e-001	 3.611069561890546e+001
1	 1.819866715486908e+000	 1.574838360012101e-001	 3.528052472931042e+001
1	 1.818241619397146e+000	 1.752527568885780e-001	 3.444256686655486e+001
1	 1.853336000006534e+000	 0.000000000000000e+000	 4.414257784474268e+001
1	 1.853253302433154e+000	 1.750733882386080e-002	 4.326923457886770e+001
1	 1.853003933461306e+000	 3.508118699641538e-002	 4.240116920562733e+001
1	 1.852585995954273e+000	 5.271951090419778e-002	 4.153665843959512e+001
1	 1.851997616929445e+000	 7.042022459446448e-002	 4.067395986288701e+001
1	 1.851236949028488e+000	 8.818118986995370e-002	 3.981131391722910e+001
1	 1.850302172001139e+000	 1.060002164278468e-001	 3.894694598027844e+001
1	 1.849191494201343e+000	 1.238750620439718e-001	 3.807906852519712e+001
1	 1.847903154094349e+000	 1.418034328032531e-001	 3.720588336226106e+001
1	 1.846435421773350e+000	 1.597829833773704e-001	 3.632558396105898e+001
1	 1.844786600484193e+000	 1.778113173505509e-001	 3.543635785160915e+001
1	 1.880004000009551e+000	 0.000000000000000e+000	 4.562801249463493e+001
1	 1.879920112485265e+000	 1.775925521198643e-002	 4.471268801837395e+001
1	 1.879667155296469e+000	 3.558597678831360e-002	 4.380134730248042e+001
1	 1.879243204008180e+000	 5.347810185345472e-002	 4.289226422470942e+001
1	 1.878646358687084e+000	 7.143351443948540e-002	 4.198369712855174e+001
1	 1.877874745392853e+000	 8.945004558220661e-002	 4.107389089909782e+001
1	 1.876926517683292e+000	 1.075254734621056e-001	 4.016107911985844e+001
1	 1.875799858132006e+000	 1.256575235912099e-001	 3.924348630928684e+001
1	 1.874492979857182e+000	 1.438438690468528e-001	 3.831933023552697e+001
1	 1.873004128060052e+000	 1.620821307533283e-001	 3.738682430768652e+001
1	 1.871331581571538e+000	 1.803698778123701e-001	 3.644418004170352e+001
1	 1.906672000012268e+000	 0.000000000000000e+000	 4.714062731622839e+001
1	 1.906586922537085e+000	 1.801117160001031e-002	 4.618228255514933e+001
1	 1.906330377131368e+000	 3.609076658003917e-002	 4.522644711711565e+001
1	 1.905900412061863e+000	 5.423669280249505e-002	 4.427140528457753e+001
1	 1.905295100444551e+000	 7.244680428426897e-002	 4.331543074119261e+001
1	 1.904512541757102e+000	 9.071890129422063e-002	 4.235678874110557e+001
1	 1.903550863365390e+000	 1.090507304961390e-001	 4.139373835400519e+001
1	 1.902408222062676e+000	 1.274399851382472e-001	 4.042453478437277e+001
1	 1.901082805620080e+000	 1.458843052902832e-001	 3.944743176311373e+001
1	 1.899572834346869e+000	 1.643812781291511e-001	 3.846068400954042e+001
1	 1.897876562659040e+000	 1.829284382740870e-001	 3.746254976144545e+001
1	 1.933340000014584e+000	 0.000000000000000e+000	 4.867799198483125e+001
1	 1.933253732588514e+000	 1.826308798798332e-002	 4.767533309223898e+001
1	 1.932993598965897e+000	 3.659555637167841e-002	 4.667356804361494e+001
1	 1.932557620115213e+000	 5.499528375142715e-002	 4.567100416023163e+001
1	 1.931943842201727e+000	 7.346009412893391e-002	 4.466594440241988e+001
1	 1.931150338121113e+000	 9.198775700611517e-002	 4.365668964165550e+001
1	 1.930175209047304e+000	 1.105759875300598e-001	 4.264154100139928e+001
1	 1.929016585993217e+000	 1.292224466851841e-001	 4.161880226469508e+001
1	 1.927672631382903e+000	 1.479247415336291e-001	 4.058678234631231e+001
1	 1.926141540633660e+000	 1.666804255049063e-001	 3.954379782699722e+001
1	 1.924421543746556e+000	 1.854869987357526e-001	 3.848817554717339e+001
1	 1.960008000016401e+000	 0.000000000000000e+000	 5.023780844437056e+001
1	 1.959920542639449e+000	 1.851500437595633e-002	 4.918930066710742e+001
1	 1.959656820799952e+000	 3.710034616331763e-002	 4.813996733940223e+001
1	 1.959214828168119e+000	 5.575387470035925e-002	 4.708815088114844e+001
1	 1.958592583958498e+000	 7.447338397359885e-002	 4.603219685852578e+001
1	 1.957788134484761e+000	 9.325661271800975e-002	 4.497045636807326e+001
1	 1.956799554728904e+000	 1.121012445639806e-001	 4.390128848067714e+001
1	 1.955624949923494e+000	 1.310049082321211e-001	 4.282306274299641e+001
1	 1.954262457145510e+000	 1.499651777769750e-001	 4.173416173363342e+001
1	 1.952710246920282e+000	 1.689795728806617e-001	 4.063298367113951e+001
1	 1.950966524833943e+000	 1.880455591974182e-001	 3.951794507072851e+001
1	 1.986676000017618e+000	 0.000000000000000e+000	 5.181790202990128e+001
1	 1.986587352689790e+000	 1.876692076398024e-002	 5.072178264351447e+001
1	 1.986320042633429e+000	 3.760513595504324e-002	 4.962304952990846e+001
1	 1.985872036220470e+000	 5.651246564939969e-002	 4.852009172390455e+001
1	 1.985241325714745e+000	 7.548667381838249e-002	 4.741131015198697e+001
1	 1.984425930847923e+000	 9.452546843002384e-002	 4.629512013733823e+001
1	 1.983423900410058e+000	 1.136265015980141e-001	 4.516995395416942e+001
1	 1.982233313853369e+000	 1.327873697791584e-001	 4.403426342831265e+001
1	 1.980852282907762e+000	 1.520056140204056e-001	 4.288652258083300e+001
1	 1.979278953206592e+000	 1.712787202564845e-001	 4.172523031120522e+001
1	 1.977511505921061e+000	 1.906041196591351e-001	 4.054891311639294e+001
1	 2.013344000018134e+000	 0.000000000000000e+000	 5.341621329564288e+001
1	 2.013254162739435e+000	 1.901883715210593e-002	 5.227050368288053e+001
1	 2.012983264466222e+000	 3.810992574694156e-002	 5.112035665528733e+001
1	 2.012529244272157e+000	 5.727105659865670e-002	 4.996421886422392e+001
1	 2.011890067470352e+000	 7.649996366340349e-002	 4.880055880666433e+001
1	 2.011063727210476e+000	 9.579432414227686e-002	 4.762786945997863e+001
1	 2.010048246090639e+000	 1.151517586322731e-001	 4.644467095363795e+001
1	 2.008841677782708e+000	 1.345698313263965e-001	 4.524951327418266e+001
1	 2.007442108669516e+000	 1.540460502640053e-001	 4.404097899958963e+001
1	 2.005847659492447e+000	 1.735778676324424e-001	 4.281768605897205e+001
1	 2.004056487007765e+000	 1.931626801209543e-001	 4.157829051334589e+001
1	 2.040012000017850e+000	 0.000000000000000e+000	 5.503079048398286e+001
1	 2.039920972788282e+000	 1.927075354038426e-002	 5.383330742381074e+001
1	 2.039646486298226e+000	 3.861471553909891e-002	 5.262955928212852e+001
1	 2.039186452323067e+000	 5.802964754823859e-002	 5.141806084066506e+001
1	 2.038538809225204e+000	 7.751325350878056e-002	 5.019735986125957e+001
1	 2.037701523572295e+000	 9.706317985488830e-002	 4.896603985899382e+001
1	 2.036672591770513e+000	 1.166770156668700e-001	 4.772272289815120e+001
1	 2.035450041711373e+000	 1.363522928739358e-001	 4.646607240664534e+001
1	 2.034031934430634e+000	 1.560864865078590e-001	 4.519479600436383e+001
1	 2.032416365777704e+000	 1.758770150086029e-001	 4.390764834068038e+001
1	 2.030601468093916e+000	 1.957212405829273e-001	 4.260343393620094e+001
1	 2.066680000016667e+000	 0.000000000000000e+000	 5.665978257755045e+001
1	 2.066587782836231e+000	 1.952266992886615e-002	 5.540814880581361e+001
1	 2.066309708129336e+000	 3.911950533160163e-002	 5.414844821106843e+001
1	 2.065843660373092e+000	 5.878823849825369e-002	 5.287927375663604e+001
1	 2.065187550979181e+000	 7.852654335463230e-002	 5.159926367440923e+001
1	 2.064339319933258e+000	 9.833203556797766e-002	 5.030710438476558e+001
1	 2.063296937449552e+000	 1.182022727019178e-001	 4.900153342351387e+001
1	 2.062058405639229e+000	 1.381347544218766e-001	 4.768134237075028e+001
1	 2.060621760190974e+000	 1.581269227520511e-001	 4.634537977631073e+001
1	 2.058985072062221e+000	 1.781761623850334e-001	 4.499255407632617e+001
1	 2.057146449179369e+000	 1.982798010451051e-001	 4.362183649521298e+001
1	 1.791696638310540e+000	 1.726941964264003e-001	 3.346649721228189e+001
1	 1.789918055920011e+000	 1.902460768972756e-001	 3.267940035860746e+001
1	 1.787960456968690e+000	 2.078405596541674e-001	 3.190292977289154e+001
1	 1.785822300004091e+000	 2.254752103484413e-001	 3.113599045402314e+001
1	 1.783502081636491e+000	 2.431475478902916e-001	 3.037750818022266e+001
1	 1.780998338017287e+000	 2.608550450100400e-001	 2.962643157212509e+001
1	 1.778309646314947e+000	 2.785951288690977e-001	 2.888173416659578e+001
1	 1.775434626186778e+000	 2.963651817210658e-001	 2.814241649752677e+001
1	 1.772371941244703e+000	 3.141625416233767e-001	 2.740750817972885e+001
1	 1.769120300513190e+000	 3.319845031998169e-001	 2.667606999190733e+001
1	 1.765678459877450e+000	 3.498283184541985e-001	 2.594719595458998e+001
1	 1.818241619397146e+000	 1.752527568885780e-001	 3.444256686655486e+001
1	 1.816436686320356e+000	 1.930646782198457e-001	 3.360580410045760e+001
1	 1.814450084452968e+000	 2.109198330136685e-001	 3.277946476312379e+001
1	 1.812280249505019e+000	 2.288157508551775e-001	 3.196249669027971e+001
1	 1.809925655813227e+000	 2.467499138958354e-001	 3.115387225318126e+001
1	 1.807384817841255e+000	 2.647197574230519e-001	 3.035259042386865e+001
1	 1.804656291677526e+000	 2.827226704801977e-001	 2.955767884463811e+001
1	 1.801738676528800e+000	 3.007559965374987e-001	 2.876819589779315e+001
1	 1.798630616207665e+000	 3.188170342142214e-001	 2.798323277161601e+001
1	 1.795330800612061e+000	 3.369030380524929e-001	 2.720191551838209e+001
1	 1.791837967194950e+000	 3.550112193430273e-001	 2.642340710013335e+001
1	 1.844786600484193e+000	 1.778113173505509e-001	 3.543635785160915e+001
1	 1.842955316721160e+000	 1.958832795422660e-001	 3.454763322297484e+001
1	 1.840939711937706e+000	 2.139991063730644e-001	 3.366909843859938e+001
1	 1.838738199006388e+000	 2.321562913618431e-001	 3.279975109857708e+001
1	 1.836349229990372e+000	 2.503522799013354e-001	 3.193861761816850e+001
1	 1.833771297665584e+000	 2.685844698360398e-001	 3.108475529463711e+001
1	 1.831002937040409e+000	 2.868502120912876e-001	 3.023725437088644e+001
1	 1.828042726871060e+000	 3.051468113539312e-001	 2.939524009175248e+001
1	 1.824889291170791e+000	 3.234715268050728e-001	 2.855787474869366e+001
1	 1.821541300711023e+000	 3.418215729051807e-001	 2.772435970851667e+001
1	 1.817997474512457e+000	 3.601941202318723e-001	 2.689393742168231e+001
1	 1.871331581571538e+000	 1.803698778123701e-001	 3.644418004170353e+001
1	 1.869473947122285e+000	 1.987018808645739e-001	 3.550130494728927e+001
1	 1.867429339422771e+000	 2.170783797323811e-001	 3.456836771079117e+001
1	 1.865196148508078e+000	 2.354968318684564e-001	 3.364442238688194e+001
1	 1.862772804167814e+000	 2.539546459068037e-001	 3.272855663608434e+001
1	 1.860157777490180e+000	 2.724491822490121e-001	 3.181989379257951e+001
1	 1.857349582403519e+000	 2.909777537023743e-001	 3.091759492051433e+001
1	 1.854346777213499e+000	 3.095376261703707e-001	 3.002086085443046e+001
1	 1.851147966134042e+000	 3.281260193959392e-001	 2.912893421933824e+001
1	 1.847751800810049e+000	 3.467401077578917e-001	 2.824110142586854e+001
1	 1.844156981829971e+000	 3.653770211207496e-001	 2.735669463585578e+001
1	 1.897876562659040e+000	 1.829284382740870e-001	 3.746254976144545e+001
1	 1.895992577523594e+000	 2.015204821868070e-001	 3.646343693917608e+001
1	 1.893918966908032e+000	 2.201576530916455e-001	 3.547400323953688e+001
1	 1.891654098009965e+000	 2.388373723750355e-001	 3.449336563794662e+001
1	 1.889196378345448e+000	 2.575570119122527e-001	 3.352068000570653e+001
1	 1.886544257314950e+000	 2.763138946619772e-001	 3.255514317815138e+001
1	 1.883696227766776e+000	 2.951052953134651e-001	 3.159599500212641e+001
1	 1.880650827556055e+000	 3.139284409868237e-001	 3.064252035815833e+001
1	 1.877406641097374e+000	 3.327805119868296e-001	 2.969405115260266e+001
1	 1.873962300909120e+000	 3.516586426106381e-001	 2.874996827497556e+001
1	 1.870316489147490e+000	 3.705599220096755e-001	 2.780970351561413e+001
1	 1.924421543746556e+000	 1.854869987357526e-001	 3.848817554717338e+001
1	 1.922511207924948e+000	 2.043390835090027e-001	 3.743083348464341e+001
1	 1.920408594393359e+000	 2.232369264508839e-001	 3.638291607046112e+001
1	 1.918112047511930e+000	 2.421779128815985e-001	 3.534360945527745e+001
1	 1.915619952523162e+000	 2.611593779176943e-001	 3.431214446395440e+001
1	 1.912930737139797e+000	 2.801786070749439e-001	 3.328779866341124e+001
1	 1.910042873130104e+000	 2.992328369245657e-001	 3.226989839976606e+001
1	 1.906954877898667e+000	 3.183192558032973e-001	 3.125782079986257e+001
1	 1.903665316060748e+000	 3.374350045777525e-001	 3.025099573220384e+001
1	 1.900172801008211e+000	 3.565771774634312e-001	 2.924890772225496e+001
1	 1.896475996465010e+000	 3.757428228986662e-001	 2.825109781703277e+001
1	 1.950966524833943e+000	 1.880455591974182e-001	 3.951794507072851e+001
1	 1.949029838326206e+000	 2.071576848311984e-001	 3.840047279409554e+001
1	 1.946898221878620e+000	 2.263161998101231e-001	 3.729218536326977e+001
1	 1.944569997013850e+000	 2.455184533881637e-001	 3.619234415845988e+001
1	 1.942043526700847e+000	 2.647617439231412e-001	 3.510026149025867e+001
1	 1.939317216964629e+000	 2.840433194879206e-001	 3.401530266652056e+001
1	 1.936389518493424e+000	 3.033603785356841e-001	 3.293688801765762e+001
1	 1.933258928241277e+000	 3.227100706197985e-001	 3.186449487514527e+001
1	 1.929923991024120e+000	 3.420894971687166e-001	 3.079765949797598e+001
1	 1.926383301107304e+000	 3.614957123162832e-001	 2.973597894175985e+001
1	 1.922635503782531e+000	 3.809257237877376e-001	 2.867911286514483e+001
1	 1.977511505921061e+000	 1.906041196591351e-001	 4.054891311639293e+001
1	 1.975548468727234e+000	 2.099762861534317e-001	 3.936949532902593e+001
1	 1.973387849363684e+000	 2.293954731693894e-001	 3.819904710841511e+001
1	 1.971027946515604e+000	 2.488589938947491e-001	 3.703691092923901e+001
1	 1.968467100878397e+000	 2.683641099286054e-001	 3.588248692068785e+001
1	 1.965703696789349e+000	 2.879080319009157e-001	 3.473523493169212e+001
1	 1.962736163856657e+000	 3.074879201468265e-001	 3.359467654285899e+001
1	 1.959562978583822e+000	 3.271008854363341e-001	 3.246039701958726e+001
1	 1.956182665987450e+000	 3.467439897597304e-001	 3.133204720079617e+001
1	 1.952593801206374e+000	 3.664142471692058e-001	 3.020934531768357e+001
1	 1.948795011100049e+000	 3.861086246769064e-001	 2.909207873692432e+001
1	 2.004056487007765e+000	 1.931626801209543e-001	 4.157829051334589e+001
1	 2.002067099127891e+000	 2.127948874757400e-001	 4.033519305643153e+001
1	 1.999877476848420e+000	 2.324747465287094e-001	 3.910088374048908e+001
1	 1.997485896017071e+000	 2.521995344013732e-001	 3.787479182020130e+001
1	 1.994890675055700e+000	 2.719664759340992e-001	 3.665641138747871e+001
1	 1.992090176613864e+000	 2.917727443139377e-001	 3.544530343434339e+001
1	 1.989082809219724e+000	 3.116154617579996e-001	 3.424109784998800e+001
1	 1.985867028926242e+000	 3.314917002529110e-001	 3.304349534613794e+001
1	 1.982441340950695e+000	 3.513984823508029e-001	 3.185226930482961e+001
1	 1.978804301305400e+000	 3.713327820222112e-001	 3.066726754271762e+001
1	 1.974954518417563e+000	 3.912915255661883e-001	 2.948841398604320e+001
1	 2.030601468093916e+000	 1.957212405829273e-001	 4.260343393620094e+001
1	 2.028585729528039e+000	 2.156134887981609e-001	 4.129499954605550e+001
1	 2.026367104332694e+000	 2.355540198881095e-001	 3.999521456628890e+001
1	 2.023943845518130e+000	 2.555400749080538e-001	 3.870360054712422e+001
1	 2.021314249232647e+000	 2.755688419396347e-001	 3.741975150844073e+001
1	 2.018476656438079e+000	 2.956374567269953e-001	 3.614333599960239e+001
1	 2.015429454582549e+000	 3.157430033692104e-001	 3.487409908011767e+001
1	 2.012171079268478e+000	 3.358825150695361e-001	 3.361186421489443e+001
1	 2.008700015913814e+000	 3.560529749419423e-001	 3.235653507786001e+001
1	 2.005014801404359e+000	 3.762513168753105e-001	 3.110809725773924e+001
1	 2.001114025735070e+000	 3.964744264555998e-001	 2.986661985982600e+001
1	 2.057146449179369e+000	 1.982798010451051e-001	 4.362183649521298e+001
1	 2.055104359927541e+000	 2.184320901207318e-001	 4.224648083432819e+001
1	 2.052856731816378e+000	 2.386332932476165e-001	 4.087968693396742e+001
1	 2.050401795018658e+000	 2.588806154148092e-001	 3.952107399420689e+001
1	 2.047737823409130e+000	 2.791712079452241e-001	 3.817034175850089e+001
1	 2.044863136261900e+000	 2.995021691400968e-001	 3.682727256973189e+001
1	 2.041776099945052e+000	 3.198705449804656e-001	 3.549173333294516e+001
1	 2.038475129610468e+000	 3.402733298862165e-001	 3.416367737814871e+001
1	 2.034958690876766e+000	 3.607074675331576e-001	 3.284314621658530e+001
1	 2.031225301503230e+000	 3.811698517285159e-001	 3.153027118393110e+001
1	 2.027273533052570e+000	 4.016573273451569e-001	 3.022527496394363e+001
1	 1.765678459877450e+000	 3.498283184541985e-001	 2.594719595458998e+001
1	 1.762044664318403e+000	 3.676938779329496e-001	 2.522763469372027e+001
1	 1.758218270537386e+000	 3.855756710127969e-001	 2.452441364450644e+001
1	 1.754198184645169e+000	 4.034708216724215e-001	 2.383677742449419e+001
1	 1.749983365329663e+000	 4.213764149277031e-001	 2.316401734777676e+001
1	 1.745572825227723e+000	 4.392894979044454e-001	 2.250547344391080e+001
1	 1.740965632275259e+000	 4.572070809624127e-001	 2.186053643118216e+001
1	 1.736160911033618e+000	 4.751261388703825e-001	 2.122864963903822e+001
1	 1.731157843990140e+000	 4.930436120318356e-001	 2.060931087448868e+001
1	 1.725955672830830e+000	 5.109564077608136e-001	 2.000207422727419e+001
1	 1.720553699683057e+000	 5.288614016073797e-001	 1.940655180861648e+001
1	 1.791837967194950e+000	 3.550112193430273e-001	 2.642340710013335e+001
1	 1.788150334935661e+000	 3.731414670106319e-001	 2.565472654046031e+001
1	 1.784267251004713e+000	 3.912881887890966e-001	 2.490317840939204e+001
1	 1.780187605306307e+000	 4.094484660472604e-001	 2.416806992993228e+001
1	 1.775910341100748e+000	 4.276193406139058e-001	 2.344875914165227e+001
1	 1.771434456396564e+000	 4.457978158663766e-001	 2.274465689287136e+001
1	 1.766759005320630e+000	 4.639808578712684e-001	 2.205522877907789e+001
1	 1.761883099464191e+000	 4.821653965768894e-001	 2.137999702226329e+001
1	 1.756805909202691e+000	 5.003483270571109e-001	 2.071854228584143e+001
1	 1.751526664987303e+000	 5.185265108061258e-001	 2.007050541984172e+001
1	 1.746044658606035e+000	 5.366967770835491e-001	 1.943558913109558e+001
1	 1.817997474512457e+000	 3.601941202318723e-001	 2.689393742168230e+001
1	 1.814256005552847e+000	 3.785890560883355e-001	 2.607391712147093e+001
1	 1.810316231471889e+000	 3.970007065654229e-001	 2.527190217968783e+001
1	 1.806177025967220e+000	 4.154261104221302e-001	 2.448727504259415e+001
1	 1.801837316871536e+000	 4.338622663001412e-001	 2.371947297865564e+001
1	 1.797296087565045e+000	 4.523061338283390e-001	 2.296799002042319e+001
1	 1.792552378365584e+000	 4.707546347801496e-001	 2.223237884419578e+001
1	 1.787605287894299e+000	 4.892046542834107e-001	 2.151225258203260e+001
1	 1.782453974414742e+000	 5.076530420823824e-001	 2.080728656069802e+001
1	 1.777097657143252e+000	 5.260966138514088e-001	 2.011721996215777e+001
1	 1.771535617528480e+000	 5.445321525596547e-001	 1.944185740029593e+001
1	 1.844156981829971e+000	 3.653770211207496e-001	 2.735669463585577e+001
1	 1.840361676169979e+000	 3.840366451660823e-001	 2.648332265194037e+001
1	 1.836365211938953e+000	 4.027132243418037e-001	 2.562889871284362e+001
1	 1.832166446627964e+000	 4.214037547970656e-001	 2.479289264787474e+001
1	 1.827764292642103e+000	 4.401051919864520e-001	 2.397483300427872e+001
1	 1.823157718733256e+000	 4.588144517903843e-001	 2.317430891575598e+001
1	 1.818345751410225e+000	 4.775284116891163e-001	 2.239097189996238e+001
1	 1.813327476324059e+000	 4.962439119900156e-001	 2.162453757948723e+001
1	 1.808102039626417e+000	 5.149577571077297e-001	 2.087478732084403e+001
1	 1.802668649298809e+000	 5.336667168967519e-001	 2.014156978606367e+001
1	 1.797026576450526e+000	 5.523675280357959e-001	 1.942480239155206e+001
1	 1.870316489147490e+000	 3.705599220096755e-001	 2.780970351561413e+001
1	 1.866467346787076e+000	 3.894842342438936e-001	 2.688116473859202e+001
1	 1.862414192405942e+000	 4.084257421182668e-001	 2.597257610600748e+001
1	 1.858155867288595e+000	 4.273813991721014e-001	 2.508350655762376e+001
1	 1.853691268412522e+000	 4.463481176728810e-001	 2.421358754119155e+001
1	 1.849019349901286e+000	 4.653227697525628e-001	 2.336251478502293e+001
1	 1.844139124454657e+000	 4.843021885982289e-001	 2.253004999040291e+001
1	 1.839049664753587e+000	 5.032831696967739e-001	 2.171602243830387e+001
1	 1.833750104837843e+000	 5.222624721332319e-001	 2.092033050492720e+001
1	 1.828239641454104e+000	 5.412368199422443e-001	 2.014294308067360e+001
1	 1.822517535372305e+000	 5.602029035120719e-001	 1.938390088723844e+001
1	 1.896475996465010e+000	 3.757428228986662e-001	 2.825109781703277e+001
1	 1.892573017404154e+000	 3.949318233217910e-001	 2.726576311096500e+001
1	 1.888463172872894e+000	 4.141382598948402e-001	 2.630143028953737e+001
1	 1.884145287949170e+000	 4.333590435472731e-001	 2.535777872184542e+001
1	 1.879618244182866e+000	 4.525910433594707e-001	 2.443455397333730e+001
1	 1.874880981069227e+000	 4.718310877149263e-001	 2.353156946030716e+001
1	 1.869932497498986e+000	 4.910759655075478e-001	 2.264870801474574e+001
1	 1.864771853182998e+000	 5.103224274037551e-001	 2.178592335401778e+001
1	 1.859398170049142e+000	 5.295671871589681e-001	 2.094324144991774e+001
1	 1.853810633609267e+000	 5.488069229879747e-001	 2.012076179175691e+001
1	 1.848008494293951e+000	 5.680382789885818e-001	 1.931865853825359e+001
1	 1.922635503782531e+000	 3.809257237877376e-001	 2.867911286514483e+001
1	 1.918678688021233e+000	 4.003794123997962e-001	 2.763552894608662e+001
1	 1.914512153339845e+000	 4.198507776715516e-001	 2.661403905167905e+001
1	 1.910134708609745e+000	 4.393366879226153e-001	 2.561444391293416e+001
1	 1.905545219953211e+000	 4.588339690462645e-001	 2.463661404767126e+001
1	 1.900742612237167e+000	 4.783394056775260e-001	 2.368049127521994e+001
1	 1.895725870543315e+000	 4.978497424171325e-001	 2.274609013166574e+001
1	 1.890494041612410e+000	 5.173616851110288e-001	 2.183349918014828e+001
1	 1.885046235260442e+000	 5.368719021850177e-001	 2.094288221082761e+001
1	 1.879381625764431e+000	 5.563770260340328e-001	 2.007447932526187e+001
1	 1.873499453215596e+000	 5.758736544654248e-001	 1.922860790008497e+001
1	 1.948795011100049e+000	 3.861086246769064e-001	 2.909207873692432e+001
1	 1.944784358638330e+000	 4.058270014779307e-001	 2.798895873077961e+001
1	 1.940561133806835e+000	 4.255632954484291e-001	 2.690905654449970e+001
1	 1.936124129270376e+000	 4.453143322981630e-001	 2.585230483804509e+001
1	 1.931472195723630e+000	 4.650768947333048e-001	 2.481870955430054e+001
1	 1.926604243405198e+000	 4.848477236404131e-001	 2.380835127268050e+001
1	 1.921519243587748e+000	 5.046235193270440e-001	 2.282138645313174e+001
1	 1.916216230041939e+000	 5.244009428186647e-001	 2.185804856511755e+001
1	 1.910694300471868e+000	 5.441766172114603e-001	 2.091864909630109e+001
1	 1.904952617919726e+000	 5.639471290805075e-001	 2.000357843579895e+001
1	 1.898990412137376e+000	 5.837090299427000e-001	 1.911330662705012e+001
1	 1.974954518417563e+000	 3.912915255661883e-001	 2.948841398604320e+001
1	 1.970890029255462e+000	 4.112745905562160e-001	 2.832462861175469e+001
1	 1.966610114273898e+000	 4.312758132255003e-001	 2.718520822645582e+001
1	 1.962113549931120e+000	 4.512919766739514e-001	 2.607022763990261e+001
1	 1.957399171494197e+000	 4.713198204206343e-001	 2.497983834993903e+001
1	 1.952465874573409e+000	 4.913560416036388e-001	 2.391426971407799e+001
1	 1.947312616632389e+000	 5.113972962373419e-001	 2.287383000100674e+001
1	 1.941938418471698e+000	 5.314402005267319e-001	 2.185890731670931e+001
1	 1.936342365683544e+000	 5.514813322383744e-001	 2.086997040006134e+001
1	 1.930523610075283e+000	 5.715172321274878e-001	 1.990756928293407e+001
1	 1.924481371059422e+000	 5.915444054205067e-001	 1.897233581004855e+001
1	 2.001114025735070e+000	 3.964744264555998e-001	 2.986661985982600e+001
1	 1.996995699872648e+000	 4.167221796346737e-001	 2.864118918885291e+001
1	 1.992659094741075e+000	 4.369883310027933e-001	 2.744128620163966e+001
1	 1.988102970592032e+000	 4.572696210500152e-001	 2.626713775050247e+001
1	 1.983326147264985e+000	 4.775627461082961e-001	 2.511905069326228e+001
1	 1.978327505741890e+000	 4.978643595672543e-001	 2.399741286223641e+001
1	 1.973105989677343e+000	 5.181710731480865e-001	 2.290269390235605e+001
1	 1.967660606901807e+000	 5.384794582353005e-001	 2.183544597324549e+001
1	 1.961990430895594e+000	 5.587860472658397e-001	 2.079630431029047e+001
1	 1.956094602231232e+000	 5.790873351750629e-001	 1.978598763993644e+001
1	 1.949972329981867e+000	 5.993797808989435e-001	 1.880529844469142e+001
1	 2.027273533052570e+000	 4.016573273451569e-001	 3.022527496394363e+001
1	 2.023101370489906e+000	 4.221697687133256e-001	 2.893736071140912e+001
1	 2.018708075208402e+000	 4.427008487803357e-001	 2.767614491987420e+001
1	 2.014092391253171e+000	 4.632472654263895e-001	 2.644201606583133e+001
1	 2.009253123036069e+000	 4.838056717963328e-001	 2.523544586398907e+001
1	 2.004189136910731e+000	 5.043726775313110e-001	 2.405699001345153e+001
1	 1.998899362722714e+000	 5.249448500593382e-001	 2.290728880190299e+001
1	 1.993382795332379e+000	 5.455187159444398e-001	 2.178706756280927e+001
1	 1.987638496108145e+000	 5.660907622939356e-001	 2.069713698087101e+001
1	 1.981665594387705e+000	 5.866574382233224e-001	 1.963839324120976e+001
1	 1.975463288904845e+000	 6.072151563781103e-001	 1.861181801803319e+001
1	 1.720553699683057e+000	 5.288614016073797e-001	 1.940655180861648e+001
1	 1.714951287895950e+000	 5.467554384699808e-001	 1.882348533648935e+001
1	 1.709147861924183e+000	 5.646353332059860e-001	 1.825370241040528e+001
1	 1.703142909757176e+000	 5.824978728425351e-001	 1.769702122925748e+001
1	 1.696935984454057e+000	 6.003398183486900e-001	 1.715330426586431e+001
1	 1.690526705208835e+000	 6.181579061975373e-001	 1.662245897978876e+001
1	 1.683914758373382e+000	 6.359488499726911e-001	 1.610443845492327e+001
1	 1.677099898436262e+000	 6.537093420179821e-001	 1.559924195894092e+001
1	 1.670081948955454e+000	 6.714360551290194e-001	 1.510691542184815e+001
1	 1.662860803443095e+000	 6.891256442852184e-001	 1.462755183101924e+001
1	 1.655436426200365e+000	 7.067747484208016e-001	 1.416129154025050e+001
1	 1.746044658606035e+000	 5.366967770835491e-001	 1.943558913109558e+001
1	 1.740359243975685e+000	 5.548559240432534e-001	 1.881430237467428e+001
1	 1.734469837023907e+000	 5.730007193529454e-001	 1.820724202415110e+001
1	 1.728375918154393e+000	 5.911279024377772e-001	 1.761432489894020e+001
1	 1.722077033804590e+000	 6.092341862787581e-001	 1.703551484344328e+001
1	 1.715572797526653e+000	 6.273162589980009e-001	 1.647082330816571e+001
1	 1.708862891025579e+000	 6.453707854890249e-001	 1.592030984792877e+001
1	 1.701947065152540e+000	 6.633944090908884e-001	 1.538408253439678e+001
1	 1.694825140851425e+000	 6.813837533048076e-001	 1.486229828029381e+001
1	 1.687497010056690e+000	 6.993354235518501e-001	 1.435516307285184e+001
1	 1.679962636540613e+000	 7.172460089701713e-001	 1.386293211421140e+001
1	 1.771535617528480e+000	 5.445321525596547e-001	 1.944185740029593e+001
1	 1.765767200054896e+000	 5.629564096164186e-001	 1.878147202489277e+001
1	 1.759791812123126e+000	 5.813661054997464e-001	 1.813641535378381e+001
1	 1.753608926551138e+000	 5.997579320328049e-001	 1.750669621970829e+001
1	 1.747218083154697e+000	 6.181285542085545e-001	 1.689237279706118e+001
1	 1.740618889844100e+000	 6.364746117981359e-001	 1.629355305453605e+001
1	 1.733811023677468e+000	 6.547927210049779e-001	 1.571039511796135e+001
1	 1.726794231868579e+000	 6.730794761633666e-001	 1.514310754067504e+001
1	 1.719568332747231e+000	 6.913314514801310e-001	 1.459194947895805e+001
1	 1.712133216670199e+000	 7.095452028179921e-001	 1.405723077023419e+001
1	 1.704488846880856e+000	 7.277172695190416e-001	 1.353931191194435e+001
1	 1.797026576450526e+000	 5.523675280357959e-001	 1.942480239155206e+001
1	 1.791175156133712e+000	 5.710568951895859e-001	 1.872452005947767e+001
1	 1.785113787221967e+000	 5.897314916465082e-001	 1.804081543185114e+001
1	 1.778841934947530e+000	 6.083879616277473e-001	 1.737378308177791e+001
1	 1.772359132504484e+000	 6.270229221382164e-001	 1.672356881922317e+001
1	 1.765664982161268e+000	 6.456329645980879e-001	 1.609037001826240e+001
1	 1.758759156329126e+000	 6.642146565207018e-001	 1.547443584837011e+001
1	 1.751641398584439e+000	 6.827645432355753e-001	 1.487606740722588e+001
1	 1.744311524642915e+000	 7.012791496551516e-001	 1.429561775270992e+001
1	 1.736769423283643e+000	 7.197549820838096e-001	 1.373349183196703e+001
1	 1.729015057221095e+000	 7.381885300675790e-001	 1.319014630563441e+001
1	 1.822517535372305e+000	 5.602029035120719e-001	 1.938390088723844e+001
1	 1.816583112212264e+000	 5.791573807628641e-001	 1.864299878223458e+001
1	 1.810435762320553e+000	 5.980968777933491e-001	 1.792005805938717e+001
1	 1.804074943343685e+000	 6.170179912227317e-001	 1.721525307474660e+001
1	 1.797500181854058e+000	 6.359172900678811e-001	 1.652881090716944e+001
1	 1.790711074478250e+000	 6.547913173980022e-001	 1.586101156311678e+001
1	 1.783707288980629e+000	 6.736365920363487e-001	 1.521218808006511e+001
1	 1.776488565300180e+000	 6.924496103076727e-001	 1.458272652615036e+001
1	 1.769054716538517e+000	 7.112268478300332e-001	 1.397306589387582e+001
1	 1.761405629897045e+000	 7.299647613494685e-001	 1.338369788593762e+001
1	 1.753541267561331e+000	 7.486597906159502e-001	 1.281516659145576e+001
1	 1.848008494293951e+000	 5.680382789885818e-001	 1.931865853825359e+001
1	 1.841991068290684e+000	 5.872578663363626e-001	 1.853648519859991e+001
1	 1.835757737419014e+000	 6.064622639403886e-001	 1.777378023559874e+001
1	 1.829307951739722e+000	 6.256480208178875e-001	 1.703079212895193e+001
1	 1.822641231203525e+000	 6.448116579976857e-001	 1.630782316938949e+001
1	 1.815757166795140e+000	 6.639496701980235e-001	 1.560522954382285e+001
1	 1.808655421632055e+000	 6.830585275520714e-001	 1.492342131439748e+001
1	 1.801335732015862e+000	 7.021346773798167e-001	 1.426286228921397e+001
1	 1.793797908434078e+000	 7.211745460049378e-001	 1.362406978271387e+001
1	 1.786041836510427e+000	 7.401745406151347e-001	 1.300761426396280e+001
1	 1.778067477901566e+000	 7.591310511643219e-001	 1.241411889131382e+001
1	 1.873499453215596e+000	 5.758736544654248e-001	 1.922860790008497e+001
1	 1.867399024369105e+000	 5.953583519101902e-001	 1.840457933518075e+001
1	 1.861079712517474e+000	 6.148276500877451e-001	 1.760163871574665e+001
1	 1.854540960135761e+000	 6.342780504133426e-001	 1.682010326774475e+001
1	 1.847782280552992e+000	 6.537060259277667e-001	 1.606034472956833e+001
1	 1.840803259112029e+000	 6.731080229982975e-001	 1.532278932023149e+001
1	 1.833603554283482e+000	 6.924804630680213e-001	 1.460791759744078e+001
1	 1.826182898731544e+000	 7.118197444521655e-001	 1.391626420347459e+001
1	 1.818541100329639e+000	 7.311222441800274e-001	 1.324841749703739e+001
1	 1.810678043123807e+000	 7.503843198809727e-001	 1.260501906950558e+001
1	 1.802593688241801e+000	 7.696023117128608e-001	 1.198676314424538e+001
1	 1.898990412137376e+000	 5.837090299427000e-001	 1.911330662705012e+001
1	 1.892806980447657e+000	 6.034588374844561e-001	 1.824690269464019e+001
1	 1.886401687616062e+000	 6.231930362355383e-001	 1.740330868517595e+001
1	 1.879773968531916e+000	 6.429080800092252e-001	 1.658290546025498e+001
1	 1.872923329902566e+000	 6.626003938582620e-001	 1.578612871880942e+001
1	 1.865849351429012e+000	 6.822663757989691e-001	 1.501346885089503e+001
1	 1.858551686934985e+000	 7.019023985843514e-001	 1.426547067802492e+001
1	 1.851030065447285e+000	 7.215048115248769e-001	 1.354273307813847e+001
1	 1.843284292225242e+000	 7.410699423554661e-001	 1.284590849354936e+001
1	 1.835314249737209e+000	 7.605940991471488e-001	 1.217570232047841e+001
1	 1.827119898582037e+000	 7.800735722617330e-001	 1.153287217905189e+001
1	 1.924481371059422e+000	 5.915444054205067e-001	 1.897233581004855e+001
1	 1.918214936526472e+000	 6.115593230592692e-001	 1.806309683337808e+001
1	 1.911723662714902e+000	 6.315584223838865e-001	 1.717848253872607e+001
1	 1.905006976928308e+000	 6.515381096056636e-001	 1.631893256533256e+001
1	 1.898064379252353e+000	 6.714947617893090e-001	 1.548494134794937e+001
1	 1.890895443746181e+000	 6.914247286001838e-001	 1.467705785867866e+001
1	 1.883499819586643e+000	 7.113243341012138e-001	 1.389588523268427e+001
1	 1.875877232163145e+000	 7.311898785981096e-001	 1.314208027603990e+001
1	 1.868027484120925e+000	 7.510176405314150e-001	 1.241635285423968e+001
1	 1.859950456350654e+000	 7.708038784138285e-001	 1.171946516017116e+001
1	 1.851646108922276e+000	 7.905448328111059e-001	 1.105223086063399e+001
1	 1.949972329981867e+000	 5.993797808989435e-001	 1.880529844469142e+001
1	 1.943622892605683e+000	 6.196598086347391e-001	 1.785282205077183e+001
1	 1.937045637814120e+000	 6.399238085329084e-001	 1.692686875587755e+001
1	 1.930239985325053e+000	 6.601681392027861e-001	 1.602793235832003e+001
1	 1.923205428602461e+000	 6.803891297210442e-001	 1.515656105263573e+001
1	 1.915941536063627e+000	 7.005830814020861e-001	 1.431335706181699e+001
1	 1.908447952238531e+000	 7.207462696187605e-001	 1.349897615139678e+001
1	 1.900724398879184e+000	 7.408749456720213e-001	 1.271412702383064e+001
1	 1.892770676016732e+000	 7.609653387080378e-001	 1.195957059189078e+001
1	 1.884586662964163e+000	 7.810136576811767e-001	 1.123611913006965e+001
1	 1.876172319262519e+000	 8.010160933611453e-001	 1.054463530328332e+001
1	 1.975463288904845e+000	 6.072151563781103e-001	 1.861181801803319e+001
1	 1.969030848685419e+000	 6.277602942109749e-001	 1.761575617989953e+001
1	 1.962367612913845e+000	 6.482891946827240e-001	 1.664819086298818e+001
1	 1.955472993722270e+000	 6.687981688007213e-001	 1.570966563317523e+001
1	 1.948346477952993e+000	 6.892834976536050e-001	 1.480077770459483e+001
1	 1.940987628381445e+000	 7.097414342048217e-001	 1.392217746450430e+001
1	 1.933396084890728e+000	 7.301682051371444e-001	 1.307456787862322e+001
1	 1.925571565595462e+000	 7.505600127467703e-001	 1.225870377557677e+001
1	 1.917513867912702e+000	 7.709130368854965e-001	 1.147539100935320e+001
1	 1.909222869577758e+000	 7.912234369493599e-001	 1.072548549897481e+001
1	 1.900698529602766e+000	 8.114873539120181e-001	 1.000989214488321e+001
1	 1.655436426200365e+000	 7.067747484208016e-001	 1.416129154025050e+001
1	 1.647810012626662e+000	 7.243773551837668e-001	 1.370630581448289e+001
1	 1.639980573555821e+000	 7.419327295049750e-001	 1.326047679475781e+001
1	 1.631948291327146e+000	 7.594374756351380e-001	 1.282377681529040e+001
1	 1.623713421824428e+000	 7.768881892624319e-001	 1.239620916217730e+001
1	 1.615276295033542e+000	 7.942814594508109e-001	 1.197780809787855e+001
1	 1.606637315540310e+000	 8.116138706063586e-001	 1.156863882210920e+001
1	 1.597796962967233e+000	 8.288820044695902e-001	 1.116879736826428e+001
1	 1.588755792347744e+000	 8.460824421315375e-001	 1.077841043465544e+001
1	 1.579514434436757e+000	 8.632117660713861e-001	 1.039763514999666e+001
1	 1.570073595956371e+000	 8.802665622133532e-001	 1.002665877274068e+001
1	 1.679962636540613e+000	 7.172460089701713e-001	 1.386293211421140e+001
1	 1.672223233413097e+000	 7.351094081314266e-001	 1.338359843543744e+001
1	 1.664277796852925e+000	 7.529248750760244e-001	 1.291480075604613e+001
1	 1.656126511900855e+000	 7.706889637447699e-001	 1.245654066116870e+001
1	 1.647769638231734e+000	 7.883982193890754e-001	 1.200885016040645e+001
1	 1.639207510720357e+000	 8.060491805379906e-001	 1.157179165484013e+001
1	 1.630440539946704e+000	 8.236383809936843e-001	 1.114545784012049e+001
1	 1.621469212639147e+000	 8.411623518532655e-001	 1.072997154487407e+001
1	 1.612294092054240e+000	 8.586176235547385e-001	 1.032548550381518e+001
1	 1.602915818291883e+000	 8.760007279448256e-001	 9.932182065117141e+000
1	 1.593335108544644e+000	 8.933082003663226e-001	 9.550272831762303e+000
1	 1.704488846880856e+000	 7.277172695190416e-001	 1.353931191194434e+001
1	 1.696636454199607e+000	 7.458414610785946e-001	 1.303598268894372e+001
1	 1.688575020150184e+000	 7.639170206466033e-001	 1.254461594213654e+001
1	 1.680304732474796e+000	 7.819404518539632e-001	 1.206523638882452e+001
1	 1.671825854639347e+000	 7.999082495153213e-001	 1.159789871458246e+001
1	 1.663138726407550e+000	 8.178169016248166e-001	 1.114268749459986e+001
1	 1.654243764353546e+000	 8.356628913807013e-001	 1.069971705079679e+001
1	 1.645141462311571e+000	 8.534426992366735e-001	 1.026913124403399e+001
1	 1.635832391761306e+000	 8.711528049777059e-001	 9.851103200896224e+000
1	 1.626317202147628e+000	 8.887896898180558e-001	 9.445834974691866e+000
1	 1.616596621133582e+000	 9.063498385190917e-001	 9.053557140480915e+000
1	 1.729015057221095e+000	 7.381885300675790e-001	 1.319014630563441e+001
1	 1.721049674986173e+000	 7.565735140254359e-001	 1.266314970264865e+001
1	 1.712872243447557e+000	 7.749091662168746e-001	 1.214959343214654e+001
1	 1.704482953048910e+000	 7.931919399628793e-001	 1.164951951657840e+001
1	 1.695882071047190e+000	 8.114182796413252e-001	 1.116299955924808e+001
1	 1.687069942095028e+000	 8.295846227114402e-001	 1.069013463147811e+001
1	 1.678046988760721e+000	 8.476874017675545e-001	 1.023105509526381e+001
1	 1.668813711984378e+000	 8.657230466199545e-001	 9.785920360797711e+000
1	 1.659370691468799e+000	 8.836879864005771e-001	 9.354918578406938e+000
1	 1.649718586003838e+000	 9.015786516912098e-001	 8.938266264612542e+000
1	 1.639858133723017e+000	 9.193914766717938e-001	 8.536207862190302e+000
1	 1.753541267561331e+000	 7.486597906159502e-001	 1.281516659145577e+001
1	 1.745462895772776e+000	 7.673055669721173e-001	 1.226480788458980e+001
1	 1.737169466745007e+000	 7.859013117870025e-001	 1.172942270723302e+001
1	 1.728661173623140e+000	 8.044434280716768e-001	 1.120906483536532e+001
1	 1.719938287455186e+000	 8.229283097672420e-001	 1.070381730487699e+001
1	 1.711001157782695e+000	 8.413523437980105e-001	 1.021379227575355e+001
1	 1.701850213168122e+000	 8.597119121543899e-001	 9.739130831484516e+000
1	 1.692485961657440e+000	 8.780033940032495e-001	 9.280002713116010e+000
1	 1.682908991176575e+000	 8.962231678234885e-001	 8.836605987529815e+000
1	 1.673119969860359e+000	 9.143676135644235e-001	 8.409166649699401e+000
1	 1.663119646312785e+000	 9.324331148245619e-001	 7.997938158845438e+000
1	 1.778067477901566e+000	 7.591310511643219e-001	 1.241411889131382e+001
1	 1.769876116559397e+000	 7.780376199188031e-001	 1.184068173138839e+001
1	 1.761466690042496e+000	 7.968934573571500e-001	 1.128381038142672e+001
1	 1.752839394197428e+000	 8.156949161805156e-001	 1.074356507952651e+001
1	 1.743994503863259e+000	 8.344383398932268e-001	 1.022003506705572e+001
1	 1.734932373470456e+000	 8.531200648846792e-001	 9.713338440773164e+000
1	 1.725653437575634e+000	 8.717364225413528e-001	 9.223621939928913e+000
1	 1.716158211330630e+000	 8.902837413866996e-001	 8.751060667779303e+000
1	 1.706447290884493e+000	 9.087583492465784e-001	 8.295857747115983e+000
1	 1.696521353717034e+000	 9.271565754378304e-001	 7.858243909577718e+000
1	 1.686381158902719e+000	 9.454747529775295e-001	 7.438477018686047e+000
1	 1.802593688241801e+000	 7.696023117128608e-001	 1.198676314424538e+001
1	 1.794289337346019e+000	 7.887696728656601e-001	 1.139051073373708e+001
1	 1.785763913339985e+000	 8.078856029274806e-001	 1.081247903607635e+001
1	 1.777017614771716e+000	 8.269464042895565e-001	 1.025272970611304e+001
1	 1.768050720271332e+000	 8.459483700194359e-001	 9.711353207574081e+000
1	 1.758863589158218e+000	 8.648877859715959e-001	 9.188468663772667e+000
1	 1.749456661983145e+000	 8.837609329285885e-001	 8.684223643072201e+000
1	 1.739830461003819e+000	 9.025640887704454e-001	 8.198793878533490e+000
1	 1.729985590592412e+000	 9.212935306699824e-001	 7.732382921338399e+000
1	 1.719922737573709e+000	 9.399455373115648e-001	 7.285221727753209e+000
1	 1.709642671492654e+000	 9.585163911308307e-001	 6.857568179568934e+000
1	 1.827119898582037e+000	 7.800735722617330e-001	 1.153287217905189e+001
1	 1.818702558132622e+000	 7.995017258128541e-001	 1.091404837004028e+001
1	 1.810061136637434e+000	 8.188777484981575e-001	 1.031516614816771e+001
1	 1.801195835345945e+000	 8.381978923989577e-001	 9.736283772504896e+000
1	 1.792106936679328e+000	 8.574584001460236e-001	 9.177488176908939e+000
1	 1.782794804845885e+000	 8.766555070589113e-001	 8.638894829722862e+000
1	 1.773259886390545e+000	 8.957854433162426e-001	 8.120647528025156e+000
1	 1.763502710676882e+000	 9.148444361546280e-001	 7.622918125828610e+000
1	 1.753523890300187e+000	 9.338287120938384e-001	 7.145906195793253e+000
1	 1.743324121430230e+000	 9.527344991857624e-001	 6.689838624188632e+000
1	 1.732904184082422e+000	 9.715580292845978e-001	 6.254969139015519e+000
1	 1.851646108922276e+000	 7.905448328111059e-001	 1.105223086063399e+001
1	 1.843115778919188e+000	 8.102337787605508e-001	 1.041106118003388e+001
1	 1.834358359934808e+000	 8.298698940693451e-001	 9.791623103812862e+000
1	 1.825374055920060e+000	 8.494493805088802e-001	 9.193966903230015e+000
1	 1.816163153087172e+000	 8.689684302731456e-001	 8.618171448700133e+000
1	 1.806726020533363e+000	 8.884232281467754e-001	 8.064344088649271e+000
1	 1.797063110797721e+000	 9.078099537044606e-001	 7.532620462734512e+000
1	 1.787174960349689e+000	 9.271247835393879e-001	 7.023164248776967e+000
1	 1.777062190007680e+000	 9.463638935182838e-001	 6.536166842922141e+000
1	 1.766725505286440e+000	 9.655234610605563e-001	 6.071846972712813e+000
1	 1.756165696671858e+000	 9.845996674389648e-001	 5.630450242934840e+000
1	 1.876172319262519e+000	 8.010160933611453e-001	 1.054463530328332e+001
1	 1.867528999705698e+000	 8.209658317089156e-001	 9.881327911065267e+000
1	 1.858655583232066e+000	 8.408620396412051e-001	 9.241614289116452e+000
1	 1.849552276494000e+000	 8.607008686194831e-001	 8.625532337820527e+000
1	 1.840219369494784e+000	 8.804784604009575e-001	 8.033148537800567e+000
1	 1.830657236220556e+000	 9.001909492353390e-001	 7.464557857871638e+000
1	 1.820866335204563e+000	 9.198344640933875e-001	 6.919883597191014e+000
1	 1.810847210022113e+000	 9.394051309248664e-001	 6.399277160883033e+000
1	 1.800600489714745e+000	 9.588990749434547e-001	 5.902917768580917e+000
1	 1.790126889142184e+000	 9.783124229360810e-001	 5.431012095498835e+000
1	 1.779427209260795e+000	 9.976413055940653e-001	 4.983793845822200e+000
1	 1.900698529602766e+000	 8.114873539120181e-001	 1.000989214488321e+001
1	 1.891942220492132e+000	 8.316978846581148e-001	 9.324638730470641e+000
1	 1.882952806529170e+000	 8.518541852139021e-001	 8.664916251429450e+000
1	 1.873730497067709e+000	 8.719523567309262e-001	 8.030746052386730e+000
1	 1.864275585902089e+000	 8.919884905296139e-001	 7.422178094351565e+000
1	 1.854588451907370e+000	 9.119586703247523e-001	 6.839290901492815e+000
1	 1.844669559610956e+000	 9.318589744831690e-001	 6.282191441966655e+000
1	 1.834519459694026e+000	 9.516854783112039e-001	 5.751014941978094e+000
1	 1.824138789421242e+000	 9.714342563694888e-001	 5.245924632425894e+000
1	 1.813528272997309e+000	 9.911013848124718e-001	 4.767111427650216e+000
1	 1.802688721849068e+000	 1.010682943750032e+000	 4.314793535977646e+000
1	 1.570073595956371e+000	 8.802665622133532e-001	 1.002665877274068e+001
1	 1.560432599048893e+000	 8.972459629298201e-001	 9.663724462248428e+000
1	 1.550593705615053e+000	 9.141440024143019e-001	 9.306938007617916e+000
1	 1.540557852787052e+000	 9.309572889204422e-001	 8.956156238972516e+000
1	 1.530326054011600e+000	 9.476824425612989e-001	 8.611260131243284e+000
1	 1.519899398955622e+000	 9.643160974265818e-001	 8.272155007824155e+000
1	 1.509279053342250e+000	 9.808549037040831e-001	 7.938770696592729e+000
1	 1.498466258716638e+000	 9.972955298026260e-001	 7.611061637494521e+000
1	 1.487462332141325e+000	 1.013634664473865e+000	 7.289006941006788e+000
1	 1.476268665820915e+000	 1.029869018930230e+000	 6.972610396920243e+000
1	 1.464886726656035e+000	 1.045995328956277e+000	 6.661900433002661e+000
1	 1.593335108544644e+000	 8.933082003663226e-001	 9.550272831762305e+000
1	 1.583551274911993e+000	 9.105391603372328e-001	 9.177918220435249e+000
1	 1.573566612805977e+000	 9.276875536643393e-001	 8.813081422809383e+000
1	 1.563382073242935e+000	 9.447499383506840e-001	 8.455546285684255e+000
1	 1.552998684684357e+000	 9.617228844344273e-001	 8.105117827264616e+000
1	 1.542417552941194e+000	 9.786029761374548e-001	 7.761622557710816e+000
1	 1.531639861007416e+000	 9.953868140182343e-001	 7.424908758064047e+000
1	 1.520666868822365e+000	 1.012071017126220e+000	 7.094846716546102e+000
1	 1.509499912961594e+000	 1.028652225155088e+000	 6.771328921335069e+000
1	 1.498140406255998e+000	 1.045127100592058e+000	 6.454270209024073e+000
1	 1.486589837339156e+000	 1.061492330860527e+000	 6.143607868079561e+000
1	 1.616596621133582e+000	 9.063498385190917e-001	 9.053557140480915e+000
1	 1.606669950775794e+000	 9.238323577444372e-001	 8.672318203263050e+000
1	 1.596539519997630e+000	 9.412311049141447e-001	 8.299920042503318e+000
1	 1.586206293699568e+000	 9.585425877806584e-001	 7.936084242555469e+000
1	 1.575671315357876e+000	 9.757633263072424e-001	 7.580550633880552e+000
1	 1.564935706927530e+000	 9.928898548479597e-001	 7.233077714960140e+000
1	 1.554000668673342e+000	 1.009918724331957e+000	 6.893443038399868e+000
1	 1.542867478928837e+000	 1.026846504449323e+000	 6.561443560054368e+000
1	 1.531537493782587e+000	 1.043669785835758e+000	 6.236895950091314e+000
1	 1.520012146691774e+000	 1.060385182253275e+000	 5.919636865000978e+000
1	 1.508292948022929e+000	 1.076989332764112e+000	 5.609523179652807e+000
1	 1.639858133723017e+000	 9.193914766717938e-001	 8.536207862190301e+000
1	 1.629788626640121e+000	 9.371255551515679e-001	 8.146648657023899e+000
1	 1.619512427189830e+000	 9.547746561638559e-001	 7.767207896750640e+000
1	 1.609030514156762e+000	 9.723352372105052e-001	 7.397555198748920e+000
1	 1.598343946031964e+000	 9.898037681798880e-001	 7.037375546097354e+000
1	 1.587453860914438e+000	 1.007176733558246e+000	 6.686369795723471e+000
1	 1.576361476339833e+000	 1.024450634645407e+000	 6.344255156371610e+000
1	 1.565068089035861e+000	 1.041621991772096e+000	 6.010765635082606e+000
1	 1.553575074604111e+000	 1.058687346516041e+000	 5.685652450947590e+000
1	 1.541883887128053e+000	 1.075643263914047e+000	 5.368684414973577e+000
1	 1.529996058707169e+000	 1.092486334667199e+000	 5.059648274977525e+000
1	 1.663119646312785e+000	 9.324331148245619e-001	 7.997938158845438e+000
1	 1.652907302504798e+000	 9.504187525587583e-001	 7.600649255519913e+000
1	 1.642485334382394e+000	 9.683182074136089e-001	 7.214712776809220e+000
1	 1.631854734614329e+000	 9.861278866403652e-001	 6.839756266979495e+000
1	 1.621016576706430e+000	 1.003844210052509e+000	 6.475419797446724e+000
1	 1.609972014901722e+000	 1.021463612268464e+000	 6.121356546415999e+000
1	 1.598722284006695e+000	 1.038982544958740e+000	 5.777233353789575e+000
1	 1.587268699143245e+000	 1.056397479094699e+000	 5.442731249926019e+000
1	 1.575612655425975e+000	 1.073704907196097e+000	 5.117545956887642e+000
1	 1.563755627564647e+000	 1.090901345574538e+000	 4.801388360873892e+000
1	 1.551699169391692e+000	 1.107983336569954e+000	 4.493984954603454e+000
1	 1.686381158902719e+000	 9.454747529775295e-001	 7.438477018686048e+000
1	 1.676025978369649e+000	 9.637119499661433e-001	 7.034074036047224e+000
1	 1.665458241575140e+000	 9.818617586635405e-001	 6.642215286050797e+000
1	 1.654678955072082e+000	 9.999205360703791e-001	 6.262495754264893e+000
1	 1.643689207381082e+000	 1.017884651925251e+000	 5.894520153847531e+000
1	 1.632490168889190e+000	 1.035750490978762e+000	 5.537903562292264e+000
1	 1.621083091673733e+000	 1.053514455272107e+000	 5.192272038720271e+000
1	 1.609469309250792e+000	 1.071172966417289e+000	 4.857263220218070e+000
1	 1.597650236247988e+000	 1.088722467876090e+000	 4.532526895761624e+000
1	 1.585627368001368e+000	 1.106159427234916e+000	 4.217725556313884e+000
1	 1.573402280076318e+000	 1.123480338472545e+000	 3.912534919734282e+000
1	 1.709642671492654e+000	 9.585163911308307e-001	 6.857568179568934e+000
1	 1.699144654234502e+000	 9.770051473738575e-001	 6.446690422242416e+000
1	 1.688431148767885e+000	 9.954053099137871e-001	 6.049507968348244e+000
1	 1.677503175529833e+000	 1.013713185500686e+000	 5.665592400373368e+000
1	 1.666361838055729e+000	 1.031925093798258e+000	 5.294522265114206e+000
1	 1.655008322876648e+000	 1.050037369689292e+000	 4.935883753486704e+000
1	 1.643443899340753e+000	 1.068046365585667e+000	 4.589271365993828e+000
1	 1.631669919358312e+000	 1.085948453740026e+000	 4.254288562294688e+000
1	 1.619687817069959e+000	 1.103740028556184e+000	 3.930548393347310e+000
1	 1.607499108438030e+000	 1.121417508895345e+000	 3.617674114630202e+000
1	 1.595105390760859e+000	 1.138977340375136e+000	 3.315299778986085e+000
1	 1.732904184082422e+000	 9.715580292845978e-001	 6.254969139015521e+000
1	 1.722263330099178e+000	 9.902983447820338e-001	 5.838278325629450e+000
1	 1.711404055960447e+000	 1.008948861164486e+000	 5.436394506663249e+000
1	 1.700327395987393e+000	 1.027505834931428e+000	 5.048874677607132e+000
1	 1.689034468730179e+000	 1.045965535671676e+000	 4.675280068695005e+000
1	 1.677526476863901e+000	 1.064324248400201e+000	 4.315176854059846e+000
1	 1.665804707007561e+000	 1.082578275899572e+000	 3.968136851497631e+000
1	 1.653870529465609e+000	 1.100723941063069e+000	 3.633738211255049e+000
1	 1.641725397891696e+000	 1.118757589236542e+000	 3.311566092272785e+000
1	 1.629370848874443e+000	 1.136675590555991e+000	 3.001213324334937e+000
1	 1.616808501445135e+000	 1.154474342277896e+000	 2.702281054601606e+000
1	 1.756165696671858e+000	 9.845996674389648e-001	 5.630450242934839e+000
1	 1.745382005963505e+000	 1.003591542190808e+000	 5.208629318570018e+000
1	 1.734376963152643e+000	 1.022492412415774e+000	 4.802688985325065e+000
1	 1.723151616444576e+000	 1.041298484362744e+000	 4.412180146234752e+000
1	 1.711707099404241e+000	 1.060005977545648e+000	 4.036655240797329e+000
1	 1.700044630850756e+000	 1.078611127111641e+000	 3.675668970062386e+000
1	 1.688165514673963e+000	 1.097110186213977e+000	 3.328779017123460e+000
1	 1.676071139572491e+000	 1.115499428386579e+000	 2.995546761429235e+000
1	 1.663762978713008e+000	 1.133775149917325e+000	 2.675537985330267e+000
1	 1.651242589310420e+000	 1.151933672217020e+000	 2.368323571286027e+000
1	 1.638511612128961e+000	 1.169971344180990e+000	 2.073480188170460e+000
1	 1.779427209260795e+000	 9.976413055940653e-001	 4.983793845822200e+000
1	 1.768500681827304e+000	 1.016884739600314e+000	 4.557545872083384e+000
1	 1.757349870344291e+000	 1.036035963667787e+000	 4.148215210172312e+000
1	 1.745975836901192e+000	 1.055091133794776e+000	 3.755354860479980e+000
1	 1.734379730077722e+000	 1.074046419420320e+000	 3.378516690564139e+000
1	 1.722562784837020e+000	 1.092898005823761e+000	 3.017252163046679e+000
1	 1.710526322339763e+000	 1.111642096529037e+000	 2.671113063563161e+000
1	 1.698271749678765e+000	 1.130274915710713e+000	 2.339652227202148e+000
1	 1.685800559533704e+000	 1.148792710598699e+000	 2.022424261863618e+000
1	 1.673114329745773e+000	 1.167191753878597e+000	 1.718986266962010e+000
1	 1.660214722812154e+000	 1.185468346084587e+000	 1.428898545900864e+000
1	 1.802688721849068e+000	 1.010682943750032e+000	 4.314793535977647e+000
1	 1.791619357690404e+000	 1.030177937010685e+000	 3.884840652676338e+000
1	 1.780322777535209e+000	 1.049579514920662e+000	 3.472806081331379e+000
1	 1.768800057357055e+000	 1.068883783227662e+000	 3.078252820500689e+000
1	 1.757052360750431e+000	 1.088086861295837e+000	 2.700740093412387e+000
1	 1.745080938822499e+000	 1.107184884536711e+000	 2.339824065824037e+000
1	 1.732887130004770e+000	 1.126174006844907e+000	 1.995058568437274e+000
1	 1.720472359784236e+000	 1.145050403035631e+000	 1.665995822355123e+000
1	 1.707838140353593e+000	 1.163810271280825e+000	 1.352187166049246e+000
1	 1.694986070180313e+000	 1.182449835540888e+000	 1.053183782290097e+000
1	 1.681917833494530e+000	 1.200965347988850e+000	 7.685374234830460e-001
1	 1.464886726656035e+000	 1.045995328956277e+000	 6.661900433002661e+000
1	 1.453318055313266e+000	 1.062010356656721e+000	 6.353764758203255e+000
1	 1.441564264409459e+000	 1.077910891462778e+000	 6.045170735724863e+000
1	 1.429627039115891e+000	 1.093693753232441e+000	 5.736306863868175e+000
1	 1.417508136850242e+000	 1.109355794658762e+000	 5.427391025663368e+000
1	 1.405209386483143e+000	 1.124893903309479e+000	 5.118670238053483e+000
1	 1.392732687476031e+000	 1.140305003643770e+000	 4.810420344492773e+000
1	 1.380080008951025e+000	 1.155586059003449e+000	 4.502945651264147e+000
1	 1.367253388693743e+000	 1.170734073575938e+000	 4.196578507967269e+000
1	 1.354254932090050e+000	 1.185746094326383e+000	 3.891678832776305e+000
1	 1.341086810997859e+000	 1.200619212896339e+000	 3.588633583212634e+000
1	 1.486589837339156e+000	 1.061492330860527e+000	 6.143607868079561e+000
1	 1.474849769703483e+000	 1.077744630093995e+000	 5.836115384372994e+000
1	 1.462921839857642e+000	 1.093880740157302e+000	 5.528610506654040e+000
1	 1.450807757939659e+000	 1.109897433792857e+000	 5.221130328717848e+000
1	 1.438509307404328e+000	 1.125791517064594e+000	 4.913734007494085e+000
1	 1.426028344218016e+000	 1.141559831427820e+000	 4.606502752194149e+000
1	 1.413366795983732e+000	 1.157199255775851e+000	 4.299539771091390e+000
1	 1.400526660997231e+000	 1.172706708460706e+000	 3.992970175788429e+000
1	 1.387510007235056e+000	 1.188079149285163e+000	 3.686940842935266e+000
1	 1.374318971275530e+000	 1.203313581463499e+000	 3.381620233472233e+000
1	 1.360955757153845e+000	 1.218407053548307e+000	 3.077198169582972e+000
1	 1.508292948022929e+000	 1.076989332764112e+000	 5.609523179652807e+000
1	 1.496381484094301e+000	 1.093478903530556e+000	 5.303151799460045e+000
1	 1.484279415306369e+000	 1.109850588851077e+000	 4.997148534592020e+000
1	 1.471988476763907e+000	 1.126101114352495e+000	 4.691440619481394e+000
1	 1.459510477958825e+000	 1.142227239469625e+000	 4.385971065282270e+000
1	 1.446847301953224e+000	 1.158225759545347e+000	 4.080698823029462e+000
1	 1.434000904491688e+000	 1.174093507907113e+000	 3.775598916521664e+000
1	 1.420973313043610e+000	 1.189827357917149e+000	 3.470662544462364e+000
1	 1.407766625776456e+000	 1.205424224993586e+000	 3.165897151469481e+000
1	 1.394383010461012e+000	 1.220881068599836e+000	 2.861326467643808e+000
1	 1.380824703309748e+000	 1.236194894199525e+000	 2.556990516467451e+000
1	 1.529996058707169e+000	 1.092486334667199e+000	 5.059648274977525e+000
1	 1.517913198485543e+000	 1.109213176966573e+000	 4.754919177695703e+000
1	 1.505636990755471e+000	 1.125820437544266e+000	 4.450905018785447e+000
1	 1.493169195588471e+000	 1.142304794911510e+000	 4.147463005572497e+000
1	 1.480511648513576e+000	 1.158662961874006e+000	 3.844460836091278e+000
1	 1.467666259688621e+000	 1.174891687662203e+000	 3.541776971920859e+000
1	 1.454635012999764e+000	 1.190987760037691e+000	 3.239300890762506e+000
1	 1.441419965090037e+000	 1.206948007372900e+000	 2.936933318099135e+000
1	 1.428023244317834e+000	 1.222769300701319e+000	 2.634586437327140e+000
1	 1.414447049646399e+000	 1.238448555735490e+000	 2.332184077805174e+000
1	 1.400693649465486e+000	 1.253982734850077e+000	 2.029661880319562e+000
1	 1.551699169391692e+000	 1.107983336569954e+000	 4.493984954603454e+000
1	 1.539444912877032e+000	 1.124947450402209e+000	 4.191460165961264e+000
1	 1.526994566204773e+000	 1.141790286237030e+000	 3.889993433728946e+000
1	 1.514349914413188e+000	 1.158508475470063e+000	 3.589410153323924e+000
1	 1.501512819068427e+000	 1.175098684277891e+000	 3.289541892423965e+000
1	 1.488485217424060e+000	 1.191557615778533e+000	 2.990226710670781e+000
1	 1.475269121507824e+000	 1.207882012167718e+000	 2.691309467110401e+000
1	 1.461866617136390e+000	 1.224068656828084e+000	 2.392642114640512e+000
1	 1.448279862859078e+000	 1.240114376408472e+000	 2.094083980765932e+000
1	 1.434511088831594e+000	 1.256016042870559e+000	 1.795502033995168e+000
1	 1.420562595620974e+000	 1.271770575500045e+000	 1.496771135247070e+000
1	 1.573402280076318e+000	 1.123480338472545e+000	 3.912534919734282e+000
1	 1.560976627268588e+000	 1.140681723837632e+000	 3.612815058096070e+000
1	 1.548352141654106e+000	 1.157760134929534e+000	 3.314520992962721e+000
1	 1.535530633237893e+000	 1.174712156028311e+000	 3.017482995205882e+000
1	 1.522513989623221e+000	 1.191534406681430e+000	 2.721534126049733e+000
1	 1.509304175159396e+000	 1.208223543894480e+000	 2.426510542275028e+000
1	 1.495903230015734e+000	 1.224776264297331e+000	 2.132251795180177e+000
1	 1.482313269182544e+000	 1.241189306282822e+000	 1.838601122621797e+000
1	 1.468536481400075e+000	 1.257459452115157e+000	 1.545405733472644e+000
1	 1.454575128016497e+000	 1.273583530005140e+000	 1.252517083852132e+000
1	 1.440431541776130e+000	 1.289558416149514e+000	 9.597911445046491e-001
1	 1.595105390760859e+000	 1.138977340375136e+000	 3.315299778986085e+000
1	 1.582508341660034e+000	 1.156415997273006e+000	 3.019021954975770e+000
1	 1.569709717103297e+000	 1.173729983621940e+000	 2.724589075007303e+000
1	 1.556711352062423e+000	 1.190915836586413e+000	 2.431871528084632e+000
1	 1.543515160177803e+000	 1.207970129084775e+000	 2.140740018861186e+000
1	 1.530123132894483e+000	 1.224889472010190e+000	 1.851065798340808e+000
1	 1.516537338523357e+000	 1.241670516426661e+000	 1.562720892426398e+000
1	 1.502759921228375e+000	 1.258309955737241e+000	 1.275578327810126e+000
1	 1.488793099940716e+000	 1.274804527821486e+000	 9.895123547054274e-001
1	 1.474639167201012e+000	 1.291151017139334e+000	 7.043986659278810e-001
1	 1.460300487930869e+000	 1.307346256798567e+000	 4.201146118409270e-001
1	 1.616808501445135e+000	 1.154474342277896e+000	 2.702281054601606e+000
1	 1.604040056051193e+000	 1.172150270708497e+000	 2.410116911697632e+000
1	 1.591067292552176e+000	 1.189699832314410e+000	 2.120293614993285e+000
1	 1.577892070886612e+000	 1.207119517144526e+000	 1.832755547188791e+000
1	 1.564516330732018e+000	 1.224405851488079e+000	 1.547445811374993e+000
1	 1.550942090629174e+000	 1.241555400125803e+000	 1.264306328518180e+000
1	 1.537171447030557e+000	 1.258564768555845e+000	 9.832779349959470e-001
1	 1.523206573273758e+000	 1.275430605191462e+000	 7.043004799675106e-001
1	 1.509049718480886e+000	 1.292149603527569e+000	 4.273129223633060e-001
1	 1.494703206385040e+000	 1.308718504273237e+000	 1.522534272806347e-001
1	 1.480169434085108e+000	 1.325134097447286e+000	-1.209405384252256e-001
1	 1.638511612128961e+000	 1.169971344180990e+000	 2.073480188170460e+000
1	 1.625571770441885e+000	 1.187884544144271e+000	 1.786134073068644e+000
1	 1.612424868000571e+000	 1.205669681007109e+000	 1.501725465166910e+000
1	 1.599072789710299e+000	 1.223323197702809e+000	 1.220305321744665e+000
1	 1.585517501285710e+000	 1.240841573891492e+000	 9.419225783678048e-001
1	 1.571761048363325e+000	 1.258221328241467e+000	 6.666240556660338e-001
1	 1.557805555537200e+000	 1.275459020685017e+000	 3.944543665182356e-001
1	 1.543653225318572e+000	 1.292551254645610e+000	 1.254558238342097e-001
1	 1.529306337020477e+000	 1.309494679233518e+000	-1.403316508772662e-001
1	 1.514767245568484e+000	 1.326285991406947e+000	-4.028706179620536e-001
1	 1.500038380238764e+000	 1.342921938095756e+000	-6.621262089032917e-001
1	 1.660214722812154e+000	 1.185468346084587e+000	 1.428898545900864e+000
1	 1.647103484831933e+000	 1.203618817580494e+000	 1.147105798466542e+000
1	 1.633782443448310e+000	 1.221639529700198e+000	 8.689707271192293e-001
1	 1.620253508533317e+000	 1.239526878261420e+000	 5.946822176181933e-001
1	 1.606518671838723e+000	 1.257277296295168e+000	 3.244272201447723e-001
1	 1.592580006096787e+000	 1.274887256357323e+000	 5.839040903884640e-002
1	 1.578439664043150e+000	 1.292353272814311e+000	-2.032461585074321e-001
1	 1.564099877362689e+000	 1.309671904099807e+000	-4.603033840923342e-001
1	 1.549562955559376e+000	 1.326839754939444e+000	-7.126054693697814e-001
1	 1.534831284751244e+000	 1.343853478540562e+000	-9.599802562166644e-001
1	 1.519907326391754e+000	 1.360709778744060e+000	-1.202259565078194e+000
1	 1.681917833494530e+000	 1.200965347988850e+000	 7.685374234830462e-001
1	 1.668635199221159e+000	 1.219353091017331e+000	 4.930627770337698e-001
1	 1.655140018895221e+000	 1.237609378393840e+000	 2.221110582934033e-001
1	 1.641434227355505e+000	 1.255730558820518e+000	-4.396072824967878e-002
1	 1.627519842390902e+000	 1.273713018699258e+000	-3.047966229386445e-001
1	 1.613398963829417e+000	 1.291553184473516e+000	-5.600423534877266e-001
1	 1.599073772548270e+000	 1.309247524943862e+000	-8.093459817866124e-001
1	 1.584546529405988e+000	 1.326792553554179e+000	-1.052358553634160e+000
1	 1.569819574097471e+000	 1.344184830645459e+000	-1.288734750046681e+000
1	 1.554895323933223e+000	 1.361420965674179e+000	-1.518133538770683e+000
1	 1.539776272543993e+000	 1.378497619392281e+000	-1.740218824618900e+000
1	 1.341086810997859e+000	 1.200619212896339e+000	 3.588633583212634e+000
1	 1.327753275425903e+000	 1.215348368834772e+000	 3.280554827176745e+000
1	 1.314254664028600e+000	 1.229932992248813e+000	 2.961462238100671e+000
1	 1.300593340761640e+000	 1.244370322232309e+000	 2.633289706040461e+000
1	 1.286771730854787e+000	 1.258657649759996e+000	 2.298008199280917e+000
1	 1.272792319379371e+000	 1.272792319379371e+000	 1.957622548648621e+000
1	 1.258657649759996e+000	 1.286771730854787e+000	 1.614168169043156e+000
1	 1.244370322232309e+000	 1.300593340761641e+000	 1.269707724978973e+000
1	 1.229932992248813e+000	 1.314254664028600e+000	 9.263277470753983e-001
1	 1.215348368834772e+000	 1.327753275425902e+000	 5.861352065579055e-001
1	 1.200619212896339e+000	 1.341086810997858e+000	 2.512540549369772e-001
1	 1.360955757153845e+000	 1.218407053548307e+000	 3.077198169582972e+000
1	 1.347424677844972e+000	 1.233354430115146e+000	 2.766883517341273e+000
1	 1.333726077020677e+000	 1.248155132827871e+000	 2.445086353243020e+000
1	 1.319862353659959e+000	 1.262806359875977e+000	 2.113986101257205e+000
1	 1.305835968923696e+000	 1.277305362098496e+000	 1.775806137771757e+000
1	 1.291649444700928e+000	 1.291649444700928e+000	 1.432810047331149e+000
1	 1.277305362098497e+000	 1.305835968923696e+000	 1.087297803326334e+000
1	 1.262806359875977e+000	 1.319862353659959e+000	 7.416018816039911e-001
1	 1.248155132827870e+000	 1.333726077020677e+000	 3.980833151373101e-001
1	 1.233354430115146e+000	 1.347424677844972e+000	 5.912769805121398e-002
1	 1.218407053548307e+000	 1.360955757153844e+000	-2.728588525797430e-001
1	 1.380824703309748e+000	 1.236194894199525e+000	 2.556990516467451e+000
1	 1.367096080263875e+000	 1.251360491394808e+000	 2.246382586222849e+000
1	 1.353197490012505e+000	 1.266377273406264e+000	 1.924394913241584e+000
1	 1.339131366557947e+000	 1.281242397519037e+000	 1.593353894062171e+000
1	 1.324900206992199e+000	 1.295953074436450e+000	 1.255634517441003e+000
1	 1.310506570022006e+000	 1.310506570022005e+000	 9.136562648557050e-001
1	 1.295953074436450e+000	 1.324900206992199e+000	 5.698789274921010e-001
1	 1.281242397519037e+000	 1.339131366557946e+000	 2.267983484860761e-001
1	 1.266377273406264e+000	 1.353197490012506e+000	-1.130579006128660e-001
1	 1.251360491394808e+000	 1.367096080263875e+000	-4.471349000210323e-001
1	 1.236194894199525e+000	 1.380824703309748e+000	-7.728548092679188e-001
1	 1.400693649465486e+000	 1.253982734850077e+000	 2.029661880319562e+000
1	 1.386767482682543e+000	 1.269366552673829e+000	 1.720940338373433e+000
1	 1.372668903004032e+000	 1.284599413984047e+000	 1.401444912407153e+000
1	 1.358400379455570e+000	 1.299678435161525e+000	 1.073554622201949e+000
1	 1.343964445060277e+000	 1.314600786773875e+000	 7.396995480140959e-001
1	 1.329363695342603e+000	 1.329363695342603e+000	 4.023565448950159e-001
1	 1.314600786773875e+000	 1.343964445060277e+000	 6.404486874019655e-002
1	 1.299678435161524e+000	 1.358400379455569e+000	-2.726782767209757e-001
1	 1.284599413984047e+000	 1.372668903004031e+000	-6.052222625747963e-001
1	 1.269366552673829e+000	 1.386767482682543e+000	-9.309676174148018e-001
1	 1.253982734850077e+000	 1.400693649465486e+000	-1.247270660327742e+000
1	 1.420562595620974e+000	 1.271770575500045e+000	 1.496771135247071e+000
1	 1.406438885100908e+000	 1.287372613952274e+000	 1.192339433941155e+000
1	 1.392140315995205e+000	 1.302821554561270e+000	 8.781782630118769e-001
1	 1.377669392352793e+000	 1.318114472803472e+000	 5.566288925246347e-001
1	 1.363028683127914e+000	 1.333248499110788e+000	 2.300840090682897e-001
1	 1.348220820662723e+000	 1.348220820662722e+000	-9.901659110666101e-002
1	 1.333248499110788e+000	 1.363028683127914e+000	-4.281903983413291e-001
1	 1.318114472803472e+000	 1.377669392352793e+000	-7.549166659160214e-001
1	 1.302821554561270e+000	 1.392140315995205e+000	-1.076640956984568e+000
1	 1.287372613952274e+000	 1.406438885100908e+000	-1.390779752406866e+000
1	 1.271770575500045e+000	 1.420562595620974e+000	-1.694725109638697e+000
1	 1.440431541776130e+000	 1.289558416149514e+000	 9.597911445046491e-001
1	 1.426110287518902e+000	 1.305378675230213e+000	 6.622641748302830e-001
1	 1.411611728985973e+000	 1.321043695137985e+000	 3.564297323508967e-001
1	 1.396938405249583e+000	 1.336550510444917e+000	 4.450472142990181e-002
1	 1.382092921195092e+000	 1.351896211447207e+000	-2.712442371471189e-001
1	 1.367077945982363e+000	 1.367077945982363e+000	-5.885049730407144e-001
1	 1.351896211447207e+000	 1.382092921195092e+000	-9.049240201782418e-001
1	 1.336550510444917e+000	 1.396938405249583e+000	-1.218110948493684e+000
1	 1.321043695137985e+000	 1.411611728985973e+000	-1.525642764347918e+000
1	 1.305378675230213e+000	 1.426110287518902e+000	-1.825068370214955e+000
1	 1.289558416149514e+000	 1.440431541776130e+000	-2.113913074070604e+000
1	 1.460300487930869e+000	 1.307346256798567e+000	 4.201146118409271e-001
1	 1.445781689936458e+000	 1.323384736507712e+000	 1.323071960454023e-001
1	 1.431083141976286e+000	 1.339265835714243e+000	-1.620657681489151e-001
1	 1.416207418145903e+000	 1.354986548085892e+000	-4.609948055651471e-001
1	 1.401157159261793e+000	 1.370543923783149e+000	-7.624244278465365e-001
1	 1.385935071301524e+000	 1.385935071301523e+000	-1.064257002774457e+000
1	 1.370543923783149e+000	 1.401157159261793e+000	-1.364356704610295e+000
1	 1.354986548085892e+000	 1.416207418145904e+000	-1.660553537035329e+000
1	 1.339265835714243e+000	 1.431083141976285e+000	-1.950647420069064e+000
1	 1.323384736507713e+000	 1.445781689936458e+000	-2.232412332183003e+000
1	 1.307346256798566e+000	 1.460300487930869e+000	-2.503600498688118e+000
1	 1.480169434085108e+000	 1.325134097447286e+000	-1.209405384252256e-001
1	 1.465453092353505e+000	 1.341390797784841e+000	-3.960243818890620e-001
1	 1.450554554966089e+000	 1.357487976290097e+000	-6.756664808895017e-001
1	 1.435476431041720e+000	 1.373422585726433e+000	-9.581444911658182e-001
1	 1.420221397328001e+000	 1.389191636118633e+000	-1.241695711498978e+000
1	 1.404792196620206e+000	 1.404792196620206e+000	-1.524520501345497e+000
1	 1.389191636118633e+000	 1.420221397328000e+000	-1.804785770145839e+000
1	 1.373422585726434e+000	 1.435476431041720e+000	-2.080628530823324e+000
1	 1.357487976290097e+000	 1.450554554966089e+000	-2.350159509818629e+000
1	 1.341390797784841e+000	 1.465453092353505e+000	-2.611466805859394e+000
1	 1.325134097447286e+000	 1.480169434085108e+000	-2.862619589541715e+000
1	 1.500038380238764e+000	 1.342921938095756e+000	-6.621262089032917e-001
1	 1.485124494769979e+000	 1.359396859061667e+000	-9.213032894650510e-001
1	 1.470025967955333e+000	 1.375710116865597e+000	-1.182817632697902e+000
1	 1.454745443936998e+000	 1.391858623366575e+000	-1.445310543346302e+000
1	 1.439285635393696e+000	 1.407839348453674e+000	-1.707390530892757e+000
1	 1.423649321938409e+000	 1.423649321938408e+000	-1.967636124616291e+000
1	 1.407839348453675e+000	 1.439285635393696e+000	-2.224598747618114e+000
1	 1.391858623366575e+000	 1.454745443936998e+000	-2.476805643602220e+000
1	 1.375710116865597e+000	 1.470025967955333e+000	-2.722762850059201e+000
1	 1.359396859061667e+000	 1.485124494769979e+000	-2.960958211379993e+000
1	 1.342921938095756e+000	 1.500038380238765e+000	-3.189864425326341e+000
1	 1.519907326391754e+000	 1.360709778744060e+000	-1.202259565078194e+000
1	 1.504795897185810e+000	 1.377402920338258e+000	-1.442176888940054e+000
1	 1.489497380943965e+000	 1.393932257440796e+000	-1.682045749318969e+000
1	 1.474014456831702e+000	 1.410294661006352e+000	-1.920944600885472e+000
1	 1.458349873458863e+000	 1.426487060788292e+000	-2.157928525198509e+000
1	 1.442506447256132e+000	 1.442506447256132e+000	-2.392031295370667e+000
1	 1.426487060788292e+000	 1.458349873458862e+000	-2.622267483694505e+000
1	 1.410294661006352e+000	 1.474014456831703e+000	-2.847634607615335e+000
1	 1.393932257440795e+000	 1.489497380943965e+000	-3.067115309333470e+000
1	 1.377402920338257e+000	 1.504795897185810e+000	-3.279679564230245e+000
1	 1.360709778744060e+000	 1.519907326391754e+000	-3.484286913239319e+000
1	 1.539776272543993e+000	 1.378497619392281e+000	-1.740218824618900e+000
1	 1.524467299600929e+000	 1.395408981614681e+000	-1.957362359174557e+000
1	 1.508968793931934e+000	 1.412154398015745e+000	-2.171953410095423e+000
1	 1.493283469725799e+000	 1.428730698645799e+000	-2.383578221461898e+000
1	 1.477414111523483e+000	 1.445134773122503e+000	-2.591810904150957e+000
1	 1.461363572573377e+000	 1.461363572573377e+000	-2.796214605203944e+000
1	 1.445134773122503e+000	 1.477414111523483e+000	-2.996342700908299e+000
1	 1.428730698645800e+000	 1.493283469725799e+000	-3.191740010895838e+000
1	 1.412154398015745e+000	 1.508968793931934e+000	-3.381944030502351e+000
1	 1.395408981614681e+000	 1.524467299600929e+000	-3.566486178584015e+000
1	 1.378497619392282e+000	 1.539776272543993e+000	-3.744893057946319e+000
1	 1.200619212896339e+000	 1.341086810997858e+000	 2.512540549369766e-001
1	 1.185746094326383e+000	 1.354254932090050e+000	-8.090296172126911e-002
1	 1.170734073575938e+000	 1.367253388693743e+000	-4.137034428885555e-001
1	 1.155586059003449e+000	 1.380080008951025e+000	-7.463453109549408e-001
1	 1.140305003643770e+000	 1.392732687476032e+000	-1.078044552633040e+000
1	 1.124893903309479e+000	 1.405209386483143e+000	-1.408036427553163e+000
1	 1.109355794658762e+000	 1.417508136850241e+000	-1.735576636926274e+000
1	 1.093693753232441e+000	 1.429627039115892e+000	-2.059942450036235e+000
1	 1.077910891462778e+000	 1.441564264409459e+000	-2.380433786442340e+000
1	 1.062010356656721e+000	 1.453318055313266e+000	-2.696374251897469e+000
1	 1.045995328956277e+000	 1.464886726656035e+000	-3.007112126116794e+000
1	 1.218407053548307e+000	 1.360955757153844e+000	-2.728588525797423e-001
1	 1.203313581463500e+000	 1.374318971275530e+000	-6.007671649963855e-001
1	 1.188079149285163e+000	 1.387510007235055e+000	-9.285839646680298e-001
1	 1.172706708460706e+000	 1.400526660997231e+000	-1.255694818165324e+000
1	 1.157199255775851e+000	 1.413366795983732e+000	-1.581503767614513e+000
1	 1.141559831427820e+000	 1.426028344218016e+000	-1.905434207666527e+000
1	 1.125791517064594e+000	 1.438509307404328e+000	-2.226929723749652e+000
1	 1.109897433792857e+000	 1.450807757939659e+000	-2.545454890058719e+000
1	 1.093880740157302e+000	 1.462921839857642e+000	-2.860496025844021e+000
1	 1.077744630093995e+000	 1.474849769703483e+000	-3.171561908677635e+000
1	 1.061492330860527e+000	 1.486589837339156e+000	-3.478184443491283e+000
1	 1.236194894199525e+000	 1.380824703309748e+000	-7.728548092679196e-001
1	 1.220881068599836e+000	 1.394383010461012e+000	-1.093543373705067e+000
1	 1.205424224993587e+000	 1.407766625776456e+000	-1.413840048721213e+000
1	 1.189827357917149e+000	 1.420973313043610e+000	-1.733280410457962e+000
1	 1.174093507907113e+000	 1.434000904491688e+000	-2.051417947136931e+000
1	 1.158225759545347e+000	 1.446847301953224e+000	-2.367824675266901e+000
1	 1.142227239469625e+000	 1.459510477958824e+000	-2.682091719607341e+000
1	 1.126101114352494e+000	 1.471988476763906e+000	-2.993829855875999e+000
1	 1.109850588851077e+000	 1.484279415306369e+000	-3.302670015286388e+000
1	 1.093478903530556e+000	 1.496381484094301e+000	-3.608263750104702e+000
1	 1.076989332764112e+000	 1.508292948022929e+000	-3.910283659518652e+000
1	 1.253982734850077e+000	 1.400693649465486e+000	-1.247270660327742e+000
1	 1.238448555735490e+000	 1.414447049646399e+000	-1.557989395407410e+000
1	 1.222769300701319e+000	 1.428023244317834e+000	-1.868419744987910e+000
1	 1.206948007372900e+000	 1.441419965090038e+000	-2.178211402952446e+000
1	 1.190987760037690e+000	 1.454635012999764e+000	-2.487030459867508e+000
1	 1.174891687662203e+000	 1.467666259688620e+000	-2.794559827442115e+000
1	 1.158662961874007e+000	 1.480511648513576e+000	-3.100499630451224e+000
1	 1.142304794911510e+000	 1.493169195588471e+000	-3.404567565491263e+000
1	 1.125820437544266e+000	 1.505636990755471e+000	-3.706499226021330e+000
1	 1.109213176966573e+000	 1.517913198485543e+000	-4.006048393234309e+000
1	 1.092486334667199e+000	 1.529996058707168e+000	-4.302987292390079e+000
1	 1.271770575500045e+000	 1.420562595620974e+000	-1.694725109638696e+000
1	 1.256016042870559e+000	 1.434511088831594e+000	-1.992932534228484e+000
1	 1.240114376408472e+000	 1.448279862859077e+000	-2.291329956540355e+000
1	 1.224068656828083e+000	 1.461866617136390e+000	-2.589646941646477e+000
1	 1.207882012167718e+000	 1.475269121507824e+000	-2.887627005498074e+000
1	 1.191557615778533e+000	 1.488485217424060e+000	-3.185027914903214e+000
1	 1.175098684277891e+000	 1.501512819068427e+000	-3.481621959891246e+000
1	 1.158508475470063e+000	 1.514349914413188e+000	-3.777196198060273e+000
1	 1.141790286237030e+000	 1.526994566204773e+000	-4.071552670576858e+000
1	 1.124947450402209e+000	 1.539444912877032e+000	-4.364508589573096e+000
1	 1.107983336569954e+000	 1.551699169391692e+000	-4.655896496758868e+000
1	 1.289558416149514e+000	 1.440431541776130e+000	-2.113913074070603e+000
1	 1.273583530005141e+000	 1.454575128016497e+000	-2.397264797768790e+000
1	 1.257459452115157e+000	 1.468536481400075e+000	-2.681632380557027e+000
1	 1.241189306282822e+000	 1.482313269182545e+000	-2.966792566643299e+000
1	 1.224776264297331e+000	 1.495903230015734e+000	-3.252532695228118e+000
1	 1.208223543894480e+000	 1.509304175159395e+000	-3.538650941618128e+000
1	 1.191534406681430e+000	 1.522513989623221e+000	-3.824956536841840e+000
1	 1.174712156028311e+000	 1.535530633237893e+000	-4.111269965445922e+000
1	 1.157760134929534e+000	 1.548352141654106e+000	-4.397423141207396e+000
1	 1.140681723837632e+000	 1.560976627268588e+000	-4.683259560556775e+000
1	 1.123480338472544e+000	 1.573402280076317e+000	-4.968634433563568e+000
1	 1.307346256798566e+000	 1.460300487930869e+000	-2.503600498688118e+000
1	 1.291151017139334e+000	 1.474639167201012e+000	-2.769938495304831e+000
1	 1.274804527821486e+000	 1.488793099940715e+000	-3.038439780661435e+000
1	 1.258309955737241e+000	 1.502759921228375e+000	-3.308897055945114e+000
1	 1.241670516426661e+000	 1.516537338523357e+000	-3.581109370586602e+000
1	 1.224889472010190e+000	 1.530123132894483e+000	-3.854882368566082e+000
1	 1.207970129084775e+000	 1.543515160177802e+000	-4.130028520511419e+000
1	 1.190915836586413e+000	 1.556711352062423e+000	-4.406367341204428e+000
1	 1.173729983621940e+000	 1.569709717103298e+000	-4.683725592151236e+000
1	 1.156415997273006e+000	 1.582508341660034e+000	-4.961937468912688e+000
1	 1.138977340375136e+000	 1.595105390760859e+000	-5.240844772932934e+000
1	 1.325134097447286e+000	 1.480169434085108e+000	-2.862619589541716e+000
1	 1.308718504273237e+000	 1.494703206385040e+000	-3.109962190513128e+000
1	 1.292149603527569e+000	 1.509049718480886e+000	-3.360912559488215e+000
1	 1.275430605191462e+000	 1.523206573273759e+000	-3.615249523448761e+000
1	 1.258564768555845e+000	 1.537171447030557e+000	-3.872753138197154e+000
1	 1.241555400125804e+000	 1.550942090629174e+000	-4.133205002433090e+000
1	 1.224405851488079e+000	 1.564516330732018e+000	-4.396388566071339e+000
1	 1.207119517144526e+000	 1.577892070886612e+000	-4.662089432209861e+000
1	 1.189699832314410e+000	 1.591067292552177e+000	-4.930095652181212e+000
1	 1.172150270708497e+000	 1.604040056051192e+000	-5.200198013140565e+000
1	 1.154474342277895e+000	 1.616808501445135e+000	-5.472190317667783e+000
1	 1.342921938095756e+000	 1.500038380238765e+000	-3.189864425326341e+000
1	 1.326285991406947e+000	 1.514767245568484e+000	-3.416396975846755e+000
1	 1.309494679233518e+000	 1.529306337020477e+000	-3.648255603640486e+000
1	 1.292551254645610e+000	 1.543653225318572e+000	-3.885176747575209e+000
1	 1.275459020685017e+000	 1.557805555537200e+000	-4.126892100465020e+000
1	 1.258221328241467e+000	 1.571761048363324e+000	-4.373129052100432e+000
1	 1.240841573891492e+000	 1.585517501285710e+000	-4.623611136105787e+000
1	 1.223323197702809e+000	 1.599072789710299e+000	-4.878058479691621e+000
1	 1.205669681007109e+000	 1.612424868000571e+000	-5.136188255369097e+000
1	 1.187884544144271e+000	 1.625571770441885e+000	-5.397715133694757e+000
1	 1.169971344180991e+000	 1.638511612128961e+000	-5.662351736119839e+000
1	 1.360709778744060e+000	 1.519907326391754e+000	-3.484286913239319e+000
1	 1.343853478540562e+000	 1.534831284751244e+000	-3.688353039129976e+000
1	 1.326839754939444e+000	 1.549562955559376e+000	-3.899715376112681e+000
1	 1.309671904099807e+000	 1.564099877362689e+000	-4.118040709426721e+000
1	 1.292353272814311e+000	 1.578439664043150e+000	-4.342984264257034e+000
1	 1.274887256357323e+000	 1.592580006096787e+000	-4.574190337572549e+000
1	 1.257277296295169e+000	 1.606518671838723e+000	-4.811292944503128e+000
1	 1.239526878261420e+000	 1.620253508533317e+000	-5.053916477843373e+000
1	 1.221639529700197e+000	 1.633782443448310e+000	-5.301676379245651e+000
1	 1.203618817580493e+000	 1.647103484831933e+000	-5.554179820646700e+000
1	 1.185468346084587e+000	 1.660214722812154e+000	-5.811026394457085e+000
1	 1.378497619392282e+000	 1.539776272543993e+000	-3.744893057946319e+000
1	 1.361420965674179e+000	 1.554895323933223e+000	-3.924986495976968e+000
1	 1.344184830645459e+000	 1.569819574097472e+000	-4.114577233825380e+000
1	 1.326792553554179e+000	 1.584546529405988e+000	-4.313236321547273e+000
1	 1.309247524943862e+000	 1.599073772548270e+000	-4.520515611497359e+000
1	 1.291553184473516e+000	 1.613398963829417e+000	-4.735948637574196e+000
1	 1.273713018699258e+000	 1.627519842390902e+000	-4.959051520824970e+000
1	 1.255730558820517e+000	 1.641434227355505e+000	-5.189323899382083e+000
1	 1.237609378393840e+000	 1.655140018895221e+000	-5.426249880655484e+000
1	 1.219353091017331e+000	 1.668635199221159e+000	-5.669299013661870e+000
1	 1.200965347988850e+000	 1.681917833494530e+000	-5.917927279338224e+000
1	 1.045995328956277e+000	 1.464886726656035e+000	-3.007112126116794e+000
1	 1.029869018930230e+000	 1.476268665820915e+000	-3.313695471503134e+000
1	 1.013634664473865e+000	 1.487462332141325e+000	-3.617229352969919e+000
1	 9.972955298026258e-001	 1.498466258716639e+000	-3.917183721775734e+000
1	 9.808549037040830e-001	 1.509279053342249e+000	-4.213052064551730e+000
1	 9.643160974265818e-001	 1.519899398955622e+000	-4.504352289459166e+000
1	 9.476824425612986e-001	 1.530326054011600e+000	-4.790627560372439e+000
1	 9.309572889204426e-001	 1.540557852787053e+000	-5.071447077768729e+000
1	 9.141440024143019e-001	 1.550593705615053e+000	-5.346406805154054e+000
1	 8.972459629298201e-001	 1.560432599048893e+000	-5.615130140007374e+000
1	 8.802665622133532e-001	 1.570073595956371e+000	-5.877268528376163e+000
1	 1.061492330860527e+000	 1.486589837339156e+000	-3.478184443491283e+000
1	 1.045127100592058e+000	 1.498140406255998e+000	-3.781545138671783e+000
1	 1.028652225155088e+000	 1.509499912961594e+000	-4.082840515816216e+000
1	 1.012071017126219e+000	 1.520666868822365e+000	-4.381659377114345e+000
1	 9.953868140182343e-001	 1.531639861007416e+000	-4.677613313010837e+000
1	 9.786029761374547e-001	 1.542417552941193e+000	-4.970337392269244e+000
1	 9.617228844344271e-001	 1.552998684684357e+000	-5.259490802991108e+000
1	 9.447499383506842e-001	 1.563382073242935e+000	-5.544757443647487e+000
1	 9.276875536643391e-001	 1.573566612805977e+000	-5.825846463316744e+000
1	 9.105391603372328e-001	 1.583551274911993e+000	-6.102492750461291e+000
1	 8.933082003663225e-001	 1.593335108544643e+000	-6.374457369714357e+000
1	 1.076989332764112e+000	 1.508292948022929e+000	-3.910283659518652e+000
1	 1.060385182253275e+000	 1.520012146691774e+000	-4.210034388083839e+000
1	 1.043669785835759e+000	 1.531537493782587e+000	-4.508814996882804e+000
1	 1.026846504449323e+000	 1.542867478928838e+000	-4.806321925630923e+000
1	 1.009918724331957e+000	 1.554000668673342e+000	-5.102273646323408e+000
1	 9.928898548479597e-001	 1.564935706927531e+000	-5.396411173629804e+000
1	 9.757633263072423e-001	 1.575671315357876e+000	-5.688498529001029e+000
1	 9.585425877806589e-001	 1.586206293699568e+000	-5.978323157892719e+000
1	 9.412311049141445e-001	 1.596539519997630e+000	-6.265696299631284e+000
1	 9.238323577444372e-001	 1.606669950775794e+000	-6.550453309579051e+000
1	 9.063498385190917e-001	 1.616596621133581e+000	-6.832453933377845e+000
1	 1.092486334667199e+000	 1.529996058707168e+000	-4.302987292390079e+000
1	 1.075643263914047e+000	 1.541883887128052e+000	-4.598741361890117e+000
1	 1.058687346516041e+000	 1.553575074604111e+000	-4.894730327435600e+000
1	 1.041621991772096e+000	 1.565068089035862e+000	-5.190747534552513e+000
1	 1.024450634645408e+000	 1.576361476339833e+000	-5.486607594828742e+000
1	 1.007176733558246e+000	 1.587453860914438e+000	-5.782146732589138e+000
1	 9.898037681798880e-001	 1.598343946031964e+000	-6.077223087876489e+000
1	 9.723352372105052e-001	 1.609030514156761e+000	-6.371716975454054e+000
1	 9.547746561638559e-001	 1.619512427189830e+000	-6.665531099665162e+000
1	 9.371255551515678e-001	 1.629788626640121e+000	-6.958590725096737e+000
1	 9.193914766717937e-001	 1.639858133723017e+000	-7.250843803109707e+000
1	 1.107983336569954e+000	 1.551699169391692e+000	-4.655896496758868e+000
1	 1.090901345574538e+000	 1.563755627564647e+000	-4.947267803794828e+000
1	 1.073704907196097e+000	 1.575612655425975e+000	-5.240187674471056e+000
1	 1.056397479094698e+000	 1.587268699143244e+000	-5.534536083150314e+000
1	 1.038982544958740e+000	 1.598722284006695e+000	-5.830213492488433e+000
1	 1.021463612268464e+000	 1.609972014901722e+000	-6.127141051894172e+000
1	 1.003844210052509e+000	 1.621016576706430e+000	-6.425260754726274e+000
1	 9.861278866403656e-001	 1.631854734614329e+000	-6.724535554230828e+000
1	 9.683182074136085e-001	 1.642485334382394e+000	-7.024949438329431e+000
1	 9.504187525587582e-001	 1.652907302504798e+000	-7.326507463472242e+000
1	 9.324331148245619e-001	 1.663119646312786e+000	-7.629235747874374e+000
1	 1.123480338472544e+000	 1.573402280076317e+000	-4.968634433563568e+000
1	 1.106159427234916e+000	 1.585627368001368e+000	-5.255237431286764e+000
1	 1.088722467876090e+000	 1.597650236247987e+000	-5.544810210589866e+000
1	 1.071172966417288e+000	 1.609469309250792e+000	-5.837309527349854e+000
1	 1.053514455272107e+000	 1.621083091673733e+000	-6.132711835181143e+000
1	 1.035750490978762e+000	 1.632490168889190e+000	-6.431013350761845e+000
1	 1.017884651925251e+000	 1.643689207381082e+000	-6.732230080173472e+000
1	 9.999205360703791e-001	 1.654678955072082e+000	-7.036397806516213e+000
1	 9.818617586635403e-001	 1.665458241575140e+000	-7.343572039157637e+000
1	 9.637119499661435e-001	 1.676025978369650e+000	-7.653827925070056e+000
1	 9.454747529775296e-001	 1.686381158902720e+000	-7.967260122802224e+000
1	 1.138977340375136e+000	 1.595105390760859e+000	-5.240844772932934e+000
1	 1.121417508895345e+000	 1.607499108438029e+000	-5.522294440755005e+000
1	 1.103740028556184e+000	 1.619687817069959e+000	-5.808241616948244e+000
1	 1.085948453740026e+000	 1.631669919358312e+000	-6.098710397848742e+000
1	 1.068046365585667e+000	 1.643443899340753e+000	-6.393743773019541e+000
1	 1.050037369689291e+000	 1.655008322876647e+000	-6.693403572124629e+000
1	 1.031925093798258e+000	 1.666361838055729e+000	-6.997770374944347e+000
1	 1.013713185500686e+000	 1.677503175529833e+000	-7.306943385022714e+000
1	 9.954053099137867e-001	 1.688431148767885e+000	-7.621040267527537e+000
1	 9.770051473738575e-001	 1.699144654234502e+000	-7.940196951990195e+000
1	 9.585163911308307e-001	 1.709642671492654e+000	-8.264567400675343e+000
1	 1.154474342277895e+000	 1.616808501445135e+000	-5.472190317667783e+000
1	 1.136675590555991e+000	 1.629370848874443e+000	-5.748102133003761e+000
1	 1.118757589236542e+000	 1.641725397891696e+000	-6.030144706782258e+000
1	 1.100723941063069e+000	 1.653870529465609e+000	-6.318400419197034e+000
1	 1.082578275899572e+000	 1.665804707007561e+000	-6.612969724097365e+000
1	 1.064324248400201e+000	 1.677526476863901e+000	-6.913970991714074e+000
1	 1.045965535671676e+000	 1.689034468730179e+000	-7.221540316509590e+000
1	 1.027505834931428e+000	 1.700327395987393e+000	-7.535831290845093e+000
1	 1.008948861164486e+000	 1.711404055960447e+000	-7.857014745239664e+000
1	 9.902983447820342e-001	 1.722263330099179e+000	-8.185278456076988e+000
1	 9.715580292845979e-001	 1.732904184082422e+000	-8.520826821688019e+000
1	 1.169971344180991e+000	 1.638511612128961e+000	-5.662351736119839e+000
1	 1.151933672217020e+000	 1.651242589310421e+000	-5.932341648002751e+000
1	 1.133775149917325e+000	 1.663762978713008e+000	-6.210200158326058e+000
1	 1.115499428386579e+000	 1.676071139572491e+000	-6.496059238624008e+000
1	 1.097110186213977e+000	 1.688165514673963e+000	-6.790068098406916e+000
1	 1.078611127111641e+000	 1.700044630850756e+000	-7.092392937685360e+000
1	 1.060005977545648e+000	 1.711707099404241e+000	-7.403216666461157e+000
1	 1.041298484362745e+000	 1.723151616444576e+000	-7.722738592052683e+000
1	 1.022492412415773e+000	 1.734376963152644e+000	-8.051174075200009e+000
1	 1.003591542190808e+000	 1.745382005963505e+000	-8.388754155965808e+000
1	 9.845996674389650e-001	 1.756165696671858e+000	-8.735725150516291e+000
1	 1.185468346084587e+000	 1.660214722812154e+000	-5.811026394457085e+000
1	 1.167191753878597e+000	 1.673114329745773e+000	-6.074710798876975e+000
1	 1.148792710598699e+000	 1.685800559533704e+000	-6.348105347113161e+000
1	 1.130274915710713e+000	 1.698271749678765e+000	-6.631383254569547e+000
1	 1.111642096529037e+000	 1.710526322339764e+000	-6.924734121846064e+000
1	 1.092898005823761e+000	 1.722562784837020e+000	-7.228363610668517e+000
1	 1.074046419420320e+000	 1.734379730077722e+000	-7.542493088491009e+000
1	 1.055091133794776e+000	 1.745975836901192e+000	-7.867359242789340e+000
1	 1.036035963667787e+000	 1.757349870344292e+000	-8.203213666132776e+000
1	 1.016884739600314e+000	 1.768500681827304e+000	-8.550322413188956e+000
1	 9.976413055940656e-001	 1.779427209260796e+000	-8.908965530876099e+000
1	 1.200965347988850e+000	 1.681917833494530e+000	-5.917927279338224e+000
1	 1.182449835540888e+000	 1.694986070180314e+000	-6.174922996172491e+000
1	 1.163810271280825e+000	 1.707838140353592e+000	-6.443573268684498e+000
1	 1.145050403035632e+000	 1.720472359784237e+000	-6.724084535913666e+000
1	 1.126174006844908e+000	 1.732887130004770e+000	-7.016678751273804e+000
1	 1.107184884536711e+000	 1.745080938822499e+000	-7.321592995173902e+000
1	 1.088086861295837e+000	 1.757052360750431e+000	-7.639079057885885e+000
1	 1.068883783227663e+000	 1.768800057357055e+000	-7.969402993801700e+000
1	 1.049579514920662e+000	 1.780322777535210e+000	-8.312844648286415e+000
1	 1.030177937010685e+000	 1.791619357690404e+000	-8.669697158393259e+000
1	 1.010682943750033e+000	 1.802688721849068e+000	-9.040266428764896e+000
1	 8.802665622133532e-001	 1.570073595956371e+000	-5.877268528376167e+000
1	 8.632117660713863e-001	 1.579514434436757e+000	-6.132204120673633e+000
1	 8.460824421315376e-001	 1.588755792347744e+000	-6.378849099872578e+000
1	 8.288820044695899e-001	 1.597796962967234e+000	-6.616072164328302e+000
1	 8.116138706063589e-001	 1.606637315540310e+000	-6.842766790554475e+000
1	 7.942814594508111e-001	 1.615276295033541e+000	-7.057853390115205e+000
1	 7.768881892624316e-001	 1.623713421824429e+000	-7.260281389544710e+000
1	 7.594374756351380e-001	 1.631948291327146e+000	-7.449031229924263e+000
1	 7.419327295049752e-001	 1.639980573555821e+000	-7.623116283001861e+000
1	 7.243773551837668e-001	 1.647810012626662e+000	-7.781584681002900e+000
1	 7.067747484208015e-001	 1.655436426200365e+000	-7.923521057544700e+000
1	 8.933082003663225e-001	 1.593335108544643e+000	-6.374457369714357e+000
1	 8.760007279448260e-001	 1.602915818291883e+000	-6.640983862540781e+000
1	 8.586176235547386e-001	 1.612294092054241e+000	-6.900773345701932e+000
1	 8.411623518532653e-001	 1.621469212639146e+000	-7.152688121421018e+000
1	 8.236383809936846e-001	 1.630440539946704e+000	-7.395614050614768e+000
1	 8.060491805379904e-001	 1.639207510720356e+000	-7.628462776220265e+000
1	 7.883982193890753e-001	 1.647769638231734e+000	-7.850173870050222e+000
1	 7.706889637447694e-001	 1.656126511900855e+000	-8.059716899648553e+000
1	 7.529248750760244e-001	 1.664277796852925e+000	-8.256093411881283e+000
1	 7.351094081314270e-001	 1.672223233413098e+000	-8.438338830260225e+000
1	 7.172460089701712e-001	 1.679962636540613e+000	-8.605524263264659e+000
1	 9.063498385190917e-001	 1.616596621133581e+000	-6.832453933377845e+000
1	 8.887896898180561e-001	 1.626317202147628e+000	-7.110800360137603e+000
1	 8.711528049777059e-001	 1.635832391761306e+000	-7.383997317633046e+000
1	 8.534426992366734e-001	 1.645141462311570e+000	-7.650915978275338e+000
1	 8.356628913807014e-001	 1.654243764353546e+000	-7.910449960050978e+000
1	 8.178169016248167e-001	 1.663138726407550e+000	-8.161517588051185e+000
1	 7.999082495153213e-001	 1.671825854639347e+000	-8.403064080240364e+000
1	 7.819404518539631e-001	 1.680304732474796e+000	-8.634063653837130e+000
1	 7.639170206466032e-001	 1.688575020150183e+000	-8.853521548941931e+000
1	 7.458414610785948e-001	 1.696636454199607e+000	-9.060475966310715e+000
1	 7.277172695190414e-001	 1.704488846880856e+000	-9.253999916444043e+000
1	 9.193914766717937e-001	 1.639858133723017e+000	-7.250843803109707e+000
1	 9.015786516912100e-001	 1.649718586003838e+000	-7.541251614362289e+000
1	 8.836879864005770e-001	 1.659370691468799e+000	-7.828139620725430e+000
1	 8.657230466199544e-001	 1.668813711984378e+000	-8.110402471161917e+000
1	 8.476874017675546e-001	 1.678046988760721e+000	-8.386956249894151e+000
1	 8.295846227114402e-001	 1.687069942095027e+000	-8.656740748592048e+000
1	 8.114182796413252e-001	 1.695882071047190e+000	-8.918721663718292e+000
1	 7.931919399628790e-001	 1.704482953048911e+000	-9.171892715359840e+000
1	 7.749091662168747e-001	 1.712872243447557e+000	-9.415277684130871e+000
1	 7.565735140254362e-001	 1.721049674986173e+000	-9.647932363000209e+000
1	 7.381885300675789e-001	 1.729015057221095e+000	-9.868946421163434e+000
1	 9.324331148245619e-001	 1.663119646312786e+000	-7.629235747874373e+000
1	 9.143676135644236e-001	 1.673119969860358e+000	-7.931958116635556e+000
1	 8.962231678234888e-001	 1.682908991176575e+000	-8.232840197826540e+000
1	 8.780033940032496e-001	 1.692485961657440e+000	-8.530814100291140e+000
1	 8.597119121543899e-001	 1.701850213168122e+000	-8.824832457273919e+000
1	 8.413523437980107e-001	 1.711001157782695e+000	-9.113870682372140e+000
1	 8.229283097672420e-001	 1.719938287455187e+000	-9.396929151768358e+000
1	 8.044434280716766e-001	 1.728661173623140e+000	-9.673035309078045e+000
1	 7.859013117870025e-001	 1.737169466745007e+000	-9.941245689403123e+000
1	 7.673055669721173e-001	 1.745462895772776e+000	-1.020064785944390e+001
1	 7.486597906159502e-001	 1.753541267561331e+000	-1.045036227079165e+001
1	 9.454747529775296e-001	 1.686381158902720e+000	-7.967260122802224e+000
1	 9.271565754378307e-001	 1.696521353717034e+000	-8.282561297757772e+000
1	 9.087583492465783e-001	 1.706447290884493e+000	-8.597758857931609e+000
1	 8.902837413866998e-001	 1.716158211330630e+000	-8.911835766719232e+000
1	 8.717364225413530e-001	 1.725653437575633e+000	-9.223794697354212e+000
1	 8.531200648846794e-001	 1.734932373470456e+000	-9.532660246343601e+000
1	 8.344383398932268e-001	 1.743994503863259e+000	-9.837481074508268e+000
1	 8.156949161805157e-001	 1.752839394197428e+000	-1.013733197201967e+001
1	 7.968934573571501e-001	 1.761466690042496e+000	-1.043131584407789e+001
1	 7.780376199188031e-001	 1.769876116559398e+000	-1.071856561413442e+001
1	 7.591310511643220e-001	 1.778067477901566e+000	-1.099824604182769e+001
1	 9.585163911308307e-001	 1.709642671492654e+000	-8.264567400675345e+000
1	 9.399455373115651e-001	 1.719922737573709e+000	-8.592722103395849e+000
1	 9.212935306699827e-001	 1.729985590592412e+000	-8.922573924682272e+000
1	 9.025640887704454e-001	 1.739830461003820e+000	-9.253169520532099e+000
1	 8.837609329285886e-001	 1.749456661983145e+000	-9.583574535524090e+000
1	 8.648877859715963e-001	 1.758863589158218e+000	-9.912875748038848e+000
1	 8.459483700194360e-001	 1.768050720271332e+000	-1.024018314460469e+001
1	 8.269464042895561e-001	 1.777017614771715e+000	-1.056463191986915e+001
1	 8.078856029274806e-001	 1.785763913339985e+000	-1.088538439894348e+001
1	 7.887696728656604e-001	 1.794289337346019e+000	-1.120163187912324e+001
1	 7.696023117128608e-001	 1.802593688241801e+000	-1.151259638824492e+001
1	 9.715580292845979e-001	 1.732904184082422e+000	-8.520826821688017e+000
1	 9.527344991857626e-001	 1.743324121430229e+000	-8.862119684301087e+000
1	 9.338287120938384e-001	 1.753523890300188e+000	-9.206980993717060e+000
1	 9.148444361546277e-001	 1.763502710676882e+000	-9.554533409851565e+000
1	 8.957854433162428e-001	 1.773259886390545e+000	-9.903917950422365e+000
1	 8.766555070589114e-001	 1.782794804845885e+000	-1.025429604280573e+001
1	 8.574584001460237e-001	 1.792106936679329e+000	-1.060485150673239e+001
1	 8.381978923989577e-001	 1.801195835345946e+000	-1.095479246448075e+001
1	 8.188777484981575e-001	 1.810061136637435e+000	-1.130335317546868e+001
1	 7.995017258128542e-001	 1.818702558132622e+000	-1.164979579238954e+001
1	 7.800735722617330e-001	 1.827119898582037e+000	-1.199341203629145e+001
1	 9.845996674389650e-001	 1.756165696671858e+000	-8.735725150516290e+000
1	 9.655234610605563e-001	 1.766725505286440e+000	-9.090450190620162e+000
1	 9.463638935182839e-001	 1.777062190007680e+000	-9.450691788778610e+000
1	 9.271247835393878e-001	 1.787174960349689e+000	-9.815660421315174e+000
1	 9.078099537044607e-001	 1.797063110797722e+000	-1.018458437937511e+001
1	 8.884232281467757e-001	 1.806726020533363e+000	-1.055671170278937e+001
1	 8.689684302731457e-001	 1.816163153087172e+000	-1.093131204668139e+001
1	 8.494493805088798e-001	 1.825374055920060e+000	-1.130767847768434e+001
1	 8.298698940693450e-001	 1.834358359934808e+000	-1.168512919686776e+001
1	 8.102337787605508e-001	 1.843115778919188e+000	-1.206300918671070e+001
1	 7.905448328111057e-001	 1.851646108922276e+000	-1.244069177970274e+001
1	 9.976413055940656e-001	 1.779427209260796e+000	-8.908965530876101e+000
1	 9.783124229360812e-001	 1.790126889142184e+000	-9.277425660774735e+000
1	 9.588990749434547e-001	 1.800600489714745e+000	-9.653433107542913e+000
1	 9.394051309248662e-001	 1.810847210022113e+000	-1.003629750365919e+001
1	 9.198344640933878e-001	 1.820866335204562e+000	-1.042534583870395e+001
1	 9.001909492353392e-001	 1.830657236220556e+000	-1.081992425109408e+001
1	 8.804784604009575e-001	 1.840219369494784e+000	-1.121939975465458e+001
1	 8.607008686194827e-001	 1.849552276494000e+000	-1.162316189714696e+001
1	 8.408620396412051e-001	 1.858655583232066e+000	-1.203062434810100e+001
1	 8.209658317089157e-001	 1.867528999705697e+000	-1.244122641352348e+001
1	 8.010160933611453e-001	 1.876172319262519e+000	-1.285443447529099e+001
1	 1.010682943750033e+000	 1.802688721849068e+000	-9.040266428764895e+000
1	 9.911013848124723e-001	 1.813528272997309e+000	-9.422772996366128e+000
1	 9.714342563694887e-001	 1.824138789421242e+000	-9.814945849064637e+000
1	 9.516854783112035e-001	 1.834519459694026e+000	-1.021620466689907e+001
1	 9.318589744831693e-001	 1.844669559610956e+000	-1.062598611214206e+001
1	 9.119586703247526e-001	 1.854588451907370e+000	-1.104374545523901e+001
1	 8.919884905296137e-001	 1.864275585902090e+000	-1.146895813786069e+001
1	 8.719523567309262e-001	 1.873730497067710e+000	-1.190112127049276e+001
1	 8.518541852139021e-001	 1.882952806529170e+000	-1.233975506220030e+001
1	 8.316978846581150e-001	 1.891942220492133e+000	-1.278440418042281e+001
1	 8.114873539120182e-001	 1.900698529602767e+000	-1.323463903887482e+001
1	 7.067747484208015e-001	 1.655436426200365e+000	-7.923521057544700e+000
1	 6.891256442852183e-001	 1.662860803443095e+000	-8.054010791068460e+000
1	 6.714360551290197e-001	 1.670081948955455e+000	-8.177663747189664e+000
1	 6.537093420179819e-001	 1.677099898436262e+000	-8.292975796034988e+000
1	 6.359488499726910e-001	 1.683914758373383e+000	-8.398492402098549e+000
1	 6.181579061975374e-001	 1.690526705208835e+000	-8.492810342081514e+000
1	 6.003398183486900e-001	 1.696935984454057e+000	-8.574579303546535e+000
1	 5.824978728425352e-001	 1.703142909757176e+000	-8.642503363464931e+000
1	 5.646353332059857e-001	 1.709147861924183e+000	-8.695342346044441e+000
1	 5.467554384699808e-001	 1.714951287895949e+000	-8.731913059531260e+000
1	 5.288614016073797e-001	 1.720553699683057e+000	-8.751090411978030e+000
1	 7.172460089701712e-001	 1.679962636540613e+000	-8.605524263264657e+000
1	 6.993354235518500e-001	 1.687497010056689e+000	-8.762760569872636e+000
1	 6.813837533048077e-001	 1.694825140851425e+000	-8.914485972797285e+000
1	 6.633944090908881e-001	 1.701947065152540e+000	-9.058897294040383e+000
1	 6.453707854890251e-001	 1.708862891025580e+000	-9.194240136869087e+000
1	 6.273162589980006e-001	 1.715572797526653e+000	-9.318811176478402e+000
1	 6.092341862787581e-001	 1.722077033804590e+000	-9.430960321302981e+000
1	 5.911279024377771e-001	 1.728375918154393e+000	-9.529092743106226e+000
1	 5.730007193529454e-001	 1.734469837023908e+000	-9.611670774332385e+000
1	 5.548559240432534e-001	 1.740359243975686e+000	-9.677215671562836e+000
1	 5.366967770835491e-001	 1.746044658606036e+000	-9.724309244266514e+000
1	 7.277172695190414e-001	 1.704488846880856e+000	-9.253999916444043e+000
1	 7.095452028179917e-001	 1.712133216670198e+000	-9.439189457702980e+000
1	 6.913314514801311e-001	 1.719568332747231e+000	-9.620281043994755e+000
1	 6.730794761633667e-001	 1.726794231868579e+000	-9.795203382661516e+000
1	 6.547927210049780e-001	 1.733811023677469e+000	-9.961932857175897e+000
1	 6.364746117981360e-001	 1.740618889844100e+000	-1.011849635113158e+001
1	 6.181285542085547e-001	 1.747218083154697e+000	-1.026297393388975e+001
1	 5.997579320328053e-001	 1.753608926551139e+000	-1.039350140511252e+001
1	 5.813661054997462e-001	 1.759791812123126e+000	-1.050827269581545e+001
1	 5.629564096164186e-001	 1.765767200054896e+000	-1.060554212397186e+001
1	 5.445321525596547e-001	 1.771535617528480e+000	-1.068362650309686e+001
1	 7.381885300675789e-001	 1.729015057221095e+000	-9.868946421163434e+000
1	 7.197549820838096e-001	 1.736769423283644e+000	-1.008336112411285e+001
1	 7.012791496551518e-001	 1.744311524642915e+000	-1.029518085401995e+001
1	 6.827645432355752e-001	 1.751641398584440e+000	-1.050209580141077e+001
1	 6.642146565207017e-001	 1.758759156329126e+000	-1.070184244272899e+001
1	 6.456329645980879e-001	 1.765664982161268e+000	-1.089220685935345e+001
1	 6.270229221382165e-001	 1.772359132504484e+000	-1.107102791042352e+001
1	 6.083879616277474e-001	 1.778841934947530e+000	-1.123620025585515e+001
1	 5.897314916465081e-001	 1.785113787221967e+000	-1.138567722637341e+001
1	 5.710568951895859e-001	 1.791175156133712e+000	-1.151747353782969e+001
1	 5.523675280357959e-001	 1.797026576450526e+000	-1.162966784750876e+001
1	 7.486597906159502e-001	 1.753541267561331e+000	-1.045036227079165e+001
1	 7.299647613494683e-001	 1.761405629897045e+000	-1.069533567655637e+001
1	 7.112268478300333e-001	 1.769054716538517e+000	-1.093930991712173e+001
1	 6.924496103076727e-001	 1.776488565300181e+000	-1.117976500314323e+001
1	 6.736365920363487e-001	 1.783707288980629e+000	-1.141422556246830e+001
1	 6.547913173980023e-001	 1.790711074478250e+000	-1.164026461700837e+001
1	 6.359172900678811e-001	 1.797500181854058e+000	-1.185550720668738e+001
1	 6.170179912227322e-001	 1.804074943343686e+000	-1.205763385605067e+001
1	 5.980968777933491e-001	 1.810435762320554e+000	-1.224438387960090e+001
1	 5.791573807628641e-001	 1.816583112212264e+000	-1.241355852240379e+001
1	 5.602029035120719e-001	 1.822517535372305e+000	-1.256302393298553e+001
1	 7.591310511643220e-001	 1.778067477901566e+000	-1.099824604182769e+001
1	 7.401745406151347e-001	 1.786041836510427e+000	-1.127516990606175e+001
1	 7.211745460049378e-001	 1.793797908434078e+000	-1.155278587747923e+001
1	 7.021346773798164e-001	 1.801335732015862e+000	-1.182839093248285e+001
1	 6.830585275520711e-001	 1.808655421632055e+000	-1.209932472363150e+001
1	 6.639496701980238e-001	 1.815757166795140e+000	-1.236297377826036e+001
1	 6.448116579976856e-001	 1.822641231203525e+000	-1.261677553853704e+001
1	 6.256480208178877e-001	 1.829307951739723e+000	-1.285822223778695e+001
1	 6.064622639403884e-001	 1.835757737419014e+000	-1.308486460843986e+001
1	 5.872578663363622e-001	 1.841991068290684e+000	-1.329431541745556e+001
1	 5.680382789885817e-001	 1.848008494293950e+000	-1.348425282560480e+001
1	 7.696023117128608e-001	 1.802593688241801e+000	-1.151259638824492e+001
1	 7.503843198809724e-001	 1.810678043123807e+000	-1.182291751284851e+001
1	 7.311222441800278e-001	 1.818541100329640e+000	-1.213571997657488e+001
1	 7.118197444521650e-001	 1.826182898731543e+000	-1.244814374070074e+001
1	 6.924804630680210e-001	 1.833603554283482e+000	-1.275736923517870e+001
1	 6.731080229982976e-001	 1.840803259112029e+000	-1.306062194390718e+001
1	 6.537060259277669e-001	 1.847782280552992e+000	-1.335517682686055e+001
1	 6.342780504133430e-001	 1.854540960135760e+000	-1.363836257321443e+001
1	 6.148276500877450e-001	 1.861079712517475e+000	-1.390756568013986e+001
1	 5.953583519101899e-001	 1.867399024369105e+000	-1.416023435248527e+001
1	 5.758736544654247e-001	 1.873499453215596e+000	-1.439388221910734e+001
1	 7.800735722617330e-001	 1.827119898582037e+000	-1.199341203629145e+001
1	 7.605940991471489e-001	 1.835314249737210e+000	-1.233862931377399e+001
1	 7.410699423554661e-001	 1.843284292225242e+000	-1.268821748292503e+001
1	 7.215048115248767e-001	 1.851030065447285e+000	-1.303918444301692e+001
1	 7.019023985843511e-001	 1.858551686934985e+000	-1.338857609362361e+001
1	 6.822663757989691e-001	 1.865849351429012e+000	-1.373348127239472e+001
1	 6.626003938582623e-001	 1.872923329902566e+000	-1.407103652615971e+001
1	 6.429080800092253e-001	 1.879773968531916e+000	-1.439843070883930e+001
1	 6.231930362355381e-001	 1.886401687616062e+000	-1.471290940020848e+001
1	 6.034588374844560e-001	 1.892806980447657e+000	-1.501177914012407e+001
1	 5.837090299427000e-001	 1.898990412137376e+000	-1.529241147340114e+001
1	 7.905448328111057e-001	 1.851646108922276e+000	-1.244069177970274e+001
1	 7.708038784138284e-001	 1.859950456350654e+000	-1.282235343329252e+001
1	 7.510176405314152e-001	 1.868027484120925e+000	-1.321037808765817e+001
1	 7.311898785981090e-001	 1.875877232163145e+000	-1.360166552366380e+001
1	 7.113243341012138e-001	 1.883499819586643e+000	-1.399315079846299e+001
1	 6.914247286001836e-001	 1.890895443746181e+000	-1.438180950253536e+001
1	 6.714947617893092e-001	 1.898064379252353e+000	-1.476466284754411e+001
1	 6.515381096056636e-001	 1.905006976928308e+000	-1.513878257788106e+001
1	 6.315584223838864e-001	 1.911723662714902e+000	-1.550129569935230e+001
1	 6.115593230592691e-001	 1.918214936526472e+000	-1.584938901905075e+001
1	 5.915444054205066e-001	 1.924481371059421e+000	-1.618031349105820e+001
1	 8.010160933611453e-001	 1.876172319262519e+000	-1.285443447529099e+001
1	 7.810136576811766e-001	 1.884586662964163e+000	-1.327413547943703e+001
1	 7.609653387080380e-001	 1.892770676016731e+000	-1.370229626906603e+001
1	 7.408749456720213e-001	 1.900724398879184e+000	-1.413573149349165e+001
1	 7.207462696187608e-001	 1.908447952238532e+000	-1.457128810364944e+001
1	 7.005830814020861e-001	 1.915941536063627e+000	-1.500585089600894e+001
1	 6.803891297210440e-001	 1.923205428602460e+000	-1.543634788580014e+001
1	 6.601681392027861e-001	 1.930239985325052e+000	-1.585975550185222e+001
1	 6.399238085329084e-001	 1.937045637814121e+000	-1.627310359594689e+001
1	 6.196598086347389e-001	 1.943622892605682e+000	-1.667348026020381e+001
1	 5.993797808989435e-001	 1.949972329981867e+000	-1.705803644662887e+001
1	 8.114873539120182e-001	 1.900698529602767e+000	-1.323463903887482e+001
1	 7.912234369493598e-001	 1.909222869577757e+000	-1.369401870617609e+001
1	 7.709130368854968e-001	 1.917513867912702e+000	-1.416406162893003e+001
1	 7.505600127467703e-001	 1.925571565595462e+000	-1.464151940440246e+001
1	 7.301682051371443e-001	 1.933396084890728e+000	-1.512317271088200e+001
1	 7.097414342048215e-001	 1.940987628381445e+000	-1.560583710689299e+001
1	 6.892834976536051e-001	 1.948346477952993e+000	-1.608636865919890e+001
1	 6.687981688007214e-001	 1.955472993722270e+000	-1.656166939136558e+001
1	 6.482891946827237e-001	 1.962367612913845e+000	-1.702869254527870e+001
1	 6.277602942109746e-001	 1.969030848685419e+000	-1.748444764863551e+001
1	 6.072151563781101e-001	 1.975463288904845e+000	-1.792600538206755e+001
1	 5.288614016073797e-001	 1.720553699683057e+000	-8.751090411978030e+000
1	 5.109564077608135e-001	 1.725955672830829e+000	-8.754786916501043e+000
1	 4.930436120318358e-001	 1.731157843990140e+000	-8.745396641834486e+000
1	 4.751261388703822e-001	 1.736160911033619e+000	-8.722615752422238e+000
1	 4.572070809624126e-001	 1.740965632275259e+000	-8.686212201883434e+000
1	 4.392894979044454e-001	 1.745572825227723e+000	-8.636024167283983e+000
1	 4.213764149277031e-001	 1.749983365329664e+000	-8.571958403372381e+000
1	 4.034708216724216e-001	 1.754198184645169e+000	-8.493988522047674e+000
1	 3.855756710127967e-001	 1.758218270537386e+000	-8.402153202359596e+000
1	 3.676938779329494e-001	 1.762044664318403e+000	-8.296554336356167e+000
1	 3.498283184541985e-001	 1.765678459877450e+000	-8.177355116094343e+000
1	 5.366967770835491e-001	 1.746044658606036e+000	-9.724309244266514e+000
1	 5.185265108061257e-001	 1.751526664987303e+000	-9.755009851571092e+000
1	 5.003483270571110e-001	 1.756805909202691e+000	-9.771845716737408e+000
1	 4.821653965768892e-001	 1.761883099464191e+000	-9.774207809932239e+000
1	 4.639808578712683e-001	 1.766759005320630e+000	-9.761563636613415e+000
1	 4.457978158663765e-001	 1.771434456396564e+000	-9.733456088357633e+000
1	 4.276193406139059e-001	 1.775910341100748e+000	-9.689502196174511e+000
1	 4.094484660472607e-001	 1.780187605306307e+000	-9.629391791199582e+000
1	 3.912881887890963e-001	 1.784267251004713e+000	-9.552886077742365e+000
1	 3.731414670106318e-001	 1.788150334935661e+000	-9.459816123733717e+000
1	 3.550112193430272e-001	 1.791837967194950e+000	-9.350081273665754e+000
1	 5.445321525596547e-001	 1.771535617528480e+000	-1.068362650309686e+001
1	 5.260966138514088e-001	 1.777097657143252e+000	-1.074474770337620e+001
1	 5.076530420823825e-001	 1.782453974414742e+000	-1.079154579214990e+001
1	 4.892046542834104e-001	 1.787605287894299e+000	-1.082307391730657e+001
1	 4.707546347801495e-001	 1.792552378365583e+000	-1.083846607856402e+001
1	 4.523061338283391e-001	 1.797296087565045e+000	-1.083693646605170e+001
1	 4.338622663001412e-001	 1.801837316871536e+000	-1.081777868284828e+001
1	 4.154261104221303e-001	 1.806177025967220e+000	-1.078036485587941e+001
1	 3.970007065654226e-001	 1.810316231471889e+000	-1.072414463972122e+001
1	 3.785890560883355e-001	 1.814256005552847e+000	-1.064864411797803e+001
1	 3.601941202318723e-001	 1.817997474512458e+000	-1.055346460701205e+001
1	 5.523675280357959e-001	 1.797026576450526e+000	-1.162966784750876e+001
1	 5.336667168967521e-001	 1.802668649298809e+000	-1.172465229476496e+001
1	 5.149577571077297e-001	 1.808102039626417e+000	-1.180514729902587e+001
1	 4.962439119900155e-001	 1.813327476324059e+000	-1.186983690101108e+001
1	 4.775284116891162e-001	 1.818345751410224e+000	-1.191748988853811e+001
1	 4.588144517903843e-001	 1.823157718733256e+000	-1.194695969265577e+001
1	 4.401051919864520e-001	 1.827764292642103e+000	-1.195718414816972e+001
1	 4.214037547970657e-001	 1.832166446627964e+000	-1.194718512236263e+001
1	 4.027132243418035e-001	 1.836365211938954e+000	-1.191606801591746e+001
1	 3.840366451660822e-001	 1.840361676169979e+000	-1.186302114023886e+001
1	 3.653770211207496e-001	 1.844156981829972e+000	-1.178731497553737e+001
1	 5.602029035120719e-001	 1.822517535372305e+000	-1.256302393298553e+001
1	 5.412368199422444e-001	 1.828239641454104e+000	-1.269533898125044e+001
1	 5.222624721332320e-001	 1.833750104837843e+000	-1.281326427885502e+001
1	 5.032831696967738e-001	 1.839049664753587e+000	-1.291508474242765e+001
1	 4.843021885982289e-001	 1.844139124454658e+000	-1.299917351753466e+001
1	 4.653227697525628e-001	 1.849019349901286e+000	-1.306399250084252e+001
1	 4.463481176728810e-001	 1.853691268412522e+000	-1.310809270608918e+001
1	 4.273813991721016e-001	 1.858155867288595e+000	-1.313011447695822e+001
1	 4.084257421182667e-001	 1.862414192405942e+000	-1.312878755022014e+001
1	 3.894842342438936e-001	 1.866467346787076e+000	-1.310293097276463e+001
1	 3.705599220096755e-001	 1.870316489147490e+000	-1.305145287638297e+001
1	 5.680382789885817e-001	 1.848008494293950e+000	-1.348425282560480e+001
1	 5.488069229879748e-001	 1.853810633609267e+000	-1.365738916611639e+001
1	 5.295671871589682e-001	 1.859398170049142e+000	-1.381647689339879e+001
1	 5.103224274037549e-001	 1.864771853182998e+000	-1.395937298107524e+001
1	 4.910759655075475e-001	 1.869932497498987e+000	-1.408402570752778e+001
1	 4.718310877149262e-001	 1.874880981069227e+000	-1.418847587131693e+001
1	 4.525910433594708e-001	 1.879618244182866e+000	-1.427085782882558e+001
1	 4.333590435472733e-001	 1.884145287949170e+000	-1.432940035640192e+001
1	 4.141382598948399e-001	 1.888463172872894e+000	-1.436242733962058e+001
1	 3.949318233217909e-001	 1.892573017404154e+000	-1.436835829261681e+001
1	 3.757428228986661e-001	 1.896475996465010e+000	-1.434570871075633e+001
1	 5.758736544654247e-001	 1.873499453215596e+000	-1.439388221910734e+001
1	 5.563770260340329e-001	 1.879381625764431e+000	-1.461135261019862e+001
1	 5.368719021850180e-001	 1.885046235260443e+000	-1.481533372953956e+001
1	 5.173616851110285e-001	 1.890494041612411e+000	-1.500322692164106e+001
1	 4.978497424171324e-001	 1.895725870543315e+000	-1.517252751258158e+001
1	 4.783394056775259e-001	 1.900742612237167e+000	-1.532082678473150e+001
1	 4.588339690462645e-001	 1.905545219953211e+000	-1.544581375113074e+001
1	 4.393366879226154e-001	 1.910134708609745e+000	-1.554527673086563e+001
1	 4.198507776715514e-001	 1.914512153339845e+000	-1.561710472722156e+001
1	 4.003794123997961e-001	 1.918678688021233e+000	-1.565928861079632e+001
1	 3.809257237877377e-001	 1.922635503782531e+000	-1.566992211015477e+001
1	 5.837090299427000e-001	 1.898990412137376e+000	-1.529241147340114e+001
1	 5.639471290805076e-001	 1.904952617919726e+000	-1.555774955563624e+001
1	 5.441766172114603e-001	 1.910694300471868e+000	-1.581035391849639e+001
1	 5.244009428186642e-001	 1.916216230041938e+000	-1.604714366325650e+001
1	 5.046235193270438e-001	 1.921519243587748e+000	-1.626513415718414e+001
1	 4.848477236404132e-001	 1.926604243405198e+000	-1.646143983250154e+001
1	 4.650768947333047e-001	 1.931472195723630e+000	-1.663327676145289e+001
1	 4.453143322981632e-001	 1.936124129270376e+000	-1.677796500779515e+001
1	 4.255632954484288e-001	 1.940561133806834e+000	-1.689293075553962e+001
1	 4.058270014779305e-001	 1.944784358638330e+000	-1.697570821627197e+001
1	 3.861086246769064e-001	 1.948795011100049e+000	-1.702394131685509e+001
1	 5.915444054205066e-001	 1.924481371059421e+000	-1.618031349105820e+001
1	 5.715172321274878e-001	 1.930523610075283e+000	-1.649707268083930e+001
1	 5.514813322383746e-001	 1.936342365683543e+000	-1.680202908661880e+001
1	 5.314402005267317e-001	 1.941938418471699e+000	-1.709159396749801e+001
1	 5.113972962373418e-001	 1.947312616632389e+000	-1.736227674689219e+001
1	 4.913560416036388e-001	 1.952465874573409e+000	-1.761068869960259e+001
1	 4.713198204206343e-001	 1.957399171494196e+000	-1.783354639048793e+001
1	 4.512919766739515e-001	 1.962113549931120e+000	-1.802767486391624e+001
1	 4.312758132255001e-001	 1.966610114273899e+000	-1.819001058378127e+001
1	 4.112745905562159e-001	 1.970890029255462e+000	-1.831760412445780e+001
1	 3.912915255661882e-001	 1.974954518417563e+000	-1.840762261363859e+001
1	 5.993797808989435e-001	 1.949972329981867e+000	-1.705803644662887e+001
1	 5.790873351750631e-001	 1.956094602231232e+000	-1.742978890211973e+001
1	 5.587860472658400e-001	 1.961990430895594e+000	-1.779082515317004e+001
1	 5.384794582353004e-001	 1.967660606901807e+000	-1.813702397987265e+001
1	 5.181710731480863e-001	 1.973105989677342e+000	-1.846436384480140e+001
1	 4.978643595672542e-001	 1.978327505741890e+000	-1.876892753106498e+001
1	 4.775627461082961e-001	 1.983326147264985e+000	-1.904690650650547e+001
1	 4.572696210500153e-001	 1.988102970592032e+000	-1.929460501198279e+001
1	 4.369883310027929e-001	 1.992659094741074e+000	-1.950844387239065e+001
1	 4.167221796346737e-001	 1.996995699872648e+000	-1.968496402973115e+001
1	 3.964744264555997e-001	 2.001114025735070e+000	-1.982082979824466e+001
1	 6.072151563781101e-001	 1.975463288904845e+000	-1.792600538206755e+001
1	 5.866574382233224e-001	 1.981665594387705e+000	-1.835634103583471e+001
1	 5.660907622939357e-001	 1.987638496108145e+000	-1.877718398892144e+001
1	 5.455187159444396e-001	 1.993382795332379e+000	-1.918385681802075e+001
1	 5.249448500593381e-001	 1.998899362722714e+000	-1.957178292596264e+001
1	 5.043726775313110e-001	 2.004189136910731e+000	-1.993649219267111e+001
1	 4.838056717963329e-001	 2.009253123036070e+000	-2.027362632587265e+001
1	 4.632472654263897e-001	 2.014092391253171e+000	-2.057894390816093e+001
1	 4.427008487803356e-001	 2.018708075208402e+000	-2.084832513782398e+001
1	 4.221697687133255e-001	 2.023101370489906e+000	-2.107777626162720e+001
1	 4.016573273451569e-001	 2.027273533052570e+000	-2.126343369851448e+001
1	 3.498283184541985e-001	 1.765678459877450e+000	-8.177355116094342e+000
1	 3.319845031998169e-001	 1.769120300513190e+000	-8.039962464895480e+000
1	 3.141625416233765e-001	 1.772371941244703e+000	-7.879810976795613e+000
1	 2.963651817210658e-001	 1.775434626186778e+000	-7.697243970259954e+000
1	 2.785951288690975e-001	 1.778309646314947e+000	-7.492652577846741e+000
1	 2.608550450100400e-001	 1.780998338017287e+000	-7.266473575269361e+000
1	 2.431475478902918e-001	 1.783502081636491e+000	-7.019187197339969e+000
1	 2.254752103484412e-001	 1.785822300004091e+000	-6.751314945362199e+000
1	 2.078405596541675e-001	 1.787960456968690e+000	-6.463417390413020e+000
1	 1.902460768972755e-001	 1.789918055920011e+000	-6.156091976821087e+000
1	 1.726941964264004e-001	 1.791696638310540e+000	-5.829970830006918e+000
1	 3.550112193430272e-001	 1.791837967194950e+000	-9.350081273665754e+000
1	 3.369030380524930e-001	 1.795330800612061e+000	-9.218659152468199e+000
1	 3.188170342142214e-001	 1.798630616207665e+000	-9.060521698768273e+000
1	 3.007559965374987e-001	 1.801738676528800e+000	-8.875706151992599e+000
1	 2.827226704801975e-001	 1.804656291677526e+000	-8.664305734314644e+000
1	 2.647197574230519e-001	 1.807384817841254e+000	-8.426467812503001e+000
1	 2.467499138958356e-001	 1.809925655813227e+000	-8.162392024951766e+000
1	 2.288157508551774e-001	 1.812280249505019e+000	-7.872328378442566e+000
1	 2.109198330136687e-001	 1.814450084452968e+000	-7.556575319111625e+000
1	 1.930646782198457e-001	 1.816436686320356e+000	-7.215477782010994e+000
1	 1.752527568885781e-001	 1.818241619397146e+000	-6.849425223556632e+000
1	 3.601941202318723e-001	 1.817997474512458e+000	-1.055346460701206e+001
1	 3.418215729051807e-001	 1.821541300711022e+000	-1.043310913377510e+001
1	 3.234715268050726e-001	 1.824889291170791e+000	-1.028204966646246e+001
1	 3.051468113539313e-001	 1.828042726871060e+000	-1.009999328564774e+001
1	 2.868502120912874e-001	 1.831002937040409e+000	-9.886711782399035e+000
1	 2.685844698360398e-001	 1.833771297665584e+000	-9.642040186752714e+000
1	 2.503522799013355e-001	 1.836349229990371e+000	-9.365875237783502e+000
1	 2.321562913618431e-001	 1.838738199006388e+000	-9.058173799791847e+000
1	 2.139991063730645e-001	 1.840939711937706e+000	-8.718951229109386e+000
1	 1.958832795422659e-001	 1.842955316721160e+000	-8.348279695990867e+000
1	 1.778113173505509e-001	 1.844786600484193e+000	-7.946286466016655e+000
1	 3.653770211207496e-001	 1.844156981829972e+000	-1.178731497553737e+001
1	 3.467401077578918e-001	 1.847751800810049e+000	-1.168294262690420e+001
1	 3.281260193959391e-001	 1.851147966134042e+000	-1.154384839593917e+001
1	 3.095376261703706e-001	 1.854346777213498e+000	-1.136938603291837e+001
1	 2.909777537023743e-001	 1.857349582403519e+000	-1.115898327208460e+001
1	 2.724491822490120e-001	 1.860157777490180e+000	-1.091214076001710e+001
1	 2.539546459068039e-001	 1.862772804167814e+000	-1.062843090015473e+001
1	 2.354968318684564e-001	 1.865196148508078e+000	-1.030749661795449e+001
1	 2.170783797323812e-001	 1.867429339422771e+000	-9.949050051207998e+000
1	 1.987018808645739e-001	 1.869473947122285e+000	-9.552871170061668e+000
1	 1.803698778123702e-001	 1.871331581571538e+000	-9.118806331299417e+000
1	 3.705599220096755e-001	 1.870316489147490e+000	-1.305145287638297e+001
1	 3.516586426106382e-001	 1.873962300909120e+000	-1.296781053801911e+001
1	 3.327805119868295e-001	 1.877406641097375e+000	-1.284540197723022e+001
1	 3.139284409868238e-001	 1.880650827556055e+000	-1.268320530009953e+001
1	 2.951052953134649e-001	 1.883696227766776e+000	-1.248028240325322e+001
1	 2.763138946619772e-001	 1.886544257314950e+000	-1.223577833485867e+001
1	 2.575570119122528e-001	 1.889196378345448e+000	-1.194892054450435e+001
1	 2.388373723750355e-001	 1.891654098009965e+000	-1.161901802639424e+001
1	 2.201576530916456e-001	 1.893918966908032e+000	-1.124546036039457e+001
1	 2.015204821868069e-001	 1.895992577523594e+000	-1.082771665555403e+001
1	 1.829284382740870e-001	 1.897876562659040e+000	-1.036533440079505e+001
1	 3.757428228986661e-001	 1.896475996465010e+000	-1.434570871075633e+001
1	 3.565771774634313e-001	 1.900172801008212e+000	-1.428738303452909e+001
1	 3.374350045777524e-001	 1.903665316060748e+000	-1.418622296569050e+001
1	 3.183192558032973e-001	 1.906954877898667e+000	-1.404080946246954e+001
1	 2.992328369245657e-001	 1.910042873130104e+000	-1.384981760139410e+001
1	 2.801786070749438e-001	 1.912930737139797e+000	-1.361201640314199e+001
1	 2.611593779176946e-001	 1.915619952523162e+000	-1.332626851820024e+001
1	 2.421779128815985e-001	 1.918112047511930e+000	-1.299152977670498e+001
1	 2.232369264508841e-001	 1.920408594393359e+000	-1.260684860700883e+001
1	 2.043390835090026e-001	 1.922511207924947e+000	-1.217136532767208e+001
1	 1.854869987357526e-001	 1.924421543746556e+000	-1.168431131771458e+001
1	 3.809257237877377e-001	 1.922635503782531e+000	-1.566992211015477e+001
1	 3.614957123162833e-001	 1.926383301107304e+000	-1.564134823474056e+001
1	 3.420894971687164e-001	 1.929923991024120e+000	-1.556585044549284e+001
1	 3.227100706197986e-001	 1.933258928241276e+000	-1.544159181526299e+001
1	 3.033603785356840e-001	 1.936389518493424e+000	-1.526684037286057e+001
1	 2.840433194879206e-001	 1.939317216964629e+000	-1.503996942550271e+001
1	 2.647617439231413e-001	 1.942043526700847e+000	-1.475945771021913e+001
1	 2.455184533881636e-001	 1.944569997013850e+000	-1.442388937851768e+001
1	 2.263161998101232e-001	 1.946898221878620e+000	-1.403195381885721e+001
1	 2.071576848311983e-001	 1.949029838326206e+000	-1.358244532170028e+001
1	 1.880455591974182e-001	 1.950966524833943e+000	-1.307426259212382e+001
1	 3.861086246769064e-001	 1.948795011100049e+000	-1.702394131685509e+001
1	 3.664142471692060e-001	 1.952593801206374e+000	-1.702941100304478e+001
1	 3.467439897597303e-001	 1.956182665987450e+000	-1.698384824909062e+001
1	 3.271008854363341e-001	 1.959562978583822e+000	-1.688497822994363e+001
1	 3.074879201468264e-001	 1.962736163856656e+000	-1.673064241340634e+001
1	 2.879080319009157e-001	 1.965703696789349e+000	-1.651879941046989e+001
1	 2.683641099286056e-001	 1.968467100878397e+000	-1.624752562200191e+001
1	 2.488589938947491e-001	 1.971027946515605e+000	-1.591501568600981e+001
1	 2.293954731693895e-001	 1.973387849363684e+000	-1.551958273002120e+001
1	 2.099762861534316e-001	 1.975548468727234e+000	-1.505965843342934e+001
1	 1.906041196591352e-001	 1.977511505921061e+000	-1.453379290492333e+001
1	 3.912915255661882e-001	 1.974954518417563e+000	-1.840762261363859e+001
1	 3.713327820222112e-001	 1.978804301305400e+000	-1.845129184085636e+001
1	 3.513984823508028e-001	 1.982441340950695e+000	-1.843980331818548e+001
1	 3.314917002529111e-001	 1.985867028926243e+000	-1.837042499674238e+001
1	 3.116154617579995e-001	 1.989082809219724e+000	-1.824055294651723e+001
1	 2.917727443139378e-001	 1.992090176613864e+000	-1.804771276545851e+001
1	 2.719664759340993e-001	 1.994890675055700e+000	-1.778956075057275e+001
1	 2.521995344013732e-001	 1.997485896017071e+000	-1.746388483517111e+001
1	 2.324747465287095e-001	 1.999877476848419e+000	-1.706860529679823e+001
1	 2.127948874757400e-001	 2.002067099127891e+000	-1.660177524075894e+001
1	 1.931626801209544e-001	 2.004056487007765e+000	-1.606158086451287e+001
1	 3.964744264555997e-001	 2.001114025735070e+000	-1.982082979824466e+001
1	 3.762513168753105e-001	 2.005014801404359e+000	-1.990672586454103e+001
1	 3.560529749419423e-001	 2.008700015913815e+000	-1.993332419325286e+001
1	 3.358825150695361e-001	 2.012171079268478e+000	-1.989741683641502e+001
1	 3.157430033692104e-001	 2.015429454582549e+000	-1.979593627051024e+001
1	 2.956374567269953e-001	 2.018476656438079e+000	-1.962595739475392e+001
1	 2.755688419396348e-001	 2.021314249232647e+000	-1.938469925534748e+001
1	 2.555400749080536e-001	 2.023943845518130e+000	-1.906952649972957e+001
1	 2.355540198881096e-001	 2.026367104332694e+000	-1.867795056534832e+001
1	 2.156134887981608e-001	 2.028585729528039e+000	-1.820763060793721e+001
1	 1.957212405829273e-001	 2.030601468093916e+000	-1.765637417471528e+001
1	 4.016573273451569e-001	 2.027273533052570e+000	-2.126343369851448e+001
1	 3.811698517285161e-001	 2.031225301503230e+000	-2.139546186247485e+001
1	 3.607074675331575e-001	 2.034958690876767e+000	-2.146403962001273e+001
1	 3.402733298862165e-001	 2.038475129610468e+000	-2.146546506593545e+001
1	 3.198705449804655e-001	 2.041776099945052e+000	-2.139618949554311e+001
1	 2.995021691400967e-001	 2.044863136261900e+000	-2.125282002217812e+001
1	 2.791712079452243e-001	 2.047737823409130e+000	-2.103212188300726e+001
1	 2.588806154148092e-001	 2.050401795018658e+000	-2.073102043695350e+001
1	 2.386332932476166e-001	 2.052856731816378e+000	-2.034660285927934e+001
1	 2.184320901207317e-001	 2.055104359927540e+000	-1.987611953787351e+001
1	 1.982798010451052e-001	 2.057146449179369e+000	-1.931698517681344e+001
1	 1.726941964264004e-001	 1.791696638310540e+000	-5.829970830006915e+000
1	 1.551846886247798e-001	 1.793298009200867e+000	-5.479799295001883e+000
1	 1.377225603152077e-001	 1.794723502569440e+000	-5.101944142220793e+000
1	 1.203101389484920e-001	 1.795974766340585e+000	-4.699335403732110e+000
1	 1.029497023582024e-001	 1.797053480637194e+000	-4.274888557044240e+000
1	 8.564347844425330e-002	 1.797961356299908e+000	-3.831499858876158e+000
1	 6.839364490323611e-002	 1.798700133414114e+000	-3.372041852445929e+000
1	 5.120232900460125e-002	 1.799271579846228e+000	-2.899359050917458e+000
1	 3.407160741175545e-002	 1.799677489790610e+000	-2.416263799165449e+000
1	 1.700350604710066e-002	 1.799919682328466e+000	-1.925532315551548e+000
1	 0.000000000000000e+000	 1.800000000000000e+000	-1.429900914950547e+000
1	 1.752527568885781e-001	 1.818241619397146e+000	-6.849425223556632e+000
1	 1.574838360012102e-001	 1.819866715486908e+000	-6.452806026589915e+000
1	 1.397629965593997e-001	 1.821313328331721e+000	-6.021783323818838e+000
1	 1.220926004964326e-001	 1.822583130270824e+000	-5.559267334383702e+000
1	 1.044749593932499e-001	 1.823677826319064e+000	-5.068159958003934e+000
1	 8.691233415734243e-002	 1.824599152664132e+000	-4.551349970174554e+000
1	 6.940693474908768e-002	 1.825348875171750e+000	-4.011708386673606e+000
1	 5.196091995461615e-002	 1.825928787900252e+000	-3.452084000384363e+000
1	 3.457639720425804e-002	 1.826340711625985e+000	-2.875299092953150e+000
1	 1.725542243558246e-002	 1.826586492380854e+000	-2.284145323329003e+000
1	 0.000000000000000e+000	 1.826668000003317e+000	-1.681379794772956e+000
1	 1.778113173505509e-001	 1.844786600484193e+000	-7.946286466016655e+000
1	 1.597829833773705e-001	 1.846435421773350e+000	-7.506961920908288e+000
1	 1.418034328032533e-001	 1.847903154094349e+000	-7.026176578792676e+000
1	 1.238750620439718e-001	 1.849191494201344e+000	-6.506733345299024e+000
1	 1.060002164278468e-001	 1.850302172001139e+000	-5.951435268973910e+000
1	 8.818118986995374e-002	 1.851236949028488e+000	-5.363080680665487e+000
1	 7.042022459446456e-002	 1.851997616929445e+000	-4.744458492028908e+000
1	 5.271951090419792e-002	 1.852585995954273e+000	-4.098343656569343e+000
1	 3.508118699641526e-002	 1.853003933461306e+000	-3.427492796160869e+000
1	 1.750733882386074e-002	 1.853253302433154e+000	-2.734639995511818e+000
1	 0.000000000000000e+000	 1.853336000006534e+000	-2.022492766591997e+000
1	 1.803698778123702e-001	 1.871331581571538e+000	-9.118806331299417e+000
1	 1.620821307533284e-001	 1.873004128060052e+000	-8.640413300086578e+000
1	 1.438438690468529e-001	 1.874492979857181e+000	-8.113189451359762e+000
1	 1.256575235912098e-001	 1.875799858132006e+000	-7.539746605474995e+000
1	 1.075254734621056e-001	 1.876926517683292e+000	-6.922707350669660e+000
1	 8.945004558220665e-002	 1.877874745392853e+000	-6.264700207577373e+000
1	 7.143351443948548e-002	 1.878646358687085e+000	-5.568354936815045e+000
1	 5.347810185345483e-002	 1.879243204008180e+000	-4.836297993516794e+000
1	 3.558597678831350e-002	 1.879667155296469e+000	-4.071148132228978e+000
1	 1.775925521198637e-002	 1.879920112485265e+000	-3.275512165128409e+000
1	 0.000000000000000e+000	 1.880004000009551e+000	-2.451980876085081e+000
1	 1.829284382740870e-001	 1.897876562659040e+000	-1.036533440079504e+001
1	 1.643812781291512e-001	 1.899572834346869e+000	-9.851410193411125e+000
1	 1.458843052902834e-001	 1.901082805620080e+000	-9.280995712151070e+000
1	 1.274399851382471e-001	 1.902408222062676e+000	-8.656431440541388e+000
1	 1.090507304961390e-001	 1.903550863365390e+000	-7.980081356618952e+000
1	 9.071890129422065e-002	 1.904512541757102e+000	-7.254328201802654e+000
1	 7.244680428426906e-002	 1.905295100444551e+000	-6.481568871044176e+000
1	 5.423669280249519e-002	 1.905900412061864e+000	-5.664209928637203e+000
1	 3.609076658003904e-002	 1.906330377131367e+000	-4.804663253630612e+000
1	 1.801117160001025e-002	 1.906586922537085e+000	-3.905341818366886e+000
1	 0.000000000000000e+000	 1.906672000012268e+000	-2.968655603248767e+000
1	 1.854869987357526e-001	 1.924421543746556e+000	-1.168431131771458e+001
1	 1.666804255049065e-001	 1.926141540633660e+000	-1.113829918477443e+001
1	 1.479247415336293e-001	 1.927672631382903e+000	-1.052786989397304e+001
1	 1.292224466851840e-001	 1.929016585993217e+000	-9.855015666429324e+000
1	 1.105759875300598e-001	 1.930175209047304e+000	-9.121766988469679e+000
1	 9.198775700611518e-002	 1.931150338121113e+000	-8.330188062459795e+000
1	 7.346009412893398e-002	 1.931943842201728e+000	-7.482372351489037e+000
1	 5.499528375142728e-002	 1.932557620115213e+000	-6.580438222834204e+000
1	 3.659555637167828e-002	 1.932993598965896e+000	-5.626524694736844e+000
1	 1.826308798798325e-002	 1.933253732588513e+000	-4.622787290638271e+000
1	 0.000000000000000e+000	 1.933340000014584e+000	-3.571394004633192e+000
1	 1.880455591974182e-001	 1.950966524833943e+000	-1.307426259212382e+001
1	 1.689795728806618e-001	 1.952710246920282e+000	-1.249951684403331e+001
1	 1.499651777769752e-001	 1.954262457145510e+000	-1.185218043692333e+001
1	 1.310049082321210e-001	 1.955624949923494e+000	-1.113382354889168e+001
1	 1.121012445639806e-001	 1.956799554728904e+000	-1.034607138354634e+001
1	 9.325661271800977e-002	 1.957788134484761e+000	-9.490599878867029e+000
1	 7.447338397359894e-002	 1.958592583958498e+000	-8.569131476962273e+000
1	 5.575387470035939e-002	 1.959214828168119e+000	-7.583430960239746e+000
1	 3.710034616331752e-002	 1.959656820799952e+000	-6.535301359166645e+000
1	 1.851500437595628e-002	 1.959920542639449e+000	-5.426579936452818e+000
1	 0.000000000000000e+000	 1.960008000016401e+000	-4.259134252146900e+000
1	 1.906041196591352e-001	 1.977511505921061e+000	-1.453379290492333e+001
1	 1.712787202564847e-001	 1.979278953206592e+000	-1.393358368740888e+001
1	 1.520056140204057e-001	 1.980852282907762e+000	-1.325238338560267e+001
1	 1.327873697791583e-001	 1.982233313853369e+000	-1.249126933006764e+001
1	 1.136265015980141e-001	 1.983423900410058e+000	-1.165139257524675e+001
1	 9.452546843002388e-002	 1.984425930847923e+000	-1.073397394097307e+001
1	 7.548667381838257e-002	 1.985241325714745e+000	-9.740300076484127e+000
1	 5.651246564939982e-002	 1.985872036220470e+000	-8.671719553094647e+000
1	 3.760513595504313e-002	 1.986320042633429e+000	-7.529638991398900e+000
1	 1.876692076398018e-002	 1.986587352689790e+000	-6.315519228586845e+000
1	 0.000000000000000e+000	 1.986676000017618e+000	-5.030871531168815e+000
1	 1.931626801209544e-001	 2.004056487007765e+000	-1.606158086451287e+001
1	 1.735778676324426e-001	 2.005847659492447e+000	-1.543909861787626e+001
1	 1.540460502640055e-001	 2.007442108669516e+000	-1.472701658723274e+001
1	 1.345698313263964e-001	 2.008841677782708e+000	-1.392585126951506e+001
1	 1.151517586322730e-001	 2.010048246090638e+000	-1.303621347316559e+001
1	 9.579432414227686e-002	 2.011063727210475e+000	-1.205880476553860e+001
1	 7.649996366340360e-002	 2.011890067470353e+000	-1.099441389907544e+001
1	 5.727105659865683e-002	 2.012529244272157e+000	-9.843913223084540e+000
1	 3.810992574694144e-002	 2.012983264466222e+000	-8.608255087745969e+000
1	 1.901883715210586e-002	 2.013254162739434e+000	-7.288468246737722e+000
1	 0.000000000000000e+000	 2.013344000018134e+000	-5.885654264653233e+000
1	 1.957212405829273e-001	 2.030601468093916e+000	-1.765637417471528e+001
1	 1.758770150086030e-001	 2.032416365777704e+000	-1.701473380162141e+001
1	 1.560864865078591e-001	 2.034031934430634e+000	-1.627469434484405e+001
1	 1.363522928739357e-001	 2.035450041711373e+000	-1.543614615263391e+001
1	 1.166770156668700e-001	 2.036672591770513e+000	-1.449909631538577e+001
1	 9.706317985488833e-002	 2.037701523572295e+000	-1.346366559087316e+001
1	 7.751325350878065e-002	 2.038538809225204e+000	-1.233008525927293e+001
1	 5.802964754823874e-002	 2.039186452323067e+000	-1.109869391553053e+001
1	 3.861471553909877e-002	 2.039646486298226e+000	-9.769934206484857e+000
1	 1.927075354038420e-002	 2.039920972788282e+000	-8.344349520025318e+000
1	 0.000000000000000e+000	 2.040012000017850e+000	-6.822580633395686e+000
1	 1.982798010451052e-001	 2.057146449179369e+000	-1.931698517681344e+001
1	 1.781761623850336e-001	 2.058985072062221e+000	-1.865922994117658e+001
1	 1.581269227520513e-001	 2.060621760190973e+000	-1.789410248442815e+001
1	 1.381347544218765e-001	 2.062058405639229e+000	-1.702080422426242e+001
1	 1.182022727019177e-001	 2.063296937449552e+000	-1.603867755028867e+001
1	 9.833203556797766e-002	 2.064339319933258e+000	-1.494720329780412e+001
1	 7.852654335463237e-002	 2.065187550979181e+000	-1.374599809720351e+001
1	 5.878823849825383e-002	 2.065843660373091e+000	-1.243481160733784e+001
1	 3.911950533160152e-002	 2.066309708129337e+000	-1.101352364109034e+001
1	 1.952266992886609e-002	 2.066587782836232e+000	-9.482141191378533e+000
1	 0.000000000000000e+000	 2.066680000016667e+000	-7.840795365710295e+000
1	 2.066680000016667e+000	 0.000000000000000e+000	 5.665978257755045e+001
1	 2.066587782836231e+000	 1.952266992886615e-002	 5.540814880581361e+001
1	 2.066309708129336e+000	 3.911950533160163e-002	 5.414844821106843e+001
1	 2.065843660373092e+000	 5.878823849825369e-002	 5.287927375663604e+001
1	 2.065187550979181e+000	 7.852654335463230e-002	 5.159926367440923e+001
1	 2.064339319933258e+000	 9.833203556797766e-002	 5.030710438476558e+001
1	 2.063296937449552e+000	 1.182022727019178e-001	 4.900153342351387e+001
1	 2.062058405639229e+000	 1.381347544218766e-001	 4.768134237075028e+001
1	 2.060621760190974e+000	 1.581269227520511e-001	 4.634537977631073e+001
1	 2.058985072062221e+000	 1.781761623850334e-001	 4.499255407632617e+001
1	 2.057146449179369e+000	 1.982798010451051e-001	 4.362183649521298e+001
1	 2.093344000014533e+000	 0.000000000000000e+000	 5.833214389094054e+001
1	 2.093250593061714e+000	 1.977454853201645e-002	 5.701955087395295e+001
1	 2.092968930676188e+000	 3.962421940982406e-002	 5.569738891623960e+001
1	 2.092496870040883e+000	 5.954671566582060e-002	 5.436433844336595e+001
1	 2.091832295620812e+000	 7.953968121516000e-002	 5.301913750544703e+001
1	 2.090973120823608e+000	 9.960070096278299e-002	 5.166058483093620e+001
1	 2.089917289675494e+000	 1.197273009603743e-001	 5.028754287108833e+001
1	 2.088662778511150e+000	 1.399169486144205e-001	 4.889894082920959e+001
1	 2.087207597675990e+000	 1.601670529465026e-001	 4.749377766862758e+001
1	 2.085549793239212e+000	 1.804749649069133e-001	 4.607112509314852e+001
1	 2.083687448715941e+000	 2.008379777426381e-001	 4.463013049360935e+001
1	 2.120008000011600e+000	 0.000000000000000e+000	 6.007242219243855e+001
1	 2.119913403286397e+000	 2.002642713537022e-002	 5.868833820733062e+001
1	 2.119628153222235e+000	 4.012893348839165e-002	 5.729370600285182e+001
1	 2.119150079707866e+000	 6.030519283382015e-002	 5.588730224043799e+001
1	 2.118477040261631e+000	 8.055281907616123e-002	 5.446797258385880e+001
1	 2.117606921713150e+000	 1.008693663580642e-001	 5.303463485327631e+001
1	 2.116537641900631e+000	 1.212523292192781e-001	 5.158628215414851e+001
1	 2.115267151382275e+000	 1.416991428073603e-001	 5.012198597440217e+001
1	 2.113793435160225e+000	 1.622071831412843e-001	 4.864089924313317e+001
1	 2.112114514415441e+000	 1.827737674290515e-001	 4.714225934394062e+001
1	 2.110228448251783e+000	 2.033961544403597e-001	 4.562539107585768e+001
1	 2.146672000008067e+000	 0.000000000000000e+000	 6.187183234802516e+001
1	 2.146576213510477e+000	 2.027830573887656e-002	 6.040659263418252e+001
1	 2.146287375767672e+000	 4.063364756721792e-002	 5.893030380438120e+001
1	 2.145803289374231e+000	 6.106367000214360e-002	 5.744184744603140e+001
1	 2.145121784901822e+000	 8.156595693751639e-002	 5.594018457713032e+001
1	 2.144240722602052e+000	 1.021380317536996e-001	 5.442435886767377e+001
1	 2.143157994125120e+000	 1.227773574785130e-001	 5.289349982059618e+001
1	 2.141871524252747e+000	 1.434813370005902e-001	 5.134682590505104e+001
1	 2.140379272643811e+000	 1.642473133363034e-001	 4.978364763469074e+001
1	 2.138679235591033e+000	 1.850725699513688e-001	 4.820337058346741e+001
1	 2.136769447787005e+000	 2.059543311382027e-001	 4.660549833135242e+001
1	 2.173336000004134e+000	 0.000000000000000e+000	 6.372202035227605e+001
1	 2.173239023734152e+000	 2.053018434248459e-002	 6.216678456534614e+001
1	 2.172946598312694e+000	 4.113836164621647e-002	 6.060043487263135e+001
1	 2.172456499040166e+000	 6.182214717068232e-002	 5.902196639819717e+001
1	 2.171766529541564e+000	 8.257909479910577e-002	 5.743046320267418e+001
1	 2.170874523490487e+000	 1.034066971495681e-001	 5.582510153976041e+001
1	 2.169778346349123e+000	 1.243023857379629e-001	 5.420515305743454e+001
1	 2.168475897122718e+000	 1.452635311940044e-001	 5.256998793615161e+001
1	 2.166965110126884e+000	 1.662874435314671e-001	 5.091907795615577e+001
1	 2.165243956766109e+000	 1.873713724737860e-001	 4.925199948592366e+001
1	 2.163310447321718e+000	 2.085125078360998e-001	 4.756843638364629e+001
1	 2.200000000000001e+000	 0.000000000000000e+000	 6.561503720196869e+001
1	 2.199901833957622e+000	 2.078206294614344e-002	 6.396174944615405e+001
1	 2.199605820857498e+000	 4.164307572530086e-002	 6.229767887570198e+001
1	 2.199109708705859e+000	 6.258062433932760e-002	 6.062194268644133e+001
1	 2.198411274181037e+000	 8.359223266080977e-002	 5.893375562040347e+001
1	 2.197508324378621e+000	 1.046753625455480e-001	 5.723243322577685e+001
1	 2.196398698572797e+000	 1.258274139975117e-001	 5.551739504723832e+001
1	 2.195080269992334e+000	 1.470457253874971e-001	 5.378816773846494e+001
1	 2.193550947609579e+000	 1.683275737266827e-001	 5.204438808850910e+001
1	 2.191808677940789e+000	 1.896701749962238e-001	 5.028580595361635e+001
1	 2.189851446856028e+000	 2.110706845339837e-001	 4.851228708598015e+001
1	 2.226663999995867e+000	 0.000000000000000e+000	 6.754331464684873e+001
1	 2.226564644181085e+000	 2.103394154980220e-002	 6.578466590023979e+001
1	 2.226265043402275e+000	 4.214778980438460e-002	 6.401592301212114e+001
1	 2.225762918371497e+000	 6.333910150797077e-002	 6.223633371324013e+001
1	 2.225056018820421e+000	 8.460537052250870e-002	 6.044525101853558e+001
1	 2.224142125266629e+000	 1.059440279415181e-001	 5.864213645949940e+001
1	 2.223019050796304e+000	 1.273524422570433e-001	 5.682656323305093e+001
1	 2.221684642861741e+000	 1.488279195809625e-001	 5.499821925833001e+001
1	 2.220136785092031e+000	 1.703677039218573e-001	 5.315691013271194e+001
1	 2.218373399115199e+000	 1.919689775186032e-001	 5.130256197826176e+001
1	 2.216392446390048e+000	 2.136288612317870e-001	 4.943522416978370e+001
1	 2.253327999991934e+000	 0.000000000000000e+000	 6.949964266206699e+001
1	 2.253227454404741e+000	 2.128582015341000e-002	 6.762903542511093e+001
1	 2.252924265947221e+000	 4.265250388338127e-002	 6.574934381555413e+001
1	 2.252416128037271e+000	 6.409757867650315e-002	 6.385995449367029e+001
1	 2.251700763459897e+000	 8.561850838408298e-002	 6.196036629378836e+001
1	 2.250775926154679e+000	 1.072126933373569e-001	 6.005019339858158e+001
1	 2.249639403019801e+000	 1.288774705164418e-001	 5.812916841646223e+001
1	 2.248289015731089e+000	 1.506101137742947e-001	 5.619714535315886e+001
1	 2.246722622574374e+000	 1.724078341168981e-001	 5.425410246847016e+001
1	 2.244938120289457e+000	 1.942677800408449e-001	 5.230014500912350e+001
1	 2.242933445923886e+000	 2.161870379294425e-001	 5.033550780862663e+001
1	 2.279991999988401e+000	 0.000000000000000e+000	 7.147714850134516e+001
1	 2.279890264628786e+000	 2.153769875691595e-002	 6.948866351245644e+001
1	 2.279583488492532e+000	 4.315721796220443e-002	 6.749239023625165e+001
1	 2.279069337703367e+000	 6.485605584481599e-002	 6.548786259179744e+001
1	 2.278345508099645e+000	 8.663164624541291e-002	 6.347473273637758e+001
1	 2.277409727042943e+000	 1.084813587329429e-001	 6.145277415176901e+001
1	 2.276259755243449e+000	 1.304024987755909e-001	 5.942188462065972e+001
1	 2.274893388600523e+000	 1.523923079673880e-001	 5.738208908402661e+001
1	 2.273308460056743e+000	 1.744479643117125e-001	 5.533354237022471e+001
1	 2.271502841463688e+000	 1.965665825628696e-001	 5.327653178649899e+001
1	 2.269474445457651e+000	 2.187452146268828e-001	 5.121147956361048e+001
1	 2.306655999985467e+000	 0.000000000000000e+000	 7.346927720296181e+001
1	 2.306553074853420e+000	 2.178957736026917e-002	 7.135764207790314e+001
1	 2.306242711038400e+000	 4.366193204076763e-002	 6.923976789592673e+001
1	 2.305722547369975e+000	 6.561453301280069e-002	 6.711534410183927e+001
1	 2.304990252739845e+000	 8.764478410637885e-002	 6.498418363851063e+001
1	 2.304043527931590e+000	 1.097500241281548e-001	 6.284622591571000e+001
1	 2.302880107467407e+000	 1.319275270343746e-001	 6.070153965655351e+001
1	 2.301497761470192e+000	 1.541745021601365e-001	 5.855032561218619e+001
1	 2.299894297539273e+000	 1.764880945062075e-001	 5.639291913527887e+001
1	 2.298067562638013e+000	 1.988653850845982e-001	 5.422979260290089e+001
1	 2.296015444991454e+000	 2.213033913240406e-001	 5.206155767933526e+001
1	 2.333319999983334e+000	 0.000000000000000e+000	 7.546977343234498e+001
1	 2.333215885078842e+000	 2.204145596341876e-002	 7.323033309547472e+001
1	 2.332901933585021e+000	 4.416664611898443e-002	 7.098642442219564e+001
1	 2.332375757037283e+000	 6.637301018034852e-002	 6.873790059053022e+001
1	 2.331634997380677e+000	 8.865792196686113e-002	 6.648474275250285e+001
1	 2.330677328820791e+000	 1.110186895228712e-001	 6.422706285660063e+001
1	 2.329500459691833e+000	 1.334525552926768e-001	 6.196510633573468e+001
1	 2.328102134340243e+000	 1.559566963524343e-001	 5.969925465119827e+001
1	 2.326480135022099e+000	 1.785282247002904e-001	 5.743002768309518e+001
1	 2.324632283812556e+000	 2.011641876059514e-001	 5.515808595771983e+001
1	 2.322556444525403e+000	 2.238615680208486e-001	 5.288423270239832e+001
1	 2.057146449179369e+000	 1.982798010451051e-001	 4.362183649521298e+001
1	 2.055104359927541e+000	 2.184320901207318e-001	 4.224648083432819e+001
1	 2.052856731816378e+000	 2.386332932476165e-001	 4.087968693396742e+001
1	 2.050401795018658e+000	 2.588806154148092e-001	 3.952107399420689e+001
1	 2.047737823409130e+000	 2.791712079452241e-001	 3.817034175850089e+001
1	 2.044863136261900e+000	 2.995021691400968e-001	 3.682727256973189e+001
1	 2.041776099945052e+000	 3.198705449804656e-001	 3.549173333294516e+001
1	 2.038475129610468e+000	 3.402733298862165e-001	 3.416367737814871e+001
1	 2.034958690876766e+000	 3.607074675331576e-001	 3.284314621658530e+001
1	 2.031225301503230e+000	 3.811698517285159e-001	 3.153027118393110e+001
1	 2.027273533052570e+000	 4.016573273451569e-001	 3.022527496394363e+001
1	 2.083687448715941e+000	 2.008379777426381e-001	 4.463013049360936e+001
1	 2.081619012730616e+000	 2.212502686744141e-001	 4.318440175667374e+001
1	 2.079342386053916e+000	 2.417121047393327e-001	 4.174741095357322e+001
1	 2.076855776024568e+000	 2.622206548656227e-001	 4.031887787682253e+001
1	 2.074157434247109e+000	 2.827730336229843e-001	 3.889861061948312e+001
1	 2.071245658311171e+000	 3.033663018753616e-001	 3.748650761583661e+001
1	 2.068118793507961e+000	 3.239974674914737e-001	 3.608255957476459e+001
1	 2.064775234541886e+000	 3.446634861136526e-001	 3.468685129885657e+001
1	 2.061213427235205e+000	 3.653612619854609e-001	 3.329956338231641e+001
1	 2.057431870223552e+000	 3.860876488384815e-001	 3.192097378081076e+001
1	 2.053429116640150e+000	 4.068394508385930e-001	 3.055145924649488e+001
1	 2.110228448251783e+000	 2.033961544403597e-001	 4.562539107585768e+001
1	 2.108133665533004e+000	 2.240684472282250e-001	 4.410419798879173e+001
1	 2.105828040290817e+000	 2.447909162311279e-001	 4.259236515262762e+001
1	 2.103309757029900e+000	 2.655606943164766e-001	 4.108971370317109e+001
1	 2.100577045084579e+000	 2.863748593007571e-001	 3.959615978663961e+001
1	 2.097628180360006e+000	 3.072304346106214e-001	 3.811171656278359e+001
1	 2.094461487070513e+000	 3.281243900024697e-001	 3.663649608784376e+001
1	 2.091075339473031e+000	 3.490536423410803e-001	 3.517071107007898e+001
1	 2.087468163593456e+000	 3.700150564377693e-001	 3.371467649066999e+001
1	 2.083638438943774e+000	 3.910054459484762e-001	 3.226881108289994e+001
1	 2.079584700227718e+000	 4.120215743320919e-001	 3.083363866263168e+001
1	 2.136769447787005e+000	 2.059543311382027e-001	 4.660549833135242e+001
1	 2.134648318334801e+000	 2.268866257821053e-001	 4.500417568948870e+001
1	 2.132313694527165e+000	 2.478697277229482e-001	 4.341324561331515e+001
1	 2.129763738034729e+000	 2.689007337673182e-001	 4.183263145782794e+001
1	 2.126996655921599e+000	 2.899766849784880e-001	 4.026235727874514e+001
1	 2.124010702408456e+000	 3.110945673458185e-001	 3.870254977631583e+001
1	 2.120804180632748e+000	 3.322513125133902e-001	 3.715344010717862e+001
1	 2.117375444403931e+000	 3.534437985684282e-001	 3.561536555678541e+001
1	 2.113722899951540e+000	 3.746688508900029e-001	 3.408877106500143e+001
1	 2.109845007663906e+000	 3.959232430584103e-001	 3.257421059760865e+001
1	 2.105740283815281e+000	 4.172036978255548e-001	 3.107234835658421e+001
1	 2.163310447321718e+000	 2.085125078360998e-001	 4.756843638364629e+001
1	 2.161162971136105e+000	 2.297048043359963e-001	 4.588272414246499e+001
1	 2.158799348763049e+000	 2.509485392147393e-001	 4.420881240730837e+001
1	 2.156217719039129e+000	 2.722407732180951e-001	 4.254672774717280e+001
1	 2.153416266758237e+000	 2.935785106561236e-001	 4.089660212891867e+001
1	 2.150393224456572e+000	 3.149587000808951e-001	 3.925867478040369e+001
1	 2.147146874194708e+000	 3.363782350241716e-001	 3.763329391093674e+001
1	 2.143675549334621e+000	 3.578339547956261e-001	 3.602091828142121e+001
1	 2.139977636309479e+000	 3.793226453420825e-001	 3.442211861666952e+001
1	 2.136051576383962e+000	 4.008410401681957e-001	 3.283757885251282e+001
1	 2.131895867402834e+000	 4.223858213188828e-001	 3.126809721049462e+001
1	 2.189851446856028e+000	 2.110706845339837e-001	 4.851228708598016e+001
1	 2.187677623937013e+000	 2.325229828898390e-001	 4.673831071894586e+001
1	 2.185285002998553e+000	 2.540273507064468e-001	 4.497788571800454e+001
1	 2.182671700043172e+000	 2.755808126687546e-001	 4.323114297410785e+001
1	 2.179835877594552e+000	 2.971803363336100e-001	 4.149832250515379e+001
1	 2.176775746504409e+000	 3.188228328157937e-001	 3.977977521745569e+001
1	 2.173489567756436e+000	 3.405051575347510e-001	 3.807596451484066e+001
1	 2.169975654265129e+000	 3.622241110226026e-001	 3.638746774766405e+001
1	 2.166232372667292e+000	 3.839764397939289e-001	 3.471497749416270e+001
1	 2.162258145103953e+000	 4.057588372777426e-001	 3.305930266673197e+001
1	 2.158051450990382e+000	 4.275679448119764e-001	 3.142136943589901e+001
1	 2.216392446390048e+000	 2.136288612317870e-001	 4.943522416978369e+001
1	 2.214192276737622e+000	 2.353411614435744e-001	 4.756947620224344e+001
1	 2.211770657233760e+000	 2.571061621980169e-001	 4.571934224137630e+001
1	 2.209125681046936e+000	 2.789208521192439e-001	 4.388505871577032e+001
1	 2.206255488430610e+000	 3.007821620108933e-001	 4.206697396588722e+001
1	 2.203158268552019e+000	 3.226869655504569e-001	 4.026554988323778e+001
1	 2.199832261317972e+000	 3.446320800450645e-001	 3.848136338850944e+001
1	 2.196275759195487e+000	 3.666142672492870e-001	 3.671510774091878e+001
1	 2.192487109025002e+000	 3.886302342454619e-001	 3.496759367121680e+001
1	 2.188464713823888e+000	 4.106766343869623e-001	 3.323975033095906e+001
1	 2.184207034577926e+000	 4.327500683047373e-001	 3.153262605086282e+001
1	 2.242933445923886e+000	 2.161870379294425e-001	 5.033550780862664e+001
1	 2.240706929538030e+000	 2.381593399971436e-001	 4.837483044427010e+001
1	 2.238256311468759e+000	 2.601849736893952e-001	 4.643211184235854e+001
1	 2.235579662050491e+000	 2.822608915695107e-001	 4.450769528742463e+001
1	 2.232675099266471e+000	 3.043839876879194e-001	 4.260203783942058e+001
1	 2.229540790599451e+000	 3.265510982848271e-001	 4.071571183031179e+001
1	 2.226174954879359e+000	 3.487590025550492e-001	 3.884940619193982e+001
1	 2.222575864125728e+000	 3.710044234756086e-001	 3.700392760747757e+001
1	 2.218741845382629e+000	 3.932840286966024e-001	 3.518020147897676e+001
1	 2.214671282543780e+000	 4.155944314957660e-001	 3.337927270370975e+001
1	 2.210362618165463e+000	 4.379321917970662e-001	 3.160230625224118e+001
1	 2.269474445457651e+000	 2.187452146268828e-001	 5.121147956361049e+001
1	 2.267221582338333e+000	 2.409775185504877e-001	 4.915304832682837e+001
1	 2.264741965703633e+000	 2.632637851805277e-001	 4.711517444585201e+001
1	 2.262033643053913e+000	 2.856009310195024e-001	 4.509830947729310e+001
1	 2.259094710102200e+000	 3.079858133646347e-001	 4.310301971705555e+001
1	 2.255923312646760e+000	 3.304152310188462e-001	 4.112998753438494e+001
1	 2.252517648440637e+000	 3.528859250646414e-001	 3.918001253047808e+001
1	 2.248875969055882e+000	 3.753945797014968e-001	 3.725401251409152e+001
1	 2.244996581740197e+000	 3.979378231472712e-001	 3.535302428678388e+001
1	 2.240877851263638e+000	 4.205122286040643e-001	 3.347820423064886e+001
1	 2.236518201752999e+000	 4.431143152888640e-001	 3.163082869164940e+001
1	 2.296015444991454e+000	 2.213033913240406e-001	 5.206155767933526e+001
1	 2.293736235138629e+000	 2.437956971035477e-001	 4.990286600301602e+001
1	 2.291227619938468e+000	 2.663425966713601e-001	 4.776755714335936e+001
1	 2.288487624057276e+000	 2.889409704691661e-001	 4.565619243849312e+001
1	 2.285514320937859e+000	 3.115876390409852e-001	 4.356944805074181e+001
1	 2.282305834693997e+000	 3.342793637524572e-001	 4.150811611847896e+001
1	 2.278860342001849e+000	 3.570128475737778e-001	 3.947310572678656e+001
1	 2.275176073985981e+000	 3.797847359268805e-001	 3.746544368953919e+001
1	 2.271251318097723e+000	 4.025916175973881e-001	 3.548627513574519e+001
1	 2.267084419983474e+000	 4.254300257117684e-001	 3.353686389321957e+001
1	 2.262673785340533e+000	 4.482964387800323e-001	 3.161859266293536e+001
1	 2.322556444525403e+000	 2.238615680208486e-001	 5.288423270239832e+001
1	 2.320250887939015e+000	 2.466138756562646e-001	 5.062307739633909e+001
1	 2.317713274173349e+000	 2.694214081618382e-001	 4.838833149800450e+001
1	 2.314941605060654e+000	 2.922810099184495e-001	 4.618066772551380e+001
1	 2.311933931773511e+000	 3.151894647169170e-001	 4.400087284687710e+001
1	 2.308688356741215e+000	 3.381434964856023e-001	 4.184984863029412e+001
1	 2.305203035563035e+000	 3.611397700823949e-001	 3.972861260844509e+001
1	 2.301476178916054e+000	 3.841748921516888e-001	 3.763829864963190e+001
1	 2.297506054455230e+000	 4.072454120468744e-001	 3.558015732886208e+001
1	 2.293290988703300e+000	 4.303478228187891e-001	 3.355555609222901e+001
1	 2.288829368928065e+000	 4.534785622704716e-001	 3.156597920823302e+001
1	 2.027273533052570e+000	 4.016573273451569e-001	 3.022527496394363e+001
1	 2.023101370489906e+000	 4.221697687133256e-001	 2.893736071140912e+001
1	 2.018708075208402e+000	 4.427008487803357e-001	 2.767614491987420e+001
1	 2.014092391253171e+000	 4.632472654263895e-001	 2.644201606583133e+001
1	 2.009253123036069e+000	 4.838056717963328e-001	 2.523544586398907e+001
1	 2.004189136910731e+000	 5.043726775313110e-001	 2.405699001345153e+001
1	 1.998899362722714e+000	 5.249448500593382e-001	 2.290728880190299e+001
1	 1.993382795332379e+000	 5.455187159444398e-001	 2.178706756280927e+001
1	 1.987638496108145e+000	 5.660907622939356e-001	 2.069713698087102e+001
1	 1.981665594387705e+000	 5.866574382233224e-001	 1.963839324120976e+001
1	 1.975463288904845e+000	 6.072151563781103e-001	 1.861181801803319e+001
1	 2.053429116640150e+000	 4.068394508385930e-001	 3.055145924649488e+001
1	 2.049203125452439e+000	 4.276165406946643e-001	 2.920027666811591e+001
1	 2.044753148524194e+000	 4.484125097233065e-001	 2.787711171913525e+001
1	 2.040077913696388e+000	 4.692240132012558e-001	 2.658250910841825e+001
1	 2.035176209955583e+000	 4.900476610927235e-001	 2.531709956054122e+001
1	 2.030046889029278e+000	 5.108800192969424e-001	 2.408160033722315e+001
1	 2.024688866956064e+000	 5.317176109553853e-001	 2.287681560632701e+001
1	 2.019101125628145e+000	 5.525569178183158e-001	 2.170363665363829e+001
1	 2.013282714303859e+000	 5.733943816702276e-001	 2.056304193288300e+001
1	 2.007232751087750e+000	 5.942264058136259e-001	 1.945609694972307e+001
1	 2.000950424375789e+000	 6.150493566104990e-001	 1.838395397576520e+001
1	 2.079584700227718e+000	 4.120215743320919e-001	 3.083363866263168e+001
1	 2.075304880415053e+000	 4.330633126761094e-001	 2.941840337832018e+001
1	 2.070798221840153e+000	 4.541241706664352e-001	 2.803278651362699e+001
1	 2.066063436139859e+000	 4.752007609763388e-001	 2.667746944419385e+001
1	 2.061099296875428e+000	 4.962896503893942e-001	 2.535322152640393e+001
1	 2.055904641148230e+000	 5.173873610629187e-001	 2.406090040984380e+001
1	 2.050478371189883e+000	 5.384903718518439e-001	 2.280145218856387e+001
1	 2.044819455924433e+000	 5.595951196926688e-001	 2.157591138654834e+001
1	 2.038926932500135e+000	 5.806980010470583e-001	 2.038540077308704e+001
1	 2.032799907788383e+000	 6.017953734045253e-001	 1.923113100404476e+001
1	 2.026437559847334e+000	 6.228835568435334e-001	 1.811440008534824e+001
1	 2.105740283815281e+000	 4.172036978255548e-001	 3.107234835658421e+001
1	 2.101406635377738e+000	 4.385100846575524e-001	 2.959235751102434e+001
1	 2.096843295156265e+000	 4.598358316096043e-001	 2.814384987937890e+001
1	 2.092048958583554e+000	 4.811775087515100e-001	 2.672762473320646e+001
1	 2.087022383795570e+000	 5.025316396862062e-001	 2.534457049795860e+001
1	 2.081762393267542e+000	 5.238947028290933e-001	 2.399566487183985e+001
1	 2.076267875424119e+000	 5.452631327485581e-001	 2.268197477632554e+001
1	 2.070537786221185e+000	 5.666333215673344e-001	 2.140465613395850e+001
1	 2.064571150696912e+000	 5.880016204242573e-001	 2.016495346935159e+001
1	 2.058367064489540e+000	 6.093643409958431e-001	 1.896419932964855e+001
1	 2.051924695319411e+000	 6.307177570770309e-001	 1.780381352104319e+001
1	 2.131895867402834e+000	 4.223858213188828e-001	 3.126809721049461e+001
1	 2.127508390340486e+000	 4.439568566388839e-001	 2.972272547233175e+001
1	 2.122888368472507e+000	 4.655474925526937e-001	 2.821094899329756e+001
1	 2.118034481027448e+000	 4.871542565266411e-001	 2.673366692574315e+001
1	 2.112945470715970e+000	 5.087736289830220e-001	 2.529186797676063e+001
1	 2.107620145387170e+000	 5.304020445953191e-001	 2.388663034841892e+001
1	 2.102057379658718e+000	 5.520358936453725e-001	 2.251912150411413e+001
1	 2.096256116518343e+000	 5.736715234421500e-001	 2.119059775687371e+001
1	 2.090215368894127e+000	 5.953052398016531e-001	 1.990240367577890e+001
1	 2.083934221191156e+000	 6.169333085874018e-001	 1.865597130701444e+001
1	 2.077411830791955e+000	 6.385519573108083e-001	 1.745281920642271e+001
1	 2.158051450990382e+000	 4.275679448119764e-001	 3.142136943589900e+001
1	 2.153610145303288e+000	 4.494036286199951e-001	 2.981006523937798e+001
1	 2.148933441788862e+000	 4.712591534955853e-001	 2.823469965715298e+001
1	 2.144020003471510e+000	 4.931310043016033e-001	 2.669625442634069e+001
1	 2.138868557636592e+000	 5.150156182797036e-001	 2.519580048596959e+001
1	 2.133477897507068e+000	 5.369093863614491e-001	 2.373449775319792e+001
1	 2.127846883893632e+000	 5.588086545421322e-001	 2.231359472167017e+001
1	 2.121974446815849e+000	 5.807097253169513e-001	 2.093442787807627e+001
1	 2.115859587091717e+000	 6.026088591790751e-001	 1.959842093331889e+001
1	 2.109501377893164e+000	 6.245022761790249e-001	 1.830708386505537e+001
1	 2.102898966264897e+000	 6.463861575446830e-001	 1.706201176876314e+001
1	 2.184207034577926e+000	 4.327500683047373e-001	 3.153262605086282e+001
1	 2.179711900266134e+000	 4.548504006007772e-001	 2.985490806249557e+001
1	 2.174978515105309e+000	 4.769708144381600e-001	 2.821568817614332e+001
1	 2.170005525915712e+000	 4.991077520762679e-001	 2.661601410231440e+001
1	 2.164791644557400e+000	 5.212576075761127e-001	 2.505702166465641e+001
1	 2.159335649627190e+000	 5.434167281273360e-001	 2.353993442640978e+001
1	 2.153636388128806e+000	 5.655814154386811e-001	 2.206606313656064e+001
1	 2.147692777113644e+000	 5.877479271915754e-001	 2.063680499199021e+001
1	 2.141503805289620e+000	 6.099124785563528e-001	 1.925364271227102e+001
1	 2.135068534595499e+000	 6.320712437705344e-001	 1.791814342413245e+001
1	 2.128386101738172e+000	 6.542203577784719e-001	 1.663195735301449e+001
1	 2.210362618165463e+000	 4.379321917970662e-001	 3.160230625224118e+001
1	 2.205813655229016e+000	 4.602971725811210e-001	 2.985776004652673e+001
1	 2.201023588421832e+000	 4.826824753802987e-001	 2.815447310408319e+001
1	 2.195991048360028e+000	 5.050844998505065e-001	 2.649354314968310e+001
1	 2.190714731478355e+000	 5.274995968721120e-001	 2.487615421341729e+001
1	 2.185193401747493e+000	 5.499240698928333e-001	 2.330357612130024e+001
1	 2.179425892364189e+000	 5.723541763348634e-001	 2.177716380464547e+001
1	 2.173411107411672e+000	 5.947861290658582e-001	 2.029835642474769e+001
1	 2.167148023487771e+000	 6.172160979333151e-001	 1.886867630977034e+001
1	 2.160635691298096e+000	 6.396402113617532e-001	 1.748972770111847e+001
1	 2.153873237211714e+000	 6.620545580119925e-001	 1.616319530698049e+001
1	 2.236518201752999e+000	 4.431143152888640e-001	 3.163082869164940e+001
1	 2.231915410191926e+000	 4.657439445609178e-001	 2.981910362117755e+001
1	 2.227068661738412e+000	 4.883941363218828e-001	 2.805158686613473e+001
1	 2.221976570804428e+000	 5.110612476241907e-001	 2.632941082816504e+001
1	 2.216637818399421e+000	 5.337415861675627e-001	 2.465379170346607e+001
1	 2.211051153867931e+000	 5.564314116577933e-001	 2.302602885114117e+001
1	 2.205215396599727e+000	 5.791269372305239e-001	 2.144750398087561e+001
1	 2.199129437709874e+000	 6.018243309396368e-001	 1.991968015671978e+001
1	 2.192792241686112e+000	 6.245197173097915e-001	 1.844410061412962e+001
1	 2.186202848000890e+000	 6.472091789525045e-001	 1.702238738780232e+001
1	 2.179360372685457e+000	 6.698887582450618e-001	 1.565623974825206e+001
1	 2.262673785340533e+000	 4.482964387800323e-001	 3.161859266293536e+001
1	 2.258017165154852e+000	 4.711907165400585e-001	 2.973939890939219e+001
1	 2.253113735055028e+000	 4.941057972627939e-001	 2.790753726898977e+001
1	 2.247962093248883e+000	 5.170379953971916e-001	 2.612416007583848e+001
1	 2.242560905320561e+000	 5.399835754623272e-001	 2.439050026025278e+001
1	 2.236908905988459e+000	 5.629387534220696e-001	 2.270787060814017e+001
1	 2.231004900835369e+000	 5.858996981255067e-001	 2.107766284172450e+001
1	 2.224847768008192e+000	 6.088625328127471e-001	 1.950134651864141e+001
1	 2.218436459884576e+000	 6.318233366856108e-001	 1.798046774681089e+001
1	 2.211770004703814e+000	 6.547781465426102e-001	 1.651664771288339e+001
1	 2.204847508159331e+000	 6.777229584774968e-001	 1.511158102246187e+001
1	 2.288829368928065e+000	 4.534785622704716e-001	 3.156597920823302e+001
1	 2.284118920117788e+000	 4.766374885184339e-001	 2.961908500190405e+001
1	 2.279158808371665e+000	 4.998174582029122e-001	 2.772280890750652e+001
1	 2.273947615693367e+000	 5.230147431693808e-001	 2.587830901309311e+001
1	 2.268483992241738e+000	 5.462255647562675e-001	 2.408682013164470e+001
1	 2.262766658109032e+000	 5.694460951855148e-001	 2.234965296449279e+001
1	 2.256794405071063e+000	 5.926724590196567e-001	 2.066819308952075e+001
1	 2.250566098306568e+000	 6.159007346850259e-001	 1.904389977144128e+001
1	 2.244080678083104e+000	 6.391269560606027e-001	 1.747830459181561e+001
1	 2.237337161406804e+000	 6.623471141318938e-001	 1.597300989686800e+001
1	 2.230334643633273e+000	 6.855571587091147e-001	 1.452968706155366e+001
1	 1.975463288904845e+000	 6.072151563781103e-001	 1.861181801803319e+001
1	 1.969030848685419e+000	 6.277602942109749e-001	 1.761575617989953e+001
1	 1.962367612913845e+000	 6.482891946827240e-001	 1.664819086298818e+001
1	 1.955472993722270e+000	 6.687981688007213e-001	 1.570966563317524e+001
1	 1.948346477952993e+000	 6.892834976536050e-001	 1.480077770459483e+001
1	 1.940987628381445e+000	 7.097414342048217e-001	 1.392217746450430e+001
1	 1.933396084890728e+000	 7.301682051371444e-001	 1.307456787862322e+001
1	 1.925571565595462e+000	 7.505600127467703e-001	 1.225870377557677e+001
1	 1.917513867912702e+000	 7.709130368854965e-001	 1.147539100935320e+001
1	 1.909222869577758e+000	 7.912234369493599e-001	 1.072548549897481e+001
1	 1.900698529602766e+000	 8.114873539120181e-001	 1.000989214488321e+001
1	 2.000950424375789e+000	 6.150493566104990e-001	 1.838395397576520e+001
1	 1.994434993762919e+000	 6.358595647759501e-001	 1.734470480537251e+001
1	 1.987685789907810e+000	 6.566533260882138e-001	 1.633599224285306e+001
1	 1.980702217358025e+000	 6.774269039598259e-001	 1.535839970839789e+001
1	 1.973483756335180e+000	 6.981765314985874e-001	 1.441256333673566e+001
1	 1.966029963973694e+000	 7.188984133242424e-001	 1.349917140875554e+001
1	 1.958340475510495e+000	 7.395887274367914e-001	 1.261896366279103e+001
1	 1.950415005423359e+000	 7.602436271350284e-001	 1.177273048436362e+001
1	 1.942253348515647e+000	 7.808592429837707e-001	 1.096131197347173e+001
1	 1.933855380945223e+000	 8.014316848281606e-001	 1.018559688880525e+001
1	 1.925221061195408e+000	 8.219570438532781e-001	 9.446521468571630e+000
1	 2.026437559847334e+000	 6.228835568435334e-001	 1.811440008534824e+001
1	 2.019839138841012e+000	 6.439588353416125e-001	 1.703302524553011e+001
1	 2.013003966902344e+000	 6.650174574944245e-001	 1.598429429547577e+001
1	 2.005931440994312e+000	 6.860556391196769e-001	 1.496881535114966e+001
1	 1.998621034717845e+000	 7.070695653443356e-001	 1.398724828103696e+001
1	 1.991072299566360e+000	 7.280553924444430e-001	 1.304030407017381e+001
1	 1.983284866130609e+000	 7.490092497372286e-001	 1.212874406352121e+001
1	 1.975258445251525e+000	 7.699272415240817e-001	 1.125337908760859e+001
1	 1.966992829118775e+000	 7.908054490828436e-001	 1.041506844966141e+001
1	 1.958487892312784e+000	 8.116399327077613e-001	 9.614718813727617e+000
1	 1.949743592788055e+000	 8.324267337953375e-001	 8.853282953625644e+000
1	 2.051924695319411e+000	 6.307177570770309e-001	 1.780381352104319e+001
1	 2.045243283919631e+000	 6.520581059077750e-001	 1.668132465380493e+001
1	 2.038322143897384e+000	 6.733815889011648e-001	 1.559365808708312e+001
1	 2.031160664631070e+000	 6.946843742800805e-001	 1.454143206279883e+001
1	 2.023758313100938e+000	 7.159625991906542e-001	 1.352531558570926e+001
1	 2.016114635159398e+000	 7.372123715652268e-001	 1.254602774493370e+001
1	 2.008229256751030e+000	 7.584297720382565e-001	 1.160433691499322e+001
1	 2.000101885079928e+000	 7.796108559137310e-001	 1.070105983537348e+001
1	 1.991732309722068e+000	 8.007516551825156e-001	 9.837060567911804e+000
1	 1.983120403680432e+000	 8.218481805879621e-001	 9.013249331609600e+000
1	 1.974266124380708e+000	 8.428964237379968e-001	 8.230581214782863e+000
1	 2.077411830791955e+000	 6.385519573108083e-001	 1.745281920642271e+001
1	 2.070647428998710e+000	 6.601573764742490e-001	 1.629018038770285e+001
1	 2.063640320892865e+000	 6.817457203082433e-001	 1.516461714969480e+001
1	 2.056389888268241e+000	 7.033131094408428e-001	 1.407674385029301e+001
1	 2.048895591484403e+000	 7.248556330373464e-001	 1.302722459347327e+001
1	 2.041156970752760e+000	 7.463693506863948e-001	 1.201677253286980e+001
1	 2.033173647371722e+000	 7.678502943396767e-001	 1.104614905551356e+001
1	 2.024945324908542e+000	 7.892944703037774e-001	 1.011616284478392e+001
1	 2.016471790325502e+000	 8.106978612825859e-001	 9.227668821916707e+000
1	 2.007752915048153e+000	 8.320564284685622e-001	 8.381566965712210e+000
1	 1.998788655973365e+000	 8.533661136810563e-001	 7.578801010397340e+000
1	 2.102898966264897e+000	 6.463861575446830e-001	 1.706201176876314e+001
1	 2.096051574078183e+000	 6.682566470408484e-001	 1.586014181443609e+001
1	 2.088958497888727e+000	 6.901098517154685e-001	 1.469767914969640e+001
1	 2.081619111905765e+000	 7.119418446017694e-001	 1.357522077112120e+001
1	 2.074032869868189e+000	 7.337486668842165e-001	 1.249341237811277e+001
1	 2.066199306346401e+000	 7.555263298077501e-001	 1.145294768257472e+001
1	 2.058118037992645e+000	 7.772708166412899e-001	 1.045456759986583e+001
1	 2.049788764737333e+000	 7.989780846940209e-001	 9.499059320085568e+000
1	 2.041211270929059e+000	 8.206440673828559e-001	 8.587255259034006e+000
1	 2.032385426415939e+000	 8.422646763493622e-001	 7.720031888487075e+000
1	 2.023311187566027e+000	 8.638358036243159e-001	 6.898308445736499e+000
1	 2.128386101738172e+000	 6.542203577784719e-001	 1.663195735301449e+001
1	 2.121455719157986e+000	 6.763559176073852e-001	 1.539173198682308e+001
1	 2.114276674884903e+000	 6.984739831226499e-001	 1.419332743652672e+001
1	 2.106848335543585e+000	 7.205705797626663e-001	 1.303731036727140e+001
1	 2.099170148252240e+000	 7.426417007310675e-001	 1.192429507781226e+001
1	 2.091241641940274e+000	 7.646833089290945e-001	 1.085494283985352e+001
1	 2.083062428613760e+000	 7.866913389428978e-001	 9.829961120243448e+000
1	 2.074632204566274e+000	 8.086616990842620e-001	 8.850102685040090e+000
1	 2.065950751532719e+000	 8.305902734831250e-001	 7.916164584747674e+000
1	 2.057017937783778e+000	 8.524729242301623e-001	 7.028987020319049e+000
1	 2.047833719158692e+000	 8.743054935675753e-001	 6.189452089822475e+000
1	 2.153873237211714e+000	 6.620545580119925e-001	 1.616319530698049e+001
1	 2.146859864238053e+000	 6.844551881736720e-001	 1.488544920020117e+001
1	 2.139594851881333e+000	 7.068381145295958e-001	 1.365202248140992e+001
1	 2.132077559181639e+000	 7.291993149233395e-001	 1.246343899737880e+001
1	 2.124307426636505e+000	 7.515347345777036e-001	 1.132026913382888e+001
1	 2.116283977534334e+000	 7.738402880502304e-001	 1.022312920753864e+001
1	 2.108006819235030e+000	 7.961118612443013e-001	 9.172680743337519e+000
1	 2.099475644395333e+000	 8.183453134743010e-001	 8.169629634922417e+000
1	 2.090690232136461e+000	 8.405364795831936e-001	 7.214725188714199e+000
1	 2.081650449151659e+000	 8.626811721107623e-001	 6.308759050259091e+000
1	 2.072356250751360e+000	 8.847751835106346e-001	 5.452564012978431e+000
1	 2.179360372685457e+000	 6.698887582450618e-001	 1.565623974825206e+001
1	 2.172264009318315e+000	 6.925544587395214e-001	 1.434176844009277e+001
1	 2.164913028877952e+000	 7.152022459361156e-001	 1.307420321513377e+001
1	 2.157306782819872e+000	 7.378280500835952e-001	 1.185401307539887e+001
1	 2.149444705020930e+000	 7.604277684239289e-001	 1.068171244224854e+001
1	 2.141326313128531e+000	 7.829972671709592e-001	 9.557860623922563e+000
1	 2.132951209856413e+000	 8.055323835453013e-001	 8.483061170443145e+000
1	 2.124319084224482e+000	 8.280289278639389e-001	 7.457961114700544e+000
1	 2.115429712740264e+000	 8.504826856828617e-001	 6.483250098812737e+000
1	 2.106282960519573e+000	 8.728894199909624e-001	 5.559659385133637e+000
1	 2.096878782344030e+000	 8.952448734532940e-001	 4.687960751572138e+000
1	 2.204847508159331e+000	 6.777229584774968e-001	 1.511158102246187e+001
1	 2.197668154398711e+000	 7.006537293047456e-001	 1.376114272946498e+001
1	 2.190231205874697e+000	 7.235663773420179e-001	 1.246028827304276e+001
1	 2.182536006458222e+000	 7.464567852432394e-001	 1.120942022336915e+001
1	 2.174581983405460e+000	 7.693208022695464e-001	 1.000898542585906e+001
1	 2.166368648722823e+000	 7.921542462910846e-001	 8.859474566392713e+000
1	 2.157895600477876e+000	 8.149529058456997e-001	 7.761421626814173e+000
1	 2.149162524053690e+000	 8.377125422529760e-001	 6.715403229371142e+000
1	 2.140169193344107e+000	 8.604288917819297e-001	 5.722037869024535e+000
1	 2.130915471887508e+000	 8.830976678705622e-001	 4.781985032826278e+000
1	 2.121401313936701e+000	 9.057145633953535e-001	 3.895944205846850e+000
1	 2.230334643633273e+000	 6.855571587091147e-001	 1.452968706155366e+001
1	 2.223072299479172e+000	 7.087529998691573e-001	 1.314400438361442e+001
1	 2.215549382871506e+000	 7.319305087471114e-001	 1.181067715466853e+001
1	 2.207765230096631e+000	 7.550855204020772e-001	 1.053003034513196e+001
1	 2.199719261790046e+000	 7.782138361143607e-001	 9.302432032530186e+000
1	 2.191410984317160e+000	 8.013112254104075e-001	 8.128293086252429e+000
1	 2.182839991099376e+000	 8.243734281452965e-001	 7.008066745924893e+000
1	 2.174005963882928e+000	 8.473961566412124e-001	 5.942248091878484e+000
1	 2.164908673947971e+000	 8.703750978801975e-001	 4.931373406435123e+000
1	 2.155547983255453e+000	 8.933059157493628e-001	 3.976019424996983e+000
1	 2.145923845529373e+000	 9.161842533366132e-001	 3.076802476192715e+000
1	 1.900698529602766e+000	 8.114873539120181e-001	 1.000989214488321e+001
1	 1.891942220492132e+000	 8.316978846581148e-001	 9.324638730470641e+000
1	 1.882952806529170e+000	 8.518541852139021e-001	 8.664916251429451e+000
1	 1.873730497067709e+000	 8.719523567309262e-001	 8.030746052386730e+000
1	 1.864275585902089e+000	 8.919884905296139e-001	 7.422178094351565e+000
1	 1.854588451907370e+000	 9.119586703247523e-001	 6.839290901492815e+000
1	 1.844669559610956e+000	 9.318589744831690e-001	 6.282191441966654e+000
1	 1.834519459694026e+000	 9.516854783112039e-001	 5.751014941978095e+000
1	 1.824138789421242e+000	 9.714342563694888e-001	 5.245924632425893e+000
1	 1.813528272997309e+000	 9.911013848124718e-001	 4.767111427650216e+000
1	 1.802688721849068e+000	 1.010682943750032e+000	 4.314793535977648e+000
1	 1.925221061195408e+000	 8.219570438532781e-001	 9.446521468571628e+000
1	 1.916351779478452e+000	 8.424283278807977e-001	 8.739954915727196e+000
1	 1.907246385424817e+000	 8.628446820481397e-001	 8.060894550596181e+000
1	 1.897905091089386e+000	 8.832021572044753e-001	 7.409349348489577e+000
1	 1.888328194056983e+000	 9.034967942410130e-001	 6.785357036483991e+000
1	 1.878516078090858e+000	 9.237246263451977e-001	 6.188984074443871e+000
1	 1.868469213711673e+000	 9.438816812875146e-001	 5.620325569699189e+000
1	 1.858188158705416e+000	 9.639639837384756e-001	 5.079505124475608e+000
1	 1.847673558558638e+000	 9.839675576132633e-001	 4.566674615338966e+000
1	 1.836926146819623e+000	 1.003888428441440e+000	 4.082013904086993e+000
1	 1.825946745384119e+000	 1.023722625759030e+000	 3.625730479696313e+000
1	 1.949743592788055e+000	 8.324267337953375e-001	 8.853282953625644e+000
1	 1.940761338464687e+000	 8.531587711042798e-001	 8.126489750084042e+000
1	 1.931539964320292e+000	 8.738351788831774e-001	 7.429179232846272e+000
1	 1.922079685110801e+000	 8.944519576788236e-001	 6.761360138175798e+000
1	 1.912380802211533e+000	 9.150050979532125e-001	 6.123070231305687e+000
1	 1.902443704273920e+000	 9.354905823664447e-001	 5.514376303228452e+000
1	 1.892268867811892e+000	 9.559043880926642e-001	 4.935374100242826e+000
1	 1.881856857716237e+000	 9.762424891665525e-001	 4.386188185297574e+000
1	 1.871208327695403e+000	 9.965008588578462e-001	 3.866971730339675e+000
1	 1.860324020641252e+000	 1.016675472071220e+000	 3.377906239046782e+000
1	 1.849204768918440e+000	 1.036762307768845e+000	 2.919201199501426e+000
1	 1.974266124380708e+000	 8.428964237379968e-001	 8.230581214782863e+000
1	 1.965170897450847e+000	 8.638892143283621e-001	 7.484659994129550e+000
1	 1.955833543215612e+000	 8.848256757188150e-001	 6.770201089385331e+000
1	 1.946254279131986e+000	 9.057017581537731e-001	 6.087224702152721e+000
1	 1.936433410365777e+000	 9.265134016660142e-001	 5.435780478153095e+000
1	 1.926371330456609e+000	 9.472565383882964e-001	 4.815947501688610e+000
1	 1.916068521911670e+000	 9.679270948984196e-001	 4.227834221467418e+000
1	 1.905525556726559e+000	 9.885209945952411e-001	 3.671578306806407e+000
1	 1.894743096831615e+000	 1.009034160103045e+000	 3.147346433395071e+000
1	 1.883721894462284e+000	 1.029462515701623e+000	 2.655333997982025e+000
1	 1.872462792452129e+000	 1.049801989779293e+000	 2.195764761525212e+000
1	 1.998788655973365e+000	 8.533661136810563e-001	 7.578801010397338e+000
1	 1.989580456436942e+000	 8.746196575528440e-001	 6.814861956013508e+000
1	 1.980127122110799e+000	 8.958161725548529e-001	 6.084369770431036e+000
1	 1.970428873152970e+000	 9.169515586291239e-001	 5.387367419995832e+000
1	 1.960486018519757e+000	 9.380217053792193e-001	 4.723927864582760e+000
1	 1.950298956638970e+000	 9.590224944105530e-001	 4.094154031995884e+000
1	 1.939868176011067e+000	 9.799498017045860e-001	 3.498178721853402e+000
1	 1.929194255736452e+000	 1.000799500024346e+000	 2.936164437974232e+000
1	 1.918277865967356e+000	 1.021567461348670e+000	 2.408303148458557e+000
1	 1.907119768282811e+000	 1.042249559332463e+000	 1.914815972836961e+000
1	 1.895720815985286e+000	 1.062841671790190e+000	 1.455952795849038e+000
1	 2.023311187566027e+000	 8.638358036243159e-001	 6.898308445736499e+000
1	 2.013990015422981e+000	 8.853501007775261e-001	 6.117472730865171e+000
1	 2.004420701005870e+000	 9.068066693910915e-001	 5.372075066357096e+000
1	 1.994603467173784e+000	 9.282013591046769e-001	 4.662192097357627e+000
1	 1.984538626673510e+000	 9.495300090926281e-001	 3.987931142705476e+000
1	 1.974226582821057e+000	 9.707884504330185e-001	 3.349430131882961e+000
1	 1.963667830110143e+000	 9.919725085109665e-001	 2.746857469095052e+000
1	 1.952862954745983e+000	 1.013078005453673e+000	 2.180411823526643e+000
1	 1.941812635102705e+000	 1.034100762594528e+000	 1.650321845010031e+000
1	 1.930517642102919e+000	 1.055036602963550e+000	 1.156845804522547e+000
1	 1.918978839518010e+000	 1.075881353801352e+000	 7.002711591283983e-001
1	 2.047833719158692e+000	 8.743054935675753e-001	 6.189452089822474e+000
1	 2.038399574408974e+000	 8.960805440022087e-001	 5.392851351160024e+000
1	 2.028714279900847e+000	 9.177971662273304e-001	 4.633688096788333e+000
1	 2.018778061194453e+000	 9.394511595802317e-001	 3.912083197817462e+000
1	 2.008591234827077e+000	 9.610383128060426e-001	 3.228189006631802e+000
1	 1.998154209002917e+000	 9.825544064554941e-001	 2.582189239329627e+000
1	 1.987467484208959e+000	 1.003995215317365e+000	 1.974298782467242e+000
1	 1.976531653755224e+000	 1.025356510883029e+000	 1.404763423218620e+000
1	 1.965347404237740e+000	 1.046634063840428e+000	 8.738595022514434e-001
1	 1.953915515922700e+000	 1.067823646594697e+000	 3.818934888177814e-001
1	 1.942236863050402e+000	 1.088921035812597e+000	-7.079852224040990e-002
1	 2.072356250751360e+000	 8.847751835106346e-001	 5.452564012978431e+000
1	 2.062809133394929e+000	 9.068109872266907e-001	 4.641339855411786e+000
1	 2.053007858795747e+000	 9.287876630633706e-001	 3.869562415270909e+000
1	 2.042952655215010e+000	 9.507009600555888e-001	 3.137406987271473e+000
1	 2.032643842980497e+000	 9.725466165192632e-001	 2.445081279220452e+000
1	 2.022081835184600e+000	 9.943203624777819e-001	 1.792825223197451e+000
1	 2.011267138307571e+000	 1.016017922123584e+000	 1.180910707755649e+000
1	 2.000200352764243e+000	 1.037635016312218e+000	 6.096412303433211e-001
1	 1.988882173372540e+000	 1.059167365086179e+000	 7.935146934543072e-002
1	 1.977313389742244e+000	 1.080610690225716e+000	-4.095932246463824e-001
1	 1.965494886582561e+000	 1.101960717823740e+000	-8.567974185168249e-001
1	 2.096878782344030e+000	 8.952448734532940e-001	 4.687960751572138e+000
1	 2.087218692380858e+000	 9.175414304507734e-001	 3.863264281875610e+000
1	 2.077301437690591e+000	 9.397781598990115e-001	 3.080035036429687e+000
1	 2.067127249235484e+000	 9.619507605305498e-001	 2.338512598022084e+000
1	 2.056696451133809e+000	 9.840549202320910e-001	 1.638970015553892e+000
1	 2.046009461366154e+000	 1.006086318499684e+000	 9.817135275124233e-001
1	 2.035066792406040e+000	 1.028040628929428e+000	 3.670822027267553e-001
1	 2.023869051773110e+000	 1.049913521741047e+000	-2.045525022770082e-001
1	 2.012416942507187e+000	 1.071700666331588e+000	-7.327872697916641e-001
1	 2.000711263561638e+000	 1.093397733856419e+000	-1.217187531567959e+000
1	 1.988752910114585e+000	 1.115000399834598e+000	-1.657288163606656e+000
1	 2.121401313936701e+000	 9.057145633953535e-001	 3.895944205846850e+000
1	 2.111628251366767e+000	 9.282718736742562e-001	 3.058935593330599e+000
1	 2.101595016585397e+000	 9.507686567340533e-001	 2.265427391884076e+000
1	 2.091301843255902e+000	 9.732005610049138e-001	 1.515733019064950e+000
1	 2.080749059287054e+000	 9.955632239443274e-001	 8.102005298797402e-001
1	 2.069937087547631e+000	 1.017852274521003e+000	 1.492122363831077e-001
1	 2.058866446504426e+000	 1.040063335734701e+000	-4.668157596234934e-001
1	 2.047537750781894e+000	 1.062192027169320e+000	-1.037434121332046e+000
1	 2.035951711641758e+000	 1.084233967576464e+000	-1.562160919420113e+000
1	 2.024109137380973e+000	 1.106184777486618e+000	-2.040482362376579e+000
1	 2.012010933646574e+000	 1.128040081844988e+000	-2.471853614506916e+000
1	 2.145923845529373e+000	 9.161842533366132e-001	 3.076802476192715e+000
1	 2.136037810352666e+000	 9.390023168969390e-001	 2.228650538454479e+000
1	 2.125888595480185e+000	 9.617591535682968e-001	 1.426046220621911e+000
1	 2.115476437276295e+000	 9.844503614784820e-001	 6.693860184768192e-001
1	 2.104801667440269e+000	 1.007071527655773e+000	-4.089764786000295e-002
1	 2.093864713729079e+000	 1.029618230541540e+000	-7.043369340974449e-001
1	 2.082666100602788e+000	 1.052086042539205e+000	-1.320429163465142e+000
1	 2.071206449790665e+000	 1.074470532596845e+000	-1.888637510294042e+000
1	 2.059486480776334e+000	 1.096767268820616e+000	-2.408391775612651e+000
1	 2.047507011200339e+000	 1.118971821116124e+000	-2.879089254640474e+000
1	 2.035268957178629e+000	 1.141079763854727e+000	-3.300095695809298e+000
1	 1.802688721849068e+000	 1.010682943750032e+000	 4.314793535977646e+000
1	 1.791619357690404e+000	 1.030177937010685e+000	 3.884840652676337e+000
1	 1.780322777535209e+000	 1.049579514920662e+000	 3.472806081331379e+000
1	 1.768800057357055e+000	 1.068883783227662e+000	 3.078252820500689e+000
1	 1.757052360750431e+000	 1.088086861295837e+000	 2.700740093412387e+000
1	 1.745080938822499e+000	 1.107184884536711e+000	 2.339824065824037e+000
1	 1.732887130004770e+000	 1.126174006844907e+000	 1.995058568437274e+000
1	 1.720472359784236e+000	 1.145050403035631e+000	 1.665995822355122e+000
1	 1.707838140353593e+000	 1.163810271280825e+000	 1.352187166049247e+000
1	 1.694986070180313e+000	 1.182449835540888e+000	 1.053183782290097e+000
1	 1.681917833494530e+000	 1.200965347988850e+000	 7.685374234830472e-001
1	 1.825946745384119e+000	 1.023722625759030e+000	 3.625730479696313e+000
1	 1.814734565924675e+000	 1.043469140542086e+000	 3.193243196157227e+000
1	 1.803292238961473e+000	 1.063121034743368e+000	 2.779675146618993e+000
1	 1.791620854350134e+000	 1.082674363867519e+000	 2.384606450725112e+000
1	 1.779721590697669e+000	 1.102125197211310e+000	 2.007610749947330e+000
1	 1.767595715252836e+000	 1.121469620325929e+000	 1.648255902931334e+000
1	 1.755244583715393e+000	 1.140703737484130e+000	 1.306104689905838e+000
1	 1.742669639963753e+000	 1.159823674149157e+000	 9.807155247174684e-001
1	 1.729872415700694e+000	 1.178825579442343e+000	 6.716431730236786e-001
1	 1.716854530016881e+000	 1.197705628606193e+000	 3.784394751501840e-001
1	 1.703617688872131e+000	 1.216460025459840e+000	 1.006540720984492e-001
1	 1.849204768918440e+000	 1.036762307768845e+000	 2.919201199501425e+000
1	 1.837849774158181e+000	 1.056760344074309e+000	 2.485792881237297e+000
1	 1.826261700386945e+000	 1.076662554566901e+000	 2.072337783639144e+000
1	 1.814441651342400e+000	 1.096464944508205e+000	 1.678439528657796e+000
1	 1.802390820644081e+000	 1.116163533127615e+000	 1.303692411485212e+000
1	 1.790110491682342e+000	 1.135754356115979e+000	 9.476820612641890e-001
1	 1.777602037425184e+000	 1.155233468124176e+000	 6.099861155201285e-001
1	 1.764866920142439e+000	 1.174596945263497e+000	 2.901749069792903e-001
1	 1.751906691046967e+000	 1.193840887604655e+000	-1.218783860268952e-002
1	 1.738722989852626e+000	 1.212961421672268e+000	-2.975442950154305e-001
1	 1.725317544248913e+000	 1.231954702931564e+000	-5.663418200175410e-001
1	 1.872462792452129e+000	 1.049801989779293e+000	 2.195764761525213e+000
1	 1.860964982391031e+000	 1.070051547607175e+000	 1.763059914431718e+000
1	 1.849231161811743e+000	 1.090204074391089e+000	 1.351372372561126e+000
1	 1.837262448333983e+000	 1.110255525149559e+000	 9.603354201989651e-001
1	 1.825060050589807e+000	 1.130201869044597e+000	 5.895700221799196e-001
1	 1.812625268111165e+000	 1.150039091906711e+000	 2.386854380721609e-001
1	 1.799959491134298e+000	 1.169763198764909e+000	-9.272014510704102e-002
1	 1.787064200320456e+000	 1.189370216378519e+000	-4.050589628516371e-001
1	 1.773940966392586e+000	 1.208856195767643e+000	-6.987530070617886e-001
1	 1.760591449687725e+000	 1.228217214739001e+000	-9.742333451808901e-001
1	 1.747017399625063e+000	 1.247449380403922e+000	-1.231939425925942e+000
1	 1.895720815985286e+000	 1.062841671790190e+000	 1.455952795849036e+000
1	 1.884080190623331e+000	 1.083342751140507e+000	 1.025586519493222e+000
1	 1.872200623235985e+000	 1.103745594215760e+000	 6.173289096715655e-001
1	 1.860083245325013e+000	 1.124046105791413e+000	 2.308488626927811e-001
1	 1.847729280534987e+000	 1.144240204962098e+000	-1.342001798229683e-001
1	 1.835140044539452e+000	 1.164323827697978e+000	-4.781796749519768e-001
1	 1.822316944842891e+000	 1.184292929406189e+000	-8.014653989850173e-001
1	 1.809261480497970e+000	 1.204143487494096e+000	-1.104446845507387e+000
1	 1.795975241737718e+000	 1.223871503931185e+000	-1.387526602157213e+000
1	 1.782459909522359e+000	 1.243473007806281e+000	-1.651119707236762e+000
1	 1.768717255000763e+000	 1.262944057876813e+000	-1.895652987409189e+000
1	 1.918978839518010e+000	 1.075881353801352e+000	 7.002711591283989e-001
1	 1.907195398855194e+000	 1.096633954674126e+000	 2.738886331677422e-001
1	 1.895170084659793e+000	 1.117287114040742e+000	-1.292692725617243e-001
1	 1.882904042315616e+000	 1.137836686433605e+000	-5.094923001817686e-001
1	 1.870398510479757e+000	 1.158278540879961e+000	-8.670889228016937e-001
1	 1.857654820967350e+000	 1.178608563489632e+000	-1.202385858175116e+000
1	 1.844674398551119e+000	 1.198822660047875e+000	-1.515727553757555e+000
1	 1.831458760675146e+000	 1.218916758610096e+000	-1.807475644037988e+000
1	 1.818009517082537e+000	 1.238886812095163e+000	-2.078008381090631e+000
1	 1.804328369356703e+000	 1.258728800874001e+000	-2.327720039365636e+000
1	 1.790417110376194e+000	 1.278438735350138e+000	-2.557020295806356e+000
1	 1.942236863050402e+000	 1.088921035812597e+000	-7.079852224040961e-002
1	 1.930310607086727e+000	 1.109925158207855e+000	-4.915425208885257e-001
1	 1.918139546083284e+000	 1.130828633865865e+000	-8.879239090116167e-001
1	 1.905724839305924e+000	 1.151627267075969e+000	-1.260185508170585e+000
1	 1.893067740424256e+000	 1.172316876798029e+000	-1.608592286861752e+000
1	 1.880169597395008e+000	 1.192893299281524e+000	-1.933430955077106e+000
1	 1.867031852259138e+000	 1.213352390689829e+000	-2.235009525007720e+000
1	 1.853656040852145e+000	 1.233690029726389e+000	-2.513656838557532e+000
1	 1.840043792427213e+000	 1.253902120259454e+000	-2.769722062420826e+000
1	 1.826196829190936e+000	 1.273984593942049e+000	-3.003574151559537e+000
1	 1.812116965751543e+000	 1.293933412823795e+000	-3.215601281999076e+000
1	 1.965494886582561e+000	 1.101960717823740e+000	-8.567974185168249e-001
1	 1.953425815318042e+000	 1.123216361741514e+000	-1.270238969938660e+000
1	 1.941109007506578e+000	 1.144370153690955e+000	-1.658160318761395e+000
1	 1.928545636296065e+000	 1.165417847718342e+000	-2.020751988529638e+000
1	 1.915736970368623e+000	 1.186355212716147e+000	-2.358230203973848e+000
1	 1.902684373822573e+000	 1.207178035073504e+000	-2.670836577537810e+000
1	 1.889389305967105e+000	 1.227882121331912e+000	-2.958837756642204e+000
1	 1.875853321029134e+000	 1.248463300842847e+000	-3.222525032121706e+000
1	 1.862078067771918e+000	 1.268917428423940e+000	-3.462213908370135e+000
1	 1.848065289025234e+000	 1.289240387010314e+000	-3.678243635823592e+000
1	 1.833816821126989e+000	 1.309428090297686e+000	-3.870976706507105e+000
1	 1.988752910114585e+000	 1.115000399834598e+000	-1.657288163606655e+000
1	 1.976541023549247e+000	 1.136507565274927e+000	-2.061754632592972e+000
1	 1.964078468929796e+000	 1.157911673515843e+000	-2.439526026044144e+000
1	 1.951366433286169e+000	 1.179208428360558e+000	-2.790735365076456e+000
1	 1.938406200312997e+000	 1.200393548634157e+000	-3.115545063262340e+000
1	 1.925199150250191e+000	 1.221462770865427e+000	-3.414146716005817e+000
1	 1.911746759675175e+000	 1.242411851973984e+000	-3.686760845098517e+000
1	 1.898050601206275e+000	 1.263236571959339e+000	-3.933636598639243e+000
1	 1.884112343116823e+000	 1.283932736588499e+000	-4.155051406608375e+000
1	 1.869933748859776e+000	 1.304496180078686e+000	-4.351310592496940e+000
1	 1.855516676502718e+000	 1.324922767771708e+000	-4.522746941498120e+000
1	 2.012010933646574e+000	 1.128040081844988e+000	-2.471853614506916e+000
1	 1.999656231780452e+000	 1.149798768807915e+000	-2.865664053533776e+000
1	 1.987047930353056e+000	 1.171453193340354e+000	-3.231589476830044e+000
1	 1.974187230276363e+000	 1.192999009002452e+000	-3.569700363714286e+000
1	 1.961075430257516e+000	 1.214431884551902e+000	-3.880100413027371e+000
1	 1.947713926678010e+000	 1.235747506657143e+000	-4.162926446062831e+000
1	 1.934104213383504e+000	 1.256941582615906e+000	-4.418348258973779e+000
1	 1.920247881383731e+000	 1.278009843075735e+000	-4.646568424560812e+000
1	 1.906146618462098e+000	 1.298948044753012e+000	-4.847822043465216e+000
1	 1.891802208694739e+000	 1.319751973147056e+000	-5.022376444912599e+000
1	 1.877216531878911e+000	 1.340417445245763e+000	-5.170530837274286e+000
1	 2.035268957178629e+000	 1.141079763854727e+000	-3.300095695809296e+000
1	 2.022771440011766e+000	 1.163089972340299e+000	-3.681561224993360e+000
1	 2.010017391776478e+000	 1.184994713164319e+000	-4.033938843411093e+000
1	 1.997008027266777e+000	 1.206789589643860e+000	-4.357231606712148e+000
1	 1.983744660202318e+000	 1.228470220469227e+000	-4.651479751762867e+000
1	 1.970228703106179e+000	 1.250032242448504e+000	-4.916760723672148e+000
1	 1.956461667092249e+000	 1.271471313257540e+000	-5.153189146441905e+000
1	 1.942445161561669e+000	 1.292783114191905e+000	-5.360916736843993e+000
1	 1.928180893807916e+000	 1.313963352917359e+000	-5.540132161256996e+000
1	 1.913670668530300e+000	 1.335007766215311e+000	-5.691060835330245e+000
1	 1.898916387255753e+000	 1.355912122719749e+000	-5.813964666478191e+000
1	 1.681917833494530e+000	 1.200965347988850e+000	 7.685374234830463e-001
1	 1.668635199221159e+000	 1.219353091017331e+000	 4.930627770337697e-001
1	 1.655140018895221e+000	 1.237609378393840e+000	 2.221110582934032e-001
1	 1.641434227355505e+000	 1.255730558820518e+000	-4.396072824967874e-002
1	 1.627519842390902e+000	 1.273713018699258e+000	-3.047966229386449e-001
1	 1.613398963829417e+000	 1.291553184473516e+000	-5.600423534877269e-001
1	 1.599073772548270e+000	 1.309247524943862e+000	-8.093459817866132e-001
1	 1.584546529405988e+000	 1.326792553554179e+000	-1.052358553634160e+000
1	 1.569819574097471e+000	 1.344184830645459e+000	-1.288734750046681e+000
1	 1.554895323933223e+000	 1.361420965674179e+000	-1.518133538770683e+000
1	 1.539776272543993e+000	 1.378497619392281e+000	-1.740218824618900e+000
1	 1.703617688872131e+000	 1.216460025459840e+000	 1.006540720984490e-001
1	 1.690163684013768e+000	 1.235085004431891e+000	-1.669771734145673e-001
1	 1.676494390865051e+000	 1.253576831730622e+000	-4.290771115421901e-001
1	 1.662611769227780e+000	 1.271931808949659e+000	-6.851350010186135e-001
1	 1.648517862924069e+000	 1.290146275868779e+000	-9.346403238130082e-001
1	 1.634214798873599e+000	 1.308216612825929e+000	-1.177083709201476e+000
1	 1.619704786090954e+000	 1.326139243062656e+000	-1.411957865171107e+000
1	 1.604990114603931e+000	 1.343910635039803e+000	-1.638758515232923e+000
1	 1.590073154293838e+000	 1.361527304720379e+000	-1.856985338690135e+000
1	 1.574956353658965e+000	 1.378985817816562e+000	-2.066142912384450e+000
1	 1.559642238502527e+000	 1.396282791997798e+000	-2.265741651924771e+000
1	 1.725317544248913e+000	 1.231954702931564e+000	-5.663418200175407e-001
1	 1.711692168805565e+000	 1.250816917847140e+000	-8.238860166797901e-001
1	 1.697848762834074e+000	 1.269544285068040e+000	-1.074777063344891e+000
1	 1.683789311099254e+000	 1.288133059079376e+000	-1.318407209054619e+000
1	 1.669515883456440e+000	 1.306579533038807e+000	-1.554169015743107e+000
1	 1.655030633916995e+000	 1.324880041178775e+000	-1.781456469311868e+000
1	 1.640335799632866e+000	 1.343030961181805e+000	-1.999666099075194e+000
1	 1.625433699801120e+000	 1.361028716525699e+000	-2.208198103255076e+000
1	 1.610326734489472e+000	 1.378869778795487e+000	-2.406457478170955e+000
1	 1.595017383384004e+000	 1.396550669959047e+000	-2.593855148741087e+000
1	 1.579508204460395e+000	 1.414067964603332e+000	-2.769809097893289e+000
1	 1.747017399625063e+000	 1.247449380403922e+000	-1.231939425925941e+000
1	 1.733220653596737e+000	 1.266548831262988e+000	-1.477189598113514e+000
1	 1.719203134802480e+000	 1.285511738406013e+000	-1.714571773969781e+000
1	 1.704966852970118e+000	 1.304334309209597e+000	-1.943435859940173e+000
1	 1.690513903988211e+000	 1.323012790209282e+000	-2.163133052982805e+000
1	 1.675846468959799e+000	 1.341543469532005e+000	-2.373017046125518e+000
1	 1.660966813174197e+000	 1.359922679301271e+000	-2.572445241441286e+000
1	 1.645877284997742e+000	 1.378146798011843e+000	-2.760779967911561e+000
1	 1.630580314684557e+000	 1.396212252870773e+000	-2.937389701613885e+000
1	 1.615078413108516e+000	 1.414115522101638e+000	-3.101650285644676e+000
1	 1.599374170417763e+000	 1.431853137208900e+000	-3.252946147170246e+000
1	 1.768717255000763e+000	 1.262944057876813e+000	-1.895652987409190e+000
1	 1.754749138387473e+000	 1.282280744679345e+000	-2.126437032104001e+000
1	 1.740557506770460e+000	 1.301479191744462e+000	-2.348064685592257e+000
1	 1.726144394840567e+000	 1.320535559340253e+000	-2.559896219923711e+000
1	 1.711511924519575e+000	 1.339446047380145e+000	-2.761295041096147e+000
1	 1.696662304002206e+000	 1.358206897885572e+000	-2.951628898482853e+000
1	 1.681597826715140e+000	 1.376814397421019e+000	-3.130271098773839e+000
1	 1.666320870193986e+000	 1.395264879498211e+000	-3.296601721874489e+000
1	 1.650833894879276e+000	 1.413554726946223e+000	-3.450008836179822e+000
1	 1.635139442832677e+000	 1.431680374244336e+000	-3.589889710623529e+000
1	 1.619240136374797e+000	 1.449638309814519e+000	-3.715652020890341e+000
1	 1.790417110376194e+000	 1.278438735350138e+000	-2.557020295806356e+000
1	 1.776277623177960e+000	 1.298012658096122e+000	-2.771199291972174e+000
1	 1.761911878738208e+000	 1.317446645083307e+000	-2.974878465509358e+000
1	 1.747321936710794e+000	 1.336736809471274e+000	-3.167479298344299e+000
1	 1.732509945050727e+000	 1.355879304551337e+000	-3.348429094527761e+000
1	 1.717478139044409e+000	 1.374870326239427e+000	-3.517162104738080e+000
1	 1.702228840255884e+000	 1.393706115541010e+000	-3.673120650476256e+000
1	 1.686764455390040e+000	 1.412382960984778e+000	-3.815756245551950e+000
1	 1.671087475073812e+000	 1.430897201021828e+000	-3.944530712447279e+000
1	 1.655200472556662e+000	 1.449245226387142e+000	-4.058917291136901e+000
1	 1.639106102331665e+000	 1.467423482420205e+000	-4.158401737946017e+000
1	 1.812116965751543e+000	 1.293933412823795e+000	-3.215601281999077e+000
1	 1.797806107968385e+000	 1.313744571513226e+000	-3.411067901182703e+000
1	 1.783266250705911e+000	 1.333414098422468e+000	-3.594653855048386e+000
1	 1.768499478580991e+000	 1.352938059602591e+000	-3.765890905024449e+000
1	 1.753507965581860e+000	 1.372312561722800e+000	-3.924320147516227e+000
1	 1.738293974086600e+000	 1.391533754593522e+000	-4.069492966420125e+000
1	 1.722859853796624e+000	 1.410597833661210e+000	-4.200971978624304e+000
1	 1.707208040586091e+000	 1.429501042471520e+000	-4.318331970429116e+000
1	 1.691341055268346e+000	 1.448239675097573e+000	-4.421160822825172e+000
1	 1.675261502280647e+000	 1.466810078530060e+000	-4.509060423577327e+000
1	 1.658972068288533e+000	 1.485208655025974e+000	-4.581647564080332e+000
1	 1.833816821126989e+000	 1.309428090297686e+000	-3.870976706507105e+000
1	 1.819334592758936e+000	 1.329476484930569e+000	-4.045653717477522e+000
1	 1.804620622673762e+000	 1.349381551761863e+000	-4.207048600201809e+000
1	 1.789677020451354e+000	 1.369139309734133e+000	-4.354850774587236e+000
1	 1.774505986113169e+000	 1.388745818894472e+000	-4.488763313931989e+000
1	 1.759109809128975e+000	 1.408197182947809e+000	-4.608503640033185e+000
1	 1.743490867337550e+000	 1.427489551781582e+000	-4.713804202725497e+000
1	 1.727651625782327e+000	 1.446619123958412e+000	-4.804413142292242e+000
1	 1.711594635463063e+000	 1.465582149173449e+000	-4.880094933219263e+000
1	 1.695322532004806e+000	 1.484374930673091e+000	-4.940631007794810e+000
1	 1.678838034245567e+000	 1.502993827631844e+000	-4.985820358095906e+000
1	 1.855516676502718e+000	 1.324922767771708e+000	-4.522746941498120e+000
1	 1.840863077549801e+000	 1.345208398348059e+000	-4.674585802325280e+000
1	 1.825974994641952e+000	 1.365349005101414e+000	-4.811736457298209e+000
1	 1.810854562322073e+000	 1.385340559865832e+000	-4.934091752218852e+000
1	 1.795504006644848e+000	 1.405179076066297e+000	-5.041563292034399e+000
1	 1.779925644171727e+000	 1.424860611302240e+000	-5.134081794693482e+000
1	 1.764121880878855e+000	 1.444381269902088e+000	-5.211597419056366e+000
1	 1.748095210978938e+000	 1.463737205445430e+000	-5.274080065982789e+000
1	 1.731848215658145e+000	 1.482924623249444e+000	-5.321519651778437e+000
1	 1.715383561729319e+000	 1.501939782816236e+000	-5.353926353239920e+000
1	 1.698704000202935e+000	 1.520779000237831e+000	-5.371330823601904e+000
1	 1.877216531878911e+000	 1.340417445245763e+000	-5.170530837274286e+000
1	 1.862391562341168e+000	 1.360940311765608e+000	-5.297510368782813e+000
1	 1.847329366610672e+000	 1.381316458441041e+000	-5.408406267637250e+000
1	 1.832032104193344e+000	 1.401541809997616e+000	-5.503359035904538e+000
1	 1.816502027177093e+000	 1.421612333238214e+000	-5.582533810513538e+000
1	 1.800741479215049e+000	 1.441524039656767e+000	-5.646120293511424e+000
1	 1.784752894420728e+000	 1.461272988022692e+000	-5.694332644206985e+000
1	 1.768538796176111e+000	 1.480855286932549e+000	-5.727409333175903e+000
1	 1.752101795853774e+000	 1.500267097325546e+000	-5.745612958194389e+000
1	 1.735444591454357e+000	 1.519504634959500e+000	-5.749230022259106e+000
1	 1.718569966160802e+000	 1.538564172843951e+000	-5.738570673943219e+000
1	 1.898916387255753e+000	 1.355912122719749e+000	-5.813964666478191e+000
1	 1.883920047133223e+000	 1.376672225183124e+000	-5.914089801496682e+000
1	 1.868683738580113e+000	 1.397283911780662e+000	-5.996761095572476e+000
1	 1.853209646065358e+000	 1.417743060129417e+000	-6.062409470620908e+000
1	 1.837500047710095e+000	 1.438045590410163e+000	-6.111497112514118e+000
1	 1.821557314259136e+000	 1.458187468011342e+000	-6.144516896819721e+000
1	 1.805383907963363e+000	 1.478164706143358e+000	-6.161991762496596e+000
1	 1.788982381374034e+000	 1.497973368419745e+000	-6.164474034541203e+000
1	 1.772355376050134e+000	 1.517609571401743e+000	-6.152544696709827e+000
1	 1.755505621180099e+000	 1.537069487102882e+000	-6.126812615569456e+000
1	 1.738435932119337e+000	 1.556349345450221e+000	-6.087913717255959e+000
1	 1.539776272543993e+000	 1.378497619392281e+000	-1.740218824618900e+000
1	 1.524467299600929e+000	 1.395408981614681e+000	-1.957362359174557e+000
1	 1.508968793931934e+000	 1.412154398015745e+000	-2.171953410095423e+000
1	 1.493283469725799e+000	 1.428730698645799e+000	-2.383578221461898e+000
1	 1.477414111523483e+000	 1.445134773122503e+000	-2.591810904150957e+000
1	 1.461363572573377e+000	 1.461363572573377e+000	-2.796214605203945e+000
1	 1.445134773122503e+000	 1.477414111523483e+000	-2.996342700908299e+000
1	 1.428730698645800e+000	 1.493283469725799e+000	-3.191740010895839e+000
1	 1.412154398015745e+000	 1.508968793931934e+000	-3.381944030502352e+000
1	 1.395408981614681e+000	 1.524467299600929e+000	-3.566486178584016e+000
1	 1.378497619392282e+000	 1.539776272543993e+000	-3.744893057946318e+000
1	 1.559642238502527e+000	 1.396282791997798e+000	-2.265741651924771e+000
1	 1.544135751452474e+000	 1.413412342116847e+000	-2.457946561140993e+000
1	 1.528437286353301e+000	 1.430373805406068e+000	-2.645358469317173e+000
1	 1.512549592411856e+000	 1.447163971017574e+000	-2.828057891932532e+000
1	 1.496475490094825e+000	 1.463779688439336e+000	-3.006124248418303e+000
1	 1.480217869462783e+000	 1.480217869462783e+000	-3.179636145563145e+000
1	 1.463779688439336e+000	 1.496475490094825e+000	-3.348671665636229e+000
1	 1.447163971017574e+000	 1.512549592411856e+000	-3.513308658434225e+000
1	 1.430373805406068e+000	 1.528437286353301e+000	-3.673625036443839e+000
1	 1.413412342116847e+000	 1.544135751452474e+000	-3.829699072303097e+000
1	 1.396282791997798e+000	 1.559642238502527e+000	-3.981609697735747e+000
1	 1.579508204460395e+000	 1.414067964603332e+000	-2.769809097893289e+000
1	 1.563804203303395e+000	 1.431415702618946e+000	-2.936435301333477e+000
1	 1.547905778774097e+000	 1.448593212796243e+000	-3.096601734426190e+000
1	 1.531815715097399e+000	 1.465597243389118e+000	-3.250789935575304e+000
1	 1.515536868665719e+000	 1.482424603755863e+000	-3.399489229969368e+000
1	 1.499072166351807e+000	 1.499072166351807e+000	-3.543196285965708e+000
1	 1.482424603755862e+000	 1.515536868665718e+000	-3.682414660845201e+000
1	 1.465597243389118e+000	 1.531815715097399e+000	-3.817654336708053e+000
1	 1.448593212796242e+000	 1.547905778774097e+000	-3.949431247304934e+000
1	 1.431415702618947e+000	 1.563804203303396e+000	-4.078266796617588e+000
1	 1.414067964603332e+000	 1.579508204460395e+000	-4.204687370022781e+000
1	 1.599374170417763e+000	 1.431853137208900e+000	-3.252946147170246e+000
1	 1.583472655153850e+000	 1.449419063121011e+000	-3.393468703176382e+000
1	 1.567374271194464e+000	 1.466812620186314e+000	-3.526379221907536e+000
1	 1.551081837782558e+000	 1.484030515760497e+000	-3.652470526266978e+000
1	 1.534598247236275e+000	 1.501069519072161e+000	-3.772550009237845e+000
1	 1.517926463240549e+000	 1.517926463240549e+000	-3.887438618612243e+000
1	 1.501069519072162e+000	 1.534598247236275e+000	-3.997969819319126e+000
1	 1.484030515760496e+000	 1.551081837782558e+000	-4.104988535354981e+000
1	 1.466812620186314e+000	 1.567374271194464e+000	-4.209350073372585e+000
1	 1.449419063121011e+000	 1.583472655153850e+000	-4.311919030027350e+000
1	 1.431853137208900e+000	 1.599374170417763e+000	-4.413568185219705e+000
1	 1.619240136374797e+000	 1.449638309814519e+000	-3.715652020890341e+000
1	 1.603141107003993e+000	 1.467422423623072e+000	-3.829655476171908e+000
1	 1.586842763614545e+000	 1.485032027576333e+000	-3.935352791384250e+000
1	 1.570347960467461e+000	 1.502463788131775e+000	-4.033761673298396e+000
1	 1.553659625806610e+000	 1.519714434388317e+000	-4.125919134620195e+000
1	 1.536780760129105e+000	 1.536780760129105e+000	-4.212880059030741e+000
1	 1.519714434388316e+000	 1.553659625806610e+000	-4.295715735559528e+000
1	 1.502463788131775e+000	 1.570347960467461e+000	-4.375512365202987e+000
1	 1.485032027576333e+000	 1.586842763614545e+000	-4.453369542770521e+000
1	 1.467422423623072e+000	 1.603141107003993e+000	-4.530398717001645e+000
1	 1.449638309814519e+000	 1.619240136374797e+000	-4.607721632050922e+000
1	 1.639106102331665e+000	 1.467423482420205e+000	-4.158401737946017e+000
1	 1.622809558853981e+000	 1.485425784125162e+000	-4.245574819584013e+000
1	 1.606311256034485e+000	 1.503251434966346e+000	-4.324152215523207e+000
1	 1.589614083152236e+000	 1.520897060503017e+000	-4.395293291748546e+000
1	 1.572721004376836e+000	 1.538359349704408e+000	-4.460179458165444e+000
1	 1.555635057017574e+000	 1.555635057017573e+000	-4.520012462683337e+000
1	 1.538359349704408e+000	 1.572721004376835e+000	-4.576012649805532e+000
1	 1.520897060503017e+000	 1.589614083152237e+000	-4.629417187226420e+000
1	 1.503251434966346e+000	 1.606311256034484e+000	-4.681478264018470e+000
1	 1.485425784125162e+000	 1.622809558853982e+000	-4.733461264061432e+000
1	 1.467423482420205e+000	 1.639106102331665e+000	-4.786642918427265e+000
1	 1.658972068288533e+000	 1.485208655025974e+000	-4.581647564080332e+000
1	 1.642478010703969e+000	 1.503429144627313e+000	-4.641778189343960e+000
1	 1.625779748454424e+000	 1.521470842356402e+000	-4.693377101220238e+000
1	 1.608880205837015e+000	 1.539330332874287e+000	-4.737665124103916e+000
1	 1.591782382947066e+000	 1.557004265020518e+000	-4.775885913623822e+000
1	 1.574489353906053e+000	 1.574489353906053e+000	-4.809304125420949e+000
1	 1.557004265020518e+000	 1.591782382947067e+000	-4.839203546983103e+000
1	 1.539330332874287e+000	 1.608880205837015e+000	-4.866885196311869e+000
1	 1.521470842356401e+000	 1.625779748454424e+000	-4.893665391281499e+000
1	 1.503429144627313e+000	 1.642478010703968e+000	-4.920873793622809e+000
1	 1.485208655025974e+000	 1.658972068288533e+000	-4.949851431527203e+000
1	 1.678838034245567e+000	 1.502993827631844e+000	-4.985820358095906e+000
1	 1.662146462554112e+000	 1.521432505129557e+000	-5.018790939507562e+000
1	 1.645248240874508e+000	 1.539690249746549e+000	-5.043598674382630e+000
1	 1.628146328521925e+000	 1.557763605245652e+000	-5.061448525444854e+000
1	 1.610843761517417e+000	 1.575649180336727e+000	-5.073567168256152e+000
1	 1.593343650794640e+000	 1.593343650794641e+000	-5.081201177406983e+000
1	 1.575649180336727e+000	 1.610843761517417e+000	-5.085615177629876e+000
1	 1.557763605245651e+000	 1.628146328521925e+000	-5.088089963577595e+000
1	 1.539690249746549e+000	 1.645248240874507e+000	-5.089920592086561e+000
1	 1.521432505129557e+000	 1.662146462554112e+000	-5.092414450816277e+000
1	 1.502993827631845e+000	 1.678838034245567e+000	-5.096889307210992e+000
1	 1.698704000202935e+000	 1.520779000237831e+000	-5.371330823601906e+000
1	 1.681814914404567e+000	 1.539435865631926e+000	-5.377113848533363e+000
1	 1.664716733294878e+000	 1.557909657136836e+000	-5.375361439476191e+000
1	 1.647412451207094e+000	 1.576196877617173e+000	-5.367188123367714e+000
1	 1.629905140088000e+000	 1.594294095653117e+000	-5.353727158737597e+000
1	 1.612197947683434e+000	 1.612197947683434e+000	-5.336128879231530e+000
1	 1.594294095653117e+000	 1.629905140088000e+000	-5.315559007183189e+000
1	 1.576196877617174e+000	 1.647412451207094e+000	-5.293196940638725e+000
1	 1.557909657136836e+000	 1.664716733294878e+000	-5.270234017304412e+000
1	 1.539435865631927e+000	 1.681814914404567e+000	-5.247871758946141e+000
1	 1.520779000237831e+000	 1.698704000202935e+000	-5.227320099816653e+000
1	 1.718569966160802e+000	 1.538564172843951e+000	-5.738570673943221e+000
1	 1.701483366255489e+000	 1.557439226134452e+000	-5.717224539702033e+000
1	 1.684185225715678e+000	 1.576129064527310e+000	-5.689184723969937e+000
1	 1.666678573892654e+000	 1.594630149988919e+000	-5.655403362778803e+000
1	 1.648966518658931e+000	 1.612939010969770e+000	-5.616846520535233e+000
1	 1.631052244572532e+000	 1.631052244572532e+000	-5.574492828130203e+000
1	 1.612939010969769e+000	 1.648966518658930e+000	-5.529332099427657e+000
1	 1.594630149988920e+000	 1.666678573892654e+000	-5.482363928898248e+000
1	 1.576129064527309e+000	 1.684185225715677e+000	-5.434596273213314e+000
1	 1.557439226134453e+000	 1.701483366255490e+000	-5.387044019653350e+000
1	 1.538564172843951e+000	 1.718569966160803e+000	-5.340727544216147e+000
1	 1.738435932119337e+000	 1.556349345450221e+000	-6.087913717255959e+000
1	 1.721151818107034e+000	 1.575442586637167e+000	-6.039578804144711e+000
1	 1.703653718137051e+000	 1.594348471918019e+000	-5.985564116886071e+000
1	 1.685944696578731e+000	 1.613063422360952e+000	-5.926589944769868e+000
1	 1.668027897230322e+000	 1.631583926286766e+000	-5.863383919280003e+000
1	 1.649906541462032e+000	 1.649906541462032e+000	-5.796680081498379e+000
1	 1.631583926286766e+000	 1.668027897230322e+000	-5.727217939369322e+000
1	 1.613063422360952e+000	 1.685944696578732e+000	-5.655741516660713e+000
1	 1.594348471918019e+000	 1.703653718137051e+000	-5.582998395478468e+000
1	 1.575442586637168e+000	 1.721151818107034e+000	-5.509738754206158e+000
1	 1.556349345450221e+000	 1.738435932119336e+000	-5.436714402750680e+000
1	 1.378497619392282e+000	 1.539776272543993e+000	-3.744893057946319e+000
1	 1.361420965674179e+000	 1.554895323933223e+000	-3.924986495976968e+000
1	 1.344184830645459e+000	 1.569819574097472e+000	-4.114577233825380e+000
1	 1.326792553554179e+000	 1.584546529405988e+000	-4.313236321547273e+000
1	 1.309247524943862e+000	 1.599073772548270e+000	-4.520515611497358e+000
1	 1.291553184473516e+000	 1.613398963829417e+000	-4.735948637574193e+000
1	 1.273713018699258e+000	 1.627519842390902e+000	-4.959051520824970e+000
1	 1.255730558820517e+000	 1.641434227355505e+000	-5.189323899382082e+000
1	 1.237609378393840e+000	 1.655140018895221e+000	-5.426249880655484e+000
1	 1.219353091017331e+000	 1.668635199221159e+000	-5.669299013661870e+000
1	 1.200965347988850e+000	 1.681917833494530e+000	-5.917927279338223e+000
1	 1.396282791997798e+000	 1.559642238502527e+000	-3.981609697735747e+000
1	 1.378985817816562e+000	 1.574956353658965e+000	-4.137408168856912e+000
1	 1.361527304720379e+000	 1.590073154293837e+000	-4.304719925497870e+000
1	 1.343910635039803e+000	 1.604990114603931e+000	-4.483032945904367e+000
1	 1.326139243062656e+000	 1.619704786090954e+000	-4.671808940156272e+000
1	 1.308216612825929e+000	 1.634214798873599e+000	-4.870484455881344e+000
1	 1.290146275868779e+000	 1.648517862924069e+000	-5.078472021294569e+000
1	 1.271931808949659e+000	 1.662611769227780e+000	-5.295161322968318e+000
1	 1.253576831730622e+000	 1.676494390865051e+000	-5.519920415665888e+000
1	 1.235085004431890e+000	 1.690163684013768e+000	-5.752096961509931e+000
1	 1.216460025459840e+000	 1.703617688872130e+000	-5.991019495701555e+000
1	 1.414067964603332e+000	 1.579508204460395e+000	-4.204687370022781e+000
1	 1.396550669959048e+000	 1.595017383384004e+000	-4.336759518621413e+000
1	 1.378869778795487e+000	 1.610326734489471e+000	-4.481811275310211e+000
1	 1.361028716525699e+000	 1.625433699801120e+000	-4.639296833774530e+000
1	 1.343030961181805e+000	 1.640335799632866e+000	-4.808638963250623e+000
1	 1.324880041178775e+000	 1.655030633916994e+000	-4.989230242586373e+000
1	 1.306579533038807e+000	 1.669515883456440e+000	-5.180434339824106e+000
1	 1.288133059079376e+000	 1.683789311099253e+000	-5.381587334368901e+000
1	 1.269544285068039e+000	 1.697848762834074e+000	-5.591999078716231e+000
1	 1.250816917847140e+000	 1.711692168805566e+000	-5.810954596632925e+000
1	 1.231954702931564e+000	 1.725317544248913e+000	-6.037715514616933e+000
1	 1.431853137208900e+000	 1.599374170417763e+000	-4.413568185219705e+000
1	 1.414115522101638e+000	 1.615078413108516e+000	-4.522209058659056e+000
1	 1.396212252870773e+000	 1.630580314684557e+000	-4.644800253050198e+000
1	 1.378146798011843e+000	 1.645877284997743e+000	-4.780809544418840e+000
1	 1.359922679301271e+000	 1.660966813174197e+000	-4.929669996760164e+000
1	 1.341543469532005e+000	 1.675846468959799e+000	-5.090781228438002e+000
1	 1.323012790209282e+000	 1.690513903988210e+000	-5.263510729586205e+000
1	 1.304334309209597e+000	 1.704966852970118e+000	-5.447195227454755e+000
1	 1.285511738406013e+000	 1.719203134802480e+000	-5.641142096541021e+000
1	 1.266548831262987e+000	 1.733220653596737e+000	-5.844630810255472e+000
1	 1.247449380403922e+000	 1.747017399625063e+000	-6.056914430789734e+000
1	 1.449638309814519e+000	 1.619240136374797e+000	-4.607721632050922e+000
1	 1.431680374244336e+000	 1.635139442832677e+000	-4.692966107386117e+000
1	 1.413554726946223e+000	 1.650833894879276e+000	-4.792687407588771e+000
1	 1.395264879498211e+000	 1.666320870193986e+000	-4.906412431817661e+000
1	 1.376814397421018e+000	 1.681597826715139e+000	-5.033631905072983e+000
1	 1.358206897885572e+000	 1.696662304002206e+000	-5.173801582936289e+000
1	 1.339446047380145e+000	 1.711511924519575e+000	-5.326343510124765e+000
1	 1.320535559340253e+000	 1.726144394840567e+000	-5.490647329900162e+000
1	 1.301479191744462e+000	 1.740557506770461e+000	-5.666071641261270e+000
1	 1.282280744679345e+000	 1.754749138387473e+000	-5.851945400750827e+000
1	 1.262944057876814e+000	 1.768717255000763e+000	-6.047569365618131e+000
1	 1.467423482420205e+000	 1.639106102331665e+000	-4.786642918427265e+000
1	 1.449245226387142e+000	 1.655200472556662e+000	-4.848278315462069e+000
1	 1.430897201021827e+000	 1.671087475073811e+000	-4.924521741187760e+000
1	 1.412382960984778e+000	 1.686764455390040e+000	-5.015003021110541e+000
1	 1.393706115541010e+000	 1.702228840255884e+000	-5.119316128752044e+000
1	 1.374870326239427e+000	 1.717478139044408e+000	-5.237020236644391e+000
1	 1.355879304551337e+000	 1.732509945050727e+000	-5.367640821332709e+000
1	 1.336736809471274e+000	 1.747321936710794e+000	-5.510670819734495e+000
1	 1.317446645083307e+000	 1.761911878738207e+000	-5.665571834094426e+000
1	 1.298012658096122e+000	 1.776277623177960e+000	-5.831775382667968e+000
1	 1.278438735350138e+000	 1.790417110376195e+000	-6.008684193175739e+000
1	 1.485208655025974e+000	 1.658972068288533e+000	-4.949851431527203e+000
1	 1.466810078530060e+000	 1.675261502280647e+000	-4.987429370672532e+000
1	 1.448239675097573e+000	 1.691341055268345e+000	-5.039397808386029e+000
1	 1.429501042471520e+000	 1.707208040586091e+000	-5.105531645386520e+000
1	 1.410597833661210e+000	 1.722859853796624e+000	-5.185571997703602e+000
1	 1.391533754593522e+000	 1.738293974086600e+000	-5.279227003664155e+000
1	 1.372312561722800e+000	 1.753507965581860e+000	-5.386172682503424e+000
1	 1.352938059602591e+000	 1.768499478580991e+000	-5.506053842471241e+000
1	 1.333414098422467e+000	 1.783266250705911e+000	-5.638485036194274e+000
1	 1.313744571513226e+000	 1.797806107968385e+000	-5.783051560951940e+000
1	 1.293933412823795e+000	 1.812116965751542e+000	-5.939310501429799e+000
1	 1.502993827631845e+000	 1.678838034245567e+000	-5.096889307210991e+000
1	 1.484374930673091e+000	 1.695322532004807e+000	-5.109736865763411e+000
1	 1.465582149173450e+000	 1.711594635463063e+000	-5.136453020861924e+000
1	 1.446619123958412e+000	 1.727651625782327e+000	-5.176998321258505e+000
1	 1.427489551781582e+000	 1.743490867337551e+000	-5.231303306107002e+000
1	 1.408197182947809e+000	 1.759109809128975e+000	-5.299268979411740e+000
1	 1.388745818894472e+000	 1.774505986113169e+000	-5.380767331185861e+000
1	 1.369139309734133e+000	 1.789677020451354e+000	-5.475641903917320e+000
1	 1.349381551761863e+000	 1.804620622673762e+000	-5.583708402837722e+000
1	 1.329476484930569e+000	 1.819334592758937e+000	-5.704755348391521e+000
1	 1.309428090297686e+000	 1.833816821126989e+000	-5.838544769209942e+000
1	 1.520779000237831e+000	 1.698704000202935e+000	-5.227320099816653e+000
1	 1.501939782816236e+000	 1.715383561729319e+000	-5.214550315886088e+000
1	 1.482924623249444e+000	 1.731848215658145e+000	-5.214865141409682e+000
1	 1.463737205445429e+000	 1.748095210978939e+000	-5.228449843674705e+000
1	 1.444381269902088e+000	 1.764121880878854e+000	-5.255465127676910e+000
1	 1.424860611302240e+000	 1.779925644171726e+000	-5.296047191156556e+000
1	 1.405179076066297e+000	 1.795504006644849e+000	-5.350307818936551e+000
1	 1.385340559865832e+000	 1.810854562322073e+000	-5.418334516093625e+000
1	 1.365349005101414e+000	 1.825974994641952e+000	-5.500190679399549e+000
1	 1.345208398348060e+000	 1.840863077549801e+000	-5.595915806381732e+000
1	 1.324922767771708e+000	 1.855516676502718e+000	-5.705525741264997e+000
1	 1.538564172843951e+000	 1.718569966160803e+000	-5.340727544216148e+000
1	 1.519504634959500e+000	 1.735444591454357e+000	-5.301249313547880e+000
1	 1.500267097325547e+000	 1.752101795853774e+000	-5.273849951727757e+000
1	 1.480855286932549e+000	 1.768538796176111e+000	-5.258977082226574e+000
1	 1.461272988022692e+000	 1.784752894420728e+000	-5.257060851811439e+000
1	 1.441524039656768e+000	 1.800741479215049e+000	-5.268513480870801e+000
1	 1.421612333238213e+000	 1.816502027177092e+000	-5.293728843182460e+000
1	 1.401541809997616e+000	 1.832032104193344e+000	-5.333082075786765e+000
1	 1.381316458441040e+000	 1.847329366610672e+000	-5.386929219550604e+000
1	 1.360940311765608e+000	 1.862391562341168e+000	-5.455606890932353e+000
1	 1.340417445245762e+000	 1.877216531878911e+000	-5.539431985379721e+000
1	 1.556349345450221e+000	 1.738435932119336e+000	-5.436714402750680e+000
1	 1.537069487102882e+000	 1.755505621180099e+000	-5.369241810068067e+000
1	 1.517609571401743e+000	 1.772355376050134e+000	-5.312659080114916e+000
1	 1.497973368419745e+000	 1.788982381374034e+000	-5.267712462835592e+000
1	 1.478164706143358e+000	 1.805383907963363e+000	-5.235139422956253e+000
1	 1.458187468011342e+000	 1.821557314259135e+000	-5.215667601806099e+000
1	 1.438045590410163e+000	 1.837500047710095e+000	-5.210013796307058e+000
1	 1.417743060129417e+000	 1.853209646065358e+000	-5.218882957122518e+000
1	 1.397283911780661e+000	 1.868683738580113e+000	-5.242967207902859e+000
1	 1.376672225183124e+000	 1.883920047133223e+000	-5.282944887503525e+000
1	 1.355912122719749e+000	 1.898916387255753e+000	-5.339479616987529e+000
1	 1.200965347988850e+000	 1.681917833494530e+000	-5.917927279338223e+000
1	 1.182449835540888e+000	 1.694986070180314e+000	-6.174922996172491e+000
1	 1.163810271280825e+000	 1.707838140353592e+000	-6.443573268684498e+000
1	 1.145050403035632e+000	 1.720472359784237e+000	-6.724084535913667e+000
1	 1.126174006844908e+000	 1.732887130004770e+000	-7.016678751273804e+000
1	 1.107184884536711e+000	 1.745080938822499e+000	-7.321592995173904e+000
1	 1.088086861295837e+000	 1.757052360750431e+000	-7.639079057885886e+000
1	 1.068883783227663e+000	 1.768800057357055e+000	-7.969402993801700e+000
1	 1.049579514920662e+000	 1.780322777535210e+000	-8.312844648286417e+000
1	 1.030177937010685e+000	 1.791619357690404e+000	-8.669697158393259e+000
1	 1.010682943750033e+000	 1.802688721849068e+000	-9.040266428764895e+000
1	 1.216460025459840e+000	 1.703617688872130e+000	-5.991019495701555e+000
1	 1.197705628606193e+000	 1.716854530016881e+000	-6.239852253815381e+000
1	 1.178825579442343e+000	 1.729872415700694e+000	-6.502368281612544e+000
1	 1.159823674149157e+000	 1.742669639963754e+000	-6.778806745281692e+000
1	 1.140703737484130e+000	 1.755244583715394e+000	-7.069421125537811e+000
1	 1.121469620325929e+000	 1.767595715252836e+000	-7.374478771206026e+000
1	 1.102125197211310e+000	 1.779721590697669e+000	-7.694260425145112e+000
1	 1.082674363867519e+000	 1.791620854350134e+000	-8.029059723762480e+000
1	 1.063121034743368e+000	 1.803292238961474e+000	-8.379182671428987e+000
1	 1.043469140542086e+000	 1.814734565924676e+000	-8.744947091157007e+000
1	 1.023722625759031e+000	 1.825946745384120e+000	-9.126682052954040e+000
1	 1.231954702931564e+000	 1.725317544248913e+000	-6.037715514616933e+000
1	 1.212961421672267e+000	 1.738722989852626e+000	-6.275922219781249e+000
1	 1.193840887604656e+000	 1.751906691046967e+000	-6.529897775373695e+000
1	 1.174596945263497e+000	 1.764866920142439e+000	-6.799920805186041e+000
1	 1.155233468124176e+000	 1.777602037425184e+000	-7.086282417932240e+000
1	 1.135754356115979e+000	 1.790110491682342e+000	-7.389285697267454e+000
1	 1.116163533127615e+000	 1.802390820644081e+000	-7.709245167394340e+000
1	 1.096464944508205e+000	 1.814441651342400e+000	-8.046486235609212e+000
1	 1.076662554566900e+000	 1.826261700386945e+000	-8.401344613194787e+000
1	 1.056760344074309e+000	 1.837849774158181e+000	-8.774165716107342e+000
1	 1.036762307768846e+000	 1.849204768918440e+000	-9.165304046947806e+000
1	 1.247449380403922e+000	 1.747017399625063e+000	-6.056914430789734e+000
1	 1.228217214739000e+000	 1.760591449687726e+000	-6.282183047237901e+000
1	 1.208856195767644e+000	 1.773940966392586e+000	-6.525348509977951e+000
1	 1.189370216378519e+000	 1.787064200320456e+000	-6.786735492384443e+000
1	 1.169763198764909e+000	 1.799959491134297e+000	-7.066678707711460e+000
1	 1.150039091906711e+000	 1.812625268111165e+000	-7.365522331058137e+000
1	 1.130201869044597e+000	 1.825060050589807e+000	-7.683619401299545e+000
1	 1.110255525149559e+000	 1.837262448333983e+000	-8.021331204437026e+000
1	 1.090204074391088e+000	 1.849231161811743e+000	-8.379026639861696e+000
1	 1.070051547607175e+000	 1.860964982391030e+000	-8.757081571056570e+000
1	 1.049801989779293e+000	 1.872462792452129e+000	-9.155878162290161e+000
1	 1.262944057876814e+000	 1.768717255000763e+000	-6.047569365618131e+000
1	 1.243473007806282e+000	 1.782459909522359e+000	-6.257731502884011e+000
1	 1.223871503931186e+000	 1.795975241737718e+000	-6.487947155014808e+000
1	 1.204143487494095e+000	 1.809261480497971e+000	-6.738593505268025e+000
1	 1.184292929406188e+000	 1.822316944842891e+000	-7.010054729916235e+000
1	 1.164323827697979e+000	 1.835140044539452e+000	-7.302721347704053e+000
1	 1.144240204962098e+000	 1.847729280534987e+000	-7.616989554763097e+000
1	 1.124046105791414e+000	 1.860083245325012e+000	-7.953260546535748e+000
1	 1.103745594215759e+000	 1.872200623235985e+000	-8.311939828282402e+000
1	 1.083342751140507e+000	 1.884080190623331e+000	-8.693436515765363e+000
1	 1.062841671790189e+000	 1.895720815985286e+000	-9.098162627713146e+000
1	 1.278438735350138e+000	 1.790417110376195e+000	-6.008684193175739e+000
1	 1.258728800874001e+000	 1.804328369356703e+000	-6.201708142169582e+000
1	 1.238886812095163e+000	 1.818009517082537e+000	-6.416957871132806e+000
1	 1.218916758610096e+000	 1.831458760675146e+000	-6.654869408210650e+000
1	 1.198822660047875e+000	 1.844674398551119e+000	-6.915882138833148e+000
1	 1.178608563489632e+000	 1.857654820967351e+000	-7.200438078241716e+000
1	 1.158278540879960e+000	 1.870398510479757e+000	-7.508981136063067e+000
1	 1.137836686433605e+000	 1.882904042315616e+000	-7.841956374573493e+000
1	 1.117287114040742e+000	 1.895170084659792e+000	-8.199809262303749e+000
1	 1.096633954674127e+000	 1.907195398855193e+000	-8.582984924633045e+000
1	 1.075881353801352e+000	 1.918978839518011e+000	-8.991927393019280e+000
1	 1.293933412823795e+000	 1.812116965751542e+000	-5.939310501429799e+000
1	 1.273984593942049e+000	 1.826196829190936e+000	-6.113294687474350e+000
1	 1.253902120259454e+000	 1.840043792427213e+000	-6.311680065288054e+000
1	 1.233690029726389e+000	 1.853656040852145e+000	-6.534967723615019e+000
1	 1.213352390689829e+000	 1.867031852259139e+000	-6.783657896223280e+000
1	 1.192893299281523e+000	 1.880169597395008e+000	-7.058249153110935e+000
1	 1.172316876798029e+000	 1.893067740424256e+000	-7.359237591428699e+000
1	 1.151627267075970e+000	 1.905724839305924e+000	-7.687116027850073e+000
1	 1.130828633865865e+000	 1.918139546083284e+000	-8.042373194107691e+000
1	 1.109925158207855e+000	 1.930310607086728e+000	-8.425492937392288e+000
1	 1.088921035812597e+000	 1.942236863050402e+000	-8.836953427290862e+000
1	 1.309428090297686e+000	 1.833816821126989e+000	-5.838544769209942e+000
1	 1.289240387010314e+000	 1.848065289025234e+000	-5.991711592432935e+000
1	 1.268917428423940e+000	 1.862078067771918e+000	-6.171446305367946e+000
1	 1.248463300842847e+000	 1.875853321029134e+000	-6.378321159421740e+000
1	 1.227882121331912e+000	 1.889389305967105e+000	-6.612902773985089e+000
1	 1.207178035073505e+000	 1.902684373822573e+000	-6.875751241958591e+000
1	 1.186355212716147e+000	 1.915736970368623e+000	-7.167419243727430e+000
1	 1.165417847718342e+000	 1.928545636296065e+000	-7.488451171400952e+000
1	 1.144370153690955e+000	 1.941109007506578e+000	-7.839382265096209e+000
1	 1.123216361741515e+000	 1.953425815318042e+000	-8.220737763003584e+000
1	 1.101960717823740e+000	 1.965494886582560e+000	-8.633032066925269e+000
1	 1.324922767771708e+000	 1.855516676502718e+000	-5.705525741264997e+000
1	 1.304496180078686e+000	 1.869933748859776e+000	-5.836215777168039e+000
1	 1.283932736588499e+000	 1.884112343116823e+000	-5.995620381142696e+000
1	 1.263236571959339e+000	 1.898050601206275e+000	-6.184388960991429e+000
1	 1.242411851973984e+000	 1.911746759675175e+000	-6.403159961883221e+000
1	 1.221462770865427e+000	 1.925199150250191e+000	-6.652559881868319e+000
1	 1.200393548634157e+000	 1.938406200312997e+000	-6.933202305622269e+000
1	 1.179208428360558e+000	 1.951366433286168e+000	-7.245686958315851e+000
1	 1.157911673515842e+000	 1.964078468929797e+000	-7.590598781445819e+000
1	 1.136507565274927e+000	 1.976541023549247e+000	-7.968507032394848e+000
1	 1.115000399834598e+000	 1.988752910114585e+000	-8.379964409418125e+000
1	 1.340417445245762e+000	 1.877216531878911e+000	-5.539431985379721e+000
1	 1.319751973147055e+000	 1.891802208694739e+000	-5.646098520602121e+000
1	 1.298948044753012e+000	 1.906146618462098e+000	-5.783595499704747e+000
1	 1.278009843075734e+000	 1.920247881383732e+000	-5.952655377296523e+000
1	 1.256941582615906e+000	 1.934104213383504e+000	-6.153993771842128e+000
1	 1.235747506657143e+000	 1.947713926678010e+000	-6.388308386861819e+000
1	 1.214431884551902e+000	 1.961075430257515e+000	-6.656277961174377e+000
1	 1.192999009002452e+000	 1.974187230276363e+000	-6.958561250157299e+000
1	 1.171453193340355e+000	 1.987047930353057e+000	-7.295796039907258e+000
1	 1.149798768807915e+000	 1.999656231780452e+000	-7.668598196093163e+000
1	 1.128040081844989e+000	 2.012010933646574e+000	-8.077560749191814e+000
1	 1.355912122719749e+000	 1.898916387255753e+000	-5.339479616987529e+000
1	 1.335007766215312e+000	 1.913670668530300e+000	-5.420683497283210e+000
1	 1.313963352917359e+000	 1.928180893807915e+000	-5.534792604637609e+000
1	 1.292783114191905e+000	 1.942445161561669e+000	-5.682628232278383e+000
1	 1.271471313257540e+000	 1.956461667092249e+000	-5.864988431079492e+000
1	 1.250032242448504e+000	 1.970228703106179e+000	-6.082646832169520e+000
1	 1.228470220469227e+000	 1.983744660202318e+000	-6.336351510415574e+000
1	 1.206789589643861e+000	 1.997008027266777e+000	-6.626823890830752e+000
1	 1.184994713164319e+000	 2.010017391776478e+000	-6.954757699832745e+000
1	 1.163089972340300e+000	 2.022771440011767e+000	-7.320817963157912e+000
1	 1.141079763854727e+000	 2.035268957178629e+000	-7.725640052106664e+000
1	 1.010682943750033e+000	 1.802688721849068e+000	-9.040266428764896e+000
1	 9.911013848124723e-001	 1.813528272997309e+000	-9.422772996366129e+000
1	 9.714342563694887e-001	 1.824138789421242e+000	-9.814945849064637e+000
1	 9.516854783112035e-001	 1.834519459694026e+000	-1.021620466689907e+001
1	 9.318589744831693e-001	 1.844669559610956e+000	-1.062598611214206e+001
1	 9.119586703247526e-001	 1.854588451907370e+000	-1.104374545523901e+001
1	 8.919884905296137e-001	 1.864275585902090e+000	-1.146895813786069e+001
1	 8.719523567309262e-001	 1.873730497067710e+000	-1.190112127049276e+001
1	 8.518541852139021e-001	 1.882952806529170e+000	-1.233975506220030e+001
1	 8.316978846581150e-001	 1.891942220492133e+000	-1.278440418042281e+001
1	 8.114873539120182e-001	 1.900698529602767e+000	-1.323463903887482e+001
1	 1.023722625759031e+000	 1.825946745384120e+000	-9.126682052954040e+000
1	 1.003888428441440e+000	 1.836926146819623e+000	-9.522567145072854e+000
1	 9.839675576132633e-001	 1.847673558558638e+000	-9.930346898427477e+000
1	 9.639639837384755e-001	 1.858188158705416e+000	-1.034954195033007e+001
1	 9.438816812875148e-001	 1.868469213711674e+000	-1.077968947299617e+001
1	 9.237246263451980e-001	 1.878516078090857e+000	-1.122034464751780e+001
1	 9.034967942410129e-001	 1.888328194056983e+000	-1.167108207713178e+001
1	 8.832021572044748e-001	 1.897905091089385e+000	-1.213149713748310e+001
1	 8.628446820481395e-001	 1.907246385424817e+000	-1.260120726178924e+001
1	 8.424283278807979e-001	 1.916351779478452e+000	-1.307985315901754e+001
1	 8.219570438532781e-001	 1.925221061195408e+000	-1.356709996339646e+001
1	 1.036762307768846e+000	 1.849204768918440e+000	-9.165304046947806e+000
1	 1.016675472071220e+000	 1.860324020641252e+000	-9.572921910317913e+000
1	 9.965008588578460e-001	 1.871208327695403e+000	-9.994782793021455e+000
1	 9.762424891665522e-001	 1.881856857716237e+000	-1.043048027372163e+001
1	 9.559043880926638e-001	 1.892268867811892e+000	-1.087962379489701e+001
1	 9.354905823664451e-001	 1.902443704273920e+000	-1.134184003507291e+001
1	 9.150050979532124e-001	 1.912380802211533e+000	-1.181677422216057e+001
1	 8.944519576788237e-001	 1.922079685110802e+000	-1.230409138578522e+001
1	 8.738351788831772e-001	 1.931539964320292e+000	-1.280347754668178e+001
1	 8.531587711042796e-001	 1.940761338464687e+000	-1.331464084143783e+001
1	 8.324267337953374e-001	 1.949743592788055e+000	-1.383731258106121e+001
1	 1.049801989779293e+000	 1.872462792452129e+000	-9.155878162290161e+000
1	 1.029462515701623e+000	 1.883721894462284e+000	-9.573586748950108e+000
1	 1.009034160103046e+000	 1.894743096831615e+000	-1.000799556165380e+001
1	 9.885209945952407e-001	 1.905525556726559e+000	-1.045874416465221e+001
1	 9.679270948984198e-001	 1.916068521911670e+000	-1.092548709488890e+001
1	 9.472565383882966e-001	 1.926371330456608e+000	-1.140789518162808e+001
1	 9.265134016660140e-001	 1.936433410365777e+000	-1.190565680864344e+001
1	 9.057017581537732e-001	 1.946254279131987e+000	-1.241847911693473e+001
1	 8.848256757188148e-001	 1.955833543215612e+000	-1.294608914613423e+001
1	 8.638892143283621e-001	 1.965170897450847e+000	-1.348823491295737e+001
1	 8.428964237379969e-001	 1.974266124380708e+000	-1.404468642524919e+001
1	 1.062841671790189e+000	 1.895720815985286e+000	-9.098162627713146e+000
1	 1.042249559332463e+000	 1.907119768282810e+000	-9.524323413168858e+000
1	 1.021567461348670e+000	 1.918277865967356e+000	-9.969739893011800e+000
1	 1.000799500024346e+000	 1.929194255736451e+000	-1.043407166944916e+001
1	 9.799498017045861e-001	 1.939868176011067e+000	-1.091699220976357e+001
1	 9.590224944105535e-001	 1.950298956638970e+000	-1.141819016144378e+001
1	 9.380217053792190e-001	 1.960486018519756e+000	-1.193737061097716e+001
1	 9.169515586291239e-001	 1.970428873152970e+000	-1.247425628426646e+001
1	 8.958161725548528e-001	 1.980127122110799e+000	-1.302858868682284e+001
1	 8.746196575528441e-001	 1.989580456436942e+000	-1.360012918207881e+001
1	 8.533661136810564e-001	 1.998788655973366e+000	-1.418866000636121e+001
1	 1.075881353801352e+000	 1.918978839518011e+000	-8.991927393019282e+000
1	 1.055036602963550e+000	 1.930517642102919e+000	-9.424905205426290e+000
1	 1.034100762594529e+000	 1.941812635102705e+000	-9.879782368474155e+000
1	 1.013078005453673e+000	 1.952862954745983e+000	-1.035621353395259e+001
1	 9.919725085109667e-001	 1.963667830110144e+000	-1.085386589798385e+001
1	 9.707884504330185e-001	 1.974226582821057e+000	-1.137242055877872e+001
1	 9.495300090926281e-001	 1.984538626673510e+000	-1.191157381881395e+001
1	 9.282013591046765e-001	 1.994603467173783e+000	-1.247103842929563e+001
1	 9.068066693910913e-001	 2.004420701005870e+000	-1.305054477496061e+001
1	 8.853501007775266e-001	 2.013990015422982e+000	-1.364984199746633e+001
1	 8.638358036243158e-001	 2.023311187566027e+000	-1.426869905581124e+001
1	 1.088921035812597e+000	 1.942236863050402e+000	-8.836953427290860e+000
1	 1.067823646594697e+000	 1.953915515922700e+000	-9.275116286863895e+000
1	 1.046634063840428e+000	 1.965347404237740e+000	-9.737900750044513e+000
1	 1.025356510883029e+000	 1.976531653755224e+000	-1.022493244314121e+001
1	 1.003995215317365e+000	 1.987467484208959e+000	-1.073584800613302e+001
1	 9.825544064554943e-001	 1.998154209002917e+000	-1.127029653923918e+001
1	 9.610383128060425e-001	 2.008591234827077e+000	-1.182794099433520e+001
1	 9.394511595802311e-001	 2.018778061194452e+000	-1.240845950888883e+001
1	 9.177971662273304e-001	 2.028714279900847e+000	-1.301154668028724e+001
1	 8.960805440022087e-001	 2.038399574408974e+000	-1.363691477861993e+001
1	 8.743054935675751e-001	 2.047833719158692e+000	-1.428429489618697e+001
1	 1.101960717823740e+000	 1.965494886582560e+000	-8.633032066925269e+000
1	 1.080610690225716e+000	 1.977313389742243e+000	-9.074751034849401e+000
1	 1.059167365086179e+000	 1.988882173372540e+000	-9.543883318840736e+000
1	 1.037635016312218e+000	 2.000200352764243e+000	-1.004000231474318e+001
1	 1.016017922123584e+000	 2.011267138307571e+000	-1.056269069454547e+001
1	 9.943203624777822e-001	 2.022081835184600e+000	-1.111154198706235e+001
1	 9.725466165192630e-001	 2.032643842980497e+000	-1.168616210355709e+001
1	 9.507009600555887e-001	 2.042952655215010e+000	-1.228617080570504e+001
1	 9.287876630633704e-001	 2.053007858795747e+000	-1.291120311349497e+001
1	 9.068109872266910e-001	 2.062809133394929e+000	-1.356091065087121e+001
1	 8.847751835106342e-001	 2.072356250751360e+000	-1.423496292712718e+001
1	 1.115000399834598e+000	 1.988752910114585e+000	-8.379964409418122e+000
1	 1.093397733856419e+000	 2.000711263561638e+000	-8.823613445594525e+000
1	 1.071700666331588e+000	 2.012416942507187e+000	-9.297528260001499e+000
1	 1.049913521741047e+000	 2.023869051773110e+000	-9.801207642413857e+000
1	 1.028040628929428e+000	 2.035066792406040e+000	-1.033415771727447e+001
1	 1.006086318499684e+000	 2.046009461366154e+000	-1.089589370293422e+001
1	 9.840549202320906e-001	 2.056696451133809e+000	-1.148594161560903e+001
1	 9.619507605305493e-001	 2.067127249235484e+000	-1.210383991508913e+001
1	 9.397781598990115e-001	 2.077301437690591e+000	-1.274914108944055e+001
1	 9.175414304507735e-001	 2.087218692380858e+000	-1.342141317615856e+001
1	 8.952448734532940e-001	 2.096878782344030e+000	-1.412024121744295e+001
1	 1.128040081844989e+000	 2.012010933646574e+000	-8.077560749191814e+000
1	 1.106184777486618e+000	 2.024109137380973e+000	-8.521516578205519e+000
1	 1.084233967576464e+000	 2.035951711641759e+000	-8.998643090254280e+000
1	 1.062192027169320e+000	 2.047537750781894e+000	-9.508342884469171e+000
1	 1.040063335734701e+000	 2.058866446504426e+000	-1.005002375199853e+001
1	 1.017852274521003e+000	 2.069937087547630e+000	-1.062310065744562e+001
1	 9.955632239443272e-001	 2.080749059287053e+000	-1.122699766448331e+001
1	 9.732005610049137e-001	 2.091301843255902e+000	-1.186114980223196e+001
1	 9.507686567340532e-001	 2.101595016585397e+000	-1.252500486920220e+001
1	 9.282718736742566e-001	 2.111628251366767e+000	-1.321802517183354e+001
1	 9.057145633953535e-001	 2.121401313936701e+000	-1.393968919488610e+001
1	 1.141079763854727e+000	 2.035268957178629e+000	-7.725640052106664e+000
1	 1.118971821116124e+000	 2.047507011200339e+000	-8.168282036852849e+000
1	 1.096767268820617e+000	 2.059486480776334e+000	-8.647044124732526e+000
1	 1.074470532596845e+000	 2.071206449790665e+000	-9.161211894530013e+000
1	 1.052086042539205e+000	 2.082666100602788e+000	-9.710073775873479e+000
1	 1.029618230541540e+000	 2.093864713729079e+000	-1.029292329573485e+001
1	 1.007071527655773e+000	 2.104801667440268e+000	-1.090906126825957e+001
1	 9.844503614784818e-001	 2.115476437276296e+000	-1.155779792397694e+001
1	 9.617591535682968e-001	 2.125888595480185e+000	-1.223845497467416e+001
1	 9.390023168969391e-001	 2.136037810352666e+000	-1.295036761045540e+001
1	 9.161842533366131e-001	 2.145923845529372e+000	-1.369288642575349e+001
1	 8.114873539120182e-001	 1.900698529602767e+000	-1.323463903887482e+001
1	 7.912234369493598e-001	 1.909222869577757e+000	-1.369401870617609e+001
1	 7.709130368854968e-001	 1.917513867912702e+000	-1.416406162893003e+001
1	 7.505600127467703e-001	 1.925571565595462e+000	-1.464151940440246e+001
1	 7.301682051371443e-001	 1.933396084890728e+000	-1.512317271088199e+001
1	 7.097414342048215e-001	 1.940987628381445e+000	-1.560583710689299e+001
1	 6.892834976536051e-001	 1.948346477952993e+000	-1.608636865919890e+001
1	 6.687981688007214e-001	 1.955472993722270e+000	-1.656166939136558e+001
1	 6.482891946827237e-001	 1.962367612913845e+000	-1.702869254527870e+001
1	 6.277602942109746e-001	 1.969030848685419e+000	-1.748444764863551e+001
1	 6.072151563781101e-001	 1.975463288904845e+000	-1.792600538206755e+001
1	 8.219570438532781e-001	 1.925221061195408e+000	-1.356709996339646e+001
1	 8.014316848281604e-001	 1.933855380945222e+000	-1.406612940719428e+001
1	 7.808592429837711e-001	 1.942253348515646e+000	-1.457799366152879e+001
1	 7.602436271350281e-001	 1.950415005423360e+000	-1.509941944777177e+001
1	 7.395887274367915e-001	 1.958340475510496e+000	-1.562715943249874e+001
1	 7.188984133242422e-001	 1.966029963973694e+000	-1.615799821637512e+001
1	 6.981765314985874e-001	 1.973483756335180e+000	-1.668875815240305e+001
1	 6.774269039598260e-001	 1.980702217358025e+000	-1.721630498488390e+001
1	 6.566533260882138e-001	 1.987685789907810e+000	-1.773755330108146e+001
1	 6.358595647759500e-001	 1.994434993762919e+000	-1.824947178821054e+001
1	 6.150493566104991e-001	 2.000950424375790e+000	-1.874908828902107e+001
1	 8.324267337953374e-001	 1.949743592788055e+000	-1.383731258106121e+001
1	 8.116399327077611e-001	 1.958487892312784e+000	-1.437424751799804e+001
1	 7.908054490828439e-001	 1.966992829118775e+000	-1.492603675197263e+001
1	 7.699272415240813e-001	 1.975258445251525e+000	-1.548943555839805e+001
1	 7.490092497372286e-001	 1.983284866130609e+000	-1.606122242820954e+001
1	 7.280553924444432e-001	 1.991072299566360e+000	-1.663820514772413e+001
1	 7.070695653443357e-001	 1.998621034717844e+000	-1.721722670964230e+001
1	 6.860556391196770e-001	 2.005931440994312e+000	-1.779517104629892e+001
1	 6.650174574944245e-001	 2.013003966902344e+000	-1.836896857691034e+001
1	 6.439588353416124e-001	 2.019839138841012e+000	-1.893560156120148e+001
1	 6.228835568435334e-001	 2.026437559847334e+000	-1.949210925245178e+001
1	 8.428964237379969e-001	 1.974266124380708e+000	-1.404468642524919e+001
1	 8.218481805879621e-001	 1.983120403680432e+000	-1.461773789700905e+001
1	 8.007516551825158e-001	 1.991732309722067e+000	-1.520753860426491e+001
1	 7.796108559137310e-001	 2.000101885079929e+000	-1.581092377214484e+001
1	 7.584297720382563e-001	 2.008229256751030e+000	-1.642474951006357e+001
1	 7.372123715652267e-001	 2.016114635159398e+000	-1.704589888592808e+001
1	 7.159625991906543e-001	 2.023758313100938e+000	-1.767128783444850e+001
1	 6.946843742800806e-001	 2.031160664631070e+000	-1.829787089058786e+001
1	 6.733815889011646e-001	 2.038322143897384e+000	-1.892264673981755e+001
1	 6.520581059077746e-001	 2.045243283919630e+000	-1.954266357748245e+001
1	 6.307177570770309e-001	 2.051924695319412e+000	-2.015502427022651e+001
1	 8.533661136810564e-001	 1.998788655973366e+000	-1.418866000636121e+001
1	 8.320564284685621e-001	 2.007752915048153e+000	-1.479599657208360e+001
1	 8.106978612825863e-001	 2.016471790325503e+000	-1.542187893369270e+001
1	 7.892944703037772e-001	 2.024945324908542e+000	-1.606327172727470e+001
1	 7.678502943396766e-001	 2.033173647371722e+000	-1.671715853309968e+001
1	 7.463693506863949e-001	 2.041156970752760e+000	-1.738054784951390e+001
1	 7.248556330373465e-001	 2.048895591484403e+000	-1.805047890506038e+001
1	 7.033131094408428e-001	 2.056389888268241e+000	-1.872402729995691e+001
1	 6.817457203082428e-001	 2.063640320892865e+000	-1.939831046867627e+001
1	 6.601573764742492e-001	 2.070647428998710e+000	-2.007049295600708e+001
1	 6.385519573108083e-001	 2.077411830791955e+000	-2.073779149960354e+001
1	 8.638358036243158e-001	 2.023311187566027e+000	-1.426869905581124e+001
1	 8.422646763493622e-001	 2.032385426415939e+000	-1.490844885164464e+001
1	 8.206440673828561e-001	 2.041211270929060e+000	-1.556846752694306e+001
1	 7.989780846940207e-001	 2.049788764737333e+000	-1.624589674934428e+001
1	 7.772708166412898e-001	 2.058118037992645e+000	-1.693789557474135e+001
1	 7.555263298077501e-001	 2.066199306346401e+000	-1.764164622807475e+001
1	 7.337486668842164e-001	 2.074032869868189e+000	-1.835435972761608e+001
1	 7.119418446017694e-001	 2.081619111905766e+000	-1.907328134412741e+001
1	 6.901098517154681e-001	 2.088958497888726e+000	-1.979569588688436e+001
1	 6.682566470408484e-001	 2.096051574078183e+000	-2.051893280915834e+001
1	 6.463861575446830e-001	 2.102898966264897e+000	-2.124037112637359e+001
1	 8.743054935675751e-001	 2.047833719158692e+000	-1.428429489618697e+001
1	 8.524729242301624e-001	 2.057017937783778e+000	-1.495454757152813e+001
1	 8.305902734831250e-001	 2.065950751532719e+000	-1.564674244159864e+001
1	 8.086616990842614e-001	 2.074632204566274e+000	-1.635824407369773e+001
1	 7.866913389428977e-001	 2.083062428613760e+000	-1.708643324500039e+001
1	 7.646833089290944e-001	 2.091241641940274e+000	-1.782871243924565e+001
1	 7.426417007310678e-001	 2.099170148252240e+000	-1.858251119329794e+001
1	 7.205705797626665e-001	 2.106848335543585e+000	-1.934529128538314e+001
1	 6.984739831226497e-001	 2.114276674884903e+000	-2.011455175738215e+001
1	 6.763559176073851e-001	 2.121455719157986e+000	-2.088783376414759e+001
1	 6.542203577784720e-001	 2.128386101738172e+000	-2.166272524340258e+001
1	 8.847751835106342e-001	 2.072356250751360e+000	-1.423496292712718e+001
1	 8.626811721107622e-001	 2.081650449151659e+000	-1.493377146630095e+001
1	 8.405364795831936e-001	 2.090690232136461e+000	-1.565616833346684e+001
1	 8.183453134743008e-001	 2.099475644395333e+000	-1.639978519416158e+001
1	 7.961118612443011e-001	 2.108006819235029e+000	-1.716226911665493e+001
1	 7.738402880502302e-001	 2.116283977534334e+000	-1.794128769523074e+001
1	 7.515347345777037e-001	 2.124307426636505e+000	-1.873453403081868e+001
1	 7.291993149233398e-001	 2.132077559181640e+000	-1.953973156135824e+001
1	 7.068381145295957e-001	 2.139594851881333e+000	-2.035463873482389e+001
1	 6.844551881736718e-001	 2.146859864238052e+000	-2.117705351839306e+001
1	 6.620545580119923e-001	 2.153873237211714e+000	-2.200481773779806e+001
1	 8.952448734532940e-001	 2.096878782344030e+000	-1.412024121744295e+001
1	 8.728894199909623e-001	 2.106282960519573e+000	-1.484562365486194e+001
1	 8.504826856828617e-001	 2.115429712740264e+000	-1.559623490127854e+001
1	 8.280289278639385e-001	 2.124319084224482e+000	-1.637001632760861e+001
1	 8.055323835453017e-001	 2.132951209856415e+000	-1.716492426557931e+001
1	 7.829972671709593e-001	 2.141326313128531e+000	-1.797893466991697e+001
1	 7.604277684239289e-001	 2.149444705020930e+000	-1.881004764644417e+001
1	 7.378280500835953e-001	 2.157306782819872e+000	-1.965629183920198e+001
1	 7.152022459361153e-001	 2.164913028877952e+000	-2.051572867022305e+001
1	 6.925544587395210e-001	 2.172264009318316e+000	-2.138645642609763e+001
1	 6.698887582450617e-001	 2.179360372685457e+000	-2.226661418599252e+001
1	 9.057145633953535e-001	 2.121401313936701e+000	-1.393968919488610e+001
1	 8.830976678705623e-001	 2.130915471887508e+000	-1.468963023107699e+001
1	 8.604288917819299e-001	 2.140169193344108e+000	-1.546645543925818e+001
1	 8.377125422529758e-001	 2.149162524053690e+000	-1.626845698501731e+001
1	 8.149529058456995e-001	 2.157895600477876e+000	-1.709394191231353e+001
1	 7.921542462910846e-001	 2.166368648722823e+000	-1.794123625843229e+001
1	 7.693208022695467e-001	 2.174581983405461e+000	-1.880868904446849e+001
1	 7.464567852432394e-001	 2.182536006458223e+000	-1.969467613534319e+001
1	 7.235663773420178e-001	 2.190231205874698e+000	-2.059760396382514e+001
1	 7.006537293047455e-001	 2.197668154398711e+000	-2.151591311350032e+001
1	 6.777229584774968e-001	 2.204847508159331e+000	-2.244808175610395e+001
1	 9.161842533366131e-001	 2.145923845529372e+000	-1.369288642575349e+001
1	 8.933059157493626e-001	 2.155547983255453e+000	-1.446533895104821e+001
1	 8.703750978801976e-001	 2.164908673947971e+000	-1.526636548893744e+001
1	 8.473961566412123e-001	 2.174005963882928e+000	-1.609464864050511e+001
1	 8.243734281452965e-001	 2.182839991099376e+000	-1.694888615677279e+001
1	 8.013112254104073e-001	 2.191410984317160e+000	-1.782779442175546e+001
1	 7.782138361143608e-001	 2.199719261790046e+000	-1.873011182170783e+001
1	 7.550855204020774e-001	 2.207765230096631e+000	-1.965460199560962e+001
1	 7.319305087471113e-001	 2.215549382871506e+000	-2.060005696235178e+001
1	 7.087529998691573e-001	 2.223072299479171e+000	-2.156530012050767e+001
1	 6.855571587091146e-001	 2.230334643633273e+000	-2.254918911699087e+001
1	 6.072151563781101e-001	 1.975463288904845e+000	-1.792600538206755e+001
1	 5.866574382233224e-001	 1.981665594387705e+000	-1.835634103583471e+001
1	 5.660907622939357e-001	 1.987638496108145e+000	-1.877718398892144e+001
1	 5.455187159444396e-001	 1.993382795332379e+000	-1.918385681802074e+001
1	 5.249448500593381e-001	 1.998899362722714e+000	-1.957178292596264e+001
1	 5.043726775313110e-001	 2.004189136910731e+000	-1.993649219267112e+001
1	 4.838056717963329e-001	 2.009253123036070e+000	-2.027362632587265e+001
1	 4.632472654263897e-001	 2.014092391253171e+000	-2.057894390816092e+001
1	 4.427008487803356e-001	 2.018708075208402e+000	-2.084832513782398e+001
1	 4.221697687133255e-001	 2.023101370489906e+000	-2.107777626162720e+001
1	 4.016573273451569e-001	 2.027273533052570e+000	-2.126343369851447e+001
1	 6.150493566104991e-001	 2.000950424375790e+000	-1.874908828902107e+001
1	 5.942264058136259e-001	 2.007232751087749e+000	-1.923930136999066e+001
1	 5.733943816702277e-001	 2.013282714303859e+000	-1.972144521521699e+001
1	 5.525569178183158e-001	 2.019101125628146e+000	-2.019032026225851e+001
1	 5.317176109553852e-001	 2.024688866956063e+000	-2.064082829825516e+001
1	 5.108800192969422e-001	 2.030046889029278e+000	-2.106797909375129e+001
1	 4.900476610927235e-001	 2.035176209955582e+000	-2.146689671144650e+001
1	 4.692240132012560e-001	 2.040077913696388e+000	-2.183282548515287e+001
1	 4.484125097233062e-001	 2.044753148524193e+000	-2.216113566514120e+001
1	 4.276165406946642e-001	 2.049203125452439e+000	-2.244732872694135e+001
1	 4.068394508385930e-001	 2.053429116640149e+000	-2.268704234153229e+001
1	 6.228835568435334e-001	 2.026437559847334e+000	-1.949210925245178e+001
1	 6.017953734045254e-001	 2.032799907788383e+000	-2.004130211377039e+001
1	 5.806980010470585e-001	 2.038926932500136e+000	-2.058413127260128e+001
1	 5.595951196926687e-001	 2.044819455924433e+000	-2.111496380833832e+001
1	 5.384903718518437e-001	 2.050478371189883e+000	-2.162826781933726e+001
1	 5.173873610629187e-001	 2.055904641148230e+000	-2.211861992046248e+001
1	 4.962896503893941e-001	 2.061099296875428e+000	-2.258071239472923e+001
1	 4.752007609763390e-001	 2.066063436139859e+000	-2.300935999313253e+001
1	 4.541241706664351e-001	 2.070798221840154e+000	-2.339950637773162e+001
1	 4.330633126761093e-001	 2.075304880415053e+000	-2.374623020403668e+001
1	 4.120215743320919e-001	 2.079584700227718e+000	-2.404475083969354e+001
1	 6.307177570770309e-001	 2.051924695319412e+000	-2.015502427022651e+001
1	 6.093643409958433e-001	 2.058367064489541e+000	-2.076243949413945e+001
1	 5.880016204242572e-001	 2.064571150696912e+000	-2.136548827461785e+001
1	 5.666333215673344e-001	 2.070537786221184e+000	-2.195818976803869e+001
1	 5.452631327485580e-001	 2.076267875424119e+000	-2.253466298698102e+001
1	 5.238947028290932e-001	 2.081762393267542e+000	-2.308913504512898e+001
1	 5.025316396862062e-001	 2.087022383795570e+000	-2.361594903935519e+001
1	 4.811775087515102e-001	 2.092048958583554e+000	-2.410957156200739e+001
1	 4.598358316096041e-001	 2.096843295156265e+000	-2.456459983747552e+001
1	 4.385100846575524e-001	 2.101406635377738e+000	-2.497576847816309e+001
1	 4.172036978255548e-001	 2.105740283815280e+000	-2.533795585601403e+001
1	 6.385519573108083e-001	 2.077411830791955e+000	-2.073779149960354e+001
1	 6.169333085874019e-001	 2.083934221191156e+000	-2.140280501574192e+001
1	 5.953052398016532e-001	 2.090215368894127e+000	-2.206575025683669e+001
1	 5.736715234421498e-001	 2.096256116518343e+000	-2.272038070977063e+001
1	 5.520358936453728e-001	 2.102057379658719e+000	-2.336054774357242e+001
1	 5.304020445953191e-001	 2.107620145387170e+000	-2.398020948795487e+001
1	 5.087736289830221e-001	 2.112945470715970e+000	-2.457343933595064e+001
1	 4.871542565266414e-001	 2.118034481027448e+000	-2.513443406272681e+001
1	 4.655474925526936e-001	 2.122888368472507e+000	-2.565752155377559e+001
1	 4.439568566388837e-001	 2.127508390340486e+000	-2.613716813678365e+001
1	 4.223858213188826e-001	 2.131895867402835e+000	-2.656798551256972e+001
1	 6.463861575446830e-001	 2.102898966264897e+000	-2.124037112637359e+001
1	 6.245022761790250e-001	 2.109501377893164e+000	-2.196248574707302e+001
1	 6.026088591790755e-001	 2.115859587091717e+000	-2.268513990878029e+001
1	 5.807097253169511e-001	 2.121974446815848e+000	-2.340190065502512e+001
1	 5.588086545421321e-001	 2.127846883893632e+000	-2.410643014596730e+001
1	 5.369093863614490e-001	 2.133477897507068e+000	-2.479249505936158e+001
1	 5.150156182797036e-001	 2.138868557636592e+000	-2.545397560629770e+001
1	 4.931310043016035e-001	 2.144020003471510e+000	-2.608487415297418e+001
1	 4.712591534955852e-001	 2.148933441788862e+000	-2.667932344093711e+001
1	 4.494036286199950e-001	 2.153610145303287e+000	-2.723159439935921e+001
1	 4.275679448119763e-001	 2.158051450990382e+000	-2.773610354407709e+001
1	 6.542203577784720e-001	 2.128386101738172e+000	-2.166272524340258e+001
1	 6.320712437705345e-001	 2.135068534595499e+000	-2.244156458609049e+001
1	 6.099124785563529e-001	 2.141503805289619e+000	-2.322386925325948e+001
1	 5.877479271915753e-001	 2.147692777113644e+000	-2.400309618885716e+001
1	 5.655814154386809e-001	 2.153636388128806e+000	-2.477279391536970e+001
1	 5.434167281273361e-001	 2.159335649627190e+000	-2.552661234840148e+001
1	 5.212576075761130e-001	 2.164791644557400e+000	-2.625831222039126e+001
1	 4.991077520762680e-001	 2.170005525915713e+000	-2.696177410402912e+001
1	 4.769708144381596e-001	 2.174978515105310e+000	-2.763100702713720e+001
1	 4.548504006007771e-001	 2.179711900266135e+000	-2.826015667196767e+001
1	 4.327500683047372e-001	 2.184207034577925e+000	-2.884351315304218e+001
1	 6.620545580119923e-001	 2.153873237211714e+000	-2.200481773779806e+001
1	 6.396402113617532e-001	 2.160635691298096e+000	-2.284012050696753e+001
1	 6.172160979333151e-001	 2.167148023487771e+000	-2.368214027747848e+001
1	 5.947861290658582e-001	 2.173411107411672e+000	-2.452429749152660e+001
1	 5.723541763348633e-001	 2.179425892364188e+000	-2.536009987717078e+001
1	 5.499240698928331e-001	 2.185193401747493e+000	-2.618315256999461e+001
1	 5.274995968721120e-001	 2.190714731478355e+000	-2.698716784188715e+001
1	 5.050844998505067e-001	 2.195991048360028e+000	-2.776597442692458e+001
1	 4.826824753802985e-001	 2.201023588421832e+000	-2.851352643556109e+001
1	 4.602971725811209e-001	 2.205813655229016e+000	-2.922391184954771e+001
1	 4.379321917970661e-001	 2.210362618165464e+000	-2.989136059119809e+001
1	 6.698887582450617e-001	 2.179360372685457e+000	-2.226661418599252e+001
1	 6.472091789525045e-001	 2.186202848000890e+000	-2.315822878953174e+001
1	 6.245197173097914e-001	 2.192792241686111e+000	-2.406014551985549e+001
1	 6.018243309396364e-001	 2.199129437709874e+000	-2.496581929775014e+001
1	 5.791269372305237e-001	 2.205215396599727e+000	-2.586878729975501e+001
1	 5.564314116577933e-001	 2.211051153867931e+000	-2.676267928254884e+001
1	 5.337415861675627e-001	 2.216637818399421e+000	-2.764122751599033e+001
1	 5.110612476241907e-001	 2.221976570804427e+000	-2.849827631433125e+001
1	 4.883941363218828e-001	 2.227068661738413e+000	-2.932779115635611e+001
1	 4.657439445609177e-001	 2.231915410191926e+000	-3.012386738642872e+001
1	 4.431143152888640e-001	 2.236518201752999e+000	-3.088073848963754e+001
1	 6.777229584774968e-001	 2.204847508159331e+000	-2.244808175610395e+001
1	 6.547781465426102e-001	 2.211770004703814e+000	-2.339596123279027e+001
1	 6.318233366856110e-001	 2.218436459884577e+000	-2.435806861614291e+001
1	 6.088625328127469e-001	 2.224847768008192e+000	-2.532796178942190e+001
1	 5.858996981255067e-001	 2.231004900835369e+000	-2.629927514045160e+001
1	 5.629387534220697e-001	 2.236908905988459e+000	-2.726572998644901e+001
1	 5.399835754623272e-001	 2.242560905320560e+000	-2.822114461253222e+001
1	 5.170379953971918e-001	 2.247962093248883e+000	-2.915944391307720e+001
1	 4.941057972627936e-001	 2.253113735055029e+000	-3.007466862632932e+001
1	 4.711907165400582e-001	 2.258017165154852e+000	-3.096098415389685e+001
1	 4.482964387800322e-001	 2.262673785340533e+000	-3.181268895797577e+001
1	 6.855571587091146e-001	 2.230334643633273e+000	-2.254918911699087e+001
1	 6.623471141318938e-001	 2.237337161406804e+000	-2.355338635381563e+001
1	 6.391269560606028e-001	 2.244080678083104e+000	-2.457608480810337e+001
1	 6.159007346850257e-001	 2.250566098306568e+000	-2.561101142712433e+001
1	 5.926724590196567e-001	 2.256794405071064e+000	-2.665196320605572e+001
1	 5.694460951855147e-001	 2.262766658109031e+000	-2.769281761294645e+001
1	 5.462255647562676e-001	 2.268483992241738e+000	-2.872754263582095e+001
1	 5.230147431693810e-001	 2.273947615693367e+000	-2.975020644085398e+001
1	 4.998174582029119e-001	 2.279158808371665e+000	-3.075498663176867e+001
1	 4.766374885184339e-001	 2.284118920117789e+000	-3.173617910183147e+001
1	 4.534785622704716e-001	 2.288829368928065e+000	-3.268820647101963e+001
1	 4.016573273451569e-001	 2.027273533052570e+000	-2.126343369851447e+001
1	 3.811698517285161e-001	 2.031225301503230e+000	-2.139546186247485e+001
1	 3.607074675331575e-001	 2.034958690876767e+000	-2.146403962001273e+001
1	 3.402733298862165e-001	 2.038475129610468e+000	-2.146546506593545e+001
1	 3.198705449804655e-001	 2.041776099945052e+000	-2.139618949554311e+001
1	 2.995021691400967e-001	 2.044863136261900e+000	-2.125282002217812e+001
1	 2.791712079452243e-001	 2.047737823409130e+000	-2.103212188300726e+001
1	 2.588806154148092e-001	 2.050401795018658e+000	-2.073102043695350e+001
1	 2.386332932476166e-001	 2.052856731816378e+000	-2.034660285927934e+001
1	 2.184320901207317e-001	 2.055104359927540e+000	-1.987611953787351e+001
1	 1.982798010451052e-001	 2.057146449179369e+000	-1.931698517681344e+001
1	 4.068394508385930e-001	 2.053429116640149e+000	-2.268704234153230e+001
1	 3.860876488384815e-001	 2.057431870223552e+000	-2.286999343313147e+001
1	 3.653612619854609e-001	 2.061213427235205e+000	-2.298592902298165e+001
1	 3.446634861136527e-001	 2.064775234541886e+000	-2.303066194016709e+001
1	 3.239974674914737e-001	 2.068118793507961e+000	-2.300017027827999e+001
1	 3.033663018753617e-001	 2.071245658311171e+000	-2.289060064383229e+001
1	 2.827730336229843e-001	 2.074157434247109e+000	-2.269827105579329e+001
1	 2.622206548656227e-001	 2.076855776024568e+000	-2.241967350001890e+001
1	 2.417121047393329e-001	 2.079342386053916e+000	-2.205147614301408e+001
1	 2.212502686744141e-001	 2.081619012730616e+000	-2.159052521010862e+001
1	 2.008379777426382e-001	 2.083687448715941e+000	-2.103384653373038e+001
1	 4.120215743320919e-001	 2.079584700227718e+000	-2.404475083969354e+001
1	 3.910054459484762e-001	 2.083638438943773e+000	-2.428444877093690e+001
1	 3.700150564377691e-001	 2.087468163593456e+000	-2.445472249712078e+001
1	 3.490536423410803e-001	 2.091075339473030e+000	-2.455093349532209e+001
1	 3.281243900024696e-001	 2.094461487070513e+000	-2.456861871667065e+001
1	 3.072304346106214e-001	 2.097628180360005e+000	-2.450349445949903e+001
1	 2.863748593007571e-001	 2.100577045084578e+000	-2.435145985939196e+001
1	 2.655606943164766e-001	 2.103309757029900e+000	-2.410859999968288e+001
1	 2.447909162311281e-001	 2.105828040290817e+000	-2.377118864670433e+001
1	 2.240684472282249e-001	 2.108133665533004e+000	-2.333569061482274e+001
1	 2.033961544403598e-001	 2.110228448251783e+000	-2.279876376697514e+001
1	 4.172036978255548e-001	 2.105740283815280e+000	-2.533795585601403e+001
1	 3.959232430584104e-001	 2.109845007663906e+000	-2.564030380233404e+001
1	 3.746688508900027e-001	 2.113722899951540e+000	-2.587193348462633e+001
1	 3.534437985684283e-001	 2.117375444403932e+000	-2.602778752481408e+001
1	 3.322513125133900e-001	 2.120804180632748e+000	-2.610299241775791e+001
1	 3.110945673458185e-001	 2.124010702408456e+000	-2.609286302346359e+001
1	 2.899766849784881e-001	 2.126996655921599e+000	-2.599290664478288e+001
1	 2.689007337673182e-001	 2.129763738034729e+000	-2.579882669386526e+001
1	 2.478697277229483e-001	 2.132313694527165e+000	-2.550652595146076e+001
1	 2.268866257821052e-001	 2.134648318334801e+000	-2.511210942398137e+001
1	 2.059543311382028e-001	 2.136769447787005e+000	-2.461188680398883e+001
1	 4.223858213188826e-001	 2.131895867402835e+000	-2.656798551256972e+001
1	 4.008410401681958e-001	 2.136051576383963e+000	-2.693896202299078e+001
1	 3.793226453420824e-001	 2.139977636309478e+000	-2.723900115584176e+001
1	 3.578339547956261e-001	 2.143675549334621e+000	-2.746265782741698e+001
1	 3.363782350241716e-001	 2.147146874194709e+000	-2.760467745683009e+001
1	 3.149587000808950e-001	 2.150393224456572e+000	-2.766000107202536e+001
1	 2.935785106561237e-001	 2.153416266758236e+000	-2.762376997263158e+001
1	 2.722407732180950e-001	 2.156217719039128e+000	-2.749132995255962e+001
1	 2.509485392147394e-001	 2.158799348763049e+000	-2.725823508616803e+001
1	 2.297048043359962e-001	 2.161162971136105e+000	-2.692025108270251e+001
1	 2.085125078360999e-001	 2.163310447321717e+000	-2.647335821455381e+001
1	 4.275679448119763e-001	 2.158051450990382e+000	-2.773610354407709e+001
1	 4.057588372777426e-001	 2.162258145103952e+000	-2.818175888710382e+001
1	 3.839764397939287e-001	 2.166232372667292e+000	-2.855729491013164e+001
1	 3.622241110226025e-001	 2.169975654265129e+000	-2.885690869133959e+001
1	 3.405051575347509e-001	 2.173489567756436e+000	-2.907499271224513e+001
1	 3.188228328157938e-001	 2.176775746504410e+000	-2.920614057266764e+001
1	 2.971803363336101e-001	 2.179835877594552e+000	-2.924515223658196e+001
1	 2.755808126687545e-001	 2.182671700043172e+000	-2.918703881134169e+001
1	 2.540273507064469e-001	 2.185285002998553e+000	-2.902702686374916e+001
1	 2.325229828898389e-001	 2.187677623937013e+000	-2.876056227740305e+001
1	 2.110706845339838e-001	 2.189851446856028e+000	-2.838331365666659e+001
1	 4.327500683047372e-001	 2.184207034577925e+000	-2.884351315304218e+001
1	 4.106766343869625e-001	 2.188464713823888e+000	-2.936996588133560e+001
1	 3.886302342454617e-001	 2.192487109025002e+000	-2.982811855337101e+001
1	 3.666142672492871e-001	 2.196275759195488e+000	-3.021183905612297e+001
1	 3.446320800450644e-001	 2.199832261317972e+000	-3.051519388880081e+001
1	 3.226869655504569e-001	 2.203158268552019e+000	-3.073245448229710e+001
1	 3.007821620108935e-001	 2.206255488430609e+000	-3.085810302621765e+001
1	 2.789208521192439e-001	 2.209125681046935e+000	-3.088683780548423e+001
1	 2.571061621980170e-001	 2.211770657233760e+000	-3.081357804957108e+001
1	 2.353411614435743e-001	 2.214192276737622e+000	-3.063346829845948e+001
1	 2.136288612317871e-001	 2.216392446390048e+000	-3.034188229037565e+001
1	 4.379321917970661e-001	 2.210362618165464e+000	-2.989136059119808e+001
1	 4.155944314957661e-001	 2.214671282543780e+000	-3.050479430950509e+001
1	 3.932840286966023e-001	 2.218741845382629e+000	-3.105271417883774e+001
1	 3.710044234756087e-001	 2.222575864125727e+000	-3.152868637904765e+001
1	 3.487590025550489e-001	 2.226174954879359e+000	-3.192647725544936e+001
1	 3.265510982848270e-001	 2.229540790599451e+000	-3.224006023865260e+001
1	 3.043839876879196e-001	 2.232675099266471e+000	-3.246362225125772e+001
1	 2.822608915695107e-001	 2.235579662050491e+000	-3.259156960285397e+001
1	 2.601849736893954e-001	 2.238256311468759e+000	-3.261853337589534e+001
1	 2.381593399971435e-001	 2.240706929538030e+000	-3.253937430612195e+001
1	 2.161870379294426e-001	 2.242933445923886e+000	-3.234918716223722e+001
1	 4.431143152888640e-001	 2.236518201752999e+000	-3.088073848963754e+001
1	 4.205122286040645e-001	 2.240877851263638e+000	-3.158739881171263e+001
1	 3.979378231472710e-001	 2.244996581740196e+000	-3.223226577578755e+001
1	 3.753945797014967e-001	 2.248875969055882e+000	-3.280863023023994e+001
1	 3.528859250646412e-001	 2.252517648440637e+000	-3.330998312074237e+001
1	 3.304152310188463e-001	 2.255923312646761e+000	-3.373002300672620e+001
1	 3.079858133646348e-001	 2.259094710102200e+000	-3.406266304653052e+001
1	 2.856009310195024e-001	 2.262033643053914e+000	-3.430203745206067e+001
1	 2.632637851805277e-001	 2.264741965703632e+000	-3.444250741497802e+001
1	 2.409775185504876e-001	 2.267221582338333e+000	-3.447866650759996e+001
1	 2.187452146268828e-001	 2.269474445457651e+000	-3.440534556279371e+001
1	 4.482964387800322e-001	 2.262673785340533e+000	-3.181268895797577e+001
1	 4.254300257117685e-001	 2.267084419983474e+000	-3.261888063938607e+001
1	 4.025916175973881e-001	 2.271251318097723e+000	-3.336790258774700e+001
1	 3.797847359268805e-001	 2.275176073985980e+000	-3.405279563843045e+001
1	 3.570128475737776e-001	 2.278860342001849e+000	-3.466679906722678e+001
1	 3.342793637524572e-001	 2.282305834693997e+000	-3.520335870002051e+001
1	 3.115876390409853e-001	 2.285514320937858e+000	-3.565613447546615e+001
1	 2.889409704691662e-001	 2.288487624057277e+000	-3.601900746080924e+001
1	 2.663425966713602e-001	 2.291227619938468e+000	-3.628608632225566e+001
1	 2.437956971035476e-001	 2.293736235138629e+000	-3.645171325250874e+001
1	 2.213033913240406e-001	 2.296015444991454e+000	-3.651046935925907e+001
1	 4.534785622704716e-001	 2.288829368928065e+000	-3.268820647101963e+001
1	 4.303478228187894e-001	 2.293290988703301e+000	-3.360029070577413e+001
1	 4.072454120468742e-001	 2.297506054455230e+000	-3.446070224054552e+001
1	 3.841748921516889e-001	 2.301476178916054e+000	-3.526225620731101e+001
1	 3.611397700823948e-001	 2.305203035563035e+000	-3.599796296407492e+001
1	 3.381434964856022e-001	 2.308688356741214e+000	-3.666103679465380e+001
1	 3.151894647169172e-001	 2.311933931773511e+000	-3.724490404822433e+001
1	 2.922810099184495e-001	 2.314941605060654e+000	-3.774321071803625e+001
1	 2.694214081618384e-001	 2.317713274173349e+000	-3.814982946000936e+001
1	 2.466138756562645e-001	 2.320250887939014e+000	-3.845886605320633e+001
1	 2.238615680208486e-001	 2.322556444525402e+000	-3.866466530539321e+001
1	 1.982798010451052e-001	 2.057146449179369e+000	-1.931698517681344e+001
1	 1.781761623850336e-001	 2.058985072062221e+000	-1.865922994117658e+001
1	 1.581269227520513e-001	 2.060621760190973e+000	-1.789410248442815e+001
1	 1.381347544218765e-001	 2.062058405639229e+000	-1.702080422426242e+001
1	 1.182022727019177e-001	 2.063296937449552e+000	-1.603867755028867e+001
1	 9.833203556797766e-002	 2.064339319933258e+000	-1.494720329780411e+001
1	 7.852654335463237e-002	 2.065187550979181e+000	-1.374599809720351e+001
1	 5.878823849825383e-002	 2.065843660373091e+000	-1.243481160733784e+001
1	 3.911950533160152e-002	 2.066309708129337e+000	-1.101352364109034e+001
1	 1.952266992886609e-002	 2.066587782836232e+000	-9.482141191378533e+000
1	 0.000000000000000e+000	 2.066680000016667e+000	-7.840795365710291e+000
1	 2.008379777426382e-001	 2.083687448715941e+000	-2.103384653373039e+001
1	 1.804749649069134e-001	 2.085549793239212e+000	-2.037097511019237e+001
1	 1.601670529465028e-001	 2.087207597675990e+000	-1.959243260200766e+001
1	 1.399169486144204e-001	 2.088662778511150e+000	-1.869671269378868e+001
1	 1.197273009603743e-001	 2.089917289675494e+000	-1.768247415350819e+001
1	 9.960070096278301e-002	 2.090973120823608e+000	-1.654853890013461e+001
1	 7.953968121516011e-002	 2.091832295620812e+000	-1.529388989127603e+001
1	 5.954671566582075e-002	 2.092496870040883e+000	-1.391766883987220e+001
1	 3.962421940982393e-002	 2.092968930676188e+000	-1.241917376902767e+001
1	 1.977454853201639e-002	 2.093250593061714e+000	-1.079785641410626e+001
1	 0.000000000000000e+000	 2.093344000014533e+000	-9.053319481211378e+000
1	 2.033961544403598e-001	 2.110228448251783e+000	-2.279876376697515e+001
1	 1.827737674290516e-001	 2.112114514415441e+000	-2.214949567041570e+001
1	 1.622071831412844e-001	 2.113793435160225e+000	-2.137772630760084e+001
1	 1.416991428073602e-001	 2.115267151382274e+000	-2.048126411937725e+001
1	 1.212523292192780e-001	 2.116537641900631e+000	-1.945810477682566e+001
1	 1.008693663580642e-001	 2.117606921713150e+000	-1.830642986362832e+001
1	 8.055281907616133e-002	 2.118477040261631e+000	-1.702460532492245e+001
1	 6.030519283382028e-002	 2.119150079707866e+000	-1.561117969230521e+001
1	 4.012893348839152e-002	 2.119628153222235e+000	-1.406488209480324e+001
1	 2.002642713537015e-002	 2.119913403286397e+000	-1.238462006573678e+001
1	 0.000000000000000e+000	 2.120008000011600e+000	-1.056947715549361e+001
1	 2.059543311382028e-001	 2.136769447787005e+000	-2.461188680398883e+001
1	 1.850725699513690e-001	 2.138679235591033e+000	-2.399454283735820e+001
1	 1.642473133363036e-001	 2.140379272643812e+000	-2.324927798659602e+001
1	 1.434813370005900e-001	 2.141871524252748e+000	-2.237323671312985e+001
1	 1.227773574785129e-001	 2.143157994125120e+000	-2.136377094228850e+001
1	 1.021380317536997e-001	 2.144240722602053e+000	-2.021843938121184e+001
1	 8.156595693751645e-002	 2.145121784901822e+000	-1.893500655177150e+001
1	 6.106367000214374e-002	 2.145803289374232e+000	-1.751144154869378e+001
1	 4.063364756721779e-002	 2.146287375767672e+000	-1.594591653331675e+001
1	 2.027830573887649e-002	 2.146576213510476e+000	-1.423680497361892e+001
1	 0.000000000000000e+000	 2.146672000008067e+000	-1.238267964132635e+001
1	 2.085125078360999e-001	 2.163310447321717e+000	-2.647335821455380e+001
1	 1.873713724737861e-001	 2.165243956766109e+000	-2.590588003557449e+001
1	 1.662874435314673e-001	 2.166965110126885e+000	-2.520641665226510e+001
1	 1.452635311940043e-001	 2.168475897122718e+000	-2.437146864612571e+001
1	 1.243023857379628e-001	 2.169778346349123e+000	-2.339776243186321e+001
1	 1.034066971495681e-001	 2.170874523490486e+000	-2.228225023159684e+001
1	 8.257909479910586e-002	 2.171766529541564e+000	-2.102210971459189e+001
1	 6.182214717068246e-002	 2.172456499040166e+000	-1.961474331313964e+001
1	 4.113836164621634e-002	 2.172946598312695e+000	-1.805777722553547e+001
1	 2.053018434248453e-002	 2.173239023734152e+000	-1.634906011740100e+001
1	 0.000000000000000e+000	 2.173336000004134e+000	-1.448666153284709e+001
1	 2.110706845339838e-001	 2.189851446856028e+000	-2.838331365666659e+001
1	 1.896701749962240e-001	 2.191808677940790e+000	-2.788328215879350e+001
1	 1.683275737266829e-001	 2.193550947609579e+000	-2.724850384731287e+001
1	 1.470457253874970e-001	 2.195080269992333e+000	-2.647485441490614e+001
1	 1.258274139975116e-001	 2.196398698572797e+000	-2.555845193888263e+001
1	 1.046753625455481e-001	 2.197508324378621e+000	-2.449565753237961e+001
1	 8.359223266080985e-002	 2.198411274181037e+000	-2.328307561354825e+001
1	 6.258062433932776e-002	 2.199109708705858e+000	-2.191755380367191e+001
1	 4.164307572530071e-002	 2.199605820857498e+000	-2.039618246559267e+001
1	 2.078206294614337e-002	 2.199901833957623e+000	-1.871629389420009e+001
1	 0.000000000000000e+000	 2.200000000000001e+000	-1.687546117107356e+001
1	 2.136288612317871e-001	 2.216392446390048e+000	-3.034188229037565e+001
1	 1.919689775186034e-001	 2.218373399115199e+000	-2.992653488320852e+001
1	 1.703677039218575e-001	 2.220136785092031e+000	-2.937493169619772e+001
1	 1.488279195809624e-001	 2.221684642861741e+000	-2.868234146902405e+001
1	 1.273524422570433e-001	 2.223019050796304e+000	-2.784429010378218e+001
1	 1.059440279415181e-001	 2.224142125266629e+000	-2.685656201382443e+001
1	 8.460537052250881e-002	 2.225056018820421e+000	-2.571520104493537e+001
1	 6.333910150797092e-002	 2.225762918371497e+000	-2.441651098002100e+001
1	 4.214778980438445e-002	 2.226265043402274e+000	-2.295705563901263e+001
1	 2.103394154980214e-002	 2.226564644181086e+000	-2.133365858615475e+001
1	 0.000000000000000e+000	 2.226663999995867e+000	-1.954340245726391e+001
1	 2.161870379294426e-001	 2.242933445923886e+000	-3.234918716223721e+001
1	 1.942677800408450e-001	 2.244938120289457e+000	-3.203543402952253e+001
1	 1.724078341168984e-001	 2.246722622574373e+000	-3.158512109573627e+001
1	 1.506101137742947e-001	 2.248289015731089e+000	-3.099292707803420e+001
1	 1.288774705164417e-001	 2.249639403019801e+000	-3.025380090229423e+001
1	 1.072126933373569e-001	 2.250775926154679e+000	-2.936296377020147e+001
1	 8.561850838408310e-002	 2.251700763459898e+000	-2.831591075485346e+001
1	 6.409757867650329e-002	 2.252416128037270e+000	-2.710841193620820e+001
1	 4.265250388338113e-002	 2.252924265947220e+000	-2.573651308830770e+001
1	 2.128582015340993e-002	 2.253227454404740e+000	-2.419653593076567e+001
1	 0.000000000000000e+000	 2.253327999991934e+000	-2.248507795750903e+001
1	 2.187452146268828e-001	 2.269474445457651e+000	-3.440534556279371e+001
1	 1.965665825628697e-001	 2.271502841463688e+000	-3.420978496975848e+001
1	 1.744479643117127e-001	 2.273308460056742e+000	-3.387852003267014e+001
1	 1.523923079673879e-001	 2.274893388600523e+000	-3.340565541832254e+001
1	 1.304024987755909e-001	 2.276259755243449e+000	-3.278557735724583e+001
1	 1.084813587329429e-001	 2.277409727042943e+000	-3.201295644958490e+001
1	 8.663164624541299e-002	 2.278345508099645e+000	-3.108274995748337e+001
1	 6.485605584481614e-002	 2.279069337703367e+000	-2.999020359534307e+001
1	 4.315721796220429e-002	 2.279583488492531e+000	-2.873085283003062e+001
1	 2.153769875691588e-002	 2.279890264628786e+000	-2.730052370374619e+001
1	 0.000000000000000e+000	 2.279991999988401e+000	-2.569533319285320e+001
1	 2.213033913240406e-001	 2.296015444991454e+000	-3.651046935925907e+001
1	 1.988653850845983e-001	 2.298067562638013e+000	-3.644940207521171e+001
1	 1.764880945062078e-001	 2.299894297539273e+000	-3.625460201792269e+001
1	 1.541745021601364e-001	 2.301497761470192e+000	-3.591961486198590e+001
1	 1.319275270343746e-001	 2.302880107467406e+000	-3.543827754777685e+001
1	 1.097500241281549e-001	 2.304043527931590e+000	-3.480472184663279e+001
1	 8.764478410637891e-002	 2.304990252739845e+000	-3.401337737227578e+001
1	 6.561453301280085e-002	 2.305722547369975e+000	-3.305897404980597e+001
1	 4.366193204076749e-002	 2.306242711038399e+000	-3.193654405438429e+001
1	 2.178957736026910e-002	 2.306553074853420e+000	-3.064142323245302e+001
1	 0.000000000000000e+000	 2.306655999985467e+000	-2.916925201901313e+001
1	 2.238615680208486e-001	 2.322556444525402e+000	-3.866466530539321e+001
1	 2.011641876059516e-001	 2.324632283812556e+000	-3.875410820225299e+001
1	 1.785282247002906e-001	 2.326480135022100e+000	-3.871286462821082e+001
1	 1.559566963524342e-001	 2.328102134340242e+000	-3.853393545159961e+001
1	 1.334525552926767e-001	 2.329500459691833e+000	-3.821062089218494e+001
1	 1.110186895228712e-001	 2.330677328820791e+000	-3.773652486611214e+001
1	 8.865792196686122e-002	 2.331634997380677e+000	-3.710555873854499e+001
1	 6.637301018034868e-002	 2.332375757037283e+000	-3.631194449519101e+001
1	 4.416664611898429e-002	 2.332901933585021e+000	-3.535021734479005e+001
1	 2.204145596341870e-002	 2.333215885078842e+000	-3.421522776545832e+001
1	 0.000000000000000e+000	 2.333319999983334e+000	-3.290214300853528e+001
1	 2.333319999983334e+000	 0.000000000000000e+000	 7.546977343234498e+001
1	 2.333215885078842e+000	 2.204145596341876e-002	 7.323033309547472e+001
1	 2.332901933585021e+000	 4.416664611898443e-002	 7.098642442219564e+001
1	 2.332375757037283e+000	 6.637301018034852e-002	 6.873790059053022e+001
1	 2.331634997380677e+000	 8.865792196686113e-002	 6.648474275250285e+001
1	 2.330677328820791e+000	 1.110186895228712e-001	 6.422706285660063e+001
1	 2.329500459691833e+000	 1.334525552926768e-001	 6.196510633573468e+001
1	 2.328102134340243e+000	 1.559566963524343e-001	 5.969925465119827e+001
1	 2.326480135022099e+000	 1.785282247002904e-001	 5.743002768309518e+001
1	 2.324632283812556e+000	 2.011641876059514e-001	 5.515808595771983e+001
1	 2.322556444525403e+000	 2.238615680208486e-001	 5.288423270239832e+001
1	 2.359987999982150e+000	 0.000000000000000e+000	 7.748175734492180e+001
1	 2.359882695126717e+000	 2.229337235189980e-002	 7.510772118024869e+001
1	 2.359565155415852e+000	 4.467143591148032e-002	 7.273145829687438e+001
1	 2.359032965086723e+000	 6.713160113034042e-002	 7.035298223019225e+001
1	 2.358283739133689e+000	 8.967121181265775e-002	 6.797243842714258e+001
1	 2.357315125180361e+000	 1.122875452358524e-001	 6.559010691949852e+001
1	 2.356124805369035e+000	 1.349778123275370e-001	 6.320640485130301e+001
1	 2.354710498265832e+000	 1.577391579000762e-001	 6.082188885085214e+001
1	 2.353069960779785e+000	 1.805686609440348e-001	 5.843725723761928e+001
1	 2.351200990094103e+000	 2.034633349817420e-001	 5.605335205454530e+001
1	 2.349101425607677e+000	 2.264201284821455e-001	 5.367116091617276e+001
1	 2.386655999981866e+000	 0.000000000000000e+000	 7.950843413334385e+001
1	 2.386549505175481e+000	 2.254528874017717e-002	 7.699068847529239e+001
1	 2.386228377247541e+000	 4.517622570362982e-002	 7.447369642387589e+001
1	 2.385690173136973e+000	 6.789019207989576e-002	 7.195761746487199e+001
1	 2.384932480887448e+000	 9.068450165797154e-002	 6.944274663123881e+001
1	 2.383952921540606e+000	 1.135564009483399e-001	 6.692951704992369e+001
1	 2.382749151046835e+000	 1.365030693619190e-001	 6.441850233256979e+001
1	 2.381318862191934e+000	 1.595216194472729e-001	 6.191041880040352e+001
1	 2.379659786537899e+000	 1.826090971873751e-001	 5.940612753360589e+001
1	 2.377769696375999e+000	 2.057624823571689e-001	 5.690663623551898e+001
1	 2.375646406690224e+000	 2.289786889431086e-001	 5.441310090211491e+001
1	 2.413323999982383e+000	 0.000000000000000e+000	 8.154495791118843e+001
1	 2.413216315225037e+000	 2.279720512830178e-002	 7.887463699979968e+001
1	 2.412891599079999e+000	 4.568101549551953e-002	 7.620878667575748e+001
1	 2.412347381187954e+000	 6.864878302912364e-002	 7.354769878653998e+001
1	 2.411581222641890e+000	 9.169779150292323e-002	 7.089180406826704e+001
1	 2.410590717901479e+000	 1.148252566604571e-001	 6.824167458818900e+001
1	 2.409373496725197e+000	 1.380283263959423e-001	 6.559802602189396e+001
1	 2.407927226118532e+000	 1.613040809941355e-001	 6.296171975539333e+001
1	 2.406249612296439e+000	 1.846495334304123e-001	 6.033376480228311e+001
1	 2.404338402658252e+000	 2.080616297323231e-001	 5.771531952624338e+001
1	 2.402191387773061e+000	 2.315372494038215e-001	 5.510769315923132e+001
1	 2.439991999983599e+000	 0.000000000000000e+000	 8.358669464533429e+001
1	 2.439883125275288e+000	 2.304912151632456e-002	 8.075516978829009e+001
1	 2.439554820913136e+000	 4.618580528723603e-002	 7.793256719214548e+001
1	 2.439004589239588e+000	 6.940737397813324e-002	 7.511929825992438e+001
1	 2.438229964396953e+000	 9.271108134763358e-002	 7.231591633798104e+001
1	 2.437228514262929e+000	 1.160941123723274e-001	 6.952311907581047e+001
1	 2.435997842404091e+000	 1.395535834297265e-001	 6.674175061244928e+001
1	 2.434535590045607e+000	 1.630865425407754e-001	 6.397280357949327e+001
1	 2.432839438055403e+000	 1.866899696732476e-001	 6.121742091081043e+001
1	 2.430907108940868e+000	 2.103607771072954e-001	 5.847689744910642e+001
1	 2.428736368856203e+000	 2.340958098643674e-001	 5.575268133960911e+001
1	 2.466659999985416e+000	 0.000000000000000e+000	 8.562921070383035e+001
1	 2.466549935326134e+000	 2.330103790429640e-002	 8.262808002434441e+001
1	 2.466218042746860e+000	 4.669059507886593e-002	 7.964105609448841e+001
1	 2.465661797291797e+000	 7.016596492703370e-002	 7.666865781536500e+001
1	 2.464878706152569e+000	 9.372437119222317e-002	 7.371154880640381e+001
1	 2.463866310624908e+000	 1.173629680840743e-001	 7.077053970364086e+001
1	 2.462622188083482e+000	 1.410788404633911e-001	 6.784659027749058e+001
1	 2.461143953973147e+000	 1.648690040873041e-001	 6.494081135989411e+001
1	 2.459429263814787e+000	 1.887304059159818e-001	 6.205446657078944e+001
1	 2.457475815223860e+000	 2.126599244821766e-001	 5.918897383394004e+001
1	 2.455281349939667e+000	 2.366543703248298e-001	 5.634590667228012e+001
1	 2.493327999987733e+000	 0.000000000000000e+000	 8.766826213869913e+001
1	 2.493216745377482e+000	 2.355295429226825e-002	 8.448934087167761e+001
1	 2.492881264581083e+000	 4.719538487049581e-002	 8.133044186086003e+001
1	 2.492319005344500e+000	 7.092455587593410e-002	 7.819218016461826e+001
1	 2.491527447908675e+000	 9.473766103681273e-002	 7.507531806173243e+001
1	 2.490504106987368e+000	 1.186318237958211e-001	 7.198076730881471e+001
1	 2.489246533763340e+000	 1.426040974970558e-001	 6.890959121113723e+001
1	 2.487752317901132e+000	 1.666514656338327e-001	 6.586300649659682e+001
1	 2.486019089574589e+000	 1.907708421587160e-001	 6.284238498261532e+001
1	 2.484044521507234e+000	 2.149590718570578e-001	 5.984925502587645e+001
1	 2.481826331023469e+000	 2.392129307852923e-001	 5.688530274493052e+001
1	 2.519995999990449e+000	 0.000000000000000e+000	 8.969978464923237e+001
1	 2.519883555429231e+000	 2.380487068029099e-002	 8.633509595089102e+001
1	 2.519544486415716e+000	 4.770017466221225e-002	 8.299707431191830e+001
1	 2.518976213397622e+000	 7.168314682494363e-002	 7.968642029346636e+001
1	 2.518176189665208e+000	 9.575095088152302e-002	 7.640398391275289e+001
1	 2.517141903350260e+000	 1.199006795076914e-001	 7.315076687985007e+001
1	 2.515870879443631e+000	 1.441293545308398e-001	 6.992792464278240e+001
1	 2.514360681829545e+000	 1.684339271804727e-001	 6.673676823050187e+001
1	 2.512608915334807e+000	 1.928112784015512e-001	 6.357876588338174e+001
1	 2.510613227791000e+000	 2.172582192320301e-001	 6.045554446097848e+001
1	 2.508371312107629e+000	 2.417714912458381e-001	 5.736889061694765e+001
1	 2.546663999993466e+000	 0.000000000000000e+000	 9.171988417589763e+001
1	 2.546550365481286e+000	 2.405678706841556e-002	 8.816165041457465e+001
1	 2.546207708250668e+000	 4.820496445410191e-002	 8.463745616321960e+001
1	 2.545633421451082e+000	 7.244173777417141e-002	 8.114807748884947e+001
1	 2.544824931422100e+000	 9.676424072647459e-002	 7.769444188999803e+001
1	 2.543779699713533e+000	 1.211695352198085e-001	 7.427763053265817e+001
1	 2.542495225124322e+000	 1.456546115648631e-001	 7.089888029041018e+001
1	 2.540969045758369e+000	 1.702163887273352e-001	 6.755958557813140e+001
1	 2.539198741095438e+000	 1.948517146445884e-001	 6.426129996875883e+001
1	 2.537181934075167e+000	 2.195573666071841e-001	 6.100573758268562e+001
1	 2.534916293192159e+000	 2.443300517065509e-001	 5.779477423951610e+001
1	 2.573331999996683e+000	 0.000000000000000e+000	 9.372482807910896e+001
1	 2.573217175533549e+000	 2.430870345669286e-002	 8.996546257735366e+001
1	 2.572870930085849e+000	 4.870975424625130e-002	 8.624823510280524e+001
1	 2.572290629504804e+000	 7.320032872372663e-002	 8.257398786174538e+001
1	 2.571473673179290e+000	 9.777753057178830e-002	 7.894371621317858e+001
1	 2.570417496077141e+000	 1.224383909322958e-001	 7.535857092329958e+001
1	 2.569119570805381e+000	 1.471798685992449e-001	 7.181986022098009e+001
1	 2.567577409687590e+000	 1.719988502745317e-001	 6.832905164348601e+001
1	 2.565788566856480e+000	 1.968921508879285e-001	 6.488777366171476e+001
1	 2.563750640359744e+000	 2.218565139826109e-001	 6.149781707435160e+001
1	 2.561461274277079e+000	 2.468886121675139e-001	 5.816113616048934e+001
1	 2.600000000000000e+000	 0.000000000000000e+000	 9.571103686087025e+001
1	 2.599883985585924e+000	 2.456061984517381e-002	 9.174313606103449e+001
1	 2.599534151921172e+000	 4.921454403874706e-002	 8.782619635634491e+001
1	 2.598947837558706e+000	 7.395891967371834e-002	 8.396111733020271e+001
1	 2.598122414936712e+000	 9.879082041758469e-002	 8.014895319140875e+001
1	 2.597055292441034e+000	 1.237072466452768e-001	 7.639091506612957e+001
1	 2.595743916486777e+000	 1.487051256341049e-001	 7.268837308865400e+001
1	 2.594185773617187e+000	 1.737813118221734e-001	 6.904285827995888e+001
1	 2.592378392617928e+000	 1.989325871316728e-001	 6.545606420317819e+001
1	 2.590319346644739e+000	 2.241556613584015e-001	 6.192984838517909e+001
1	 2.588006255362404e+000	 2.494471726288108e-001	 5.846623349358961e+001
1	 2.322556444525403e+000	 2.238615680208486e-001	 5.288423270239832e+001
1	 2.320250887939015e+000	 2.466138756562646e-001	 5.062307739633909e+001
1	 2.317713274173349e+000	 2.694214081618382e-001	 4.838833149800451e+001
1	 2.314941605060654e+000	 2.922810099184495e-001	 4.618066772551380e+001
1	 2.311933931773511e+000	 3.151894647169170e-001	 4.400087284687710e+001
1	 2.308688356741215e+000	 3.381434964856023e-001	 4.184984863029412e+001
1	 2.305203035563035e+000	 3.611397700823949e-001	 3.972861260844509e+001
1	 2.301476178916054e+000	 3.841748921516888e-001	 3.763829864963190e+001
1	 2.297506054455230e+000	 4.072454120468744e-001	 3.558015732886208e+001
1	 2.293290988703300e+000	 4.303478228187891e-001	 3.355555609222901e+001
1	 2.288829368928065e+000	 4.534785622704716e-001	 3.156597920823302e+001
1	 2.349101425607677e+000	 2.264201284821455e-001	 5.367116091617276e+001
1	 2.346769518335254e+000	 2.494324769776625e-001	 5.130521135841226e+001
1	 2.344202901653812e+000	 2.725006815198410e-001	 4.896904238545332e+001
1	 2.341399554558111e+000	 2.956215504233459e-001	 4.666342428539240e+001
1	 2.338357505947168e+000	 3.187918307202850e-001	 4.438923994051385e+001
1	 2.335074836562539e+000	 3.420082088961281e-001	 4.214748558797852e+001
1	 2.331549680923443e+000	 3.652673116907452e-001	 3.993927139112591e+001
1	 2.327780229256406e+000	 3.885657069651761e-001	 3.776582181450466e+001
1	 2.323764729417043e+000	 4.118999046346667e-001	 3.562847579599517e+001
1	 2.319501488801562e+000	 4.352663576684167e-001	 3.352868670966545e+001
1	 2.314988876245497e+000	 4.586614631563876e-001	 3.146802211330780e+001
1	 2.375646406690224e+000	 2.289786889431086e-001	 5.441310090211490e+001
1	 2.373288148731701e+000	 2.522510782987388e-001	 5.193991449379122e+001
1	 2.370692529134423e+000	 2.755799548775168e-001	 4.950038214384460e+001
1	 2.367857504055670e+000	 2.989620909278955e-001	 4.709534324427985e+001
1	 2.364781080120887e+000	 3.223941967232736e-001	 4.472574781779674e+001
1	 2.361461316383892e+000	 3.458729213062330e-001	 4.239265713136951e+001
1	 2.357896326283851e+000	 3.693948532986258e-001	 4.009724411898777e+001
1	 2.354084279596734e+000	 3.929565217781407e-001	 3.784079360689752e+001
1	 2.350023404378815e+000	 4.165543972218820e-001	 3.562470233493943e+001
1	 2.345711988899768e+000	 4.401848925174142e-001	 3.345047876787043e+001
1	 2.341148383562864e+000	 4.638443640416253e-001	 3.131974269087025e+001
1	 2.402191387773061e+000	 2.315372494038215e-001	 5.510769315923130e+001
1	 2.399806779128375e+000	 2.550696796195738e-001	 5.252508795781672e+001
1	 2.397182156615205e+000	 2.786592282349472e-001	 4.998051058414364e+001
1	 2.394315453553343e+000	 3.023026314321842e-001	 4.747484229125308e+001
1	 2.391204654294674e+000	 3.259965627259768e-001	 4.500907250342380e+001
1	 2.387847796205268e+000	 3.497376337160196e-001	 4.258429932425480e+001
1	 2.384242971644243e+000	 3.735223949061500e-001	 4.020172985434868e+001
1	 2.380388329937012e+000	 3.973473365907070e-001	 3.786268031212571e+001
1	 2.376282079340506e+000	 4.212088898086548e-001	 3.556857595156397e+001
1	 2.371922488997865e+000	 4.451034273659248e-001	 3.332095077095309e+001
1	 2.367307890880099e+000	 4.690272649263335e-001	 3.112144700706892e+001
1	 2.428736368856203e+000	 2.340958098643674e-001	 5.575268133960913e+001
1	 2.426325409525294e+000	 2.578882809402479e-001	 5.305872466348974e+001
1	 2.423671784096173e+000	 2.817385015922139e-001	 5.040766796702334e+001
1	 2.420773403051145e+000	 3.056431719362983e-001	 4.780040829113545e+001
1	 2.417628228468532e+000	 3.295989287284877e-001	 4.523794790387701e+001
1	 2.414234276026662e+000	 3.536023461255909e-001	 4.272139474377144e+001
1	 2.410589617004602e+000	 3.776499365134308e-001	 4.025196267505991e+001
1	 2.406692380277210e+000	 4.017381514029980e-001	 3.783097154853570e+001
1	 2.402540754302072e+000	 4.258633823951184e-001	 3.545984706192418e+001
1	 2.398132989095801e+000	 4.500219622140910e-001	 3.314012041405567e+001
1	 2.393467398197139e+000	 4.742101658106620e-001	 3.087342774739779e+001
1	 2.455281349939667e+000	 2.366543703248298e-001	 5.634590667228014e+001
1	 2.452844039922479e+000	 2.607068822608415e-001	 5.353890432133678e+001
1	 2.450161411577347e+000	 2.848177749493983e-001	 5.078017065400225e+001
1	 2.447231352549091e+000	 3.089837124403242e-001	 4.807059354507033e+001
1	 2.444051802642469e+000	 3.332012947309000e-001	 4.541116267851261e+001
1	 2.440620755848070e+000	 3.574670585350495e-001	 4.280296996603816e+001
1	 2.436936262364911e+000	 3.817774781205810e-001	 4.024720978167465e+001
1	 2.432996430617297e+000	 4.061289662151378e-001	 3.774517900619382e+001
1	 2.428799429263472e+000	 4.305178749814069e-001	 3.529827687546211e+001
1	 2.424343489193518e+000	 4.549404970620558e-001	 3.290800462708348e+001
1	 2.419626905513916e+000	 4.793930666947602e-001	 3.057596494001256e+001
1	 2.481826331023469e+000	 2.392129307852923e-001	 5.688530274493052e+001
1	 2.479362670319949e+000	 2.635254835814351e-001	 5.396378879758896e+001
1	 2.476651039058744e+000	 2.878970483065821e-001	 5.109640703766863e+001
1	 2.473689302047192e+000	 3.123242529443478e-001	 4.828401229107025e+001
1	 2.470475376816489e+000	 3.368036607333074e-001	 4.552755731144725e+001
1	 2.467007235669486e+000	 3.613317709444980e-001	 4.282809321314596e+001
1	 2.463282907725154e+000	 3.859050197277140e-001	 4.018676972608809e+001
1	 2.459300480957246e+000	 4.105197810272501e-001	 3.760483526651858e+001
1	 2.455058104224664e+000	 4.351723675676544e-001	 3.508363681778992e+001
1	 2.450553989290963e+000	 4.598590319099618e-001	 3.262461961562870e+001
1	 2.445786412830364e+000	 4.845759675787774e-001	 3.022932663262908e+001
1	 2.508371312107629e+000	 2.417714912458381e-001	 5.736889061694765e+001
1	 2.505881300717724e+000	 2.663440849021089e-001	 5.433161776709550e+001
1	 2.503140666540384e+000	 2.909763216638469e-001	 5.135483373031607e+001
1	 2.500147251545462e+000	 3.156647934484557e-001	 4.843933742676489e+001
1	 2.496898950990597e+000	 3.404060267358030e-001	 4.558602136936569e+001
1	 2.493393715490908e+000	 3.651964833540393e-001	 4.279587214955393e+001
1	 2.489629553085315e+000	 3.900325613349428e-001	 4.006997075265076e+001
1	 2.485604531297026e+000	 4.149105958394586e-001	 3.740949269686115e+001
1	 2.481316779185606e+000	 4.398268601539944e-001	 3.481570799012363e+001
1	 2.476764489388081e+000	 4.647775667579515e-001	 3.228998089929565e+001
1	 2.471945920146419e+000	 4.897588684628632e-001	 2.983376952644131e+001
1	 2.534916293192159e+000	 2.443300517065509e-001	 5.779477423951610e+001
1	 2.532399931115824e+000	 2.691626862229434e-001	 5.464070463936607e+001
1	 2.529630294022282e+000	 2.940555950212740e-001	 5.155397199204932e+001
1	 2.526605201043915e+000	 3.190053339527335e-001	 4.853529743806044e+001
1	 2.523322525164801e+000	 3.440083927384807e-001	 4.558549093162179e+001
1	 2.519780195312328e+000	 3.690611957637762e-001	 4.270545181693833e+001
1	 2.515976198445378e+000	 3.941601029423806e-001	 3.989616924351019e+001
1	 2.511908581636609e+000	 4.193014106518870e-001	 3.715872241453963e+001
1	 2.507575454146253e+000	 4.444813527405609e-001	 3.449428066268110e+001
1	 2.502974989484819e+000	 4.696961016061680e-001	 3.190410334761802e+001
1	 2.498105427462015e+000	 4.949417693471667e-001	 2.938953957021037e+001
1	 2.561461274277079e+000	 2.468886121675139e-001	 5.816113616048934e+001
1	 2.558918561514267e+000	 2.719812875440190e-001	 5.488943273792937e+001
1	 2.556119921504460e+000	 2.971348683789455e-001	 5.169240438098738e+001
1	 2.553063150542562e+000	 3.223458744572679e-001	 4.857067351877239e+001
1	 2.549746099339105e+000	 3.476107587414337e-001	 4.552494618013401e+001
1	 2.546166675133743e+000	 3.729259081738113e-001	 4.255601269745147e+001
1	 2.542322843805324e+000	 3.982876445501403e-001	 3.966474826062037e+001
1	 2.538212631975964e+000	 4.236922254646593e-001	 3.685211331528905e+001
1	 2.533834129106566e+000	 4.491358453274881e-001	 3.411915379958010e+001
1	 2.529185489581120e+000	 4.746146364547536e-001	 3.146700121374286e+001
1	 2.524264934777087e+000	 5.001246702318375e-001	 2.889687251741326e+001
1	 2.588006255362404e+000	 2.494471726288108e-001	 5.846623349358960e+001
1	 2.585437191913076e+000	 2.747998888654162e-001	 5.507625171481959e+001
1	 2.582609548986936e+000	 3.002141417369426e-001	 5.176877160961881e+001
1	 2.579521100041420e+000	 3.256864149621451e-001	 4.854429686752098e+001
1	 2.576169673513514e+000	 3.512131247447558e-001	 4.540340913760242e+001
1	 2.572553154955151e+000	 3.767906205842475e-001	 4.234676889617052e+001
1	 2.568669489165140e+000	 4.024151861583352e-001	 3.937511617747812e+001
1	 2.564516682315065e+000	 4.280830402778990e-001	 3.648927116150193e+001
1	 2.560092804066504e+000	 4.537903379149099e-001	 3.369013461297485e+001
1	 2.555395989676932e+000	 4.795331713038518e-001	 3.097868816604154e+001
1	 2.550424442091569e+000	 5.053075711170251e-001	 2.835599444910404e+001
1	 2.288829368928065e+000	 4.534785622704716e-001	 3.156597920823302e+001
1	 2.284118920117788e+000	 4.766374885184339e-001	 2.961908500190405e+001
1	 2.279158808371665e+000	 4.998174582029122e-001	 2.772280890750652e+001
1	 2.273947615693367e+000	 5.230147431693808e-001	 2.587830901309311e+001
1	 2.268483992241738e+000	 5.462255647562675e-001	 2.408682013164470e+001
1	 2.262766658109032e+000	 5.694460951855148e-001	 2.234965296449278e+001
1	 2.256794405071063e+000	 5.926724590196567e-001	 2.066819308952075e+001
1	 2.250566098306568e+000	 6.159007346850259e-001	 1.904389977144128e+001
1	 2.244080678083104e+000	 6.391269560606027e-001	 1.747830459181560e+001
1	 2.237337161406804e+000	 6.623471141318938e-001	 1.597300989686800e+001
1	 2.230334643633273e+000	 6.855571587091147e-001	 1.452968706155366e+001
1	 2.314988876245497e+000	 4.586614631563876e-001	 3.146802211330780e+001
1	 2.310224590735523e+000	 4.820850775934856e-001	 2.945384056474904e+001
1	 2.305207788840002e+000	 5.055299759769892e-001	 2.749373789830881e+001
1	 2.299937036356030e+000	 5.289923875425029e-001	 2.558885904422390e+001
1	 2.294410968014828e+000	 5.524684904413271e-001	 2.374042087484763e+001
1	 2.288628289280320e+000	 5.759544131469154e-001	 2.194971129029945e+001
1	 2.282587778119268e+000	 5.994462359286034e-001	 2.021808813431471e+001
1	 2.276288286740297e+000	 6.229399923922245e-001	 1.854697793786206e+001
1	 2.269728743299059e+000	 6.464316710871186e-001	 1.693787448845790e+001
1	 2.262908153566842e+000	 6.699172171789136e-001	 1.539233722348905e+001
1	 2.255825602559878e+000	 6.933925341873451e-001	 1.391198944625189e+001
1	 2.341148383562864e+000	 4.638443640416253e-001	 3.131974269087025e+001
1	 2.336330261353183e+000	 4.875326666678163e-001	 2.923950862067082e+001
1	 2.331256769308257e+000	 5.112424937503096e-001	 2.721699396746336e+001
1	 2.325926457018605e+000	 5.349700319148381e-001	 2.525330712298697e+001
1	 2.320337943787829e+000	 5.587114161255757e-001	 2.334962249711722e+001
1	 2.314489920451514e+000	 5.824627311074863e-001	 2.150717954903718e+001
1	 2.308381151167378e+000	 6.062200128367058e-001	 1.972728165653932e+001
1	 2.302010475173931e+000	 6.299792500985681e-001	 1.801129482130550e+001
1	 2.295376808514921e+000	 6.537363861127731e-001	 1.636064620836450e+001
1	 2.288479145726790e+000	 6.774873202250676e-001	 1.477682251829432e+001
1	 2.281316561486399e+000	 7.012279096647086e-001	 1.326136819112164e+001
1	 2.367307890880099e+000	 4.690272649263335e-001	 3.112144700706892e+001
1	 2.362435931970694e+000	 4.929802557415794e-001	 2.897667638701069e+001
1	 2.357305749776348e+000	 5.169550115230278e-001	 2.689342424528074e+001
1	 2.351915877681005e+000	 5.409476762865410e-001	 2.487273996562551e+001
1	 2.346264919560646e+000	 5.649543418091653e-001	 2.291573190965398e+001
1	 2.340351551622521e+000	 5.889710490673754e-001	 2.102356641637564e+001
1	 2.334174524215299e+000	 6.129937897441082e-001	 1.919746665026754e+001
1	 2.327732663607379e+000	 6.370185078041980e-001	 1.743871129600972e+001
1	 2.321024873730601e+000	 6.610411011377028e-001	 1.574863309836244e+001
1	 2.314050137886562e+000	 6.850574232704915e-001	 1.412861724600876e+001
1	 2.306807520412753e+000	 7.090632851413388e-001	 1.258009959855128e+001
1	 2.393467398197139e+000	 4.742101658106620e-001	 3.087342774739779e+001
1	 2.388541602587979e+000	 4.984278448149279e-001	 2.866590540903808e+001
1	 2.383354730244194e+000	 5.226675292952986e-001	 2.652383882707877e+001
1	 2.377905298343142e+000	 5.469253206577649e-001	 2.444819677912993e+001
1	 2.372191895333188e+000	 5.711972674922478e-001	 2.243999888788390e+001
1	 2.366213182793248e+000	 5.954793670267320e-001	 2.050031461143540e+001
1	 2.359967897262938e+000	 6.197675666509557e-001	 1.863026209495900e+001
1	 2.353454852040546e+000	 6.440577655092539e-001	 1.683100688218501e+001
1	 2.346672938946006e+000	 6.683458161620447e-001	 1.510376048542767e+001
1	 2.339621130046071e+000	 6.926275263153183e-001	 1.344977881324388e+001
1	 2.332298479338855e+000	 7.168986606173690e-001	 1.187036045514116e+001
1	 2.419626905513916e+000	 4.793930666947602e-001	 3.057596494001256e+001
1	 2.414647273204966e+000	 5.038754338880156e-001	 2.830773294770289e+001
1	 2.409403710711710e+000	 5.283800470672767e-001	 2.610901277517926e+001
1	 2.403894719004927e+000	 5.529029650286648e-001	 2.398067182944085e+001
1	 2.398118871105364e+000	 5.774401931749745e-001	 2.192361916004125e+001
1	 2.392074813963600e+000	 6.019876849857039e-001	 1.993880446219472e+001
1	 2.385761270310199e+000	 6.265413435573921e-001	 1.802721695646065e+001
1	 2.379177040473338e+000	 6.510970232138766e-001	 1.618988414376055e+001
1	 2.372321004161045e+000	 6.756505311859365e-001	 1.442787043476557e+001
1	 2.365192122205227e+000	 7.001976293596834e-001	 1.274227565298814e+001
1	 2.357789438264623e+000	 7.247340360929329e-001	 1.113423341121900e+001
1	 2.445786412830364e+000	 4.845759675787774e-001	 3.022932663262908e+001
1	 2.440752943821578e+000	 5.093230229609954e-001	 2.790267327832992e+001
1	 2.435452691178814e+000	 5.340925648391165e-001	 2.564968799242779e+001
1	 2.429884139666275e+000	 5.588806093993936e-001	 2.347111684483888e+001
1	 2.424045846877084e+000	 5.836831188574979e-001	 2.136773729754331e+001
1	 2.417936445133483e+000	 6.084960029444394e-001	 1.934035724208789e+001
1	 2.411554643356989e+000	 6.333151204635623e-001	 1.738981393124534e+001
1	 2.404899228905664e+000	 6.581362809182071e-001	 1.551697280390814e+001
1	 2.397969069375629e+000	 6.829552462095149e-001	 1.372272620254421e+001
1	 2.390763114363941e+000	 7.077677324037210e-001	 1.200799198280268e+001
1	 2.383280397189971e+000	 7.325694115681636e-001	 1.037371201512757e+001
1	 2.471945920146419e+000	 4.897588684628632e-001	 2.983376952644131e+001
1	 2.466858614437743e+000	 5.147706120340211e-001	 2.745121890685196e+001
1	 2.461501671645428e+000	 5.398050826109729e-001	 2.514657497675369e+001
1	 2.455873560327097e+000	 5.648582537701059e-001	 2.292044326673042e+001
1	 2.449972822648255e+000	 5.899260445399690e-001	 2.077344942183974e+001
1	 2.443798076302805e+000	 6.150043209030871e-001	 1.870623829474548e+001
1	 2.437348016403213e+000	 6.400888973696106e-001	 1.671947295290870e+001
1	 2.430621417337429e+000	 6.651755386223857e-001	 1.481383359924919e+001
1	 2.423617134589663e+000	 6.902599612329167e-001	 1.299001640589963e+001
1	 2.416334106522128e+000	 7.153378354475658e-001	 1.124873226089402e+001
1	 2.408771356114817e+000	 7.404047870431946e-001	 9.590705427858689e+000
1	 2.498105427462015e+000	 4.949417693471667e-001	 2.938953957021037e+001
1	 2.492964285053382e+000	 5.202182011072452e-001	 2.695384170962655e+001
1	 2.487550652111465e+000	 5.455176003830007e-001	 2.460035446549016e+001
1	 2.481862980987305e+000	 5.708358981409557e-001	 2.232952435901556e+001
1	 2.475899798418785e+000	 5.961689702225396e-001	 2.014180574118945e+001
1	 2.469659707471471e+000	 6.215126388617955e-001	 1.803765996240567e+001
1	 2.463141389448778e+000	 6.468626742756822e-001	 1.601755447835128e+001
1	 2.456343605768538e+000	 6.722147963265528e-001	 1.408196189190036e+001
1	 2.449265199803056e+000	 6.975646762562793e-001	 1.223135893093816e+001
1	 2.441905098679697e+000	 7.229079384913518e-001	 1.046622536220960e+001
1	 2.434262315039078e+000	 7.482401625181596e-001	 8.787042841464640e+000
1	 2.524264934777087e+000	 5.001246702318375e-001	 2.889687251741326e+001
1	 2.519069955668423e+000	 5.256657901808217e-001	 2.641099400237971e+001
1	 2.513599632576846e+000	 5.512301181553541e-001	 2.401167897745199e+001
1	 2.507852401646812e+000	 5.768135425120967e-001	 2.169919718629706e+001
1	 2.501826774188584e+000	 6.024118959053616e-001	 1.947381292970239e+001
1	 2.495521338639389e+000	 6.280209568207136e-001	 1.733578433223900e+001
1	 2.488934762493587e+000	 6.536364511819210e-001	 1.528536256962824e+001
1	 2.482065794198899e+000	 6.792540540308492e-001	 1.332279105692466e+001
1	 2.474913265015719e+000	 7.048693912797397e-001	 1.144830459774164e+001
1	 2.467476090836561e+000	 7.304780415352139e-001	 9.662128494866581e+000
1	 2.459753273962669e+000	 7.560755379931917e-001	 7.964477622735892e+000
1	 2.550424442091569e+000	 5.053075711170251e-001	 2.835599444910404e+001
1	 2.545175626282793e+000	 5.311133792549038e-001	 2.582310954336516e+001
1	 2.539648613041488e+000	 5.569426359281883e-001	 2.338117426011103e+001
1	 2.533841822305532e+000	 5.827911868836830e-001	 2.103026447034712e+001
1	 2.527753749957560e+000	 6.086548215885872e-001	 1.877043635997163e+001
1	 2.521382969806465e+000	 6.345292747799887e-001	 1.660172581366002e+001
1	 2.514728135537550e+000	 6.604102280884717e-001	 1.452414778613713e+001
1	 2.507787982628420e+000	 6.862933117354155e-001	 1.253769566131355e+001
1	 2.500561330227559e+000	 7.121741063034355e-001	 1.064234059982267e+001
1	 2.493047082992633e+000	 7.380481445792869e-001	 8.838030875557735e+000
1	 2.485244232885506e+000	 7.639109134684247e-001	 7.124691201870542e+000
1	 2.230334643633273e+000	 6.855571587091147e-001	 1.452968706155366e+001
1	 2.223072299479172e+000	 7.087529998691573e-001	 1.314400438361442e+001
1	 2.215549382871506e+000	 7.319305087471114e-001	 1.181067715466853e+001
1	 2.207765230096631e+000	 7.550855204020772e-001	 1.053003034513196e+001
1	 2.199719261790046e+000	 7.782138361143607e-001	 9.302432032530186e+000
1	 2.191410984317160e+000	 8.013112254104075e-001	 8.128293086252429e+000
1	 2.182839991099376e+000	 8.243734281452965e-001	 7.008066745924893e+000
1	 2.174005963882928e+000	 8.473961566412124e-001	 5.942248091878486e+000
1	 2.164908673947971e+000	 8.703750978801975e-001	 4.931373406435123e+000
1	 2.155547983255453e+000	 8.933059157493628e-001	 3.976019424996983e+000
1	 2.145923845529373e+000	 9.161842533366132e-001	 3.076802476192715e+000
1	 2.255825602559878e+000	 6.933925341873451e-001	 1.391198944625189e+001
1	 2.248480255562493e+000	 7.168534854447088e-001	 1.249232057140134e+001
1	 2.240871357974673e+000	 7.402958948964447e-001	 1.112784902884442e+001
1	 2.232998238497061e+000	 7.637155499996891e-001	 9.818819553561763e+000
1	 2.224860311143484e+000	 7.871082040467171e-001	 8.565518349592800e+000
1	 2.216457076637509e+000	 8.104695782130247e-001	 7.368272894565902e+000
1	 2.207788123753673e+000	 8.337953636636194e-001	 6.227451642028799e+000
1	 2.198853130600829e+000	 8.570812237159357e-001	 5.143463619875839e+000
1	 2.189651865845055e+000	 8.803227960576487e-001	 4.116757923405723e+000
1	 2.180184189869628e+000	 9.035156950175444e-001	 3.147823101789070e+000
1	 2.170450055869658e+000	 9.266555138874861e-001	 2.237186436982800e+000
1	 2.281316561486399e+000	 7.012279096647086e-001	 1.326136819112164e+001
1	 2.273888211645736e+000	 7.249539710193941e-001	 1.180961418075207e+001
1	 2.266193333077769e+000	 7.486612810449148e-001	 1.041592759991709e+001
1	 2.258231246897426e+000	 7.723455795964405e-001	 9.080478476008160e+000
1	 2.250001360496865e+000	 7.960025719782181e-001	 7.803475764773508e+000
1	 2.241503168957809e+000	 8.196279310147910e-001	 6.585167253783393e+000
1	 2.232736256407929e+000	 8.432172991810966e-001	 5.425839369106464e+000
1	 2.223700297318700e+000	 8.667662907898179e-001	 4.325816883382054e+000
1	 2.214395057742118e+000	 8.902704942342625e-001	 3.285462523693136e+000
1	 2.204820396483794e+000	 9.137254742848917e-001	 2.305176477877276e+000
1	 2.194976266209943e+000	 9.371267744375259e-001	 1.385395798153535e+000
1	 2.306807520412753e+000	 7.090632851413388e-001	 1.258009959855128e+001
1	 2.299296167728821e+000	 7.330544565933477e-001	 1.109826866809756e+001
1	 2.291515308180721e+000	 7.570266671926574e-001	 9.677380535583964e+000
1	 2.283464255297661e+000	 7.809756091924723e-001	 8.317535869197528e+000
1	 2.275142409850133e+000	 8.048969399090080e-001	 7.018870841107609e+000
1	 2.266549261278012e+000	 8.287862838158566e-001	 5.781557109454037e+000
1	 2.257684389062107e+000	 8.526392346978825e-001	 4.605801710169915e+000
1	 2.248547464036510e+000	 8.764513578630184e-001	 3.491846856775293e+000
1	 2.239138249639141e+000	 9.002181924102024e-001	 2.439969646481397e+000
1	 2.229456603097937e+000	 9.239352535515704e-001	 1.450481671159450e+000
1	 2.219502476550226e+000	 9.475980349868982e-001	 5.237285319529642e-001
1	 2.332298479338855e+000	 7.168986606173690e-001	 1.187036045514116e+001
1	 2.324704123811673e+000	 7.411549421667038e-001	 1.036056328950191e+001
1	 2.316837283283455e+000	 7.653920533398096e-001	 8.914567621612957e+000
1	 2.308697263697703e+000	 7.896056387879249e-001	 7.532409937226048e+000
1	 2.300283459203230e+000	 8.137913078392319e-001	 6.214157936177463e+000
1	 2.291595353598070e+000	 8.379446366163708e-001	 4.959910572897019e+000
1	 2.282632521716166e+000	 8.620611702141319e-001	 3.769798014570646e+000
1	 2.273394630754231e+000	 8.861364249356956e-001	 2.643981515106898e+000
1	 2.263881441536102e+000	 9.101658905856304e-001	 1.582653203243096e+000
1	 2.254092809712048e+000	 9.341450328177450e-001	 5.860357833220131e-001
1	 2.244028686890507e+000	 9.580692955357705e-001	-3.456178525245848e-001
1	 2.357789438264623e+000	 7.247340360929329e-001	 1.113423341121900e+001
1	 2.350112079894210e+000	 7.492554277395965e-001	 9.598678733411415e+000
1	 2.342159258385902e+000	 7.737574394865083e-001	 8.129746593605351e+000
1	 2.333930272097482e+000	 7.982356683829374e-001	 6.727414307692492e+000
1	 2.325424508556097e+000	 8.226856757690343e-001	 5.391685267591853e+000
1	 2.316641445917932e+000	 8.471029894164828e-001	 4.122589020670476e+000
1	 2.307580654370066e+000	 8.714831057299988e-001	 2.920181275815067e+000
1	 2.298241797471829e+000	 8.958214920080092e-001	 1.784543834381088e+000
1	 2.288624633432979e+000	 9.201135887607101e-001	 7.157844444114552e-001
1	 2.278729016326116e+000	 9.443548120835820e-001	-2.859634233087676e-001
1	 2.268554897230787e+000	 9.685405560843096e-001	-1.220540878611568e+000
1	 2.383280397189971e+000	 7.325694115681636e-001	 1.037371201512757e+001
1	 2.375520035976356e+000	 7.573559133121597e-001	 8.814702391925056e+000
1	 2.367481233487989e+000	 7.821228256328895e-001	 7.325078594508610e+000
1	 2.359163280496938e+000	 8.068656979776510e-001	 5.904763624315937e+000
1	 2.350565557908681e+000	 8.315800436985599e-001	 4.553700589216362e+000
1	 2.341687538237552e+000	 8.562613422163423e-001	 3.271852802610482e+000
1	 2.332528787023769e+000	 8.809050412456384e-001	 2.059203819339546e+000
1	 2.323088964189278e+000	 9.055065590801182e-001	 9.157574067702536e-001
1	 2.313367825329754e+000	 9.300612869356039e-001	-1.584625504382462e-001
1	 2.303365222940131e+000	 9.545645913492464e-001	-1.163412213224643e+000
1	 2.293081107571061e+000	 9.790118166326809e-001	-2.099028019854223e+000
1	 2.408771356114817e+000	 7.404047870431946e-001	 9.590705427858689e+000
1	 2.400927992058032e+000	 7.654563988845280e-001	 8.010633297363810e+000
1	 2.392803208589645e+000	 7.904882117790897e-001	 6.502633285602579e+000
1	 2.384396288896006e+000	 8.154957275722057e-001	 5.066578784448248e+000
1	 2.375706607260921e+000	 8.404744116279526e-001	 3.702356506989700e+000
1	 2.366733630556880e+000	 8.654196950160988e-001	 2.409866587436012e+000
1	 2.357476919677233e+000	 8.903269767612047e-001	 1.189022629138091e+000
1	 2.347936130906541e+000	 9.151916261521809e-001	 3.975169928987567e-002
1	 2.338111017226406e+000	 9.400089851104752e-001	-1.038005731008241e+000
1	 2.328001429554082e+000	 9.647743706149041e-001	-2.044295902514659e+000
1	 2.317607317911332e+000	 9.894830771810523e-001	-2.979151940496447e+000
1	 2.434262315039078e+000	 7.482401625181596e-001	 8.787042841464640e+000
1	 2.426335948139160e+000	 7.735568844568357e-001	 7.188386748673287e+000
1	 2.418125183690795e+000	 7.988535979252458e-001	 5.664393636359939e+000
1	 2.409629297294618e+000	 8.241257571667410e-001	 4.214891847511495e+000
1	 2.400847656612762e+000	 8.493687795573580e-001	 2.839715460744705e+000
1	 2.391779722875867e+000	 8.745780478159020e-001	 1.538704372487332e+000
1	 2.382425052330418e+000	 8.997489122768517e-001	 3.117043397157203e-001
1	 2.372783297623596e+000	 9.248766932243574e-001	-8.414330179309895e-001
1	 2.362854209122914e+000	 9.499566832854866e-001	-1.920850257745398e+000
1	 2.352637636167958e+000	 9.749841498807208e-001	-2.926684196239894e+000
1	 2.342133528251599e+000	 9.999543377295894e-001	-3.859066035006132e+000
1	 2.459753273962669e+000	 7.560755379931917e-001	 7.964477622735892e+000
1	 2.451743904219661e+000	 7.816573700292162e-001	 6.349798650159754e+000
1	 2.443447158791370e+000	 8.072189840714945e-001	 4.812260416476794e+000
1	 2.434862305692713e+000	 8.327557867613982e-001	 3.351650638232048e+000
1	 2.425988705964147e+000	 8.582631474869201e-001	 1.967754396263562e+000
1	 2.416825815194466e+000	 8.837364006159015e-001	 6.603541819621699e-001
1	 2.407373184983288e+000	 9.091708477927348e-001	-5.707700823542955e-001
1	 2.397630464340407e+000	 9.345617602968064e-001	-1.725841049816029e+000
1	 2.387597401019257e+000	 9.599043814608010e-001	-2.805083982921505e+000
1	 2.377273842781749e+000	 9.851939291468613e-001	-3.808726815726867e+000
1	 2.366659738591859e+000	 1.010425598278460e+000	-4.737000244950607e+000
1	 2.485244232885506e+000	 7.639109134684247e-001	 7.124691201870542e+000
1	 2.477151860299458e+000	 7.897578556018046e-001	 5.496629583213651e+000
1	 2.468769133891298e+000	 8.155843702179724e-001	 3.948056411456525e+000
1	 2.460095314090223e+000	 8.413858163563166e-001	 2.478723066584531e+000
1	 2.451129755315018e+000	 8.671575154167841e-001	 1.088369149807167e+000
1	 2.441871907512629e+000	 8.928947534162470e-001	-2.232775239846367e-001
1	 2.432321317635803e+000	 9.185927833090084e-001	-1.456500944983491e+000
1	 2.422477631056948e+000	 9.442468273696871e-001	-2.611596938942502e+000
1	 2.412340592915415e+000	 9.698520796365817e-001	-3.688873209814873e+000
1	 2.401910049395445e+000	 9.954037084134922e-001	-4.688649394964183e+000
1	 2.391185948932115e+000	 1.020896858827830e+000	-5.611257133308078e+000
1	 2.145923845529373e+000	 9.161842533366132e-001	 3.076802476192716e+000
1	 2.136037810352666e+000	 9.390023168969390e-001	 2.228650538454479e+000
1	 2.125888595480185e+000	 9.617591535682968e-001	 1.426046220621910e+000
1	 2.115476437276295e+000	 9.844503614784820e-001	 6.693860184768189e-001
1	 2.104801667440269e+000	 1.007071527655773e+000	-4.089764786000462e-002
1	 2.093864713729079e+000	 1.029618230541540e+000	-7.043369340974449e-001
1	 2.082666100602788e+000	 1.052086042539205e+000	-1.320429163465142e+000
1	 2.071206449790665e+000	 1.074470532596845e+000	-1.888637510294041e+000
1	 2.059486480776334e+000	 1.096767268820616e+000	-2.408391775612649e+000
1	 2.047507011200339e+000	 1.118971821116124e+000	-2.879089254640474e+000
1	 2.035268957178629e+000	 1.141079763854727e+000	-3.300095695809298e+000
1	 2.170450055869658e+000	 9.266555138874861e-001	 2.237186436982799e+000
1	 2.160451031138595e+000	 9.497343698461394e-001	 1.379681839943947e+000
1	 2.150185818776248e+000	 9.727512991410006e-001	 5.698070984394413e-001
1	 2.139654657848451e+000	 9.957018495899493e-001	-1.919615480281960e-001
1	 2.128857883845541e+000	 1.018581557784486e+000	-9.051109416062082e-001
1	 2.117795929413422e+000	 1.041385951631064e+000	-1.569091626367865e+000
1	 2.106469325006327e+000	 1.064110552929180e+000	-2.183318564244129e+000
1	 2.094878699459406e+000	 1.086750879983490e+000	-2.747171946797679e+000
1	 2.083024780479415e+000	 1.109302450247109e+000	-3.259998102772028e+000
1	 2.070908395051891e+000	 1.131760782993169e+000	-3.721110501089538e+000
1	 2.058530469763273e+000	 1.154121402011593e+000	-4.129790848709417e+000
1	 2.194976266209943e+000	 9.371267744375259e-001	 1.385395798153535e+000
1	 2.184864251924532e+000	 9.604664227945057e-001	 5.208638068232402e-001
1	 2.174483042072331e+000	 9.837434447128692e-001	-2.939110132178442e-001
1	 2.163832878420640e+000	 1.006953337700580e+000	-1.058388128732204e+000
1	 2.152914100250859e+000	 1.030091587912363e+000	-1.771989783484885e+000
1	 2.141727145097828e+000	 1.053153672719756e+000	-2.434101723729788e+000
1	 2.130272549409948e+000	 1.076135063318328e+000	-3.044074022087886e+000
1	 2.118550949128249e+000	 1.099031227369320e+000	-3.601221999832718e+000
1	 2.106563080182627e+000	 1.121837631672806e+000	-4.104827247335892e+000
1	 2.094309778903607e+000	 1.144549744869444e+000	-4.554138742155968e+000
1	 2.081791982348114e+000	 1.167163040167724e+000	-4.948374063982293e+000
1	 2.219502476550226e+000	 9.475980349868982e-001	 5.237285319529642e-001
1	 2.209277472710488e+000	 9.711984757422032e-001	-3.456286422306536e-001
1	 2.198780265368454e+000	 9.947355902840656e-001	-1.163069984749545e+000
1	 2.188011098992888e+000	 1.018204825810533e+000	-1.928005692922685e+000
1	 2.176970316656258e+000	 1.041601618039557e+000	-2.639809110450978e+000
1	 2.165658360782336e+000	 1.064921393807760e+000	-3.297817543479970e+000
1	 2.154075773813694e+000	 1.088159573706788e+000	-3.901333176416553e+000
1	 2.142223198797243e+000	 1.111311574754465e+000	-4.449624087354345e+000
1	 2.130101379886014e+000	 1.134372813097828e+000	-4.941925362692751e+000
1	 2.117711162755524e+000	 1.157338706745061e+000	-5.377440310259440e+000
1	 2.105053494933187e+000	 1.180204678323221e+000	-5.755341769968068e+000
1	 2.244028686890507e+000	 9.580692955357705e-001	-3.456178525245848e-001
1	 2.233690693496472e+000	 9.819305286893982e-001	-1.217715672017088e+000
1	 2.223077488664634e+000	 1.005727735854752e+000	-2.035720789862954e+000
1	 2.212189319565223e+000	 1.029456313919966e+000	-2.799008751145331e+000
1	 2.201026533061774e+000	 1.053111648166220e+000	-3.506919276068889e+000
1	 2.189589576466989e+000	 1.076689114895224e+000	-4.158757152216300e+000
1	 2.177878998217611e+000	 1.100184084094699e+000	-4.753793226570088e+000
1	 2.165895448466434e+000	 1.123591922139056e+000	-5.291265497002891e+000
1	 2.153639679589622e+000	 1.146907994522294e+000	-5.770380302666105e+000
1	 2.141112546607686e+000	 1.170127668620127e+000	-6.190313612429279e+000
1	 2.128315007518526e+000	 1.193246316478183e+000	-6.550212410243012e+000
1	 2.268554897230787e+000	 9.685405560843096e-001	-1.220540878611568e+000
1	 2.258103914282494e+000	 9.926625816362567e-001	-2.093407390893423e+000
1	 2.247374711960891e+000	 1.016719881425092e+000	-2.909998688924017e+000
1	 2.236367540137673e+000	 1.040707802029039e+000	-3.669669893279355e+000
1	 2.225082749467440e+000	 1.064621678292507e+000	-4.371741973724094e+000
1	 2.213520792151827e+000	 1.088456835982292e+000	-5.015502703520307e+000
1	 2.201682222621746e+000	 1.112208594482198e+000	-5.600207712183494e+000
1	 2.189567698135869e+000	 1.135872269523220e+000	-6.125081636246339e+000
1	 2.177177979293499e+000	 1.159443175946325e+000	-6.589319367317993e+000
1	 2.164513930460135e+000	 1.182916630494756e+000	-6.992087396450427e+000
1	 2.151576520104164e+000	 1.206287954632712e+000	-7.332525253543905e+000
1	 2.293081107571061e+000	 9.790118166326809e-001	-2.099028019854223e+000
1	 2.282517135068562e+000	 1.003394634582944e+000	-2.970799040708226e+000
1	 2.271671935257244e+000	 1.027712026995249e+000	-3.784118721414531e+000
1	 2.260545760710265e+000	 1.051959290137911e+000	-4.538335612954338e+000
1	 2.249138965873294e+000	 1.076131708418570e+000	-5.232766421460489e+000
1	 2.237452007836891e+000	 1.100224557069113e+000	-5.866697010667097e+000
1	 2.225485447026142e+000	 1.124233104869425e+000	-6.439383500179726e+000
1	 2.213239947805595e+000	 1.148152616907090e+000	-6.950053458993158e+000
1	 2.200716278997688e+000	 1.171978357370042e+000	-7.397907193414596e+000
1	 2.187915314312909e+000	 1.195705592369057e+000	-7.782119128278572e+000
1	 2.174838032690135e+000	 1.219329592786908e+000	-8.101839280065274e+000
1	 2.317607317911332e+000	 9.894830771810523e-001	-2.979151940496447e+000
1	 2.306930355854685e+000	 1.014126687529626e+000	-3.848066492151445e+000
1	 2.295969158553711e+000	 1.038704172565387e+000	-4.656371484596932e+000
1	 2.284723981283027e+000	 1.063210778246740e+000	-5.403422397097052e+000
1	 2.273195182279369e+000	 1.087641738544563e+000	-6.088545789062828e+000
1	 2.261383223522225e+000	 1.111992278155832e+000	-6.711040336952077e+000
1	 2.249288671430845e+000	 1.136257615256517e+000	-7.270177963074445e+000
1	 2.236912197475659e+000	 1.160432964290793e+000	-7.765205055603565e+000
1	 2.224254578702236e+000	 1.184513538793563e+000	-8.195343778837273e+000
1	 2.211316698166055e+000	 1.208494554243140e+000	-8.559793472481880e+000
1	 2.198099545276473e+000	 1.232371230940871e+000	-8.857732138471214e+000
1	 2.342133528251599e+000	 9.999543377295894e-001	-3.859066035006131e+000
1	 2.331343576640874e+000	 1.024858740476468e+000	-4.723462023133457e+000
1	 2.320266381850311e+000	 1.049696318135667e+000	-5.525119177407661e+000
1	 2.308902201855987e+000	 1.074462266355686e+000	-6.263413061173900e+000
1	 2.297251398685700e+000	 1.099151768670638e+000	-6.937693849627078e+000
1	 2.285314439207865e+000	 1.123759999242595e+000	-7.547287387683046e+000
1	 2.273091895835900e+000	 1.148282125643612e+000	-8.091496334569193e+000
1	 2.260584447146108e+000	 1.172713311674460e+000	-8.569601394321186e+000
1	 2.247792878407190e+000	 1.197048720217011e+000	-8.980862631120814e+000
1	 2.234718082019611e+000	 1.221283516117117e+000	-9.324520868157158e+000
1	 2.221361057863212e+000	 1.245412869094703e+000	-9.599799168438793e+000
1	 2.366659738591859e+000	 1.010425598278460e+000	-4.737000244950607e+000
1	 2.355756797427137e+000	 1.035590793423637e+000	-5.595310359661766e+000
1	 2.344563605147063e+000	 1.060688463706254e+000	-6.388791890338363e+000
1	 2.333080422429172e+000	 1.085713754464907e+000	-7.116853312305245e+000
1	 2.321307615092325e+000	 1.110661798796949e+000	-7.778881839333796e+000
1	 2.309245654893859e+000	 1.135527720329549e+000	-8.374244489207827e+000
1	 2.296895120241353e+000	 1.160306636030850e+000	-8.902289229571849e+000
1	 2.284256696816990e+000	 1.184993659058219e+000	-9.362346203140964e+000
1	 2.271331178112595e+000	 1.209583901640504e+000	-9.753729031114242e+000
1	 2.258119465873619e+000	 1.234072477991097e+000	-1.007573619339462e+001
1	 2.244622570450384e+000	 1.258454507248503e+000	-1.032765248397899e+001
1	 2.391185948932115e+000	 1.020896858827830e+000	-5.611257133308078e+000
1	 2.380170018213486e+000	 1.046322846371298e+000	-6.462004960368068e+000
1	 2.368860828443987e+000	 1.071680609277310e+000	-7.245884123643540e+000
1	 2.357258643002612e+000	 1.096965242574563e+000	-7.962348523891196e+000
1	 2.345363831499277e+000	 1.122171828923650e+000	-8.610835510475908e+000
1	 2.333176870580242e+000	 1.147295441416840e+000	-9.190766941549214e+000
1	 2.320698344647250e+000	 1.172331146418369e+000	-9.701550316838985e+000
1	 2.307928946488350e+000	 1.197274006442202e+000	-1.014257998203033e+001
1	 2.294869477818497e+000	 1.222119083064165e+000	-1.051323840349863e+001
1	 2.281520849728123e+000	 1.246861439865192e+000	-1.081289751193351e+001
1	 2.267884083038025e+000	 1.271496145402371e+000	-1.104092011317150e+001
1	 2.035268957178629e+000	 1.141079763854727e+000	-3.300095695809296e+000
1	 2.022771440011766e+000	 1.163089972340299e+000	-3.681561224993360e+000
1	 2.010017391776478e+000	 1.184994713164319e+000	-4.033938843411093e+000
1	 1.997008027266777e+000	 1.206789589643860e+000	-4.357231606712148e+000
1	 1.983744660202318e+000	 1.228470220469227e+000	-4.651479751762867e+000
1	 1.970228703106179e+000	 1.250032242448504e+000	-4.916760723672148e+000
1	 1.956461667092249e+000	 1.271471313257540e+000	-5.153189146441905e+000
1	 1.942445161561669e+000	 1.292783114191905e+000	-5.360916736843993e+000
1	 1.928180893807916e+000	 1.313963352917359e+000	-5.540132161256996e+000
1	 1.913670668530300e+000	 1.335007766215311e+000	-5.691060835330245e+000
1	 1.898916387255753e+000	 1.355912122719749e+000	-5.813964666478191e+000
1	 2.058530469763273e+000	 1.154121402011593e+000	-4.129790848709417e+000
1	 2.045890115871281e+000	 1.176383169751865e+000	-4.496999394021681e+000
1	 2.032990298963952e+000	 1.198538264418723e+000	-4.834016272018304e+000
1	 2.019832247719413e+000	 1.220582239078633e+000	-5.140782466309016e+000
1	 2.006417290872079e+000	 1.242510662346993e+000	-5.417279845102191e+000
1	 1.992746857089031e+000	 1.264319121164056e+000	-5.663531303485539e+000
1	 1.978822474754979e+000	 1.286003223576338e+000	-5.879600843842312e+000
1	 1.964645771665227e+000	 1.307558601520036e+000	-6.065593593722952e+000
1	 1.950218474626249e+000	 1.328980913602921e+000	-6.221655760634812e+000
1	 1.935542408963624e+000	 1.350265847881186e+000	-6.347974523358695e+000
1	 1.920619497937211e+000	 1.371409124627651e+000	-6.444777859548938e+000
1	 2.081791982348114e+000	 1.167163040167724e+000	-4.948374063982293e+000
1	 2.069008791731038e+000	 1.189676367162741e+000	-5.299355504712255e+000
1	 2.055963206151714e+000	 1.212081815672490e+000	-5.619239774490013e+000
1	 2.042656468172388e+000	 1.234374888512827e+000	-5.907921007131520e+000
1	 2.029089921542231e+000	 1.256551104224243e+000	-6.165337282292962e+000
1	 2.015265011072332e+000	 1.278605999879157e+000	-6.391470855201550e+000
1	 2.001183282418213e+000	 1.300535133894753e+000	-6.586348319898327e+000
1	 1.986846381769342e+000	 1.322334088847847e+000	-6.750040705094885e+000
1	 1.972256055445192e+000	 1.343998474288225e+000	-6.882663501899051e+000
1	 1.957414149397602e+000	 1.365523929546859e+000	-6.984376622820146e+000
1	 1.942322608619367e+000	 1.386906126535401e+000	-7.055384291624539e+000
1	 2.105053494933187e+000	 1.180204678323221e+000	-5.755341769968069e+000
1	 2.092127467591057e+000	 1.202969564573016e+000	-6.088352347804087e+000
1	 2.078936113339772e+000	 1.225625366925698e+000	-6.389541127446789e+000
1	 2.065480688625693e+000	 1.248167537946512e+000	-6.658770205564144e+000
1	 2.051762552212749e+000	 1.270591546101038e+000	-6.895948057643341e+000
1	 2.037783165056030e+000	 1.292892878593861e+000	-7.101029827874338e+000
1	 2.023544090081879e+000	 1.315067044212827e+000	-7.274017548771814e+000
1	 2.009046991873926e+000	 1.337109576175375e+000	-7.414960289483545e+000
1	 1.994293636264635e+000	 1.359016034973300e+000	-7.523954231893730e+000
1	 1.979285889832116e+000	 1.380782011212353e+000	-7.601142673795010e+000
1	 1.964025719302089e+000	 1.402403128443017e+000	-7.646715958570789e+000
1	 2.128315007518526e+000	 1.193246316478183e+000	-6.550212410243012e+000
1	 2.115246143451361e+000	 1.216262761982781e+000	-6.863724833121371e+000
1	 2.101909020528132e+000	 1.239168918178429e+000	-7.144855090113177e+000
1	 2.088304909079315e+000	 1.261960187379757e+000	-7.393447661690480e+000
1	 2.074435182883600e+000	 1.284631987977440e+000	-7.609395225132586e+000
1	 2.060301319040078e+000	 1.307179757308217e+000	-7.792638977749393e+000
1	 2.045904897745909e+000	 1.329598954530604e+000	-7.943168886905502e+000
1	 2.031247601978889e+000	 1.351885063502655e+000	-8.061023865701889e+000
1	 2.016331217084475e+000	 1.374033595658174e+000	-8.146291873338097e+000
1	 2.001157630267043e+000	 1.396040092877691e+000	-8.199109939350194e+000
1	 1.985728829985244e+000	 1.417900130350513e+000	-8.219664111095796e+000
1	 2.151576520104164e+000	 1.206287954632712e+000	-7.332525253543904e+000
1	 2.138364819311972e+000	 1.229555959392127e+000	-7.625219334453359e+000
1	 2.124881927716801e+000	 1.252712469430764e+000	-7.885119243087253e+000
1	 2.111129129533247e+000	 1.275752836812638e+000	-8.112065889919439e+000
1	 2.097107813554756e+000	 1.298672429853509e+000	-8.305949597925331e+000
1	 2.082819473024427e+000	 1.321466636022281e+000	-8.466710432795937e+000
1	 2.068265705410237e+000	 1.344130864848129e+000	-8.594338457837530e+000
1	 2.053448212084144e+000	 1.366660550829724e+000	-8.688873912383526e+000
1	 2.038368797904605e+000	 1.389051156342877e+000	-8.750407312716579e+000
1	 2.023029370702263e+000	 1.411298174542895e+000	-8.779079474675985e+000
1	 2.007431940668699e+000	 1.433397132257910e+000	-8.775081457306994e+000
1	 2.174838032690135e+000	 1.219329592786908e+000	-8.101839280065271e+000
1	 2.161483495172912e+000	 1.242849156801144e+000	-8.372593076476079e+000
1	 2.147854834905787e+000	 1.266256020682782e+000	-8.610273837457335e+000
1	 2.133953349987477e+000	 1.289545486245221e+000	-8.814732590960738e+000
1	 2.119780444226189e+000	 1.312712871729308e+000	-8.985870402994719e+000
1	 2.105337627009026e+000	 1.335753514736103e+000	-9.123638688923469e+000
1	 2.090626513074790e+000	 1.358662775165445e+000	-9.228039448146419e+000
1	 2.075648822189603e+000	 1.381436038156617e+000	-9.299125421014358e+000
1	 2.060406378724920e+000	 1.404068717027437e+000	-9.337000167014605e+000
1	 2.044901111137655e+000	 1.426556256207987e+000	-9.341818063437129e+000
1	 2.029135051352321e+000	 1.448894134165222e+000	-9.313784223920299e+000
1	 2.198099545276473e+000	 1.232371230940871e+000	-8.857732138471212e+000
1	 2.184602171034203e+000	 1.256142354209923e+000	-9.105613560601926e+000
1	 2.170827742095097e+000	 1.279799571934566e+000	-9.320261653498918e+000
1	 2.156777570441994e+000	 1.303338135677579e+000	-9.501550906531245e+000
1	 2.142453074897868e+000	 1.326753313604898e+000	-9.649405894180147e+000
1	 2.127855780993828e+000	 1.350040393449737e+000	-9.763801542943023e+000
1	 2.112987320739501e+000	 1.373194685482595e+000	-9.844763321109364e+000
1	 2.097849432295178e+000	 1.396211525483370e+000	-9.892367350354276e+000
1	 2.082443959545315e+000	 1.419086277711884e+000	-9.906740438274731e+000
1	 2.066772851573099e+000	 1.441814337872990e+000	-9.888060031174556e+000
1	 2.050838162035976e+000	 1.464391136072466e+000	-9.836554086591987e+000
1	 2.221361057863212e+000	 1.245412869094703e+000	-9.599799168438793e+000
1	 2.207720846895866e+000	 1.269435551618553e+000	-9.824058026903137e+000
1	 2.193800649284738e+000	 1.293343123186194e+000	-1.001502786824986e+001
1	 2.179601790896790e+000	 1.317130785109783e+000	-1.017261965805784e+001
1	 2.165125705569764e+000	 1.340793755480339e+000	-1.029679392672622e+001
1	 2.150373934978783e+000	 1.364327272163235e+000	-1.038756096691040e+001
1	 2.135348128404301e+000	 1.387726595799625e+000	-1.044498095410612e+001
1	 2.120050042400781e+000	 1.410987012810021e+000	-1.046916398947655e+001
1	 2.104481540365684e+000	 1.434103838396246e+000	-1.046027006419655e+001
1	 2.088644592008472e+000	 1.457072419537926e+000	-1.041850894477047e+001
1	 2.072541272719534e+000	 1.479888137979660e+000	-1.034413997896717e+001
1	 2.244622570450384e+000	 1.258454507248503e+000	-1.032765248397899e+001
1	 2.230839522757925e+000	 1.282728749027127e+000	-1.052771294949259e+001
1	 2.216773556474716e+000	 1.306886674437748e+000	-1.069451993131949e+001
1	 2.202426011351853e+000	 1.330923434541904e+000	-1.082803357053808e+001
1	 2.187798336241849e+000	 1.354834197355695e+000	-1.092826249609747e+001
1	 2.172892088963843e+000	 1.378614150876649e+000	-1.099526392810301e+001
1	 2.157708936069120e+000	 1.402258506116577e+000	-1.102914370529963e+001
1	 2.142250652506323e+000	 1.425762500136603e+000	-1.103005623605471e+001
1	 2.126519121185921e+000	 1.449121399080551e+000	-1.099820437232107e+001
1	 2.110516332443655e+000	 1.472330501202817e+000	-1.093383920624167e+001
1	 2.094244383402860e+000	 1.495385139886820e+000	-1.083725978924261e+001
1	 2.267884083038025e+000	 1.271496145402371e+000	-1.104092011317150e+001
1	 2.253958198620401e+000	 1.296021946435735e+000	-1.121637356295968e+001
1	 2.239746463665040e+000	 1.320430225689309e+000	-1.135868744834089e+001
1	 2.225250231807174e+000	 1.344716083974012e+000	-1.146788348262412e+001
1	 2.210470966914092e+000	 1.368874639231026e+000	-1.154403024363329e+001
1	 2.195410242948957e+000	 1.392901029590033e+000	-1.158724315853430e+001
1	 2.180069743733891e+000	 1.416790416433498e+000	-1.159768441467170e+001
1	 2.164451262611717e+000	 1.440537987463155e+000	-1.157556279598153e+001
1	 2.148556702005920e+000	 1.464138959764830e+000	-1.152113344472268e+001
1	 2.132388072878528e+000	 1.487588582867686e+000	-1.143469754844858e+001
1	 2.115947494085821e+000	 1.510882141793964e+000	-1.131660195232079e+001
1	 1.898916387255753e+000	 1.355912122719749e+000	-5.813964666478191e+000
1	 1.883920047133223e+000	 1.376672225183124e+000	-5.914089801496683e+000
1	 1.868683738580113e+000	 1.397283911780662e+000	-5.996761095572476e+000
1	 1.853209646065358e+000	 1.417743060129417e+000	-6.062409470620908e+000
1	 1.837500047710095e+000	 1.438045590410163e+000	-6.111497112514118e+000
1	 1.821557314259136e+000	 1.458187468011342e+000	-6.144516896819721e+000
1	 1.805383907963363e+000	 1.478164706143358e+000	-6.161991762496597e+000
1	 1.788982381374034e+000	 1.497973368419745e+000	-6.164474034541203e+000
1	 1.772355376050134e+000	 1.517609571401743e+000	-6.152544696709826e+000
1	 1.755505621180099e+000	 1.537069487102882e+000	-6.126812615569456e+000
1	 1.738435932119337e+000	 1.556349345450221e+000	-6.087913717255959e+000
1	 1.920619497937211e+000	 1.371409124627651e+000	-6.444777859548938e+000
1	 1.905451761521779e+000	 1.392406498623549e+000	-6.517354216087768e+000
1	 1.890041314026554e+000	 1.413253760477749e+000	-6.571272146308995e+000
1	 1.874390364887229e+000	 1.433946740691739e+000	-6.607238981748923e+000
1	 1.858501218262075e+000	 1.454481312817197e+000	-6.625999555977343e+000
1	 1.842376271991649e+000	 1.474853396130154e+000	-6.628335142451598e+000
1	 1.826018016468425e+000	 1.495058958275174e+000	-6.615062327105536e+000
1	 1.809429033417307e+000	 1.515094017876017e+000	-6.587031817656634e+000
1	 1.792611994588221e+000	 1.534954647109299e+000	-6.545127191782890e+000
1	 1.775569660362075e+000	 1.554636974237704e+000	-6.490263586484897e+000
1	 1.758304878271573e+000	 1.574137186099347e+000	-6.423386331104295e+000
1	 1.942322608619367e+000	 1.386906126535401e+000	-7.055384291624539e+000
1	 1.926983475911071e+000	 1.408140772063864e+000	-7.101029804583098e+000
1	 1.911398889473760e+000	 1.429223609174760e+000	-7.127086791739732e+000
1	 1.895571083709891e+000	 1.450150421254014e+000	-7.134470612148375e+000
1	 1.879502388814862e+000	 1.470917035224207e+000	-7.124138862057558e+000
1	 1.863195229724980e+000	 1.491519324248966e+000	-7.097089936817215e+000
1	 1.846652124974304e+000	 1.511953210407013e+000	-7.054361517424700e+000
1	 1.829875685461390e+000	 1.532214667332336e+000	-6.997028984460376e+000
1	 1.812868613127101e+000	 1.552299722816931e+000	-6.926203762359737e+000
1	 1.795633699544820e+000	 1.572204461372635e+000	-6.843031597158618e+000
1	 1.778173824424543e+000	 1.591925026748623e+000	-6.748690771029470e+000
1	 1.964025719302089e+000	 1.402403128443017e+000	-7.646715958570789e+000
1	 1.948515190300958e+000	 1.423875045504080e+000	-7.666077697434052e+000
1	 1.932756464921588e+000	 1.445193457871702e+000	-7.665162566429493e+000
1	 1.916751802533197e+000	 1.466354101816246e+000	-7.645027819411383e+000
1	 1.900503559368311e+000	 1.487352757631197e+000	-7.606776214369273e+000
1	 1.884014187458984e+000	 1.508185252367777e+000	-7.551554309163109e+000
1	 1.867286233480865e+000	 1.528847462538872e+000	-7.480550674874565e+000
1	 1.850322337506154e+000	 1.549335316788698e+000	-7.394994030070861e+000
1	 1.833125231666656e+000	 1.569644798524630e+000	-7.296151299495855e+000
1	 1.815697738728223e+000	 1.589771948507662e+000	-7.185325600910626e+000
1	 1.798042770578147e+000	 1.609712867398032e+000	-7.063854164004375e+000
1	 1.985728829985244e+000	 1.417900130350513e+000	-8.219664111095792e+000
1	 1.970046904691298e+000	 1.439609318944210e+000	-8.213417006223097e+000
1	 1.954114040369892e+000	 1.461163306568586e+000	-8.186415143279497e+000
1	 1.937932521356998e+000	 1.482557782378439e+000	-8.139793689249618e+000
1	 1.921504729922277e+000	 1.503788480038169e+000	-8.074735147150992e+000
1	 1.904833145193523e+000	 1.524851180486588e+000	-7.992467493307869e+000
1	 1.887920341987970e+000	 1.545741714670747e+000	-7.894262228235755e+000
1	 1.870768989551473e+000	 1.566455966245095e+000	-7.781432344764556e+000
1	 1.853381850206766e+000	 1.586989874232388e+000	-7.655330217257745e+000
1	 1.835761777912175e+000	 1.607339435642774e+000	-7.517345416003418e+000
1	 1.817911716732283e+000	 1.627500708047558e+000	-7.368902451060776e+000
1	 2.007431940668699e+000	 1.433397132257910e+000	-8.775081457306992e+000
1	 1.991578619081951e+000	 1.455343592384267e+000	-8.743927095073737e+000
1	 1.975471615818524e+000	 1.477133155265418e+000	-8.691720596439341e+000
1	 1.959113240181150e+000	 1.498761462940601e+000	-8.619613117872786e+000
1	 1.942505900476613e+000	 1.520224202445124e+000	-8.528803580473801e+000
1	 1.925652102928453e+000	 1.541517108605399e+000	-8.420536754518247e+000
1	 1.908554450495487e+000	 1.562635966802639e+000	-8.296101256576586e+000
1	 1.891215641597215e+000	 1.583576615701524e+000	-8.156827462952096e+000
1	 1.873638468747310e+000	 1.604334949940195e+000	-8.004085343418101e+000
1	 1.855825817096565e+000	 1.624906922777959e+000	-7.839282219454915e+000
1	 1.837780662886852e+000	 1.645288548697183e+000	-7.663860451397448e+000
1	 2.029135051352321e+000	 1.448894134165222e+000	-9.313784223920299e+000
1	 2.013110333472775e+000	 1.471077865824262e+000	-9.258449706293803e+000
1	 1.996829191267340e+000	 1.493103003962208e+000	-9.181917518997617e+000
1	 1.980293959005503e+000	 1.514965143502737e+000	-9.085294854314730e+000
1	 1.963507071031173e+000	 1.536659924852068e+000	-8.969735724841671e+000
1	 1.946471060663631e+000	 1.558183036724210e+000	-8.836439099146524e+000
1	 1.929188559003277e+000	 1.579530218934542e+000	-8.686646951880762e+000
1	 1.911662293643256e+000	 1.600697265157980e+000	-8.521642232001907e+000
1	 1.893895087288171e+000	 1.621680025648045e+000	-8.342746752990472e+000
1	 1.875889856281284e+000	 1.642474409913206e+000	-8.151319009161171e+000
1	 1.857649609041756e+000	 1.663076389346893e+000	-7.948751922374489e+000
1	 2.050838162035976e+000	 1.464391136072466e+000	-9.836554086591987e+000
1	 2.034642047863630e+000	 1.486812139264209e+000	-9.757790951050513e+000
1	 2.018186766716196e+000	 1.509072852658963e+000	-9.657809006209231e+000
1	 2.001474677829912e+000	 1.531168824064851e+000	-9.537613413080759e+000
1	 1.984508241585813e+000	 1.553095647259001e+000	-9.398253864858189e+000
1	 1.967290018398917e+000	 1.574848964843020e+000	-9.240822875713716e+000
1	 1.949822667511205e+000	 1.596424471066456e+000	-9.066453988804982e+000
1	 1.932108945689464e+000	 1.617817914614457e+000	-8.876319906849354e+000
1	 1.914151705829226e+000	 1.639025101355928e+000	-8.671630548839199e+000
1	 1.895953895466220e+000	 1.660041897048499e+000	-8.453631036676390e+000
1	 1.877518555196891e+000	 1.680864229996668e+000	-8.223599615697935e+000
1	 2.072541272719534e+000	 1.479888137979660e+000	-1.034413997896717e+001
1	 2.056173762254373e+000	 1.502546412704118e+000	-1.024272317497034e+001
1	 2.039544342164942e+000	 1.525042701355693e+000	-1.012016451411541e+001
1	 2.022655396654229e+000	 1.547372504626949e+000	-9.977310866623055e+000
1	 2.005509412140386e+000	 1.569531369665925e+000	-9.815050030825182e+000
1	 1.988108976134170e+000	 1.591514892961831e+000	-9.634309275396262e+000
1	 1.970456776019136e+000	 1.613318723198377e+000	-9.436053808374258e+000
1	 1.952555597735713e+000	 1.634938564070948e+000	-9.221285175830708e+000
1	 1.934408324370359e+000	 1.656370177063837e+000	-8.991039593242368e+000
1	 1.916017934651266e+000	 1.677609384183830e+000	-8.746386212801195e+000
1	 1.897387501352160e+000	 1.698652070646494e+000	-8.488425330074609e+000
1	 2.094244383402860e+000	 1.495385139886820e+000	-1.083725978924261e+001
1	 2.077705476644865e+000	 1.518280686144002e+000	-1.071398670773738e+001
1	 2.060901917613437e+000	 1.541012550052406e+000	-1.056972160259634e+001
1	 2.043836115478306e+000	 1.563576185189036e+000	-1.040509852636082e+001
1	 2.026510582694747e+000	 1.585967092072845e+000	-1.022078756640206e+001
1	 2.008927933869246e+000	 1.608180821080641e+000	-1.001749373921325e+001
1	 1.991090884526934e+000	 1.630212975330304e+000	-9.795955821857550e+000
1	 1.973002249781874e+000	 1.652059213527451e+000	-9.556945122731703e+000
1	 1.954664942911448e+000	 1.673715252771762e+000	-9.301264193967596e+000
1	 1.936081973836309e+000	 1.695176871319186e+000	-9.029745487951761e+000
1	 1.917256447507461e+000	 1.716439911296353e+000	-8.743249960592594e+000
1	 2.115947494085821e+000	 1.510882141793964e+000	-1.131660195232079e+001
1	 2.099237191034965e+000	 1.534014959583876e+000	-1.117229150501850e+001
1	 2.082259493061532e+000	 1.556982398749111e+000	-1.100718757115342e+001
1	 2.065016834301999e+000	 1.579779865751119e+000	-1.082165852024803e+001
1	 2.047511753248752e+000	 1.602402814479762e+000	-1.061610259978940e+001
1	 2.029746891604005e+000	 1.624846749199451e+000	-1.039094727861336e+001
1	 2.011724993034462e+000	 1.647107227462233e+000	-1.014664854055545e+001
1	 1.993448901827818e+000	 1.669179862983960e+000	-9.883690129630073e+000
1	 1.974921561452375e+000	 1.691060328479696e+000	-9.602582748124895e+000
1	 1.956146013021240e+000	 1.712744358454553e+000	-9.303863209120404e+000
1	 1.937125393662695e+000	 1.734227751946229e+000	-8.988093545063155e+000
1	 1.738435932119337e+000	 1.556349345450221e+000	-6.087913717255959e+000
1	 1.721151818107034e+000	 1.575442586637167e+000	-6.039578804144711e+000
1	 1.703653718137051e+000	 1.594348471918019e+000	-5.985564116886071e+000
1	 1.685944696578731e+000	 1.613063422360952e+000	-5.926589944769867e+000
1	 1.668027897230322e+000	 1.631583926286766e+000	-5.863383919280003e+000
1	 1.649906541462032e+000	 1.649906541462032e+000	-5.796680081498378e+000
1	 1.631583926286766e+000	 1.668027897230322e+000	-5.727217939369323e+000
1	 1.613063422360952e+000	 1.685944696578732e+000	-5.655741516660713e+000
1	 1.594348471918019e+000	 1.703653718137051e+000	-5.582998395478468e+000
1	 1.575442586637168e+000	 1.721151818107034e+000	-5.509738754206159e+000
1	 1.556349345450221e+000	 1.738435932119336e+000	-5.436714402750681e+000
1	 1.758304878271573e+000	 1.574137186099347e+000	-6.423386331104295e+000
1	 1.740823220522151e+000	 1.593448647914248e+000	-6.348247313394044e+000
1	 1.723125131125022e+000	 1.612570612493426e+000	-6.268262863564672e+000
1	 1.705213709472846e+000	 1.631499460000704e+000	-6.183930453839962e+000
1	 1.687092135294994e+000	 1.650231638621166e+000	-6.095748520628502e+000
1	 1.668763666779384e+000	 1.668763666779383e+000	-6.004215951544246e+000
1	 1.650231638621165e+000	 1.687092135294993e+000	-5.909831573468767e+000
1	 1.631499460000704e+000	 1.705213709472847e+000	-5.813093642578389e+000
1	 1.612570612493427e+000	 1.723125131125022e+000	-5.714499337254261e+000
1	 1.593448647914248e+000	 1.740823220522151e+000	-5.614544254783003e+000
1	 1.574137186099347e+000	 1.758304878271573e+000	-5.513721912745320e+000
1	 1.778173824424543e+000	 1.591925026748623e+000	-6.748690771029470e+000
1	 1.760494622937957e+000	 1.611454709191528e+000	-6.646820420827609e+000
1	 1.742596544113631e+000	 1.630792753069090e+000	-6.540469436918234e+000
1	 1.724482722367539e+000	 1.649935497640772e+000	-6.429996514500337e+000
1	 1.706156373360178e+000	 1.668879350955947e+000	-6.315757079068098e+000
1	 1.687620792097182e+000	 1.687620792097182e+000	-6.198103042457856e+000
1	 1.668879350955947e+000	 1.706156373360178e+000	-6.077382567436605e+000
1	 1.649935497640772e+000	 1.724482722367539e+000	-5.953939841167741e+000
1	 1.630792753069090e+000	 1.742596544113631e+000	-5.828114857863922e+000
1	 1.611454709191528e+000	 1.760494622937957e+000	-5.700243210912917e+000
1	 1.591925026748623e+000	 1.778173824424543e+000	-5.570655894735812e+000
1	 1.798042770578147e+000	 1.609712867398032e+000	-7.063854164004375e+000
1	 1.780166025354362e+000	 1.629460770468984e+000	-6.935163572586967e+000
1	 1.762067957102794e+000	 1.649014893644979e+000	-6.801938229205992e+000
1	 1.743751735262737e+000	 1.668371535281121e+000	-6.664479270106630e+000
1	 1.725220611425817e+000	 1.687527063291067e+000	-6.523082425199486e+000
1	 1.706477917415377e+000	 1.706477917415377e+000	-6.378037895418307e+000
1	 1.687527063291067e+000	 1.725220611425817e+000	-6.229630242501595e+000
1	 1.668371535281121e+000	 1.743751735262737e+000	-6.078138291263114e+000
1	 1.649014893644979e+000	 1.762067957102794e+000	-5.923835044382779e+000
1	 1.629460770468984e+000	 1.780166025354362e+000	-5.766987609715339e+000
1	 1.609712867398033e+000	 1.798042770578147e+000	-5.607857140080439e+000
1	 1.817911716732283e+000	 1.627500708047558e+000	-7.368902451060777e+000
1	 1.799837427771275e+000	 1.647466831746595e+000	-7.213148097263454e+000
1	 1.781539370092433e+000	 1.667237034221067e+000	-7.052434370210317e+000
1	 1.763020748158372e+000	 1.686807572921716e+000	-6.887083366664236e+000
1	 1.744284849491846e+000	 1.706174775626481e+000	-6.717411692873129e+000
1	 1.725335042733917e+000	 1.725335042733916e+000	-6.543730318271479e+000
1	 1.706174775626482e+000	 1.744284849491846e+000	-6.366344441929898e+000
1	 1.686807572921716e+000	 1.763020748158372e+000	-6.185553371861874e+000
1	 1.667237034221068e+000	 1.781539370092433e+000	-6.001650417261303e+000
1	 1.647466831746596e+000	 1.799837427771275e+000	-5.814922793710243e+000
1	 1.627500708047558e+000	 1.817911716732282e+000	-5.625651541360880e+000
1	 1.837780662886852e+000	 1.645288548697183e+000	-7.663860451397445e+000
1	 1.819508830188606e+000	 1.665472893024340e+000	-7.480650887911334e+000
1	 1.801010783082467e+000	 1.685459174797326e+000	-7.291733146799262e+000
1	 1.782289761054373e+000	 1.705243610562522e+000	-7.097526222916867e+000
1	 1.763349087558206e+000	 1.724822487962146e+000	-6.898445546000250e+000
1	 1.744192168052747e+000	 1.744192168052746e+000	-6.694902668374921e+000
1	 1.724822487962147e+000	 1.763349087558206e+000	-6.487304962236184e+000
1	 1.705243610562521e+000	 1.782289761054373e+000	-6.276055326962825e+000
1	 1.685459174797326e+000	 1.801010783082468e+000	-6.061551906898328e+000
1	 1.665472893024339e+000	 1.819508830188606e+000	-5.844187820004500e+000
1	 1.645288548697184e+000	 1.837780662886852e+000	-5.624350897763971e+000
1	 1.857649609041756e+000	 1.663076389346893e+000	-7.948751922374489e+000
1	 1.839180232606266e+000	 1.683478954302194e+000	-7.737554104467231e+000
1	 1.820482196072817e+000	 1.703681315373725e+000	-7.519619459738675e+000
1	 1.801558773950668e+000	 1.723679648203500e+000	-7.295537347276618e+000
1	 1.782413325624835e+000	 1.743470200298019e+000	-7.065897454981958e+000
1	 1.763049293371817e+000	 1.763049293371817e+000	-6.831289181465944e+000
1	 1.743470200298020e+000	 1.782413325624836e+000	-6.592301020896590e+000
1	 1.723679648203500e+000	 1.801558773950668e+000	-6.349519951913357e+000
1	 1.703681315373725e+000	 1.820482196072818e+000	-6.103530831717362e+000
1	 1.683478954302193e+000	 1.839180232606266e+000	-5.854915796427759e+000
1	 1.663076389346893e+000	 1.857649609041755e+000	-5.604253668778271e+000
1	 1.877518555196891e+000	 1.680864229996668e+000	-8.223599615697935e+000
1	 1.858851635024165e+000	 1.701485015580136e+000	-7.983744895064700e+000
1	 1.839953609063402e+000	 1.721903455950237e+000	-7.735887314994053e+000
1	 1.820827786847187e+000	 1.742115685844617e+000	-7.480857698126124e+000
1	 1.801477563691672e+000	 1.762117912634056e+000	-7.219493019082564e+000
1	 1.781906418691073e+000	 1.781906418691073e+000	-6.952635343143545e+000
1	 1.762117912634056e+000	 1.801477563691672e+000	-6.681130757859327e+000
1	 1.742115685844617e+000	 1.820827786847188e+000	-6.405828299671931e+000
1	 1.721903455950237e+000	 1.839953609063402e+000	-6.127578877635085e+000
1	 1.701485015580136e+000	 1.858851635024165e+000	-5.847234196325085e+000
1	 1.680864229996669e+000	 1.877518555196891e+000	-5.565645680034703e+000
1	 1.897387501352160e+000	 1.698652070646494e+000	-8.488425330074607e+000
1	 1.878523037442211e+000	 1.719491076858146e+000	-8.219115134858825e+000
1	 1.859425022054142e+000	 1.740125596526834e+000	-7.940339346994082e+000
1	 1.840096799743861e+000	 1.760551723485837e+000	-7.653239084312913e+000
1	 1.820541801758657e+000	 1.780765624970212e+000	-7.358969331377812e+000
1	 1.800763544010466e+000	 1.800763544010466e+000	-7.058697299840114e+000
1	 1.780765624970212e+000	 1.820541801758657e+000	-6.753600768375740e+000
1	 1.760551723485837e+000	 1.840096799743862e+000	-6.444866405526518e+000
1	 1.740125596526833e+000	 1.859425022054142e+000	-6.133688078819816e+000
1	 1.719491076858146e+000	 1.878523037442211e+000	-5.821265153571195e+000
1	 1.698652070646494e+000	 1.897387501352160e+000	-5.508800784798580e+000
1	 1.917256447507461e+000	 1.716439911296353e+000	-8.743249960592594e+000
1	 1.898194439860316e+000	 1.737497138136198e+000	-8.443561181090242e+000
1	 1.878896435044956e+000	 1.758347737103486e+000	-8.132786371537428e+000
1	 1.859365812640619e+000	 1.778987761127123e+000	-7.812443602920699e+000
1	 1.839606039825727e+000	 1.799413337306444e+000	-7.484074383190680e+000
1	 1.819620669329943e+000	 1.819620669329943e+000	-7.149241306418851e+000
1	 1.799413337306444e+000	 1.839606039825727e+000	-6.809525664879366e+000
1	 1.778987761127123e+000	 1.859365812640619e+000	-6.466525028929647e+000
1	 1.758347737103485e+000	 1.878896435044956e+000	-6.121850799646374e+000
1	 1.737497138136199e+000	 1.898194439860315e+000	-5.777125739240898e+000
1	 1.716439911296353e+000	 1.917256447507461e+000	-5.433981484330929e+000
1	 1.937125393662695e+000	 1.734227751946229e+000	-8.988093545063155e+000
1	 1.917865842278389e+000	 1.755503199414275e+000	-8.656983643223207e+000
1	 1.898367848035766e+000	 1.776569877680164e+000	-8.313046966214275e+000
1	 1.878634825537390e+000	 1.797423798768443e+000	-7.958243111641143e+000
1	 1.858670277892823e+000	 1.818061049642710e+000	-7.594566505178803e+000
1	 1.838477794649450e+000	 1.838477794649450e+000	-7.224043207766636e+000
1	 1.818061049642710e+000	 1.858670277892823e+000	-6.848727665827896e+000
1	 1.797423798768442e+000	 1.878634825537390e+000	-6.470699411221419e+000
1	 1.776569877680166e+000	 1.898367848035766e+000	-6.092059717761573e+000
1	 1.755503199414274e+000	 1.917865842278389e+000	-5.714928221252728e+000
1	 1.734227751946229e+000	 1.937125393662695e+000	-5.341439510071410e+000
1	 1.556349345450221e+000	 1.738435932119336e+000	-5.436714402750680e+000
1	 1.537069487102882e+000	 1.755505621180099e+000	-5.369241810068064e+000
1	 1.517609571401743e+000	 1.772355376050134e+000	-5.312659080114912e+000
1	 1.497973368419745e+000	 1.788982381374034e+000	-5.267712462835591e+000
1	 1.478164706143358e+000	 1.805383907963363e+000	-5.235139422956250e+000
1	 1.458187468011342e+000	 1.821557314259135e+000	-5.215667601806099e+000
1	 1.438045590410163e+000	 1.837500047710095e+000	-5.210013796307058e+000
1	 1.417743060129417e+000	 1.853209646065358e+000	-5.218882957122519e+000
1	 1.397283911780661e+000	 1.868683738580113e+000	-5.242967207902857e+000
1	 1.376672225183124e+000	 1.883920047133223e+000	-5.282944887503523e+000
1	 1.355912122719749e+000	 1.898916387255753e+000	-5.339479616987529e+000
1	 1.574137186099347e+000	 1.758304878271573e+000	-5.513721912745320e+000
1	 1.554636974237704e+000	 1.775569660362075e+000	-5.417228247623886e+000
1	 1.534954647109299e+000	 1.792611994588220e+000	-5.330644411670134e+000
1	 1.515094017876017e+000	 1.809429033417307e+000	-5.254995124906426e+000
1	 1.495058958275174e+000	 1.826018016468425e+000	-5.191304802671843e+000
1	 1.474853396130154e+000	 1.842376271991649e+000	-5.140595958293456e+000
1	 1.454481312817197e+000	 1.858501218262075e+000	-5.103887610803190e+000
1	 1.433946740691739e+000	 1.874390364887230e+000	-5.082193700960786e+000
1	 1.413253760477749e+000	 1.890041314026554e+000	-5.076521518811377e+000
1	 1.392406498623549e+000	 1.905451761521779e+000	-5.087870145961809e+000
1	 1.371409124627651e+000	 1.920619497937210e+000	-5.117228915707930e+000
1	 1.591925026748623e+000	 1.778173824424543e+000	-5.570655894735812e+000
1	 1.572204461372635e+000	 1.795633699544820e+000	-5.444628075033733e+000
1	 1.552299722816932e+000	 1.812868613127101e+000	-5.328071260942119e+000
1	 1.532214667332336e+000	 1.829875685461390e+000	-5.222214594336141e+000
1	 1.511953210407012e+000	 1.846652124974303e+000	-5.128293412485522e+000
1	 1.491519324248966e+000	 1.863195229724980e+000	-5.047547231415513e+000
1	 1.470917035224207e+000	 1.879502388814862e+000	-4.981217724858039e+000
1	 1.450150421254014e+000	 1.895571083709891e+000	-4.930546703013134e+000
1	 1.429223609174760e+000	 1.911398889473761e+000	-4.896774095322946e+000
1	 1.408140772063863e+000	 1.926983475911071e+000	-4.881135941432272e+000
1	 1.386906126535401e+000	 1.942322608619366e+000	-4.884862394464951e+000
1	 1.609712867398033e+000	 1.798042770578147e+000	-5.607857140080438e+000
1	 1.589771948507662e+000	 1.815697738728223e+000	-5.451956683466833e+000
1	 1.569644798524630e+000	 1.833125231666656e+000	-5.305577986112246e+000
1	 1.549335316788698e+000	 1.850322337506154e+000	-5.170083100686783e+000
1	 1.528847462538872e+000	 1.867286233480864e+000	-5.046844837425317e+000
1	 1.508185252367777e+000	 1.884014187458984e+000	-4.937244465288720e+000
1	 1.487352757631197e+000	 1.900503559368311e+000	-4.842669401883851e+000
1	 1.466354101816245e+000	 1.916751802533197e+000	-4.764510897013600e+000
1	 1.445193457871702e+000	 1.932756464921588e+000	-4.704161714723884e+000
1	 1.423875045504080e+000	 1.948515190300959e+000	-4.663013818695053e+000
1	 1.402403128443016e+000	 1.964025719302089e+000	-4.642456065791316e+000
1	 1.627500708047558e+000	 1.817911716732282e+000	-5.625651541360881e+000
1	 1.607339435642774e+000	 1.835761777912175e+000	-5.439706932130551e+000
1	 1.586989874232388e+000	 1.853381850206765e+000	-5.263775037506284e+000
1	 1.566455966245095e+000	 1.870768989551473e+000	-5.099281736142694e+000
1	 1.545741714670747e+000	 1.887920341987970e+000	-4.947666329210176e+000
1	 1.524851180486588e+000	 1.904833145193523e+000	-4.810379093858798e+000
1	 1.503788480038169e+000	 1.921504729922276e+000	-4.688878821189004e+000
1	 1.482557782378439e+000	 1.937932521356998e+000	-4.584630343950146e+000
1	 1.461163306568586e+000	 1.954114040369892e+000	-4.499102059192740e+000
1	 1.439609318944210e+000	 1.970046904691297e+000	-4.433763451086541e+000
1	 1.417900130350514e+000	 1.985728829985244e+000	-4.390082619089188e+000
1	 1.645288548697184e+000	 1.837780662886852e+000	-5.624350897763971e+000
1	 1.624906922777959e+000	 1.855825817096565e+000	-5.408350366278138e+000
1	 1.604334949940195e+000	 1.873638468747310e+000	-5.203246466206607e+000
1	 1.583576615701524e+000	 1.891215641597216e+000	-5.010462138700510e+000
1	 1.562635966802639e+000	 1.908554450495487e+000	-4.831434554088451e+000
1	 1.541517108605399e+000	 1.925652102928452e+000	-4.667612649648727e+000
1	 1.520224202445124e+000	 1.942505900476613e+000	-4.520454650174587e+000
1	 1.498761462940601e+000	 1.959113240181150e+000	-4.391425576608162e+000
1	 1.477133155265418e+000	 1.975471615818524e+000	-4.281994748023338e+000
1	 1.455343592384267e+000	 1.991578619081951e+000	-4.193633282232806e+000
1	 1.433397132257910e+000	 2.007431940668699e+000	-4.127811600268063e+000
1	 1.663076389346893e+000	 1.857649609041755e+000	-5.604253668778270e+000
1	 1.642474409913205e+000	 1.875889856281284e+000	-5.358338357051966e+000
1	 1.621680025648045e+000	 1.893895087288170e+000	-5.124551335849830e+000
1	 1.600697265157980e+000	 1.911662293643256e+000	-4.904248067341595e+000
1	 1.579530218934542e+000	 1.929188559003277e+000	-4.698797228510051e+000
1	 1.558183036724210e+000	 1.946471060663631e+000	-4.509578362848445e+000
1	 1.536659924852067e+000	 1.963507071031173e+000	-4.337979515636105e+000
1	 1.514965143502737e+000	 1.980293959005503e+000	-4.185394857828741e+000
1	 1.493103003962208e+000	 1.996829191267341e+000	-4.053222303604244e+000
1	 1.471077865824262e+000	 2.013110333472775e+000	-3.942861126600254e+000
1	 1.448894134165222e+000	 2.029135051352321e+000	-3.855709579854965e+000
1	 1.680864229996669e+000	 1.877518555196891e+000	-5.565645680034702e+000
1	 1.660041897048500e+000	 1.895953895466221e+000	-5.290103168951733e+000
1	 1.639025101355929e+000	 1.914151705829226e+000	-5.028225044782277e+000
1	 1.617817914614456e+000	 1.932108945689464e+000	-4.781236877188112e+000
1	 1.596424471066456e+000	 1.949822667511206e+000	-4.550374650940491e+000
1	 1.574848964843020e+000	 1.967290018398917e+000	-4.336882658870358e+000
1	 1.553095647259001e+000	 1.984508241585813e+000	-4.142011381644339e+000
1	 1.531168824064851e+000	 2.001474677829911e+000	-3.967015358873383e+000
1	 1.509072852658963e+000	 2.018186766716196e+000	-3.813151056063947e+000
1	 1.486812139264208e+000	 2.034642047863629e+000	-3.681674731913836e+000
1	 1.464391136072466e+000	 2.050838162035976e+000	-3.573840310429962e+000
1	 1.698652070646494e+000	 1.897387501352160e+000	-5.508800784798580e+000
1	 1.677609384183830e+000	 1.916017934651266e+000	-5.204058960233219e+000
1	 1.656370177063837e+000	 1.934408324370359e+000	-4.914780565143462e+000
1	 1.634938564070948e+000	 1.952555597735713e+000	-4.642000901974883e+000
1	 1.613318723198377e+000	 1.970456776019136e+000	-4.386761137430916e+000
1	 1.591514892961830e+000	 1.988108976134169e+000	-4.150106561812248e+000
1	 1.569531369665925e+000	 2.005509412140386e+000	-3.933084840853500e+000
1	 1.547372504626950e+000	 2.022655396654229e+000	-3.736744263751631e+000
1	 1.525042701355693e+000	 2.039544342164943e+000	-3.562131991076222e+000
1	 1.502546412704118e+000	 2.056173762254373e+000	-3.410292306238777e+000
1	 1.479888137979660e+000	 2.072541272719535e+000	-3.282264874170348e+000
1	 1.716439911296353e+000	 1.917256447507461e+000	-5.433981484330930e+000
1	 1.695176871319185e+000	 1.936081973836309e+000	-5.100602721103047e+000
1	 1.673715252771762e+000	 1.954664942911448e+000	-4.784709604904456e+000
1	 1.652059213527451e+000	 1.973002249781873e+000	-4.487088750559540e+000
1	 1.630212975330304e+000	 1.991090884526934e+000	-4.208526367925189e+000
1	 1.608180821080641e+000	 2.008927933869245e+000	-3.949807010654026e+000
1	 1.585967092072845e+000	 2.026510582694747e+000	-3.711712325516417e+000
1	 1.563576185189036e+000	 2.043836115478306e+000	-3.495019804882116e+000
1	 1.541012550052406e+000	 2.060901917613437e+000	-3.300501544949889e+000
1	 1.518280686144002e+000	 2.077705476644866e+000	-3.128923012288140e+000
1	 1.495385139886820e+000	 2.094244383402859e+000	-2.981041821220341e+000
1	 1.734227751946229e+000	 1.937125393662695e+000	-5.341439510071408e+000
1	 1.712744358454553e+000	 1.956146013021241e+000	-4.980115154175414e+000
1	 1.691060328479696e+000	 1.974921561452375e+000	-4.638483698392568e+000
1	 1.669179862983960e+000	 1.993448901827818e+000	-4.317026523643766e+000
1	 1.647107227462233e+000	 2.011724993034462e+000	-4.016216649713050e+000
1	 1.624846749199452e+000	 2.029746891604005e+000	-3.736518094453996e+000
1	 1.602402814479762e+000	 2.047511753248752e+000	-3.478385243972430e+000
1	 1.579779865751119e+000	 2.065016834301999e+000	-3.242262235017825e+000
1	 1.556982398749111e+000	 2.082259493061532e+000	-3.028582350787345e+000
1	 1.534014959583875e+000	 2.099237191034965e+000	-2.837767431310311e+000
1	 1.510882141793964e+000	 2.115947494085821e+000	-2.670227299545439e+000
1	 1.355912122719749e+000	 1.898916387255753e+000	-5.339479616987529e+000
1	 1.335007766215312e+000	 1.913670668530300e+000	-5.420683497283212e+000
1	 1.313963352917359e+000	 1.928180893807915e+000	-5.534792604637607e+000
1	 1.292783114191905e+000	 1.942445161561669e+000	-5.682628232278383e+000
1	 1.271471313257540e+000	 1.956461667092249e+000	-5.864988431079491e+000
1	 1.250032242448504e+000	 1.970228703106179e+000	-6.082646832169518e+000
1	 1.228470220469227e+000	 1.983744660202318e+000	-6.336351510415576e+000
1	 1.206789589643861e+000	 1.997008027266777e+000	-6.626823890830752e+000
1	 1.184994713164319e+000	 2.010017391776478e+000	-6.954757699832744e+000
1	 1.163089972340300e+000	 2.022771440011767e+000	-7.320817963157909e+000
1	 1.141079763854727e+000	 2.035268957178629e+000	-7.725640052106664e+000
1	 1.371409124627651e+000	 1.920619497937210e+000	-5.117228915707930e+000
1	 1.350265847881186e+000	 1.935542408963624e+000	-5.172981388954428e+000
1	 1.328980913602921e+000	 1.950218474626249e+000	-5.263479580179527e+000
1	 1.307558601520036e+000	 1.964645771665227e+000	-5.389636150747942e+000
1	 1.286003223576339e+000	 1.978822474754980e+000	-5.552334530431391e+000
1	 1.264319121164056e+000	 1.992746857089031e+000	-5.752427632043288e+000
1	 1.242510662346993e+000	 2.006417290872079e+000	-5.990736618213339e+000
1	 1.220582239078634e+000	 2.019832247719414e+000	-6.268049722449780e+000
1	 1.198538264418724e+000	 2.032990298963953e+000	-6.585121126487996e+000
1	 1.176383169751866e+000	 2.045890115871281e+000	-6.942669895771360e+000
1	 1.154121402011593e+000	 2.058530469763273e+000	-7.341378974752078e+000
1	 1.386906126535401e+000	 1.942322608619366e+000	-4.884862394464951e+000
1	 1.365523929546859e+000	 1.957414149397602e+000	-4.916429950481336e+000
1	 1.343998474288224e+000	 1.972256055445191e+000	-4.984183962304077e+000
1	 1.322334088847847e+000	 1.986846381769343e+000	-5.089127728692215e+000
1	 1.300535133894753e+000	 2.001183282418213e+000	-5.232230670183220e+000
1	 1.278605999879158e+000	 2.015265011072332e+000	-5.414426921453803e+000
1	 1.256551104224244e+000	 2.029089921542232e+000	-5.636613984958884e+000
1	 1.234374888512827e+000	 2.042656468172388e+000	-5.899651448151788e+000
1	 1.212081815672489e+000	 2.055963206151714e+000	-6.204359766414203e+000
1	 1.189676367162741e+000	 2.069008791731038e+000	-6.551519113647141e+000
1	 1.167163040167724e+000	 2.081791982348114e+000	-6.941868302292550e+000
1	 1.402403128443016e+000	 1.964025719302089e+000	-4.642456065791316e+000
1	 1.380782011212353e+000	 1.979285889832116e+000	-4.650911209524549e+000
1	 1.359016034973300e+000	 1.994293636264635e+000	-4.696625307172826e+000
1	 1.337109576175375e+000	 2.009046991873925e+000	-4.780691514934202e+000
1	 1.315067044212827e+000	 2.023544090081880e+000	-4.904165778538601e+000
1	 1.292892878593861e+000	 2.037783165056030e+000	-5.068065289285175e+000
1	 1.270591546101038e+000	 2.051762552212749e+000	-5.273367008406225e+000
1	 1.248167537946512e+000	 2.065480688625692e+000	-5.521006262269879e+000
1	 1.225625366925698e+000	 2.078936113339772e+000	-5.811875410738910e+000
1	 1.202969564573016e+000	 2.092127467591057e+000	-6.146822590806015e+000
1	 1.180204678323221e+000	 2.105053494933187e+000	-6.526650537421066e+000
1	 1.417900130350514e+000	 1.985728829985244e+000	-4.390082619089188e+000
1	 1.396040092877691e+000	 2.001157630267043e+000	-4.376312351278793e+000
1	 1.374033595658175e+000	 2.016331217084475e+000	-4.400535431438776e+000
1	 1.351885063502655e+000	 2.031247601978889e+000	-4.463934046190236e+000
1	 1.329598954530604e+000	 2.045904897745910e+000	-4.567651126826386e+000
1	 1.307179757308217e+000	 2.060301319040078e+000	-4.712788655217382e+000
1	 1.284631987977439e+000	 2.074435182883600e+000	-4.900406043033654e+000
1	 1.261960187379758e+000	 2.088304909079315e+000	-5.131518587063630e+000
1	 1.239168918178429e+000	 2.101909020528132e+000	-5.407096003189742e+000
1	 1.216262761982781e+000	 2.115246143451361e+000	-5.728061041373470e+000
1	 1.193246316478183e+000	 2.128315007518526e+000	-6.095288183778256e+000
1	 1.433397132257910e+000	 2.007431940668699e+000	-4.127811600268063e+000
1	 1.411298174542895e+000	 2.023029370702263e+000	-4.092525439672248e+000
1	 1.389051156342877e+000	 2.038368797904605e+000	-4.095657749482382e+000
1	 1.366660550829724e+000	 2.053448212084144e+000	-4.138478874700203e+000
1	 1.344130864848129e+000	 2.068265705410237e+000	-4.222219121700497e+000
1	 1.321466636022281e+000	 2.082819473024427e+000	-4.348066900421785e+000
1	 1.298672429853509e+000	 2.097107813554756e+000	-4.517166942846764e+000
1	 1.275752836812638e+000	 2.111129129533246e+000	-4.730618600862071e+000
1	 1.252712469430764e+000	 2.124881927716801e+000	-4.989474226365667e+000
1	 1.229555959392127e+000	 2.138364819311972e+000	-5.294737636263447e+000
1	 1.206287954632712e+000	 2.151576520104164e+000	-5.647362664763300e+000
1	 1.448894134165222e+000	 2.029135051352321e+000	-3.855709579854965e+000
1	 1.426556256207987e+000	 2.044901111137655e+000	-3.799447156458489e+000
1	 1.404068717027438e+000	 2.060406378724921e+000	-3.781746653179571e+000
1	 1.381436038156617e+000	 2.075648822189604e+000	-3.803965658259291e+000
1	 1.358662775165444e+000	 2.090626513074790e+000	-3.867422174849665e+000
1	 1.335753514736103e+000	 2.105337627009026e+000	-3.973392586130851e+000
1	 1.312712871729308e+000	 2.119780444226189e+000	-4.123109697695946e+000
1	 1.289545486245221e+000	 2.133953349987476e+000	-4.317760860661767e+000
1	 1.266256020682782e+000	 2.147854834905787e+000	-4.558486178733775e+000
1	 1.242849156801144e+000	 2.161483495172912e+000	-4.846376802217615e+000
1	 1.219329592786908e+000	 2.174838032690134e+000	-5.182473311728884e+000
1	 1.464391136072466e+000	 2.050838162035976e+000	-3.573840310429962e+000
1	 1.441814337872990e+000	 2.066772851573099e+000	-3.496978556874102e+000
1	 1.419086277711884e+000	 2.082443959545315e+000	-3.458566931052143e+000
1	 1.396211525483370e+000	 2.097849432295178e+000	-3.460049308027665e+000
1	 1.373194685482595e+000	 2.112987320739501e+000	-3.502831644475291e+000
1	 1.350040393449737e+000	 2.127855780993828e+000	-3.588279753573319e+000
1	 1.326753313604898e+000	 2.142453074897868e+000	-3.717717156181903e+000
1	 1.303338135677579e+000	 2.156777570441995e+000	-3.892423012183589e+000
1	 1.279799571934565e+000	 2.170827742095097e+000	-4.113630135630409e+000
1	 1.256142354209923e+000	 2.184602171034203e+000	-4.382523097100606e+000
1	 1.232371230940871e+000	 2.198099545276473e+000	-4.700236416422093e+000
1	 1.479888137979660e+000	 2.072541272719535e+000	-3.282264874170348e+000
1	 1.457072419537926e+000	 2.088644592008472e+000	-3.185024840649111e+000
1	 1.434103838396246e+000	 2.104481540365685e+000	-3.125893223912783e+000
1	 1.410987012810020e+000	 2.120050042400781e+000	-3.106399189884611e+000
1	 1.387726595799625e+000	 2.135348128404301e+000	-3.128036843276798e+000
1	 1.364327272163235e+000	 2.150373934978783e+000	-3.192262799309422e+000
1	 1.340793755480339e+000	 2.165125705569764e+000	-3.300493828801210e+000
1	 1.317130785109784e+000	 2.179601790896790e+000	-3.454104580977228e+000
1	 1.293343123186193e+000	 2.193800649284738e+000	-3.654425388109211e+000
1	 1.269435551618554e+000	 2.207720846895866e+000	-3.902740155860383e+000
1	 1.245412869094703e+000	 2.221361057863212e+000	-4.200284342959798e+000
1	 1.495385139886820e+000	 2.094244383402859e+000	-2.981041821220341e+000
1	 1.472330501202817e+000	 2.110516332443655e+000	-2.863495137255202e+000
1	 1.449121399080551e+000	 2.126519121185920e+000	-2.783509514357820e+000
1	 1.425762500136603e+000	 2.142250652506322e+000	-2.742698375441265e+000
1	 1.402258506116577e+000	 2.157708936069120e+000	-2.742644108119602e+000
1	 1.378614150876650e+000	 2.172892088963843e+000	-2.784895420497140e+000
1	 1.354834197355695e+000	 2.187798336241849e+000	-2.870964765511379e+000
1	 1.330923434541905e+000	 2.202426011351853e+000	-3.002325838693997e+000
1	 1.306886674437748e+000	 2.216773556474716e+000	-3.180411153988960e+000
1	 1.282728749027127e+000	 2.230839522757924e+000	-3.406609702028628e+000
1	 1.258454507248502e+000	 2.244622570450384e+000	-3.682264695021464e+000
1	 1.510882141793964e+000	 2.115947494085821e+000	-2.670227299545439e+000
1	 1.487588582867686e+000	 2.132388072878528e+000	-2.532302304370652e+000
1	 1.464138959764830e+000	 2.148556702005919e+000	-2.431208647677481e+000
1	 1.440537987463155e+000	 2.164451262611717e+000	-2.368642939147509e+000
1	 1.416790416433498e+000	 2.180069743733891e+000	-2.346275926957454e+000
1	 1.392901029590033e+000	 2.195410242948957e+000	-2.365749625068435e+000
1	 1.368874639231026e+000	 2.210470966914093e+000	-2.428674502372749e+000
1	 1.344716083974012e+000	 2.225250231807173e+000	-2.536626739131005e+000
1	 1.320430225689309e+000	 2.239746463665041e+000	-2.691145555916751e+000
1	 1.296021946435735e+000	 2.253958198620401e+000	-2.893730620054430e+000
1	 1.271496145402372e+000	 2.267884083038025e+000	-3.145839534293956e+000
1	 1.141079763854727e+000	 2.035268957178629e+000	-7.725640052106664e+000
1	 1.118971821116124e+000	 2.047507011200339e+000	-8.168282036852848e+000
1	 1.096767268820617e+000	 2.059486480776334e+000	-8.647044124732526e+000
1	 1.074470532596845e+000	 2.071206449790665e+000	-9.161211894530014e+000
1	 1.052086042539205e+000	 2.082666100602788e+000	-9.710073775873481e+000
1	 1.029618230541540e+000	 2.093864713729079e+000	-1.029292329573485e+001
1	 1.007071527655773e+000	 2.104801667440268e+000	-1.090906126825957e+001
1	 9.844503614784818e-001	 2.115476437276296e+000	-1.155779792397694e+001
1	 9.617591535682968e-001	 2.125888595480185e+000	-1.223845497467416e+001
1	 9.390023168969391e-001	 2.136037810352666e+000	-1.295036761045539e+001
1	 9.161842533366131e-001	 2.145923845529372e+000	-1.369288642575349e+001
1	 1.154121402011593e+000	 2.058530469763273e+000	-7.341378974752078e+000
1	 1.131760782993169e+000	 2.070908395051891e+000	-7.780573842508901e+000
1	 1.109302450247109e+000	 2.083024780479415e+000	-8.258722021072208e+000
1	 1.086750879983489e+000	 2.094878699459406e+000	-8.775001843211701e+000
1	 1.064110552929180e+000	 2.106469325006327e+000	-9.328592019309449e+000
1	 1.041385951631065e+000	 2.117795929413422e+000	-9.918674138631971e+000
1	 1.018581557784487e+000	 2.128857883845541e+000	-1.054443511347649e+001
1	 9.957018495899491e-001	 2.139654657848452e+000	-1.120506956171932e+001
1	 9.727512991410008e-001	 2.150185818776249e+000	-1.189978212354006e+001
1	 9.497343698461394e-001	 2.160451031138595e+000	-1.262778970834608e+001
1	 9.266555138874860e-001	 2.170450055869658e+000	-1.338832366818327e+001
1	 1.167163040167724e+000	 2.081791982348114e+000	-6.941868302292549e+000
1	 1.144549744869445e+000	 2.094309778903606e+000	-7.375040857110060e+000
1	 1.121837631672807e+000	 2.106563080182627e+000	-7.849731463472725e+000
1	 1.099031227369319e+000	 2.118550949128249e+000	-8.365050307035823e+000
1	 1.076135063318328e+000	 2.130272549409948e+000	-8.920105413428388e+000
1	 1.053153672719756e+000	 2.141727145097828e+000	-9.514005342064193e+000
1	 1.030091587912363e+000	 2.152914100250859e+000	-1.014586182344322e+001
1	 1.006953337700580e+000	 2.163832878420640e+000	-1.081479233505786e+001
1	 9.837434447128693e-001	 2.174483042072332e+000	-1.151992261127145e+001
1	 9.604664227945058e-001	 2.184864251924533e+000	-1.226038908279447e+001
1	 9.371267744375259e-001	 2.194976266209944e+000	-1.303534124165578e+001
1	 1.180204678323221e+000	 2.105053494933187e+000	-6.526650537421070e+000
1	 1.157338706745061e+000	 2.117711162755524e+000	-6.951329675147782e+000
1	 1.134372813097828e+000	 2.130101379886014e+000	-7.419829316851909e+000
1	 1.111311574754465e+000	 2.142223198797243e+000	-7.931229393877842e+000
1	 1.088159573706788e+000	 2.154075773813694e+000	-8.484605078633924e+000
1	 1.064921393807760e+000	 2.165658360782337e+000	-9.079029609865581e+000
1	 1.041601618039557e+000	 2.176970316656258e+000	-9.713577063090298e+000
1	 1.018204825810532e+000	 2.188011098992888e+000	-1.038732506099935e+001
1	 9.947355902840654e-001	 2.198780265368455e+000	-1.109935741889013e+001
1	 9.711984757422031e-001	 2.209277472710488e+000	-1.184876672045236e+001
1	 9.475980349868981e-001	 2.219502476550226e+000	-1.263465681950772e+001
1	 1.193246316478183e+000	 2.128315007518526e+000	-6.095288183778255e+000
1	 1.170127668620127e+000	 2.141112546607686e+000	-6.509102341358060e+000
1	 1.146907994522294e+000	 2.153639679589622e+000	-6.968783075550385e+000
1	 1.123591922139055e+000	 2.165895448466434e+000	-7.473416802824588e+000
1	 1.100184084094699e+000	 2.177878998217611e+000	-8.022082523530607e+000
1	 1.076689114895224e+000	 2.189589576466989e+000	-8.613854718665760e+000
1	 1.053111648166220e+000	 2.201026533061774e+000	-9.247806194509435e+000
1	 1.029456313919965e+000	 2.212189319565223e+000	-9.923010869727776e+000
1	 1.005727735854752e+000	 2.223077488664634e+000	-1.063854649980718e+001
1	 9.819305286893987e-001	 2.233690693496472e+000	-1.139349733393353e+001
1	 9.580692955357707e-001	 2.244028686890507e+000	-1.218695669970896e+001
1	 1.206287954632712e+000	 2.151576520104164e+000	-5.647362664763300e+000
1	 1.182916630494756e+000	 2.164513930460135e+000	-6.048035515528961e+000
1	 1.159443175946325e+000	 2.177177979293498e+000	-6.496370288738238e+000
1	 1.135872269523220e+000	 2.189567698135869e+000	-6.991495521930803e+000
1	 1.112208594482198e+000	 2.201682222621746e+000	-7.532529623939252e+000
1	 1.088456835982293e+000	 2.213520792151826e+000	-8.118583784239348e+000
1	 1.064621678292507e+000	 2.225082749467440e+000	-8.748764833892718e+000
1	 1.040707802029039e+000	 2.236367540137672e+000	-9.422178052584931e+000
1	 1.016719881425092e+000	 2.247374711960891e+000	-1.013792991651027e+001
1	 9.926625816362568e-001	 2.258103914282494e+000	-1.089513078210687e+001
1	 9.685405560843093e-001	 2.268554897230786e+000	-1.169289750091736e+001
1	 1.219329592786908e+000	 2.174838032690134e+000	-5.182473311728882e+000
1	 1.195705592369057e+000	 2.187915314312910e+000	-5.567819690906368e+000
1	 1.171978357370042e+000	 2.200716278997688e+000	-6.002378022695202e+000
1	 1.148152616907090e+000	 2.213239947805595e+000	-6.485353545371662e+000
1	 1.124233104869425e+000	 2.225485447026141e+000	-7.015938603258499e+000
1	 1.100224557069113e+000	 2.237452007836891e+000	-7.593315510762290e+000
1	 1.076131708418570e+000	 2.249138965873294e+000	-8.216659372730716e+000
1	 1.051959290137910e+000	 2.260545760710265e+000	-8.885140855633003e+000
1	 1.027712026995249e+000	 2.271671935257245e+000	-9.597928904304819e+000
1	 1.003394634582944e+000	 2.282517135068562e+000	-1.035419339924278e+001
1	 9.790118166326809e-001	 2.293081107571061e+000	-1.115310774969067e+001
1	 1.232371230940871e+000	 2.198099545276473e+000	-4.700236416422094e+000
1	 1.208494554243141e+000	 2.211316698166054e+000	-5.068158462227073e+000
1	 1.184513538793563e+000	 2.224254578702237e+000	-5.486602357234023e+000
1	 1.160432964290793e+000	 2.236912197475659e+000	-5.954883608555133e+000
1	 1.136257615256517e+000	 2.249288671430844e+000	-6.472302014073224e+000
1	 1.111992278155832e+000	 2.261383223522224e+000	-7.038144424241852e+000
1	 1.087641738544563e+000	 2.273195182279368e+000	-7.651687465917409e+000
1	 1.063210778246740e+000	 2.284723981283027e+000	-8.312200222828961e+000
1	 1.038704172565387e+000	 2.295969158553711e+000	-9.018946867512478e+000
1	 1.014126687529626e+000	 2.306930355854685e+000	-9.771189239764997e+000
1	 9.894830771810521e-001	 2.317607317911332e+000	-1.056818936691725e+001
1	 1.245412869094703e+000	 2.221361057863212e+000	-4.200284342959798e+000
1	 1.221283516117117e+000	 2.234718082019610e+000	-4.548767839741806e+000
1	 1.197048720217010e+000	 2.247792878407190e+000	-4.948847913763586e+000
1	 1.172713311674459e+000	 2.260584447146108e+000	-5.399982939876986e+000
1	 1.148282125643612e+000	 2.273091895835900e+000	-5.901612720918973e+000
1	 1.123759999242596e+000	 2.285314439207865e+000	-6.453161091279965e+000
1	 1.099151768670638e+000	 2.297251398685700e+000	-7.054038489186424e+000
1	 1.074462266355686e+000	 2.308902201855987e+000	-7.703644492505632e+000
1	 1.049696318135667e+000	 2.320266381850311e+000	-8.401370313078147e+000
1	 1.024858740476468e+000	 2.331343576640874e+000	-9.146601244794278e+000
1	 9.999543377295893e-001	 2.342133528251598e+000	-9.938719060854400e+000
1	 1.258454507248502e+000	 2.244622570450384e+000	-3.682264695021464e+000
1	 1.234072477991097e+000	 2.258119465873619e+000	-4.009375605891829e+000
1	 1.209583901640504e+000	 2.271331178112595e+000	-4.388927412696698e+000
1	 1.184993659058219e+000	 2.284256696816990e+000	-4.820553027911587e+000
1	 1.160306636030851e+000	 2.296895120241353e+000	-5.303863884117742e+000
1	 1.135527720329550e+000	 2.309245654893858e+000	-5.838452324234078e+000
1	 1.110661798796949e+000	 2.321307615092325e+000	-6.423893968104841e+000
1	 1.085713754464907e+000	 2.333080422429172e+000	-7.059750050545375e+000
1	 1.060688463706254e+000	 2.344563605147063e+000	-7.745569726125575e+000
1	 1.035590793423637e+000	 2.355756797427138e+000	-8.480892336157062e+000
1	 1.010425598278460e+000	 2.366659738591860e+000	-9.265249633547985e+000
1	 1.271496145402372e+000	 2.267884083038025e+000	-3.145839534293956e+000
1	 1.246861439865192e+000	 2.281520849728122e+000	-3.449720711576616e+000
1	 1.222119083064165e+000	 2.294869477818497e+000	-3.806661258095671e+000
1	 1.197274006442202e+000	 2.307928946488350e+000	-4.216499402930667e+000
1	 1.172331146418369e+000	 2.320698344647250e+000	-4.679048944608454e+000
1	 1.147295441416841e+000	 2.333176870580241e+000	-5.194101373751995e+000
1	 1.122171828923650e+000	 2.345363831499277e+000	-5.761427980666122e+000
1	 1.096965242574563e+000	 2.357258643002612e+000	-6.380781943357292e+000
1	 1.071680609277310e+000	 2.368860828443987e+000	-7.051900391630451e+000
1	 1.046322846371299e+000	 2.380170018213485e+000	-7.774506443066973e+000
1	 1.020896858827830e+000	 2.391185948932115e+000	-8.548311206853194e+000
1	 9.161842533366131e-001	 2.145923845529372e+000	-1.369288642575349e+001
1	 8.933059157493626e-001	 2.155547983255453e+000	-1.446533895104821e+001
1	 8.703750978801976e-001	 2.164908673947971e+000	-1.526636548893744e+001
1	 8.473961566412123e-001	 2.174005963882928e+000	-1.609464864050511e+001
1	 8.243734281452965e-001	 2.182839991099376e+000	-1.694888615677279e+001
1	 8.013112254104073e-001	 2.191410984317160e+000	-1.782779442175546e+001
1	 7.782138361143608e-001	 2.199719261790046e+000	-1.873011182170783e+001
1	 7.550855204020774e-001	 2.207765230096631e+000	-1.965460199560962e+001
1	 7.319305087471113e-001	 2.215549382871506e+000	-2.060005696235178e+001
1	 7.087529998691573e-001	 2.223072299479171e+000	-2.156530012050767e+001
1	 6.855571587091146e-001	 2.230334643633273e+000	-2.254918911699087e+001
1	 9.266555138874860e-001	 2.170450055869658e+000	-1.338832366818327e+001
1	 9.035156950175441e-001	 2.180184189869629e+000	-1.418049129591274e+001
1	 8.803227960576489e-001	 2.189651865845055e+000	-1.500305122347221e+001
1	 8.570812237159355e-001	 2.198853130600830e+000	-1.585508302239394e+001
1	 8.337953636636191e-001	 2.207788123753673e+000	-1.673568144149778e+001
1	 8.104695782130246e-001	 2.216457076637510e+000	-1.764395924132742e+001
1	 7.871082040467171e-001	 2.224860311143484e+000	-1.857904992620262e+001
1	 7.637155499996888e-001	 2.232998238497061e+000	-1.954011036999852e+001
1	 7.402958948964443e-001	 2.240871357974673e+000	-2.052632333212499e+001
1	 7.168534854447088e-001	 2.248480255562493e+000	-2.153689986054608e+001
1	 6.933925341873450e-001	 2.255825602559878e+000	-2.257108157904349e+001
1	 9.371267744375259e-001	 2.194976266209944e+000	-1.303534124165578e+001
1	 9.137254742848916e-001	 2.204820396483794e+000	-1.384376210575419e+001
1	 8.902704942342629e-001	 2.214395057742118e+000	-1.468458466277863e+001
1	 8.667662907898178e-001	 2.223700297318701e+000	-1.555726033047630e+001
1	 8.432172991810966e-001	 2.232736256407930e+000	-1.646125490347145e+001
1	 8.196279310147911e-001	 2.241503168957810e+000	-1.739605078879212e+001
1	 7.960025719782182e-001	 2.250001360496865e+000	-1.836114915092474e+001
1	 7.723455795964405e-001	 2.258231246897425e+000	-1.935607196346263e+001
1	 7.486612810449145e-001	 2.266193333077768e+000	-2.038036396472649e+001
1	 7.249539710193939e-001	 2.273888211645735e+000	-2.143359451504763e+001
1	 7.012279096647085e-001	 2.281316561486399e+000	-2.251535935371907e+001
1	 9.475980349868981e-001	 2.219502476550226e+000	-1.263465681950772e+001
1	 9.239352535515701e-001	 2.229456603097937e+000	-1.345597022757679e+001
1	 9.002181924102023e-001	 2.239138249639140e+000	-1.431185946180120e+001
1	 8.764513578630181e-001	 2.248547464036511e+000	-1.520212358587105e+001
1	 8.526392346978823e-001	 2.257684389062107e+000	-1.612657442855214e+001
1	 8.287862838158566e-001	 2.266549261278012e+000	-1.708503826889748e+001
1	 8.048969399090081e-001	 2.275142409850134e+000	-1.807735744338100e+001
1	 7.809756091924724e-001	 2.283464255297661e+000	-1.910339187287031e+001
1	 7.570266671926571e-001	 2.291515308180720e+000	-2.016302050761624e+001
1	 7.330544565933475e-001	 2.299296167728821e+000	-2.125614268870084e+001
1	 7.090632851413385e-001	 2.306807520412753e+000	-2.238267942464499e+001
1	 9.580692955357707e-001	 2.244028686890507e+000	-1.218695669970896e+001
1	 9.341450328177451e-001	 2.254092809712048e+000	-1.301789870988957e+001
1	 9.101658905856305e-001	 2.263881441536101e+000	-1.388573020652256e+001
1	 8.861364249356952e-001	 2.273394630754231e+000	-1.479057458253594e+001
1	 8.620611702141319e-001	 2.282632521716167e+000	-1.573256558839602e+001
1	 8.379446366163711e-001	 2.291595353598070e+000	-1.671184851452980e+001
1	 8.137913078392323e-001	 2.300283459203229e+000	-1.772858130854434e+001
1	 7.896056387879250e-001	 2.308697263697702e+000	-1.878293562590718e+001
1	 7.653920533398095e-001	 2.316837283283455e+000	-1.987509781296413e+001
1	 7.411549421667035e-001	 2.324704123811672e+000	-2.100526982138266e+001
1	 7.168986606173690e-001	 2.332298479338855e+000	-2.217367005332399e+001
1	 9.685405560843093e-001	 2.268554897230786e+000	-1.169289750091736e+001
1	 9.443548120835819e-001	 2.278729016326116e+000	-1.253029673786225e+001
1	 9.201135887607101e-001	 2.288624633432979e+000	-1.340701452591055e+001
1	 8.958214920080091e-001	 2.298241797471829e+000	-1.432347611588017e+001
1	 8.714831057299987e-001	 2.307580654370066e+000	-1.528011392783163e+001
1	 8.471029894164829e-001	 2.316641445917933e+000	-1.627736827720499e+001
1	 8.226856757690345e-001	 2.325424508556098e+000	-1.731568804910821e+001
1	 7.982356683829376e-001	 2.333930272097482e+000	-1.839553132006393e+001
1	 7.737574394865078e-001	 2.342159258385901e+000	-1.951736592668890e+001
1	 7.492554277395961e-001	 2.350112079894209e+000	-2.068166998094454e+001
1	 7.247340360929326e-001	 2.357789438264623e+000	-2.188893233176303e+001
1	 9.790118166326809e-001	 2.293081107571061e+000	-1.115310774969067e+001
1	 9.545645913492464e-001	 2.303365222940131e+000	-1.199388144429296e+001
1	 9.300612869356041e-001	 2.313367825329754e+000	-1.287649506833170e+001
1	 9.055065590801177e-001	 2.323088964189277e+000	-1.380165406835696e+001
1	 8.809050412456383e-001	 2.332528787023769e+000	-1.477006710544344e+001
1	 8.562613422163421e-001	 2.341687538237552e+000	-1.578244637056929e+001
1	 8.315800436985597e-001	 2.350565557908681e+000	-1.683950786197496e+001
1	 8.068656979776513e-001	 2.359163280496939e+000	-1.794197162435501e+001
1	 7.821228256328890e-001	 2.367481233487989e+000	-1.909056194985210e+001
1	 7.573559133121597e-001	 2.375520035976356e+000	-2.028600754094919e+001
1	 7.325694115681635e-001	 2.383280397189971e+000	-2.152904163546340e+001
1	 9.894830771810521e-001	 2.317607317911332e+000	-1.056818936691725e+001
1	 9.647743706149043e-001	 2.328001429554083e+000	-1.140933960558857e+001
1	 9.400089851104753e-001	 2.338111017226406e+000	-1.229492135247252e+001
1	 9.151916261521811e-001	 2.347936130906542e+000	-1.322589936263062e+001
1	 8.903269767612044e-001	 2.357476919677232e+000	-1.420323689823846e+001
1	 8.654196950160987e-001	 2.366733630556880e+000	-1.522789567779682e+001
1	 8.404744116279526e-001	 2.375706607260921e+000	-1.630083580162587e+001
1	 8.154957275722060e-001	 2.384396288896006e+000	-1.742301565393747e+001
1	 7.904882117790896e-001	 2.392803208589645e+000	-1.859539178186219e+001
1	 7.654563988845279e-001	 2.400927992058032e+000	-1.981891875187674e+001
1	 7.404047870431946e-001	 2.408771356114817e+000	-2.109454898415213e+001
1	 9.999543377295893e-001	 2.342133528251598e+000	-9.938719060854401e+000
1	 9.749841498807206e-001	 2.352637636167958e+000	-1.077732923118539e+001
1	 9.499566832854869e-001	 2.362854209122914e+000	-1.166301150196601e+001
1	 9.248766932243571e-001	 2.372783297623596e+000	-1.259696979202520e+001
1	 8.997489122768516e-001	 2.382425052330420e+000	-1.358040108035821e+001
1	 8.745780478159022e-001	 2.391779722875868e+000	-1.461449503286288e+001
1	 8.493687795573580e-001	 2.400847656612761e+000	-1.570043362013229e+001
1	 8.241257571667413e-001	 2.409629297294619e+000	-1.683939072694759e+001
1	 7.988535979252458e-001	 2.418125183690795e+000	-1.803253175415179e+001
1	 7.735568844568355e-001	 2.426335948139160e+000	-1.928101321361341e+001
1	 7.482401625181595e-001	 2.434262315039077e+000	-2.058598231701830e+001
1	 1.010425598278460e+000	 2.366659738591860e+000	-9.265249633547985e+000
1	 9.851939291468612e-001	 2.377273842781749e+000	-1.009848105414106e+001
1	 9.599043814608010e-001	 2.387597401019256e+000	-1.098145387216016e+001
1	 9.345617602968062e-001	 2.397630464340408e+000	-1.191559173715745e+001
1	 9.091708477927346e-001	 2.407373184983288e+000	-1.290230518497471e+001
1	 8.837364006159016e-001	 2.416825815194467e+000	-1.394299098483936e+001
1	 8.582631474869203e-001	 2.425988705964147e+000	-1.503903149275648e+001
1	 8.327557867613982e-001	 2.434862305692712e+000	-1.619179401209759e+001
1	 8.072189840714941e-001	 2.443447158791370e+000	-1.740263016227470e+001
1	 7.816573700292160e-001	 2.451743904219661e+000	-1.867287525638021e+001
1	 7.560755379931917e-001	 2.459753273962668e+000	-2.000384768865645e+001
1	 1.020896858827830e+000	 2.391185948932115e+000	-8.548311206853194e+000
1	 9.954037084134920e-001	 2.401910049395444e+000	-9.373399929992923e+000
1	 9.698520796365818e-001	 2.412340592915415e+000	-1.025090857677309e+001
1	 9.442468273696867e-001	 2.422477631056949e+000	-1.118246177692475e+001
1	 9.185927833090082e-001	 2.432321317635803e+000	-1.216966415775559e+001
1	 8.928947534162468e-001	 2.441871907512629e+000	-1.321409945361380e+001
1	 8.671575154167843e-001	 2.451129755315018e+000	-1.431732963735573e+001
1	 8.413858163563170e-001	 2.460095314090223e+000	-1.548089407487700e+001
1	 8.155843702179720e-001	 2.468769133891297e+000	-1.670630870371477e+001
1	 7.897578556018043e-001	 2.477151860299458e+000	-1.799506523667836e+001
1	 7.639109134684247e-001	 2.485244232885506e+000	-1.934863039140906e+001
1	 6.855571587091146e-001	 2.230334643633273e+000	-2.254918911699087e+001
1	 6.623471141318938e-001	 2.237337161406804e+000	-2.355338635381563e+001
1	 6.391269560606028e-001	 2.244080678083104e+000	-2.457608480810337e+001
1	 6.159007346850257e-001	 2.250566098306568e+000	-2.561101142712433e+001
1	 5.926724590196567e-001	 2.256794405071064e+000	-2.665196320605572e+001
1	 5.694460951855147e-001	 2.262766658109031e+000	-2.769281761294646e+001
1	 5.462255647562676e-001	 2.268483992241738e+000	-2.872754263582095e+001
1	 5.230147431693810e-001	 2.273947615693367e+000	-2.975020644085398e+001
1	 4.998174582029119e-001	 2.279158808371665e+000	-3.075498663176867e+001
1	 4.766374885184339e-001	 2.284118920117789e+000	-3.173617910183147e+001
1	 4.534785622704716e-001	 2.288829368928065e+000	-3.268820647101963e+001
1	 6.933925341873450e-001	 2.255825602559878e+000	-2.257108157904349e+001
1	 6.699172171789138e-001	 2.262908153566841e+000	-2.363030747901486e+001
1	 6.464316710871189e-001	 2.269728743299059e+000	-2.471247059175121e+001
1	 6.229399923922244e-001	 2.276288286740297e+000	-2.581155865452920e+001
1	 5.994462359286032e-001	 2.282587778119269e+000	-2.692162227594192e+001
1	 5.759544131469153e-001	 2.288628289280320e+000	-2.803678521576259e+001
1	 5.524684904413270e-001	 2.294410968014828e+000	-2.915125429996524e+001
1	 5.289923875425029e-001	 2.299937036356029e+000	-3.025932895976548e+001
1	 5.055299759769889e-001	 2.305207788840002e+000	-3.135541038474317e+001
1	 4.820850775934855e-001	 2.310224590735523e+000	-3.243401028129734e+001
1	 4.586614631563876e-001	 2.314988876245497e+000	-3.348975922886812e+001
1	 7.012279096647085e-001	 2.281316561486399e+000	-2.251535935371907e+001
1	 6.774873202250681e-001	 2.288479145726790e+000	-2.362683328862780e+001
1	 6.537363861127734e-001	 2.295376808514921e+000	-2.476566647472048e+001
1	 6.299792500985683e-001	 2.302010475173931e+000	-2.592622354907121e+001
1	 6.062200128367057e-001	 2.308381151167378e+000	-2.710292411547323e+001
1	 5.824627311074861e-001	 2.314489920451514e+000	-2.829025269008260e+001
1	 5.587114161255758e-001	 2.320337943787829e+000	-2.948276830089142e+001
1	 5.349700319148383e-001	 2.325926457018605e+000	-3.067511373005615e+001
1	 5.112424937503095e-001	 2.331256769308258e+000	-3.186202438925712e+001
1	 4.875326666678159e-001	 2.336330261353183e+000	-3.303833681941149e+001
1	 4.638443640416252e-001	 2.341148383562864e+000	-3.419899680720145e+001
1	 7.090632851413385e-001	 2.306807520412753e+000	-2.238267942464499e+001
1	 6.850574232704915e-001	 2.314050137886563e+000	-2.354352164125248e+001
1	 6.610411011377029e-001	 2.321024873730600e+000	-2.473615144669370e+001
1	 6.370185078041978e-001	 2.327732663607379e+000	-2.595542255153395e+001
1	 6.129937897441081e-001	 2.334174524215300e+000	-2.719623502133553e+001
1	 5.889710490673755e-001	 2.340351551622521e+000	-2.845354470231353e+001
1	 5.649543418091654e-001	 2.346264919560645e+000	-2.972237232505502e+001
1	 5.409476762865411e-001	 2.351915877681005e+000	-3.099781227571634e+001
1	 5.169550115230276e-001	 2.357305749776349e+000	-3.227504102519527e+001
1	 4.929802557415790e-001	 2.362435931970693e+000	-3.354932520785930e+001
1	 4.690272649263334e-001	 2.367307890880099e+000	-3.481602934248417e+001
1	 7.168986606173690e-001	 2.332298479338855e+000	-2.217367005332399e+001
1	 6.926275263153182e-001	 2.339621130046071e+000	-2.338090600692804e+001
1	 6.683458161620449e-001	 2.346672938946006e+000	-2.462438355679911e+001
1	 6.440577655092538e-001	 2.353454852040546e+000	-2.589955389667063e+001
1	 6.197675666509556e-001	 2.359967897262938e+000	-2.720190527639322e+001
1	 5.954793670267321e-001	 2.366213182793248e+000	-2.852697172504098e+001
1	 5.711972674922478e-001	 2.372191895333188e+000	-2.987034148178580e+001
1	 5.469253206577651e-001	 2.377905298343142e+000	-3.122766512456762e+001
1	 5.226675292952985e-001	 2.383354730244194e+000	-3.259466338758269e+001
1	 4.984278448149279e-001	 2.388541602587979e+000	-3.396713465961466e+001
1	 4.742101658106621e-001	 2.393467398197139e+000	-3.534096215621698e+001
1	 7.247340360929326e-001	 2.357789438264623e+000	-2.188893233176303e+001
1	 7.001976293596834e-001	 2.365192122205227e+000	-2.313949678550387e+001
1	 6.756505311859367e-001	 2.372321004161045e+000	-2.443080104559250e+001
1	 6.510970232138765e-001	 2.379177040473339e+000	-2.575899859736547e+001
1	 6.265413435573920e-001	 2.385761270310199e+000	-2.712027001534601e+001
1	 6.019876849857038e-001	 2.392074813963600e+000	-2.851083080430221e+001
1	 5.774401931749748e-001	 2.398118871105365e+000	-2.992693898316775e+001
1	 5.529029650286649e-001	 2.403894719004927e+000	-3.136490240268111e+001
1	 5.283800470672764e-001	 2.409403710711710e+000	-3.282108578849544e+001
1	 5.038754338880155e-001	 2.414647273204967e+000	-3.429191750240474e+001
1	 4.793930666947601e-001	 2.419626905513915e+000	-3.577389601521843e+001
1	 7.325694115681635e-001	 2.383280397189971e+000	-2.152904163546340e+001
1	 7.077677324037210e-001	 2.390763114363942e+000	-2.281978254040423e+001
1	 6.829552462095150e-001	 2.397969069375628e+000	-2.415582340439350e+001
1	 6.581362809182069e-001	 2.404899228905663e+000	-2.553412136563717e+001
1	 6.333151204635621e-001	 2.411554643356989e+000	-2.695165003483330e+001
1	 6.084960029444394e-001	 2.417936445133482e+000	-2.840540627762083e+001
1	 5.836831188574980e-001	 2.424045846877084e+000	-2.989241678028876e+001
1	 5.588806093993937e-001	 2.429884139666275e+000	-3.140974439065057e+001
1	 5.340925648391162e-001	 2.435452691178814e+000	-3.295449422676102e+001
1	 5.093230229609952e-001	 2.440752943821578e+000	-3.452381954692399e+001
1	 4.845759675787774e-001	 2.445786412830363e+000	-3.611492737520399e+001
1	 7.404047870431946e-001	 2.408771356114817e+000	-2.109454898415213e+001
1	 7.153378354475657e-001	 2.416334106522127e+000	-2.242223115405387e+001
1	 6.902599612329170e-001	 2.423617134589662e+000	-2.379985236736023e+001
1	 6.651755386223857e-001	 2.430621417337429e+000	-2.522527147516272e+001
1	 6.400888973696106e-001	 2.437348016403214e+000	-2.669635255210102e+001
1	 6.150043209030871e-001	 2.443798076302805e+000	-2.821097044644939e+001
1	 5.899260445399690e-001	 2.449972822648255e+000	-2.976701615909081e+001
1	 5.648582537701060e-001	 2.455873560327097e+000	-3.136240204454276e+001
1	 5.398050826109726e-001	 2.461501671645427e+000	-3.299506682783549e+001
1	 5.147706120340209e-001	 2.466858614437742e+000	-3.466298043166825e+001
1	 4.897588684628631e-001	 2.471945920146419e+000	-3.636414860889788e+001
1	 7.482401625181595e-001	 2.434262315039077e+000	-2.058598231701830e+001
1	 7.229079384913520e-001	 2.441905098679697e+000	-2.194729091070805e+001
1	 6.975646762562796e-001	 2.449265199803056e+000	-2.336327284123028e+001
1	 6.722147963265527e-001	 2.456343605768539e+000	-2.483278356960877e+001
1	 6.468626742756821e-001	 2.463141389448778e+000	-2.635467191600025e+001
1	 6.215126388617955e-001	 2.469659707471471e+000	-2.792778420636222e+001
1	 5.961689702225396e-001	 2.475899798418785e+000	-2.955096829878301e+001
1	 5.708358981409558e-001	 2.481862980987305e+000	-3.122307748411818e+001
1	 5.455176003830004e-001	 2.487550652111466e+000	-3.294297425604289e+001
1	 5.202182011072450e-001	 2.492964285053382e+000	-3.470953394610319e+001
1	 4.949417693471666e-001	 2.498105427462015e+000	-3.652164821981377e+001
1	 7.560755379931917e-001	 2.459753273962668e+000	-2.000384768865645e+001
1	 7.304780415352139e-001	 2.467476090836561e+000	-2.139539151195281e+001
1	 7.048693912797398e-001	 2.474913265015718e+000	-2.284645377725202e+001
1	 6.792540540308489e-001	 2.482065794198899e+000	-2.435697842070085e+001
1	 6.536364511819208e-001	 2.488934762493587e+000	-2.592689027377745e+001
1	 6.280209568207131e-001	 2.495521338639388e+000	-2.755609763806315e+001
1	 6.024118959053617e-001	 2.501826774188583e+000	-2.924449479553294e+001
1	 5.768135425120966e-001	 2.507852401646812e+000	-3.099196445069324e+001
1	 5.512301181553538e-001	 2.513599632576846e+000	-3.279838010118191e+001
1	 5.256657901808214e-001	 2.519069955668422e+000	-3.466360833373778e+001
1	 5.001246702318374e-001	 2.524264934777087e+000	-3.658751104274165e+001
1	 7.639109134684247e-001	 2.485244232885506e+000	-1.934863039140906e+001
1	 7.380481445792873e-001	 2.493047082992633e+000	-2.076694502970946e+001
1	 7.121741063034353e-001	 2.500561330227558e+000	-2.224974898945582e+001
1	 6.862933117354153e-001	 2.507787982628420e+000	-2.379816363964112e+001
1	 6.604102280884718e-001	 2.514728135537550e+000	-2.541327819682817e+001
1	 6.345292747799888e-001	 2.521382969806464e+000	-2.709615056202156e+001
1	 6.086548215885872e-001	 2.527753749957561e+000	-2.884780815392860e+001
1	 5.827911868836834e-001	 2.533841822305532e+000	-3.066924873682580e+001
1	 5.569426359281881e-001	 2.539648613041488e+000	-3.256144124133962e+001
1	 5.311133792549037e-001	 2.545175626282792e+000	-3.452532657654706e+001
1	 5.053075711170251e-001	 2.550424442091569e+000	-3.656181843189690e+001
1	 4.534785622704716e-001	 2.288829368928065e+000	-3.268820647101963e+001
1	 4.303478228187894e-001	 2.293290988703301e+000	-3.360029070577413e+001
1	 4.072454120468742e-001	 2.297506054455230e+000	-3.446070224054552e+001
1	 3.841748921516889e-001	 2.301476178916054e+000	-3.526225620731101e+001
1	 3.611397700823948e-001	 2.305203035563035e+000	-3.599796296407492e+001
1	 3.381434964856022e-001	 2.308688356741214e+000	-3.666103679465380e+001
1	 3.151894647169172e-001	 2.311933931773511e+000	-3.724490404822433e+001
1	 2.922810099184495e-001	 2.314941605060654e+000	-3.774321071803625e+001
1	 2.694214081618384e-001	 2.317713274173349e+000	-3.814982946000936e+001
1	 2.466138756562645e-001	 2.320250887939014e+000	-3.845886605320633e+001
1	 2.238615680208486e-001	 2.322556444525402e+000	-3.866466530539321e+001
1	 4.586614631563876e-001	 2.314988876245497e+000	-3.348975922886812e+001
1	 4.352663576684167e-001	 2.319501488801562e+000	-3.451205381810676e+001
1	 4.118999046346665e-001	 2.323764729417043e+000	-3.548915032339699e+001
1	 3.885657069651761e-001	 2.327780229256406e+000	-3.641373060066429e+001
1	 3.652673116907450e-001	 2.331549680923443e+000	-3.727866678048148e+001
1	 3.420082088961280e-001	 2.335074836562539e+000	-3.807703044486279e+001
1	 3.187918307202851e-001	 2.338357505947168e+000	-3.880210123625433e+001
1	 2.956215504233459e-001	 2.341399554558111e+000	-3.944737489743496e+001
1	 2.725006815198411e-001	 2.344202901653812e+000	-4.000657074240114e+001
1	 2.494324769776624e-001	 2.346769518335254e+000	-4.047363855962398e+001
1	 2.264201284821455e-001	 2.349101425607677e+000	-4.084276495032886e+001
1	 4.638443640416252e-001	 2.341148383562864e+000	-3.419899680720145e+001
1	 4.401848925174144e-001	 2.345711988899768e+000	-3.533367044374703e+001
1	 4.165543972218820e-001	 2.350023404378815e+000	-3.643073048670478e+001
1	 3.929565217781408e-001	 2.354084279596734e+000	-3.748288295017962e+001
1	 3.693948532986258e-001	 2.357896326283851e+000	-3.848301726672104e+001
1	 3.458729213062330e-001	 2.361461316383892e+000	-3.942421572053920e+001
1	 3.223941967232739e-001	 2.364781080120888e+000	-4.029976231417576e+001
1	 2.989620909278954e-001	 2.367857504055670e+000	-4.110315106682332e+001
1	 2.755799548775170e-001	 2.370692529134423e+000	-4.182809374386318e+001
1	 2.522510782987388e-001	 2.373288148731701e+000	-4.246852701852034e+001
1	 2.289786889431087e-001	 2.375646406690224e+000	-4.301861906782177e+001
1	 4.690272649263334e-001	 2.367307890880099e+000	-3.481602934248418e+001
1	 4.451034273659250e-001	 2.371922488997865e+000	-3.606519756800898e+001
1	 4.212088898086547e-001	 2.376282079340507e+000	-3.728546216388523e+001
1	 3.973473365907070e-001	 2.380388329937013e+000	-3.846970519001928e+001
1	 3.735223949061499e-001	 2.384242971644242e+000	-3.961098340800788e+001
1	 3.497376337160195e-001	 2.387847796205267e+000	-4.070253775438580e+001
1	 3.259965627259769e-001	 2.391204654294674e+000	-4.173780225726001e+001
1	 3.023026314321841e-001	 2.394315453553343e+000	-4.271041239416946e+001
1	 2.786592282349474e-001	 2.397182156615205e+000	-4.361421289037448e+001
1	 2.550696796195737e-001	 2.399806779128375e+000	-4.444326495810449e+001
1	 2.315372494038215e-001	 2.402191387773061e+000	-4.519185297856883e+001
1	 4.742101658106621e-001	 2.393467398197139e+000	-3.534096215621698e+001
1	 4.500219622140912e-001	 2.398132989095801e+000	-3.670668968491419e+001
1	 4.258633823951184e-001	 2.402540754302073e+000	-3.805336393876252e+001
1	 4.017381514029981e-001	 2.406692380277210e+000	-3.937418960697026e+001
1	 3.776499365134305e-001	 2.410589617004602e+000	-4.066253554546724e+001
1	 3.536023461255908e-001	 2.414234276026661e+000	-4.191194407780483e+001
1	 3.295989287284878e-001	 2.417628228468532e+000	-4.311613975790562e+001
1	 3.056431719362983e-001	 2.420773403051146e+000	-4.426903759230684e+001
1	 2.817385015922140e-001	 2.423671784096174e+000	-4.536475072087254e+001
1	 2.578882809402479e-001	 2.426325409525293e+000	-4.639759755624758e+001
1	 2.340958098643675e-001	 2.428736368856203e+000	-4.736210838356414e+001
1	 4.793930666947601e-001	 2.419626905513915e+000	-3.577389601521843e+001
1	 4.549404970620559e-001	 2.424343489193518e+000	-3.725819893186331e+001
1	 4.305178749814069e-001	 2.428799429263473e+000	-3.873445359149469e+001
1	 4.061289662151379e-001	 2.432996430617297e+000	-4.019632882138274e+001
1	 3.817774781205808e-001	 2.436936262364910e+000	-4.163764530283878e+001
1	 3.574670585350495e-001	 2.440620755848070e+000	-4.305238449123099e+001
1	 3.332012947309002e-001	 2.444051802642469e+000	-4.443469702470189e+001
1	 3.089837124403241e-001	 2.447231352549091e+000	-4.577891061919735e+001
1	 2.848177749493984e-001	 2.450161411577347e+000	-4.707953744869290e+001
1	 2.607068822608414e-001	 2.452844039922479e+000	-4.833128101073847e+001
1	 2.366543703248299e-001	 2.455281349939667e+000	-4.952904247863232e+001
1	 4.845759675787774e-001	 2.445786412830363e+000	-3.611492737520399e+001
1	 4.598590319099618e-001	 2.450553989290962e+000	-3.771977521566463e+001
1	 4.351723675676542e-001	 2.455058104224664e+000	-3.932874814155336e+001
1	 4.105197810272501e-001	 2.459300480957246e+000	-4.093611576933197e+001
1	 3.859050197277137e-001	 2.463282907725154e+000	-4.253628551788510e+001
1	 3.613317709444980e-001	 2.467007235669486e+000	-4.412381094278815e+001
1	 3.368036607333075e-001	 2.470475376816489e+000	-4.569339959438767e+001
1	 3.123242529443478e-001	 2.473689302047192e+000	-4.723992039742821e+001
1	 2.878970483065824e-001	 2.476651039058744e+000	-4.875841055115190e+001
1	 2.635254835814349e-001	 2.479362670319949e+000	-5.024408194995317e+001
1	 2.392129307852924e-001	 2.481826331023470e+000	-5.169232712578467e+001
1	 4.897588684628631e-001	 2.471945920146419e+000	-3.636414860889788e+001
1	 4.647775667579517e-001	 2.476764489388081e+000	-3.809146633056187e+001
1	 4.398268601539943e-001	 2.481316779185606e+000	-3.983626388797364e+001
1	 4.149105958394587e-001	 2.485604531297026e+000	-4.159354368591212e+001
1	 3.900325613349427e-001	 2.489629553085316e+000	-4.335843017815354e+001
1	 3.651964833540393e-001	 2.493393715490908e+000	-4.512617741464808e+001
1	 3.404060267358032e-001	 2.496898950990598e+000	-4.689217615575060e+001
1	 3.156647934484556e-001	 2.500147251545462e+000	-4.865196055152109e+001
1	 2.909763216638470e-001	 2.503140666540383e+000	-5.040121438519029e+001
1	 2.663440849021088e-001	 2.505881300717724e+000	-5.213577688094438e+001
1	 2.417714912458383e-001	 2.508371312107629e+000	-5.385164807719178e+001
1	 4.949417693471666e-001	 2.498105427462015e+000	-3.652164821981377e+001
1	 4.696961016061681e-001	 2.502974989484819e+000	-3.837331806884451e+001
1	 4.444813527405609e-001	 2.507575454146253e+000	-4.025701644707493e+001
1	 4.193014106518871e-001	 2.511908581636609e+000	-4.216860608958023e+001
1	 3.941601029423804e-001	 2.515976198445378e+000	-4.410405436077611e+001
1	 3.690611957637762e-001	 2.519780195312328e+000	-4.605943981653137e+001
1	 3.440083927384809e-001	 2.523322525164801e+000	-4.803095838458995e+001
1	 3.190053339527335e-001	 2.526605201043914e+000	-5.001492916174458e+001
1	 2.940555950212743e-001	 2.529630294022282e+000	-5.200779982716546e+001
1	 2.691626862229433e-001	 2.532399931115825e+000	-5.400615167220708e+001
1	 2.443300517065510e-001	 2.534916293192159e+000	-5.600670424791339e+001
1	 5.001246702318374e-001	 2.524264934777087e+000	-3.658751104274165e+001
1	 4.746146364547537e-001	 2.529185489581120e+000	-3.856537432458157e+001
1	 4.491358453274879e-001	 2.533834129106566e+000	-4.059102078783725e+001
1	 4.236922254646594e-001	 2.538212631975964e+000	-4.266129676747424e+001
1	 3.982876445501403e-001	 2.542322843805324e+000	-4.477313417601118e+001
1	 3.729259081738113e-001	 2.546166675133743e+000	-4.692355588582978e+001
1	 3.476107587414339e-001	 2.549746099339105e+000	-4.910968078894145e+001
1	 3.223458744572680e-001	 2.553063150542563e+000	-5.132872853323584e+001
1	 2.971348683789456e-001	 2.556119921504460e+000	-5.357802393504132e+001
1	 2.719812875440190e-001	 2.558918561514268e+000	-5.585500106860608e+001
1	 2.468886121675140e-001	 2.561461274277079e+000	-5.815720703384960e+001
1	 5.053075711170251e-001	 2.550424442091569e+000	-3.656181843189691e+001
1	 4.795331713038518e-001	 2.555395989676932e+000	-3.866767719097125e+001
1	 4.537903379149098e-001	 2.560092804066504e+000	-4.083829126509934e+001
1	 4.280830402778991e-001	 2.564516682315065e+000	-4.307160976163299e+001
1	 4.024151861583350e-001	 2.568669489165140e+000	-4.536564671426032e+001
1	 3.767906205842475e-001	 2.572553154955150e+000	-4.771848509387468e+001
1	 3.512131247447561e-001	 2.576169673513514e+000	-5.012828056382848e+001
1	 3.256864149621451e-001	 2.579521100041421e+000	-5.259326497932965e+001
1	 3.002141417369426e-001	 2.582609548986935e+000	-5.511174963136717e+001
1	 2.747998888654161e-001	 2.585437191913076e+000	-5.768212823615546e+001
1	 2.494471726288109e-001	 2.588006255362404e+000	-6.030287967166674e+001
1	 2.238615680208486e-001	 2.322556444525402e+000	-3.866466530539321e+001
1	 2.011641876059516e-001	 2.324632283812556e+000	-3.875410820225299e+001
1	 1.785282247002906e-001	 2.326480135022100e+000	-3.871286462821082e+001
1	 1.559566963524342e-001	 2.328102134340242e+000	-3.853393545159961e+001
1	 1.334525552926767e-001	 2.329500459691833e+000	-3.821062089218494e+001
1	 1.110186895228712e-001	 2.330677328820791e+000	-3.773652486611214e+001
1	 8.865792196686122e-002	 2.331634997380677e+000	-3.710555873854499e+001
1	 6.637301018034868e-002	 2.332375757037283e+000	-3.631194449519101e+001
1	 4.416664611898429e-002	 2.332901933585021e+000	-3.535021734479005e+001
1	 2.204145596341870e-002	 2.333215885078842e+000	-3.421522776545832e+001
1	 0.000000000000000e+000	 2.333319999983334e+000	-3.290214300853528e+001
1	 2.264201284821455e-001	 2.349101425607677e+000	-4.084276495032886e+001
1	 2.034633349817422e-001	 2.351200990094103e+000	-4.110075010440418e+001
1	 1.805686609440350e-001	 2.353069960779786e+000	-4.123290892061929e+001
1	 1.577391579000761e-001	 2.354710498265832e+000	-4.123174992817175e+001
1	 1.349778123275369e-001	 2.356124805369036e+000	-4.109008681476816e+001
1	 1.122875452358524e-001	 2.357315125180360e+000	-4.080104352283843e+001
1	 8.967121181265779e-002	 2.358283739133688e+000	-4.035805871903253e+001
1	 6.713160113034059e-002	 2.359032965086723e+000	-3.975488964798447e+001
1	 4.467143591148018e-002	 2.359565155415852e+000	-3.898561538229211e+001
1	 2.229337235189973e-002	 2.359882695126717e+000	-3.804463948156133e+001
1	 0.000000000000000e+000	 2.359987999982150e+000	-3.692669207419395e+001
1	 2.289786889431087e-001	 2.375646406690224e+000	-4.301861906782176e+001
1	 2.057624823571691e-001	 2.377769696375999e+000	-4.346523262376265e+001
1	 1.826090971873753e-001	 2.379659786537899e+000	-4.379343447182543e+001
1	 1.595216194472727e-001	 2.381318862191933e+000	-4.399532979872261e+001
1	 1.365030693619190e-001	 2.382749151046835e+000	-4.406333183178978e+001
1	 1.135564009483399e-001	 2.383952921540606e+000	-4.399016761002611e+001
1	 9.068450165797164e-002	 2.384932480887448e+000	-4.376888310053793e+001
1	 6.789019207989593e-002	 2.385690173136972e+000	-4.339284767109251e+001
1	 4.517622570362967e-002	 2.386228377247542e+000	-4.285575793052740e+001
1	 2.254528874017709e-002	 2.386549505175481e+000	-4.215164094972788e+001
1	 0.000000000000000e+000	 2.386655999981866e+000	-4.127485687678485e+001
1	 2.315372494038215e-001	 2.402191387773061e+000	-4.519185297856883e+001
1	 2.080616297323233e-001	 2.404338402658252e+000	-4.584704130426751e+001
1	 1.846495334304126e-001	 2.406249612296440e+000	-4.639375223648442e+001
1	 1.613040809941353e-001	 2.407927226118531e+000	-4.682377302721629e+001
1	 1.380283263959423e-001	 2.409373496725197e+000	-4.712919898646086e+001
1	 1.148252566604571e-001	 2.410590717901478e+000	-4.730243985342862e+001
1	 9.169779150292333e-002	 2.411581222641891e+000	-4.733622549169333e+001
1	 6.864878302912381e-002	 2.412347381187954e+000	-4.722361091864386e+001
1	 4.568101549551938e-002	 2.412891599079999e+000	-4.695798068070008e+001
1	 2.279720512830171e-002	 2.413216315225037e+000	-4.653305258678347e+001
1	 0.000000000000000e+000	 2.413323999982383e+000	-4.594288081348859e+001
1	 2.340958098643675e-001	 2.428736368856203e+000	-4.736210838356414e+001
1	 2.103607771072956e-001	 2.430907108940868e+000	-4.824568418094118e+001
1	 1.866899696732478e-001	 2.432839438055403e+000	-4.903320329306006e+001
1	 1.630865425407753e-001	 2.434535590045608e+000	-4.971621701299129e+001
1	 1.395535834297265e-001	 2.435997842404091e+000	-5.028658190203777e+001
1	 1.160941123723274e-001	 2.437228514262929e+000	-5.073646668817594e+001
1	 9.271108134763365e-002	 2.438229964396952e+000	-5.105835847327131e+001
1	 6.940737397813342e-002	 2.439004589239588e+000	-5.124506825902206e+001
1	 4.618580528723588e-002	 2.439554820913136e+000	-5.128973580273757e+001
1	 2.304912151632448e-002	 2.439883125275287e+000	-5.118583381512978e+001
1	 0.000000000000000e+000	 2.439991999983599e+000	-5.092717151330407e+001
1	 2.366543703248299e-001	 2.455281349939667e+000	-4.952904247863232e+001
1	 2.126599244821769e-001	 2.457475815223860e+000	-5.066069056409187e+001
1	 1.887304059159820e-001	 2.459429263814787e+000	-5.171115721542699e+001
1	 1.648690040873040e-001	 2.461143953973148e+000	-5.267183645900769e+001
1	 1.410788404633911e-001	 2.462622188083482e+000	-5.353442204762311e+001
1	 1.173629680840743e-001	 2.463866310624908e+000	-5.429091481484580e+001
1	 9.372437119222328e-002	 2.464878706152569e+000	-5.493362932919806e+001
1	 7.016596492703386e-002	 2.465661797291797e+000	-5.545519985760644e+001
1	 4.669059507886578e-002	 2.466218042746861e+000	-5.584858564881395e+001
1	 2.330103790429633e-002	 2.466549935326134e+000	-5.610707554853650e+001
1	 0.000000000000000e+000	 2.466659999985416e+000	-5.622429195918715e+001
1	 2.392129307852924e-001	 2.481826331023470e+000	-5.169232712578467e+001
1	 2.149590718570580e-001	 2.484044521507234e+000	-5.309160990153905e+001
1	 1.907708421587163e-001	 2.486019089574589e+000	-5.442701054897288e+001
1	 1.666514656338326e-001	 2.487752317901131e+000	-5.568984137689812e+001
1	 1.426040974970557e-001	 2.489246533763340e+000	-5.687170617943292e+001
1	 1.186318237958212e-001	 2.490504106987368e+000	-5.796450797654613e+001
1	 9.473766103681285e-002	 2.491527447908676e+000	-5.896045605152669e+001
1	 7.092455587593428e-002	 2.492319005344500e+000	-5.985207229432745e+001
1	 4.719538487049566e-002	 2.492881264581084e+000	-6.063219686094693e+001
1	 2.355295429226817e-002	 2.493216745377481e+000	-6.129399316015289e+001
1	 0.000000000000000e+000	 2.493327999987733e+000	-6.183095217992100e+001
1	 2.417714912458383e-001	 2.508371312107629e+000	-5.385164807719178e+001
1	 2.172582192320302e-001	 2.510613227791001e+000	-5.553801071308348e+001
1	 1.928112784015514e-001	 2.512608915334807e+000	-5.718018538346248e+001
1	 1.684339271804726e-001	 2.514360681829545e+000	-5.876947521868995e+001
1	 1.441293545308398e-001	 2.515870879443632e+000	-6.029746394453129e+001
1	 1.199006795076914e-001	 2.517141903350260e+000	-6.175602394063840e+001
1	 9.575095088152311e-002	 2.518176189665208e+000	-6.313732359907535e+001
1	 7.168314682494381e-002	 2.518976213397623e+000	-6.443383399123543e+001
1	 4.770017466221212e-002	 2.519544486415716e+000	-6.563833485273445e+001
1	 2.380487068029092e-002	 2.519883555429232e+000	-6.674391989701861e+001
1	 0.000000000000000e+000	 2.519995999990449e+000	-6.774400146951467e+001
1	 2.443300517065510e-001	 2.534916293192159e+000	-5.600670424791339e+001
1	 2.195573666071843e-001	 2.537181934075167e+000	-5.799947959192313e+001
1	 1.948517146445887e-001	 2.539198741095438e+000	-5.997012801556770e+001
1	 1.702163887273351e-001	 2.540969045758370e+000	-6.191001312591068e+001
1	 1.456546115648630e-001	 2.542495225124322e+000	-6.381076563512316e+001
1	 1.211695352198084e-001	 2.543779699713533e+000	-6.566429167010044e+001
1	 9.676424072647473e-002	 2.544824931422101e+000	-6.746278039113793e+001
1	 7.244173777417159e-002	 2.545633421451083e+000	-6.919871092735663e+001
1	 4.820496445410175e-002	 2.546207708250668e+000	-7.086485863780686e+001
1	 2.405678706841549e-002	 2.546550365481287e+000	-7.245430070834317e+001
1	 0.000000000000000e+000	 2.546663999993466e+000	-7.396042109545985e+001
1	 2.468886121675140e-001	 2.561461274277079e+000	-5.815720703384960e+001
1	 2.218565139826111e-001	 2.563750640359744e+000	-6.047562026816192e+001
1	 1.968921508879288e-001	 2.565788566856479e+000	-6.279630769456232e+001
1	 1.719988502745316e-001	 2.567577409687589e+000	-6.511076028756369e+001
1	 1.471798685992448e-001	 2.569119570805381e+000	-6.741072008248406e+001
1	 1.224383909322958e-001	 2.570417496077141e+000	-6.968818867077148e+001
1	 9.777753057178837e-002	 2.571473673179289e+000	-7.193543501921214e+001
1	 7.320032872372678e-002	 2.572290629504803e+000	-7.414500261999640e+001
1	 4.870975424625112e-002	 2.572870930085848e+000	-7.630971597984161e+001
1	 2.430870345669278e-002	 2.573217175533550e+000	-7.842268645753934e+001
1	 0.000000000000000e+000	 2.573331999996683e+000	-8.047731746038357e+001
1	 2.494471726288109e-001	 2.588006255362404e+000	-6.030287967166674e+001
1	 2.241556613584017e-001	 2.590319346644739e+000	-6.296605272995095e+001
1	 1.989325871316730e-001	 2.592378392617928e+000	-6.565821544520748e+001
1	 1.737813118221734e-001	 2.594185773617187e+000	-6.837105039915601e+001
1	 1.487051256341049e-001	 2.595743916486777e+000	-7.109647268050031e+001
1	 1.237072466452768e-001	 2.597055292441034e+000	-7.382663850185276e+001
1	 9.879082041758477e-002	 2.598122414936711e+000	-7.655395316109446e+001
1	 7.395891967371854e-002	 2.598947837558706e+000	-7.927107835336010e+001
1	 4.921454403874689e-002	 2.599534151921171e+000	-8.197093884105478e+001
1	 2.456061984517374e-002	 2.599883985585925e+000	-8.464672849045660e+001
1	 0.000000000000000e+000	 2.600000000000000e+000	-8.729191568454391e+001
1	 2.600000000000000e+000	 0.000000000000000e+000	 9.571103686087025e+001
1	 2.599883985585924e+000	 2.456061984517381e-002	 9.174313606103449e+001
1	 2.599534151921172e+000	 4.921454403874706e-002	 8.782619635634491e+001
1	 2.598947837558706e+000	 7.395891967371834e-002	 8.396111733020271e+001
1	 2.598122414936712e+000	 9.879082041758469e-002	 8.014895319140875e+001
1	 2.597055292441034e+000	 1.237072466452768e-001	 7.639091506612957e+001
1	 2.595743916486777e+000	 1.487051256341049e-001	 7.268837308865400e+001
1	 2.594185773617187e+000	 1.737813118221734e-001	 6.904285827995888e+001
1	 2.592378392617928e+000	 1.989325871316728e-001	 6.545606420317819e+001
1	 2.590319346644739e+000	 2.241556613584015e-001	 6.192984838517909e+001
1	 2.588006255362404e+000	 2.494471726288108e-001	 5.846623349358961e+001
1	 2.626668000003317e+000	 0.000000000000000e+000	 9.759301148321909e+001
1	 2.626550795638311e+000	 2.481253623389235e-002	 9.341660970047469e+001
1	 2.626197373756539e+000	 4.971933383164689e-002	 8.930049082625529e+001
1	 2.625605045612707e+000	 7.471751062421944e-002	 8.524559210029848e+001
1	 2.624771156694291e+000	 9.980411026394442e-002	 8.125300568151110e+001
1	 2.623693088805149e+000	 1.249761023588340e-001	 7.732398098654905e+001
1	 2.622368262168459e+000	 1.502303826695234e-001	 7.345992682711101e+001
1	 2.620794137547128e+000	 1.755637733703355e-001	 6.966241333482208e+001
1	 2.618968218379761e+000	 2.009730233758896e-001	 6.593317366265214e+001
1	 2.616888052930141e+000	 2.264548087346183e-001	 6.227410545191764e+001
1	 2.614551236448130e+000	 2.520057330904997e-001	 5.868727205405310e+001
1	 2.653336000006534e+000	 0.000000000000000e+000	 9.928780001507535e+001
1	 2.653217605690610e+000	 2.506445262281456e-002	 9.491045371660646e+001
1	 2.652860595591853e+000	 5.022412362489322e-002	 9.060295613413523e+001
1	 2.652262253666700e+000	 7.547610157515745e-002	 8.636625174893764e+001
1	 2.651419898451922e+000	 1.008174001107879e-001	 8.220143817184588e+001
1	 2.650330885169382e+000	 1.262449580728870e-001	 7.810976852802497e+001
1	 2.648992607850320e+000	 1.517556397054235e-001	 7.409265364373351e+001
1	 2.647402501477304e+000	 1.773462349189483e-001	 7.015166402390602e+001
1	 2.645558044141876e+000	 2.030134596205188e-001	 6.628853160945502e+001
1	 2.643456759215848e+000	 2.287539561112104e-001	 6.250515130328591e+001
1	 2.641096217534166e+000	 2.545642935525384e-001	 5.880358225414457e+001
1	 2.680004000009550e+000	 0.000000000000000e+000	 1.007957432754194e+002
1	 2.679884415742721e+000	 2.531636901188953e-002	 9.622530376006543e+001
1	 2.679523817427007e+000	 5.072891341839956e-002	 9.173447921387287e+001
1	 2.678919461720578e+000	 7.623469252642372e-002	 8.732419189831138e+001
1	 2.678068640209494e+000	 1.018306899579955e-001	 8.299551337447741e+001
1	 2.676968681533611e+000	 1.275138137873141e-001	 7.874966693375488e+001
1	 2.675616953532235e+000	 1.532808967416889e-001	 7.458802983702601e+001
1	 2.674010865407591e+000	 1.791286964679060e-001	 7.051213535133800e+001
1	 2.672147869904146e+000	 2.050538958654672e-001	 6.652367457297737e+001
1	 2.670025465501747e+000	 2.310531034880989e-001	 6.262449802598601e+001
1	 2.667641198620404e+000	 2.571228540148596e-001	 5.881661702526482e+001
1	 2.706672000012267e+000	 0.000000000000000e+000	 1.021171686513020e+002
1	 2.706551225794539e+000	 2.556828540106636e-002	 9.736177043001386e+001
1	 2.706187039261895e+000	 5.123370321207944e-002	 9.269591204461666e+001
1	 2.705576669774231e+000	 7.699328347790951e-002	 8.812046499130466e+001
1	 2.704717381966886e+000	 1.028439798054474e-001	 8.363644423702408e+001
1	 2.703606477897717e+000	 1.287826695019940e-001	 7.924501069580204e+001
1	 2.702241299214084e+000	 1.548061537782039e-001	 7.494747352344322e+001
1	 2.700619229337863e+000	 1.809111580171026e-001	 7.074529221967065e+001
1	 2.698737695666448e+000	 2.070943321106422e-001	 6.664007852681667e+001
1	 2.696594171787714e+000	 2.333522508652042e-001	 6.263359811423322e+001
1	 2.694186179706736e+000	 2.596814144773962e-001	 5.872777203768452e+001
1	 2.733340000014584e+000	 0.000000000000000e+000	 1.032523907530889e+002
1	 2.733218035845967e+000	 2.582020179029416e-002	 9.832044049622023e+001
1	 2.732850261096416e+000	 5.173849300584640e-002	 9.348807335596423e+001
1	 2.732233877827550e+000	 7.775187442950614e-002	 8.875608239790326e+001
1	 2.731366123723988e+000	 1.038572696530241e-001	 8.412539637030744e+001
1	 2.730244274261579e+000	 1.300515252168051e-001	 7.959708222600960e+001
1	 2.728865644895743e+000	 1.563314108148520e-001	 7.517234747567403e+001
1	 2.727227593267996e+000	 1.826936195664325e-001	 7.085254236180576e+001
1	 2.725327521428660e+000	 2.091347683559510e-001	 6.663916184285942e+001
1	 2.723162878073631e+000	 2.356513982424473e-001	 6.253384737684512e+001
1	 2.720731160793048e+000	 2.622399749400806e-001	 5.853838849390299e+001
1	 2.760008000016400e+000	 0.000000000000000e+000	 1.042017120317182e+002
1	 2.759884845896901e+000	 2.607211817952203e-002	 9.910187805029023e+001
1	 2.759513482930462e+000	 5.224328279961397e-002	 9.411175023429560e+001
1	 2.758891085880423e+000	 7.851046538110483e-002	 8.923201639948513e+001
1	 2.758014865480682e+000	 1.048705595006057e-001	 8.446349033526161e+001
1	 2.756882070625080e+000	 1.313203809316261e-001	 7.980711437207172e+001
1	 2.755489990577086e+000	 1.578566678515173e-001	 7.526396179637965e+001
1	 2.753835957197865e+000	 1.844760811157896e-001	 7.083523910294393e+001
1	 2.751917347190656e+000	 2.111752046013007e-001	 6.652228807410384e+001
1	 2.749731584359378e+000	 2.379505456197489e-001	 6.232658767579589e+001
1	 2.747276141879232e+000	 2.647985354028454e-001	 5.824975576006587e+001
1	 2.786676000017617e+000	 0.000000000000000e+000	 1.049654233605156e+002
1	 2.786551655947241e+000	 2.632403456869907e-002	 9.970662559079455e+001
1	 2.786176704763929e+000	 5.274807259329568e-002	 9.456769963687212e+001
1	 2.785548293932743e+000	 7.926905633259697e-002	 8.954920205917466e+001
1	 2.784663607236856e+000	 1.058838493480727e-001	 8.465180379853064e+001
1	 2.783519866988098e+000	 1.325892366463356e-001	 7.987629278913494e+001
1	 2.782114336257991e+000	 1.593819248880836e-001	 7.522357643840863e+001
1	 2.780444321127344e+000	 1.862585426650683e-001	 7.069468396394541e+001
1	 2.778507172952311e+000	 2.132156408465986e-001	 6.629076857769616e+001
1	 2.776300290644838e+000	 2.402496929970298e-001	 6.201310950752581e+001
1	 2.773821122965178e+000	 2.673570958656236e-001	 5.786311384628927e+001
1	 2.813344000018133e+000	 0.000000000000000e+000	 1.055438045839190e+002
1	 2.813218465996884e+000	 2.657595095777438e-002	 1.001352050466815e+002
1	 2.812839926596714e+000	 5.325286238680507e-002	 9.485664981982175e+001
1	 2.812205501984400e+000	 8.002764728387371e-002	 8.970853898582263e+001
1	 2.811312348992394e+000	 1.068971391953054e-001	 8.469137356546693e+001
1	 2.810157663350513e+000	 1.338580923608121e-001	 7.980575817651506e+001
1	 2.808738681938335e+000	 1.609071819244348e-001	 7.505240358167521e+001
1	 2.807052685056305e+000	 1.880410042141626e-001	 7.043212911662607e+001
1	 2.805096998713504e+000	 2.152560770917517e-001	 6.594586498878212e+001
1	 2.802868996929889e+000	 2.425488403742108e-001	 6.159465443743950e+001
1	 2.800366104050776e+000	 2.699156563283477e-001	 5.737965574591645e+001
1	 2.840012000017850e+000	 0.000000000000000e+000	 1.059371250352881e+002
1	 2.839885276045730e+000	 2.682786734669706e-002	 1.003881187430293e+002
1	 2.839503148428710e+000	 5.375765218005565e-002	 9.497930168567068e+001
1	 2.838862710035285e+000	 8.078623823482643e-002	 8.971089299860132e+001
1	 2.837961090747182e+000	 1.079104290421840e-001	 8.458319749858954e+001
1	 2.836795459712210e+000	 1.351269480749341e-001	 7.959660838839638e+001
1	 2.835363027617994e+000	 1.624324389604548e-001	 7.475160987612294e+001
1	 2.833661048984628e+000	 1.898234657629666e-001	 7.004877970072029e+001
1	 2.831686824474109e+000	 2.172965133366674e-001	 6.548879155498059e+001
1	 2.829437703214413e+000	 2.448479877512126e-001	 6.107241739724316e+001
1	 2.826911085135918e+000	 2.724742167909504e-001	 5.680052964297922e+001
1	 2.866680000016666e+000	 0.000000000000000e+000	 1.061456440258109e+002
1	 2.866552086093679e+000	 2.707978373541622e-002	 1.004658503128932e+002
1	 2.866166370259814e+000	 5.426244197296101e-002	 9.493633005566058e+001
1	 2.865519918085286e+000	 8.154482918534640e-002	 8.955709769868830e+001
1	 2.864609832501105e+000	 1.089237188885890e-001	 8.432823632896073e+001
1	 2.863433256073065e+000	 1.363958037885802e-001	 7.924990042671890e+001
1	 2.861987373296846e+000	 1.639576959960276e-001	 7.432231855949428e+001
1	 2.860269412912185e+000	 1.916059273113747e-001	 6.954579601151900e+001
1	 2.858276650234000e+000	 2.193369495812528e-001	 6.492071734055466e+001
1	 2.856006409498290e+000	 2.471471351279561e-001	 6.044754885405234e+001
1	 2.853456066220490e+000	 2.750327772533643e-001	 5.612684099644678e+001
1	 2.588006255362404e+000	 2.494471726288108e-001	 5.846623349358960e+001
1	 2.585437191913076e+000	 2.747998888654162e-001	 5.507625171481959e+001
1	 2.582609548986936e+000	 3.002141417369426e-001	 5.176877160961881e+001
1	 2.579521100041420e+000	 3.256864149621451e-001	 4.854429686752098e+001
1	 2.576169673513514e+000	 3.512131247447558e-001	 4.540340913760242e+001
1	 2.572553154955151e+000	 3.767906205842475e-001	 4.234676889617052e+001
1	 2.568669489165140e+000	 4.024151861583352e-001	 3.937511617747812e+001
1	 2.564516682315065e+000	 4.280830402778990e-001	 3.648927116150193e+001
1	 2.560092804066504e+000	 4.537903379149099e-001	 3.369013461297484e+001
1	 2.555395989676932e+000	 4.795331713038518e-001	 3.097868816604154e+001
1	 2.550424442091569e+000	 5.053075711170251e-001	 2.835599444910404e+001
1	 2.614551236448130e+000	 2.520057330904997e-001	 5.868727205405309e+001
1	 2.611955822312248e+000	 2.776184901871920e-001	 5.518294428878782e+001
1	 2.609099176469710e+000	 3.032934150953239e-001	 5.176908296085549e+001
1	 2.605979049540490e+000	 3.290269554674278e-001	 4.844606192592212e+001
1	 2.602593247688028e+000	 3.548154907485161e-001	 4.521432692235004e+001
1	 2.598939634776541e+000	 3.806553329951613e-001	 4.207439661951727e+001
1	 2.595016134524813e+000	 4.065427277670499e-001	 3.902686354321796e+001
1	 2.590820732653894e+000	 4.324738550916992e-001	 3.607239487216592e+001
1	 2.586351479026042e+000	 4.584448305029269e-001	 3.321173309974378e+001
1	 2.581606489772227e+000	 4.844517061535696e-001	 3.044569655528277e+001
1	 2.576583949405427e+000	 5.104904720028427e-001	 2.777517977932050e+001
1	 2.641096217534166e+000	 2.545642935525384e-001	 5.880358225414455e+001
1	 2.638474452711707e+000	 2.804370915093107e-001	 5.519323813156410e+001
1	 2.635588803952722e+000	 3.063726884540587e-001	 5.168110807551493e+001
1	 2.632436999039727e+000	 3.323674959730879e-001	 4.826743339001587e+001
1	 2.629016821862626e+000	 3.584178567526872e-001	 4.495252073810740e+001
1	 2.625326114597917e+000	 3.845200454065251e-001	 4.173674336841346e+001
1	 2.621362779884366e+000	 4.106702693762562e-001	 3.862054223361507e+001
1	 2.617124782992493e+000	 4.368646699060307e-001	 3.560442699486827e+001
1	 2.612610153985244e+000	 4.630993230915091e-001	 3.268897690628726e+001
1	 2.607816989867085e+000	 4.893702410038771e-001	 2.987484157371681e+001
1	 2.602743456718762e+000	 5.156733728892600e-001	 2.716274158214623e+001
1	 2.667641198620404e+000	 2.571228540148596e-001	 5.881661702526482e+001
1	 2.664993083111360e+000	 2.832556928317136e-001	 5.510850579555859e+001
1	 2.662078431435898e+000	 3.094519618130928e-001	 5.150613053255657e+001
1	 2.658894948539081e+000	 3.357080364790731e-001	 4.800959730932246e+001
1	 2.655440396037278e+000	 3.620202227572167e-001	 4.461907059602795e+001
1	 2.651712594419278e+000	 3.883847578182854e-001	 4.133477466249769e+001
1	 2.647709425243826e+000	 4.147978109858976e-001	 3.815699488826360e+001
1	 2.643428833330921e+000	 4.412554847208339e-001	 3.508607897420031e+001
1	 2.638868828944195e+000	 4.677538156805937e-001	 3.212243804986337e+001
1	 2.634027489961617e+000	 4.942887758547080e-001	 2.926654767071893e+001
1	 2.628902964031701e+000	 5.208562737762097e-001	 2.651894869954317e+001
1	 2.694186179706736e+000	 2.596814144773962e-001	 5.872777203768452e+001
1	 2.691511713511108e+000	 2.860742941543416e-001	 5.493006573984962e+001
1	 2.688568058919160e+000	 3.125312351723725e-001	 5.124538332412014e+001
1	 2.685352898038497e+000	 3.390485769853321e-001	 4.767369299025242e+001
1	 2.681863970211957e+000	 3.656225887620534e-001	 4.421501394320890e+001
1	 2.678099074240624e+000	 3.922494702303885e-001	 4.086941796955024e+001
1	 2.674056070603223e+000	 4.189253525959177e-001	 3.763703093769549e+001
1	 2.669732883669233e+000	 4.456462995360488e-001	 3.451803421618585e+001
1	 2.665127503902978e+000	 4.724083082701173e-001	 3.151266600409975e+001
1	 2.660237990055931e+000	 4.992073107059976e-001	 2.862122256779607e+001
1	 2.655062471344379e+000	 5.260391746636258e-001	 2.584405937821095e+001
1	 2.720731160793048e+000	 2.622399749400806e-001	 5.853838849390299e+001
1	 2.718030343910860e+000	 2.888928954771356e-001	 5.465918496900830e+001
1	 2.715057686402431e+000	 3.156105085318434e-001	 5.090005132329293e+001
1	 2.711810847537922e+000	 3.423891174918127e-001	 4.726081527636698e+001
1	 2.708287544386637e+000	 3.692249547671451e-001	 4.374134773908521e+001
1	 2.704485554061953e+000	 3.961141826427811e-001	 4.034156456176949e+001
1	 2.700402715962583e+000	 4.230528942062603e-001	 3.706142822341177e+001
1	 2.696036934007484e+000	 4.500371143516156e-001	 3.390094945608134e+001
1	 2.691386178861675e+000	 4.770628008600171e-001	 3.086018879873533e+001
1	 2.686448490150135e+000	 5.041258455576796e-001	 2.793925807461924e+001
1	 2.681221978656926e+000	 5.312220755514417e-001	 2.513832178645363e+001
1	 2.747276141879232e+000	 2.647985354028454e-001	 5.824975576006587e+001
1	 2.744548974310516e+000	 2.917114968000369e-001	 5.429708151894094e+001
1	 2.741547313885638e+000	 3.186897818914522e-001	 5.047127360881135e+001
1	 2.738268797037303e+000	 3.457296579984634e-001	 4.677201669644301e+001
1	 2.734711118561289e+000	 3.728273207724399e-001	 4.319903041144760e+001
1	 2.730872033883267e+000	 3.999788950554091e-001	 3.975207126443328e+001
1	 2.726749361321934e+000	 4.271804358168683e-001	 3.643093452399461e+001
1	 2.722340984345731e+000	 4.544279291674743e-001	 3.323545604687951e+001
1	 2.717644853820373e+000	 4.817172934502300e-001	 3.016551405560568e+001
1	 2.712658990244341e+000	 5.090443804096893e-001	 2.722103085774777e+001
1	 2.707381485969473e+000	 5.364049764395906e-001	 2.440197450108171e+001
1	 2.773821122965178e+000	 2.673570958656236e-001	 5.786311384628927e+001
1	 2.771067604709985e+000	 2.945300981229868e-001	 5.384492679999652e+001
1	 2.768036941368701e+000	 3.217690552511445e-001	 4.996014565628031e+001
1	 2.764726746536587e+000	 3.490701985052323e-001	 4.620830948919830e+001
1	 2.761134692735884e+000	 3.764296867778861e-001	 4.258898370014794e+001
1	 2.757258513704563e+000	 4.038436074682190e-001	 3.910176210415364e+001
1	 2.753096006681305e+000	 4.313079774276856e-001	 3.574626899359165e+001
1	 2.748645034684032e+000	 4.588187439835653e-001	 3.252216117382842e+001
1	 2.743903528779152e+000	 4.863717860406929e-001	 2.942912996514357e+001
1	 2.738869490338654e+000	 5.139629152619604e-001	 2.646690316521378e+001
1	 2.733540993282150e+000	 5.415878773280060e-001	 2.363524696635683e+001
1	 2.800366104050776e+000	 2.699156563283477e-001	 5.737965574591646e+001
1	 2.797586235109169e+000	 2.973486994459259e-001	 5.330384780681133e+001
1	 2.794526568851548e+000	 3.248483286108667e-001	 4.936772140476828e+001
1	 2.791184696035717e+000	 3.524107390120678e-001	 4.557066751286136e+001
1	 2.787558266910396e+000	 3.800320527834318e-001	 4.191209439594434e+001
1	 2.783644993525842e+000	 4.077083198811574e-001	 3.839142986338800e+001
1	 2.779442652040724e+000	 4.354355190386557e-001	 3.500812351858700e+001
1	 2.774949085022441e+000	 4.632095587998287e-001	 3.176164899987527e+001
1	 2.770162203738096e+000	 4.910262786313429e-001	 2.865150620734098e+001
1	 2.765079990433185e+000	 5.188814501144279e-001	 2.567722350989650e+001
1	 2.759700500595092e+000	 5.467707782166210e-001	 2.283835992683411e+001
1	 2.826911085135918e+000	 2.724742167909504e-001	 5.680052964297922e+001
1	 2.824104865507971e+000	 3.001673007687956e-001	 5.267492920364905e+001
1	 2.821016196334098e+000	 3.279276019705644e-001	 4.869501520696827e+001
1	 2.817642645534646e+000	 3.557512795189181e-001	 4.486002804715476e+001
1	 2.813981841084797e+000	 3.836344187890252e-001	 4.116921598137908e+001
1	 2.810031473347105e+000	 4.115730322941703e-001	 3.762183754736802e+001
1	 2.805789297400218e+000	 4.395630606497219e-001	 3.421716399783662e+001
1	 2.801253135361017e+000	 4.676003736162049e-001	 3.095448174657498e+001
1	 2.796420878697291e+000	 4.956807712221167e-001	 2.783309482082390e+001
1	 2.791290490528042e+000	 5.237999849670262e-001	 2.485232731439474e+001
1	 2.785860007908426e+000	 5.519536791053696e-001	 2.201152583581786e+001
1	 2.853456066220490e+000	 2.750327772533643e-001	 5.612684099644678e+001
1	 2.850623495906301e+000	 3.029859020915370e-001	 5.195921529334476e+001
1	 2.847505823816279e+000	 3.310068753301843e-001	 4.794300367050859e+001
1	 2.844100595033316e+000	 3.590918200257314e-001	 4.407729349469834e+001
1	 2.840405415259059e+000	 3.872367847946143e-001	 4.036117018006810e+001
1	 2.836417953168350e+000	 4.154377447072045e-001	 3.679371976914963e+001
1	 2.832135942759817e+000	 4.436906022608281e-001	 3.337403155144544e+001
1	 2.827557185699815e+000	 4.719911884326337e-001	 3.010120071466669e+001
1	 2.822679553656821e+000	 5.003352638129518e-001	 2.697433102341813e+001
1	 2.817500990623338e+000	 5.287185198196899e-001	 2.399253751990480e+001
1	 2.812019515222285e+000	 5.571365799941846e-001	 2.115494924101872e+001
1	 2.550424442091569e+000	 5.053075711170251e-001	 2.835599444910404e+001
1	 2.545175626282793e+000	 5.311133792549038e-001	 2.582310954336516e+001
1	 2.539648613041488e+000	 5.569426359281883e-001	 2.338117426011103e+001
1	 2.533841822305532e+000	 5.827911868836830e-001	 2.103026447034712e+001
1	 2.527753749957560e+000	 6.086548215885872e-001	 1.877043635997163e+001
1	 2.521382969806465e+000	 6.345292747799887e-001	 1.660172581366002e+001
1	 2.514728135537550e+000	 6.604102280884717e-001	 1.452414778613713e+001
1	 2.507787982628420e+000	 6.862933117354155e-001	 1.253769566131355e+001
1	 2.500561330227559e+000	 7.121741063034355e-001	 1.064234059982268e+001
1	 2.493047082992633e+000	 7.380481445792869e-001	 8.838030875557735e+000
1	 2.485244232885506e+000	 7.639109134684247e-001	 7.124691201870542e+000
1	 2.576583949405427e+000	 5.104904720028427e-001	 2.777517977932050e+001
1	 2.571281296896450e+000	 5.365609683296080e-001	 2.519992790592332e+001
1	 2.565697593505349e+000	 5.626551537016215e-001	 2.271977913482440e+001
1	 2.559831242963416e+000	 5.887688312558329e-001	 2.033461952864624e+001
1	 2.553680725725668e+000	 6.148977472723327e-001	 1.804430118304452e+001
1	 2.547244600972649e+000	 6.410375927397363e-001	 1.584864172731069e+001
1	 2.540521508580615e+000	 6.671840049954465e-001	 1.374742383925294e+001
1	 2.533510171057051e+000	 6.933325694403609e-001	 1.174039477520160e+001
1	 2.526209395438530e+000	 7.194788213274720e-001	 9.827265915990678e+000
1	 2.518618075147866e+000	 7.456182476236749e-001	 8.007712329770822e+000
1	 2.510735191807548e+000	 7.717462889439608e-001	 6.281372352510999e+000
1	 2.602743456718762e+000	 5.156733728892600e-001	 2.716274158214623e+001
1	 2.597386967509508e+000	 5.420085574049052e-001	 2.455098962774775e+001
1	 2.591746573968552e+000	 5.683676714756258e-001	 2.203801785721301e+001
1	 2.585820663620601e+000	 5.947464756285220e-001	 1.962354680643396e+001
1	 2.579607701493043e+000	 6.211406729565766e-001	 1.730724962707381e+001
1	 2.573106232138085e+000	 6.475459106999375e-001	 1.508875168315189e+001
1	 2.566314881622926e+000	 6.739577819028286e-001	 1.296763018702225e+001
1	 2.559232359484934e+000	 7.003718271456700e-001	 1.094341387596336e+001
1	 2.551857460648768e+000	 7.267835363518348e-001	 9.015582730550040e+000
1	 2.544189067302395e+000	 7.531883506683609e-001	 7.183567735927408e+000
1	 2.536226150728920e+000	 7.795816644197814e-001	 5.446750687053651e+000
1	 2.628902964031701e+000	 5.208562737762097e-001	 2.651894869954317e+001
1	 2.623492638122118e+000	 5.474561464807289e-001	 2.387641292882789e+001
1	 2.617795554431263e+000	 5.740801892501384e-001	 2.133587552982037e+001
1	 2.611810084277259e+000	 6.007241200016894e-001	 1.889691505536764e+001
1	 2.605534677259869e+000	 6.273835986412624e-001	 1.655905010128014e+001
1	 2.598967863302959e+000	 6.540542286605391e-001	 1.432173897852624e+001
1	 2.592108254664672e+000	 6.807315588105687e-001	 1.218437944819459e+001
1	 2.584954547912257e+000	 7.074110848512966e-001	 1.014630852081301e+001
1	 2.577505525858459e+000	 7.340882513764790e-001	 8.206802321518602e+000
1	 2.569760059456394e+000	 7.607584537132994e-001	 6.365076022473116e+000
1	 2.561717109649789e+000	 7.874170398958366e-001	 4.620283843812809e+000
1	 2.655062471344379e+000	 5.260391746636258e-001	 2.584405937821095e+001
1	 2.649598308734428e+000	 5.529037355570140e-001	 2.317631137001682e+001
1	 2.643844534893646e+000	 5.797927070250948e-001	 2.061333784231277e+001
1	 2.637799504933566e+000	 6.067017643752749e-001	 1.815459819970392e+001
1	 2.631461653026330e+000	 6.336265243263336e-001	 1.579948014205455e+001
1	 2.624829494467459e+000	 6.605625466214887e-001	 1.354729939226998e+001
1	 2.617901627706041e+000	 6.875053357186183e-001	 1.139729950850976e+001
1	 2.610676736339205e+000	 7.144503425571936e-001	 9.348651782792949e+000
1	 2.603153591067784e+000	 7.413929664013583e-001	 7.400455227818574e+000
1	 2.595331051610041e+000	 7.683285567584446e-001	 5.551736653678666e+000
1	 2.587208068570322e+000	 7.952524153720765e-001	 3.801450835987448e+000
1	 2.681221978656926e+000	 5.312220755514417e-001	 2.513832178645363e+001
1	 2.675703979346590e+000	 5.583513246336942e-001	 2.245079408031701e+001
1	 2.669893515355863e+000	 5.855052248004324e-001	 1.987039104283794e+001
1	 2.663788925589698e+000	 6.126794087492185e-001	 1.739647508396477e+001
1	 2.657388628792607e+000	 6.398694500117333e-001	 1.502832596770952e+001
1	 2.650691125631771e+000	 6.670708645827341e-001	 1.276514057583081e+001
1	 2.643695000747222e+000	 6.942791126269274e-001	 1.060603277593119e+001
1	 2.636398924765966e+000	 7.214896002633147e-001	 8.550033396302434e+000
1	 2.628801656276926e+000	 7.486976814264279e-001	 6.596090309675639e+000
1	 2.620902043763512e+000	 7.758986598037490e-001	 4.743068627844542e+000
1	 2.612699027490689e+000	 8.030877908484521e-001	 2.989751008934292e+000
1	 2.707381485969473e+000	 5.364049764395906e-001	 2.440197450108171e+001
1	 2.701809649958751e+000	 5.637989137107040e-001	 2.169996597098965e+001
1	 2.695942495818080e+000	 5.912177425760865e-001	 1.910702191104408e+001
1	 2.689778346245831e+000	 6.186570531234596e-001	 1.662242923523240e+001
1	 2.683315604558885e+000	 6.461123756974059e-001	 1.424538205904283e+001
1	 2.676552756796084e+000	 6.735791825442223e-001	 1.197498147968487e+001
1	 2.669488373788400e+000	 7.010528895354475e-001	 9.810235479056223e+000
1	 2.662121113192726e+000	 7.285288579696132e-001	 7.750058952163323e+000
1	 2.654449721486068e+000	 7.560023964516416e-001	 5.793273863490049e+000
1	 2.646473035916982e+000	 7.834687628491664e-001	 3.938609533583761e+000
1	 2.638189986411056e+000	 8.109231663249131e-001	 2.184703057891783e+000
1	 2.733540993282150e+000	 5.415878773280060e-001	 2.363524696635684e+001
1	 2.727915320571063e+000	 5.692465027879770e-001	 2.092392793737002e+001
1	 2.721991476280464e+000	 5.969302603519942e-001	 1.832321773264813e+001
1	 2.715767766902137e+000	 6.246346974979377e-001	 1.583234863909304e+001
1	 2.709242580325347e+000	 6.523553013832940e-001	 1.345045076398497e+001
1	 2.702414387960584e+000	 6.800875005059013e-001	 1.117655181268806e+001
1	 2.695281746829769e+000	 7.078266664441295e-001	 9.009577005810973e+000
1	 2.687843301619676e+000	 7.355681156760430e-001	 6.948349138904194e+000
1	 2.680097786695394e+000	 7.633071114769547e-001	 4.991588787531049e+000
1	 2.672044028070629e+000	 7.910388658946514e-001	 3.137914660291592e+000
1	 2.663680945331590e+000	 8.187585418014102e-001	 1.385844102105195e+000
1	 2.759700500595092e+000	 5.467707782166210e-001	 2.283835992683411e+001
1	 2.754020991183672e+000	 5.746940918654475e-001	 2.012277704920449e+001
1	 2.748040456743174e+000	 6.026427781280914e-001	 1.751896627545052e+001
1	 2.741757187558796e+000	 6.306123418725927e-001	 1.502612552832373e+001
1	 2.735169556092172e+000	 6.585982270693414e-001	 1.264334192473208e+001
1	 2.728276019125458e+000	 6.865958184677176e-001	 1.036959153217682e+001
1	 2.721075119871516e+000	 7.146004433529241e-001	 8.203739279756693e+000
1	 2.713565490046998e+000	 7.426073733825569e-001	 6.144539027196085e+000
1	 2.705745851905085e+000	 7.706118265023212e-001	 4.190633795082099e+000
1	 2.697615020224629e+000	 7.986089689401570e-001	 2.340556159207281e+000
1	 2.689171904252460e+000	 8.265939172778939e-001	 5.927288116106129e-001
1	 2.785860007908426e+000	 5.519536791053696e-001	 2.201152583581786e+001
1	 2.780126661796730e+000	 5.801416809430494e-001	 1.929660673026418e+001
1	 2.774089437206379e+000	 6.083552959043150e-001	 1.669425576670110e+001
1	 2.767746608215981e+000	 6.365899862473640e-001	 1.420365618348458e+001
1	 2.761096531859549e+000	 6.648411527554916e-001	 1.182387252588643e+001
1	 2.754137650290895e+000	 6.931041364296191e-001	 9.553850362796844e+000
1	 2.746868492913828e+000	 7.213742202617819e-001	 7.392416171535362e+000
1	 2.739287678474881e+000	 7.496466310891085e-001	 5.338277394603771e+000
1	 2.731393917115323e+000	 7.779165415276959e-001	 3.390022671917921e+000
1	 2.723186012379159e+000	 8.061790719856368e-001	 1.546122251741899e+000
1	 2.714662863173830e+000	 8.344292927543137e-001	-1.950714167835681e-001
1	 2.812019515222285e+000	 5.571365799941846e-001	 2.115494924101872e+001
1	 2.806232332410390e+000	 5.855892700207178e-001	 1.844550692793279e+001
1	 2.800138417670241e+000	 6.140678136806009e-001	 1.584907487172865e+001
1	 2.793736028873866e+000	 6.425676306221915e-001	 1.336484074464144e+001
1	 2.787023507627656e+000	 6.710840784416882e-001	 1.099186636223657e+001
1	 2.779999281457081e+000	 6.996124543915534e-001	 8.729087342188997e+000
1	 2.772661865956895e+000	 7.281479971706544e-001	 6.575312943166354e+000
1	 2.765009866903514e+000	 7.566858887956516e-001	 4.529226088026864e+000
1	 2.757041982326296e+000	 7.852212565530333e-001	 2.589383575226633e+000
1	 2.748757004534392e+000	 8.137491750310452e-001	 7.542164819946112e-001
1	 2.740153822095873e+000	 8.422646682306209e-001	-9.779692375213159e-001
1	 2.485244232885506e+000	 7.639109134684247e-001	 7.124691201870542e+000
1	 2.477151860299458e+000	 7.897578556018046e-001	 5.496629583213650e+000
1	 2.468769133891298e+000	 8.155843702179724e-001	 3.948056411456525e+000
1	 2.460095314090223e+000	 8.413858163563166e-001	 2.478723066584533e+000
1	 2.451129755315018e+000	 8.671575154167841e-001	 1.088369149807167e+000
1	 2.441871907512629e+000	 8.928947534162470e-001	-2.232775239846367e-001
1	 2.432321317635803e+000	 9.185927833090084e-001	-1.456500944983491e+000
1	 2.422477631056948e+000	 9.442468273696871e-001	-2.611596938942502e+000
1	 2.412340592915415e+000	 9.698520796365817e-001	-3.688873209814873e+000
1	 2.401910049395445e+000	 9.954037084134922e-001	-4.688649394964183e+000
1	 2.391185948932115e+000	 1.020896858827830e+000	-5.611257133308078e+000
1	 2.510735191807548e+000	 7.717462889439608e-001	 6.281372352510999e+000
1	 2.502559816378509e+000	 7.978583411747027e-001	 4.642427143624886e+000
1	 2.494091108990538e+000	 8.239497563647817e-001	 3.085143950996116e+000
1	 2.485328322487116e+000	 8.500158459516010e-001	 1.609246914649511e+000
1	 2.476270804665347e+000	 8.760518833470556e-001	 2.144393984773282e-001
1	 2.466917999830329e+000	 9.020531062170464e-001	-1.099596082247474e+000
1	 2.457269450287938e+000	 9.280147188257830e-001	-2.333197930289619e+000
1	 2.447324797773200e+000	 9.539318944431129e-001	-3.486725532901545e+000
1	 2.437083784811378e+000	 9.797997778129441e-001	-4.560559325393587e+000
1	 2.426546256009037e+000	 1.005613487680731e+000	-5.555100851898478e+000
1	 2.415712159272363e+000	 1.031368119377818e+000	-6.470772823390176e+000
1	 2.536226150728920e+000	 7.795816644197814e-001	 5.446750687053651e+000
1	 2.527967772456935e+000	 8.059588267478867e-001	 3.799225481648674e+000
1	 2.519413084089206e+000	 8.323151425118924e-001	 2.235344222672467e+000
1	 2.510561330883490e+000	 8.586458755472128e-001	 7.548175675765427e-001
1	 2.501411854015220e+000	 8.849462512776898e-001	-6.426725610642280e-001
1	 2.491964092147640e+000	 9.112114590182462e-001	-1.957473117573728e+000
1	 2.482217582939757e+000	 9.374366543429982e-001	-3.189960059659356e+000
1	 2.472171964489210e+000	 9.636169615170172e-001	-4.340538459094815e+000
1	 2.461826976707175e+000	 9.897474759898183e-001	-5.409642596349149e+000
1	 2.451182462622545e+000	 1.015823266948505e+000	-6.397736038920250e+000
1	 2.440238369612606e+000	 1.041839379928356e+000	-7.305311703142936e+000
1	 2.561717109649789e+000	 7.874170398958366e-001	 4.620283843812809e+000
1	 2.553375728534892e+000	 8.140593123213009e-001	 2.966477665442703e+000
1	 2.544735059187441e+000	 8.406805286592410e-001	 1.398128480225331e+000
1	 2.535794339279474e+000	 8.672759051430786e-001	-8.505311658054814e-002
1	 2.526552903364751e+000	 8.938406192086001e-001	-1.483392207258558e+000
1	 2.517010184464659e+000	 9.203698118197515e-001	-2.797249767761773e+000
1	 2.507165715591338e+000	 9.468585898605495e-001	-4.027022857624093e+000
1	 2.497019131205037e+000	 9.733020285912878e-001	-5.173144783053114e+000
1	 2.486570168602850e+000	 9.996951741670863e-001	-6.236085232632865e+000
1	 2.475818669235987e+000	 1.026033046216697e+000	-7.216350385096071e+000
1	 2.464764579952845e+000	 1.052310640479326e+000	-8.114482988660148e+000
1	 2.587208068570322e+000	 7.952524153720765e-001	 3.801450835987448e+000
1	 2.578783684612534e+000	 8.221597978948896e-001	 2.143658318162103e+000
1	 2.570057034285386e+000	 8.490459148067618e-001	 5.729888156837732e-001
1	 2.561027347675200e+000	 8.759059347391240e-001	-9.108340417257527e-001
1	 2.551693952714053e+000	 9.027349871397038e-001	-2.308128250121169e+000
1	 2.542056276781484e+000	 9.295281646214674e-001	-3.619253726113318e+000
1	 2.532113848242760e+000	 9.562805253783324e-001	-4.844612566517642e+000
1	 2.521866297920744e+000	 9.829870956658126e-001	-5.984649271954874e+000
1	 2.511313360498441e+000	 1.009642872344632e+000	-7.039850933533241e+000
1	 2.500454875849389e+000	 1.036242825485187e+000	-8.010747381790804e+000
1	 2.489290790293080e+000	 1.062781901030612e+000	-8.897911297128170e+000
1	 2.612699027490689e+000	 8.030877908484521e-001	 2.989751008934292e+000
1	 2.604191640690019e+000	 8.302602834685960e-001	 1.330262566446152e+000
1	 2.595379009383188e+000	 8.574113009543917e-001	-2.405628571839841e-001
1	 2.586260356070796e+000	 8.845359643352752e-001	-1.722975812206613e+000
1	 2.576835002063240e+000	 9.116293550709154e-001	-3.117273449252856e+000
1	 2.567102369098211e+000	 9.386865174232990e-001	-4.423799897293668e+000
1	 2.557061980894103e+000	 9.657024608962423e-001	-5.642946599287868e+000
1	 2.546713464636391e+000	 9.926721627404799e-001	-6.775152604311708e+000
1	 2.536056552393992e+000	 1.019590570522337e+000	-7.820904815022032e+000
1	 2.525091082462769e+000	 1.046452604753855e+000	-8.780738189366053e+000
1	 2.513817000633315e+000	 1.073253161582096e+000	-9.655235895517397e+000
1	 2.638189986411056e+000	 8.109231663249131e-001	 2.184703057891783e+000
1	 2.629599596767505e+000	 8.383607690423659e-001	 5.258050498651462e-001
1	 2.620700984480991e+000	 8.657766871020663e-001	-1.042995760487674e+000
1	 2.611493364466391e+000	 8.931659939314580e-001	-2.521911616892441e+000
1	 2.601976051412428e+000	 9.205237230021509e-001	-3.911205384427384e+000
1	 2.592148461414938e+000	 9.478448702251517e-001	-5.211191015169402e+000
1	 2.582010113545447e+000	 9.751243964141759e-001	-6.422233966057174e+000
1	 2.571560631352037e+000	 1.002357229815177e+000	-7.544751567498001e+000
1	 2.560799744289543e+000	 1.029538268700084e+000	-8.579213341312270e+000
1	 2.549727289076148e+000	 1.056662384022583e+000	-9.526141266679938e+000
1	 2.538343210973550e+000	 1.083724422133662e+000	-1.038610999283007e+001
1	 2.663680945331590e+000	 8.187585418014102e-001	 1.385844102105195e+000
1	 2.655007552845147e+000	 8.464612546161422e-001	-2.701810127561917e-001
1	 2.646022959578938e+000	 8.741420732497217e-001	-1.834761154846605e+000
1	 2.636726372862116e+000	 9.017960235275986e-001	-3.308058062489553e+000
1	 2.627117100761730e+000	 9.294180909333258e-001	-4.690287181932930e+000
1	 2.617194553731764e+000	 9.570032230269308e-001	-5.981718225170324e+000
1	 2.606958246196869e+000	 9.845463319320279e-001	-7.182675676190332e+000
1	 2.596407798067744e+000	 1.012042296889793e+000	-8.293539243938380e+000
1	 2.585542936185135e+000	 1.039485966877756e+000	-9.314744260346101e+000
1	 2.574363495689549e+000	 1.066872163291252e+000	-1.024678202186039e+001
1	 2.562869421313786e+000	 1.094195682685192e+000	-1.109020007298633e+001
1	 2.689171904252460e+000	 8.265939172778939e-001	 5.927288116106129e-001
1	 2.680415508923102e+000	 8.545617401898698e-001	-1.058144703912821e+000
1	 2.671344934677172e+000	 8.825074593972931e-001	-2.616293190684401e+000
1	 2.661959381258101e+000	 9.104260531236234e-001	-4.081815959462092e+000
1	 2.652258150111261e+000	 9.383124588643561e-001	-5.454868199603023e+000
1	 2.642240646048783e+000	 9.661615758285405e-001	-6.735661633529885e+000
1	 2.631906378848450e+000	 9.939682674496944e-001	-7.924465117494806e+000
1	 2.621254964783572e+000	 1.021727363964215e+000	-9.021605186705832e+000
1	 2.610286128080809e+000	 1.049433665055237e+000	-1.002746654295174e+001
1	 2.598999702302992e+000	 1.077081942559741e+000	-1.094249248294080e+001
1	 2.587395631654025e+000	 1.104666943236571e+000	-1.176718526565222e+001
1	 2.714662863173830e+000	 8.344292927543137e-001	-1.950714167835681e-001
1	 2.705823465001528e+000	 8.626622257634926e-001	-1.838518238381277e+000
1	 2.696666909775837e+000	 8.908728455447167e-001	-3.388009711561501e+000
1	 2.687192389654475e+000	 9.190560827194575e-001	-4.843571063673657e+000
1	 2.677399199461134e+000	 9.472068267951564e-001	-6.205284673252419e+000
1	 2.667286738366093e+000	 9.753199286298869e-001	-7.473290825580979e+000
1	 2.656854511500270e+000	 1.003390202967071e+000	-8.647788414056755e+000
1	 2.646102131499581e+000	 1.031412431038331e+000	-9.729035585226622e+000
1	 2.635029319976607e+000	 1.059381363232407e+000	-1.071735032542847e+001
1	 2.623635908916500e+000	 1.087291721827933e+000	-1.161311098705214e+001
1	 2.611921841994267e+000	 1.115138203787681e+000	-1.241675675251567e+001
1	 2.740153822095873e+000	 8.422646682306209e-001	-9.779692375213159e-001
1	 2.731231421080580e+000	 8.707627113369549e-001	-2.611717747800415e+000
1	 2.721988884875082e+000	 8.992382316919291e-001	-4.150313012668081e+000
1	 2.712425398051369e+000	 9.276861123150280e-001	-5.593694776632926e+000
1	 2.702540248811464e+000	 9.561011947256431e-001	-6.941860327031242e+000
1	 2.692332830683795e+000	 9.844782814308750e-001	-8.194865355122483e+000
1	 2.681802644152406e+000	 1.012812138484053e+000	-9.352824764103833e+000
1	 2.670949298215834e+000	 1.041097498112028e+000	-1.041591342173606e+001
1	 2.659772511872570e+000	 1.069329061409152e+000	-1.138436685533618e+001
1	 2.648272115530094e+000	 1.097501501095708e+000	-1.225848188696330e+001
1	 2.636448052334516e+000	 1.125609464338406e+000	-1.303861720670195e+001
1	 2.391185948932115e+000	 1.020896858827830e+000	-5.611257133308078e+000
1	 2.380170018213486e+000	 1.046322846371298e+000	-6.462004960368068e+000
1	 2.368860828443987e+000	 1.071680609277310e+000	-7.245884123643540e+000
1	 2.357258643002612e+000	 1.096965242574563e+000	-7.962348523891196e+000
1	 2.345363831499277e+000	 1.122171828923650e+000	-8.610835510475908e+000
1	 2.333176870580242e+000	 1.147295441416840e+000	-9.190766941549214e+000
1	 2.320698344647250e+000	 1.172331146418369e+000	-9.701550316838985e+000
1	 2.307928946488350e+000	 1.197274006442202e+000	-1.014257998203033e+001
1	 2.294869477818497e+000	 1.222119083064165e+000	-1.051323840349863e+001
1	 2.281520849728123e+000	 1.246861439865192e+000	-1.081289751193351e+001
1	 2.267884083038025e+000	 1.271496145402371e+000	-1.104092011317150e+001
1	 2.415712159272363e+000	 1.031368119377818e+000	-6.470772823390174e+000
1	 2.404583238999920e+000	 1.057054899319571e+000	-7.312741654970733e+000
1	 2.393158051741089e+000	 1.082672754848955e+000	-8.085828870650717e+000
1	 2.381436863576317e+000	 1.108216730684771e+000	-8.789552868390292e+000
1	 2.369420047906573e+000	 1.133681859050856e+000	-9.423421456585922e+000
1	 2.357108086267037e+000	 1.159063162504583e+000	-9.986932890059373e+000
1	 2.344501569053610e+000	 1.184355656806279e+000	-1.047957696846505e+001
1	 2.331601196160210e+000	 1.209554353826513e+000	-1.090083619599989e+001
1	 2.318407777524915e+000	 1.234654264488092e+000	-1.125018700110412e+001
1	 2.304922233583135e+000	 1.259650401739496e+000	-1.152710101464362e+001
1	 2.291145595626142e+000	 1.284537783556398e+000	-1.173104640486811e+001
1	 2.440238369612606e+000	 1.041839379928356e+000	-7.305311703142936e+000
1	 2.428996459786430e+000	 1.067786952268393e+000	-8.137363849636326e+000
1	 2.417455275038343e+000	 1.093664900421135e+000	-8.898544216806432e+000
1	 2.405615084150245e+000	 1.119468218795488e+000	-9.588461015372998e+000
1	 2.393476264314157e+000	 1.145191889178536e+000	-1.020671972990169e+001
1	 2.381039301954177e+000	 1.170830883592758e+000	-1.075292410620582e+001
1	 2.368304793460358e+000	 1.196380167194577e+000	-1.122667718719015e+001
1	 2.355273445832485e+000	 1.221834701211166e+000	-1.162758239592308e+001
1	 2.341946077231757e+000	 1.247189445912312e+000	-1.195524466455920e+001
1	 2.328323617438561e+000	 1.272439363614045e+000	-1.220927160757138e+001
1	 2.314407108214644e+000	 1.297579421710628e+000	-1.238927473758863e+001
1	 2.464764579952845e+000	 1.052310640479326e+000	-8.114482988660148e+000
1	 2.453409680572995e+000	 1.078519005217651e+000	-8.935303287871498e+000
1	 2.441752498335712e+000	 1.104657045993749e+000	-9.683320463888546e+000
1	 2.429793304724341e+000	 1.130719706906630e+000	-1.035825710235593e+001
1	 2.417532480721959e+000	 1.156701919306625e+000	-1.095984279063741e+001
1	 2.404970517641571e+000	 1.182598604681319e+000	-1.148781503259545e+001
1	 2.392108017867391e+000	 1.208404677583234e+000	-1.194192019410804e+001
1	 2.378945695505065e+000	 1.234115048596146e+000	-1.232191447800735e+001
1	 2.365484376938910e+000	 1.259724627336829e+000	-1.262756492700341e+001
1	 2.351725001294287e+000	 1.285228325488860e+000	-1.285865045303589e+001
1	 2.337668620803414e+000	 1.310621059865093e+000	-1.301496289137913e+001
1	 2.489290790293080e+000	 1.062781901030612e+000	-8.897911297128170e+000
1	 2.477822901359597e+000	 1.089251058167239e+000	-9.706014108604435e+000
1	 2.466049721633156e+000	 1.115649191566700e+000	-1.043947588342200e+001
1	 2.453971525298550e+000	 1.141971195018112e+000	-1.109815742061656e+001
1	 2.441588697129901e+000	 1.168211949435054e+000	-1.168193807762461e+001
1	 2.428901733329134e+000	 1.194366325770216e+000	-1.219071658875505e+001
1	 2.415911242274610e+000	 1.220429187972218e+000	-1.262441189301602e+001
1	 2.402617945177838e+000	 1.246395395981444e+000	-1.298296396987701e+001
1	 2.389022676646253e+000	 1.272259808761648e+000	-1.326633468147755e+001
1	 2.375126385150191e+000	 1.298017287363961e+000	-1.347450861972503e+001
1	 2.360930133392335e+000	 1.323662698019824e+000	-1.360749395666108e+001
1	 2.513817000633315e+000	 1.073253161582096e+000	-9.655235895517397e+000
1	 2.502236122146217e+000	 1.099983111117045e+000	-1.044897175367338e+001
1	 2.490346944930636e+000	 1.126641337139889e+000	-1.116635535223612e+001
1	 2.478149745872810e+000	 1.153222683129850e+000	-1.180740884664265e+001
1	 2.465644913537911e+000	 1.179721979563755e+000	-1.237218630195732e+001
1	 2.452832949016774e+000	 1.206134046859399e+000	-1.286077439168501e+001
1	 2.439714466681911e+000	 1.232453698361500e+000	-1.327329308092974e+001
1	 2.426290194850694e+000	 1.258675743367047e+000	-1.360989629237274e+001
1	 2.412560976353672e+000	 1.284794990186778e+000	-1.387077255353436e+001
1	 2.398527769006154e+000	 1.310806249239369e+000	-1.405614562377880e+001
1	 2.384191645981290e+000	 1.336704336174856e+000	-1.416627509952028e+001
1	 2.538343210973550e+000	 1.083724422133662e+000	-1.038610999283007e+001
1	 2.526649342932838e+000	 1.110715164066960e+000	-1.116367193865230e+001
1	 2.514644168228117e+000	 1.137633482713217e+000	-1.186332906712388e+001
1	 2.502327966447069e+000	 1.164474171241759e+000	-1.248528736451645e+001
1	 2.489701129945919e+000	 1.191232009692661e+000	-1.302979983956092e+001
1	 2.476764164704405e+000	 1.217901767948820e+000	-1.349716707957401e+001
1	 2.463517691089194e+000	 1.244478208751050e+000	-1.388773776234131e+001
1	 2.449962444523521e+000	 1.270956090752944e+000	-1.420190912212125e+001
1	 2.436099276061050e+000	 1.297330171612221e+000	-1.444012736819479e+001
1	 2.421929152862056e+000	 1.323595211115106e+000	-1.460288805445184e+001
1	 2.407453158570164e+000	 1.349745974330221e+000	-1.469073639857656e+001
1	 2.562869421313786e+000	 1.094195682685192e+000	-1.109020007298633e+001
1	 2.551062563719440e+000	 1.121447217016874e+000	-1.184962968277047e+001
1	 2.538941391525559e+000	 1.148625628286586e+000	-1.252979133330398e+001
1	 2.526506187021271e+000	 1.175725659353757e+000	-1.313109667314200e+001
1	 2.513757346353844e+000	 1.202742039821704e+000	-1.365402121605777e+001
1	 2.500695380391937e+000	 1.229669489038429e+000	-1.409910473176448e+001
1	 2.487320915496360e+000	 1.256502719140836e+000	-1.446695156027103e+001
1	 2.473634694196210e+000	 1.283236438139122e+000	-1.475823084812447e+001
1	 2.459637575768267e+000	 1.309865353037983e+000	-1.497367670493020e+001
1	 2.445330536717780e+000	 1.336384172991190e+000	-1.511408827868861e+001
1	 2.430714671158838e+000	 1.362787612485952e+000	-1.518032974863927e+001
1	 2.587395631654025e+000	 1.104666943236571e+000	-1.176718526565222e+001
1	 2.575475784506004e+000	 1.132179269966677e+000	-1.250637839400516e+001
1	 2.563238614822923e+000	 1.159617773859896e+000	-1.316515942178880e+001
1	 2.550684407595356e+000	 1.186977147465758e+000	-1.374416687268602e+001
1	 2.537813562761619e+000	 1.214252069950818e+000	-1.424412167780597e+001
1	 2.524626596079279e+000	 1.241437210128177e+000	-1.466582737858175e+001
1	 2.511124139903305e+000	 1.268527229530830e+000	-1.501017021768974e+001
1	 2.497306943868649e+000	 1.295516785525570e+000	-1.527811911612967e+001
1	 2.483175875475209e+000	 1.322400534464070e+000	-1.547072553482937e+001
1	 2.468731920573206e+000	 1.349173134867645e+000	-1.558912321937585e+001
1	 2.453976183747196e+000	 1.375829250642081e+000	-1.563452782671700e+001
1	 2.611921841994267e+000	 1.115138203787681e+000	-1.241675675251566e+001
1	 2.599889005292512e+000	 1.142911322916259e+000	-1.313346900572084e+001
1	 2.587535838120173e+000	 1.170609919433050e+000	-1.376887249112910e+001
1	 2.574862628169269e+000	 1.198228635577678e+000	-1.432385322502545e+001
1	 2.561869779169168e+000	 1.225762100079934e+000	-1.479939984344647e+001
1	 2.548557811766347e+000	 1.253204931218014e+000	-1.519660359512063e+001
1	 2.534927364309929e+000	 1.280551739920999e+000	-1.551665818337229e+001
1	 2.520979193540728e+000	 1.307797132912276e+000	-1.576085945501062e+001
1	 2.506714175181758e+000	 1.334935715890488e+000	-1.593060493454836e+001
1	 2.492133304428215e+000	 1.361962096744488e+000	-1.602739320242863e+001
1	 2.477237696335122e+000	 1.388870888798642e+000	-1.605282311628292e+001
1	 2.636448052334516e+000	 1.125609464338406e+000	-1.303861720670195e+001
1	 2.624302226078947e+000	 1.153643375865511e+000	-1.373046916149799e+001
1	 2.611833061417271e+000	 1.181602065005949e+000	-1.434039056934278e+001
1	 2.599040848742955e+000	 1.209480123689433e+000	-1.486953498338254e+001
1	 2.585925995576417e+000	 1.237272130208986e+000	-1.531918043071611e+001
1	 2.572489027453051e+000	 1.264972652307893e+000	-1.569072917352174e+001
1	 2.558730588716130e+000	 1.292576250311315e+000	-1.598570727668343e+001
1	 2.544651443212335e+000	 1.320077480299228e+000	-1.620576397981951e+001
1	 2.530252474887798e+000	 1.347470897317242e+000	-1.635267087204331e+001
1	 2.515534688282688e+000	 1.374751058621742e+000	-1.642832086822835e+001
1	 2.500499208922499e+000	 1.401912526955667e+000	-1.643472698600214e+001
1	 2.267884083038025e+000	 1.271496145402371e+000	-1.104092011317150e+001
1	 2.253958198620401e+000	 1.296021946435735e+000	-1.121637356295968e+001
1	 2.239746463665040e+000	 1.320430225689309e+000	-1.135868744834089e+001
1	 2.225250231807174e+000	 1.344716083974012e+000	-1.146788348262412e+001
1	 2.210470966914092e+000	 1.368874639231026e+000	-1.154403024363329e+001
1	 2.195410242948957e+000	 1.392901029590033e+000	-1.158724315853430e+001
1	 2.180069743733891e+000	 1.416790416433498e+000	-1.159768441467170e+001
1	 2.164451262611717e+000	 1.440537987463155e+000	-1.157556279598153e+001
1	 2.148556702005920e+000	 1.464138959764830e+000	-1.152113344472268e+001
1	 2.132388072878528e+000	 1.487588582867686e+000	-1.143469754844858e+001
1	 2.115947494085821e+000	 1.510882141793964e+000	-1.131660195232079e+001
1	 2.291145595626142e+000	 1.284537783556398e+000	-1.173104640486811e+001
1	 2.277076874483293e+000	 1.309315143844457e+000	-1.188187572728858e+001
1	 2.262719370855698e+000	 1.333973776940951e+000	-1.199977656642175e+001
1	 2.248074452262729e+000	 1.358508733406175e+000	-1.208482660358123e+001
1	 2.233143597586459e+000	 1.382915081106391e+000	-1.213714806950207e+001
1	 2.217928396934077e+000	 1.407187908303436e+000	-1.215690761730681e+001
1	 2.202430551398550e+000	 1.431322326750428e+000	-1.214431612459477e+001
1	 2.186651872716886e+000	 1.455313474789711e+000	-1.209962842448273e+001
1	 2.170594282825593e+000	 1.479156520449109e+000	-1.202314296559582e+001
1	 2.154259813312990e+000	 1.502846664532555e+000	-1.191520140117966e+001
1	 2.137650604768313e+000	 1.526379143701107e+000	-1.177618810767936e+001
1	 2.314407108214644e+000	 1.297579421710628e+000	-1.238927473758863e+001
1	 2.300195550346515e+000	 1.322608341253345e+000	-1.251583097444788e+001
1	 2.285692278046610e+000	 1.347517328192726e+000	-1.260978399436533e+001
1	 2.270898672718448e+000	 1.372301382838444e+000	-1.267124455236744e+001
1	 2.255816228258888e+000	 1.396955522981840e+000	-1.270036480496068e+001
1	 2.240446550919154e+000	 1.421474787016904e+000	-1.269733810805482e+001
1	 2.224791359063059e+000	 1.445854237067408e+000	-1.266239874895318e+001
1	 2.208852482821807e+000	 1.470088962116305e+000	-1.259582161243757e+001
1	 2.192631863644929e+000	 1.494174081133418e+000	-1.249792178113588e+001
1	 2.176131553747041e+000	 1.518104746197447e+000	-1.236905407052120e+001
1	 2.159353715450340e+000	 1.541876145608267e+000	-1.220961249905361e+001
1	 2.337668620803414e+000	 1.310621059865093e+000	-1.301496289137913e+001
1	 2.323314226209956e+000	 1.335901538662437e+000	-1.311772031742312e+001
1	 2.308665185237677e+000	 1.361060879444680e+000	-1.318829935853474e+001
1	 2.293722893174245e+000	 1.386094032270866e+000	-1.322682169917179e+001
1	 2.278488858931313e+000	 1.410995964857420e+000	-1.323344646026463e+001
1	 2.262964704904139e+000	 1.435761665730482e+000	-1.320836995827034e+001
1	 2.247152166727390e+000	 1.460386147384479e+000	-1.315182540504164e+001
1	 2.231053092926468e+000	 1.484864449442972e+000	-1.306408254867625e+001
1	 2.214669444463933e+000	 1.509191641817784e+000	-1.294544725565771e+001
1	 2.198003294180702e+000	 1.533362827862384e+000	-1.279626103474322e+001
1	 2.181056826131934e+000	 1.557373147515461e+000	-1.261690050319932e+001
1	 2.360930133392335e+000	 1.323662698019824e+000	-1.360749395666108e+001
1	 2.346432902073507e+000	 1.349194736071776e+000	-1.368704522287141e+001
1	 2.331638092428801e+000	 1.374604430696857e+000	-1.373492845842880e+001
1	 2.316547113630038e+000	 1.399886681703489e+000	-1.375125485339294e+001
1	 2.301161489603666e+000	 1.425036406733176e+000	-1.373616826738194e+001
1	 2.285482858888984e+000	 1.450048544444212e+000	-1.368984498531291e+001
1	 2.269512974391514e+000	 1.474918057701679e+000	-1.361249342248246e+001
1	 2.253253703030859e+000	 1.499639936769747e+000	-1.350435377923182e+001
1	 2.236707025282611e+000	 1.524209202502237e+000	-1.336569764556496e+001
1	 2.219875034613992e+000	 1.548620909527387e+000	-1.319682755621227e+001
1	 2.202759936813130e+000	 1.572870149422705e+000	-1.299807649675463e+001
1	 2.384191645981290e+000	 1.336704336174856e+000	-1.416627509952028e+001
1	 2.369551577937059e+000	 1.362487933481405e+000	-1.422332661333386e+001
1	 2.354610999619883e+000	 1.388147981949305e+000	-1.424929247771116e+001
1	 2.339371334085742e+000	 1.413679331136361e+000	-1.424425265681947e+001
1	 2.323834120275880e+000	 1.439076848609157e+000	-1.420831423013210e+001
1	 2.308001012873640e+000	 1.464335423158140e+000	-1.414161117981575e+001
1	 2.291873782055399e+000	 1.489449968019049e+000	-1.404430413773644e+001
1	 2.275454313134966e+000	 1.514415424096662e+000	-1.391658009234898e+001
1	 2.258744606100967e+000	 1.539226763186804e+000	-1.375865205583137e+001
1	 2.241746775046933e+000	 1.563878991192479e+000	-1.357075869192384e+001
1	 2.224463047493960e+000	 1.588367151330018e+000	-1.335316390502858e+001
1	 2.407453158570164e+000	 1.349745974330221e+000	-1.469073639857655e+001
1	 2.392670253800501e+000	 1.375781130891361e+000	-1.472610392729375e+001
1	 2.377583906810825e+000	 1.401691533202069e+000	-1.473102724097898e+001
1	 2.362195554541274e+000	 1.427471980569528e+000	-1.470553501199005e+001
1	 2.346506750947888e+000	 1.453117290485408e+000	-1.464967670040526e+001
1	 2.330519166858057e+000	 1.478622301872309e+000	-1.456352240744587e+001
1	 2.314234589719017e+000	 1.503981878336627e+000	-1.444716270052653e+001
1	 2.297654923238780e+000	 1.529190911423754e+000	-1.430070841015968e+001
1	 2.280782186919011e+000	 1.554244323871514e+000	-1.412429039900519e+001
1	 2.263618515479547e+000	 1.579137072857684e+000	-1.391805930342421e+001
1	 2.246166158174458e+000	 1.603864153237414e+000	-1.368218524796113e+001
1	 2.430714671158838e+000	 1.362787612485952e+000	-1.518032974863927e+001
1	 2.415788929663723e+000	 1.389074328301687e+000	-1.519493423320490e+001
1	 2.400556814001531e+000	 1.415235084455195e+000	-1.517978251320713e+001
1	 2.385019774996549e+000	 1.441264630003040e+000	-1.513483254337648e+001
1	 2.369179381619623e+000	 1.467157732361976e+000	-1.506005597871426e+001
1	 2.353037320842188e+000	 1.492909180586763e+000	-1.495543812778880e+001
1	 2.336595397382336e+000	 1.518513788654454e+000	-1.482097789137675e+001
1	 2.319855533342289e+000	 1.543966398751055e+000	-1.465668768657850e+001
1	 2.302819767736746e+000	 1.569261884556395e+000	-1.446259335656745e+001
1	 2.285490255911854e+000	 1.594395154523023e+000	-1.423873406616240e+001
1	 2.267869268854655e+000	 1.619361155144911e+000	-1.398516218344430e+001
1	 2.453976183747196e+000	 1.375829250642081e+000	-1.563452782671700e+001
1	 2.438907605526619e+000	 1.402367525712424e+000	-1.562939139390957e+001
1	 2.423529721191897e+000	 1.428778635708728e+000	-1.559522133903628e+001
1	 2.407843995451483e+000	 1.455057279436942e+000	-1.553188608921165e+001
1	 2.391852012291019e+000	 1.481198174238908e+000	-1.543925993746536e+001
1	 2.375555474825982e+000	 1.507196059301545e+000	-1.531722312922190e+001
1	 2.358956205045328e+000	 1.533045698972568e+000	-1.516566194952823e+001
1	 2.342056143445480e+000	 1.558741886078600e+000	-1.498446881100521e+001
1	 2.324857348554177e+000	 1.584279445241475e+000	-1.477354234248789e+001
1	 2.307361996343875e+000	 1.609653236188518e+000	-1.453278747831040e+001
1	 2.289572379534585e+000	 1.634858157052527e+000	-1.426211554817950e+001
1	 2.477237696335122e+000	 1.388870888798642e+000	-1.605282311628292e+001
1	 2.462026281389074e+000	 1.415660723123613e+000	-1.602906527813343e+001
1	 2.446502628381830e+000	 1.442322186962715e+000	-1.597701941928595e+001
1	 2.430668215905994e+000	 1.468849928871283e+000	-1.589644622194840e+001
1	 2.414524642962007e+000	 1.495238616116251e+000	-1.578710366545398e+001
1	 2.398073628809393e+000	 1.521482938016701e+000	-1.564874727872471e+001
1	 2.381317012707962e+000	 1.547577609291011e+000	-1.548113041055084e+001
1	 2.364256753548344e+000	 1.573517373406423e+000	-1.528400451745255e+001
1	 2.346894929371312e+000	 1.599297005926782e+000	-1.505711946883436e+001
1	 2.329233736775630e+000	 1.624911317854192e+000	-1.480022386908644e+001
1	 2.311275490214280e+000	 1.650355158960276e+000	-1.451306539623268e+001
1	 2.500499208922499e+000	 1.401912526955667e+000	-1.643472698600214e+001
1	 2.485144957250983e+000	 1.428953920535294e+000	-1.639356101599232e+001
1	 2.469475535571229e+000	 1.455865738217200e+000	-1.632486452226842e+001
1	 2.453492436359996e+000	 1.482642578306111e+000	-1.622827279548454e+001
1	 2.437197273632522e+000	 1.509279057994052e+000	-1.610340913220352e+001
1	 2.420591782792370e+000	 1.535769816732273e+000	-1.594988528565430e+001
1	 2.403677820370210e+000	 1.562109519609821e+000	-1.576730195301841e+001
1	 2.386457363650868e+000	 1.588292860734559e+000	-1.555524929874670e+001
1	 2.368932510188156e+000	 1.614314566612345e+000	-1.531330751330156e+001
1	 2.351105477207142e+000	 1.640169399520067e+000	-1.504104740661369e+001
1	 2.332978600893775e+000	 1.665852160868178e+000	-1.473803103543781e+001
1	 2.115947494085821e+000	 1.510882141793964e+000	-1.131660195232079e+001
1	 2.099237191034965e+000	 1.534014959583876e+000	-1.117229150501850e+001
1	 2.082259493061532e+000	 1.556982398749111e+000	-1.100718757115342e+001
1	 2.065016834301999e+000	 1.579779865751119e+000	-1.082165852024803e+001
1	 2.047511753248752e+000	 1.602402814479762e+000	-1.061610259978940e+001
1	 2.029746891604005e+000	 1.624846749199451e+000	-1.039094727861336e+001
1	 2.011724993034462e+000	 1.647107227462233e+000	-1.014664854055545e+001
1	 1.993448901827818e+000	 1.669179862983960e+000	-9.883690129630073e+000
1	 1.974921561452375e+000	 1.691060328479696e+000	-9.602582748124899e+000
1	 1.956146013021240e+000	 1.712744358454553e+000	-9.303863209120404e+000
1	 1.937125393662695e+000	 1.734227751946229e+000	-8.988093545063155e+000
1	 2.137650604768313e+000	 1.526379143701107e+000	-1.177618810767936e+001
1	 2.120768905424560e+000	 1.549749233023748e+000	-1.161142642003454e+001
1	 2.103617068509114e+000	 1.572952247445816e+000	-1.142601562561012e+001
1	 2.086197553125190e+000	 1.595983546313200e+000	-1.122005350475583e+001
1	 2.068512923802284e+000	 1.618838536886680e+000	-1.099366138423134e+001
1	 2.050565849338336e+000	 1.641512677318262e+000	-1.074698394526134e+001
1	 2.032359101541615e+000	 1.664001479594162e+000	-1.048018899540242e+001
1	 2.013895553873444e+000	 1.686300512440469e+000	-1.019346720455057e+001
1	 1.995178179993043e+000	 1.708405404187631e+000	-9.887031805505806e+000
1	 1.976210052205971e+000	 1.730311845589922e+000	-9.561118259596485e+000
1	 1.956994339817781e+000	 1.752015592596107e+000	-9.215983887952591e+000
1	 2.159353715450340e+000	 1.541876145608267e+000	-1.220961249905361e+001
1	 2.142300619813662e+000	 1.565483506463633e+000	-1.202475646865718e+001
1	 2.124974643956197e+000	 1.588922096142529e+000	-1.181926661185604e+001
1	 2.107378271947896e+000	 1.612187226875289e+000	-1.159301128232329e+001
1	 2.089514094355360e+000	 1.635274259293601e+000	-1.134587693286010e+001
1	 2.071384807072250e+000	 1.658178605437074e+000	-1.107776832406058e+001
1	 2.052993210048401e+000	 1.680895731726092e+000	-1.078860870850579e+001
1	 2.034342205918758e+000	 1.703421161896978e+000	-1.047833999000942e+001
1	 2.015434798533458e+000	 1.725750479895566e+000	-1.014692285749112e+001
1	 1.996274091390502e+000	 1.747879332725291e+000	-9.794336893109868e+000
1	 1.976863285972716e+000	 1.769803433245986e+000	-9.420580654346479e+000
1	 2.181056826131934e+000	 1.557373147515461e+000	-1.261690050319932e+001
1	 2.163832334202313e+000	 1.581217779903542e+000	-1.241233244177367e+001
1	 2.146332219402827e+000	 1.604891944839259e+000	-1.218703462981549e+001
1	 2.128558990770164e+000	 1.628390907437387e+000	-1.194068596801587e+001
1	 2.110515264908027e+000	 1.651709981700529e+000	-1.167297887372325e+001
1	 2.092203764805794e+000	 1.674844533555892e+000	-1.138361982729504e+001
1	 2.073627318554861e+000	 1.697789983858026e+000	-1.107232990389921e+001
1	 2.054788857963797e+000	 1.720541811353488e+000	-1.073884528960546e+001
1	 2.035691417073644e+000	 1.743095555603501e+000	-1.038291778063108e+001
1	 2.016338130574856e+000	 1.765446819860659e+000	-1.000431526463687e+001
1	 1.996732232127518e+000	 1.787591273895864e+000	-9.602822183001019e+000
1	 2.202759936813130e+000	 1.572870149422705e+000	-1.299807649675463e+001
1	 2.185364048590552e+000	 1.596952053343488e+000	-1.277420312856354e+001
1	 2.167689794849050e+000	 1.620861793536015e+000	-1.252941007086320e+001
1	 2.149739709592041e+000	 1.644594587999505e+000	-1.226322560310732e+001
1	 2.131516435460329e+000	 1.668145704107467e+000	-1.197518778505269e+001
1	 2.113022722539009e+000	 1.691510461674715e+000	-1.166484527896807e+001
1	 2.094261427061033e+000	 1.714684235989961e+000	-1.133175816544656e+001
1	 2.075235510008592e+000	 1.737662460810000e+000	-1.097549875110016e+001
1	 2.055948035613634e+000	 1.760440631311437e+000	-1.059565236641856e+001
1	 2.036402169759054e+000	 1.783014306996029e+000	-1.019181815208179e+001
1	 2.016601178282201e+000	 1.805379114545742e+000	-9.763609832029225e+000
1	 2.224463047493960e+000	 1.588367151330018e+000	-1.335316390502858e+001
1	 2.206895762978422e+000	 1.612686326783483e+000	-1.311041541414752e+001
1	 2.189047370294912e+000	 1.636831642232806e+000	-1.284647979873777e+001
1	 2.170920428413575e+000	 1.660798268561644e+000	-1.256077245137615e+001
1	 2.152517606012314e+000	 1.684581426514421e+000	-1.225271563673997e+001
1	 2.133841680271940e+000	 1.708176389793547e+000	-1.192173952889419e+001
1	 2.114895535566959e+000	 1.731578488121902e+000	-1.156728324859633e+001
1	 2.095682162053178e+000	 1.754783110266514e+000	-1.118879589845880e+001
1	 2.076204654153453e+000	 1.777785707019373e+000	-1.078573759379133e+001
1	 2.056466208943119e+000	 1.800581794131398e+000	-1.035758048693809e+001
1	 2.036470124436785e+000	 1.823166955195621e+000	-9.903809782920659e+000
1	 2.246166158174458e+000	 1.603864153237414e+000	-1.368218524796113e+001
1	 2.228427477365963e+000	 1.628420600223541e+000	-1.342101437157543e+001
1	 2.210404945740458e+000	 1.652801490929641e+000	-1.313832731996690e+001
1	 2.192101147234814e+000	 1.677001949123813e+000	-1.283346327822495e+001
1	 2.173518776564031e+000	 1.701017148921394e+000	-1.250576620621800e+001
1	 2.154660638004631e+000	 1.724842317912389e+000	-1.215458603118946e+001
1	 2.135529644072676e+000	 1.748472740253847e+000	-1.177927984507518e+001
1	 2.116128814097590e+000	 1.771903759723029e+000	-1.137921310406019e+001
1	 2.096461272693131e+000	 1.795130782727311e+000	-1.095376082786269e+001
1	 2.076530248127072e+000	 1.818149281266767e+000	-1.050230879621233e+001
1	 2.056339070591284e+000	 1.840954795845499e+000	-1.002425473997519e+001
1	 2.267869268854655e+000	 1.619361155144911e+000	-1.398516218344430e+001
1	 2.249959191753217e+000	 1.644154873663671e+000	-1.370604334853219e+001
1	 2.231762521185734e+000	 1.668771339626526e+000	-1.340503294450698e+001
1	 2.213281866055804e+000	 1.693205629686017e+000	-1.308142961377281e+001
1	 2.194519947115524e+000	 1.717452871328388e+000	-1.273453547046268e+001
1	 2.175479595737126e+000	 1.741508246031245e+000	-1.236365738954565e+001
1	 2.156163752578225e+000	 1.765366992385799e+000	-1.196810830367398e+001
1	 2.136575466141861e+000	 1.789024409179548e+000	-1.154720850508344e+001
1	 2.116717891232695e+000	 1.812475858435248e+000	-1.110028694982215e+001
1	 2.096594287310937e+000	 1.835716768402137e+000	-1.062668256155363e+001
1	 2.076208016745718e+000	 1.858742636495377e+000	-1.012574553215713e+001
1	 2.289572379534585e+000	 1.634858157052527e+000	-1.426211554817950e+001
1	 2.271490906140224e+000	 1.659889147103888e+000	-1.396554404911229e+001
1	 2.253120096630787e+000	 1.684741188323473e+000	-1.364667393724634e+001
1	 2.234462584876594e+000	 1.709409310248261e+000	-1.330479800098441e+001
1	 2.215521117666840e+000	 1.733888593735408e+000	-1.293921197570003e+001
1	 2.196298553469467e+000	 1.758174174150114e+000	-1.254921587149217e+001
1	 2.176797861083645e+000	 1.782261244517759e+000	-1.213411531003907e+001
1	 2.157022118186025e+000	 1.806145058636070e+000	-1.169322286777514e+001
1	 2.136974509772173e+000	 1.829820934143187e+000	-1.122585942257362e+001
1	 2.116658326494735e+000	 1.853284255537506e+000	-1.073135550108359e+001
1	 2.096076962900100e+000	 1.876530477145256e+000	-1.020905262384452e+001
1	 2.311275490214280e+000	 1.650355158960276e+000	-1.451306539623268e+001
1	 2.293022620527026e+000	 1.675623420544203e+000	-1.419955661098748e+001
1	 2.274477672075661e+000	 1.700711037020488e+000	-1.386332466097269e+001
1	 2.255643303697231e+000	 1.725612990810552e+000	-1.350369022981957e+001
1	 2.236522288218026e+000	 1.750324316142456e+000	-1.311997718628375e+001
1	 2.217117511201701e+000	 1.774840102269001e+000	-1.271151389368409e+001
1	 2.197431969588975e+000	 1.799155496649727e+000	-1.227763452816383e+001
1	 2.177468770230118e+000	 1.823265708092595e+000	-1.181768040302361e+001
1	 2.157231128311593e+000	 1.847166009851127e+000	-1.133100129633460e+001
1	 2.136722365678489e+000	 1.870851742672875e+000	-1.081695677900669e+001
1	 2.115945909054448e+000	 1.894318317795134e+000	-1.027491754046159e+001
1	 2.332978600893775e+000	 1.665852160868178e+000	-1.473803103543781e+001
1	 2.314554334913666e+000	 1.691357693984630e+000	-1.440811967826656e+001
1	 2.295835247520404e+000	 1.716680885717582e+000	-1.405505671136080e+001
1	 2.276824022517764e+000	 1.741816671372895e+000	-1.367822355831308e+001
1	 2.257523458769130e+000	 1.766760038549538e+000	-1.327700581409930e+001
1	 2.237936468933869e+000	 1.791506030387907e+000	-1.285079448010305e+001
1	 2.218066078094256e+000	 1.816049748781706e+000	-1.239898720607448e+001
1	 2.197915422274171e+000	 1.840386357549125e+000	-1.192098953641036e+001
1	 2.177487746850984e+000	 1.864511085559069e+000	-1.141621615810656e+001
1	 2.156786404862220e+000	 1.888419229808245e+000	-1.088409214770505e+001
1	 2.135814855208781e+000	 1.912106158445013e+000	-1.032405421453803e+001
1	 1.937125393662695e+000	 1.734227751946229e+000	-8.988093545063155e+000
1	 1.917865842278389e+000	 1.755503199414275e+000	-8.656983643223208e+000
1	 1.898367848035766e+000	 1.776569877680164e+000	-8.313046966214273e+000
1	 1.878634825537390e+000	 1.797423798768443e+000	-7.958243111641143e+000
1	 1.858670277892823e+000	 1.818061049642710e+000	-7.594566505178805e+000
1	 1.838477794649450e+000	 1.838477794649450e+000	-7.224043207766636e+000
1	 1.818061049642710e+000	 1.858670277892823e+000	-6.848727665827896e+000
1	 1.797423798768442e+000	 1.878634825537390e+000	-6.470699411221417e+000
1	 1.776569877680166e+000	 1.898367848035766e+000	-6.092059717761575e+000
1	 1.755503199414274e+000	 1.917865842278389e+000	-5.714928221252726e+000
1	 1.734227751946229e+000	 1.937125393662695e+000	-5.341439510071410e+000
1	 1.956994339817781e+000	 1.752015592596107e+000	-9.215983887952591e+000
1	 1.937537244696356e+000	 1.773509260692354e+000	-8.853414408294698e+000
1	 1.917839261026503e+000	 1.794792018256848e+000	-8.476478506918848e+000
1	 1.897903838434115e+000	 1.815859836409762e+000	-8.087570735241114e+000
1	 1.877734515959893e+000	 1.836708761978973e+000	-7.689131852662428e+000
1	 1.857334919968946e+000	 1.857334919968946e+000	-7.283644792208293e+000
1	 1.836708761978973e+000	 1.877734515959894e+000	-6.873630549224713e+000
1	 1.815859836409761e+000	 1.897903838434115e+000	-6.461644001674483e+000
1	 1.794792018256848e+000	 1.917839261026503e+000	-6.050269670754907e+000
1	 1.773509260692353e+000	 1.937537244696356e+000	-5.642117430708424e+000
1	 1.752015592596108e+000	 1.956994339817781e+000	-5.239818176821932e+000
1	 1.976863285972716e+000	 1.769803433245986e+000	-9.420580654346477e+000
1	 1.957208647114214e+000	 1.791515321970432e+000	-9.027680416203399e+000
1	 1.937310674017164e+000	 1.813014158833529e+000	-8.619345307498437e+000
1	 1.917172851330790e+000	 1.834295874051076e+000	-8.198330018418510e+000
1	 1.896798754026930e+000	 1.855356474315226e+000	-7.767445031316423e+000
1	 1.876192045288421e+000	 1.876192045288421e+000	-7.329551873413609e+000
1	 1.855356474315226e+000	 1.896798754026930e+000	-6.887558275637039e+000
1	 1.834295874051076e+000	 1.917172851330789e+000	-6.444413247695911e+000
1	 1.813014158833529e+000	 1.937310674017163e+000	-6.003102079723108e+000
1	 1.791515321970433e+000	 1.957208647114214e+000	-5.566641280990838e+000
1	 1.769803433245986e+000	 1.976863285972716e+000	-5.138073466365704e+000
1	 1.996732232127518e+000	 1.787591273895864e+000	-9.602822183001019e+000
1	 1.976880049531974e+000	 1.809521383248510e+000	-9.180845188648878e+000
1	 1.956782087007755e+000	 1.831236299410209e+000	-8.742796573054960e+000
1	 1.936441864227417e+000	 1.852731911692388e+000	-8.291718616112329e+000
1	 1.915862992093939e+000	 1.874004186651469e+000	-7.830717214932710e+000
1	 1.895049170607881e+000	 1.895049170607881e+000	-7.362956549922962e+000
1	 1.874004186651470e+000	 1.915862992093939e+000	-6.891653643069439e+000
1	 1.852731911692388e+000	 1.936441864227417e+000	-6.420072819829448e+000
1	 1.831236299410209e+000	 1.956782087007756e+000	-5.951520086279640e+000
1	 1.809521383248510e+000	 1.976880049531974e+000	-5.489337433387353e+000
1	 1.787591273895864e+000	 1.996732232127518e+000	-5.036897080449124e+000
1	 2.016601178282201e+000	 1.805379114545742e+000	-9.763609832029225e+000
1	 1.996551451949648e+000	 1.827527444526589e+000	-9.313930333132451e+000
1	 1.976253499998287e+000	 1.849458439986889e+000	-8.847936217644257e+000
1	 1.955710877124004e+000	 1.871167949333697e+000	-8.368886982770423e+000
1	 1.934927230160922e+000	 1.892651898987706e+000	-7.880111844023779e+000
1	 1.913906295927326e+000	 1.913906295927326e+000	-7.385003938767372e+000
1	 1.892651898987707e+000	 1.934927230160922e+000	-6.887014410988749e+000
1	 1.871167949333697e+000	 1.955710877124005e+000	-6.389646389732822e+000
1	 1.849458439986889e+000	 1.976253499998287e+000	-5.896448873895056e+000
1	 1.827527444526589e+000	 1.996551451949648e+000	-5.411010536317333e+000
1	 1.805379114545742e+000	 2.016601178282202e+000	-4.936953460327050e+000
1	 2.036470124436785e+000	 1.823166955195621e+000	-9.903809782920661e+000
1	 2.016222854367249e+000	 1.845533505804667e+000	-9.427917587649706e+000
1	 1.995724912988767e+000	 1.867680580563567e+000	-8.935825073700352e+000
1	 1.974979890020558e+000	 1.889603986975002e+000	-8.430940674922022e+000
1	 1.953991468227883e+000	 1.911299611323936e+000	-7.916746954386253e+000
1	 1.932763421246759e+000	 1.932763421246759e+000	-7.396794467358605e+000
1	 1.911299611323936e+000	 1.953991468227883e+000	-6.874695497430322e+000
1	 1.889603986975003e+000	 1.974979890020558e+000	-6.354117679001445e+000
1	 1.867680580563567e+000	 1.995724912988767e+000	-5.838777519601749e+000
1	 1.845533505804666e+000	 2.016222854367249e+000	-5.332433835792631e+000
1	 1.823166955195621e+000	 2.036470124436785e+000	-4.838881116606015e+000
1	 2.056339070591284e+000	 1.840954795845499e+000	-1.002425473997519e+001
1	 2.035894256784788e+000	 1.863539567082745e+000	-9.523750746844222e+000
1	 2.015196325979205e+000	 1.885902721140246e+000	-9.007482973371427e+000
1	 1.994248902917082e+000	 1.908040024616306e+000	-8.478942520261549e+000
1	 1.973055706294826e+000	 1.929947323660161e+000	-7.941697370668472e+000
1	 1.951620546566180e+000	 1.951620546566180e+000	-7.399386032509590e+000
1	 1.929947323660161e+000	 1.973055706294827e+000	-6.855711048730067e+000
1	 1.908040024616306e+000	 1.994248902917082e+000	-6.314432389213990e+000
1	 1.885902721140245e+000	 2.015196325979205e+000	-5.779360738348601e+000
1	 1.863539567082745e+000	 2.035894256784789e+000	-5.254350692513531e+000
1	 1.840954795845499e+000	 2.056339070591284e+000	-4.743293881991722e+000
1	 2.076208016745718e+000	 1.858742636495377e+000	-1.012574553215714e+001
1	 2.055565659202280e+000	 1.881545628360823e+000	-9.602337477563566e+000
1	 2.034667738969607e+000	 1.904124861716922e+000	-9.063890710347277e+000
1	 2.013517915813583e+000	 1.926476062257608e+000	-8.513914662185787e+000
1	 1.992119944361754e+000	 1.948595035996382e+000	-7.955996773986214e+000
1	 1.970477671885594e+000	 1.970477671885594e+000	-7.393796035486224e+000
1	 1.948595035996382e+000	 1.992119944361754e+000	-6.831036390414252e+000
1	 1.926476062257608e+000	 2.013517915813584e+000	-6.271500021156824e+000
1	 1.904124861716923e+000	 2.034667738969607e+000	-5.719020527196325e+000
1	 1.881545628360823e+000	 2.055565659202280e+000	-5.177476011854632e+000
1	 1.858742636495377e+000	 2.076208016745717e+000	-4.650782092104848e+000
1	 2.096076962900100e+000	 1.876530477145256e+000	-1.020905262384452e+001
1	 2.075237061619735e+000	 1.899551689638900e+000	-9.664551031156378e+000
1	 2.054139151959984e+000	 1.922347002293599e+000	-9.105991890108893e+000
1	 2.032786928710067e+000	 1.944912099898908e+000	-8.536840488048792e+000
1	 2.011184182428673e+000	 1.967242748332599e+000	-7.960639651943155e+000
1	 1.989334797205001e+000	 1.989334797205000e+000	-7.381003301316287e+000
1	 1.967242748332600e+000	 2.011184182428673e+000	-6.801609867133606e+000
1	 1.944912099898908e+000	 2.032786928710067e+000	-6.226195590580719e+000
1	 1.922347002293599e+000	 2.054139151959985e+000	-5.658547716000272e+000
1	 1.899551689638900e+000	 2.075237061619735e+000	-5.102497592520993e+000
1	 1.876530477145256e+000	 2.096076962900100e+000	-4.561913699138421e+000
1	 2.115945909054448e+000	 1.894318317795134e+000	-1.027491754046159e+001
1	 2.094908464037164e+000	 1.917557750916978e+000	-9.711231859297392e+000
1	 2.073610564950345e+000	 1.940569142870276e+000	-9.134694675933684e+000
1	 2.052055941606541e+000	 1.963348137540208e+000	-8.548666448777663e+000
1	 2.030248420495583e+000	 1.985890460668814e+000	-7.956583138786181e+000
1	 2.008191922524404e+000	 2.008191922524404e+000	-7.361949889963462e+000
1	 1.985890460668814e+000	 2.030248420495583e+000	-6.768334578933927e+000
1	 1.963348137540208e+000	 2.052055941606541e+000	-6.179361247290567e+000
1	 1.940569142870276e+000	 2.073610564950345e+000	-5.598703430726151e+000
1	 1.917557750916979e+000	 2.094908464037165e+000	-5.030077399219636e+000
1	 1.894318317795134e+000	 2.115945909054448e+000	-4.477235322771221e+000
1	 2.135814855208781e+000	 1.912106158445013e+000	-1.032405421453803e+001
1	 2.114579866454582e+000	 1.935563812195057e+000	-9.743189139622819e+000
1	 2.093081977940697e+000	 1.958791283446953e+000	-9.150873437444711e+000
1	 2.071324954503008e+000	 1.981784175181508e+000	-8.550303776923830e+000
1	 2.049312658562491e+000	 2.004538173005029e+000	-7.944748752849558e+000
1	 2.027049047843805e+000	 2.027049047843805e+000	-7.337542806407718e+000
1	 2.004538173005029e+000	 2.049312658562490e+000	-6.732080020614429e+000
1	 1.981784175181508e+000	 2.071324954503008e+000	-6.131807803863589e+000
1	 1.958791283446953e+000	 2.093081977940697e+000	-5.540220475089138e+000
1	 1.935563812195057e+000	 2.114579866454582e+000	-4.960852764295832e+000
1	 1.912106158445013e+000	 2.135814855208781e+000	-4.397273242422587e+000
1	 1.734227751946229e+000	 1.937125393662695e+000	-5.341439510071408e+000
1	 1.712744358454553e+000	 1.956146013021241e+000	-4.980115154175414e+000
1	 1.691060328479696e+000	 1.974921561452375e+000	-4.638483698392568e+000
1	 1.669179862983960e+000	 1.993448901827818e+000	-4.317026523643764e+000
1	 1.647107227462233e+000	 2.011724993034462e+000	-4.016216649713050e+000
1	 1.624846749199452e+000	 2.029746891604005e+000	-3.736518094453997e+000
1	 1.602402814479762e+000	 2.047511753248752e+000	-3.478385243972430e+000
1	 1.579779865751119e+000	 2.065016834301999e+000	-3.242262235017827e+000
1	 1.556982398749111e+000	 2.082259493061532e+000	-3.028582350787345e+000
1	 1.534014959583875e+000	 2.099237191034965e+000	-2.837767431310309e+000
1	 1.510882141793964e+000	 2.115947494085821e+000	-2.670227299545439e+000
1	 1.752015592596108e+000	 1.956994339817781e+000	-5.239818176821931e+000
1	 1.730311845589922e+000	 1.976210052205971e+000	-4.852069445388855e+000
1	 1.708405404187631e+000	 1.995178179993043e+000	-4.486052978453336e+000
1	 1.686300512440468e+000	 2.013895553873444e+000	-4.141947483260362e+000
1	 1.664001479594162e+000	 2.032359101541615e+000	-3.819915222635627e+000
1	 1.641512677318262e+000	 2.050565849338336e+000	-3.520101989531288e+000
1	 1.618838536886680e+000	 2.068512923802285e+000	-3.242637103224526e+000
1	 1.595983546313200e+000	 2.086197553125190e+000	-2.987633427017434e+000
1	 1.572952247445815e+000	 2.103617068509114e+000	-2.755187407240511e+000
1	 1.549749233023748e+000	 2.120768905424560e+000	-2.545379133316030e+000
1	 1.526379143701107e+000	 2.137650604768313e+000	-2.358272418593201e+000
1	 1.769803433245986e+000	 1.976863285972716e+000	-5.138073466365703e+000
1	 1.747879332725290e+000	 1.996274091390502e+000	-4.726073230123809e+000
1	 1.725750479895566e+000	 2.015434798533457e+000	-4.337371432542962e+000
1	 1.703421161896978e+000	 2.034342205918758e+000	-3.971903314032625e+000
1	 1.680895731726092e+000	 2.052993210048401e+000	-3.629580981343985e+000
1	 1.658178605437075e+000	 2.071384807072250e+000	-3.310293888863444e+000
1	 1.635274259293601e+000	 2.089514094355360e+000	-3.013909350438077e+000
1	 1.612187226875288e+000	 2.107378271947896e+000	-2.740273080436644e+000
1	 1.588922096142529e+000	 2.124974643956197e+000	-2.489209762689109e+000
1	 1.565483506463633e+000	 2.142300619813663e+000	-2.260523645893077e+000
1	 1.541876145608268e+000	 2.159353715450340e+000	-2.053999164024110e+000
1	 1.787591273895864e+000	 1.996732232127518e+000	-5.036897080449125e+000
1	 1.765446819860660e+000	 2.016338130574856e+000	-4.602680135123761e+000
1	 1.743095555603502e+000	 2.035691417073645e+000	-4.192888051632697e+000
1	 1.720541811353488e+000	 2.054788857963797e+000	-3.807269992923854e+000
1	 1.697789983858025e+000	 2.073627318554860e+000	-3.445546666364733e+000
1	 1.674844533555892e+000	 2.092203764805794e+000	-3.107411205132135e+000
1	 1.651709981700529e+000	 2.110515264908027e+000	-2.792530087243311e+000
1	 1.628390907437388e+000	 2.128558990770164e+000	-2.500544090022428e+000
1	 1.604891944839259e+000	 2.146332219402827e+000	-2.231069277724343e+000
1	 1.581217779903542e+000	 2.163832334202313e+000	-1.983698019976089e+000
1	 1.557373147515461e+000	 2.181056826131934e+000	-1.758000038639459e+000
1	 1.805379114545742e+000	 2.016601178282202e+000	-4.936953460327049e+000
1	 1.783014306996028e+000	 2.036402169759053e+000	-4.482421968281312e+000
1	 1.760440631311437e+000	 2.055948035613634e+000	-4.053034131618114e+000
1	 1.737662460810000e+000	 2.075235510008592e+000	-3.648408679359339e+000
1	 1.714684235989961e+000	 2.094261427061034e+000	-3.268131904667340e+000
1	 1.691510461674715e+000	 2.113022722539008e+000	-2.911758841543885e+000
1	 1.668145704107468e+000	 2.131516435460329e+000	-2.578814484535811e+000
1	 1.644594587999504e+000	 2.149739709592041e+000	-2.268795048564190e+000
1	 1.620861793536015e+000	 2.167689794849050e+000	-1.981169265912862e+000
1	 1.596952053343488e+000	 2.185364048590552e+000	-1.715379717344963e+000
1	 1.572870149422705e+000	 2.202759936813131e+000	-1.470844194255381e+000
1	 1.823166955195621e+000	 2.036470124436785e+000	-4.838881116606015e+000
1	 1.800581794131398e+000	 2.056466208943119e+000	-4.365809783023090e+000
1	 1.777785707019373e+000	 2.076204654153453e+000	-3.918224136534782e+000
1	 1.754783110266514e+000	 2.095682162053179e+000	-3.495666438067447e+000
1	 1.731578488121901e+000	 2.114895535566959e+000	-3.097643849380301e+000
1	 1.708176389793547e+000	 2.133841680271940e+000	-2.723629802077439e+000
1	 1.684581426514422e+000	 2.152517606012314e+000	-2.373065413274036e+000
1	 1.660798268561644e+000	 2.170920428413575e+000	-2.045360944583136e+000
1	 1.636831642232806e+000	 2.189047370294912e+000	-1.739897301006655e+000
1	 1.612686326783484e+000	 2.206895762978422e+000	-1.456027566238809e+000
1	 1.588367151330017e+000	 2.224463047493960e+000	-1.193078570829513e+000
1	 1.840954795845499e+000	 2.056339070591284e+000	-4.743293881991723e+000
1	 1.818149281266767e+000	 2.076530248127072e+000	-4.253334880988130e+000
1	 1.795130782727311e+000	 2.096461272693131e+000	-3.788856511729882e+000
1	 1.771903759723029e+000	 2.116128814097590e+000	-3.349376920015036e+000
1	 1.748472740253847e+000	 2.135529644072676e+000	-2.934377782420411e+000
1	 1.724842317912389e+000	 2.154660638004631e+000	-2.543305766352931e+000
1	 1.701017148921394e+000	 2.173518776564031e+000	-2.175574038707360e+000
1	 1.677001949123814e+000	 2.192101147234814e+000	-1.830563819574588e+000
1	 1.652801490929640e+000	 2.210404945740458e+000	-1.507625977356760e+000
1	 1.628420600223541e+000	 2.228427477365963e+000	-1.206082661569504e+000
1	 1.603864153237414e+000	 2.246166158174458e+000	-9.252289695481281e-001
1	 1.858742636495377e+000	 2.076208016745717e+000	-4.650782092104846e+000
1	 1.835716768402137e+000	 2.096594287310937e+000	-4.145469757133630e+000
1	 1.812475858435249e+000	 2.116717891232694e+000	-3.665314450342295e+000
1	 1.789024409179548e+000	 2.136575466141861e+000	-3.209861004244059e+000
1	 1.765366992385799e+000	 2.156163752578225e+000	-2.778617682520084e+000
1	 1.741508246031244e+000	 2.175479595737126e+000	-2.371057631492217e+000
1	 1.717452871328388e+000	 2.194519947115523e+000	-1.986620380483805e+000
1	 1.693205629686017e+000	 2.213281866055804e+000	-1.624713387511619e+000
1	 1.668771339626526e+000	 2.231762521185735e+000	-1.284713626664256e+000
1	 1.644154873663671e+000	 2.249959191753217e+000	-9.659692134457486e-001
1	 1.619361155144911e+000	 2.267869268854655e+000	-6.678010642977020e-001
1	 1.876530477145256e+000	 2.096076962900100e+000	-4.561913699138421e+000
1	 1.853284255537506e+000	 2.116658326494735e+000	-4.042668991088088e+000
1	 1.829820934143187e+000	 2.136974509772172e+000	-3.547966616189681e+000
1	 1.806145058636069e+000	 2.157022118186025e+000	-3.077427403204173e+000
1	 1.782261244517759e+000	 2.176797861083645e+000	-2.630636760947777e+000
1	 1.758174174150114e+000	 2.196298553469467e+000	-2.207146023161619e+000
1	 1.733888593735408e+000	 2.215521117666840e+000	-1.806473840902144e+000
1	 1.709409310248261e+000	 2.234462584876594e+000	-1.428107619114805e+000
1	 1.684741188323472e+000	 2.253120096630787e+000	-1.071504993966509e+000
1	 1.659889147103889e+000	 2.271490906140225e+000	-7.360953474376721e-001
1	 1.634858157052526e+000	 2.289572379534584e+000	-4.212813556095991e-001
1	 1.894318317795134e+000	 2.115945909054448e+000	-4.477235322771221e+000
1	 1.870851742672876e+000	 2.136722365678489e+000	-3.945370088285019e+000
1	 1.847166009851127e+000	 2.157231128311593e+000	-3.437167825927260e+000
1	 1.823265708092595e+000	 2.177468770230117e+000	-2.952373233980309e+000
1	 1.799155496649727e+000	 2.197431969588976e+000	-2.490697967046134e+000
1	 1.774840102269001e+000	 2.217117511201700e+000	-2.051821777821825e+000
1	 1.750324316142456e+000	 2.236522288218026e+000	-1.635393703401700e+000
1	 1.725612990810552e+000	 2.255643303697231e+000	-1.241033293203954e+000
1	 1.700711037020488e+000	 2.274477672075662e+000	-8.683318755378514e-001
1	 1.675623420544203e+000	 2.293022620527026e+000	-5.168538597540318e-001
1	 1.650355158960276e+000	 2.311275490214281e+000	-1.861380708586234e-001
1	 1.912106158445013e+000	 2.135814855208781e+000	-4.397273242422587e+000
1	 1.888419229808245e+000	 2.156786404862220e+000	-3.853994274147688e+000
1	 1.864511085559069e+000	 2.177487746850984e+000	-3.333259693131303e+000
1	 1.840386357549125e+000	 2.197915422274170e+000	-2.834984557636422e+000
1	 1.816049748781705e+000	 2.218066078094255e+000	-2.359054465552275e+000
1	 1.791506030387908e+000	 2.237936468933869e+000	-1.905326398060529e+000
1	 1.766760038549538e+000	 2.257523458769129e+000	-1.473629603228382e+000
1	 1.741816671372895e+000	 2.276824022517764e+000	-1.063766517275229e+000
1	 1.716680885717582e+000	 2.295835247520404e+000	-6.755137211850277e-001
1	 1.691357693984630e+000	 2.314554334913665e+000	-3.086229302681754e-001
1	 1.665852160868179e+000	 2.332978600893775e+000	 3.717798578405930e-002
1	 1.510882141793964e+000	 2.115947494085821e+000	-2.670227299545439e+000
1	 1.487588582867686e+000	 2.132388072878528e+000	-2.532302304370656e+000
1	 1.464138959764830e+000	 2.148556702005919e+000	-2.431208647677484e+000
1	 1.440537987463155e+000	 2.164451262611717e+000	-2.368642939147509e+000
1	 1.416790416433498e+000	 2.180069743733891e+000	-2.346275926957452e+000
1	 1.392901029590033e+000	 2.195410242948957e+000	-2.365749625068435e+000
1	 1.368874639231026e+000	 2.210470966914093e+000	-2.428674502372749e+000
1	 1.344716083974012e+000	 2.225250231807173e+000	-2.536626739131005e+000
1	 1.320430225689309e+000	 2.239746463665041e+000	-2.691145555916751e+000
1	 1.296021946435735e+000	 2.253958198620401e+000	-2.893730620054430e+000
1	 1.271496145402372e+000	 2.267884083038025e+000	-3.145839534293956e+000
1	 1.526379143701107e+000	 2.137650604768313e+000	-2.358272418593201e+000
1	 1.502846664532555e+000	 2.154259813312990e+000	-2.200017749323803e+000
1	 1.479156520449109e+000	 2.170594282825592e+000	-2.077905899397122e+000
1	 1.455313474789710e+000	 2.186651872716886e+000	-1.993685428101862e+000
1	 1.431322326750428e+000	 2.202430551398550e+000	-1.949084373357996e+000
1	 1.407187908303436e+000	 2.217928396934077e+000	-1.945807202951186e+000
1	 1.382915081106392e+000	 2.233143597586459e+000	-1.985531820084763e+000
1	 1.358508733406175e+000	 2.248074452262729e+000	-2.069906629152191e+000
1	 1.333973776940951e+000	 2.262719370855698e+000	-2.200547667428339e+000
1	 1.309315143844457e+000	 2.277076874483293e+000	-2.379035808158157e+000
1	 1.284537783556399e+000	 2.291145595626142e+000	-2.606914040288241e+000
1	 1.541876145608268e+000	 2.159353715450340e+000	-2.053999164024110e+000
1	 1.518104746197447e+000	 2.176131553747041e+000	-1.875738967432917e+000
1	 1.494174081133418e+000	 2.192631863644929e+000	-1.733166061926811e+000
1	 1.470088962116304e+000	 2.208852482821807e+000	-1.628020844263826e+000
1	 1.445854237067409e+000	 2.224791359063059e+000	-1.562027738477297e+000
1	 1.421474787016904e+000	 2.240446550919154e+000	-1.536892087050578e+000
1	 1.396955522981841e+000	 2.255816228258888e+000	-1.554297089041447e+000
1	 1.372301382838444e+000	 2.270898672718448e+000	-1.615900791283216e+000
1	 1.347517328192726e+000	 2.285692278046610e+000	-1.723333138600232e+000
1	 1.322608341253345e+000	 2.300195550346515e+000	-1.878193088769283e+000
1	 1.297579421710628e+000	 2.314407108214644e+000	-2.082045797740475e+000
1	 1.557373147515461e+000	 2.181056826131934e+000	-1.758000038639459e+000
1	 1.533362827862384e+000	 2.198003294180702e+000	-1.560149593818181e+000
1	 1.509191641817784e+000	 2.214669444463932e+000	-1.397739539672176e+000
1	 1.484864449442972e+000	 2.231053092926468e+000	-1.272443844203129e+000
1	 1.460386147384479e+000	 2.247152166727390e+000	-1.185924274730802e+000
1	 1.435761665730482e+000	 2.262964704904139e+000	-1.139827343045052e+000
1	 1.410995964857420e+000	 2.278488858931313e+000	-1.135781290308681e+000
1	 1.386094032270866e+000	 2.293722893174245e+000	-1.175393117819648e+000
1	 1.361060879444679e+000	 2.308665185237677e+000	-1.260245669570997e+000
1	 1.335901538662437e+000	 2.323314226209955e+000	-1.391894772358592e+000
1	 1.310621059865092e+000	 2.337668620803414e+000	-1.571866438984238e+000
1	 1.572870149422705e+000	 2.202759936813131e+000	-1.470844194255381e+000
1	 1.548620909527387e+000	 2.219875034613992e+000	-1.253906321020773e+000
1	 1.524209202502237e+000	 2.236707025282611e+000	-1.072347163031753e+000
1	 1.499639936769747e+000	 2.253253703030858e+000	-9.277177664709126e-001
1	 1.474918057701679e+000	 2.269512974391513e+000	-8.215599865850567e-001
1	 1.450048544444212e+000	 2.285482858888984e+000	-7.554035989700243e-001
1	 1.425036406733176e+000	 2.301161489603666e+000	-7.307634435731725e-001
1	 1.399886681703489e+000	 2.316547113630037e+000	-7.491366072665552e-001
1	 1.374604430696857e+000	 2.331638092428801e+000	-8.119996506920676e-001
1	 1.349194736071777e+000	 2.346432902073507e+000	-9.208058849151930e-001
1	 1.323662698019824e+000	 2.360930133392335e+000	-1.076982703242816e+000
1	 1.588367151330017e+000	 2.224463047493960e+000	-1.193078570829513e+000
1	 1.563878991192479e+000	 2.241746775046933e+000	-9.576402133376389e-001
1	 1.539226763186804e+000	 2.258744606100968e+000	-7.576816310999602e-001
1	 1.514415424096663e+000	 2.275454313134967e+000	-5.945761593807059e-001
1	 1.489449968019049e+000	 2.291873782055399e+000	-4.696902037035538e-001
1	 1.464335423158140e+000	 2.308001012873640e+000	-3.843806276168789e-001
1	 1.439076848609157e+000	 2.323834120275879e+000	-3.399921663077252e-001
1	 1.413679331136361e+000	 2.339371334085742e+000	-3.378548714242624e-001
1	 1.388147981949305e+000	 2.354610999619884e+000	-3.792815923411272e-001
1	 1.362487933481405e+000	 2.369551577937059e+000	-4.655654989601702e-001
1	 1.336704336174856e+000	 2.384191645981290e+000	-5.979776509850541e-001
1	 1.603864153237414e+000	 2.246166158174458e+000	-9.252289695481281e-001
1	 1.579137072857684e+000	 2.263618515479547e+000	-6.719579449591639e-001
1	 1.554244323871514e+000	 2.280782186919011e+000	-4.544088707314570e-001
1	 1.529190911423754e+000	 2.297654923238781e+000	-2.737242202180696e-001
1	 1.503981878336627e+000	 2.314234589719017e+000	-1.310410628906432e-001
1	 1.478622301872309e+000	 2.330519166858057e+000	-2.748883719502424e-002
1	 1.453117290485408e+000	 2.346506750947888e+000	 3.581285745316260e-002
1	 1.427471980569528e+000	 2.362195554541273e+000	 5.775644489713530e-002
1	 1.401691533202069e+000	 2.377583906810825e+000	 3.724852815546467e-002
1	 1.375781130891361e+000	 2.392670253800501e+000	-2.678798739666673e-002
1	 1.349745974330221e+000	 2.407453158570164e+000	-1.354118078802527e-001
1	 1.619361155144911e+000	 2.267869268854655e+000	-6.678010642977020e-001
1	 1.594395154523023e+000	 2.285490255911854e+000	-3.974429670142046e-001
1	 1.569261884556395e+000	 2.302819767736746e+000	-1.631693175690336e-001
1	 1.543966398751055e+000	 2.319855533342289e+000	 3.415984818767269e-002
1	 1.518513788654454e+000	 2.336595397382336e+000	 1.936890950554801e-001
1	 1.492909180586763e+000	 2.353037320842188e+000	 3.145693235989390e-001
1	 1.467157732361976e+000	 2.369179381619624e+000	 3.959594926740320e-001
1	 1.441264630003040e+000	 2.385019774996548e+000	 4.370283256820091e-001
1	 1.415235084455194e+000	 2.400556814001531e+000	 4.369559969397107e-001
1	 1.389074328301687e+000	 2.415788929663724e+000	 3.949357946355979e-001
1	 1.362787612485953e+000	 2.430714671158838e+000	 3.101757569313156e-001
1	 1.634858157052526e+000	 2.289572379534584e+000	-4.212813556095991e-001
1	 1.609653236188518e+000	 2.307361996343875e+000	-1.346566082402000e-001
1	 1.584279445241475e+000	 2.324857348554177e+000	 1.154208757859692e-001
1	 1.558741886078600e+000	 2.342056143445480e+000	 3.284235580461655e-001
1	 1.533045698972569e+000	 2.358956205045327e+000	 5.038284079357177e-001
1	 1.507196059301545e+000	 2.375555474825982e+000	 6.411180404244428e-001
1	 1.481198174238908e+000	 2.391852012291019e+000	 7.397818476180930e-001
1	 1.455057279436942e+000	 2.407843995451483e+000	 7.993171216224391e-001
1	 1.428778635708728e+000	 2.423529721191897e+000	 8.192301662457688e-001
1	 1.402367525712424e+000	 2.438907605526619e+000	 7.990373951225951e-001
1	 1.375829250642081e+000	 2.453976183747196e+000	 7.382664138943684e-001
1	 1.650355158960276e+000	 2.311275490214281e+000	-1.861380708586234e-001
1	 1.624911317854192e+000	 2.329233736775629e+000	 1.158608863595608e-001
1	 1.599297005926782e+000	 2.346894929371312e+000	 3.807686996728225e-001
1	 1.573517373406423e+000	 2.364256753548344e+000	 6.084389292718961e-001
1	 1.547577609291011e+000	 2.381317012707963e+000	 7.987302489665838e-001
1	 1.521482938016701e+000	 2.398073628809392e+000	 9.515068828004351e-001
1	 1.495238616116251e+000	 2.414524642962007e+000	 1.066639041711248e+000
1	 1.468849928871284e+000	 2.430668215905993e+000	 1.144003359138784e+000
1	 1.442322186962715e+000	 2.446502628381830e+000	 1.183483324484739e+000
1	 1.415660723123613e+000	 2.462026281389075e+000	 1.184969713337893e+000
1	 1.388870888798642e+000	 2.477237696335122e+000	 1.148361013389964e+000
1	 1.665852160868179e+000	 2.332978600893775e+000	 3.717798578405930e-002
1	 1.640169399520067e+000	 2.351105477207141e+000	 3.535893748326045e-001
1	 1.614314566612346e+000	 2.368932510188156e+000	 6.323032109066056e-001
1	 1.588292860734558e+000	 2.386457363650868e+000	 8.736013495392624e-001
1	 1.562109519609820e+000	 2.403677820370209e+000	 1.077772052986520e+000
1	 1.535769816732273e+000	 2.420591782792370e+000	 1.245109623407286e+000
1	 1.509279057994052e+000	 2.437197273632522e+000	 1.375914042179226e+000
1	 1.482642578306111e+000	 2.453492436359996e+000	 1.470490615875890e+000
1	 1.455865738217200e+000	 2.469475535571230e+000	 1.529149629397419e+000
1	 1.428953920535294e+000	 2.485144957250983e+000	 1.552206006714561e+000
1	 1.401912526955667e+000	 2.500499208922499e+000	 1.539978979650727e+000
1	 1.271496145402372e+000	 2.267884083038025e+000	-3.145839534293956e+000
1	 1.246861439865192e+000	 2.281520849728122e+000	-3.449720711576616e+000
1	 1.222119083064165e+000	 2.294869477818497e+000	-3.806661258095671e+000
1	 1.197274006442202e+000	 2.307928946488350e+000	-4.216499402930667e+000
1	 1.172331146418369e+000	 2.320698344647250e+000	-4.679048944608454e+000
1	 1.147295441416841e+000	 2.333176870580241e+000	-5.194101373751992e+000
1	 1.122171828923650e+000	 2.345363831499277e+000	-5.761427980666122e+000
1	 1.096965242574563e+000	 2.357258643002612e+000	-6.380781943357292e+000
1	 1.071680609277310e+000	 2.368860828443987e+000	-7.051900391630450e+000
1	 1.046322846371299e+000	 2.380170018213485e+000	-7.774506443066970e+000
1	 1.020896858827830e+000	 2.391185948932115e+000	-8.548311206853194e+000
1	 1.284537783556399e+000	 2.291145595626142e+000	-2.606914040288238e+000
1	 1.259650401739495e+000	 2.304922233583134e+000	-2.886604384472727e+000
1	 1.234654264488093e+000	 2.318407777524915e+000	-3.219666304896343e+000
1	 1.209554353826513e+000	 2.331601196160211e+000	-3.606183291946139e+000
1	 1.184355656806279e+000	 2.344501569053610e+000	-4.046211225371618e+000
1	 1.159063162504583e+000	 2.357108086267037e+000	-4.539780159322377e+000
1	 1.133681859050856e+000	 2.369420047906573e+000	-5.086896102449393e+000
1	 1.108216730684771e+000	 2.381436863576317e+000	-5.687542789077724e+000
1	 1.082672754848956e+000	 2.393158051741090e+000	-6.341683437572666e+000
1	 1.057054899319571e+000	 2.404583238999920e+000	-7.049262492145532e+000
1	 1.031368119377818e+000	 2.415712159272363e+000	-7.810207344477287e+000
1	 1.297579421710628e+000	 2.314407108214644e+000	-2.082045797740473e+000
1	 1.272439363614045e+000	 2.328323617438562e+000	-2.337386115864013e+000
1	 1.247189445912312e+000	 2.341946077231757e+000	-2.646019889358680e+000
1	 1.221834701211165e+000	 2.355273445832486e+000	-3.008324570073573e+000
1	 1.196380167194577e+000	 2.368304793460358e+000	-3.424646409394921e+000
1	 1.170830883592758e+000	 2.381039301954176e+000	-3.895301820205334e+000
1	 1.145191889178537e+000	 2.393476264314158e+000	-4.420578746164852e+000
1	 1.119468218795488e+000	 2.405615084150246e+000	-5.000738034976098e+000
1	 1.093664900421135e+000	 2.417455275038343e+000	-5.636014812366812e+000
1	 1.067786952268393e+000	 2.428996459786429e+000	-6.326619853605126e+000
1	 1.041839379928356e+000	 2.440238369612607e+000	-7.072740949449795e+000
1	 1.310621059865092e+000	 2.337668620803414e+000	-1.571866438984240e+000
1	 1.285228325488860e+000	 2.351725001294286e+000	-1.802632839746851e+000
1	 1.259724627336829e+000	 2.365484376938910e+000	-2.086223240629962e+000
1	 1.234115048596146e+000	 2.378945695505065e+000	-2.423356320347866e+000
1	 1.208404677583233e+000	 2.392108017867391e+000	-2.814715568983336e+000
1	 1.182598604681320e+000	 2.404970517641572e+000	-3.260950142697114e+000
1	 1.156701919306625e+000	 2.417532480721959e+000	-3.762675740118288e+000
1	 1.130719706906629e+000	 2.429793304724341e+000	-4.320475497872490e+000
1	 1.104657045993749e+000	 2.441752498335712e+000	-4.934900902724971e+000
1	 1.078519005217652e+000	 2.453409680572995e+000	-5.606472717845300e+000
1	 1.052310640479326e+000	 2.464764579952846e+000	-6.335681920737920e+000
1	 1.323662698019824e+000	 2.360930133392335e+000	-1.076982703242816e+000
1	 1.298017287363962e+000	 2.375126385150190e+000	-1.282889146817925e+000
1	 1.272259808761648e+000	 2.389022676646254e+000	-1.540757834035530e+000
1	 1.246395395981444e+000	 2.402617945177838e+000	-1.851694557671863e+000
1	 1.220429187972218e+000	 2.415911242274609e+000	-2.216765546307270e+000
1	 1.194366325770216e+000	 2.428901733329134e+000	-2.636997728859633e+000
1	 1.168211949435054e+000	 2.441588697129901e+000	-3.113379037229179e+000
1	 1.141971195018111e+000	 2.453971525298550e+000	-3.646858745443335e+000
1	 1.115649191566700e+000	 2.466049721633156e+000	-4.238347843652742e+000
1	 1.089251058167239e+000	 2.477822901359597e+000	-4.888719445300818e+000
1	 1.062781901030611e+000	 2.489290790293080e+000	-5.598809225763915e+000
1	 1.336704336174856e+000	 2.384191645981290e+000	-5.979776509850564e-001
1	 1.310806249239370e+000	 2.398527769006154e+000	-7.786783744428806e-001
1	 1.284794990186778e+000	 2.412560976353672e+000	-1.010086354725509e+000
1	 1.258675743367047e+000	 2.426290194850694e+000	-1.293739061447778e+000
1	 1.232453698361500e+000	 2.439714466681910e+000	-1.631129647588339e+000
1	 1.206134046859400e+000	 2.452832949016774e+000	-2.023706542118549e+000
1	 1.179721979563755e+000	 2.465644913537913e+000	-2.472873099213963e+000
1	 1.153222683129849e+000	 2.478149745872810e+000	-2.979987303506016e+000
1	 1.126641337139889e+000	 2.490346944930636e+000	-3.546361530728476e+000
1	 1.099983111117046e+000	 2.502236122146217e+000	-4.173262363016142e+000
1	 1.073253161582096e+000	 2.513817000633315e+000	-4.861910458020433e+000
1	 1.349745974330221e+000	 2.407453158570164e+000	-1.354118078802527e-001
1	 1.323595211115106e+000	 2.421929152862056e+000	-2.905036334356536e-001
1	 1.297330171612221e+000	 2.436099276061050e+000	-4.946536054556593e-001
1	 1.270956090752944e+000	 2.449962444523522e+000	-7.498741599376990e-001
1	 1.244478208751050e+000	 2.463517691089195e+000	-1.058128297040825e+000
1	 1.217901767948820e+000	 2.476764164704405e+000	-1.421328421231541e+000
1	 1.191232009692661e+000	 2.489701129945918e+000	-1.841335258497129e+000
1	 1.164474171241759e+000	 2.502327966447070e+000	-2.319956851287424e+000
1	 1.137633482713217e+000	 2.514644168228116e+000	-2.858947631670037e+000
1	 1.110715164066960e+000	 2.526649342932837e+000	-3.460007573012221e+000
1	 1.083724422133662e+000	 2.538343210973550e+000	-4.124781420332630e+000
1	 1.362787612485953e+000	 2.430714671158838e+000	 3.101757569313156e-001
1	 1.336384172991191e+000	 2.445330536717780e+000	 1.811512241186910e-001
1	 1.309865353037983e+000	 2.459637575768267e+000	 5.112637756011310e-003
1	 1.283236438139122e+000	 2.473634694196211e+000	-2.204694695870295e-001
1	 1.256502719140836e+000	 2.487320915496360e+000	-4.980696532641933e-001
1	 1.229669489038429e+000	 2.500695380391936e+000	-8.301055647443877e-001
1	 1.202742039821704e+000	 2.513757346353843e+000	-1.218936059341421e+000
1	 1.175725659353757e+000	 2.526506187021271e+000	-1.666859405479661e+000
1	 1.148625628286586e+000	 2.538941391525559e+000	-2.176111597237708e+000
1	 1.121447217016874e+000	 2.551062563719440e+000	-2.748864771657527e+000
1	 1.094195682685192e+000	 2.562869421313786e+000	-3.387225732048668e+000
1	 1.375829250642081e+000	 2.453976183747196e+000	 7.382664138943664e-001
1	 1.349173134867645e+000	 2.468731920573207e+000	 6.358206920861366e-001
1	 1.322400534464071e+000	 2.483175875475210e+000	 4.888008186374305e-001
1	 1.295516785525570e+000	 2.497306943868649e+000	 2.941194077008441e-001
1	 1.268527229530830e+000	 2.511124139903305e+000	 4.874980942137140e-002
1	 1.241437210128177e+000	 2.524626596079280e+000	-2.502709878942581e-001
1	 1.214252069950818e+000	 2.537813562761620e+000	-6.058395795765008e-001
1	 1.186977147465758e+000	 2.550684407595357e+000	-1.020783493827830e+000
1	 1.159617773859896e+000	 2.563238614822923e+000	-1.497858671517288e+000
1	 1.132179269966677e+000	 2.575475784506003e+000	-2.039747079311765e+000
1	 1.104666943236571e+000	 2.587395631654025e+000	-2.649054458571464e+000
1	 1.388870888798642e+000	 2.477237696335122e+000	 1.148361013389966e+000
1	 1.361962096744488e+000	 2.492133304428215e+000	 1.073056748931808e+000
1	 1.334935715890488e+000	 2.506714175181758e+000	 9.560148391375209e-001
1	 1.307797132912276e+000	 2.520979193540728e+000	 7.935502265748630e-001
1	 1.280551739921000e+000	 2.534927364309929e+000	 5.820447523919414e-001
1	 1.253204931218015e+000	 2.548557811766348e+000	 3.179510462292496e-001
1	 1.225762100079934e+000	 2.561869779169168e+000	-2.203734201141070e-003
1	 1.198228635577678e+000	 2.574862628169270e+000	-3.818143189378761e-001
1	 1.170609919433050e+000	 2.587535838120172e+000	-8.241939016231793e-001
1	 1.142911322916260e+000	 2.599889005292512e+000	-1.332570879567839e+000
1	 1.115138203787681e+000	 2.611921841994268e+000	-1.910085761762608e+000
1	 1.401912526955667e+000	 2.500499208922499e+000	 1.539978979650727e+000
1	 1.374751058621742e+000	 2.515534688282688e+000	 1.492428044446271e+000
1	 1.347470897317242e+000	 2.530252474887798e+000	 1.406373340406379e+000
1	 1.320077480299228e+000	 2.544651443212336e+000	 1.277493476973178e+000
1	 1.292576250311316e+000	 2.558730588716131e+000	 1.101540454757434e+000
1	 1.264972652307893e+000	 2.572489027453051e+000	 8.743446195893576e-001
1	 1.237272130208986e+000	 2.585925995576417e+000	 5.918194379605503e-001
1	 1.209480123689433e+000	 2.599040848742956e+000	 2.499660870586738e-001
1	 1.181602065005949e+000	 2.611833061417270e+000	-1.551221468605354e-001
1	 1.153643375865511e+000	 2.624302226078947e+000	-6.272556674668073e-001
1	 1.125609464338406e+000	 2.636448052334516e+000	-1.170144569859565e+000
1	 1.020896858827830e+000	 2.391185948932115e+000	-8.548311206853194e+000
1	 9.954037084134920e-001	 2.401910049395444e+000	-9.373399929992923e+000
1	 9.698520796365818e-001	 2.412340592915415e+000	-1.025090857677309e+001
1	 9.442468273696867e-001	 2.422477631056949e+000	-1.118246177692475e+001
1	 9.185927833090082e-001	 2.432321317635803e+000	-1.216966415775560e+001
1	 8.928947534162468e-001	 2.441871907512629e+000	-1.321409945361380e+001
1	 8.671575154167843e-001	 2.451129755315018e+000	-1.431732963735573e+001
1	 8.413858163563170e-001	 2.460095314090223e+000	-1.548089407487700e+001
1	 8.155843702179720e-001	 2.468769133891297e+000	-1.670630870371476e+001
1	 7.897578556018043e-001	 2.477151860299458e+000	-1.799506523667836e+001
1	 7.639109134684247e-001	 2.485244232885506e+000	-1.934863039140906e+001
1	 1.031368119377818e+000	 2.415712159272363e+000	-7.810207344477285e+000
1	 1.005613487680731e+000	 2.426546256009037e+000	-8.624861576692496e+000
1	 9.797997778129447e-001	 2.437083784811378e+000	-9.494604145955078e+000
1	 9.539318944431129e-001	 2.447324797773200e+000	-1.042123867087170e+001
1	 9.280147188257829e-001	 2.457269450287938e+000	-1.140654184063777e+001
1	 9.020531062170464e-001	 2.466917999830329e+000	-1.245226232151675e+001
1	 8.760518833470560e-001	 2.476270804665348e+000	-1.356011970047952e+001
1	 8.500158459516012e-001	 2.485328322487115e+000	-1.473180346716684e+001
1	 8.239497563647820e-001	 2.494091108990540e+000	-1.596897203524468e+001
1	 7.978583411747026e-001	 2.502559816378510e+000	-1.727325180413608e+001
1	 7.717462889439609e-001	 2.510735191807548e+000	-1.864623626201950e+001
1	 1.041839379928356e+000	 2.440238369612607e+000	-7.072740949449798e+000
1	 1.015823266948505e+000	 2.451182462622545e+000	-7.875006086638948e+000
1	 9.897474759898185e-001	 2.461826976707176e+000	-8.735017833829099e+000
1	 9.636169615170168e-001	 2.472171964489210e+000	-9.654733597199302e+000
1	 9.374366543429982e-001	 2.482217582939757e+000	-1.063607754703333e+001
1	 9.112114590182460e-001	 2.491964092147640e+000	-1.168093934871535e+001
1	 8.849462512776898e-001	 2.501411854015221e+000	-1.279117294449260e+001
1	 8.586458755472132e-001	 2.510561330883490e+000	-1.396859538724917e+001
1	 8.323151425118923e-001	 2.519413084089207e+000	-1.521498572740893e+001
1	 8.059588267478868e-001	 2.527967772456936e+000	-1.653208395396314e+001
1	 7.795816644197812e-001	 2.536226150728919e+000	-1.792158999049212e+001
1	 1.052310640479326e+000	 2.464764579952846e+000	-6.335681920737920e+000
1	 1.026033046216697e+000	 2.475818669235988e+000	-7.123477226737411e+000
1	 9.996951741670866e-001	 2.486570168602849e+000	-7.971677069243815e+000
1	 9.733020285912875e-001	 2.497019131205038e+000	-8.882368127217065e+000
1	 9.468585898605494e-001	 2.507165715591338e+000	-9.857598143236006e+000
1	 9.203698118197512e-001	 2.517010184464658e+000	-1.089937450604557e+001
1	 8.938406192086004e-001	 2.526552903364751e+000	-1.200966289595622e+001
1	 8.672759051430791e-001	 2.535794339279474e+000	-1.319038599439919e+001
1	 8.406805286592407e-001	 2.544735059187440e+000	-1.444342225878694e+001
1	 8.140593123213008e-001	 2.553375728534892e+000	-1.577060476367282e+001
1	 7.874170398958365e-001	 2.561717109649788e+000	-1.717372010905294e+001
1	 1.062781901030611e+000	 2.489290790293080e+000	-5.598809225763915e+000
1	 1.036242825485187e+000	 2.500454875849389e+000	-6.369932803308513e+000
1	 1.009642872344632e+000	 2.511313360498441e+000	-7.204127905434361e+000
1	 9.829870956658121e-001	 2.521866297920744e+000	-8.103586628547195e+000
1	 9.562805253783321e-001	 2.532113848242760e+000	-9.070457024248835e+000
1	 9.295281646214674e-001	 2.542056276781485e+000	-1.010684156002556e+001
1	 9.027349871397038e-001	 2.551693952714053e+000	-1.121479565337661e+001
1	 8.759059347391242e-001	 2.561027347675200e+000	-1.239632628072614e+001
1	 8.490459148067616e-001	 2.570057034285387e+000	-1.365339066228142e+001
1	 8.221597978948889e-001	 2.578783684612533e+000	-1.498789502382040e+001
1	 7.952524153720766e-001	 2.587208068570322e+000	-1.640169343621146e+001
1	 1.073253161582096e+000	 2.513817000633315e+000	-4.861910458020433e+000
1	 1.046452604753855e+000	 2.525091082462769e+000	-5.614043977206029e+000
1	 1.019590570522337e+000	 2.536056552393992e+000	-6.431934111472744e+000
1	 9.926721627404798e-001	 2.546713464636391e+000	-7.317855153056497e+000
1	 9.657024608962423e-001	 2.557061980894103e+000	-8.274032819639359e+000
1	 9.386865174232991e-001	 2.567102369098211e+000	-9.302642619338887e+000
1	 9.116293550709155e-001	 2.576835002063241e+000	-1.040580829825396e+001
1	 8.845359643352754e-001	 2.586260356070796e+000	-1.158560037192876e+001
1	 8.574113009543914e-001	 2.595379009383189e+000	-1.284403474189584e+001
1	 8.302602834685960e-001	 2.604191640690019e+000	-1.418307139825501e+001
1	 8.030877908484519e-001	 2.612699027490689e+000	-1.560461320904746e+001
1	 1.083724422133662e+000	 2.538343210973550e+000	-4.124781420332630e+000
1	 1.056662384022583e+000	 2.549727289076148e+000	-4.855494618640442e+000
1	 1.029538268700084e+000	 2.560799744289543e+000	-5.654676316389673e+000
1	 1.002357229815177e+000	 2.571560631352037e+000	-6.524660389258916e+000
1	 9.751243964141757e-001	 2.582010113545447e+000	-7.467728174421116e+000
1	 9.478448702251516e-001	 2.592148461414938e+000	-8.486106765583445e+000
1	 9.205237230021511e-001	 2.601976051412428e+000	-9.581967398249171e+000
1	 8.931659939314584e-001	 2.611493364466390e+000	-1.075742392656462e+001
1	 8.657766871020662e-001	 2.620700984480991e+000	-1.201453139289204e+001
1	 8.383607690423656e-001	 2.629599596767504e+000	-1.335528469102876e+001
1	 8.109231663249130e-001	 2.638189986411056e+000	-1.478161732377775e+001
1	 1.094195682685192e+000	 2.562869421313786e+000	-3.387225732048670e+000
1	 1.066872163291252e+000	 2.574363495689549e+000	-4.093980699047005e+000
1	 1.039485966877756e+000	 2.585542936185134e+000	-4.871951202440852e+000
1	 1.012042296889793e+000	 2.596407798067745e+000	-5.723508674870108e+000
1	 9.845463319320278e-001	 2.606958246196870e+000	-6.650968599935707e+000
1	 9.570032230269305e-001	 2.617194553731764e+000	-7.656588762641220e+000
1	 9.294180909333261e-001	 2.627117100761730e+000	-8.742567596297107e+000
1	 9.017960235275987e-001	 2.636726372862115e+000	-9.911042627229934e+000
1	 8.741420732497214e-001	 2.646022959578938e+000	-1.116408901840265e+001
1	 8.464612546161421e-001	 2.655007552845147e+000	-1.250371821281810e+001
1	 8.187585418014102e-001	 2.663680945331590e+000	-1.393187667734671e+001
1	 1.104666943236571e+000	 2.587395631654025e+000	-2.649054458571462e+000
1	 1.077081942559741e+000	 2.598999702302993e+000	-3.329209717541728e+000
1	 1.049433665055237e+000	 2.610286128080809e+000	-4.083370744255258e+000
1	 1.021727363964214e+000	 2.621254964783572e+000	-4.913925065522970e+000
1	 9.939682674496941e-001	 2.631906378848451e+000	-5.823201390090580e+000
1	 9.661615758285405e-001	 2.642240646048783e+000	-6.813467839452279e+000
1	 9.383124588643562e-001	 2.652258150111261e+000	-7.886930279963360e+000
1	 9.104260531236235e-001	 2.661959381258100e+000	-9.045730757553821e+000
1	 8.825074593972930e-001	 2.671344934677172e+000	-1.029194603609843e+001
1	 8.545617401898695e-001	 2.680415508923102e+000	-1.162758624025452e+001
1	 8.265939172778938e-001	 2.689171904252460e+000	-1.305459360333865e+001
1	 1.115138203787681e+000	 2.611921841994268e+000	-1.910085761762608e+000
1	 1.087291721827932e+000	 2.623635908916500e+000	-2.560900159691018e+000
1	 1.059381363232407e+000	 2.635029319976607e+000	-3.288561490850656e+000
1	 1.031412431038330e+000	 2.646102131499581e+000	-4.095452455951904e+000
1	 1.003390202967071e+000	 2.656854511500270e+000	-4.983894598656683e+000
1	 9.753199286298868e-001	 2.667286738366093e+000	-5.956146541368021e+000
1	 9.472068267951563e-001	 2.677399199461133e+000	-7.014402325770545e+000
1	 9.190560827194577e-001	 2.687192389654475e+000	-8.160789859365746e+000
1	 8.908728455447166e-001	 2.696666909775838e+000	-9.397369468990306e+000
1	 8.626622257634922e-001	 2.705823465001527e+000	-1.072613256205747e+001
1	 8.344292927543137e-001	 2.714662863173830e+000	-1.214900039601175e+001
1	 1.125609464338406e+000	 2.636448052334516e+000	-1.170144569859563e+000
1	 1.097501501095708e+000	 2.648272115530094e+000	-1.788780986490691e+000
1	 1.069329061409152e+000	 2.659772511872570e+000	-2.487163887724238e+000
1	 1.041097498112028e+000	 2.670949298215834e+000	-3.267650750229393e+000
1	 1.012812138484053e+000	 2.681802644152406e+000	-4.132536073649602e+000
1	 9.844782814308749e-001	 2.692332830683794e+000	-5.084049645617750e+000
1	 9.561011947256430e-001	 2.702540248811464e+000	-6.124354913611640e+000
1	 9.276861123150281e-001	 2.712425398051369e+000	-7.255547464814343e+000
1	 8.992382316919289e-001	 2.721988884875083e+000	-8.479653614888401e+000
1	 8.707627113369547e-001	 2.731231421080581e+000	-9.798629106316687e+000
1	 8.422646682306207e-001	 2.740153822095873e+000	-1.121435791671542e+001
1	 7.639109134684247e-001	 2.485244232885506e+000	-1.934863039140906e+001
1	 7.380481445792873e-001	 2.493047082992633e+000	-2.076694502970946e+001
1	 7.121741063034353e-001	 2.500561330227558e+000	-2.224974898945582e+001
1	 6.862933117354153e-001	 2.507787982628420e+000	-2.379816363964112e+001
1	 6.604102280884718e-001	 2.514728135537550e+000	-2.541327819682817e+001
1	 6.345292747799888e-001	 2.521382969806464e+000	-2.709615056202157e+001
1	 6.086548215885872e-001	 2.527753749957561e+000	-2.884780815392860e+001
1	 5.827911868836834e-001	 2.533841822305532e+000	-3.066924873682580e+001
1	 5.569426359281881e-001	 2.539648613041488e+000	-3.256144124133962e+001
1	 5.311133792549037e-001	 2.545175626282792e+000	-3.452532657654706e+001
1	 5.053075711170251e-001	 2.550424442091569e+000	-3.656181843189690e+001
1	 7.717462889439609e-001	 2.510735191807548e+000	-1.864623626201950e+001
1	 7.456182476236746e-001	 2.518618075147865e+000	-2.008806148992819e+001
1	 7.194788213274722e-001	 2.526209395438529e+000	-2.159936341636922e+001
1	 6.933325694403606e-001	 2.533510171057052e+000	-2.318242682796922e+001
1	 6.671840049954464e-001	 2.540521508580616e+000	-2.483949138530182e+001
1	 6.410375927397362e-001	 2.547244600972648e+000	-2.657275071659331e+001
1	 6.148977472723328e-001	 2.553680725725668e+000	-2.838435156891757e+001
1	 5.887688312558331e-001	 2.559831242963416e+000	-3.027639301699603e+001
1	 5.626551537016211e-001	 2.565697593505348e+000	-3.225092572961707e+001
1	 5.365609683296077e-001	 2.571281296896450e+000	-3.430995129358595e+001
1	 5.104904720028426e-001	 2.576583949405427e+000	-3.645542159501648e+001
1	 7.795816644197812e-001	 2.536226150728919e+000	-1.792158999049212e+001
1	 7.531883506683611e-001	 2.544189067302395e+000	-1.938390682689047e+001
1	 7.267835363518351e-001	 2.551857460648769e+000	-2.092057587138523e+001
1	 7.003718271456699e-001	 2.559232359484935e+000	-2.253493256286788e+001
1	 6.739577819028284e-001	 2.566314881622927e+000	-2.423025494919380e+001
1	 6.475459106999372e-001	 2.573106232138085e+000	-2.600976118961531e+001
1	 6.211406729565766e-001	 2.579607701493043e+000	-2.787660717135340e+001
1	 5.947464756285221e-001	 2.585820663620601e+000	-2.983388424214456e+001
1	 5.683676714756254e-001	 2.591746573968552e+000	-3.188461706031872e+001
1	 5.420085574049048e-001	 2.597386967509508e+000	-3.403176156367442e+001
1	 5.156733728892596e-001	 2.602743456718761e+000	-3.627820305814255e+001
1	 7.874170398958365e-001	 2.561717109649788e+000	-1.717372010905294e+001
1	 7.607584537132998e-001	 2.569760059456395e+000	-1.865349464732507e+001
1	 7.340882513764792e-001	 2.577505525858459e+000	-2.021237132688304e+001
1	 7.074110848512961e-001	 2.584954547912257e+000	-2.185462688471910e+001
1	 6.807315588105687e-001	 2.592108254664673e+000	-2.358446909060693e+001
1	 6.540542286605390e-001	 2.598967863302960e+000	-2.540603280728129e+001
1	 6.273835986412624e-001	 2.605534677259869e+000	-2.732337621703562e+001
1	 6.007241200016894e-001	 2.611810084277258e+000	-2.934047721812263e+001
1	 5.740801892501380e-001	 2.617795554431263e+000	-3.146122999388918e+001
1	 5.474561464807286e-001	 2.623492638122118e+000	-3.368944175712422e+001
1	 5.208562737762096e-001	 2.628902964031701e+000	-3.602882967165843e+001
1	 7.952524153720766e-001	 2.587208068570322e+000	-1.640169343621146e+001
1	 7.683285567584447e-001	 2.595331051610042e+000	-1.789587743246921e+001
1	 7.413929664013588e-001	 2.603153591067784e+000	-1.947377475825225e+001
1	 7.144503425571933e-001	 2.610676736339205e+000	-2.114049737125513e+001
1	 6.875053357186182e-001	 2.617901627706041e+000	-2.290107735551614e+001
1	 6.605625466214887e-001	 2.624829494467460e+000	-2.476046168559915e+001
1	 6.336265243263337e-001	 2.631461653026330e+000	-2.672350720518532e+001
1	 6.067017643752751e-001	 2.637799504933566e+000	-2.879497582483096e+001
1	 5.797927070250946e-001	 2.643844534893646e+000	-3.097952994304226e+001
1	 5.529037355570139e-001	 2.649598308734429e+000	-3.328172809421468e+001
1	 5.260391746636258e-001	 2.655062471344380e+000	-3.570602082638863e+001
1	 8.030877908484519e-001	 2.612699027490689e+000	-1.560461320904746e+001
1	 7.758986598037490e-001	 2.620902043763512e+000	-1.711014464166120e+001
1	 7.486976814264280e-001	 2.628801656276926e+000	-1.870384919243372e+001
1	 7.214896002633143e-001	 2.636398924765966e+000	-2.039157111124998e+001
1	 6.942791126269274e-001	 2.643695000747222e+000	-2.217906451933247e+001
1	 6.670708645827340e-001	 2.650691125631771e+000	-2.407198702102724e+001
1	 6.398694500117332e-001	 2.657388628792607e+000	-2.607589357377860e+001
1	 6.126794087492188e-001	 2.663788925589698e+000	-2.819623062224962e+001
1	 5.855052248004320e-001	 2.669893515355864e+000	-3.043833050180173e+001
1	 5.583513246336941e-001	 2.675703979346590e+000	-3.280740611580612e+001
1	 5.312220755514417e-001	 2.681221978656926e+000	-3.530854589052922e+001
1	 8.109231663249130e-001	 2.638189986411056e+000	-1.478161732377775e+001
1	 7.834687628491668e-001	 2.646473035916982e+000	-1.629542092587466e+001
1	 7.560023964516420e-001	 2.654449721486068e+000	-1.790169386959409e+001
1	 7.285288579696130e-001	 2.662121113192726e+000	-1.960691279568393e+001
1	 7.010528895354476e-001	 2.669488373788401e+000	-2.141745459504958e+001
1	 6.735791825442224e-001	 2.676552756796084e+000	-2.333958900919493e+001
1	 6.461123756974059e-001	 2.683315604558885e+000	-2.537947152848979e+001
1	 6.186570531234599e-001	 2.689778346245831e+000	-2.754313659525615e+001
1	 5.912177425760863e-001	 2.695942495818081e+000	-2.983649111779180e+001
1	 5.637989137107039e-001	 2.701809649958751e+000	-3.226530830059100e+001
1	 5.364049764395906e-001	 2.707381485969473e+000	-3.483522179516879e+001
1	 8.187585418014102e-001	 2.663680945331590e+000	-1.393187667734671e+001
1	 7.910388658946517e-001	 2.672044028070630e+000	-1.545086444383004e+001
1	 7.633071114769551e-001	 2.680097786695394e+000	-1.706644251035494e+001
1	 7.355681156760424e-001	 2.687843301619675e+000	-1.878562291851093e+001
1	 7.078266664441294e-001	 2.695281746829770e+000	-2.061530895576010e+001
1	 6.800875005059012e-001	 2.702414387960583e+000	-2.256228688312851e+001
1	 6.523553013832940e-001	 2.709242580325346e+000	-2.463321799629507e+001
1	 6.246346974979380e-001	 2.715767766902138e+000	-2.683463102793340e+001
1	 5.969302603519940e-001	 2.721991476280464e+000	-2.917291489818339e+001
1	 5.692465027879767e-001	 2.727915320571062e+000	-3.165431181916033e+001
1	 5.415878773280060e-001	 2.733540993282151e+000	-3.428491075844566e+001
1	 8.265939172778938e-001	 2.689171904252460e+000	-1.305459360333865e+001
1	 7.986089689401570e-001	 2.697615020224630e+000	-1.457566527387589e+001
1	 7.706118265023212e-001	 2.705745851905084e+000	-1.619726168157223e+001
1	 7.426073733825566e-001	 2.713565490046997e+000	-1.792683607975710e+001
1	 7.146004433529239e-001	 2.721075119871516e+000	-1.977172456395266e+001
1	 6.865958184677173e-001	 2.728276019125458e+000	-2.173913706305257e+001
1	 6.585982270693412e-001	 2.735169556092173e+000	-2.383614869546413e+001
1	 6.306123418725927e-001	 2.741757187558796e+000	-2.606969149877499e+001
1	 6.026427781280914e-001	 2.748040456743174e+000	-2.844654654042563e+001
1	 5.746940918654472e-001	 2.754020991183672e+000	-3.097333641580639e+001
1	 5.467707782166210e-001	 2.759700500595091e+000	-3.365651813914362e+001
1	 8.344292927543137e-001	 2.714662863173830e+000	-1.214900039601175e+001
1	 8.061790719856369e-001	 2.723186012379159e+000	-1.366904391534682e+001
1	 7.779165415276959e-001	 2.731393917115324e+000	-1.529334925418951e+001
1	 7.496466310891083e-001	 2.739287678474881e+000	-1.702971938422321e+001
1	 7.213742202617817e-001	 2.746868492913827e+000	-1.888583230057262e+001
1	 6.931041364296190e-001	 2.754137650290895e+000	-2.086923141043214e+001
1	 6.648411527554916e-001	 2.761096531859548e+000	-2.298731631428928e+001
1	 6.365899862473644e-001	 2.767746608215980e+000	-2.524733398884347e+001
1	 6.083552959043146e-001	 2.774089437206379e+000	-2.765637037956175e+001
1	 5.801416809430494e-001	 2.780126661796730e+000	-3.022134240966643e+001
1	 5.519536791053693e-001	 2.785860007908425e+000	-3.294899041121706e+001
1	 8.422646682306207e-001	 2.740153822095873e+000	-1.121435791671542e+001
1	 8.137491750310451e-001	 2.748757004534392e+000	-1.273024987356985e+001
1	 7.852212565530335e-001	 2.757041982326296e+000	-1.435393294716797e+001
1	 7.566858887956514e-001	 2.765009866903514e+000	-1.609347092956678e+001
1	 7.281479971706540e-001	 2.772661865956894e+000	-1.795679538734743e+001
1	 6.996124543915533e-001	 2.779999281457081e+000	-1.995169557946845e+001
1	 6.710840784416883e-001	 2.787023507627656e+000	-2.208580879147179e+001
1	 6.425676306221918e-001	 2.793736028873866e+000	-2.436661109552271e+001
1	 6.140678136806004e-001	 2.800138417670240e+000	-2.680140854453657e+001
1	 5.855892700207175e-001	 2.806232332410390e+000	-2.939732880743506e+001
1	 5.571365799941845e-001	 2.812019515222284e+000	-3.216131325137074e+001
1	 5.053075711170251e-001	 2.550424442091569e+000	-3.656181843189690e+001
1	 4.795331713038518e-001	 2.555395989676932e+000	-3.866767719097125e+001
1	 4.537903379149098e-001	 2.560092804066504e+000	-4.083829126509934e+001
1	 4.280830402778991e-001	 2.564516682315065e+000	-4.307160976163299e+001
1	 4.024151861583350e-001	 2.568669489165140e+000	-4.536564671426032e+001
1	 3.767906205842475e-001	 2.572553154955150e+000	-4.771848509387468e+001
1	 3.512131247447561e-001	 2.576169673513514e+000	-5.012828056382848e+001
1	 3.256864149621451e-001	 2.579521100041421e+000	-5.259326497932965e+001
1	 3.002141417369426e-001	 2.582609548986935e+000	-5.511174963136717e+001
1	 2.747998888654161e-001	 2.585437191913076e+000	-5.768212823615546e+001
1	 2.494471726288109e-001	 2.588006255362404e+000	-6.030287967166674e+001
1	 5.104904720028426e-001	 2.576583949405427e+000	-3.645542159501648e+001
1	 4.844517061535697e-001	 2.581606489772226e+000	-3.868568354602826e+001
1	 4.584448305029267e-001	 2.586351479026043e+000	-4.099785226574635e+001
1	 4.324738550916993e-001	 2.590820732653894e+000	-4.339104032637518e+001
1	 4.065427277670497e-001	 2.595016134524814e+000	-4.586440396871301e+001
1	 3.806553329951613e-001	 2.598939634776542e+000	-4.841714562846278e+001
1	 3.548154907485164e-001	 2.602593247688027e+000	-5.104851627809969e+001
1	 3.290269554674278e-001	 2.605979049540489e+000	-5.375781758488401e+001
1	 3.032934150953240e-001	 2.609099176469709e+000	-5.654440388604385e+001
1	 2.776184901871918e-001	 2.611955822312248e+000	-5.940768398257375e+001
1	 2.520057330904998e-001	 2.614551236448130e+000	-6.234712275349324e+001
1	 5.156733728892596e-001	 2.602743456718761e+000	-3.627820305814255e+001
1	 4.893702410038772e-001	 2.607816989867085e+000	-3.862390456528911e+001
1	 4.630993230915090e-001	 2.612610153985244e+000	-4.106780698501498e+001
1	 4.368646699060309e-001	 2.617124782992494e+000	-4.361019118631470e+001
1	 4.106702693762561e-001	 2.621362779884366e+000	-4.625136081081581e+001
1	 3.845200454065251e-001	 2.625326114597917e+000	-4.899164327802654e+001
1	 3.584178567526873e-001	 2.629016821862626e+000	-5.183139067809167e+001
1	 3.323674959730879e-001	 2.632436999039727e+000	-5.477098055352121e+001
1	 3.063726884540590e-001	 2.635588803952722e+000	-5.781081657160102e+001
1	 2.804370915093106e-001	 2.638474452711707e+000	-6.095132908942556e+001
1	 2.545642935525385e-001	 2.641096217534166e+000	-6.419297561370908e+001
1	 5.208562737762096e-001	 2.628902964031701e+000	-3.602882967165843e+001
1	 4.942887758547083e-001	 2.634027489961617e+000	-3.848100362202941e+001
1	 4.677538156805934e-001	 2.638868828944194e+000	-4.104682838261560e+001
1	 4.412554847208340e-001	 2.643428833330921e+000	-4.372775791060762e+001
1	 4.147978109858974e-001	 2.647709425243827e+000	-4.652524839660891e+001
1	 3.883847578182855e-001	 2.651712594419279e+000	-4.944075771244830e+001
1	 3.620202227572169e-001	 2.655440396037277e+000	-5.247574481923456e+001
1	 3.357080364790732e-001	 2.658894948539082e+000	-5.563166913804150e+001
1	 3.094519618130930e-001	 2.662078431435898e+000	-5.890998988565772e+001
1	 2.832556928317134e-001	 2.664993083111359e+000	-6.231216537787990e+001
1	 2.571228540148597e-001	 2.667641198620404e+000	-6.583965230284771e+001
1	 5.260391746636258e-001	 2.655062471344380e+000	-3.570602082638864e+001
1	 4.992073107059977e-001	 2.660237990055931e+000	-3.825569676700244e+001
1	 4.724083082701172e-001	 2.665127503902978e+000	-4.093364171792695e+001
1	 4.456462995360489e-001	 2.669732883669232e+000	-4.374248747702275e+001
1	 4.189253525959176e-001	 2.674056070603222e+000	-4.668484788823896e+001
1	 3.922494702303885e-001	 2.678099074240623e+000	-4.976331669574862e+001
1	 3.656225887620537e-001	 2.681863970211957e+000	-5.298046543184508e+001
1	 3.390485769853320e-001	 2.685352898038498e+000	-5.633884134195533e+001
1	 3.125312351723726e-001	 2.688568058919159e+000	-5.984096534998098e+001
1	 2.860742941543414e-001	 2.691511713511108e+000	-6.348933006701215e+001
1	 2.596814144773963e-001	 2.694186179706736e+000	-6.728639784630235e+001
1	 5.312220755514417e-001	 2.681221978656926e+000	-3.530854589052921e+001
1	 5.041258455576798e-001	 2.686448490150136e+000	-3.794675015868293e+001
1	 4.770628008600168e-001	 2.691386178861674e+000	-4.072702199867178e+001
1	 4.500371143516156e-001	 2.696036934007483e+000	-4.365317576408521e+001
1	 4.230528942062600e-001	 2.700402715962583e+000	-4.672898801452040e+001
1	 3.961141826427810e-001	 2.704485554061952e+000	-4.995819373991959e+001
1	 3.692249547671452e-001	 2.708287544386637e+000	-5.334448269297683e+001
1	 3.423891174918126e-001	 2.711810847537922e+000	-5.689149583398460e+001
1	 3.156105085318437e-001	 2.715057686402432e+000	-6.060282189214337e+001
1	 2.888928954771354e-001	 2.718030343910860e+000	-6.448199404699489e+001
1	 2.622399749400806e-001	 2.720731160793048e+000	-6.853248673328474e+001
1	 5.364049764395906e-001	 2.707381485969473e+000	-3.483522179516879e+001
1	 5.090443804096894e-001	 2.712658990244341e+000	-3.755297764249127e+001
1	 4.817172934502299e-001	 2.717644853820371e+000	-4.042579157750188e+001
1	 4.544279291674744e-001	 2.722340984345731e+000	-4.345866518861043e+001
1	 4.271804358168682e-001	 2.726749361321934e+000	-4.665654277292122e+001
1	 3.999788950554091e-001	 2.730872033883266e+000	-5.002430589477334e+001
1	 3.728273207724401e-001	 2.734711118561287e+000	-5.356676812744606e+001
1	 3.457296579984633e-001	 2.738268797037303e+000	-5.728866998346631e+001
1	 3.186897818914524e-001	 2.741547313885638e+000	-6.119467403839372e+001
1	 2.917114968000368e-001	 2.744548974310516e+000	-6.528936025239781e+001
1	 2.647985354028455e-001	 2.747276141879232e+000	-6.957722149338618e+001
1	 5.415878773280060e-001	 2.733540993282151e+000	-3.428491075844566e+001
1	 5.139629152619605e-001	 2.738869490338654e+000	-3.707323846901505e+001
1	 4.863717860406928e-001	 2.743903528779151e+000	-4.002881788658546e+001
1	 4.588187439835655e-001	 2.748645034684032e+000	-4.315784247888725e+001
1	 4.313079774276855e-001	 2.753096006681305e+000	-4.646642926349767e+001
1	 4.038436074682189e-001	 2.757258513704562e+000	-4.996061166469614e+001
1	 3.764296867778863e-001	 2.761134692735884e+000	-5.364633262937686e+001
1	 3.490701985052323e-001	 2.764726746536587e+000	-5.752943800856259e+001
1	 3.217690552511447e-001	 2.768036941368701e+000	-6.161567021029249e+001
1	 2.945300981229865e-001	 2.771067604709985e+000	-6.591066212889186e+001
1	 2.673570958656238e-001	 2.773821122965178e+000	-7.041993135486919e+001
1	 5.467707782166210e-001	 2.759700500595091e+000	-3.365651813914362e+001
1	 5.188814501144281e-001	 2.765079990433186e+000	-3.650643514200618e+001
1	 4.910262786313429e-001	 2.770162203738097e+000	-3.953501130103851e+001
1	 4.632095587998288e-001	 2.774949085022442e+000	-4.274963657451231e+001
1	 4.354355190386554e-001	 2.779442652040723e+000	-4.615760564602302e+001
1	 4.077083198811573e-001	 2.783644993525843e+000	-4.976610904388576e+001
1	 3.800320527834320e-001	 2.787558266910397e+000	-5.358222459627163e+001
1	 3.524107390120677e-001	 2.791184696035717e+000	-5.761290922979006e+001
1	 3.248483286108669e-001	 2.794526568851548e+000	-6.186499111822413e+001
1	 2.973486994459259e-001	 2.797586235109167e+000	-6.634516218715851e+001
1	 2.699156563283478e-001	 2.800366104050776e+000	-7.105997097927016e+001
1	 5.519536791053693e-001	 2.785860007908425e+000	-3.294899041121707e+001
1	 5.237999849670263e-001	 2.791290490528043e+000	-3.585151138762345e+001
1	 4.956807712221167e-001	 2.796420878697292e+000	-3.894332312273187e+001
1	 4.676003736162050e-001	 2.801253135361017e+000	-4.223301664454661e+001
1	 4.395630606497217e-001	 2.805789297400218e+000	-4.572906921221368e+001
1	 4.115730322941702e-001	 2.810031473347105e+000	-4.943983366228500e+001
1	 3.836344187890254e-001	 2.813981841084797e+000	-5.337352816820823e+001
1	 3.557512795189180e-001	 2.817642645534646e+000	-5.753822642194678e+001
1	 3.279276019705646e-001	 2.821016196334099e+000	-6.194184824542082e+001
1	 3.001673007687956e-001	 2.824104865507973e+000	-6.659215063827314e+001
1	 2.724742167909505e-001	 2.826911085135917e+000	-7.149671926729357e+001
1	 5.571365799941845e-001	 2.812019515222284e+000	-3.216131325137074e+001
1	 5.287185198196900e-001	 2.817500990623337e+000	-3.510745023702413e+001
1	 5.003352638129517e-001	 2.822679553656821e+000	-3.825274367663528e+001
1	 4.719911884326337e-001	 2.827557185699814e+000	-4.160699021629425e+001
1	 4.436906022608280e-001	 2.832135942759818e+000	-4.517985456555608e+001
1	 4.154377447072045e-001	 2.836417953168350e+000	-4.898085703500270e+001
1	 3.872367847946145e-001	 2.840405415259060e+000	-5.301936156531939e+001
1	 3.590918200257314e-001	 2.844100595033316e+000	-5.730456425802858e+001
1	 3.310068753301844e-001	 2.847505823816278e+000	-6.184548241660180e+001
1	 3.029859020915368e-001	 2.850623495906301e+000	-6.665094410525596e+001
1	 2.750327772533645e-001	 2.853456066220491e+000	-7.172957823135859e+001
1	 2.494471726288109e-001	 2.588006255362404e+000	-6.030287967166674e+001
1	 2.241556613584017e-001	 2.590319346644739e+000	-6.296605272995095e+001
1	 1.989325871316730e-001	 2.592378392617928e+000	-6.565821544520748e+001
1	 1.737813118221734e-001	 2.594185773617187e+000	-6.837105039915601e+001
1	 1.487051256341049e-001	 2.595743916486777e+000	-7.109647268050031e+001
1	 1.237072466452768e-001	 2.597055292441034e+000	-7.382663850185276e+001
1	 9.879082041758477e-002	 2.598122414936711e+000	-7.655395316109446e+001
1	 7.395891967371854e-002	 2.598947837558706e+000	-7.927107835336008e+001
1	 4.921454403874689e-002	 2.599534151921171e+000	-8.197093884105478e+001
1	 2.456061984517374e-002	 2.599883985585925e+000	-8.464672849045660e+001
1	 0.000000000000000e+000	 2.600000000000000e+000	-8.729191568454391e+001
1	 2.520057330904998e-001	 2.614551236448130e+000	-6.234712275349324e+001
1	 2.264548087346185e-001	 2.616888052930142e+000	-6.535591960097638e+001
1	 2.009730233758899e-001	 2.618968218379762e+000	-6.842127091501061e+001
1	 1.755637733703354e-001	 2.620794137547128e+000	-7.153517290408283e+001
1	 1.502303826695234e-001	 2.622368262168459e+000	-7.468983303294000e+001
1	 1.249761023588341e-001	 2.623693088805149e+000	-7.787767862400621e+001
1	 9.980411026394451e-002	 2.624771156694291e+000	-8.109136483217388e+001
1	 7.471751062421959e-002	 2.625605045612707e+000	-8.432378199835546e+001
1	 4.971933383164673e-002	 2.626197373756539e+000	-8.756806238836042e+001
1	 2.481253623389227e-002	 2.626550795638311e+000	-9.081758632478352e+001
1	 0.000000000000000e+000	 2.626668000003317e+000	-9.406598772064965e+001
1	 2.545642935525385e-001	 2.641096217534166e+000	-6.419297561370908e+001
1	 2.287539561112106e-001	 2.643456759215848e+000	-6.753015320584355e+001
1	 2.030134596205190e-001	 2.645558044141875e+000	-7.095085421340286e+001
1	 1.773462349189482e-001	 2.647402501477304e+000	-7.444756640709791e+001
1	 1.517556397054234e-001	 2.648992607850319e+000	-7.801296469544535e+001
1	 1.262449580728870e-001	 2.650330885169382e+000	-8.163991950181797e+001
1	 1.008174001107880e-001	 2.651419898451923e+000	-8.532150455481609e+001
1	 7.547610157515765e-002	 2.652262253666700e+000	-8.905100409654669e+001
1	 5.022412362489306e-002	 2.652860595591853e+000	-9.282191951451964e+001
1	 2.506445262281448e-002	 2.653217605690610e+000	-9.662797540394351e+001
1	 0.000000000000000e+000	 2.653336000006534e+000	-1.004631250682081e+002
1	 2.571228540148597e-001	 2.667641198620404e+000	-6.583965230284771e+001
1	 2.310531034880990e-001	 2.670025465501747e+000	-6.948809018929012e+001
1	 2.050538958654675e-001	 2.672147869904146e+000	-7.324642921653188e+001
1	 1.791286964679059e-001	 2.674010865407591e+000	-7.710782144785759e+001
1	 1.532808967416889e-001	 2.675616953532234e+000	-8.106557916408809e+001
1	 1.275138137873141e-001	 2.676968681533611e+000	-8.511318281047839e+001
1	 1.018306899579956e-001	 2.678068640209493e+000	-8.924428840772627e+001
1	 7.623469252642391e-002	 2.678919461720579e+000	-9.345273443089167e+001
1	 5.072891341839939e-002	 2.679523817427006e+000	-9.773254816107053e+001
1	 2.531636901188944e-002	 2.679884415742720e+000	-1.020779515156595e+002
1	 0.000000000000000e+000	 2.680004000009550e+000	-1.064833663639853e+002
1	 2.596814144773963e-001	 2.694186179706736e+000	-6.728639784630235e+001
1	 2.333522508652044e-001	 2.696594171787714e+000	-7.122909333937965e+001
1	 2.070943321106425e-001	 2.698737695666449e+000	-7.530748092958326e+001
1	 1.809111580171025e-001	 2.700619229337863e+000	-7.951554470314761e+001
1	 1.548061537782039e-001	 2.702241299214085e+000	-8.384739930508314e+001
1	 1.287826695019940e-001	 2.703606477897717e+000	-8.829729725307732e+001
1	 1.028439798054475e-001	 2.704717381966886e+000	-9.285963577699397e+001
1	 7.699328347790971e-002	 2.705576669774232e+000	-9.752896318699327e+001
1	 5.123370321207928e-002	 2.706187039261896e+000	-1.022999847742330e+002
1	 2.556828540106627e-002	 2.706551225794539e+000	-1.071675682490109e+002
1	 0.000000000000000e+000	 2.706672000012267e+000	-1.121267487220453e+002
1	 2.622399749400806e-001	 2.720731160793048e+000	-6.853248673328474e+001
1	 2.356513982424475e-001	 2.723162878073632e+000	-7.275255031215706e+001
1	 2.091347683559512e-001	 2.725327521428659e+000	-7.713351445604536e+001
1	 1.826936195664324e-001	 2.727227593267997e+000	-8.167035819966901e+001
1	 1.563314108148519e-001	 2.728865644895742e+000	-8.635815880012126e+001
1	 1.300515252168052e-001	 2.730244274261580e+000	-9.119209821776303e+001
1	 1.038572696530242e-001	 2.731366123723988e+000	-9.616746919475092e+001
1	 7.775187442950630e-002	 2.732233877827550e+000	-1.012796809334582e+002
1	 5.173849300584624e-002	 2.732850261096415e+000	-1.065242643778555e+002
1	 2.582020179029408e-002	 2.733218035845966e+000	-1.118968771016886e+002
1	 0.000000000000000e+000	 2.733340000014584e+000	-1.173933078080293e+002
1	 2.647985354028455e-001	 2.747276141879232e+000	-6.957722149338618e+001
1	 2.379505456197491e-001	 2.749731584359379e+000	-7.405787243024086e+001
1	 2.111752046013010e-001	 2.751917347190656e+000	-7.872405402673250e+001
1	 1.844760811157895e-001	 2.753835957197865e+000	-8.357189857246169e+001
1	 1.578566678515173e-001	 2.755489990577085e+000	-8.859760162385901e+001
1	 1.313203809316262e-001	 2.756882070625080e+000	-9.379742745477856e+001
1	 1.048705595006058e-001	 2.758014865480682e+000	-9.916771418717963e+001
1	 7.851046538110504e-002	 2.758891085880423e+000	-1.047048786033928e+002
1	 5.224328279961380e-002	 2.759513482930462e+000	-1.104054206421302e+002
1	 2.607211817952194e-002	 2.759884845896900e+000	-1.162659275810318e+002
1	 0.000000000000000e+000	 2.760008000016400e+000	-1.222830779091290e+002
1	 2.673570958656238e-001	 2.773821122965178e+000	-7.041993135486919e+001
1	 2.402496929970300e-001	 2.776300290644838e+000	-7.514449355039832e+001
1	 2.132156408465988e-001	 2.778507172952312e+000	-8.007864208455881e+001
1	 1.862585426650682e-001	 2.780444321127342e+000	-8.521981636590895e+001
1	 1.593819248880836e-001	 2.782114336257992e+000	-9.056548155140801e+001
1	 1.325892366463357e-001	 2.783519866988098e+000	-9.611313277204019e+001
1	 1.058838493480728e-001	 2.784663607236856e+000	-1.018602991312526e+002
1	 7.926905633259714e-002	 2.785548293932743e+000	-1.078045474769611e+002
1	 5.274807259329551e-002	 2.786176704763929e+000	-1.139434859483635e+002
1	 2.632403456869898e-002	 2.786551655947240e+000	-1.202747672992627e+002
1	 0.000000000000000e+000	 2.786676000017617e+000	-1.267960920000419e+002
1	 2.699156563283478e-001	 2.800366104050776e+000	-7.105997097927015e+001
1	 2.425488403742109e-001	 2.802868996929889e+000	-7.601186899552711e+001
1	 2.152560770917520e-001	 2.805096998713504e+000	-8.119683842136664e+001
1	 1.880410042141624e-001	 2.807052685056305e+000	-8.661377537449630e+001
1	 1.609071819244348e-001	 2.808738681938335e+000	-9.226156169383907e+001
1	 1.338580923608121e-001	 2.810157663350514e+000	-9.813906774803192e+001
1	 1.068971391953055e-001	 2.811312348992394e+000	-1.042451551196158e+002
1	 8.002764728387389e-002	 2.812205501984400e+000	-1.105786791649367e+002
1	 5.325286238680489e-002	 2.812839926596714e+000	-1.171384914500635e+002
1	 2.657595095777430e-002	 2.813218465996884e+000	-1.239234420633060e+002
1	 0.000000000000000e+000	 2.813344000018133e+000	-1.309323818051755e+002
1	 2.724742167909505e-001	 2.826911085135917e+000	-7.149671926729357e+001
1	 2.448479877512127e-001	 2.829437703214412e+000	-7.665947454681007e+001
1	 2.172965133366677e-001	 2.831686824474107e+000	-8.207821936338497e+001
1	 1.898234657629665e-001	 2.833661048984628e+000	-8.775345202071280e+001
1	 1.624324389604548e-001	 2.835363027617995e+000	-9.368561405985363e+001
1	 1.351269480749341e-001	 2.836795459712210e+000	-9.987509146087433e+001
1	 1.079104290421841e-001	 2.837961090747182e+000	-1.063222158330878e+002
1	 8.078623823482663e-002	 2.838862710035284e+000	-1.130272655931795e+002
1	 5.375765218005548e-002	 2.839503148428710e+000	-1.199904671305843e+002
1	 2.682786734669698e-002	 2.839885276045730e+000	-1.272119959595458e+002
1	 0.000000000000000e+000	 2.840012000017850e+000	-1.346919778573470e+002
1	 2.750327772533645e-001	 2.853456066220491e+000	-7.172957823135859e+001
1	 2.471471351279563e-001	 2.856006409498290e+000	-7.708680549212416e+001
1	 2.193369495812531e-001	 2.858276650234000e+000	-8.272237700215453e+001
1	 1.916059273113746e-001	 2.860269412912185e+000	-8.863853476767643e+001
1	 1.639576959960275e-001	 2.861987373296846e+000	-9.483741914192160e+001
1	 1.363958037885802e-001	 2.863433256073065e+000	-1.013210682325159e+002
1	 1.089237188885891e-001	 2.864609832501104e+000	-1.080914174202741e+002
1	 8.154482918534663e-002	 2.865519918085287e+000	-1.151502989879800e+002
1	 5.426244197296083e-002	 2.866166370259814e+000	-1.224994418575537e+002
1	 2.707978373541613e-002	 2.866552086093679e+000	-1.301404714338548e+002
1	 0.000000000000000e+000	 2.866680000016666e+000	-1.380749095532063e+002
1	 2.866680000016666e+000	 0.000000000000000e+000	 1.061456440258109e+002
1	 2.866552086093679e+000	 2.707978373541622e-002	 1.004658503128932e+002
1	 2.866166370259814e+000	 5.426244197296101e-002	 9.493633005566058e+001
1	 2.865519918085286e+000	 8.154482918534640e-002	 8.955709769868830e+001
1	 2.864609832501105e+000	 1.089237188885890e-001	 8.432823632896073e+001
1	 2.863433256073065e+000	 1.363958037885802e-001	 7.924990042671890e+001
1	 2.861987373296846e+000	 1.639576959960276e-001	 7.432231855949428e+001
1	 2.860269412912185e+000	 1.916059273113747e-001	 6.954579601151900e+001
1	 2.858276650234000e+000	 2.193369495812528e-001	 6.492071734055466e+001
1	 2.856006409498290e+000	 2.471471351279561e-001	 6.044754885405234e+001
1	 2.853456066220490e+000	 2.750327772533643e-001	 5.612684099644678e+001
1	 2.893344000014533e+000	 0.000000000000000e+000	 1.061357136683413e+002
1	 2.893214896319162e+000	 2.733166233832871e-002	 1.003406847178189e+002
1	 2.892825592806659e+000	 5.476715605077943e-002	 9.470538348105517e+001
1	 2.892173127753058e+000	 8.230330635240593e-002	 8.922962515556384e+001
1	 2.891254577142689e+000	 1.099368567485596e-001	 8.391327613539491e+001
1	 2.890067056963325e+000	 1.376644691828235e-001	 7.875625679315468e+001
1	 2.888607725522634e+000	 1.654827242539523e-001	 7.375854423407616e+001
1	 2.886873785783859e+000	 1.933881215034428e-001	 6.892017501513379e+001
1	 2.884862487718648e+000	 2.213770797753011e-001	 6.424124782201179e+001
1	 2.882571130674752e+000	 2.494459376495117e-001	 5.972192609656486e+001
1	 2.879997065756335e+000	 2.775909539506485e-001	 5.536244060725333e+001
1	 2.920008000011599e+000	 0.000000000000000e+000	 1.058767134938846e+002
1	 2.919877706543843e+000	 2.758354094103635e-002	 9.998765719470218e+001
1	 2.919484815352702e+000	 5.527187012824735e-002	 9.426661729779336e+001
1	 2.918826337420027e+000	 8.306178351902126e-002	 8.871324313540802e+001
1	 2.917899321783473e+000	 1.109499946080370e-001	 8.332721871919928e+001
1	 2.916700857852796e+000	 1.389331345765616e-001	 7.810826552329813e+001
1	 2.915228077747647e+000	 1.670077525113894e-001	 7.305614526617056e+001
1	 2.913478158654786e+000	 1.951703156950627e-001	 6.817066268504820e+001
1	 2.911448325202586e+000	 2.234172099689541e-001	 6.345166829650659e+001
1	 2.909135851850560e+000	 2.517447401707311e-001	 5.889906113655709e+001
1	 2.906538065291594e+000	 2.801491306476535e-001	 5.451279147342032e+001
1	 2.946672000008066e+000	 0.000000000000000e+000	 1.053732557160509e+002
1	 2.946540516767922e+000	 2.783541954358862e-002	 9.941124278645647e+001
1	 2.946144037898134e+000	 5.577658420544583e-002	 9.362438275485395e+001
1	 2.945479547086380e+000	 8.382026068528942e-002	 8.801219142750401e+001
1	 2.944544066423636e+000	 1.119631324671209e-001	 8.257420368286444e+001
1	 2.943334658741643e+000	 1.402017999698862e-001	 7.730997622609576e+001
1	 2.941848429972040e+000	 1.685327807684142e-001	 7.221909036698459e+001
1	 2.940082531525107e+000	 1.969525098862874e-001	 6.730115481586682e+001
1	 2.938034162685941e+000	 2.254573401622396e-001	 6.255580849188631e+001
1	 2.935700573025822e+000	 2.540435426916158e-001	 5.798272333768323e+001
1	 2.933079064826362e+000	 2.827073073443561e-001	 5.358160713437510e+001
1	 2.973336000004133e+000	 0.000000000000000e+000	 1.046297871045767e+002
1	 2.973203326991598e+000	 2.808729814603502e-002	 9.861575601254626e+001
1	 2.972803260443157e+000	 5.628129828245599e-002	 9.278287501835492e+001
1	 2.972132756752305e+000	 8.457873785130762e-002	 8.713055773642289e+001
1	 2.971188811063356e+000	 1.129762703259114e-001	 8.165822213794948e+001
1	 2.969968459630034e+000	 1.414704653628895e-001	 7.636529324770274e+001
1	 2.968468782195969e+000	 1.700578090251025e-001	 7.125120588680024e+001
1	 2.966686904394960e+000	 1.987347040771702e-001	 6.631540745684598e+001
1	 2.964620000168841e+000	 2.274974703551854e-001	 6.155736076051734e+001
1	 2.962265294200649e+000	 2.563423452121671e-001	 5.697654685342908e+001
1	 2.959620064360733e+000	 2.852654840407330e-001	 5.257246792183673e+001
1	 3.000000000000000e+000	 0.000000000000000e+000	 1.036505963376533e+002
1	 2.999866137215068e+000	 2.833917674842506e-002	 9.760535800265021e+001
1	 2.999462482987958e+000	 5.678601235935887e-002	 9.174614010787627e+001
1	 2.998785966417990e+000	 8.533721501717292e-002	 8.607228444066851e+001
1	 2.997833555702814e+000	 1.139894081845084e-001	 8.058312330401850e+001
1	 2.996602260518139e+000	 1.427391307556632e-001	 7.527798212696087e+001
1	 2.995089134419591e+000	 1.715828372815295e-001	 7.015618214149380e+001
1	 2.993291277264493e+000	 2.005168982677645e-001	 6.521704312217665e+001
1	 2.991205837651412e+000	 2.295376005478191e-001	 6.045988618425132e+001
1	 2.988830015375152e+000	 2.586411477323863e-001	 5.588403663585151e+001
1	 2.986161063894799e+000	 2.878236607367614e-001	 5.148882687956637e+001
1	 3.026663999995867e+000	 0.000000000000000e+000	 1.024398209656241e+002
1	 3.026528947438530e+000	 2.859105535080819e-002	 9.638406325325244e+001
1	 3.026121705532733e+000	 5.729072643623559e-002	 9.051808146614191e+001
1	 3.025439176083625e+000	 8.609569218298241e-002	 8.484117499407246e+001
1	 3.024478300342188e+000	 1.150025460430116e-001	 7.935262075877012e+001
1	 3.023236061406126e+000	 1.440077961482992e-001	 7.405167570965186e+001
1	 3.021709486643062e+000	 1.731078655377712e-001	 6.893757940464639e+001
1	 3.019895650133845e+000	 2.022990924581237e-001	 6.400955667300288e+001
1	 3.017791675133779e+000	 2.315777307401684e-001	 5.926682035669388e+001
1	 3.015394736549442e+000	 2.609399502522750e-001	 5.470857412670722e+001
1	 3.012702063428655e+000	 2.903818374324178e-001	 5.033401537021089e+001
1	 3.053327999991933e+000	 0.000000000000000e+000	 1.010014540098079e+002
1	 3.053191757662185e+000	 2.884293395323394e-002	 9.495574603021061e+001
1	 3.052780928077679e+000	 5.779544051316723e-002	 8.910246618447168e+001
1	 3.052092385749396e+000	 8.685416934883318e-002	 8.344089999177768e+001
1	 3.051123044981657e+000	 1.160156839015211e-001	 7.797029836068009e+001
1	 3.049869862294164e+000	 1.452764615408896e-001	 7.268987994238466e+001
1	 3.048329838866539e+000	 1.746328937939028e-001	 6.759883358568845e+001
1	 3.046500023003159e+000	 2.040812866483011e-001	 6.269632089124308e+001
1	 3.044377512616071e+000	 2.336178609322612e-001	 5.798147886250207e+001
1	 3.041959457723628e+000	 2.632387527718343e-001	 5.345342265038548e+001
1	 3.039243062962394e+000	 2.929400141276791e-001	 4.911124838836624e+001
1	 3.079991999988400e+000	 0.000000000000000e+000	 9.933935021855922e+001
1	 3.079854567886232e+000	 2.909481255575181e-002	 9.332414643875588e+001
1	 3.079440150622987e+000	 5.830015459023485e-002	 8.750293090486572e+001
1	 3.078745595415490e+000	 8.761264651482240e-002	 8.187500292113691e+001
1	 3.077767789621402e+000	 1.170288217601367e-001	 7.643961586400582e+001
1	 3.076503663182423e+000	 1.465451269335261e-001	 7.119597936553052e+001
1	 3.074950191090176e+000	 1.761579220499999e-001	 6.614326161310468e+001
1	 3.073104395872575e+000	 2.058634808383499e-001	 6.128059176388950e+001
1	 3.070963350098414e+000	 2.356579911241252e-001	 5.660706247207067e+001
1	 3.068524178897822e+000	 2.655375552910657e-001	 5.212173252671618e+001
1	 3.065784062496109e+000	 2.954981908225221e-001	 4.782362959766510e+001
1	 3.106655999985466e+000	 0.000000000000000e+000	 9.745723200115926e+001
1	 3.106517378110865e+000	 2.934669115841125e-002	 9.149287618090474e+001
1	 3.106099373168855e+000	 5.880486866751958e-002	 8.572298741814676e+001
1	 3.105398805082099e+000	 8.837112368104710e-002	 8.014690561645574e+001
1	 3.104412534261600e+000	 1.180419596189583e-001	 7.476391424463265e+001
1	 3.103137464071066e+000	 1.478137923263007e-001	 6.957324232328776e+001
1	 3.101570543314130e+000	 1.776829503061382e-001	 6.457406654041913e+001
1	 3.099708768742238e+000	 2.076456750283234e-001	 5.976551349518219e+001
1	 3.097549187580935e+000	 2.376981213157881e-001	 5.514666206870729e+001
1	 3.095088900072133e+000	 2.678363578099707e-001	 5.071654592048249e+001
1	 3.092325062029892e+000	 2.980563675169238e-001	 4.647415610846863e+001
1	 3.133319999983334e+000	 0.000000000000000e+000	 9.535869505872792e+001
1	 3.133180188336287e+000	 2.959856976126182e-002	 8.946542401890324e+001
1	 3.132758595715477e+000	 5.930958274510247e-002	 8.376602797626860e+001
1	 3.132052014749406e+000	 8.912960084760442e-002	 7.825991343522237e+001
1	 3.131057278902433e+000	 1.190550974780861e-001	 7.294642075398868e+001
1	 3.129771264960267e+000	 1.490824577193053e-001	 6.782482590772638e+001
1	 3.128190895538556e+000	 1.792079785623932e-001	 6.289434239147377e+001
1	 3.126313141612289e+000	 2.094278692182753e-001	 5.815412326286595e+001
1	 3.124135025063762e+000	 2.397382515072778e-001	 5.360326332423038e+001
1	 3.121653621246674e+000	 2.701351603285506e-001	 4.924080144332292e+001
1	 3.118866061563838e+000	 3.006145442108607e-001	 4.506572301161403e+001
1	 2.853456066220490e+000	 2.750327772533643e-001	 5.612684099644678e+001
1	 2.850623495906301e+000	 3.029859020915370e-001	 5.195921529334476e+001
1	 2.847505823816279e+000	 3.310068753301843e-001	 4.794300367050859e+001
1	 2.844100595033316e+000	 3.590918200257314e-001	 4.407729349469834e+001
1	 2.840405415259059e+000	 3.872367847946143e-001	 4.036117018006810e+001
1	 2.836417953168350e+000	 4.154377447072045e-001	 3.679371976914963e+001
1	 2.832135942759817e+000	 4.436906022608281e-001	 3.337403155144544e+001
1	 2.827557185699815e+000	 4.719911884326337e-001	 3.010120071466669e+001
1	 2.822679553656821e+000	 5.003352638129518e-001	 2.697433102341813e+001
1	 2.817500990623338e+000	 5.287185198196899e-001	 2.399253751990480e+001
1	 2.812019515222285e+000	 5.571365799941846e-001	 2.115494924101872e+001
1	 2.879997065756335e+000	 2.775909539506485e-001	 5.536244060725333e+001
1	 2.877138148708408e+000	 3.058040806450335e-001	 5.116227444240072e+001
1	 2.873991478052574e+000	 3.340856868217606e-001	 4.711874777978235e+001
1	 2.870554576037689e+000	 3.624318594764292e-001	 4.323081404362333e+001
1	 2.866825026095203e+000	 3.908386104722579e-001	 3.949741458198634e+001
1	 2.862800475215494e+000	 4.193018774423222e-001	 3.591748137390771e+001
1	 2.858478636320326e+000	 4.478175247716250e-001	 3.248993979461963e+001
1	 2.853857290628595e+000	 4.763813446597570e-001	 2.921371143416832e+001
1	 2.848934290012431e+000	 5.049890582647982e-001	 2.608771696446549e+001
1	 2.843707559340701e+000	 5.336363169290087e-001	 2.311087904953971e+001
1	 2.838175098806853e+000	 5.623187034867332e-001	 2.028212529349273e+001
1	 2.906538065291594e+000	 2.801491306476535e-001	 5.451279147342032e+001
1	 2.903652801510020e+000	 3.086222591982991e-001	 5.029127330361961e+001
1	 2.900477132288479e+000	 3.371644983131445e-001	 4.623088797550828e+001
1	 2.897008557041791e+000	 3.657718989269653e-001	 4.233049467774308e+001
1	 2.893244636931203e+000	 3.944404361497634e-001	 3.858893016401979e+001
1	 2.889182997262623e+000	 4.231660101773192e-001	 3.500501151417483e+001
1	 2.884821329880951e+000	 4.519444472823136e-001	 3.157753897254356e+001
1	 2.880157395557621e+000	 4.807715008867808e-001	 2.830529885926912e+001
1	 2.875189026368409e+000	 5.096428527165516e-001	 2.518706654994607e+001
1	 2.869914128058541e+000	 5.385541140382391e-001	 2.222160951867765e+001
1	 2.864330682391995e+000	 5.675008269791980e-001	 1.940769043932286e+001
1	 2.933079064826362e+000	 2.827073073443561e-001	 5.358160713437511e+001
1	 2.930167454311211e+000	 3.114404377512897e-001	 4.934986398680960e+001
1	 2.926962786524052e+000	 3.402433098042759e-001	 4.528299912965593e+001
1	 2.923462538045659e+000	 3.691119383772669e-001	 4.137981598806606e+001
1	 2.919664247767075e+000	 3.980422618270483e-001	 3.763908496002874e+001
1	 2.915565519309738e+000	 4.270301429121071e-001	 3.405954616041004e+001
1	 2.911164023441680e+000	 4.560713697928024e-001	 3.063991226014056e+001
1	 2.906457500486859e+000	 4.851616571136128e-001	 2.737887141673163e+001
1	 2.901443762724703e+000	 5.142966471681204e-001	 2.427509029196555e+001
1	 2.896120696776793e+000	 5.434719111472925e-001	 2.132721715226683e+001
1	 2.890486265977629e+000	 5.726829504714953e-001	 1.853388504692759e+001
1	 2.959620064360733e+000	 2.852654840407330e-001	 5.257246792183675e+001
1	 2.956682107112062e+000	 3.142586163039617e-001	 4.834156759760116e+001
1	 2.953448440759354e+000	 3.433221212950945e-001	 4.427852788060161e+001
1	 2.949916519049338e+000	 3.724519778272608e-001	 4.038213371394294e+001
1	 2.946083858602846e+000	 4.016440875040307e-001	 3.665112618973281e+001
1	 2.941948041356847e+000	 4.308942756465978e-001	 3.308420520615447e+001
1	 2.937506717002493e+000	 4.601982923030001e-001	 2.968003223631729e+001
1	 2.932757605416278e+000	 4.895518133401607e-001	 2.643723320566194e+001
1	 2.927698499081266e+000	 5.189504416194138e-001	 2.335440147433445e+001
1	 2.922327265495393e+000	 5.483897082560816e-001	 2.043010092058336e+001
1	 2.916641849563674e+000	 5.778650739635413e-001	 1.766286912087069e+001
1	 2.986161063894799e+000	 2.878236607367614e-001	 5.148882687956637e+001
1	 2.983196759912645e+000	 3.170767948562714e-001	 4.726978005927271e+001
1	 2.979934094994438e+000	 3.464009327855402e-001	 4.322079833182951e+001
1	 2.976370500052862e+000	 3.757920172768744e-001	 3.934068429147445e+001
1	 2.972503469438535e+000	 4.052459131806286e-001	 3.562818562769181e+001
1	 2.968330563403949e+000	 4.347584083807031e-001	 3.208199762648982e+001
1	 2.963849410563380e+000	 4.643252148128150e-001	 2.870076579885131e+001
1	 2.959057710345845e+000	 4.939419695663320e-001	 2.548308863383103e+001
1	 2.953953235438047e+000	 5.236042360703407e-001	 2.242752047339392e+001
1	 2.948533834214270e+000	 5.533075053645180e-001	 1.953257450570921e+001
1	 2.942797433150047e+000	 5.830471974552515e-001	 1.679672587323125e+001
1	 3.012702063428655e+000	 2.903818374324178e-001	 5.033401537021089e+001
1	 3.009711412713035e+000	 3.198949734081749e-001	 4.613777762684551e+001
1	 3.006419749229365e+000	 3.494797442755525e-001	 4.211301744940973e+001
1	 3.002824481056273e+000	 3.791320567260345e-001	 3.825859010864060e+001
1	 2.998923080274163e+000	 4.088477388567596e-001	 3.457328468849183e+001
1	 2.994713085451048e+000	 4.386225411143345e-001	 3.105582636383029e+001
1	 2.990192104124325e+000	 4.684521373221555e-001	 2.770487881948622e+001
1	 2.985357815275526e+000	 4.983321257920344e-001	 2.451904680892888e+001
1	 2.980207971794994e+000	 5.282580305208098e-001	 2.149687885045068e+001
1	 2.974740402933362e+000	 5.582253024725133e-001	 1.863687005834929e+001
1	 2.968953016736668e+000	 5.882293209465432e-001	 1.593746510619751e+001
1	 3.039243062962394e+000	 2.929400141276791e-001	 4.911124838836624e+001
1	 3.036226065513310e+000	 3.227131519596282e-001	 4.494872211225822e+001
1	 3.032905403464191e+000	 3.525585557650713e-001	 4.095828017666695e+001
1	 3.029278462059609e+000	 3.824720961746682e-001	 3.713886448507893e+001
1	 3.025342691109753e+000	 4.124495645323417e-001	 3.348933924548496e+001
1	 3.021095607498148e+000	 4.424866738474040e-001	 3.000849295771554e+001
1	 3.016534797685311e+000	 4.725790598309302e-001	 2.669504055511581e+001
1	 3.011657920205290e+000	 5.027222820171755e-001	 2.354762569973115e+001
1	 3.006462708152062e+000	 5.329118249707301e-001	 2.056482322978192e+001
1	 3.000946971652601e+000	 5.631430995799793e-001	 1.774514175780422e+001
1	 2.995108600323453e+000	 5.934114444373319e-001	 1.508702641742428e+001
1	 3.065784062496109e+000	 2.954981908225221e-001	 4.782362959766510e+001
1	 3.062740718313545e+000	 3.255313305105880e-001	 4.370566583813061e+001
1	 3.059391057698973e+000	 3.556373672540363e-001	 3.975957428317790e+001
1	 3.055732443062912e+000	 3.858121356227027e-001	 3.598441639319833e+001
1	 3.051762301945324e+000	 4.160513902072927e-001	 3.237916419922921e+001
1	 3.047478129545251e+000	 4.463508065798235e-001	 2.894270193411821e+001
1	 3.042877491246323e+000	 4.767059823390475e-001	 2.567382782983819e+001
1	 3.037958025135103e+000	 5.071124382416631e-001	 2.257125608112322e+001
1	 3.032717444509198e+000	 5.375656194200105e-001	 1.963361897520526e+001
1	 3.027153540371921e+000	 5.680608966868282e-001	 1.685946918702722e+001
1	 3.021264183910321e+000	 5.985935679275342e-001	 1.424728223889447e+001
1	 3.092325062029892e+000	 2.980563675169238e-001	 4.647415610846863e+001
1	 3.089255371113814e+000	 3.283495090610101e-001	 4.241155633642265e+001
1	 3.085876711933771e+000	 3.587161787423873e-001	 3.851978496405905e+001
1	 3.082186424066219e+000	 3.891521750700648e-001	 3.479805493616856e+001
1	 3.078181912780898e+000	 4.196532158815303e-001	 3.124547781066672e+001
1	 3.073860651592361e+000	 4.502149393115046e-001	 2.786106496871470e+001
1	 3.069220184807347e+000	 4.808329048464161e-001	 2.464372900164570e+001
1	 3.064258130064935e+000	 5.115025944654049e-001	 2.159228527596593e+001
1	 3.058972180866352e+000	 5.422194138685597e-001	 1.870545367731571e+001
1	 3.053360109091255e+000	 5.729786937929715e-001	 1.598186053387529e+001
1	 3.047419767497192e+000	 6.037756914170658e-001	 1.342004071928802e+001
1	 3.118866061563838e+000	 3.006145442108607e-001	 4.506572301161403e+001
1	 3.115770023914197e+000	 3.311676876108510e-001	 4.106924080718456e+001
1	 3.112362366168643e+000	 3.617949902300638e-001	 3.724169920441977e+001
1	 3.108640405069572e+000	 3.924922145166819e-001	 3.358249359726879e+001
1	 3.104601523616499e+000	 4.232550415549727e-001	 3.009090581305450e+001
1	 3.100243173639482e+000	 4.540790720423593e-001	 2.676610483758371e+001
1	 3.095562878368369e+000	 4.849598273529443e-001	 2.360714772658011e+001
1	 3.090558234994752e+000	 5.158927506883083e-001	 2.061298070590605e+001
1	 3.085226917223479e+000	 5.468732083162871e-001	 1.778244046266784e+001
1	 3.079566677810541e+000	 5.778964908983216e-001	 1.511425562890787e+001
1	 3.073575351083983e+000	 6.089578149058433e-001	 1.260704845917975e+001
1	 2.812019515222285e+000	 5.571365799941846e-001	 2.115494924101872e+001
1	 2.806232332410390e+000	 5.855892700207178e-001	 1.844550692793279e+001
1	 2.800138417670241e+000	 6.140678136806009e-001	 1.584907487172865e+001
1	 2.793736028873866e+000	 6.425676306221915e-001	 1.336484074464144e+001
1	 2.787023507627656e+000	 6.710840784416882e-001	 1.099186636223657e+001
1	 2.779999281457081e+000	 6.996124543915534e-001	 8.729087342188997e+000
1	 2.772661865956895e+000	 7.281479971706544e-001	 6.575312943166354e+000
1	 2.765009866903514e+000	 7.566858887956516e-001	 4.529226088026864e+000
1	 2.757041982326296e+000	 7.852212565530333e-001	 2.589383575226632e+000
1	 2.748757004534392e+000	 8.137491750310452e-001	 7.542164819946112e-001
1	 2.740153822095873e+000	 8.422646682306209e-001	-9.779692375213154e-001
1	 2.838175098806853e+000	 5.623187034867332e-001	 2.028212529349273e+001
1	 2.832334087369945e+000	 5.910360420008765e-001	 1.758341961041863e+001
1	 2.826183490983165e+000	 6.197794746220591e-001	 1.499780324672872e+001
1	 2.819721551314392e+000	 6.485443783951878e-001	 1.252448646930611e+001
1	 2.812946594544702e+000	 6.773260677358409e-001	 1.016254719007407e+001
1	 2.805857033573426e+000	 7.061197961545839e-001	 7.910930547056399e+000
1	 2.798451370188331e+000	 7.349207580637585e-001	 5.768448676035376e+000
1	 2.790728197197666e+000	 7.637240906662786e-001	 3.733780677401420e+000
1	 2.782686200520693e+000	 7.925248759258216e-001	 1.805472782455953e+000
1	 2.774324161233401e+000	 8.213181426176583e-001	-1.806127692507079e-002
1	 2.765640957566033e+000	 8.500988684592170e-001	-1.738539691735267e+000
1	 2.864330682391995e+000	 5.675008269791980e-001	 1.940769043932285e+001
1	 2.858435842330151e+000	 5.964828139809569e-001	 1.672532947393203e+001
1	 2.852228564296800e+000	 6.254911355634441e-001	 1.415576334273687e+001
1	 2.845707073755671e+000	 6.545211261681152e-001	 1.169824209059061e+001
1	 2.838869681462532e+000	 6.835680570299278e-001	 9.351877515254284e+000
1	 2.831714785690566e+000	 7.126271379175480e-001	 7.115642649359414e+000
1	 2.824240874420563e+000	 7.416935189567915e-001	 4.988371442006102e+000
1	 2.816446527492603e+000	 7.707622925368255e-001	 2.968758644985885e+000
1	 2.808330418715852e+000	 7.998284952985153e-001	 1.055359908271617e+000
1	 2.799891317933140e+000	 8.288871102041546e-001	-7.534079109512070e-001
1	 2.791128093036881e+000	 8.579330686876658e-001	-2.459266221828387e+000
1	 2.890486265977629e+000	 5.726829504714953e-001	 1.853388504692759e+001
1	 2.884537597290914e+000	 6.019295859608803e-001	 1.587322123738012e+001
1	 2.878273637611040e+000	 6.312027965046843e-001	 1.332469471273577e+001
1	 2.871692596197584e+000	 6.604978739409091e-001	 1.088761191300222e+001
1	 2.864792768381011e+000	 6.898100463238917e-001	 8.561135732470250e+000
1	 2.857572537808359e+000	 7.191344796803980e-001	 6.344284881524541e+000
1	 2.850030378653443e+000	 7.484662798497171e-001	 4.235933455695847e+000
1	 2.842164857788168e+000	 7.778004944072670e-001	 2.234810717347968e+000
1	 2.833974636911618e+000	 8.071321146711009e-001	 3.395010950379765e-001
1	 2.825458474633451e+000	 8.364560777905349e-001	-1.451555594790802e+000
1	 2.816615228508264e+000	 8.657672689159827e-001	-3.140063699526596e+000
1	 2.916641849563674e+000	 5.778650739635413e-001	 1.766286912087069e+001
1	 2.910639352252136e+000	 6.073763579405682e-001	 1.502900842617324e+001
1	 2.904318710925769e+000	 6.369144574457069e-001	 1.250627451051462e+001
1	 2.897678118640007e+000	 6.664746217135051e-001	 1.009404628041115e+001
1	 2.890715855300007e+000	 6.960520356176770e-001	 7.791554379348521e+000
1	 2.883430289926667e+000	 7.256418214430882e-001	 5.597880408700960e+000
1	 2.875819882886823e+000	 7.552390407424989e-001	 3.511956362085473e+000
1	 2.867883188084215e+000	 7.848386962775789e-001	 1.532564278961014e+000
1	 2.859618855107833e+000	 8.144357340435661e-001	-3.416638770794734e-001
1	 2.851025631334183e+000	 8.440250453767995e-001	-2.112246110261451e+000
1	 2.842102363980034e+000	 8.736014691441837e-001	-3.780850050174111e+000
1	 2.942797433150047e+000	 5.830471974552515e-001	 1.679672587323125e+001
1	 2.936741107213719e+000	 6.128231299199427e-001	 1.419453653606450e+001
1	 2.930363784240882e+000	 6.426261183864404e-001	 1.170212026368968e+001
1	 2.923663641082820e+000	 6.724513694858384e-001	 9.318943974061229e+000
1	 2.916638942219389e+000	 7.022940249112274e-001	 7.044322174337559e+000
1	 2.909288042045350e+000	 7.321491632055713e-001	 4.877416020470514e+000
1	 2.901609387120556e+000	 7.620118016351007e-001	 2.817232595033921e+000
1	 2.893601518380587e+000	 7.918768981477353e-001	 8.626244095264996e-001
1	 2.885263073304349e+000	 8.217393534158990e-001	-9.877108629782015e-001
1	 2.876592788035182e+000	 8.515940129629497e-001	-2.735230419351548e+000
1	 2.867589499452040e+000	 8.814356693722830e-001	-4.381546117030799e+000
1	 2.968953016736668e+000	 5.882293209465432e-001	 1.593746510619751e+001
1	 2.962842862175569e+000	 6.182699018989246e-001	 1.337158602975397e+001
1	 2.956408857556267e+000	 6.483377793268121e-001	 1.091379250014768e+001
1	 2.949649163525900e+000	 6.784281172578441e-001	 8.563654483826477e+000
1	 2.942562029139025e+000	 7.085360142044866e-001	 6.320585946876641e+000
1	 2.935145794164261e+000	 7.386565049678002e-001	 4.183843733136869e+000
1	 2.927398891354493e+000	 7.687845625274863e-001	 2.152526663984452e+000
1	 2.919319848677137e+000	 7.989151000177122e-001	 2.255748664659342e-001
1	 2.910907291501007e+000	 8.290429727880865e-001	-1.598230663917607e+000
1	 2.902159944736293e+000	 8.591629805489864e-001	-3.320268259847750e+000
1	 2.893076634924131e+000	 8.892698696002971e-001	-4.942075532742583e+000
1	 2.995108600323453e+000	 5.934114444373319e-001	 1.508702641742428e+001
1	 2.988944617137589e+000	 6.237166738774360e-001	 1.256187517648138e+001
1	 2.982453930871814e+000	 6.540494402667511e-001	 1.014279723687275e+001
1	 2.975634685969126e+000	 6.844048650294583e-001	 7.829480160461265e+000
1	 2.968485116058780e+000	 7.147780034973984e-001	 5.621452466430777e+000
1	 2.961003546283265e+000	 7.451638467297289e-001	 3.518082308060108e+000
1	 2.953188395588489e+000	 7.755573234196188e-001	 1.518576373251574e+000
1	 2.945038178973707e+000	 8.059533018874843e-001	-3.780209840669303e-001
1	 2.936551509697654e+000	 8.363465921601163e-001	-2.172828374903744e+000
1	 2.927727101437364e+000	 8.667319481349110e-001	-3.867127762150064e+000
1	 2.918563770396158e+000	 8.971040698282408e-001	-5.462364597546452e+000
1	 3.021264183910321e+000	 5.985935679275342e-001	 1.424728223889447e+001
1	 3.015046372099683e+000	 6.291634458553986e-001	 1.176706274412167e+001
1	 3.008499004187416e+000	 6.597611012061848e-001	 9.390588339496100e+000
1	 3.001620208412377e+000	 6.903816128006163e-001	 7.117678256056335e+000
1	 2.994408202978528e+000	 7.210199927899073e-001	 4.947990176519901e+000
1	 2.986861298402219e+000	 7.516711884913101e-001	 2.881018691124660e+000
1	 2.978977899822394e+000	 7.823300843114627e-001	 9.160939779746422e-001
1	 2.970756509270149e+000	 8.129915037570266e-001	-9.476192845331112e-001
1	 2.962195727894137e+000	 8.436502115319760e-001	-2.711122765972613e+000
1	 2.953294258138242e+000	 8.743009157207239e-001	-4.375585085990765e+000
1	 2.944050905867969e+000	 9.049382700561296e-001	-5.942342163801677e+000
1	 3.047419767497192e+000	 6.037756914170658e-001	 1.342004071928802e+001
1	 3.041148127061755e+000	 6.346102178327341e-001	 1.098875055264544e+001
1	 3.034544077502959e+000	 6.654727621450411e-001	 8.658569760335576e+000
1	 3.027605730855529e+000	 6.963583605712530e-001	 6.429462859416948e+000
1	 3.020331289898130e+000	 7.272619820819563e-001	 4.301230839450569e+000
1	 3.012719050520982e+000	 7.581785302524974e-001	 2.273509378078487e+000
1	 3.004767404056063e+000	 7.891028452029806e-001	 3.457672805432007e-001
1	 2.996474839566311e+000	 8.200297056263144e-001	-1.482694848809696e+000
1	 2.987839946090303e+000	 8.509538309036530e-001	-3.212745695335921e+000
1	 2.978861414838772e+000	 8.818698833064261e-001	-4.845424075861422e+000
1	 2.969538041339417e+000	 9.127724702839788e-001	-6.381939526467564e+000
1	 3.073575351083983e+000	 6.089578149058433e-001	 1.260704845917975e+001
1	 3.067249882023707e+000	 6.400569898093638e-001	 1.022848589720191e+001
1	 3.060589150818339e+000	 6.711844230832489e-001	 7.948097662163291e+000
1	 3.053591253298464e+000	 7.023351083413045e-001	 5.766006732622915e+000
1	 3.046254376817458e+000	 7.335039713734894e-001	 3.682171097069225e+000
1	 3.038576802639415e+000	 7.646858720132437e-001	 1.696381710159675e+000
1	 3.030556908289346e+000	 7.958756060941377e-001	-1.917393289601545e-001
1	 3.022193169862039e+000	 8.270679074953229e-001	-1.982740367737576e+000
1	 3.013484164285995e+000	 8.582574502751353e-001	-3.677341552490859e+000
1	 3.004428571538802e+000	 8.894388508920191e-001	-5.276435934033251e+000
1	 2.995025176810348e+000	 9.206066705118045e-001	-6.781090319173231e+000
1	 2.740153822095873e+000	 8.422646682306209e-001	-9.779692375213154e-001
1	 2.731231421080580e+000	 8.707627113369549e-001	-2.611717747800415e+000
1	 2.721988884875082e+000	 8.992382316919291e-001	-4.150313012668081e+000
1	 2.712425398051369e+000	 9.276861123150280e-001	-5.593694776632925e+000
1	 2.702540248811464e+000	 9.561011947256431e-001	-6.941860327031243e+000
1	 2.692332830683795e+000	 9.844782814308750e-001	-8.194865355122484e+000
1	 2.681802644152406e+000	 1.012812138484053e+000	-9.352824764103831e+000
1	 2.670949298215834e+000	 1.041097498112028e+000	-1.041591342173606e+001
1	 2.659772511872570e+000	 1.069329061409152e+000	-1.138436685533618e+001
1	 2.648272115530094e+000	 1.097501501095708e+000	-1.225848188696330e+001
1	 2.636448052334516e+000	 1.125609464338406e+000	-1.303861720670195e+001
1	 2.765640957566033e+000	 8.500988684592170e-001	-1.738539691735267e+000
1	 2.756635566157504e+000	 8.788619818981299e-001	-3.360012911822749e+000
1	 2.747307061868638e+000	 9.076023630936984e-001	-4.885197874213883e+000
1	 2.737654621686848e+000	 9.363148474705652e-001	-6.313953772390235e+000
1	 2.727677527193472e+000	 9.649942285672722e-001	-7.646197640394150e+000
1	 2.717375166275937e+000	 9.936352605472042e-001	-8.881905311514245e+000
1	 2.706747034772116e+000	 1.022232660780905e+000	-1.002111232502841e+001
1	 2.695792738043704e+000	 1.050781112497805e+000	-1.106391477853773e+001
1	 2.684511992475504e+000	 1.079275267505267e+000	-1.201047012348156e+001
1	 2.672904626897554e+000	 1.107709748972663e+000	-1.286099790149031e+001
1	 2.660970583927155e+000	 1.136079154278113e+000	-1.361578041930364e+001
1	 2.791128093036881e+000	 8.579330686876658e-001	-2.459266221828387e+000
1	 2.782039711235067e+000	 8.869612524591196e-001	-4.065703193088969e+000
1	 2.772625238862780e+000	 9.159664944952385e-001	-5.574827834281414e+000
1	 2.762883845322852e+000	 9.449435826258268e-001	-6.986439551335193e+000
1	 2.752814805575939e+000	 9.738872624085790e-001	-8.300396561699271e+000
1	 2.742417501868467e+000	 1.002792239663169e+000	-9.516616930517989e+000
1	 2.731691425392141e+000	 1.031653183077356e+000	-1.063507955446563e+001
1	 2.720636177871811e+000	 1.060464726883158e+000	-1.165582509062203e+001
1	 2.709251473078593e+000	 1.089221473600946e+000	-1.257895682782896e+001
1	 2.697537138265090e+000	 1.117917996849190e+000	-1.340464149802996e+001
1	 2.685493115519782e+000	 1.146548844217417e+000	-1.413311002516788e+001
1	 2.816615228508264e+000	 8.657672689159827e-001	-3.140063699526596e+000
1	 2.807443856313126e+000	 8.950605230199543e-001	-4.728888623925659e+000
1	 2.797943415857370e+000	 9.243306258965954e-001	-6.219497905348868e+000
1	 2.788113068959254e+000	 9.535723177808729e-001	-7.611651478983039e+000
1	 2.777952083958753e+000	 9.827802962496398e-001	-8.905169722912007e+000
1	 2.767459837461291e+000	 1.011949218778858e+000	-1.009993455194362e+001
1	 2.756635816012398e+000	 1.041073705373506e+000	-1.119589045717860e+001
1	 2.745479617700091e+000	 1.070148341268192e+000	-1.219304548856299e+001
1	 2.733990953681790e+000	 1.099167679696300e+000	-1.309147217772601e+001
1	 2.722169649632665e+000	 1.128126244725396e+000	-1.389130839846946e+001
1	 2.710015647112380e+000	 1.157018534156420e+000	-1.459275816235122e+001
1	 2.842102363980034e+000	 8.736014691441837e-001	-3.780850050174111e+000
1	 2.832848001391535e+000	 9.031597935806651e-001	-5.349665648414676e+000
1	 2.823261592852275e+000	 9.326947572978150e-001	-6.819492517551547e+000
1	 2.813342292595934e+000	 9.622010529357664e-001	-8.190071008194940e+000
1	 2.803089362341806e+000	 9.916733300905299e-001	-9.461204193301271e+000
1	 2.792502173054308e+000	 1.021106197894358e+000	-1.063275900006252e+001
1	 2.781580206632806e+000	 1.050494227669454e+000	-1.170466728412204e+001
1	 2.770323057528475e+000	 1.079831955653012e+000	-1.267692684322943e+001
1	 2.758730434285045e+000	 1.109113885791435e+000	-1.354960236750985e+001
1	 2.746802161000247e+000	 1.138334492601386e+000	-1.432282632359581e+001
1	 2.734538178704933e+000	 1.167488224095222e+000	-1.499679976995240e+001
1	 2.867589499452040e+000	 8.814356693722830e-001	-4.381546117030799e+000
1	 2.858252146470148e+000	 9.112590641412822e-001	-5.928127281854880e+000
1	 2.848579769847359e+000	 9.410588886989445e-001	-7.375085988961502e+000
1	 2.838571516232765e+000	 9.708297880905689e-001	-8.722162475216642e+000
1	 2.828226640724981e+000	 1.000566363931325e+000	-9.969162615446171e+000
1	 2.817544508647426e+000	 1.030263177009759e+000	-1.111595907303849e+001
1	 2.806524597253285e+000	 1.059914749965296e+000	-1.216249238798190e+001
1	 2.795166497356901e+000	 1.089515570037725e+000	-1.310877199932653e+001
1	 2.783469914888307e+000	 1.119060091886461e+000	-1.395487719913444e+001
1	 2.771434672367803e+000	 1.148542740477269e+000	-1.470095801506504e+001
1	 2.759060710297422e+000	 1.177957914033924e+000	-1.534723601883416e+001
1	 2.893076634924131e+000	 8.892698696002971e-001	-4.942075532742583e+000
1	 2.883656291548827e+000	 9.193583347018371e-001	-6.464363261795317e+000
1	 2.873897946842486e+000	 9.494230201000297e-001	-7.886542971008867e+000
1	 2.863800739869623e+000	 9.794585232453412e-001	-9.208373853640129e+000
1	 2.853363919108170e+000	 1.009459397772102e+000	-1.042968428119514e+001
1	 2.842586844240541e+000	 1.039420156125150e+000	-1.155037295362999e+001
1	 2.831468987873751e+000	 1.069335272261134e+000	-1.257040998063441e+001
1	 2.820009937185299e+000	 1.099199184422435e+000	-1.348983789087627e+001
1	 2.808209395491529e+000	 1.129006297981486e+000	-1.430877256617052e+001
1	 2.796067183735300e+000	 1.158750988353152e+000	-1.502740409763521e+001
1	 2.783583241889829e+000	 1.188427603972625e+000	-1.564599756100317e+001
1	 2.918563770396158e+000	 8.971040698282408e-001	-5.462364597546452e+000
1	 2.909060436627422e+000	 9.274576052623600e-001	-6.958460191154644e+000
1	 2.899216123837521e+000	 9.577871515011176e-001	-8.354118870565102e+000
1	 2.889029963506384e+000	 9.880872584001460e-001	-9.649137468860056e+000
1	 2.878501197491262e+000	 1.018352431612936e+000	-1.084338615124899e+001
1	 2.867629179833561e+000	 1.048577135240618e+000	-1.193680954597648e+001
1	 2.856413378494124e+000	 1.078755794557065e+000	-1.292942779852047e+001
1	 2.844853377013607e+000	 1.108882798807248e+000	-1.382133754585448e+001
1	 2.832948876094660e+000	 1.138952504076619e+000	-1.461271280765233e+001
1	 2.820699695102703e+000	 1.168959236229142e+000	-1.530380579142846e+001
1	 2.808105773482136e+000	 1.198897293911427e+000	-1.589494760873355e+001
1	 2.944050905867969e+000	 9.049382700561296e-001	-5.942342163801677e+000
1	 2.934464581705792e+000	 9.355568758228819e-001	-7.410501673906315e+000
1	 2.924534300832328e+000	 9.661512829022541e-001	-8.778060250101403e+000
1	 2.914259187142924e+000	 9.967159935550441e-001	-1.004487067541934e+001
1	 2.903638475874143e+000	 1.027245465453903e+000	-1.121086382178326e+001
1	 2.892671515426388e+000	 1.057734114356252e+000	-1.227604974294807e+001
1	 2.881357769114322e+000	 1.088176316853187e+000	-1.324051868151517e+001
1	 2.869696816841759e+000	 1.118566413192270e+000	-1.410444198670029e+001
1	 2.857688356697652e+000	 1.148898710171969e+000	-1.486807293965870e+001
1	 2.845332206469981e+000	 1.179167484105347e+000	-1.553174748330990e+001
1	 2.832628305074325e+000	 1.209366983850430e+000	-1.609588485375143e+001
1	 2.969538041339417e+000	 9.127724702839788e-001	-6.381939526467564e+000
1	 2.959868726783792e+000	 9.436561463834332e-001	-7.820568443776642e+000
1	 2.949852477826773e+000	 9.745154143034851e-001	-9.158605207240647e+000
1	 2.939488410779118e+000	 1.005344728710098e+000	-1.039597649947331e+001
1	 2.928775754256706e+000	 1.036138499295079e+000	-1.153269244129261e+001
1	 2.917713851018922e+000	 1.066891093472140e+000	-1.256884762823001e+001
1	 2.906302159734261e+000	 1.097596839149599e+000	-1.350462207049040e+001
1	 2.894540256669687e+000	 1.128250027577606e+000	-1.434028203295528e+001
1	 2.882427837300455e+000	 1.158844916267644e+000	-1.507618077197390e+001
1	 2.869964717837100e+000	 1.189375731981873e+000	-1.571275916584782e+001
1	 2.857150836666380e+000	 1.219836673789734e+000	-1.625054623609002e+001
1	 2.995025176810348e+000	 9.206066705118045e-001	-6.781090319173231e+000
1	 2.985272871861278e+000	 9.517554169440450e-001	-8.188738486371532e+000
1	 2.975170654820722e+000	 9.828795457048585e-001	-9.495983734929309e+000
1	 2.964717634414846e+000	 1.013973463865370e+000	-1.070284424845029e+001
1	 2.953913032638836e+000	 1.045031533136540e+000	-1.180942758062184e+001
1	 2.942756186611073e+000	 1.076048072588372e+000	-1.281593161703046e+001
1	 2.931246550353865e+000	 1.107017361446401e+000	-1.372264542841315e+001
1	 2.919383696497328e+000	 1.137933641963363e+000	-1.452995001186154e+001
1	 2.907167317903020e+000	 1.168791122363753e+000	-1.523831891667404e+001
1	 2.894597229204027e+000	 1.199583979858828e+000	-1.584831875174323e+001
1	 2.881673368258283e+000	 1.230306363729441e+000	-1.636060957156971e+001
1	 2.636448052334516e+000	 1.125609464338406e+000	-1.303861720670195e+001
1	 2.624302226078947e+000	 1.153643375865511e+000	-1.373046916149799e+001
1	 2.611833061417271e+000	 1.181602065005949e+000	-1.434039056934278e+001
1	 2.599040848742955e+000	 1.209480123689433e+000	-1.486953498338254e+001
1	 2.585925995576417e+000	 1.237272130208986e+000	-1.531918043071611e+001
1	 2.572489027453051e+000	 1.264972652307893e+000	-1.569072917352174e+001
1	 2.558730588716130e+000	 1.292576250311315e+000	-1.598570727668343e+001
1	 2.544651443212335e+000	 1.320077480299228e+000	-1.620576397981951e+001
1	 2.530252474887798e+000	 1.347470897317242e+000	-1.635267087204331e+001
1	 2.515534688282688e+000	 1.374751058621742e+000	-1.642832086822835e+001
1	 2.500499208922499e+000	 1.401912526955667e+000	-1.643472698600214e+001
1	 2.660970583927155e+000	 1.136079154278113e+000	-1.361578041930364e+001
1	 2.648711785065264e+000	 1.164373819086899e+000	-1.428122037991494e+001
1	 2.636126640312910e+000	 1.192592561839123e+000	-1.486457843586330e+001
1	 2.623215442764610e+000	 1.220729924162126e+000	-1.536726240287496e+001
1	 2.609978603731262e+000	 1.248780433919723e+000	-1.579082558914893e+001
1	 2.596416653636446e+000	 1.276738608327862e+000	-1.613696633313226e+001
1	 2.582530242816688e+000	 1.304598957115368e+000	-1.640752730673503e+001
1	 2.568320142223471e+000	 1.332355985726398e+000	-1.660449458176993e+001
1	 2.553787244024815e+000	 1.360004198561121e+000	-1.672999645793297e+001
1	 2.538932562104461e+000	 1.387538102251040e+000	-1.678630205118534e+001
1	 2.523757232456807e+000	 1.414952208965249e+000	-1.677581964195586e+001
1	 2.685493115519782e+000	 1.146548844217417e+000	-1.413311002516788e+001
1	 2.673121344051483e+000	 1.175104262307936e+000	-1.477165010005456e+001
1	 2.660420219208369e+000	 1.203583058672014e+000	-1.532856311518576e+001
1	 2.647390036786003e+000	 1.231979724634620e+000	-1.580546584830529e+001
1	 2.634031211885770e+000	 1.260288737630354e+000	-1.620413834258224e+001
1	 2.620344279819432e+000	 1.288504564347824e+000	-1.652652325917412e+001
1	 2.606329896916778e+000	 1.316621663919515e+000	-1.677472496027972e+001
1	 2.591988841234089e+000	 1.344634491153756e+000	-1.695100832035856e+001
1	 2.577322013161276e+000	 1.372537499805272e+000	-1.705779726381041e+001
1	 2.562330435925657e+000	 1.400325145880683e+000	-1.709767302804132e+001
1	 2.547015255990533e+000	 1.427991890975229e+000	-1.707337215149167e+001
1	 2.710015647112380e+000	 1.157018534156420e+000	-1.459275816235122e+001
1	 2.697530903037604e+000	 1.185834705528708e+000	-1.520413868713412e+001
1	 2.684713798103659e+000	 1.214573555504691e+000	-1.573489213811357e+001
1	 2.671564630807157e+000	 1.243229525106964e+000	-1.618680017674081e+001
1	 2.658083820039975e+000	 1.271797041340906e+000	-1.656182231939824e+001
1	 2.644271906002056e+000	 1.300270520367780e+000	-1.686209514231890e+001
1	 2.630129551016453e+000	 1.328644370723730e+000	-1.708993118806730e+001
1	 2.615657540244252e+000	 1.356912996581256e+000	-1.724781757115767e+001
1	 2.600856782297251e+000	 1.385070801049629e+000	-1.733841428107176e+001
1	 2.585728309746352e+000	 1.413112189510584e+000	-1.736455218164732e+001
1	 2.570273279523759e+000	 1.441031572985507e+000	-1.732923070652903e+001
1	 2.734538178704933e+000	 1.167488224095222e+000	-1.499679976995240e+001
1	 2.721940462023623e+000	 1.196565148749303e+000	-1.558098112071852e+001
1	 2.709007376998789e+000	 1.225564052337229e+000	-1.608602165343125e+001
1	 2.695739224828096e+000	 1.254479325579208e+000	-1.651382501334913e+001
1	 2.682136428193909e+000	 1.283305345051404e+000	-1.686648416661260e+001
1	 2.668199532184363e+000	 1.312036476387733e+000	-1.714628049453921e+001
1	 2.653929205115769e+000	 1.340667077527991e+000	-1.735568256648716e+001
1	 2.639326239254022e+000	 1.369191502008848e+000	-1.749734458876785e+001
1	 2.624391551432814e+000	 1.397604102294122e+000	-1.757410452783246e+001
1	 2.609126183566625e+000	 1.425899233140657e+000	-1.758898190672428e+001
1	 2.593531303056567e+000	 1.454071254995983e+000	-1.754517527456918e+001
1	 2.759060710297422e+000	 1.177957914033924e+000	-1.534723601883416e+001
1	 2.746350021009535e+000	 1.207295591969811e+000	-1.590439078925821e+001
1	 2.733300955893769e+000	 1.236554549169694e+000	-1.638432048892129e+001
1	 2.719913818848843e+000	 1.265729126051403e+000	-1.678900898350374e+001
1	 2.706189036347608e+000	 1.294813648761876e+000	-1.712063785972611e+001
1	 2.692127158366396e+000	 1.323802432407684e+000	-1.738158544550994e+001
1	 2.677728859214780e+000	 1.352689784332276e+000	-1.757442549156478e+001
1	 2.662994938263464e+000	 1.381470007436487e+000	-1.770192551179390e+001
1	 2.647926320568034e+000	 1.410137403538683e+000	-1.776704478069939e+001
1	 2.632524057386552e+000	 1.438686276770816e+000	-1.777293198677582e+001
1	 2.616789326589044e+000	 1.467110937006559e+000	-1.772292254170823e+001
1	 2.783583241889829e+000	 1.188427603972625e+000	-1.564599756100317e+001
1	 2.770759579995339e+000	 1.218026035190319e+000	-1.617650308405529e+001
1	 2.757594534788612e+000	 1.247545046002160e+000	-1.663207399772286e+001
1	 2.744088412869419e+000	 1.276978926523597e+000	-1.701473372118775e+001
1	 2.730241644501109e+000	 1.306321952472349e+000	-1.732670878476532e+001
1	 2.716054784548201e+000	 1.335568388427635e+000	-1.757042781190921e+001
1	 2.701528513313543e+000	 1.364712491136561e+000	-1.774852015127084e+001
1	 2.686663637272640e+000	 1.393748512864127e+000	-1.786381415612488e+001
1	 2.671461089702981e+000	 1.422670704783245e+000	-1.791933510928897e+001
1	 2.655921931206211e+000	 1.451473320400976e+000	-1.791830279250267e+001
1	 2.640047350121268e+000	 1.480150619017134e+000	-1.786412870008789e+001
1	 2.808105773482136e+000	 1.198897293911427e+000	-1.589494760873354e+001
1	 2.795169138981031e+000	 1.228756478410914e+000	-1.639937880491793e+001
1	 2.781888113683326e+000	 1.258535542834697e+000	-1.683148770315449e+001
1	 2.768263006889848e+000	 1.288228726995841e+000	-1.719329766737124e+001
1	 2.754294252654443e+000	 1.317830256182848e+000	-1.748703760643835e+001
1	 2.739982410729826e+000	 1.347334344447589e+000	-1.771514095350216e+001
1	 2.725328167412110e+000	 1.376735197940822e+000	-1.788024428969517e+001
1	 2.710332336281615e+000	 1.406027018291719e+000	-1.798518560945905e+001
1	 2.694995858837728e+000	 1.435204006027737e+000	-1.803300222554786e+001
1	 2.679319805025680e+000	 1.464260364031049e+000	-1.802692831263198e+001
1	 2.663305373653324e+000	 1.493190301027610e+000	-1.797039208929345e+001
1	 2.832628305074325e+000	 1.209366983850430e+000	-1.609588485375142e+001
1	 2.819578697966607e+000	 1.239486921631686e+000	-1.657500738891449e+001
1	 2.806181692577922e+000	 1.269526039667374e+000	-1.698469075421369e+001
1	 2.792437600910154e+000	 1.299478527468185e+000	-1.732691967108950e+001
1	 2.778346860807648e+000	 1.329338559893400e+000	-1.760388393536701e+001
1	 2.763910036911314e+000	 1.359100300467545e+000	-1.781797742892796e+001
1	 2.749127821510537e+000	 1.388757904745037e+000	-1.797179677569810e+001
1	 2.734001035290451e+000	 1.418305523719218e+000	-1.806813963911855e+001
1	 2.718530627972343e+000	 1.447737307272093e+000	-1.811000265910037e+001
1	 2.702717678845036e+000	 1.477047407660950e+000	-1.810057902731576e+001
1	 2.686563397185296e+000	 1.506229983037888e+000	-1.804325570054942e+001
1	 2.857150836666380e+000	 1.219836673789734e+000	-1.625054623609002e+001
1	 2.843988256952065e+000	 1.250217364852722e+000	-1.670530997285668e+001
1	 2.830475271472410e+000	 1.280516536500265e+000	-1.709373920312835e+001
1	 2.816612194930361e+000	 1.310728327940679e+000	-1.741774240507593e+001
1	 2.802399468960757e+000	 1.340846863604030e+000	-1.767942980646687e+001
1	 2.787837663092711e+000	 1.370866256487507e+000	-1.788111246322436e+001
1	 2.772927475608878e+000	 1.400780611549183e+000	-1.802530098778644e+001
1	 2.757669734299212e+000	 1.430584029146576e+000	-1.811470392437147e+001
1	 2.742065397106900e+000	 1.460270608516245e+000	-1.815222576907442e+001
1	 2.726115552664357e+000	 1.489834451290593e+000	-1.814096463355739e+001
1	 2.709821420717266e+000	 1.519269665047867e+000	-1.808420955195629e+001
1	 2.881673368258283e+000	 1.230306363729441e+000	-1.636060957156971e+001
1	 2.868397815937404e+000	 1.260947808074110e+000	-1.679214229941502e+001
1	 2.854768850366804e+000	 1.291507033333439e+000	-1.716061911555962e+001
1	 2.840786788950488e+000	 1.321978128413373e+000	-1.746783560699637e+001
1	 2.826452077113804e+000	 1.352355167314767e+000	-1.771578297972510e+001
1	 2.811765289274062e+000	 1.382632212507475e+000	-1.790664723830416e+001
1	 2.796727129707190e+000	 1.412803318353237e+000	-1.804280802616129e+001
1	 2.781338433307961e+000	 1.442862534573747e+000	-1.812683712371480e+001
1	 2.765600166241469e+000	 1.472803909760124e+000	-1.816149660214677e+001
1	 2.749513426483720e+000	 1.502621494919891e+000	-1.814973663148115e+001
1	 2.733079444249319e+000	 1.532309347057451e+000	-1.809469294245025e+001
1	 2.500499208922499e+000	 1.401912526955667e+000	-1.643472698600214e+001
1	 2.485144957250983e+000	 1.428953920535294e+000	-1.639356101599232e+001
1	 2.469475535571229e+000	 1.455865738217200e+000	-1.632486452226842e+001
1	 2.453492436359996e+000	 1.482642578306111e+000	-1.622827279548454e+001
1	 2.437197273632522e+000	 1.509279057994052e+000	-1.610340913220352e+001
1	 2.420591782792370e+000	 1.535769816732273e+000	-1.594988528565430e+001
1	 2.403677820370210e+000	 1.562109519609821e+000	-1.576730195301841e+001
1	 2.386457363650868e+000	 1.588292860734559e+000	-1.555524929874670e+001
1	 2.368932510188156e+000	 1.614314566612345e+000	-1.531330751330156e+001
1	 2.351105477207142e+000	 1.640169399520067e+000	-1.504104740661369e+001
1	 2.332978600893775e+000	 1.665852160868178e+000	-1.473803103543781e+001
1	 2.523757232456807e+000	 1.414952208965249e+000	-1.677581964195586e+001
1	 2.508260165484269e+000	 1.442245124067567e+000	-1.671945787386424e+001
1	 2.492444996996238e+000	 1.469407258041089e+000	-1.663614691910635e+001
1	 2.476313233351541e+000	 1.496433158947471e+000	-1.652539519321117e+001
1	 2.459866503577958e+000	 1.523317393911350e+000	-1.638669020031394e+001
1	 2.443106559220670e+000	 1.550054552523622e+000	-1.621949919051257e+001
1	 2.426035274078606e+000	 1.576639250251452e+000	-1.602326987194419e+001
1	 2.408654643828038e+000	 1.603066131850734e+000	-1.579743117679491e+001
1	 2.390966785532879e+000	 1.629329874776702e+000	-1.554139408030107e+001
1	 2.372973937041403e+000	 1.655425192588333e+000	-1.525455247164437e+001
1	 2.354678456269270e+000	 1.681346838342176e+000	-1.493628407549131e+001
1	 2.547015255990533e+000	 1.427991890975229e+000	-1.707337215149167e+001
1	 2.531375373716986e+000	 1.455536327600267e+000	-1.700476666132672e+001
1	 2.515414458420706e+000	 1.482948777865413e+000	-1.690945560530928e+001
1	 2.499134030342586e+000	 1.510223739589257e+000	-1.678683446951390e+001
1	 2.482535733522948e+000	 1.537355729829050e+000	-1.663627035237214e+001
1	 2.465621335648581e+000	 1.564339288315340e+000	-1.645710281350761e+001
1	 2.448392727786678e+000	 1.591168980893409e+000	-1.624864479283872e+001
1	 2.430851924004946e+000	 1.617839402967187e+000	-1.601018359888278e+001
1	 2.413001060877399e+000	 1.644345182941285e+000	-1.574098196499832e+001
1	 2.394842396875518e+000	 1.670680985656779e+000	-1.544027917210411e+001
1	 2.376378311644662e+000	 1.696841515816308e+000	-1.510729223621953e+001
1	 2.570273279523759e+000	 1.441031572985507e+000	-1.732923070652903e+001
1	 2.554490581949220e+000	 1.468827531133287e+000	-1.725105116481410e+001
1	 2.538383919844723e+000	 1.496490297690064e+000	-1.714609977974051e+001
1	 2.521954827333227e+000	 1.524014320231365e+000	-1.701367258106191e+001
1	 2.505204963467584e+000	 1.551394065747053e+000	-1.685303114865894e+001
1	 2.488136112076197e+000	 1.578624024107333e+000	-1.666340363802059e+001
1	 2.470750181494516e+000	 1.605698711535611e+000	-1.644398588893616e+001
1	 2.453049204181680e+000	 1.632612674083848e+000	-1.619394261606127e+001
1	 2.435035336221801e+000	 1.659360491106038e+000	-1.591240867978777e+001
1	 2.416710856709561e+000	 1.685936778725359e+000	-1.559849043561448e+001
1	 2.398078167020021e+000	 1.712336193290541e+000	-1.525126715998608e+001
1	 2.593531303056567e+000	 1.454071254995983e+000	-1.754517527456918e+001
1	 2.577605790181059e+000	 1.482118734666520e+000	-1.745981907645865e+001
1	 2.561353381268382e+000	 1.510031817514932e+000	-1.734734167922602e+001
1	 2.544775624323555e+000	 1.537804900873685e+000	-1.720695267385092e+001
1	 2.527874193411962e+000	 1.565432401665257e+000	-1.703782252716450e+001
1	 2.510650888503613e+000	 1.592908759899511e+000	-1.683908376942307e+001
1	 2.493107635202212e+000	 1.620228442177975e+000	-1.660983227546766e+001
1	 2.475246484358327e+000	 1.647385945200647e+000	-1.634912863787217e+001
1	 2.457069611566164e+000	 1.674375799270905e+000	-1.605599963021737e+001
1	 2.438579316543607e+000	 1.701192571794027e+000	-1.572943975836765e+001
1	 2.419778022395412e+000	 1.727830870764843e+000	-1.536841289736948e+001
1	 2.616789326589044e+000	 1.467110937006559e+000	-1.772292254170823e+001
1	 2.600720998412591e+000	 1.495409938199861e+000	-1.763252448692140e+001
1	 2.584322842691773e+000	 1.523573337339909e+000	-1.751439866554765e+001
1	 2.567596421313664e+000	 1.551595481516112e+000	-1.736768080794955e+001
1	 2.550543423356176e+000	 1.579470737583562e+000	-1.719146420888302e+001
1	 2.533165664930922e+000	 1.607193495691781e+000	-1.698480106287603e+001
1	 2.515465088909857e+000	 1.634758172820419e+000	-1.674670390103941e+001
1	 2.497443764534976e+000	 1.662159216317515e+000	-1.647614712745705e+001
1	 2.479103886910575e+000	 1.689391107435829e+000	-1.617206865301671e+001
1	 2.460447776377734e+000	 1.716448364862740e+000	-1.583337162425902e+001
1	 2.441477877770901e+000	 1.743325548239177e+000	-1.545892624454212e+001
1	 2.640047350121268e+000	 1.480150619017134e+000	-1.786412870008789e+001
1	 2.623836206643904e+000	 1.508701141733200e+000	-1.777057024645636e+001
1	 2.607292304114989e+000	 1.537114857164887e+000	-1.764844520212123e+001
1	 2.590417218303648e+000	 1.565386062158538e+000	-1.749682759107904e+001
1	 2.573212653300319e+000	 1.593509073501868e+000	-1.731474702882611e+001
1	 2.555680441358219e+000	 1.621478231484052e+000	-1.710119019151525e+001
1	 2.537822542617543e+000	 1.649287903462864e+000	-1.685510239189361e+001
1	 2.519641044711714e+000	 1.676932487434384e+000	-1.657538925992368e+001
1	 2.501138162255115e+000	 1.704406415600752e+000	-1.626091852568644e+001
1	 2.482316236212016e+000	 1.731704157931453e+000	-1.591052190186545e+001
1	 2.463177733146556e+000	 1.758820225713511e+000	-1.552299706281600e+001
1	 2.663305373653324e+000	 1.493190301027610e+000	-1.797039208929345e+001
1	 2.646951414875084e+000	 1.521992345266434e+000	-1.787531020226314e+001
1	 2.630261765538118e+000	 1.550656376989756e+000	-1.775061472710390e+001
1	 2.613238015293598e+000	 1.579176642800859e+000	-1.759532972659832e+001
1	 2.595881883244487e+000	 1.607547409420072e+000	-1.740843419729561e+001
1	 2.578195217785595e+000	 1.635762967276229e+000	-1.718886365866752e+001
1	 2.560179996325362e+000	 1.663817634105228e+000	-1.693551185193323e+001
1	 2.541838324888631e+000	 1.691705758551183e+000	-1.664723254621648e+001
1	 2.523172437599868e+000	 1.719421723765620e+000	-1.632284144938649e+001
1	 2.504184696046531e+000	 1.746959951000122e+000	-1.596111822062328e+001
1	 2.484877588522445e+000	 1.774314903187812e+000	-1.556080858144536e+001
1	 2.686563397185296e+000	 1.506229983037888e+000	-1.804325570054942e+001
1	 2.670066623106221e+000	 1.535283548799453e+000	-1.794805131962471e+001
1	 2.653231226961252e+000	 1.564197896814407e+000	-1.782200142920628e+001
1	 2.636058812283610e+000	 1.592967223442966e+000	-1.766409148108275e+001
1	 2.618551113188773e+000	 1.621585745338075e+000	-1.747326249564201e+001
1	 2.600709994213145e+000	 1.650047703068222e+000	-1.724841275748917e+001
1	 2.582537450033408e+000	 1.678347364747429e+000	-1.698839962119112e+001
1	 2.564035605065816e+000	 1.706479029667844e+000	-1.669204142458124e+001
1	 2.545206712944915e+000	 1.734437031930372e+000	-1.635811950674179e+001
1	 2.526053155881353e+000	 1.762215744068701e+000	-1.598538032746632e+001
1	 2.506577443898632e+000	 1.789809580662045e+000	-1.557253768470074e+001
1	 2.709821420717266e+000	 1.519269665047867e+000	-1.808420955195629e+001
1	 2.693181831337400e+000	 1.548574752332153e+000	-1.799005569381264e+001
1	 2.676200688384482e+000	 1.577739416638730e+000	-1.786366193205557e+001
1	 2.658879609273776e+000	 1.606757804084753e+000	-1.770398607632623e+001
1	 2.641220343133271e+000	 1.635624081255775e+000	-1.750994341044499e+001
1	 2.623224770640963e+000	 1.664332438859940e+000	-1.728040848118617e+001
1	 2.604894903741769e+000	 1.692877095389386e+000	-1.701421699523996e+001
1	 2.586232885243353e+000	 1.721252300784296e+000	-1.671016782157116e+001
1	 2.567240988290342e+000	 1.749452340094955e+000	-1.636702509607252e+001
1	 2.547921615716559e+000	 1.777471537137146e+000	-1.598352042509791e+001
1	 2.528277299275187e+000	 1.805304258136177e+000	-1.555835518415972e+001
1	 2.733079444249319e+000	 1.532309347057451e+000	-1.809469294245025e+001
1	 2.716297039568712e+000	 1.561865955864427e+000	-1.800254245926640e+001
1	 2.699170149807901e+000	 1.591280936462619e+000	-1.787661689255672e+001
1	 2.681700406264190e+000	 1.620548384726113e+000	-1.771585701026962e+001
1	 2.663889573078078e+000	 1.649662417173072e+000	-1.751916420978344e+001
1	 2.645739547069145e+000	 1.678617174651290e+000	-1.728540238675904e+001
1	 2.627252357450537e+000	 1.707406826031018e+000	-1.701339990787010e+001
1	 2.608430165421335e+000	 1.736025571900473e+000	-1.670195168440822e+001
1	 2.589275263636230e+000	 1.764467648259312e+000	-1.634982134345250e+001
1	 2.569790075552226e+000	 1.792727330205414e+000	-1.595574349299167e+001
1	 2.549977154652176e+000	 1.820798935610175e+000	-1.551842607709464e+001
1	 2.332978600893775e+000	 1.665852160868178e+000	-1.473803103543781e+001
1	 2.314554334913666e+000	 1.691357693984630e+000	-1.440811967826656e+001
1	 2.295835247520404e+000	 1.716680885717582e+000	-1.405505671136080e+001
1	 2.276824022517764e+000	 1.741816671372895e+000	-1.367822355831308e+001
1	 2.257523458769130e+000	 1.766760038549538e+000	-1.327700581409930e+001
1	 2.237936468933869e+000	 1.791506030387907e+000	-1.285079448010305e+001
1	 2.218066078094256e+000	 1.816049748781706e+000	-1.239898720607448e+001
1	 2.197915422274171e+000	 1.840386357549125e+000	-1.192098953641036e+001
1	 2.177487746850984e+000	 1.864511085559069e+000	-1.141621615810656e+001
1	 2.156786404862220e+000	 1.888419229808245e+000	-1.088409214770505e+001
1	 2.135814855208781e+000	 1.912106158445013e+000	-1.032405421453803e+001
1	 2.354678456269270e+000	 1.681346838342176e+000	-1.493628407549131e+001
1	 2.336082819704505e+000	 1.707089607402158e+000	-1.459047962274635e+001
1	 2.317189619488916e+000	 1.732648339057221e+000	-1.422109862226463e+001
1	 2.298001564389259e+000	 1.758017921504730e+000	-1.382761421064317e+001
1	 2.278521479302110e+000	 1.783193295721556e+000	-1.340950546061655e+001
1	 2.258752303978483e+000	 1.808169458742603e+000	-1.296625848782029e+001
1	 2.238697091637989e+000	 1.832941466902575e+000	-1.249736756093627e+001
1	 2.218359007473745e+000	 1.857504439036639e+000	-1.200233621285256e+001
1	 2.197741327049500e+000	 1.881853559635735e+000	-1.148067835044474e+001
1	 2.176847434590536e+000	 1.905984081952293e+000	-1.093191936056492e+001
1	 2.155680821170189e+000	 1.929891331052193e+000	-1.035559720981473e+001
1	 2.376378311644662e+000	 1.696841515816308e+000	-1.510729223621953e+001
1	 2.357611304495278e+000	 1.722821520819784e+000	-1.474603917988181e+001
1	 2.338543991457385e+000	 1.748615792396929e+000	-1.436079611719122e+001
1	 2.319179106260727e+000	 1.774219171636611e+000	-1.395115707305152e+001
1	 2.299519499835069e+000	 1.799626552893600e+000	-1.351672458202030e+001
1	 2.279568139023079e+000	 1.824832887097314e+000	-1.305711061513158e+001
1	 2.259328105181699e+000	 1.849833185023448e+000	-1.257193750483089e+001
1	 2.238802592673292e+000	 1.874622520524149e+000	-1.206083886600575e+001
1	 2.217994907247979e+000	 1.899196033712393e+000	-1.152346051108095e+001
1	 2.196908464318808e+000	 1.923548934096329e+000	-1.095946135714415e+001
1	 2.175546787131546e+000	 1.947676503659357e+000	-1.036851432306697e+001
1	 2.398078167020021e+000	 1.712336193290541e+000	-1.525126715998608e+001
1	 2.379139789286039e+000	 1.738553434237483e+000	-1.487497733781230e+001
1	 2.359898363425856e+000	 1.764583245736689e+000	-1.447430942794127e+001
1	 2.340356648132197e+000	 1.790420421768526e+000	-1.404900673776324e+001
1	 2.320517520368025e+000	 1.816059810065665e+000	-1.359882445182270e+001
1	 2.300383974067660e+000	 1.841496315452034e+000	-1.312353032776126e+001
1	 2.279959118725377e+000	 1.866724903144321e+000	-1.262290538341046e+001
1	 2.259246177872786e+000	 1.891740602011651e+000	-1.209674457346797e+001
1	 2.238248487446389e+000	 1.916538507789036e+000	-1.154485745419911e+001
1	 2.216969494046992e+000	 1.941113786240340e+000	-1.096706883461815e+001
1	 2.195412753092805e+000	 1.965461676266488e+000	-1.036321941262043e+001
1	 2.419778022395412e+000	 1.727830870764843e+000	-1.536841289736948e+001
1	 2.400668274076846e+000	 1.754285347655232e+000	-1.497746666422603e+001
1	 2.381252735394372e+000	 1.780550699076482e+000	-1.456179303866981e+001
1	 2.361534190003698e+000	 1.806621671900462e+000	-1.412131225165392e+001
1	 2.341515540900994e+000	 1.832493067237742e+000	-1.365596055852295e+001
1	 2.321199809112225e+000	 1.858159743806755e+000	-1.316569065385147e+001
1	 2.300590132269011e+000	 1.883616621265188e+000	-1.265047206879814e+001
1	 2.279689763072207e+000	 1.908858683499138e+000	-1.211029154996152e+001
1	 2.258502067644693e+000	 1.933880981865654e+000	-1.154515341875680e+001
1	 2.237030523775047e+000	 1.958678638384314e+000	-1.095507991036736e+001
1	 2.215278719053913e+000	 1.983246848873568e+000	-1.034011149136342e+001
1	 2.441477877770901e+000	 1.743325548239177e+000	-1.545892624454213e+001
1	 2.422196758867754e+000	 1.770017261073006e+000	-1.505367359168495e+001
1	 2.402607107362975e+000	 1.796518152416293e+000	-1.462339594131124e+001
1	 2.382711731875265e+000	 1.822822922032409e+000	-1.416821736268485e+001
1	 2.362513561433991e+000	 1.848926324409821e+000	-1.368828286269351e+001
1	 2.342015644156779e+000	 1.874823172161472e+000	-1.318375847004798e+001
1	 2.321221145812591e+000	 1.900508339386042e+000	-1.265483129171149e+001
1	 2.300133348271529e+000	 1.925976764986603e+000	-1.210170954119912e+001
1	 2.278755647842860e+000	 1.951223455942238e+000	-1.152462253844836e+001
1	 2.257091553502927e+000	 1.976243490528240e+000	-1.092382068102315e+001
1	 2.235144685014823e+000	 2.001032021480582e+000	-1.029957538647817e+001
1	 2.463177733146556e+000	 1.758820225713511e+000	-1.552299706281600e+001
1	 2.443725243658819e+000	 1.785749174490779e+000	-1.510375868786776e+001
1	 2.423961479331708e+000	 1.812485605756102e+000	-1.465926187750370e+001
1	 2.403889273746923e+000	 1.839024172164353e+000	-1.418986075331223e+001
1	 2.383511581967032e+000	 1.865359581581895e+000	-1.369593604047674e+001
1	 2.362831479201324e+000	 1.891486600516179e+000	-1.317789477246442e+001
1	 2.341852159356105e+000	 1.917400057506879e+000	-1.263616995603068e+001
1	 2.320576933470728e+000	 1.943094846474039e+000	-1.207122019693087e+001
1	 2.299009228040850e+000	 1.968565930018779e+000	-1.148352928682639e+001
1	 2.277152583230591e+000	 1.993808342672106e+000	-1.087360575196371e+001
1	 2.255010650975482e+000	 2.018817194087512e+000	-1.024198236429947e+001
1	 2.484877588522445e+000	 1.774314903187812e+000	-1.556080858144536e+001
1	 2.465253728450097e+000	 1.801481087908528e+000	-1.512787691165327e+001
1	 2.445315851300619e+000	 1.828453059095895e+000	-1.466952956783684e+001
1	 2.425066815618706e+000	 1.855225422296282e+000	-1.418637626166645e+001
1	 2.404509602500136e+000	 1.881792838753954e+000	-1.367905971432339e+001
1	 2.383647314245862e+000	 1.908150028870870e+000	-1.314825493344885e+001
1	 2.362483172899539e+000	 1.934291775627691e+000	-1.259466843688437e+001
1	 2.341020518669781e+000	 1.960212927961440e+000	-1.201903742444507e+001
1	 2.319262808238635e+000	 1.985908404095269e+000	-1.142212889910048e+001
1	 2.297213612957994e+000	 2.011373194815898e+000	-1.080473873906599e+001
1	 2.274876616935843e+000	 2.036602366694342e+000	-1.016769072243343e+001
1	 2.506577443898632e+000	 1.789809580662045e+000	-1.557253768470074e+001
1	 2.486782213241644e+000	 1.817213001326228e+000	-1.512617785590189e+001
1	 2.466670223269748e+000	 1.844420512435651e+000	-1.465433292919213e+001
1	 2.446244357490642e+000	 1.871426672428186e+000	-1.415789309124280e+001
1	 2.425507623033317e+000	 1.898226095925993e+000	-1.363778867174573e+001
1	 2.404463149290395e+000	 1.924813457225536e+000	-1.309498894501287e+001
1	 2.383114186442888e+000	 1.951183493748474e+000	-1.253050086325188e+001
1	 2.361464103868667e+000	 1.977331009448800e+000	-1.194536772370670e+001
1	 2.339516388436177e+000	 2.003250878171699e+000	-1.134066777202641e+001
1	 2.317274642685093e+000	 2.028938046959606e+000	-1.071751274439550e+001
1	 2.294742582895855e+000	 2.054387539301056e+000	-1.007704635111947e+001
1	 2.528277299275187e+000	 1.805304258136177e+000	-1.555835518415972e+001
1	 2.508310698033515e+000	 1.832944914743853e+000	-1.509880597773463e+001
1	 2.488024595239138e+000	 1.860387965775353e+000	-1.461380128089078e+001
1	 2.467421899362762e+000	 1.887627922560051e+000	-1.410453600979355e+001
1	 2.446505643566593e+000	 1.914659353098001e+000	-1.357225307280558e+001
1	 2.425278984334927e+000	 1.941476885580175e+000	-1.301824164972508e+001
1	 2.403745199986136e+000	 1.968075211869223e+000	-1.244383538601245e+001
1	 2.381907689067360e+000	 1.994449090936112e+000	-1.185041050523789e+001
1	 2.359769968633441e+000	 2.020593352248060e+000	-1.123938384320233e+001
1	 2.337335672411845e+000	 2.046502899103217e+000	-1.061221080739891e+001
1	 2.314608548855468e+000	 2.072172711907637e+000	-9.970383265683754e+000
1	 2.549977154652176e+000	 1.820798935610175e+000	-1.551842607709464e+001
1	 2.529839182825770e+000	 1.848676828161380e+000	-1.504590081705432e+001
1	 2.509378967208837e+000	 1.876355419114987e+000	-1.454805954031572e+001
1	 2.488599441235097e+000	 1.903829172691866e+000	-1.402642553806475e+001
1	 2.467503664099979e+000	 1.931092610269970e+000	-1.348257864700810e+001
1	 2.446094819379461e+000	 1.958140313934778e+000	-1.291815295981519e+001
1	 2.424376213529276e+000	 1.984966929989930e+000	-1.233483443230789e+001
1	 2.402351274265837e+000	 2.011567172423368e+000	-1.173435839176706e+001
1	 2.380023548830396e+000	 2.037935826324343e+000	-1.111850695099815e+001
1	 2.357396702138207e+000	 2.064067751246718e+000	-1.048910633305975e+001
1	 2.334474514814633e+000	 2.089957884514068e+000	-9.848024111806270e+000
1	 2.135814855208781e+000	 1.912106158445013e+000	-1.032405421453803e+001
1	 2.114579866454582e+000	 1.935563812195057e+000	-9.743189139622819e+000
1	 2.093081977940697e+000	 1.958791283446953e+000	-9.150873437444709e+000
1	 2.071324954503008e+000	 1.981784175181508e+000	-8.550303776923826e+000
1	 2.049312658562491e+000	 2.004538173005029e+000	-7.944748752849562e+000
1	 2.027049047843805e+000	 2.027049047843805e+000	-7.337542806407718e+000
1	 2.004538173005029e+000	 2.049312658562490e+000	-6.732080020614429e+000
1	 1.981784175181508e+000	 2.071324954503008e+000	-6.131807803863590e+000
1	 1.958791283446953e+000	 2.093081977940697e+000	-5.540220475089139e+000
1	 1.935563812195057e+000	 2.114579866454582e+000	-4.960852764295835e+000
1	 1.912106158445013e+000	 2.135814855208781e+000	-4.397273242422587e+000
1	 2.155680821170189e+000	 1.929891331052193e+000	-1.035559720981473e+001
1	 2.134248318309155e+000	 1.953567172698978e+000	-9.759510888363096e+000
1	 2.112550470365117e+000	 1.977010690839198e+000	-9.153535803366630e+000
1	 2.090591077192041e+000	 2.000217447555418e+000	-8.540654031740022e+000
1	 2.068374037136654e+000	 2.023183088324236e+000	-7.923914867086771e+000
1	 2.045903344735822e+000	 2.045903344735822e+000	-7.306429078898006e+000
1	 2.023183088324237e+000	 2.068374037136653e+000	-6.691363054467100e+000
1	 2.000217447555417e+000	 2.090591077192041e+000	-6.081932836020357e+000
1	 1.977010690839198e+000	 2.112550470365117e+000	-5.481398065837854e+000
1	 1.953567172698978e+000	 2.134248318309155e+000	-4.893055852376035e+000
1	 1.929891331052193e+000	 2.155680821170189e+000	-4.320234570600509e+000
1	 2.175546787131546e+000	 1.947676503659357e+000	-1.036851432306697e+001
1	 2.153916770163675e+000	 1.971570533202878e+000	-9.759092654821737e+000
1	 2.132018962789484e+000	 1.995230098231415e+000	-9.141482297742877e+000
1	 2.109857199881020e+000	 2.018650719929294e+000	-8.518407735859409e+000
1	 2.087435415710766e+000	 2.041828003643404e+000	-7.892655223795002e+000
1	 2.064757641627792e+000	 2.064757641627792e+000	-7.267067469845610e+000
1	 2.041828003643404e+000	 2.087435415710766e+000	-6.644538210853825e+000
1	 2.018650719929294e+000	 2.109857199881021e+000	-6.028006690484876e+000
1	 1.995230098231415e+000	 2.132018962789484e+000	-5.420452052763437e+000
1	 1.971570533202878e+000	 2.153916770163674e+000	-4.824887662950292e+000
1	 1.947676503659357e+000	 2.175546787131546e+000	-4.244355368016810e+000
1	 2.195412753092805e+000	 1.965461676266488e+000	-1.036321941262043e+001
1	 2.173585222018087e+000	 1.989573893706733e+000	-9.742407935634414e+000
1	 2.151487455213741e+000	 2.013449505623575e+000	-9.115233125426835e+000
1	 2.129123322569894e+000	 2.037083992303101e+000	-8.484120066998436e+000
1	 2.106496794284778e+000	 2.060472918962490e+000	-7.851549444357097e+000
1	 2.083611938519672e+000	 2.083611938519672e+000	-7.220052731467108e+000
1	 2.060472918962490e+000	 2.106496794284777e+000	-6.592207285329999e+000
1	 2.037083992303101e+000	 2.129123322569894e+000	-5.970631351724324e+000
1	 2.013449505623575e+000	 2.151487455213741e+000	-5.357978994362354e+000
1	 1.989573893706733e+000	 2.173585222018087e+000	-4.756934958418800e+000
1	 1.965461676266487e+000	 2.195412753092805e+000	-4.170209479551650e+000
1	 2.215278719053913e+000	 1.983246848873568e+000	-1.034011149136342e+001
1	 2.193253673872338e+000	 2.007577254210522e+000	-9.709913242724308e+000
1	 2.170955947637836e+000	 2.031668913015651e+000	-9.075289831097447e+000
1	 2.148389445258608e+000	 2.055517264676805e+000	-8.438326288193569e+000
1	 2.125558172858639e+000	 2.079117834281456e+000	-7.801156358661698e+000
1	 2.102466235411413e+000	 2.102466235411413e+000	-7.165958281729407e+000
1	 2.079117834281456e+000	 2.125558172858639e+000	-6.534950486550766e+000
1	 2.055517264676805e+000	 2.148389445258608e+000	-5.910387210529402e+000
1	 2.031668913015651e+000	 2.170955947637836e+000	-5.294554050088428e+000
1	 2.007577254210522e+000	 2.193253673872338e+000	-4.689763453533163e+000
1	 1.983246848873568e+000	 2.215278719053913e+000	-4.098350165798685e+000
1	 2.235144685014823e+000	 2.001032021480582e+000	-1.029957538647817e+001
1	 2.212922125726377e+000	 2.025580614714222e+000	-9.662048858102647e+000
1	 2.190424440061712e+000	 2.049888320407614e+000	-9.022136128516952e+000
1	 2.167655567947108e+000	 2.073950537050373e+000	-8.381542632809689e+000
1	 2.144619551432299e+000	 2.097762749600260e+000	-7.742014929077043e+000
1	 2.121320532302972e+000	 2.121320532302971e+000	-7.105337152443656e+000
1	 2.097762749600260e+000	 2.144619551432299e+000	-6.473327395593135e+000
1	 2.073950537050372e+000	 2.167655567947108e+000	-5.847834023637286e+000
1	 2.049888320407614e+000	 2.190424440061712e+000	-5.230731931326499e+000
1	 2.025580614714222e+000	 2.212922125726376e+000	-4.623918750754038e+000
1	 2.001032021480582e+000	 2.235144685014823e+000	-4.029311017830831e+000
1	 2.255010650975482e+000	 2.018817194087512e+000	-1.024198236429946e+001
1	 2.232590577580147e+000	 2.043583975217812e+000	-9.599239548771823e+000
1	 2.209892932485317e+000	 2.068107727799438e+000	-8.956238685956205e+000
1	 2.186921690635343e+000	 2.092383809423768e+000	-8.314267142768403e+000
1	 2.163680930005709e+000	 2.116407664918862e+000	-7.674645125585449e+000
1	 2.140174829194301e+000	 2.140174829194301e+000	-7.038722887244897e+000
1	 2.116407664918862e+000	 2.163680930005709e+000	-6.407877874569734e+000
1	 2.092383809423768e+000	 2.186921690635343e+000	-5.783511822630701e+000
1	 2.068107727799437e+000	 2.209892932485317e+000	-5.167047802099203e+000
1	 2.043583975217812e+000	 2.232590577580147e+000	-4.559927226167486e+000
1	 2.018817194087512e+000	 2.255010650975482e+000	-3.963606823613148e+000
1	 2.274876616935843e+000	 2.036602366694342e+000	-1.016769072243343e+001
1	 2.252259029433597e+000	 2.061587335721270e+000	-9.521895244170166e+000
1	 2.229361424908593e+000	 2.086327135191092e+000	-8.878047870465954e+000
1	 2.206187813323257e+000	 2.110817081796956e+000	-8.236980462856320e+000
1	 2.182742308578817e+000	 2.135052580237221e+000	-7.599548755063620e+000
1	 2.159029126085356e+000	 2.159029126085355e+000	-6.966630392520386e+000
1	 2.135052580237221e+000	 2.182742308578817e+000	-6.339122927634326e+000
1	 2.110817081796957e+000	 2.206187813323258e+000	-5.717941775213819e+000
1	 2.086327135191092e+000	 2.229361424908593e+000	-5.104018132579676e+000
1	 2.061587335721269e+000	 2.252259029433597e+000	-4.498296868981954e+000
1	 2.036602366694342e+000	 2.274876616935843e+000	-3.901734389018706e+000
1	 2.294742582895855e+000	 2.054387539301056e+000	-1.007704635111947e+001
1	 2.271927481286673e+000	 2.079590696224573e+000	-9.430411678427957e+000
1	 2.248829917331490e+000	 2.104546542582549e+000	-8.787998453488532e+000
1	 2.225453936010800e+000	 2.129250354169905e+000	-8.150146593774187e+000
1	 2.201803687151573e+000	 2.153697495555299e+000	-7.517210247487662e+000
1	 2.177883422976089e+000	 2.177883422976089e+000	-6.889556744138314e+000
1	 2.153697495555299e+000	 2.201803687151573e+000	-6.267565517264129e+000
1	 2.129250354169905e+000	 2.225453936010800e+000	-5.651627001750824e+000
1	 2.104546542582549e+000	 2.248829917331490e+000	-5.042141508270270e+000
1	 2.079590696224572e+000	 2.271927481286673e+000	-4.439518077419726e+000
1	 2.054387539301056e+000	 2.294742582895855e+000	-3.844173316198254e+000
1	 2.314608548855468e+000	 2.072172711907637e+000	-9.970383265683754e+000
1	 2.291595933139321e+000	 2.097594056727699e+000	-9.325170999549348e+000
1	 2.268298409753951e+000	 2.122765949973781e+000	-8.686510280132699e+000
1	 2.244720058697916e+000	 2.147683626542579e+000	-8.054213606406361e+000
1	 2.220865065723928e+000	 2.172342410873053e+000	-7.428097401650738e+000
1	 2.196737719866457e+000	 2.196737719866457e+000	-6.807981952632325e+000
1	 2.172342410873052e+000	 2.220865065723928e+000	-6.193691338506072e+000
1	 2.147683626542579e+000	 2.244720058697916e+000	-5.585053349755218e+000
1	 2.122765949973781e+000	 2.268298409753950e+000	-4.981899397511092e+000
1	 2.097594056727699e+000	 2.291595933139321e+000	-4.384064413622001e+000
1	 2.072172711907637e+000	 2.314608548855468e+000	-3.791386741866154e+000
1	 2.334474514814633e+000	 2.089957884514068e+000	-9.848024111806270e+000
1	 2.311264384991488e+000	 2.115597417230627e+000	-9.206542347489959e+000
1	 2.287766902175922e+000	 2.140985357364761e+000	-8.573988904275902e+000
1	 2.263986181384554e+000	 2.166116898914944e+000	-7.949614319620536e+000
1	 2.239926444295830e+000	 2.190987326190443e+000	-7.332662092805304e+000
1	 2.215592016756413e+000	 2.215592016756412e+000	-6.722369689316286e+000
1	 2.190987326190444e+000	 2.239926444295831e+000	-6.117969553690620e+000
1	 2.166116898914944e+000	 2.263986181384554e+000	-5.518690128834161e+000
1	 2.140985357364762e+000	 2.287766902175922e+000	-4.923756879800057e+000
1	 2.115597417230626e+000	 2.311264384991489e+000	-4.332393320009194e+000
1	 2.089957884514069e+000	 2.334474514814633e+000	-3.743822037890382e+000
1	 1.912106158445013e+000	 2.135814855208781e+000	-4.397273242422587e+000
1	 1.888419229808245e+000	 2.156786404862220e+000	-3.853994274147686e+000
1	 1.864511085559069e+000	 2.177487746850984e+000	-3.333259693131303e+000
1	 1.840386357549125e+000	 2.197915422274170e+000	-2.834984557636422e+000
1	 1.816049748781705e+000	 2.218066078094255e+000	-2.359054465552275e+000
1	 1.791506030387908e+000	 2.237936468933869e+000	-1.905326398060529e+000
1	 1.766760038549538e+000	 2.257523458769129e+000	-1.473629603228384e+000
1	 1.741816671372895e+000	 2.276824022517764e+000	-1.063766517275229e+000
1	 1.716680885717582e+000	 2.295835247520404e+000	-6.755137211850274e-001
1	 1.691357693984630e+000	 2.314554334913665e+000	-3.086229302681754e-001
1	 1.665852160868179e+000	 2.332978600893775e+000	 3.717798578405930e-002
1	 1.929891331052193e+000	 2.155680821170189e+000	-4.320234570600509e+000
1	 1.905984081952293e+000	 2.176847434590535e+000	-3.766788747190857e+000
1	 1.881853559635735e+000	 2.197741327049500e+000	-3.234600760491986e+000
1	 1.857504439036638e+000	 2.218359007473745e+000	-2.723787383763803e+000
1	 1.832941466902574e+000	 2.238697091637989e+000	-2.234440042314104e+000
1	 1.808169458742604e+000	 2.258752303978484e+000	-1.766625294485601e+000
1	 1.783193295721556e+000	 2.278521479302110e+000	-1.320385347410354e+000
1	 1.758017921504730e+000	 2.298001564389258e+000	-8.957386060709338e-001
1	 1.732648339057221e+000	 2.317189619488917e+000	-4.926802541394136e-001
1	 1.707089607402157e+000	 2.336082819704504e+000	-1.111828650014432e-001
1	 1.681346838342176e+000	 2.354678456269270e+000	 2.488029586859524e-001
1	 1.947676503659357e+000	 2.175546787131546e+000	-4.244355368016810e+000
1	 1.923548934096329e+000	 2.196908464318807e+000	-3.682084044871727e+000
1	 1.899196033712393e+000	 2.217994907247979e+000	-3.139668628364711e+000
1	 1.874622520524149e+000	 2.238802592673292e+000	-2.617444460989447e+000
1	 1.849833185023448e+000	 2.259328105181699e+000	-2.115725518333940e+000
1	 1.824832887097314e+000	 2.279568139023080e+000	-1.634804492514451e+000
1	 1.799626552893600e+000	 2.299519499835069e+000	-1.174952905685131e+000
1	 1.774219171636611e+000	 2.319179106260727e+000	-7.364212530282804e-001
1	 1.748615792396929e+000	 2.338543991457386e+000	-3.194391745663606e-001
1	 1.722821520819784e+000	 2.357611304495278e+000	 7.578434492421514e-002
1	 1.696841515816308e+000	 2.376378311644662e+000	 4.490607486762256e-001
1	 1.965461676266487e+000	 2.195412753092805e+000	-4.170209479551650e+000
1	 1.941113786240340e+000	 2.216969494046992e+000	-3.600438780794941e+000
1	 1.916538507789037e+000	 2.238248487446389e+000	-3.049004030515132e+000
1	 1.891740602011651e+000	 2.259246177872786e+000	-2.516475528540671e+000
1	 1.866724903144321e+000	 2.279959118725377e+000	-2.003406061848639e+000
1	 1.841496315452034e+000	 2.300383974067659e+000	-1.510330556028172e+000
1	 1.816059810065665e+000	 2.320517520368025e+000	-1.037765752587306e+000
1	 1.790420421768526e+000	 2.340356648132197e+000	-5.862099124457648e-001
1	 1.764583245736689e+000	 2.359898363425857e+000	-1.561425458960240e-001
1	 1.738553434237483e+000	 2.379139789286039e+000	 2.519758307465961e-001
1	 1.712336193290541e+000	 2.398078167020021e+000	 6.377039116446642e-001
1	 1.983246848873568e+000	 2.215278719053913e+000	-4.098350165798685e+000
1	 1.958678638384314e+000	 2.237030523775047e+000	-3.522391530637016e+000
1	 1.933880981865654e+000	 2.258502067644693e+000	-2.963128304145393e+000
1	 1.908858683499138e+000	 2.279689763072207e+000	-2.421381682172450e+000
1	 1.883616621265188e+000	 2.300590132269012e+000	-1.897959079004199e+000
1	 1.858159743806755e+000	 2.321199809112224e+000	-1.393653312878747e+000
1	 1.832493067237741e+000	 2.341515540900993e+000	-9.092418135643405e-001
1	 1.806621671900462e+000	 2.361534190003698e+000	-4.454858533518362e-001
1	 1.780550699076482e+000	 2.381252735394371e+000	-3.129802754640755e-003
1	 1.754285347655232e+000	 2.400668274076846e+000	 4.170995878544078e-001
1	 1.727830870764843e+000	 2.419778022395412e+000	 8.144938795041878e-001
1	 2.001032021480582e+000	 2.235144685014823e+000	-4.029311017830831e+000
1	 1.976243490528240e+000	 2.257091553502927e+000	-3.448461722631854e+000
1	 1.951223455942238e+000	 2.278755647842859e+000	-2.882544251877130e+000
1	 1.925976764986603e+000	 2.300133348271529e+000	-2.332646202683296e+000
1	 1.900508339386043e+000	 2.321221145812591e+000	-1.799845003203140e+000
1	 1.874823172161473e+000	 2.342015644156779e+000	-1.285206598638116e+000
1	 1.848926324409820e+000	 2.362513561433990e+000	-7.897841559780141e-001
1	 1.822822922032408e+000	 2.382711731875264e+000	-3.146167898983877e-001
1	 1.796518152416293e+000	 2.402607107362974e+000	 1.392716878114613e-001
1	 1.770017261073006e+000	 2.422196758867754e+000	 5.708739929842712e-001
1	 1.743325548239177e+000	 2.441477877770901e+000	 9.792005657403256e-001
1	 2.018817194087512e+000	 2.255010650975482e+000	-3.963606823613150e+000
1	 1.993808342672107e+000	 2.277152583230591e+000	-3.379150480986934e+000
1	 1.968565930018780e+000	 2.299009228040851e+000	-2.807736958172194e+000
1	 1.943094846474039e+000	 2.320576933470728e+000	-2.250735340637446e+000
1	 1.917400057506879e+000	 2.341852159356104e+000	-1.709508042728477e+000
1	 1.891486600516179e+000	 2.362831479201324e+000	-1.185408961034349e+000
1	 1.865359581581894e+000	 2.383511581967032e+000	-6.797816435808656e-001
1	 1.839024172164352e+000	 2.403889273746924e+000	-1.939574784325214e-001
1	 1.812485605756102e+000	 2.423961479331709e+000	 2.707460947771685e-001
1	 1.785749174490779e+000	 2.443725243658818e+000	 7.130273469380057e-001
1	 1.758820225713511e+000	 2.463177733146556e+000	 1.131601991810665e+000
1	 2.036602366694342e+000	 2.274876616935843e+000	-3.901734389018709e+000
1	 2.011373194815899e+000	 2.297213612957994e+000	-3.314941425107303e+000
1	 1.985908404095269e+000	 2.319262808238634e+000	-2.739174562975315e+000
1	 1.960212927961440e+000	 2.341020518669781e+000	-2.176099059970110e+000
1	 1.934291775627691e+000	 2.362483172899540e+000	-1.627376889194585e+000
1	 1.908150028870870e+000	 2.383647314245862e+000	-1.094664327477297e+000
1	 1.881792838753955e+000	 2.404509602500136e+000	-5.796095567002385e-001
1	 1.855225422296282e+000	 2.425066815618706e+000	-8.385028328427485e-002
1	 1.828453059095894e+000	 2.445315851300618e+000	 3.909886194315274e-001
1	 1.801481087908528e+000	 2.465253728450097e+000	 8.432974412600185e-001
1	 1.774314903187812e+000	 2.484877588522445e+000	 1.271483933119807e+000
1	 2.054387539301056e+000	 2.294742582895855e+000	-3.844173316198254e+000
1	 2.028938046959606e+000	 2.317274642685093e+000	-3.256301427305446e+000
1	 2.003250878171699e+000	 2.339516388436176e+000	-2.677308995171731e+000
1	 1.977331009448800e+000	 2.361464103868666e+000	-2.109171742967886e+000
1	 1.951183493748474e+000	 2.383114186442888e+000	-1.553865389199119e+000
1	 1.924813457225537e+000	 2.404463149290396e+000	-1.013362637911433e+000
1	 1.898226095925993e+000	 2.425507623033317e+000	-4.896301802080616e-001
1	 1.871426672428187e+000	 2.446244357490643e+000	 1.537428683481316e-002
1	 1.844420512435650e+000	 2.466670223269748e+000	 4.997050178349681e-001
1	 1.817213001326227e+000	 2.486782213241644e+000	 9.614311474224194e-001
1	 1.789809580662045e+000	 2.506577443898633e+000	 1.398639583383317e+000
1	 2.072172711907637e+000	 2.314608548855468e+000	-3.791386741866151e+000
1	 2.046502899103217e+000	 2.337335672411845e+000	-3.203681331491354e+000
1	 2.020593352248060e+000	 2.359769968633441e+000	-2.622576668273636e+000
1	 1.994449090936111e+000	 2.381907689067359e+000	-2.050372858944352e+000
1	 1.968075211869222e+000	 2.403745199986136e+000	-1.489373181386759e+000
1	 1.941476885580175e+000	 2.425278984334927e+000	-9.418804450781649e-001
1	 1.914659353098001e+000	 2.446505643566593e+000	-4.101933612119625e-001
1	 1.887627922560051e+000	 2.467421899362762e+000	 1.033970700560347e-001
1	 1.860387965775354e+000	 2.488024595239140e+000	 5.966111478685966e-001
1	 1.832944914743853e+000	 2.508310698033516e+000	 1.067184027166381e+000
1	 1.805304258136177e+000	 2.528277299275187e+000	 1.512869236276112e+000
1	 2.089957884514069e+000	 2.334474514814633e+000	-3.743822037890381e+000
1	 2.064067751246718e+000	 2.357396702138207e+000	-3.157516635166825e+000
1	 2.037935826324343e+000	 2.380023548830395e+000	-2.575399140585631e+000
1	 2.011567172423368e+000	 2.402351274265837e+000	-2.000107598774191e+000
1	 1.984966929989930e+000	 2.424376213529276e+000	-1.434286300985036e+000
1	 1.958140313934778e+000	 2.446094819379461e+000	-8.805814841296538e-001
1	 1.931092610269970e+000	 2.467503664099979e+000	-3.416370382711639e-001
1	 1.903829172691866e+000	 2.488599441235097e+000	 1.799097685551193e-001
1	 1.876355419114987e+000	 2.509378967208838e+000	 6.814325394104692e-001
1	 1.848676828161380e+000	 2.529839182825770e+000	 1.160319962738853e+000
1	 1.820798935610176e+000	 2.549977154652176e+000	 1.613979983335383e+000
1	 1.665852160868179e+000	 2.332978600893775e+000	 3.717798578405930e-002
1	 1.640169399520067e+000	 2.351105477207141e+000	 3.535893748326068e-001
1	 1.614314566612346e+000	 2.368932510188156e+000	 6.323032109066056e-001
1	 1.588292860734558e+000	 2.386457363650868e+000	 8.736013495392624e-001
1	 1.562109519609820e+000	 2.403677820370209e+000	 1.077772052986520e+000
1	 1.535769816732273e+000	 2.420591782792370e+000	 1.245109623407286e+000
1	 1.509279057994052e+000	 2.437197273632522e+000	 1.375914042179229e+000
1	 1.482642578306111e+000	 2.453492436359996e+000	 1.470490615875890e+000
1	 1.455865738217200e+000	 2.469475535571230e+000	 1.529149629397417e+000
1	 1.428953920535294e+000	 2.485144957250983e+000	 1.552206006714561e+000
1	 1.401912526955667e+000	 2.500499208922499e+000	 1.539978979650729e+000
1	 1.681346838342176e+000	 2.354678456269270e+000	 2.488029586859524e-001
1	 1.655425192588333e+000	 2.372973937041403e+000	 5.786683717168574e-001
1	 1.629329874776701e+000	 2.390966785532879e+000	 8.702263016171060e-001
1	 1.603066131850734e+000	 2.408654643828039e+000	 1.124181724710656e+000
1	 1.576639250251452e+000	 2.426035274078607e+000	 1.341247789372549e+000
1	 1.550054552523622e+000	 2.443106559220670e+000	 1.522144640532142e+000
1	 1.523317393911349e+000	 2.459866503577958e+000	 1.667598255636567e+000
1	 1.496433158947471e+000	 2.476313233351541e+000	 1.778339294248269e+000
1	 1.469407258041088e+000	 2.492444996996238e+000	 1.855101963382763e+000
1	 1.442245124067568e+000	 2.508260165484270e+000	 1.898622900618344e+000
1	 1.414952208965249e+000	 2.523757232456807e+000	 1.909640076931687e+000
1	 1.696841515816308e+000	 2.376378311644662e+000	 4.490607486762256e-001
1	 1.670680985656779e+000	 2.394842396875518e+000	 7.915136124283678e-001
1	 1.644345182941285e+000	 2.413001060877398e+000	 1.095091337411616e+000
1	 1.617839402967188e+000	 2.430851924004947e+000	 1.360866568587807e+000
1	 1.591168980893409e+000	 2.448392727786678e+000	 1.589922149922101e+000
1	 1.564339288315340e+000	 2.465621335648581e+000	 1.783349229766504e+000
1	 1.537355729829050e+000	 2.482535733522948e+000	 1.942245381663800e+000
1	 1.510223739589258e+000	 2.499134030342586e+000	 2.067712744225373e+000
1	 1.482948777865412e+000	 2.515414458420706e+000	 2.160856183637180e+000
1	 1.455536327600267e+000	 2.531375373716986e+000	 2.222781482242460e+000
1	 1.427991890975229e+000	 2.547015255990533e+000	 2.254593556532209e+000
1	 1.712336193290541e+000	 2.398078167020021e+000	 6.377039116446642e-001
1	 1.685936778725359e+000	 2.416710856709561e+000	 9.919350854232263e-001
1	 1.659360491106039e+000	 2.435035336221800e+000	 1.306764266156223e+000
1	 1.632612674083848e+000	 2.453049204181680e+000	 1.583577844734168e+000
1	 1.605698711535610e+000	 2.470750181494515e+000	 1.823774694729624e+000
1	 1.578624024107333e+000	 2.488136112076197e+000	 2.028763646719734e+000
1	 1.551394065747053e+000	 2.505204963467584e+000	 2.199960980643521e+000
1	 1.524014320231365e+000	 2.521954827333227e+000	 2.338787941161094e+000
1	 1.496490297690064e+000	 2.538383919844724e+000	 2.446668280857133e+000
1	 1.468827531133287e+000	 2.554490581949219e+000	 2.525025835997261e+000
1	 1.441031572985507e+000	 2.570273279523760e+000	 2.575282139397452e+000
1	 1.727830870764843e+000	 2.419778022395412e+000	 8.144938795041878e-001
1	 1.701192571794027e+000	 2.438579316543607e+000	 1.179749595027199e+000
1	 1.674375799270905e+000	 2.457069611566164e+000	 1.505115844276909e+000
1	 1.647385945200647e+000	 2.475246484358327e+000	 1.792240315943691e+000
1	 1.620228442177975e+000	 2.493107635202212e+000	 2.042785717085192e+000
1	 1.592908759899511e+000	 2.510650888503613e+000	 2.258426702999031e+000
1	 1.565432401665257e+000	 2.527874193411962e+000	 2.440846826420200e+000
1	 1.537804900873685e+000	 2.544775624323555e+000	 2.591735512157589e+000
1	 1.510031817514932e+000	 2.561353381268382e+000	 2.712785063142158e+000
1	 1.482118734666520e+000	 2.577605790181060e+000	 2.805687703702243e+000
1	 1.454071254995983e+000	 2.593531303056567e+000	 2.872132665708345e+000
1	 1.743325548239177e+000	 2.441477877770901e+000	 9.792005657403256e-001
1	 1.716448364862740e+000	 2.460447776377734e+000	 1.354780458538671e+000
1	 1.689391107435829e+000	 2.479103886910575e+000	 1.690021423066906e+000
1	 1.662159216317515e+000	 2.497443764534976e+000	 1.986781419843312e+000
1	 1.634758172820419e+000	 2.515465088909857e+000	 2.246936210891495e+000
1	 1.607193495691781e+000	 2.533165664930923e+000	 2.472375830380861e+000
1	 1.579470737583563e+000	 2.550543423356175e+000	 2.665001074574051e+000
1	 1.551595481516112e+000	 2.567596421313664e+000	 2.826720018181587e+000
1	 1.523573337339909e+000	 2.584322842691774e+000	 2.959444564069477e+000
1	 1.495409938199861e+000	 2.600720998412591e+000	 3.065087033090960e+000
1	 1.467110937006559e+000	 2.616789326589043e+000	 3.145556800622749e+000
1	 1.758820225713511e+000	 2.463177733146556e+000	 1.131601991810665e+000
1	 1.731704157931453e+000	 2.482316236212016e+000	 1.516857219341835e+000
1	 1.704406415600752e+000	 2.501138162255115e+000	 1.861360746289876e+000
1	 1.676932487434383e+000	 2.519641044711714e+000	 2.167131151070507e+000
1	 1.649287903462864e+000	 2.537822542617543e+000	 2.436207839803022e+000
1	 1.621478231484051e+000	 2.555680441358218e+000	 2.670647141590566e+000
1	 1.593509073501868e+000	 2.573212653300319e+000	 2.872518421800181e+000
1	 1.565386062158539e+000	 2.590417218303647e+000	 3.043900221268735e+000
1	 1.537114857164887e+000	 2.607292304114989e+000	 3.186876429198611e+000
1	 1.508701141733201e+000	 2.623836206643904e+000	 3.303532497322653e+000
1	 1.480150619017134e+000	 2.640047350121267e+000	 3.395951702712611e+000
1	 1.774314903187812e+000	 2.484877588522445e+000	 1.271483933119807e+000
1	 1.746959951000122e+000	 2.504184696046531e+000	 1.665815375052084e+000
1	 1.719421723765620e+000	 2.523172437599867e+000	 2.019017758387948e+000
1	 1.691705758551183e+000	 2.541838324888631e+000	 2.333221949624611e+000
1	 1.663817634105228e+000	 2.560179996325362e+000	 2.610582907982073e+000
1	 1.635762967276229e+000	 2.578195217785595e+000	 2.853275487897202e+000
1	 1.607547409420072e+000	 2.595881883244487e+000	 3.063490256936958e+000
1	 1.579176642800859e+000	 2.613238015293599e+000	 3.243429337727106e+000
1	 1.550656376989755e+000	 2.630261765538118e+000	 3.395302282324488e+000
1	 1.521992345266434e+000	 2.646951414875085e+000	 3.521321987273796e+000
1	 1.493190301027610e+000	 2.663305373653324e+000	 3.623700657377028e+000
1	 1.789809580662045e+000	 2.506577443898633e+000	 1.398639583383317e+000
1	 1.762215744068701e+000	 2.526053155881353e+000	 1.801496119782204e+000
1	 1.734437031930373e+000	 2.545206712944916e+000	 2.162880422651737e+000
1	 1.706479029667844e+000	 2.564035605065815e+000	 2.484988595017063e+000
1	 1.678347364747429e+000	 2.582537450033407e+000	 2.770044332374081e+000
1	 1.650047703068223e+000	 2.600709994213145e+000	 3.020294513716847e+000
1	 1.621585745338075e+000	 2.618551113188773e+000	 3.238004804149274e+000
1	 1.592967223442966e+000	 2.636058812283610e+000	 3.425455278188829e+000
1	 1.564197896814406e+000	 2.653231226961252e+000	 3.584936072706236e+000
1	 1.535283548799454e+000	 2.670066623106221e+000	 3.718743078257927e+000
1	 1.506229983037888e+000	 2.686563397185296e+000	 3.829173677354231e+000
1	 1.805304258136177e+000	 2.528277299275187e+000	 1.512869236276112e+000
1	 1.777471537137146e+000	 2.547921615716559e+000	 1.923746099681081e+000
1	 1.749452340094956e+000	 2.567240988290342e+000	 2.292840548754431e+000
1	 1.721252300784296e+000	 2.586232885243353e+000	 2.622368105873365e+000
1	 1.692877095389386e+000	 2.604894903741769e+000	 2.914575616410330e+000
1	 1.664332438859940e+000	 2.623224770640964e+000	 3.171736708403957e+000
1	 1.635624081255775e+000	 2.641220343133271e+000	 3.396147258738552e+000
1	 1.606757804084753e+000	 2.658879609273776e+000	 3.590120875299485e+000
1	 1.577739416638730e+000	 2.676200688384482e+000	 3.755984404414646e+000
1	 1.548574752332153e+000	 2.693181831337400e+000	 3.896073472711095e+000
1	 1.519269665047867e+000	 2.709821420717266e+000	 4.012728072308602e+000
1	 1.820798935610176e+000	 2.549977154652176e+000	 1.613979983335383e+000
1	 1.792727330205413e+000	 2.569790075552224e+000	 2.032417180954508e+000
1	 1.764467648259313e+000	 2.589275263636230e+000	 2.408793629091546e+000
1	 1.736025571900472e+000	 2.608430165421335e+000	 2.745299644660357e+000
1	 1.707406826031018e+000	 2.627252357450538e+000	 3.044160825053711e+000
1	 1.678617174651289e+000	 2.645739547069144e+000	 3.307633455398196e+000
1	 1.649662417173072e+000	 2.663889573078078e+000	 3.537999916018076e+000
1	 1.620548384726113e+000	 2.681700406264190e+000	 3.737564099782088e+000
1	 1.591280936462618e+000	 2.699170149807902e+000	 3.908646848863609e+000
1	 1.561865955864427e+000	 2.716297039568712e+000	 4.053581420274226e+000
1	 1.532309347057451e+000	 2.733079444249318e+000	 4.174708989335442e+000
1	 1.401912526955667e+000	 2.500499208922499e+000	 1.539978979650729e+000
1	 1.374751058621742e+000	 2.515534688282688e+000	 1.492428044446269e+000
1	 1.347470897317242e+000	 2.530252474887798e+000	 1.406373340406379e+000
1	 1.320077480299228e+000	 2.544651443212336e+000	 1.277493476973178e+000
1	 1.292576250311316e+000	 2.558730588716131e+000	 1.101540454757434e+000
1	 1.264972652307893e+000	 2.572489027453051e+000	 8.743446195893599e-001
1	 1.237272130208986e+000	 2.585925995576417e+000	 5.918194379605526e-001
1	 1.209480123689433e+000	 2.599040848742956e+000	 2.499660870586738e-001
1	 1.181602065005949e+000	 2.611833061417270e+000	-1.551221468605354e-001
1	 1.153643375865511e+000	 2.624302226078947e+000	-6.272556674668073e-001
1	 1.125609464338406e+000	 2.636448052334516e+000	-1.170144569859563e+000
1	 1.414952208965249e+000	 2.523757232456807e+000	 1.909640076931690e+000
1	 1.387538102251041e+000	 2.538932562104462e+000	 1.888704039529825e+000
1	 1.360004198561121e+000	 2.553787244024815e+000	 1.832556178351694e+000
1	 1.332355985726399e+000	 2.568320142223472e+000	 1.736279284497650e+000
1	 1.304598957115369e+000	 2.582530242816688e+000	 1.595035665458700e+000
1	 1.276738608327862e+000	 2.596416653636446e+000	 1.404073110966793e+000
1	 1.248780433919723e+000	 2.609978603731262e+000	 1.158730653265532e+000
1	 1.220729924162126e+000	 2.623215442764610e+000	 8.544441133553327e-001
1	 1.192592561839122e+000	 2.636126640312910e+000	 4.867514254079249e-001
1	 1.164373819086900e+000	 2.648711785065263e+000	 5.129773219847206e-002
1	 1.136079154278112e+000	 2.660970583927155e+000	-4.561597549340219e-001
1	 1.427991890975229e+000	 2.547015255990533e+000	 2.254593556532209e+000
1	 1.400325145880683e+000	 2.562330435925657e+000	 2.257431255860035e+000
1	 1.372537499805272e+000	 2.577322013161275e+000	 2.228066014460877e+000
1	 1.344634491153757e+000	 2.591988841234090e+000	 2.161101479985000e+000
1	 1.316621663919515e+000	 2.606329896916777e+000	 2.051225900958105e+000
1	 1.288504564347824e+000	 2.620344279819433e+000	 1.893218926239589e+000
1	 1.260288737630354e+000	 2.634031211885770e+000	 1.681958176382642e+000
1	 1.231979724634620e+000	 2.647390036786003e+000	 1.412425577089794e+000
1	 1.203583058672014e+000	 2.660420219208370e+000	 1.079713445681234e+000
1	 1.175104262307936e+000	 2.673121344051484e+000	 6.790303222322182e-001
1	 1.146548844217417e+000	 2.685493115519782e+000	 2.057065377833786e-001
1	 1.441031572985507e+000	 2.570273279523760e+000	 2.575282139397447e+000
1	 1.413112189510584e+000	 2.585728309746352e+000	 2.599156100268264e+000
1	 1.385070801049629e+000	 2.600856782297251e+000	 2.593549493996825e+000
1	 1.356912996581255e+000	 2.615657540244252e+000	 2.552700417392972e+000
1	 1.328644370723730e+000	 2.630129551016453e+000	 2.470935635793148e+000
1	 1.300270520367781e+000	 2.644271906002056e+000	 2.342678040727356e+000
1	 1.271797041340905e+000	 2.658083820039974e+000	 2.162453861352799e+000
1	 1.243229525106963e+000	 2.671564630807158e+000	 1.924899618772438e+000
1	 1.214573555504692e+000	 2.684713798103659e+000	 1.624768813147659e+000
1	 1.185834705528708e+000	 2.697530903037604e+000	 1.256938334319552e+000
1	 1.157018534156420e+000	 2.710015647112380e+000	 8.164145874724611e-001
1	 1.454071254995983e+000	 2.593531303056567e+000	 2.872132665708345e+000
1	 1.425899233140657e+000	 2.609126183566624e+000	 2.914405379523938e+000
1	 1.397604102294122e+000	 2.624391551432815e+000	 2.929630066525716e+000
1	 1.369191502008848e+000	 2.639326239254022e+000	 2.911789893574959e+000
1	 1.340667077527991e+000	 2.653929205115769e+000	 2.854959769923152e+000
1	 1.312036476387733e+000	 2.668199532184362e+000	 2.753314290380077e+000
1	 1.283305345051404e+000	 2.682136428193909e+000	 2.601135418431608e+000
1	 1.254479325579208e+000	 2.695739224828096e+000	 2.392819897632337e+000
1	 1.225564052337228e+000	 2.709007376998789e+000	 2.122886380437491e+000
1	 1.196565148749303e+000	 2.721940462023622e+000	 1.785982264497876e+000
1	 1.167488224095222e+000	 2.734538178704933e+000	 1.376890227311059e+000
1	 1.467110937006559e+000	 2.616789326589043e+000	 3.145556800622753e+000
1	 1.438686276770817e+000	 2.632524057386552e+000	 3.203687171361242e+000
1	 1.410137403538683e+000	 2.647926320568034e+000	 3.236909016733918e+000
1	 1.381470007436487e+000	 2.662994938263464e+000	 3.239058328477822e+000
1	 1.352689784332277e+000	 2.677728859214781e+000	 3.204064943023346e+000
1	 1.323802432407685e+000	 2.692127158366396e+000	 3.125960800051293e+000
1	 1.294813648761876e+000	 2.706189036347608e+000	 2.998887931439239e+000
1	 1.265729126051403e+000	 2.719913818848843e+000	 2.817106168405141e+000
1	 1.236554549169694e+000	 2.733300955893768e+000	 2.575000555531983e+000
1	 1.207295591969811e+000	 2.746350021009535e+000	 2.267088461249160e+000
1	 1.177957914033923e+000	 2.759060710297422e+000	 1.888026375255404e+000
1	 1.480150619017134e+000	 2.640047350121267e+000	 3.395951702712610e+000
1	 1.451473320400976e+000	 2.655921931206211e+000	 3.467491649465075e+000
1	 1.422670704783244e+000	 2.671461089702981e+000	 3.515966440757529e+000
1	 1.393748512864127e+000	 2.686663637272641e+000	 3.535169882956499e+000
1	 1.364712491136561e+000	 2.701528513313543e+000	 3.518990779307927e+000
1	 1.335568388427636e+000	 2.716054784548201e+000	 3.461421336275998e+000
1	 1.306321952472348e+000	 2.730241644501108e+000	 3.356565294905720e+000
1	 1.276978926523597e+000	 2.744088412869419e+000	 3.198645774775302e+000
1	 1.247545046002160e+000	 2.757594534788612e+000	 2.982012818998251e+000
1	 1.218026035190319e+000	 2.770759579995338e+000	 2.701150629648333e+000
1	 1.188427603972625e+000	 2.783583241889828e+000	 2.350684483906207e+000
1	 1.493190301027610e+000	 2.663305373653324e+000	 3.623700657377031e+000
1	 1.464260364031049e+000	 2.679319805025680e+000	 3.706291865230521e+000
1	 1.435204006027738e+000	 2.694995858837727e+000	 3.767362171355826e+000
1	 1.406027018291719e+000	 2.710332336281614e+000	 3.800765518018808e+000
1	 1.376735197940822e+000	 2.725328167412109e+000	 3.800451067128524e+000
1	 1.347334344447589e+000	 2.739982410729826e+000	 3.760471589167045e+000
1	 1.317830256182847e+000	 2.754294252654444e+000	 3.674991575914928e+000
1	 1.288228726995841e+000	 2.768263006889848e+000	 3.538295064566365e+000
1	 1.258535542834697e+000	 2.781888113683325e+000	 3.344793161726475e+000
1	 1.228756478410915e+000	 2.795169138981031e+000	 3.089031256699577e+000
1	 1.198897293911427e+000	 2.808105773482135e+000	 2.765695914406578e+000
1	 1.506229983037888e+000	 2.686563397185296e+000	 3.829173677354231e+000
1	 1.477047407660950e+000	 2.702717678845036e+000	 3.920544488915397e+000
1	 1.447737307272094e+000	 2.718530627972343e+000	 3.991636655028273e+000
1	 1.418305523719217e+000	 2.734001035290450e+000	 4.036463999050206e+000
1	 1.388757904745038e+000	 2.749127821510537e+000	 4.049134877300937e+000
1	 1.359100300467546e+000	 2.763910036911314e+000	 4.023860387726392e+000
1	 1.329338559893399e+000	 2.778346860807648e+000	 3.954962305210098e+000
1	 1.299478527468185e+000	 2.792437600910155e+000	 3.836880731422655e+000
1	 1.269526039667374e+000	 2.806181692577922e+000	 3.664181447986376e+000
1	 1.239486921631686e+000	 2.819578697966607e+000	 3.431562962636267e+000
1	 1.209366983850430e+000	 2.832628305074326e+000	 3.133863238975841e+000
1	 1.519269665047867e+000	 2.709821420717266e+000	 4.012728072308600e+000
1	 1.489834451290593e+000	 2.726115552664356e+000	 4.110690512625413e+000
1	 1.460270608516245e+000	 2.742065397106899e+000	 4.189311783962530e+000
1	 1.430584029146575e+000	 2.757669734299212e+000	 4.242862848323451e+000
1	 1.400780611549183e+000	 2.772927475608878e+000	 4.265707623841101e+000
1	 1.370866256487507e+000	 2.787837663092711e+000	 4.252310852571116e+000
1	 1.340846863604030e+000	 2.802399468960756e+000	 4.197245701811223e+000
1	 1.310728327940679e+000	 2.816612194930360e+000	 4.095201087397800e+000
1	 1.280516536500265e+000	 2.830475271472410e+000	 3.940988708290406e+000
1	 1.250217364852722e+000	 2.843988256952066e+000	 3.729549782632801e+000
1	 1.219836673789734e+000	 2.857150836666380e+000	 3.455961476366244e+000
1	 1.532309347057451e+000	 2.733079444249318e+000	 4.174708989335439e+000
1	 1.502621494919892e+000	 2.749513426483720e+000	 4.277155917405991e+000
1	 1.472803909760124e+000	 2.765600166241469e+000	 4.360891685504119e+000
1	 1.442862534573746e+000	 2.781338433307961e+000	 4.420539248874517e+000
1	 1.412803318353237e+000	 2.796727129707190e+000	 4.450812070541165e+000
1	 1.382632212507476e+000	 2.811765289274062e+000	 4.446521489802528e+000
1	 1.352355167314767e+000	 2.826452077113804e+000	 4.402583835104827e+000
1	 1.321978128413372e+000	 2.840786788950489e+000	 4.314027270566317e+000
1	 1.291507033333439e+000	 2.854768850366804e+000	 4.175998366244786e+000
1	 1.260947808074111e+000	 2.868397815937405e+000	 3.983768383073779e+000
1	 1.230306363729441e+000	 2.881673368258283e+000	 3.732739264238735e+000
1	 1.125609464338406e+000	 2.636448052334516e+000	-1.170144569859563e+000
1	 1.097501501095708e+000	 2.648272115530094e+000	-1.788780986490693e+000
1	 1.069329061409152e+000	 2.659772511872570e+000	-2.487163887724238e+000
1	 1.041097498112028e+000	 2.670949298215834e+000	-3.267650750229391e+000
1	 1.012812138484053e+000	 2.681802644152406e+000	-4.132536073649602e+000
1	 9.844782814308749e-001	 2.692332830683794e+000	-5.084049645617747e+000
1	 9.561011947256430e-001	 2.702540248811464e+000	-6.124354913611644e+000
1	 9.276861123150281e-001	 2.712425398051369e+000	-7.255547464814341e+000
1	 8.992382316919289e-001	 2.721988884875083e+000	-8.479653614888399e+000
1	 8.707627113369547e-001	 2.731231421080581e+000	-9.798629106316687e+000
1	 8.422646682306207e-001	 2.740153822095873e+000	-1.121435791671542e+001
1	 1.136079154278112e+000	 2.660970583927155e+000	-4.561597549340219e-001
1	 1.107709748972663e+000	 2.672904626897555e+000	-1.041492916206296e+000
1	 1.079275267505267e+000	 2.684511992475504e+000	-1.709231684026219e+000
1	 1.050781112497805e+000	 2.695792738043705e+000	-2.461716993067151e+000
1	 1.022232660780904e+000	 2.706747034772115e+000	-3.301225273109961e+000
1	 9.936352605472041e-001	 2.717375166275937e+000	-4.229966723961678e+000
1	 9.649942285672726e-001	 2.727677527193472e+000	-5.250083699226911e+000
1	 9.363148474705654e-001	 2.737654621686848e+000	-6.363649200056640e+000
1	 9.076023630936984e-001	 2.747307061868639e+000	-7.572665479740977e+000
1	 8.788619818981297e-001	 2.756635566157504e+000	-8.879062759752253e+000
1	 8.500988684592170e-001	 2.765640957566034e+000	-1.028469805759399e+001
1	 1.146548844217417e+000	 2.685493115519782e+000	 2.057065377833786e-001
1	 1.117917996849190e+000	 2.697537138265089e+000	-3.469996204021687e-001
1	 1.089221473600947e+000	 2.709251473078593e+000	-9.842327583583036e-001
1	 1.060464726883158e+000	 2.720636177871812e+000	-1.708354036859763e+000
1	 1.031653183077356e+000	 2.731691425392141e+000	-2.521658657626088e+000
1	 1.002792239663169e+000	 2.742417501868468e+000	-3.426374086091609e+000
1	 9.738872624085796e-001	 2.752814805575940e+000	-4.424658386221975e+000
1	 9.449435826258267e-001	 2.762883845322851e+000	-5.518598668561557e+000
1	 9.159664944952384e-001	 2.772625238862780e+000	-6.710209652427581e+000
1	 8.869612524591194e-001	 2.782039711235068e+000	-8.001432342897164e+000
1	 8.579330686876658e-001	 2.791128093036881e+000	-9.394132822974498e+000
1	 1.157018534156420e+000	 2.710015647112380e+000	 8.164145874724611e-001
1	 1.128126244725395e+000	 2.722169649632665e+000	 2.956043472348483e-001
1	 1.099167679696300e+000	 2.733990953681790e+000	-3.113244443601866e-001
1	 1.070148341268192e+000	 2.745479617700091e+000	-1.006789001258632e+000
1	 1.041073705373506e+000	 2.756635816012397e+000	-1.793139200530165e+000
1	 1.011949218778857e+000	 2.767459837461291e+000	-2.672655691808660e+000
1	 9.827802962496399e-001	 2.777952083958754e+000	-3.647548123138982e+000
1	 9.535723177808729e-001	 2.788113068959254e+000	-4.719953484569093e+000
1	 9.243306258965952e-001	 2.797943415857371e+000	-5.891934570543662e+000
1	 8.950605230199542e-001	 2.807443856313125e+000	-7.165478561872023e+000
1	 8.657672689159829e-001	 2.816615228508264e+000	-8.542495727769577e+000
1	 1.167488224095222e+000	 2.734538178704933e+000	 1.376890227311059e+000
1	 1.138334492601386e+000	 2.746802161000247e+000	 8.871919539155766e-001
1	 1.109113885791435e+000	 2.758730434285045e+000	 3.103056971943576e-001
1	 1.079831955653012e+000	 2.770323057528476e+000	-3.562767297682565e-001
1	 1.050494227669453e+000	 2.781580206632806e+000	-1.114994878073930e+000
1	 1.021106197894358e+000	 2.792502173054308e+000	-1.968217598782703e+000
1	 9.916733300905299e-001	 2.803089362341805e+000	-2.918241100599135e+000
1	 9.622010529357666e-001	 2.813342292595933e+000	-3.967287131061143e+000
1	 9.326947572978148e-001	 2.823261592852275e+000	-5.117501282518173e+000
1	 9.031597935806648e-001	 2.832848001391535e+000	-6.370951423883525e+000
1	 8.736014691441837e-001	 2.842102363980035e+000	-7.729626258849811e+000
1	 1.177957914033923e+000	 2.759060710297422e+000	 1.888026375255402e+000
1	 1.148542740477269e+000	 2.771434672367803e+000	 1.428605131119900e+000
1	 1.119060091886461e+000	 2.783469914888308e+000	 8.814412216914156e-001
1	 1.089515570037725e+000	 2.795166497356900e+000	 2.439014423021949e-001
1	 1.059914749965296e+000	 2.806524597253285e+000	-4.865775582985993e-001
1	 1.030263177009759e+000	 2.817544508647425e+000	-1.312486980522749e+000
1	 1.000566363931325e+000	 2.828226640724981e+000	-2.236243705072198e+000
1	 9.708297880905690e-001	 2.838571516232765e+000	-3.260188254554203e+000
1	 9.410588886989444e-001	 2.848579769847359e+000	-4.386582887187979e+000
1	 9.112590641412821e-001	 2.858252146470149e+000	-5.617609823883346e+000
1	 8.814356693722830e-001	 2.867589499452040e+000	-6.955369609650008e+000
1	 1.188427603972625e+000	 2.783583241889828e+000	 2.350684483906209e+000
1	 1.158750988353152e+000	 2.796067183735299e+000	 1.920656141674210e+000
1	 1.129006297981487e+000	 2.808209395491530e+000	 1.402838072966520e+000
1	 1.099199184422435e+000	 2.820009937185299e+000	 7.944388547629258e-001
1	 1.069335272261134e+000	 2.831468987873751e+000	 9.273805136248023e-002
1	 1.039420156125150e+000	 2.842586844240541e+000	-7.049111962558312e-001
1	 1.009459397772102e+000	 2.853363919108170e+000	-1.601079717376584e+000
1	 9.794585232453414e-001	 2.863800739869622e+000	-2.598259997168381e+000
1	 9.494230201000294e-001	 2.873897946842485e+000	-3.698864002995261e+000
1	 9.193583347018369e-001	 2.883656291548827e+000	-4.905221153076735e+000
1	 8.892698696002970e-001	 2.893076634924131e+000	-6.219576428803313e+000
1	 1.198897293911427e+000	 2.808105773482135e+000	 2.765695914406578e+000
1	 1.168959236229143e+000	 2.820699695102704e+000	 2.364128875198480e+000
1	 1.138952504076620e+000	 2.832948876094660e+000	 1.875225788931143e+000
1	 1.108882798807248e+000	 2.844853377013607e+000	 1.296004628325283e+000
1	 1.078755794557065e+000	 2.856413378494124e+000	 6.235554013395989e-001
1	 1.048577135240618e+000	 2.867629179833561e+000	-1.449569095410744e-001
1	 1.018352431612936e+000	 2.878501197491262e+000	-1.012289553175197e+000
1	 9.880872584001462e-001	 2.889029963506384e+000	-1.981119363693636e+000
1	 9.577871515011172e-001	 2.899216123837520e+000	-3.054040264997386e+000
1	 9.274576052623599e-001	 2.909060436627422e+000	-4.233560927943185e+000
1	 8.971040698282408e-001	 2.918563770396158e+000	-5.522102581946396e+000
1	 1.209366983850430e+000	 2.832628305074326e+000	 3.133863238975843e+000
1	 1.179167484105347e+000	 2.845332206469981e+000	 2.759780076263992e+000
1	 1.148898710171969e+000	 2.857688356697653e+000	 2.299308644574978e+000
1	 1.118566413192270e+000	 2.869696816841759e+000	 1.749244712945385e+000
1	 1.088176316853187e+000	 2.881357769114321e+000	 1.106457045381714e+000
1	 1.057734114356251e+000	 2.892671515426387e+000	 3.678907473346223e-001
1	 1.027245465453903e+000	 2.903638475874144e+000	-4.694295429224366e-001
1	 9.967159935550445e-001	 2.914259187142925e+000	-1.408396621532323e+000
1	 9.661512829022537e-001	 2.924534300832329e+000	-2.451817848003275e+000
1	 9.355568758228816e-001	 2.934464581705792e+000	-3.602412438526923e+000
1	 9.049382700561295e-001	 2.944050905867970e+000	-4.862808925896872e+000
1	 1.219836673789734e+000	 2.857150836666380e+000	 3.455961476366244e+000
1	 1.189375731981873e+000	 2.869964717837100e+000	 3.108340509304655e+000
1	 1.158844916267644e+000	 2.882427837300455e+000	 2.675766736106887e+000
1	 1.128250027577606e+000	 2.894540256669687e+000	 2.154782882181340e+000
1	 1.097596839149599e+000	 2.906302159734262e+000	 1.542005537323287e+000
1	 1.066891093472140e+000	 2.917713851018923e+000	 8.341289659293166e-001
1	 1.036138499295079e+000	 2.928775754256705e+000	 2.792875110863151e-002
1	 1.005344728710099e+000	 2.939488410779119e+000	-8.797347315432350e-001
1	 9.745154143034851e-001	 2.949852477826773e+000	-1.891913014267056e+000
1	 9.436561463834331e-001	 2.959868726783791e+000	-3.011566414839840e+000
1	 9.127724702839787e-001	 2.969538041339417e+000	-4.241561094460323e+000
1	 1.230306363729441e+000	 2.881673368258283e+000	 3.732739264238735e+000
1	 1.199583979858828e+000	 2.894597229204027e+000	 3.410516064048850e+000
1	 1.168791122363753e+000	 2.907167317903020e+000	 3.005257009740875e+000
1	 1.137933641963362e+000	 2.919383696497329e+000	 2.513221676779669e+000
1	 1.107017361446401e+000	 2.931246550353865e+000	 1.930744282063170e+000
1	 1.076048072588372e+000	 2.942756186611073e+000	 1.254238013751176e+000
1	 1.045031533136541e+000	 2.953913032638836e+000	 4.801991829266787e-001
1	 1.013973463865370e+000	 2.964717634414845e+000	-3.947888079461056e-001
1	 9.828795457048584e-001	 2.975170654820722e+000	-1.374051684276163e+000
1	 9.517554169440449e-001	 2.985272871861279e+000	-2.460820710297206e+000
1	 9.206066705118042e-001	 2.995025176810348e+000	-3.658229295173356e+000
1	 8.422646682306207e-001	 2.740153822095873e+000	-1.121435791671542e+001
1	 8.137491750310451e-001	 2.748757004534392e+000	-1.273024987356985e+001
1	 7.852212565530335e-001	 2.757041982326296e+000	-1.435393294716798e+001
1	 7.566858887956514e-001	 2.765009866903514e+000	-1.609347092956678e+001
1	 7.281479971706540e-001	 2.772661865956894e+000	-1.795679538734743e+001
1	 6.996124543915533e-001	 2.779999281457081e+000	-1.995169557946845e+001
1	 6.710840784416883e-001	 2.787023507627656e+000	-2.208580879147179e+001
1	 6.425676306221918e-001	 2.793736028873866e+000	-2.436661109552271e+001
1	 6.140678136806004e-001	 2.800138417670240e+000	-2.680140854453657e+001
1	 5.855892700207175e-001	 2.806232332410390e+000	-2.939732880743506e+001
1	 5.571365799941845e-001	 2.812019515222284e+000	-3.216131325137074e+001
1	 8.500988684592170e-001	 2.765640957566034e+000	-1.028469805759399e+001
1	 8.213181426176583e-001	 2.774324161233401e+000	-1.179329556252730e+001
1	 7.925248759258222e-001	 2.782686200520694e+000	-1.341293322957624e+001
1	 7.637240906662782e-001	 2.790728197197665e+000	-1.515184545203911e+001
1	 7.349207580637582e-001	 2.798451370188332e+000	-1.701812770955321e+001
1	 7.061197961545841e-001	 2.805857033573426e+000	-1.901972615262096e+001
1	 6.773260677358410e-001	 2.812946594544702e+000	-2.116442762324705e+001
1	 6.485443783951879e-001	 2.819721551314391e+000	-2.345985012137899e+001
1	 6.197794746220587e-001	 2.826183490983165e+000	-2.591343372556503e+001
1	 5.910360420008765e-001	 2.832334087369945e+000	-2.853243197497298e+001
1	 5.623187034867332e-001	 2.838175098806854e+000	-3.132390371866577e+001
1	 8.579330686876658e-001	 2.791128093036881e+000	-9.394132822974498e+000
1	 8.288871102041550e-001	 2.799891317933140e+000	-1.089233825916485e+001
1	 7.998284952985155e-001	 2.808330418715853e+000	-1.250448021267994e+001
1	 7.707622925368254e-001	 2.816446527492603e+000	-1.423887229574954e+001
1	 7.416935189567913e-001	 2.824240874420564e+000	-1.610368306862427e+001
1	 7.126271379175478e-001	 2.831714785690565e+000	-1.810692543368026e+001
1	 6.835680570299277e-001	 2.838869681462531e+000	-2.025644648127505e+001
1	 6.545211261681154e-001	 2.845707073755670e+000	-2.255991779708538e+001
1	 6.254911355634437e-001	 2.852228564296800e+000	-2.502482623933187e+001
1	 5.964828139809565e-001	 2.858435842330152e+000	-2.765846519299597e+001
1	 5.675008269791978e-001	 2.864330682391994e+000	-3.046792630684037e+001
1	 8.657672689159829e-001	 2.816615228508264e+000	-8.542495727769577e+000
1	 8.364560777905351e-001	 2.825458474633451e+000	-1.002729773116650e+001
1	 8.071321146711011e-001	 2.833974636911618e+000	-1.162856859641612e+001
1	 7.778004944072667e-001	 2.842164857788169e+000	-1.335461236229543e+001
1	 7.484662798497168e-001	 2.850030378653444e+000	-1.521358241335329e+001
1	 7.191344796803980e-001	 2.857572537808359e+000	-1.721347082429435e+001
1	 6.898100463238918e-001	 2.864792768381011e+000	-1.936209816770105e+001
1	 6.604978739409093e-001	 2.871692596197583e+000	-2.166710379468265e+001
1	 6.312027965046840e-001	 2.878273637611040e+000	-2.413593659669342e+001
1	 6.019295859608801e-001	 2.884537597290914e+000	-2.677584625543267e+001
1	 5.726829504714950e-001	 2.890486265977629e+000	-2.959387498642992e+001
1	 8.736014691441837e-001	 2.842102363980035e+000	-7.729626258849811e+000
1	 8.440250453767998e-001	 2.851025631334182e+000	-9.198096624216063e+000
1	 8.144357340435665e-001	 2.859618855107834e+000	-1.078519327084022e+001
1	 7.848386962775786e-001	 2.867883188084215e+000	-1.249912436868453e+001
1	 7.552390407424986e-001	 2.875819882886823e+000	-1.434794235400049e+001
1	 7.256418214430880e-001	 2.883430289926668e+000	-1.633953336256832e+001
1	 6.960520356176770e-001	 2.890715855300007e+000	-1.848160713386516e+001
1	 6.664746217135055e-001	 2.897678118640007e+000	-2.078168739543695e+001
1	 6.369144574457066e-001	 2.904318710925770e+000	-2.324710273539223e+001
1	 6.073763579405679e-001	 2.910639352252135e+000	-2.588497796959855e+001
1	 5.778650739635411e-001	 2.916641849563674e+000	-2.870222600883909e+001
1	 8.814356693722830e-001	 2.867589499452040e+000	-6.955369609650008e+000
1	 8.515940129629499e-001	 2.876592788035181e+000	-8.404660334099273e+000
1	 8.217393534158993e-001	 2.885263073304349e+000	-9.974349307677212e+000
1	 7.918768981477350e-001	 2.893601518380587e+000	-1.167246494441787e+001
1	 7.620118016351005e-001	 2.901609387120555e+000	-1.350687535509822e+001
1	 7.321491632055712e-001	 2.909288042045349e+000	-1.548527800586023e+001
1	 7.022940249112275e-001	 2.916638942219389e+000	-1.761518985141301e+001
1	 6.724513694858385e-001	 2.923663641082820e+000	-1.990393795160531e+001
1	 6.426261183864400e-001	 2.930363784240881e+000	-2.235865057880692e+001
1	 6.128231299199424e-001	 2.936741107213719e+000	-2.498624882220150e+001
1	 5.830471974552516e-001	 2.942797433150047e+000	-2.779343869378014e+001
1	 8.892698696002970e-001	 2.893076634924131e+000	-6.219576428803313e+000
1	 8.591629805489868e-001	 2.902159944736293e+000	-7.646916885565561e+000
1	 8.290429727880866e-001	 2.910907291501006e+000	-9.196031952319251e+000
1	 7.989151000177117e-001	 2.919319848677136e+000	-1.087468872344128e+001
1	 7.687845625274860e-001	 2.927398891354493e+000	-1.269048991806402e+001
1	 7.386565049678001e-001	 2.935145794164261e+000	-1.465086389862901e+001
1	 7.085360142044868e-001	 2.942562029139025e+000	-1.676305516378901e+001
1	 6.784281172578444e-001	 2.949649163525900e+000	-1.903411532379448e+001
1	 6.483377793268119e-001	 2.956408857556268e+000	-2.147089456516662e+001
1	 6.182699018989245e-001	 2.962842862175569e+000	-2.408003361014334e+001
1	 5.882293209465432e-001	 2.968953016736668e+000	-2.686795617508900e+001
1	 8.971040698282408e-001	 2.918563770396158e+000	-5.522102581946396e+000
1	 8.667319481349111e-001	 2.927727101437364e+000	-6.924796817537530e+000
1	 8.363465921601164e-001	 2.936551509697653e+000	-8.450236616242757e+000
1	 8.059533018874838e-001	 2.945038178973707e+000	-1.010584843127943e+001
1	 7.755573234196188e-001	 2.953188395588489e+000	-1.189889075424559e+001
1	 7.451638467297289e-001	 2.961003546283265e+000	-1.383644462624784e+001
1	 7.147780034973986e-001	 2.968485116058781e+000	-1.592540461931322e+001
1	 6.844048650294586e-001	 2.975634685969126e+000	-1.817247029540245e+001
1	 6.540494402667507e-001	 2.982453930871813e+000	-2.058413814903716e+001
1	 6.237166738774358e-001	 2.988944617137589e+000	-2.316669403826944e+001
1	 5.934114444373317e-001	 2.995108600323453e+000	-2.592620610746312e+001
1	 9.049382700561295e-001	 2.944050905867970e+000	-4.862808925896872e+000
1	 8.743009157207239e-001	 2.953294258138242e+000	-6.238233074282612e+000
1	 8.436502115319762e-001	 2.962195727894138e+000	-7.736958869819186e+000
1	 8.129915037570263e-001	 2.970756509270149e+000	-9.365994967642756e+000
1	 7.823300843114625e-001	 2.978977899822394e+000	-1.113217894897703e+001
1	 7.516711884913101e-001	 2.986861298402220e+000	-1.304216845563417e+001
1	 7.210199927899071e-001	 2.994408202978527e+000	-1.510243278695680e+001
1	 6.903816128006164e-001	 3.001620208412377e+000	-1.731924496553343e+001
1	 6.597611012061844e-001	 3.008499004187415e+000	-1.969867427675817e+001
1	 6.291634458553985e-001	 3.015046372099683e+000	-2.224657928606945e+001
1	 5.985935679275339e-001	 3.021264183910321e+000	-2.496860133648887e+001
1	 9.127724702839787e-001	 2.969538041339417e+000	-4.241561094460323e+000
1	 8.818698833064261e-001	 2.978861414838771e+000	-5.587160902189658e+000
1	 8.509538309036534e-001	 2.987839946090302e+000	-7.056194435496309e+000
1	 8.200297056263139e-001	 2.996474839566310e+000	-8.655177484781577e+000
1	 7.891028452029805e-001	 3.004767404056062e+000	-1.039045211718678e+001
1	 7.581785302524970e-001	 3.012719050520981e+000	-1.226817856348740e+001
1	 7.272619820819561e-001	 3.020331289898130e+000	-1.429432755585633e+001
1	 6.963583605712533e-001	 3.027605730855529e+000	-1.647467312167832e+001
1	 6.654727621450409e-001	 3.034544077502960e+000	-1.881478583739663e+001
1	 6.346102178327339e-001	 3.041148127061754e+000	-2.132002654519490e+001
1	 6.037756914170657e-001	 3.047419767497193e+000	-2.399554053416489e+001
1	 9.206066705118042e-001	 2.995025176810348e+000	-3.658229295173356e+000
1	 8.894388508920191e-001	 3.004428571538802e+000	-4.971517751815247e+000
1	 8.582574502751356e-001	 3.013484164285996e+000	-6.407939181327263e+000
1	 8.270679074953227e-001	 3.022193169862039e+000	-7.973443461838871e+000
1	 7.958756060941372e-001	 3.030556908289346e+000	-9.673804551060540e+000
1	 7.646858720132438e-001	 3.038576802639415e+000	-1.151461325287359e+001
1	 7.335039713734896e-001	 3.046254376817458e+000	-1.350127041953488e+001
1	 7.023351083413049e-001	 3.053591253298464e+000	-1.563898059336689e+001
1	 6.711844230832484e-001	 3.060589150818338e+000	-1.793274609067527e+001
1	 6.400569898093635e-001	 3.067249882023707e+000	-2.038736152953098e+001
1	 6.089578149058431e-001	 3.073575351083983e+000	-2.300740880197589e+001
1	 5.571365799941845e-001	 2.812019515222284e+000	-3.216131325137074e+001
1	 5.287185198196900e-001	 2.817500990623337e+000	-3.510745023702413e+001
1	 5.003352638129517e-001	 2.822679553656821e+000	-3.825274367663527e+001
1	 4.719911884326337e-001	 2.827557185699814e+000	-4.160699021629425e+001
1	 4.436906022608280e-001	 2.832135942759818e+000	-4.517985456555608e+001
1	 4.154377447072045e-001	 2.836417953168350e+000	-4.898085703500270e+001
1	 3.872367847946145e-001	 2.840405415259060e+000	-5.301936156531939e+001
1	 3.590918200257314e-001	 2.844100595033316e+000	-5.730456425802858e+001
1	 3.310068753301844e-001	 2.847505823816278e+000	-6.184548241660180e+001
1	 3.029859020915368e-001	 2.850623495906301e+000	-6.665094410525596e+001
1	 2.750327772533645e-001	 2.853456066220491e+000	-7.172957823135860e+001
1	 5.623187034867332e-001	 2.838175098806854e+000	-3.132390371866577e+001
1	 5.336363169290086e-001	 2.843707559340700e+000	-3.430384387834700e+001
1	 5.049890582647981e-001	 2.848934290012431e+000	-3.749184658015521e+001
1	 4.763813446597570e-001	 2.853857290628595e+000	-4.089881972166847e+001
1	 4.478175247716248e-001	 2.858478636320324e+000	-4.453552197925824e+001
1	 4.193018774423222e-001	 2.862800475215494e+000	-4.841254865313525e+001
1	 3.908386104722579e-001	 2.866825026095203e+000	-5.254031807805750e+001
1	 3.624318594764292e-001	 2.870554576037689e+000	-5.692905861099038e+001
1	 3.340856868217608e-001	 2.873991478052573e+000	-6.158879620537410e+001
1	 3.058040806450334e-001	 2.877138148708408e+000	-6.652934258003288e+001
1	 2.775909539506486e-001	 2.879997065756335e+000	-7.176028398918366e+001
1	 5.675008269791978e-001	 2.864330682391994e+000	-3.046792630684037e+001
1	 5.385541140382393e-001	 2.869914128058542e+000	-3.347109019335130e+001
1	 5.096428527165515e-001	 2.875189026368409e+000	-3.669004632681088e+001
1	 4.807715008867807e-001	 2.880157395557621e+000	-4.013662468029146e+001
1	 4.519444472823133e-001	 2.884821329880952e+000	-4.382249013535842e+001
1	 4.231660101773191e-001	 2.889182997262622e+000	-4.775912689896131e+001
1	 3.944404361497635e-001	 2.893244636931202e+000	-5.195782355118031e+001
1	 3.657718989269654e-001	 2.897008557041791e+000	-5.642965873601909e+001
1	 3.371644983131448e-001	 2.900477132288479e+000	-6.118548750561631e+001
1	 3.086222591982989e-001	 2.903652801510019e+000	-6.623592832645898e+001
1	 2.801491306476536e-001	 2.906538065291594e+000	-7.159135075441773e+001
1	 5.726829504714950e-001	 2.890486265977629e+000	-2.959387498642992e+001
1	 5.434719111472928e-001	 2.896120696776794e+000	-3.260974854102271e+001
1	 5.142966471681203e-001	 2.901443762724703e+000	-3.584793923611595e+001
1	 4.851616571136129e-001	 2.906457500486858e+000	-3.932101537751047e+001
1	 4.560713697928022e-001	 2.911164023441680e+000	-4.304136569114323e+001
1	 4.270301429121070e-001	 2.915565519309739e+000	-4.702118257186611e+001
1	 3.980422618270485e-001	 2.919664247767075e+000	-5.127244601945392e+001
1	 3.691119383772667e-001	 2.923462538045660e+000	-5.580690827469658e+001
1	 3.402433098042760e-001	 2.926962786524052e+000	-6.063607916645324e+001
1	 3.114404377512897e-001	 2.930167454311213e+000	-6.577121217860950e+001
1	 2.827073073443562e-001	 2.933079064826362e+000	-7.122329124397209e+001
1	 5.778650739635411e-001	 2.916641849563674e+000	-2.870222600883909e+001
1	 5.483897082560818e-001	 2.922327265495393e+000	-3.172035821567865e+001
1	 5.189504416194137e-001	 2.927698499081265e+000	-3.496610023711107e+001
1	 4.895518133401608e-001	 2.932757605416278e+000	-3.845258020723307e+001
1	 4.601982923030000e-001	 2.937506717002495e+000	-4.219273354260111e+001
1	 4.308942756465977e-001	 2.941948041356846e+000	-4.619928527877235e+001
1	 4.016440875040310e-001	 2.946083858602847e+000	-5.048473314176724e+001
1	 3.724519778272609e-001	 2.949916519049338e+000	-5.506133136773235e+001
1	 3.433221212950947e-001	 2.953448440759354e+000	-5.994107528197996e+001
1	 3.142586163039616e-001	 2.956682107112062e+000	-6.513568664652131e+001
1	 2.852654840407330e-001	 2.959620064360732e+000	-7.065659978318236e+001
1	 5.830471974552516e-001	 2.942797433150047e+000	-2.779343869378014e+001
1	 5.533075053645181e-001	 2.948533834214270e+000	-3.080343933864194e+001
1	 5.236042360703406e-001	 2.953953235438047e+000	-3.404508381895641e+001
1	 4.939419695663320e-001	 2.959057710345844e+000	-3.753188664478333e+001
1	 4.643252148128148e-001	 2.963849410563381e+000	-4.127715779149485e+001
1	 4.347584083807031e-001	 2.968330563403949e+000	-4.529398437593451e+001
1	 4.052459131806289e-001	 2.972503469438534e+000	-4.959521310663790e+001
1	 3.757920172768744e-001	 2.976370500052862e+000	-5.419343352158261e+001
1	 3.464009327855405e-001	 2.979934094994439e+000	-5.910096202473667e+001
1	 3.170767948562713e-001	 2.983196759912645e+000	-6.432982673051387e+001
1	 2.878236607367615e-001	 2.986161063894799e+000	-6.989175312313076e+001
1	 5.882293209465432e-001	 2.968953016736668e+000	-2.686795617508900e+001
1	 5.582253024725135e-001	 2.974740402933362e+000	-2.985949370278342e+001
1	 5.282580305208096e-001	 2.980207971794995e+000	-3.308542493127838e+001
1	 4.983321257920345e-001	 2.985357815275526e+000	-3.655948216833481e+001
1	 4.684521373221553e-001	 2.990192104124325e+000	-4.029518266131696e+001
1	 4.386225411143345e-001	 2.994713085451048e+000	-4.430580986095025e+001
1	 4.088477388567599e-001	 2.998923080274164e+000	-4.860439548985234e+001
1	 3.791320567260345e-001	 3.002824481056273e+000	-5.320370242926231e+001
1	 3.494797442755527e-001	 3.006419749229364e+000	-5.811620843512674e+001
1	 3.198949734081747e-001	 3.009711412713036e+000	-6.335409069246578e+001
1	 2.903818374324179e-001	 3.012702063428656e+000	-6.892921121476532e+001
1	 5.934114444373317e-001	 2.995108600323453e+000	-2.592620610746312e+001
1	 5.631430995799795e-001	 3.000946971652601e+000	-2.888900557281222e+001
1	 5.329118249707298e-001	 3.006462708152062e+000	-3.208763983734122e+001
1	 5.027222820171757e-001	 3.011657920205289e+000	-3.553589513206305e+001
1	 4.725790598309299e-001	 3.016534797685309e+000	-3.924733336525122e+001
1	 4.424866738474040e-001	 3.021095607498148e+000	-4.323527321803501e+001
1	 4.124495645323420e-001	 3.025342691109753e+000	-4.751277206717059e+001
1	 3.824720961746682e-001	 3.029278462059609e+000	-5.209260874814829e+001
1	 3.525585557650715e-001	 3.032905403464190e+000	-5.698726716947177e+001
1	 3.227131519596281e-001	 3.036226065513310e+000	-6.220892078668114e+001
1	 2.929400141276792e-001	 3.039243062962394e+000	-6.776941794245964e+001
1	 5.985935679275339e-001	 3.021264183910321e+000	-2.496860133648887e+001
1	 5.680608966868284e-001	 3.027153540371921e+000	-2.789244244399774e+001
1	 5.375656194200102e-001	 3.032717444509198e+000	-3.105222692290176e+001
1	 5.071124382416632e-001	 3.037958025135104e+000	-3.446163559394424e+001
1	 4.767059823390474e-001	 3.042877491246323e+000	-3.813411692905080e+001
1	 4.463508065798235e-001	 3.047478129545251e+000	-4.208286821938879e+001
1	 4.160513902072929e-001	 3.051762301945324e+000	-4.632081758481576e+001
1	 3.858121356227026e-001	 3.055732443062912e+000	-5.086060683738230e+001
1	 3.556373672540364e-001	 3.059391057698973e+000	-5.571457520921124e+001
1	 3.255313305105878e-001	 3.062740718313544e+000	-6.089474395278981e+001
1	 2.954981908225223e-001	 3.065784062496107e+000	-6.641280181946706e+001
1	 6.037756914170657e-001	 3.047419767497193e+000	-2.399554053416489e+001
1	 5.729786937929718e-001	 3.053360109091257e+000	-2.687025576181852e+001
1	 5.422194138685594e-001	 3.058972180866353e+000	-2.997966746341096e+001
1	 5.115025944654048e-001	 3.064258130064935e+000	-3.333719610092444e+001
1	 4.808329048464157e-001	 3.069220184807347e+000	-3.695602297153947e+001
1	 4.502149393115045e-001	 3.073860651592361e+000	-4.084907168529669e+001
1	 4.196532158815305e-001	 3.078181912780898e+000	-4.502899049028480e+001
1	 3.891521750700649e-001	 3.082186424066220e+000	-4.950813545729866e+001
1	 3.587161787423874e-001	 3.085876711933772e+000	-5.429855453357990e+001
1	 3.283495090610099e-001	 3.089255371113814e+000	-5.941197247296793e+001
1	 2.980563675169238e-001	 3.092325062029892e+000	-6.485977664756329e+001
1	 6.089578149058431e-001	 3.073575351083983e+000	-2.300740880197589e+001
1	 5.778964908983216e-001	 3.079566677810540e+000	-2.582288160486717e+001
1	 5.468732083162867e-001	 3.085226917223479e+000	-2.887042635204286e+001
1	 5.158927506883084e-001	 3.090558234994752e+000	-3.216305243399930e+001
1	 4.849598273529440e-001	 3.095562878368370e+000	-3.571352444526173e+001
1	 4.540790720423593e-001	 3.100243173639482e+000	-3.953434420541799e+001
1	 4.232550415549730e-001	 3.104601523616498e+000	-4.363773362584632e+001
1	 3.924922145166819e-001	 3.108640405069572e+000	-4.803561843314101e+001
1	 3.617949902300640e-001	 3.112362366168643e+000	-5.273961275793828e+001
1	 3.311676876108508e-001	 3.115770023914197e+000	-5.776100459559933e+001
1	 3.006145442108607e-001	 3.118866061563839e+000	-6.311074214300626e+001
1	 2.750327772533645e-001	 2.853456066220491e+000	-7.172957823135859e+001
1	 2.471471351279563e-001	 2.856006409498290e+000	-7.708680549212416e+001
1	 2.193369495812531e-001	 2.858276650234000e+000	-8.272237700215453e+001
1	 1.916059273113746e-001	 2.860269412912185e+000	-8.863853476767642e+001
1	 1.639576959960275e-001	 2.861987373296846e+000	-9.483741914192160e+001
1	 1.363958037885802e-001	 2.863433256073065e+000	-1.013210682325159e+002
1	 1.089237188885891e-001	 2.864609832501104e+000	-1.080914174202741e+002
1	 8.154482918534663e-002	 2.865519918085287e+000	-1.151502989879800e+002
1	 5.426244197296083e-002	 2.866166370259814e+000	-1.224994418575537e+002
1	 2.707978373541613e-002	 2.866552086093679e+000	-1.301404714338548e+002
1	 0.000000000000000e+000	 2.866680000016666e+000	-1.380749095532063e+002
1	 2.775909539506486e-001	 2.879997065756335e+000	-7.176028398918366e+001
1	 2.494459376495118e-001	 2.882571130674752e+000	-7.728847083098043e+001
1	 2.213770797753014e-001	 2.884862487718647e+000	-8.311558907762507e+001
1	 1.933881215034428e-001	 2.886873785783859e+000	-8.924561600637742e+001
1	 1.654827242539523e-001	 2.888607725522634e+000	-9.568238317618656e+001
1	 1.376644691828235e-001	 2.890067056963326e+000	-1.024295740106318e+002
1	 1.099368567485598e-001	 2.891254577142689e+000	-1.094907216153255e+002
1	 8.230330635240611e-002	 2.892173127753059e+000	-1.168692068276840e+002
1	 5.476715605077925e-002	 2.892825592806658e+000	-1.245682564965549e+002
1	 2.733166233832862e-002	 2.893214896319162e+000	-1.325909419887970e+002
1	 0.000000000000000e+000	 2.893344000014533e+000	-1.409401779195289e+002
1	 2.801491306476536e-001	 2.906538065291594e+000	-7.159135075441773e+001
1	 2.517447401707313e-001	 2.909135851850559e+000	-7.725987242065881e+001
1	 2.234172099689544e-001	 2.911448325202585e+000	-8.324497160449641e+001
1	 1.951703156950626e-001	 2.913478158654786e+000	-8.955220870549302e+001
1	 1.670077525113893e-001	 2.915228077747647e+000	-9.618695829840652e+001
1	 1.389331345765616e-001	 2.916700857852796e+000	-1.031544050150344e+002
1	 1.109499946080371e-001	 2.917899321783473e+000	-1.104595397743796e+002
1	 8.306178351902145e-002	 2.918826337420027e+000	-1.181071563584455e+002
1	 5.527187012824718e-002	 2.919484815352702e+000	-1.261018483303225e+002
1	 2.758354094103625e-002	 2.919877706543843e+000	-1.344480062906096e+002
1	 0.000000000000000e+000	 2.920008000011599e+000	-1.431498154676482e+002
1	 2.827073073443562e-001	 2.933079064826362e+000	-7.122329124397209e+001
1	 2.540435426916159e-001	 2.935700573025820e+000	-7.700155117131403e+001
1	 2.254573401622399e-001	 2.938034162685941e+000	-8.311113209401677e+001
1	 1.969525098862872e-001	 2.940082531525106e+000	-8.955902993871699e+001
1	 1.685327807684142e-001	 2.941848429972040e+000	-9.635201858449045e+001
1	 1.402017999698863e-001	 2.943334658741643e+000	-1.034966441646520e+002
1	 1.119631324671211e-001	 2.944544066423636e+000	-1.109992198216914e+002
1	 8.382026068528964e-002	 2.945479547086380e+000	-1.188658209121202e+002
1	 5.577658420544564e-002	 2.946144037898136e+000	-1.271022806571511e+002
1	 2.783541954358854e-002	 2.946540516767923e+000	-1.357141862343209e+002
1	 0.000000000000000e+000	 2.946672000008066e+000	-1.447068753043893e+002
1	 2.852654840407330e-001	 2.959620064360732e+000	-7.065659978318236e+001
1	 2.563423452121673e-001	 2.962265294200649e+000	-7.651402859021206e+001
1	 2.274974703551856e-001	 2.964620000168841e+000	-8.271465626551319e+001
1	 1.987347040771700e-001	 2.966686904394960e+000	-8.926677105773072e+001
1	 1.700578090251024e-001	 2.968468782195969e+000	-9.617840675653983e+001
1	 1.414704653628895e-001	 2.969968459630035e+000	-1.034573355332398e+002
1	 1.129762703259115e-001	 2.971188811063356e+000	-1.111110613303892e+002
1	 8.457873785130782e-002	 2.972132756752305e+000	-1.191468137968000e+002
1	 5.628129828245580e-002	 2.972803260443156e+000	-1.275715427631585e+002
1	 2.808729814603493e-002	 2.973203326991598e+000	-1.363919132525423e+002
1	 0.000000000000000e+000	 2.973336000004133e+000	-1.456143010191564e+002
1	 2.878236607367615e-001	 2.986161063894799e+000	-6.989175312313076e+001
1	 2.586411477323866e-001	 2.988830015375152e+000	-7.579780764399578e+001
1	 2.295376005478193e-001	 2.991205837651410e+000	-8.205610901482447e+001
1	 2.005168982677644e-001	 2.993291277264493e+000	-8.867609883528836e+001
1	 1.715828372815295e-001	 2.995089134419591e+000	-9.566693557621171e+001
1	 1.427391307556633e-001	 2.996602260518139e+000	-1.030374860756576e+002
1	 1.139894081845085e-001	 2.997833555702813e+000	-1.107963176711950e+002
1	 8.533721501717312e-002	 2.998785966417991e+000	-1.189516909642706e+002
1	 5.678601235935869e-002	 2.999462482987957e+000	-1.275115532113877e+002
1	 2.833917674842496e-002	 2.999866137215068e+000	-1.364835323356196e+002
1	 0.000000000000000e+000	 3.000000000000000e+000	-1.458749315508892e+002
1	 2.903818374324179e-001	 3.012702063428656e+000	-6.892921121476532e+001
1	 2.609399502522751e-001	 3.015394736549441e+000	-7.485337357537119e+001
1	 2.315777307401687e-001	 3.017791675133779e+000	-8.113603533154445e+001
1	 2.022990924581236e-001	 3.019895650133845e+000	-8.778765654788245e+001
1	 1.731078655377712e-001	 3.021709486643062e+000	-9.481838916443081e+001
1	 1.440077961482993e-001	 3.023236061406127e+000	-1.022380672629016e+002
1	 1.150025460430117e-001	 3.024478300342188e+000	-1.100561980475723e+002
1	 8.609569218298260e-002	 3.025439176083625e+000	-1.182819535364693e+002
1	 5.729072643623540e-002	 3.026121705532733e+000	-1.269241629570514e+002
1	 2.859105535080810e-002	 3.026528947438530e+000	-1.359913058392862e+002
1	 0.000000000000000e+000	 3.026663999995867e+000	-1.454915057977628e+002
1	 2.929400141276792e-001	 3.039243062962394e+000	-6.776941794245964e+001
1	 2.632387527718345e-001	 3.041959457723628e+000	-7.368119467700242e+001
1	 2.336178609322615e-001	 3.044377512616071e+000	-7.995496116820515e+001
1	 2.040812866483010e-001	 3.046500023003159e+000	-8.660206500167951e+001
1	 1.746328937939027e-001	 3.048329838866538e+000	-9.363352425195274e+001
1	 1.452764615408896e-001	 3.049869862294165e+000	-1.010600166314644e+002
1	 1.160156839015212e-001	 3.051123044981657e+000	-1.088918694242364e+002
1	 8.685416934883342e-002	 3.052092385749397e+000	-1.171390501995654e+002
1	 5.779544051316703e-002	 3.052780928077678e+000	-1.258111582995497e+002
1	 2.884293395323386e-002	 3.053191757662185e+000	-1.349174170928073e+002
1	 0.000000000000000e+000	 3.053327999991933e+000	-1.444666669853514e+002
1	 2.954981908225223e-001	 3.065784062496107e+000	-6.641280181946706e+001
1	 2.655375552910660e-001	 3.068524178897822e+000	-7.228172302520919e+001
1	 2.356579911241255e-001	 3.070963350098414e+000	-7.851339426431129e+001
1	 2.058634808383497e-001	 3.073104395872575e+000	-8.511992350516705e+001
1	 1.761579220499999e-001	 3.074950191090176e+000	-9.211307136497049e+001
1	 1.465451269335261e-001	 3.076503663182422e+000	-9.950423925221844e+001
1	 1.170288217601368e-001	 3.077767789621401e+000	-1.073044583554933e+002
1	 8.761264651482260e-002	 3.078745595415491e+000	-1.155243794736859e+002
1	 5.830015459023467e-002	 3.079440150622987e+000	-1.241742636811507e+002
1	 2.909481255575171e-002	 3.079854567886232e+000	-1.332639738197077e+002
1	 0.000000000000000e+000	 3.079991999988400e+000	-1.428029668079001e+002
1	 2.980563675169238e-001	 3.092325062029892e+000	-6.485977664756329e+001
1	 2.678363578099709e-001	 3.095088900072134e+000	-7.065539517587999e+001
1	 2.376981213157884e-001	 3.097549187580936e+000	-7.681182492794014e+001
1	 2.076456750283233e-001	 3.099708768742238e+000	-8.334181079171086e+001
1	 1.776829503061382e-001	 3.101570543314130e+000	-9.025773594966331e+001
1	 1.478137923263007e-001	 3.103137464071066e+000	-9.757160912365372e+001
1	 1.180419596189585e-001	 3.104412534261600e+000	-1.052950527194237e+002
1	 8.837112368104731e-002	 3.105398805082098e+000	-1.134392918657563e+002
1	 5.880486866751938e-002	 3.106099373168855e+000	-1.220151443415450e+002
1	 2.934669115841117e-002	 3.106517378110866e+000	-1.310330113823405e+002
1	 0.000000000000000e+000	 3.106655999985466e+000	-1.405028693563305e+002
1	 3.006145442108607e-001	 3.118866061563839e+000	-6.311074214300626e+001
1	 2.701351603285507e-001	 3.121653621246674e+000	-6.880263282485232e+001
1	 2.397382515072781e-001	 3.124135025063762e+000	-7.485072677743318e+001
1	 2.094278692182750e-001	 3.126313141612288e+000	-8.126828589500832e+001
1	 1.792079785623931e-001	 3.128190895538556e+000	-8.806819943932997e+001
1	 1.490824577193054e-001	 3.129771264960268e+000	-9.526297049398103e+001
1	 1.190550974780862e-001	 3.131057278902433e+000	-1.028647033635215e+002
1	 8.912960084760466e-002	 3.132052014749406e+000	-1.108850919124190e+002
1	 5.930958274510228e-002	 3.132758595715478e+000	-1.193354088368660e+002
1	 2.959856976126172e-002	 3.133180188336288e+000	-1.282264958607915e+002
1	 0.000000000000000e+000	 3.133319999983334e+000	-1.375687548456866e+002
1	 3.133319999983334e+000	 0.000000000000000e+000	 9.535869505872792e+001
1	 3.133180188336287e+000	 2.959856976126182e-002	 8.946542401890324e+001
1	 3.132758595715477e+000	 5.930958274510247e-002	 8.376602797626860e+001
1	 3.132052014749406e+000	 8.912960084760442e-002	 7.825991343522237e+001
1	 3.131057278902433e+000	 1.190550974780861e-001	 7.294642075398868e+001
1	 3.129771264960267e+000	 1.490824577193053e-001	 6.782482590772638e+001
1	 3.128190895538556e+000	 1.792079785623932e-001	 6.289434239147377e+001
1	 3.126313141612289e+000	 2.094278692182753e-001	 5.815412326286595e+001
1	 3.124135025063762e+000	 2.397382515072778e-001	 5.360326332423038e+001
1	 3.121653621246674e+000	 2.701351603285506e-001	 4.924080144332292e+001
1	 3.118866061563838e+000	 3.006145442108607e-001	 4.506572301161403e+001
1	 3.159987999982150e+000	 0.000000000000000e+000	 9.307972947928232e+001
1	 3.159846998384162e+000	 2.985048614990570e-002	 8.727589898803520e+001
1	 3.159421817546308e+000	 5.981437253772166e-002	 8.166427848836827e+001
1	 3.158709222798846e+000	 8.988819179751430e-002	 7.624437394248878e+001
1	 3.157706020655442e+000	 1.200683873234670e-001	 7.101561660427285e+001
1	 3.156409061319833e+000	 1.503513134314466e-001	 6.597736452856610e+001
1	 3.154815241215753e+000	 1.807332355959375e-001	 6.112890422856089e+001
1	 3.152921505537872e+000	 2.112103307641125e-001	 5.646945248191489e+001
1	 3.150724850821439e+000	 2.417786877487557e-001	 5.199815828594794e+001
1	 3.148222327528215e+000	 2.724343077016803e-001	 4.771410496191469e+001
1	 3.145411042646106e+000	 3.031731046692103e-001	 4.361631240799789e+001
1	 3.186655999981866e+000	 0.000000000000000e+000	 9.065839645499501e+001
1	 3.186513808432925e+000	 3.010240253874214e-002	 8.496025933564729e+001
1	 3.186085039377992e+000	 6.031916233064432e-002	 7.945160049821752e+001
1	 3.185366430849083e+000	 9.064678274776808e-002	 7.413206477961060e+001
1	 3.184354762409181e+000	 1.210816771691726e-001	 6.900121524303260e+001
1	 3.183046857680052e+000	 1.516201691438456e-001	 6.405853439952824e+001
1	 3.181439586893518e+000	 1.822584926296357e-001	 5.930342558254738e+001
1	 3.179529869463931e+000	 2.129927923099749e-001	 5.473521447689235e+001
1	 3.177314676579507e+000	 2.438191239901172e-001	 5.035315080308491e+001
1	 3.174791033810060e+000	 2.747334550745508e-001	 4.615641015786049e+001
1	 3.171956023728604e+000	 3.057316651271696e-001	 4.214409601115511e+001
1	 3.213323999982383e+000	 0.000000000000000e+000	 8.810017406395819e+001
1	 3.213180618482476e+000	 3.035431892772296e-002	 8.252359259428393e+001
1	 3.212748261210434e+000	 6.082395212379461e-002	 7.713271257031026e+001
1	 3.212023638900032e+000	 9.140537369827975e-002	 7.192735595074923e+001
1	 3.211003504163571e+000	 1.220949670151219e-001	 6.690725732500111e+001
1	 3.209684654040851e+000	 1.528890248564378e-001	 6.207206481340666e+001
1	 3.208063932571784e+000	 1.837837496634492e-001	 5.742134112222972e+001
1	 3.206138233390415e+000	 2.147752538558561e-001	 5.295456475537590e+001
1	 3.203904502337919e+000	 2.458595602313912e-001	 4.867113138455753e+001
1	 3.201359740092178e+000	 2.770326024472273e-001	 4.457035537929845e+001
1	 3.198501004811306e+000	 3.082902255848360e-001	 4.065147149784737e+001
1	 3.239991999983599e+000	 0.000000000000000e+000	 8.541036002653704e+001
1	 3.239847428532718e+000	 3.060623531680004e-002	 7.997081879690909e+001
1	 3.239411483043539e+000	 6.132874191709668e-002	 7.471217791729873e+001
1	 3.238680846951603e+000	 9.216396464896334e-002	 6.963447358406700e+001
1	 3.237652245918530e+000	 1.231082568612335e-001	 6.473765047226391e+001
1	 3.236322450402155e+000	 1.541578805691587e-001	 6.002156228148636e+001
1	 3.234688278250491e+000	 1.853090066973396e-001	 5.548597243496104e+001
1	 3.232746597317268e+000	 2.165577154017499e-001	 5.113055493447547e+001
1	 3.230494328096633e+000	 2.478999964726069e-001	 4.695489537350812e+001
1	 3.227928446374532e+000	 2.793317498197739e-001	 4.295849211061717e+001
1	 3.225045985894188e+000	 3.108487860423074e-001	 3.914075760483914e+001
1	 3.266659999985416e+000	 0.000000000000000e+000	 8.259407906729145e+001
1	 3.266514238583552e+000	 3.085815170592526e-002	 7.730669731397920e+001
1	 3.266074704877213e+000	 6.183353171047463e-002	 7.219441074121423e+001
1	 3.265338055003706e+000	 9.292255559973295e-002	 6.725750580452267e+001
1	 3.264300987673976e+000	 1.241215467074265e-001	 6.249617470444549e+001
1	 3.262960246763894e+000	 1.554267362819441e-001	 5.791051554529454e+001
1	 3.261312623929575e+000	 1.868342637312685e-001	 5.350053264246110e+001
1	 3.259354961244441e+000	 2.183401769476501e-001	 4.926613698148157e+001
1	 3.257084153855605e+000	 2.499404327137935e-001	 4.520714683182472e+001
1	 3.254497152657088e+000	 2.816308971922559e-001	 4.132328851809960e+001
1	 3.251590966977224e+000	 3.134073464996811e-001	 3.761419735110609e+001
1	 3.293327999987732e+000	 0.000000000000000e+000	 7.965628991921513e+001
1	 3.293181048634878e+000	 3.111006809505051e-002	 7.453583335833329e+001
1	 3.292737926711361e+000	 6.233832150385259e-002	 6.958368226659705e+001
1	 3.291995263056253e+000	 9.368114655050250e-002	 6.480040832133415e+001
1	 3.290949729429830e+000	 1.251348365536193e-001	 6.018648760506785e+001
1	 3.289598043125996e+000	 1.566955919947295e-001	 5.574230034485349e+001
1	 3.287936969608975e+000	 1.883595207651974e-001	 5.146813079236387e+001
1	 3.285963325171877e+000	 2.201226384935503e-001	 4.736416724847953e+001
1	 3.283673979614794e+000	 2.519808689549801e-001	 4.343050223592910e+001
1	 3.281065858939814e+000	 2.839300445647379e-001	 3.966713282329972e+001
1	 3.278135948060388e+000	 3.159659069570548e-001	 3.607396110349070e+001
1	 3.319995999990449e+000	 0.000000000000000e+000	 7.660179199040367e+001
1	 3.319847858686600e+000	 3.136198448412762e-002	 7.166268417657841e+001
1	 3.319401148545888e+000	 6.284311129715468e-002	 6.688412648285862e+001
1	 3.318652471109157e+000	 9.443973750118619e-002	 6.226700974615206e+001
1	 3.317598471186008e+000	 1.261481263997311e-001	 5.781212923891503e+001
1	 3.316235839488389e+000	 1.579644477074505e-001	 5.352018395712609e+001
1	 3.314561315288624e+000	 1.898847777990878e-001	 4.939177603811425e+001
1	 3.312571689099526e+000	 2.219051000394441e-001	 4.542741031251400e+001
1	 3.310263805374155e+000	 2.540213051961959e-001	 4.162749399444570e+001
1	 3.307634565222676e+000	 2.862291919372846e-001	 3.799233651383858e+001
1	 3.304680929143654e+000	 3.185244674145260e-001	 3.452214949460788e+001
1	 3.346663999993465e+000	 0.000000000000000e+000	 7.343523171198193e+001
1	 3.346514668738617e+000	 3.161390087310848e-002	 6.869156494445763e+001
1	 3.346064370380700e+000	 6.334790109030505e-002	 6.409974561209377e+001
1	 3.345309679162327e+000	 9.519832845169791e-002	 5.966101665696527e+001
1	 3.344247212942429e+000	 1.271614162456804e-001	 5.537652683429265e+001
1	 3.342873635850999e+000	 1.592333034200427e-001	 5.124732951747300e+001
1	 3.341185660968463e+000	 1.914100348329014e-001	 4.727438161901832e+001
1	 3.339180053027334e+000	 2.236875615853254e-001	 4.345854263215113e+001
1	 3.336853631133645e+000	 2.560617414374699e-001	 3.980057379768608e+001
1	 3.334203271505639e+000	 2.885283393099609e-001	 3.630113740068822e+001
1	 3.331225910226997e+000	 3.210830278721923e-001	 3.296079620124194e+001
1	 3.373331999996682e+000	 0.000000000000000e+000	 7.016110858492829e+001
1	 3.373181478790831e+000	 3.186581726194498e-002	 6.562665438258220e+001
1	 3.372727592215700e+000	 6.385269088322784e-002	 6.123441531753777e+001
1	 3.371966887215674e+000	 9.595691940195179e-002	 5.698601842180903e+001
1	 3.370895954699014e+000	 1.281747060913862e-001	 5.288299924319235e+001
1	 3.369511432213755e+000	 1.605021591324418e-001	 4.892680013612916e+001
1	 3.367810006648429e+000	 1.929352918665996e-001	 4.511876865150728e+001
1	 3.365788416955247e+000	 2.254700231311879e-001	 4.146015603059765e+001
1	 3.363443456893223e+000	 2.581021776788313e-001	 3.795211580825703e+001
1	 3.360771977788671e+000	 2.908274866828314e-001	 3.459570253043880e+001
1	 3.357770891310390e+000	 3.236415883301514e-001	 3.139187059095532e+001
1	 3.400000000000000e+000	 0.000000000000000e+000	 6.678378094232897e+001
1	 3.399848288843145e+000	 3.211773365058896e-002	 6.247200010788018e+001
1	 3.399390814050797e+000	 6.435748067584715e-002	 5.829188966690699e+001
1	 3.398624095269110e+000	 9.671551035186184e-002	 5.424549179546350e+001
1	 3.397544696455680e+000	 1.291879959367673e-001	 5.033476119155618e+001
1	 3.396149228576581e+000	 1.617710148445832e-001	 4.656156282095375e+001
1	 3.394434352328458e+000	 1.944605489001441e-001	 4.292766974197961e+001
1	 3.392396780883214e+000	 2.272524846770251e-001	 3.943476101490059e+001
1	 3.390033282652842e+000	 2.601426139203092e-001	 3.608441970151426e+001
1	 3.387340684071737e+000	 2.931266340559610e-001	 3.287813096051085e+001
1	 3.384315872393811e+000	 3.262001487885011e-001	 2.981728024414474e+001
1	 3.118866061563838e+000	 3.006145442108607e-001	 4.506572301161403e+001
1	 3.115770023914197e+000	 3.311676876108510e-001	 4.106924080718456e+001
1	 3.112362366168643e+000	 3.617949902300638e-001	 3.724169920441977e+001
1	 3.108640405069572e+000	 3.924922145166819e-001	 3.358249359726879e+001
1	 3.104601523616499e+000	 4.232550415549727e-001	 3.009090581305450e+001
1	 3.100243173639482e+000	 4.540790720423593e-001	 2.676610483758371e+001
1	 3.095562878368369e+000	 4.849598273529443e-001	 2.360714772658011e+001
1	 3.090558234994752e+000	 5.158927506883083e-001	 2.061298070590605e+001
1	 3.085226917223479e+000	 5.468732083162871e-001	 1.778244046266784e+001
1	 3.079566677810541e+000	 5.778964908983216e-001	 1.511425562890787e+001
1	 3.073575351083983e+000	 6.089578149058433e-001	 1.260704845917975e+001
1	 3.145411042646106e+000	 3.031731046692103e-001	 4.361631240799789e+001
1	 3.142288654310429e+000	 3.339862889291540e-001	 3.969514237591494e+001
1	 3.138851993649093e+000	 3.648742635849500e-001	 3.594024009501803e+001
1	 3.135098354567004e+000	 3.958327550185429e-001	 3.235121264667441e+001
1	 3.131025097790100e+000	 4.268574075554641e-001	 2.892754173400279e+001
1	 3.126629653460699e+000	 4.579437844502214e-001	 2.566858387401657e+001
1	 3.121909523728592e+000	 4.890873689588726e-001	 2.257357078387378e+001
1	 3.116862285334807e+000	 5.202835654996194e-001	 1.964160996494722e+001
1	 3.111485592184849e+000	 5.515277009021272e-001	 1.687168548807367e+001
1	 3.105777177908167e+000	 5.828150257461737e-001	 1.426265898296598e+001
1	 3.099734858400542e+000	 6.141407157900874e-001	 1.181327083437533e+001
1	 3.171956023728604e+000	 3.057316651271696e-001	 4.214409601115511e+001
1	 3.168807284706830e+000	 3.368048902469569e-001	 3.830572764331946e+001
1	 3.165341621129662e+000	 3.679535369392486e-001	 3.463024661501256e+001
1	 3.161556304064507e+000	 3.991732955197488e-001	 3.111749923798070e+001
1	 3.157448671963742e+000	 4.304597735552531e-001	 2.776719558273276e+001
1	 3.153016133281928e+000	 4.618084968573515e-001	 2.457890910558541e+001
1	 3.148256169088800e+000	 4.932149105640555e-001	 2.155207647527607e+001
1	 3.143166335674824e+000	 5.246743803101855e-001	 1.868599760410757e+001
1	 3.137744267146154e+000	 5.561821934872367e-001	 1.597983588825612e+001
1	 3.131987678005701e+000	 5.877335605933205e-001	 1.343261866151986e+001
1	 3.125894365716972e+000	 6.193236166736610e-001	 1.104323786640729e+001
1	 3.198501004811306e+000	 3.082902255848360e-001	 4.065147149784737e+001
1	 3.195325915103382e+000	 3.396234915643845e-001	 3.690316639923469e+001
1	 3.191831248610334e+000	 3.710328102931060e-001	 3.331367507455039e+001
1	 3.188014253562082e+000	 4.025138360204639e-001	 2.988310982643922e+001
1	 3.183872246137423e+000	 4.340621395545155e-001	 2.661143678350912e+001
1	 3.179402613103171e+000	 4.656732092639323e-001	 2.349847493050764e+001
1	 3.174602814449003e+000	 4.973424521686788e-001	 2.054389534123684e+001
1	 3.169470386014815e+000	 5.290651951201936e-001	 1.774722062042156e+001
1	 3.164002942107412e+000	 5.608366860717980e-001	 1.510782456044511e+001
1	 3.158198178103163e+000	 5.926520954399380e-001	 1.262493201853704e+001
1	 3.152053873033303e+000	 6.245065175567317e-001	 1.029761901964386e+001
1	 3.225045985894188e+000	 3.108487860423074e-001	 3.914075760483914e+001
1	 3.221844545500062e+000	 3.424420928815619e-001	 3.548955699634292e+001
1	 3.218320876091100e+000	 3.741120836466697e-001	 3.199241737512978e+001
1	 3.214472203059718e+000	 4.058543765208516e-001	 2.864974303858222e+001
1	 3.210295820311139e+000	 4.376645055534267e-001	 2.546178308959819e+001
1	 3.205789092924430e+000	 4.695379216701471e-001	 2.242862983847862e+001
1	 3.200949459809202e+000	 5.014699937729293e-001	 1.955021740846114e+001
1	 3.195774436354789e+000	 5.334560099298289e-001	 1.682632055237096e+001
1	 3.190261617068639e+000	 5.654911786559939e-001	 1.425655368759289e+001
1	 3.184408678200579e+000	 5.975706302862023e-001	 1.184037015627092e+001
1	 3.178213380349571e+000	 6.296894184394666e-001	 9.577061717317498e+000
1	 3.251590966977224e+000	 3.134073464996811e-001	 3.761419735110609e+001
1	 3.248363175896857e+000	 3.452606941986143e-001	 3.406692926612571e+001
1	 3.244810503571942e+000	 3.771913570000863e-001	 3.066830363866131e+001
1	 3.240930152557404e+000	 4.091949170210756e-001	 2.741904203270105e+001
1	 3.236719394484887e+000	 4.412668715521624e-001	 2.431970269239803e+001
1	 3.232175572745705e+000	 4.734026340761792e-001	 2.137067828458619e+001
1	 3.227296105169404e+000	 5.055975353769933e-001	 1.857219384361694e+001
1	 3.222078486694756e+000	 5.378468247392779e-001	 1.592430492724756e+001
1	 3.216520292029850e+000	 5.701456712400072e-001	 1.342689599208317e+001
1	 3.210619178297972e+000	 6.024891651322905e-001	 1.107967899681523e+001
1	 3.204372887665806e+000	 6.348723193220344e-001	 8.882192241209758e+000
1	 3.278135948060388e+000	 3.159659069570548e-001	 3.607396110349070e+001
1	 3.274881806293744e+000	 3.480792955156667e-001	 3.263724729314468e+001
1	 3.271300131052852e+000	 3.802706303535028e-001	 2.934310470879475e+001
1	 3.267388102055136e+000	 4.125354575212996e-001	 2.619259674463986e+001
1	 3.263142968658663e+000	 4.448692375508979e-001	 2.318661622809527e+001
1	 3.258562052566994e+000	 4.772673464822108e-001	 2.032588247218024e+001
1	 3.253642750529617e+000	 5.097250769810574e-001	 1.761093852669729e+001
1	 3.248382537034727e+000	 5.422376395487271e-001	 1.504214863819558e+001
1	 3.242778966991063e+000	 5.748001638240202e-001	 1.261969592852817e+001
1	 3.236829678395365e+000	 6.074076999783786e-001	 1.034358030159617e+001
1	 3.230532394982041e+000	 6.400552202046016e-001	 8.213616587624529e+000
1	 3.304680929143654e+000	 3.185244674145260e-001	 3.452214949460789e+001
1	 3.301400436690708e+000	 3.508978968328442e-001	 3.120241205561529e+001
1	 3.297789758533816e+000	 3.833499037070663e-001	 2.801853453169369e+001
1	 3.293846051552904e+000	 4.158759980216872e-001	 2.497194602535235e+001
1	 3.289566542832464e+000	 4.484716035498091e-001	 2.206389868761025e+001
1	 3.284948532388303e+000	 4.811320588884258e-001	 1.929546404981626e+001
1	 3.279989395889841e+000	 5.138526185853077e-001	 1.666752954855361e+001
1	 3.274686587374711e+000	 5.466284543583624e-001	 1.418079525488700e+001
1	 3.269037641952293e+000	 5.794546564082163e-001	 1.183577081907835e+001
1	 3.263040178492782e+000	 6.123262348246432e-001	 9.632772641729664e+000
1	 3.256691902298309e+000	 6.452381210873367e-001	 7.571921282107470e+000
1	 3.331225910226997e+000	 3.210830278721923e-001	 3.296079620124193e+001
1	 3.327919067087726e+000	 3.537164981502716e-001	 2.976426393973108e+001
1	 3.324279386014817e+000	 3.864291770609236e-001	 2.669625242298274e+001
1	 3.320304001050700e+000	 4.192165385224021e-001	 2.375857967625975e+001
1	 3.315990117006285e+000	 4.520739695490713e-001	 2.095288123522604e+001
1	 3.311335012209628e+000	 4.849967712950066e-001	 1.828060572706621e+001
1	 3.306336041250085e+000	 5.179801601899309e-001	 1.574301063683014e+001
1	 3.300990637714719e+000	 5.510192691683700e-001	 1.334115827153170e+001
1	 3.295296316913555e+000	 5.841091489927772e-001	 1.107591193445201e+001
1	 3.289250678590245e+000	 6.172447696712604e-001	 8.947932321985263e+000
1	 3.282851409614640e+000	 6.504210219704071e-001	 6.957674155212602e+000
1	 3.357770891310390e+000	 3.236415883301514e-001	 3.139187059095533e+001
1	 3.354437697484784e+000	 3.565350994680742e-001	 2.832458513472606e+001
1	 3.350769013495848e+000	 3.895084504152220e-001	 2.537786522716588e+001
1	 3.346761950548515e+000	 4.225570790236078e-001	 2.255394038806480e+001
1	 3.342413691180124e+000	 4.556763355488602e-001	 1.985485294095361e+001
1	 3.337721492030971e+000	 4.888614837021363e-001	 1.728245281368612e+001
1	 3.332682686610352e+000	 5.221077017951133e-001	 1.483839251426181e+001
1	 3.327294688054763e+000	 5.554100839789362e-001	 1.252412229569095e+001
1	 3.321554991874868e+000	 5.887636415778864e-001	 1.034088552368772e+001
1	 3.315461178687778e+000	 6.221633045184065e-001	 8.289714260922851e+000
1	 3.309010916931069e+000	 6.556039228539804e-001	 6.371425081472093e+000
1	 3.384315872393811e+000	 3.262001487885011e-001	 2.981728024414474e+001
1	 3.380956327881860e+000	 3.593537007863772e-001	 2.688510191522186e+001
1	 3.377258640976893e+000	 3.925877237701081e-001	 2.406492937542004e+001
1	 3.373219900046344e+000	 4.258976195254685e-001	 2.135942558832316e+001
1	 3.368837265353978e+000	 4.592787015493513e-001	 1.877106243136973e+001
1	 3.364107971852335e+000	 4.927261961099983e-001	 1.630211468634869e+001
1	 3.359029331970650e+000	 5.262352434010416e-001	 1.395465419304900e+001
1	 3.353598738394850e+000	 5.598008987902470e-001	 1.173054418114350e+001
1	 3.347813666836249e+000	 5.934181341637267e-001	 9.631433795435740e+000
1	 3.341671678785408e+000	 6.270818393662587e-001	 7.658752829609584e+000
1	 3.335170424247629e+000	 6.607868237382245e-001	 5.813706683588907e+000
1	 3.073575351083983e+000	 6.089578149058433e-001	 1.260704845917975e+001
1	 3.067249882023707e+000	 6.400569898093638e-001	 1.022848589720191e+001
1	 3.060589150818339e+000	 6.711844230832489e-001	 7.948097662163292e+000
1	 3.053591253298464e+000	 7.023351083413045e-001	 5.766006732622915e+000
1	 3.046254376817458e+000	 7.335039713734894e-001	 3.682171097069226e+000
1	 3.038576802639415e+000	 7.646858720132437e-001	 1.696381710159675e+000
1	 3.030556908289346e+000	 7.958756060941377e-001	-1.917393289601540e-001
1	 3.022193169862039e+000	 8.270679074953229e-001	-1.982740367737576e+000
1	 3.013484164285995e+000	 8.582574502751353e-001	-3.677341552490860e+000
1	 3.004428571538802e+000	 8.894388508920191e-001	-5.276435934033251e+000
1	 2.995025176810348e+000	 9.206066705118045e-001	-6.781090319173231e+000
1	 3.099734858400542e+000	 6.141407157900874e-001	 1.181327083437533e+001
1	 3.093355552640277e+000	 6.455045788827545e-001	 9.490271057496695e+000
1	 3.086638131285181e+000	 6.768969408555950e-001	 7.262293621546621e+000
1	 3.079580673959276e+000	 7.083127527125638e-001	 5.129625174377787e+000
1	 3.072181352588336e+000	 7.397468970565123e-001	 3.092386455970518e+000
1	 3.064438433808137e+000	 7.711941899724107e-001	 1.150529991472069e+000
1	 3.056350281334656e+000	 8.026493830006506e-001	-6.961619965635704e-001
1	 3.047915358292586e+000	 8.341071651999052e-001	-2.448079447750359e+000
1	 3.039132229498539e+000	 8.655621652988897e-001	-4.105786086575601e+000
1	 3.029999563695274e+000	 8.970089539361906e-001	-5.670020799885437e+000
1	 3.020516135733327e+000	 9.284420459871778e-001	-7.141698761167353e+000
1	 3.125894365716972e+000	 6.193236166736610e-001	 1.104323786640729e+001
1	 3.119461223256674e+000	 6.509521679555176e-001	 8.777705169210142e+000
1	 3.112687111751801e+000	 6.826094586273640e-001	 6.603912205430149e+000
1	 3.105570094619815e+000	 7.142903970833028e-001	 4.522306796966263e+000
1	 3.098108328358891e+000	 7.459898227390769e-001	 2.533170513242960e+000
1	 3.090300064976482e+000	 7.777025079311872e-001	 6.366161121863192e-001
1	 3.082143654379540e+000	 8.094231599068452e-001	-1.167414803220936e+000
1	 3.073637546722665e+000	 8.411464229042439e-001	-2.879153903394128e+000
1	 3.064780294710580e+000	 8.728668803224782e-001	-4.499008016483881e+000
1	 3.055570555851222e+000	 9.045790569802747e-001	-6.027560769781799e+000
1	 3.046007094655772e+000	 9.362774214625445e-001	-7.465573979732652e+000
1	 3.152053873033303e+000	 6.245065175567317e-001	 1.029761901964386e+001
1	 3.145566893872943e+000	 6.563997570278102e-001	 8.091339371411586e+000
1	 3.138736092218256e+000	 6.883219763987002e-001	 5.973398380833465e+000
1	 3.131559515280151e+000	 7.202680414536518e-001	 3.944402588673720e+000
1	 3.124035304129199e+000	 7.522327484212990e-001	 2.004792502299948e+000
1	 3.116161696144542e+000	 7.842108258896712e-001	 1.548397955390799e-001
1	 3.107937027424103e+000	 8.161969368128006e-001	-1.605355280242558e+000
1	 3.099359735152392e+000	 8.481856806083998e-001	-3.275866264037381e+000
1	 3.090428359922246e+000	 8.801715953459420e-001	-4.856942622535954e+000
1	 3.081141548006777e+000	 9.121491600242940e-001	-6.349011647668776e+000
1	 3.071498053577817e+000	 9.441127969379057e-001	-7.752680105442526e+000
1	 3.178213380349571e+000	 6.296894184394666e-001	 9.577061717317498e+000
1	 3.171672564489124e+000	 6.618473460997888e-001	 7.431706657722177e+000
1	 3.164785072684600e+000	 6.940344941697481e-001	 5.371182464887534e+000
1	 3.157548935940349e+000	 7.262456858237404e-001	 3.396251982009364e+000
1	 3.149962279899344e+000	 7.584756741032915e-001	 1.507512792438241e+000
1	 3.142023327312415e+000	 7.907191438479604e-001	-2.946058108285835e-001
1	 3.133730400468455e+000	 8.229707137185969e-001	-2.009845649512457e+000
1	 3.125081923581885e+000	 8.552249383124343e-001	-3.638122268127161e+000
1	 3.116076425133662e+000	 8.874763103693230e-001	-5.179527315853498e+000
1	 3.106712540162070e+000	 9.197192630682695e-001	-6.634330692584125e+000
1	 3.096989012499596e+000	 9.519481724132636e-001	-8.002982449819898e+000
1	 3.204372887665806e+000	 6.348723193220344e-001	 8.882192241209758e+000
1	 3.197778235105262e+000	 6.672949351716107e-001	 6.799322616983769e+000
1	 3.190834053150890e+000	 6.997470119406513e-001	 4.797680722820169e+000
1	 3.183538356600479e+000	 7.322233301936987e-001	 2.878183325394940e+000
1	 3.175889255669407e+000	 7.647185997851698e-001	 1.041583250657503e+000
1	 3.167884958480192e+000	 7.972274618061515e-001	-7.115338664659661e-001
1	 3.159523773512700e+000	 8.297444906243137e-001	-2.380752632026340e+000
1	 3.150804112011262e+000	 8.622641960164075e-001	-3.965830732199368e+000
1	 3.141724490344950e+000	 8.947810253926620e-001	-5.466701551383687e+000
1	 3.132283532317233e+000	 9.272893661122239e-001	-6.883476559262451e+000
1	 3.122479971421242e+000	 9.597835478886196e-001	-8.216447457132729e+000
1	 3.230532394982041e+000	 6.400552202046016e-001	 8.213616587624529e+000
1	 3.223883905721403e+000	 6.727425242434327e-001	 6.194686137942166e+000
1	 3.216883033617179e+000	 7.054595297115548e-001	 4.253295936888516e+000
1	 3.209527777260608e+000	 7.382009745636572e-001	 2.390514331936172e+000
1	 3.201816231439470e+000	 7.709615254670480e-001	 6.072475859002098e-001
1	 3.193746589647970e+000	 8.037357797643429e-001	-1.095763582747576e+000
1	 3.185317146556945e+000	 8.365182675300302e-001	-2.717947265732034e+000
1	 3.176526300440638e+000	 8.693034537203809e-001	-4.258903426253492e+000
1	 3.167372555556240e+000	 9.020857404160014e-001	-5.718406745148930e+000
1	 3.157854524472395e+000	 9.348594691561776e-001	-7.096409241626034e+000
1	 3.147970930342888e+000	 9.676189233639758e-001	-8.393042658531249e+000
1	 3.256691902298309e+000	 6.452381210873367e-001	 7.571921282107470e+000
1	 3.249989576337585e+000	 6.781901133154114e-001	 5.618280079967855e+000
1	 3.242932014083523e+000	 7.111720474826022e-001	 3.738417947891151e+000
1	 3.235517197920808e+000	 7.441786189337459e-001	 1.933552506565817e+000
1	 3.227743207209616e+000	 7.772044511490409e-001	 2.047416767015324e-001
1	 3.219608220815842e+000	 8.102440977226320e-001	-1.447119979815656e+000
1	 3.211110519601295e+000	 8.432920444358265e-001	-3.021304732149058e+000
1	 3.202248488870132e+000	 8.763427114244150e-001	-4.517254955133410e+000
1	 3.193020620767656e+000	 9.093904554393821e-001	-5.934586195484635e+000
1	 3.183425516627689e+000	 9.424295722001536e-001	-7.273090018999469e+000
1	 3.173461889264666e+000	 9.754542988393339e-001	-8.532736628395671e+000
1	 3.282851409614640e+000	 6.504210219704071e-001	 6.957674155212602e+000
1	 3.276095246953852e+000	 6.836377023877039e-001	 5.070571911708784e+000
1	 3.268980994549979e+000	 7.168845652539385e-001	 3.253424170790247e+000
1	 3.261506618581141e+000	 7.501562633040946e-001	 1.507595552764199e+000
1	 3.253670182979924e+000	 7.834473768312622e-001	-1.657061168268491e-001
1	 3.245469851983902e+000	 8.167524156811156e-001	-1.765433655143471e+000
1	 3.236903892645860e+000	 8.500658213417824e-001	-3.290704191277747e+000
1	 3.227970677299860e+000	 8.833819691285709e-001	-4.740802645579804e+000
1	 3.218668685979320e+000	 9.166951704628458e-001	-6.115185008043022e+000
1	 3.208996508783244e+000	 9.499996752441726e-001	-7.413481404895703e+000
1	 3.198952848186713e+000	 9.832896743146952e-001	-8.635498942771191e+000
1	 3.309010916931069e+000	 6.556039228539804e-001	 6.371425081472094e+000
1	 3.302200917570249e+000	 6.890852914604667e-001	 4.552014319450065e+000
1	 3.295029975016599e+000	 7.225970830257074e-001	 2.798680085875878e+000
1	 3.287496039241681e+000	 7.561339076748331e-001	 1.112931759987810e+000
1	 3.279597158750476e+000	 7.896903025138271e-001	-5.038746558107807e-001
1	 3.271331483152246e+000	 8.232607336398923e-001	-2.050540563076513e+000
1	 3.262697265690743e+000	 8.568395982479766e-001	-3.526028624339286e+000
1	 3.253692865729938e+000	 8.904212268329097e-001	-4.929466438639715e+000
1	 3.244316751191362e+000	 9.239998854864342e-001	-6.260150024353837e+000
1	 3.234567500939192e+000	 9.575697782882571e-001	-7.517547098231355e+000
1	 3.224443807109157e+000	 9.911250497900616e-001	-8.701300139774059e+000
1	 3.335170424247629e+000	 6.607868237382245e-001	 5.813706683588909e+000
1	 3.328306588186820e+000	 6.945328805338576e-001	 4.063045786843160e+000
1	 3.321078955483442e+000	 7.283096007980534e-001	 2.374539706815837e+000
1	 3.313485459902493e+000	 7.621115520460923e-001	 7.498403728651241e-001
1	 3.305524134521356e+000	 7.959332281968499e-001	-8.095497394138509e-001
1	 3.297193114320970e+000	 8.297690515990592e-001	-2.302281804748380e+000
1	 3.288490638736053e+000	 8.636133751544897e-001	-3.727164683916215e+000
1	 3.279415054160485e+000	 8.974604845374922e-001	-5.083168787139836e+000
1	 3.269964816403906e+000	 9.313046005101889e-001	-6.369429753747443e+000
1	 3.260138493095666e+000	 9.651398813324287e-001	-7.585251936837923e+000
1	 3.249934766032135e+000	 9.989604252654352e-001	-8.730111681861613e+000
1	 2.995025176810348e+000	 9.206066705118045e-001	-6.781090319173231e+000
1	 2.985272871861278e+000	 9.517554169440450e-001	-8.188738486371532e+000
1	 2.975170654820722e+000	 9.828795457048585e-001	-9.495983734929309e+000
1	 2.964717634414846e+000	 1.013973463865370e+000	-1.070284424845029e+001
1	 2.953913032638836e+000	 1.045031533136540e+000	-1.180942758062184e+001
1	 2.942756186611073e+000	 1.076048072588372e+000	-1.281593161703046e+001
1	 2.931246550353865e+000	 1.107017361446401e+000	-1.372264542841315e+001
1	 2.919383696497328e+000	 1.137933641963363e+000	-1.452995001186154e+001
1	 2.907167317903020e+000	 1.168791122363753e+000	-1.523831891667404e+001
1	 2.894597229204027e+000	 1.199583979858828e+000	-1.584831875174323e+001
1	 2.881673368258283e+000	 1.230306363729441e+000	-1.636060957156971e+001
1	 3.020516135733327e+000	 9.284420459871778e-001	-7.141698761167353e+000
1	 3.010680827941015e+000	 9.598559025168252e-001	-8.517410661380634e+000
1	 3.000492629920439e+000	 9.912449318515900e-001	-9.793078678488644e+000
1	 2.989950642812039e+000	 1.022603493460617e+000	-1.096881927518109e+001
1	 2.979054081989313e+000	 1.053925901066823e+000	-1.204484476684042e+001
1	 2.967802278928781e+000	 1.085206425389242e+000	-1.302146420703096e+001
1	 2.956194683005870e+000	 1.116439296963322e+000	-1.389908415136442e+001
1	 2.944230863213302e+000	 1.147618709037034e+000	-1.467820929616388e+001
1	 2.931910509798535e+000	 1.178738820540489e+000	-1.535944298855764e+001
1	 2.919233435816973e+000	 1.209793759126601e+000	-1.594348760485742e+001
1	 2.906199578597639e+000	 1.240777624280165e+000	-1.643114479431201e+001
1	 3.046007094655772e+000	 9.362774214625445e-001	-7.465573979732652e+000
1	 3.036088784020225e+000	 9.679563880896780e-001	-8.808809201367929e+000
1	 3.025814605019650e+000	 9.996103179984717e-001	-1.005252015272470e+001
1	 3.015183651208757e+000	 1.031233523056087e+000	-1.119691782130839e+001
1	 3.004195131339357e+000	 1.062820268997393e+000	-1.224231604824098e+001
1	 2.992848371246103e+000	 1.094364778190455e+000	-1.318913235215391e+001
1	 2.981142815657544e+000	 1.125861232480630e+000	-1.403788861769484e+001
1	 2.969078029928998e+000	 1.157303776111121e+000	-1.478921164493252e+001
1	 2.956653701693830e+000	 1.188686518717651e+000	-1.544383355618339e+001
1	 2.943869642429749e+000	 1.220003538394793e+000	-1.600259205703939e+001
1	 2.930725788936877e+000	 1.251248884831276e+000	-1.646643054864660e+001
1	 3.071498053577817e+000	 9.441127969379057e-001	-7.752680105442526e+000
1	 3.061496740099039e+000	 9.760568736625853e-001	-9.062905175794604e+000
1	 3.051136580118482e+000	 1.007975704145466e+000	-1.027429565809273e+001
1	 3.040416659605120e+000	 1.039863552651724e+000	-1.138715344902453e+001
1	 3.029336180689076e+000	 1.071714636928179e+000	-1.240189081052964e+001
1	 3.017894463563138e+000	 1.103523130991923e+000	-1.331903114658940e+001
1	 3.006090948308972e+000	 1.135283167998224e+000	-1.413920963017218e+001
1	 2.993925196644493e+000	 1.166988843185512e+000	-1.486317367643711e+001
1	 2.981396893588967e+000	 1.198634216895122e+000	-1.549178325856776e+001
1	 2.968505849042415e+000	 1.230213317663281e+000	-1.602601106290046e+001
1	 2.955251999276042e+000	 1.261720145382654e+000	-1.646694248031277e+001
1	 3.096989012499596e+000	 9.519481724132636e-001	-8.002982449819898e+000
1	 3.086904696177589e+000	 9.841573592355289e-001	-9.279670606619050e+000
1	 3.076458555217060e+000	 1.016341090292535e+000	-1.045839310657880e+001
1	 3.065649668001247e+000	 1.048493582247471e+000	-1.153953927400812e+001
1	 3.054477230038581e+000	 1.080609004859105e+000	-1.252361681346186e+001
1	 3.042940555879987e+000	 1.112681483793558e+000	-1.341125255369148e+001
1	 3.031039080960242e+000	 1.144705103516002e+000	-1.420319302660481e+001
1	 3.018772363359863e+000	 1.176673910260096e+000	-1.490030487710841e+001
1	 3.006140085484014e+000	 1.208581915072786e+000	-1.550357510001622e+001
1	 2.993142055655025e+000	 1.240423096931949e+000	-1.601411110052576e+001
1	 2.979778209615191e+000	 1.272191405934185e+000	-1.643314057510960e+001
1	 3.122479971421242e+000	 9.597835478886196e-001	-8.216447457132729e+000
1	 3.112312652256008e+000	 9.922578448084910e-001	-9.459078429416922e+000
1	 3.101780530315512e+000	 1.024706476439641e+000	-1.060480080490139e+001
1	 3.090882676397256e+000	 1.057123611843272e+000	-1.165408798364972e+001
1	 3.079618279387981e+000	 1.089503372790100e+000	-1.260754025721078e+001
1	 3.067986648196746e+000	 1.121839836595270e+000	-1.346588553377426e+001
1	 3.055987213611441e+000	 1.154127039033863e+000	-1.422997988250306e+001
1	 3.043619530075186e+000	 1.186358977334763e+000	-1.490080789264871e+001
1	 3.030883277379037e+000	 1.218529613250524e+000	-1.547948284339674e+001
1	 3.017778262267638e+000	 1.250632876200675e+000	-1.596724668074667e+001
1	 3.004304419954370e+000	 1.282662666485751e+000	-1.636546979811001e+001
1	 3.147970930342888e+000	 9.676189233639758e-001	-8.393042658531249e+000
1	 3.137720608334429e+000	 1.000358330381453e+000	-9.601102456390851e+000
1	 3.127102505413965e+000	 1.033071862586746e+000	-1.071350743852939e+001
1	 3.116115684793268e+000	 1.065753641439071e+000	-1.173081185439208e+001
1	 3.104759328737387e+000	 1.098397740721089e+000	-1.265370584551154e+001
1	 3.093032740513514e+000	 1.130998189396973e+000	-1.348301616569796e+001
1	 3.080935346262661e+000	 1.163548974551708e+000	-1.421970670389507e+001
1	 3.068466696790536e+000	 1.196044044409403e+000	-1.486487880499846e+001
1	 3.055626469274102e+000	 1.228477311428221e+000	-1.541977138430667e+001
1	 3.042414468880311e+000	 1.260842655469342e+000	-1.588576083166993e+001
1	 3.028830630293633e+000	 1.293133927037236e+000	-1.626436070181903e+001
1	 3.173461889264666e+000	 9.754542988393339e-001	-8.532736628395671e+000
1	 3.163128564412980e+000	 1.008458815954396e+000	-9.705717341162240e+000
1	 3.152424480512546e+000	 1.041437248733814e+000	-1.078450205647013e+001
1	 3.141348693189401e+000	 1.074383671034812e+000	-1.176972276823450e+001
1	 3.129900378086907e+000	 1.107292108652000e+000	-1.266215684576169e+001
1	 3.118078832830393e+000	 1.140156542198578e+000	-1.346272776259602e+001
1	 3.105883478913983e+000	 1.172970910069433e+000	-1.417250561084880e+001
1	 3.093313863505990e+000	 1.205729111483904e+000	-1.479270739595448e+001
1	 3.080369661169276e+000	 1.238425009605759e+000	-1.532469710720574e+001
1	 3.067050675493100e+000	 1.271052434737831e+000	-1.576998555985484e+001
1	 3.053356840633026e+000	 1.303605187588521e+000	-1.613023000502129e+001
1	 3.198952848186713e+000	 9.832896743146952e-001	-8.635498942771191e+000
1	 3.188536520491794e+000	 1.016559301527303e+000	-9.772898545246870e+000
1	 3.177746455611380e+000	 1.049802634880804e+000	-1.081777405678488e+001
1	 3.166581701585774e+000	 1.083013700630437e+000	-1.177083222844848e+001
1	 3.155041427436653e+000	 1.116186476582760e+000	-1.263293514624861e+001
1	 3.143124925147479e+000	 1.149314894999995e+000	-1.340510098206856e+001
1	 3.130831611565499e+000	 1.182392845586940e+000	-1.408850451222052e+001
1	 3.118161030221624e+000	 1.215414178558155e+000	-1.468447739818432e+001
1	 3.105112853064621e+000	 1.248372707783021e+000	-1.519450822452258e+001
1	 3.091686882106064e+000	 1.281262214006022e+000	-1.562024228944084e+001
1	 3.077883050972603e+000	 1.314076448139491e+000	-1.596348114395327e+001
1	 3.224443807109157e+000	 9.911250497900616e-001	-8.701300139774059e+000
1	 3.213944476571005e+000	 1.024659787100156e+000	-9.802622306120400e+000
1	 3.203068430710595e+000	 1.058168021027681e+000	-1.081331317279118e+001
1	 3.191814709982509e+000	 1.091643730225893e+000	-1.173415137454761e+001
1	 3.180182476786732e+000	 1.125080844513294e+000	-1.256608131066223e+001
1	 3.168171017464872e+000	 1.158473247801137e+000	-1.331021393114926e+001
1	 3.155779744217294e+000	 1.191814781104125e+000	-1.396782727211373e+001
1	 3.143008196937515e+000	 1.225099245632047e+000	-1.454036673433405e+001
1	 3.129856044960206e+000	 1.258320405959892e+000	-1.502944509967584e+001
1	 3.116323088719257e+000	 1.291471993273796e+000	-1.543684228044606e+001
1	 3.102409261312411e+000	 1.324547708690029e+000	-1.576450479733170e+001
1	 3.249934766032135e+000	 9.989604252654352e-001	-8.730111681861613e+000
1	 3.239352432650741e+000	 1.032760272672935e+000	-9.794865606787088e+000
1	 3.228390405810319e+000	 1.066533407174408e+000	-1.077110945991494e+001
1	 3.217047718379721e+000	 1.100273759821121e+000	-1.165969099655304e+001
1	 3.205323526137257e+000	 1.133975212443531e+000	-1.246163463004235e+001
1	 3.193217109782673e+000	 1.167631600601917e+000	-1.317814226633242e+001
1	 3.180727876869459e+000	 1.201236716620890e+000	-1.381059386850472e+001
1	 3.167855363653740e+000	 1.234784312705469e+000	-1.436054774488338e+001
1	 3.154599236856098e+000	 1.268268104136253e+000	-1.482974055489377e+001
1	 3.140959295332737e+000	 1.301681772541035e+000	-1.522008702738017e+001
1	 3.126935471652506e+000	 1.335018969240017e+000	-1.553367938667335e+001
1	 2.881673368258283e+000	 1.230306363729441e+000	-1.636060957156971e+001
1	 2.868397815937404e+000	 1.260947808074110e+000	-1.679214229941502e+001
1	 2.854768850366804e+000	 1.291507033333439e+000	-1.716061911555962e+001
1	 2.840786788950488e+000	 1.321978128413373e+000	-1.746783560699637e+001
1	 2.826452077113804e+000	 1.352355167314767e+000	-1.771578297972510e+001
1	 2.811765289274062e+000	 1.382632212507475e+000	-1.790664723830416e+001
1	 2.796727129707190e+000	 1.412803318353237e+000	-1.804280802616128e+001
1	 2.781338433307961e+000	 1.442862534573747e+000	-1.812683712371480e+001
1	 2.765600166241469e+000	 1.472803909760124e+000	-1.816149660214677e+001
1	 2.749513426483720e+000	 1.502621494919891e+000	-1.814973663148115e+001
1	 2.733079444249319e+000	 1.532309347057451e+000	-1.809469294245025e+001
1	 2.906199578597639e+000	 1.240777624280165e+000	-1.643114479431200e+001
1	 2.892811036722654e+000	 1.271679861023362e+000	-1.684045610972818e+001
1	 2.879066073662390e+000	 1.302499178906338e+000	-1.719002518464780e+001
1	 2.864965009522325e+000	 1.333229616525127e+000	-1.748151445267583e+001
1	 2.850508293518875e+000	 1.363865197443818e+000	-1.771677401475850e+001
1	 2.835696504958288e+000	 1.394399933597353e+000	-1.789784093722760e+001
1	 2.820530354110670e+000	 1.424827828743552e+000	-1.802693822509463e+001
1	 2.805010682976677e+000	 1.455142881960698e+000	-1.810647346760259e+001
1	 2.789138465944542e+000	 1.485339091186876e+000	-1.813903715379827e+001
1	 2.772914810335272e+000	 1.515410456797143e+000	-1.812740065666321e+001
1	 2.756340956833962e+000	 1.545350985214473e+000	-1.807451388513509e+001
1	 2.930725788936877e+000	 1.251248884831276e+000	-1.646643054864660e+001
1	 2.917224257507826e+000	 1.282411913972944e+000	-1.685436800792624e+001
1	 2.903363296957934e+000	 1.313491324479491e+000	-1.718579369218544e+001
1	 2.889143230094150e+000	 1.344481104637046e+000	-1.746223251326502e+001
1	 2.874564509923965e+000	 1.375375227572934e+000	-1.768538824213361e+001
1	 2.859627720642560e+000	 1.406167654687189e+000	-1.785714292658098e+001
1	 2.844333578514223e+000	 1.436852339133718e+000	-1.797955600026601e+001
1	 2.828682932645491e+000	 1.467423229347397e+000	-1.805486308010431e+001
1	 2.812676765647745e+000	 1.497874272613284e+000	-1.808547444969603e+001
1	 2.796316194186986e+000	 1.528199418673973e+000	-1.807397322722850e+001
1	 2.779602469418804e+000	 1.558392623371014e+000	-1.802311321704196e+001
1	 2.955251999276042e+000	 1.261720145382654e+000	-1.646694248031277e+001
1	 2.941637478292966e+000	 1.293143966922747e+000	-1.683444865220274e+001
1	 2.927660520253484e+000	 1.324483470052802e+000	-1.714857663637549e+001
1	 2.913321450666013e+000	 1.355732592749046e+000	-1.741070958308525e+001
1	 2.898620726329122e+000	 1.386885257702045e+000	-1.762239985013148e+001
1	 2.883558936326928e+000	 1.417935375776930e+000	-1.778536854136589e+001
1	 2.868136802917897e+000	 1.448876849523699e+000	-1.790150475425562e+001
1	 2.852355182314455e+000	 1.479703576733827e+000	-1.797286453348538e+001
1	 2.836215065351123e+000	 1.510409454039345e+000	-1.800166952825173e+001
1	 2.819717578038901e+000	 1.540988380550389e+000	-1.799030535159301e+001
1	 2.802863982003876e+000	 1.571434261527091e+000	-1.794131964080785e+001
1	 2.979778209615191e+000	 1.272191405934185e+000	-1.643314057510960e+001
1	 2.966050699078124e+000	 1.303876019872661e+000	-1.678124991266412e+001
1	 2.951957743549081e+000	 1.335475615626169e+000	-1.707900454933310e+001
1	 2.937499671237958e+000	 1.366984080861041e+000	-1.732764175828203e+001
1	 2.922676942734390e+000	 1.398395287831081e+000	-1.752855753801581e+001
1	 2.907490152011438e+000	 1.429703096866527e+000	-1.768330627287087e+001
1	 2.891940027321741e+000	 1.460901359913464e+000	-1.779360012184674e+001
1	 2.876027431983614e+000	 1.491983924119971e+000	-1.786130813277473e+001
1	 2.859753365054722e+000	 1.522944635465056e+000	-1.788845507944630e+001
1	 2.843118961891063e+000	 1.553777342426399e+000	-1.787722001996516e+001
1	 2.826125494589216e+000	 1.584475899682720e+000	-1.782993457524767e+001
1	 3.004304419954370e+000	 1.282662666485751e+000	-1.636546979811001e+001
1	 2.990463919863343e+000	 1.314608072822576e+000	-1.669530563823088e+001
1	 2.976254966844774e+000	 1.346467761199496e+000	-1.697768737329808e+001
1	 2.961677891810029e+000	 1.378235568972947e+000	-1.721370240414785e+001
1	 2.946733159139817e+000	 1.409905317959977e+000	-1.740458555645493e+001
1	 2.931421367696138e+000	 1.441470817955927e+000	-1.755171886439027e+001
1	 2.915743251725804e+000	 1.472925870302978e+000	-1.765663110346430e+001
1	 2.899699681653019e+000	 1.504264271505810e+000	-1.772099706958962e+001
1	 2.883291664758590e+000	 1.535479816890413e+000	-1.774663660196923e+001
1	 2.866520345743509e+000	 1.566566304302014e+000	-1.773551334800577e+001
1	 2.849387007174854e+000	 1.597517537837919e+000	-1.768973326903727e+001
1	 3.028830630293633e+000	 1.293133927037236e+000	-1.626436070181903e+001
1	 3.014877140648670e+000	 1.325340125772382e+000	-1.657713238627771e+001
1	 3.000552190140605e+000	 1.357459906772683e+000	-1.684521529427631e+001
1	 2.985856112382270e+000	 1.389487057084678e+000	-1.706954307544721e+001
1	 2.970789375545449e+000	 1.421415348088662e+000	-1.725118469739508e+001
1	 2.955352583381074e+000	 1.453238539045079e+000	-1.739134435370719e+001
1	 2.939546476130134e+000	 1.484950380692207e+000	-1.749136114354463e+001
1	 2.923371931322718e+000	 1.516544618891328e+000	-1.755270851990152e+001
1	 2.906829964462770e+000	 1.548014998315415e+000	-1.757699350413729e+001
1	 2.889921729596284e+000	 1.579355266177241e+000	-1.756595566492241e+001
1	 2.872648519760826e+000	 1.610559175992701e+000	-1.752146586028816e+001
1	 3.053356840633026e+000	 1.303605187588521e+000	-1.613023000502129e+001
1	 3.039290361434153e+000	 1.336072178721969e+000	-1.642723011710879e+001
1	 3.024849413436621e+000	 1.368452052345632e+000	-1.668215953550366e+001
1	 3.010034332954730e+000	 1.400738545196150e+000	-1.689579439238680e+001
1	 2.994845591951334e+000	 1.432925378217068e+000	-1.706903323622602e+001
1	 2.979283799066296e+000	 1.465006260133933e+000	-1.720289706533370e+001
1	 2.963349700534780e+000	 1.496974891081117e+000	-1.729852915693346e+001
1	 2.947044180992758e+000	 1.528824966276507e+000	-1.735719468889466e+001
1	 2.930368264167312e+000	 1.560550179740057e+000	-1.738028015175455e+001
1	 2.913323113449429e+000	 1.592144228052089e+000	-1.736929254912312e+001
1	 2.895910032347164e+000	 1.623600814147085e+000	-1.732585838505529e+001
1	 3.077883050972603e+000	 1.314076448139491e+000	-1.596348114395327e+001
1	 3.063703582219838e+000	 1.346804231671227e+000	-1.624608285522933e+001
1	 3.049146636732866e+000	 1.379444197918242e+000	-1.648907311297309e+001
1	 3.034212553527452e+000	 1.411990033307279e+000	-1.669306687470380e+001
1	 3.018901808357516e+000	 1.444435408345127e+000	-1.685878782890075e+001
1	 3.003215014751850e+000	 1.476773981222436e+000	-1.698706855531086e+001
1	 2.987152924939791e+000	 1.508999401469674e+000	-1.707885050620993e+001
1	 2.970716430663188e+000	 1.541105313661330e+000	-1.713518380586890e+001
1	 2.953906563872260e+000	 1.573085361164338e+000	-1.715722686587275e+001
1	 2.936724497302984e+000	 1.604933189926567e+000	-1.714624581435416e+001
1	 2.919171544933902e+000	 1.636642452301086e+000	-1.710361373762715e+001
1	 3.102409261312411e+000	 1.324547708690029e+000	-1.576450479733170e+001
1	 3.088116803005770e+000	 1.357536284620048e+000	-1.603415931925079e+001
1	 3.073443860029386e+000	 1.390436343490416e+000	-1.626649155512520e+001
1	 3.058390774100482e+000	 1.423241521417980e+000	-1.646195173619114e+001
1	 3.042958024764042e+000	 1.455945438472771e+000	-1.662108436650200e+001
1	 3.027146230437786e+000	 1.488541702310539e+000	-1.674452851119375e+001
1	 3.010956149345215e+000	 1.521023911857844e+000	-1.683301793265351e+001
1	 2.994388680334057e+000	 1.553385661045778e+000	-1.688738107195092e+001
1	 2.977444863577661e+000	 1.585620542588254e+000	-1.690854087322469e+001
1	 2.960125881156992e+000	 1.617722151800683e+000	-1.689751444906198e+001
1	 2.942433057521074e+000	 1.649684090454720e+000	-1.685541258526617e+001
1	 3.126935471652506e+000	 1.335018969240017e+000	-1.553367938667336e+001
1	 3.112530023792000e+000	 1.368268337568320e+000	-1.579191352215218e+001
1	 3.097741083326226e+000	 1.401428489062056e+000	-1.601493358866873e+001
1	 3.082568994673866e+000	 1.434493009528169e+000	-1.620302164183148e+001
1	 3.067014241170958e+000	 1.467455468599930e+000	-1.635653878959168e+001
1	 3.051077446124150e+000	 1.500309423398188e+000	-1.647592560968225e+001
1	 3.034759373751101e+000	 1.533048422245595e+000	-1.656170244339811e+001
1	 3.018060930005414e+000	 1.565666008429837e+000	-1.661446956320527e+001
1	 3.000983163283562e+000	 1.598155724011803e+000	-1.663490721192922e+001
1	 2.983527265011496e+000	 1.630511113674446e+000	-1.662377551154788e+001
1	 2.965694570108715e+000	 1.662725728608005e+000	-1.658191423990023e+001
1	 2.733079444249319e+000	 1.532309347057451e+000	-1.809469294245025e+001
1	 2.716297039568712e+000	 1.561865955864427e+000	-1.800254245926640e+001
1	 2.699170149807901e+000	 1.591280936462619e+000	-1.787661689255672e+001
1	 2.681700406264190e+000	 1.620548384726113e+000	-1.771585701026962e+001
1	 2.663889573078078e+000	 1.649662417173072e+000	-1.751916420978344e+001
1	 2.645739547069145e+000	 1.678617174651290e+000	-1.728540238675903e+001
1	 2.627252357450537e+000	 1.707406826031018e+000	-1.701339990787010e+001
1	 2.608430165421335e+000	 1.736025571900473e+000	-1.670195168440822e+001
1	 2.589275263636230e+000	 1.764467648259312e+000	-1.634982134345250e+001
1	 2.569790075552226e+000	 1.792727330205414e+000	-1.595574349299167e+001
1	 2.549977154652176e+000	 1.820798935610175e+000	-1.551842607709464e+001
1	 2.756340956833962e+000	 1.545350985214473e+000	-1.807451388513509e+001
1	 2.739415715428227e+000	 1.575159153276105e+000	-1.798468758991141e+001
1	 2.722143056995375e+000	 1.604824487717100e+000	-1.785951231195475e+001
1	 2.704524626716822e+000	 1.634341034160935e+000	-1.769792988663551e+001
1	 2.686562203747829e+000	 1.663702859050867e+000	-1.749884700133949e+001
1	 2.668257701051977e+000	 1.692904053366853e+000	-1.726113711843646e+001
1	 2.649613165113236e+000	 1.721938736349818e+000	-1.698364249564018e+001
1	 2.630630775524840e+000	 1.750801059228598e+000	-1.666517630057699e+001
1	 2.611312844454483e+000	 1.779485208944865e+000	-1.630452481608704e+001
1	 2.591661815985434e+000	 1.807985411871278e+000	-1.590044973249628e+001
1	 2.571680265333477e+000	 1.836295937518066e+000	-1.545169052281944e+001
1	 2.779602469418804e+000	 1.558392623371014e+000	-1.802311321704195e+001
1	 2.762534391287983e+000	 1.588452350687268e+000	-1.793542739781465e+001
1	 2.745115964183133e+000	 1.618368038971054e+000	-1.781087736525635e+001
1	 2.727348847169785e+000	 1.648133683595235e+000	-1.764843145705507e+001
1	 2.709234834417954e+000	 1.677743300928162e+000	-1.744702797299917e+001
1	 2.690775855035223e+000	 1.707190932081953e+000	-1.720557711341104e+001
1	 2.671973972776374e+000	 1.736470646668199e+000	-1.692296300649378e+001
1	 2.652831385628806e+000	 1.765576546556353e+000	-1.659804582129288e+001
1	 2.633350425273202e+000	 1.794502769630099e+000	-1.622966396269932e+001
1	 2.613533556419093e+000	 1.823243493536874e+000	-1.581663634465627e+001
1	 2.593383376015194e+000	 1.851792939425738e+000	-1.535776473747371e+001
1	 2.802863982003876e+000	 1.571434261527091e+000	-1.794131964080785e+001
1	 2.785653067148002e+000	 1.601745548097935e+000	-1.785556894940225e+001
1	 2.768088871371186e+000	 1.631911590224498e+000	-1.773151054515352e+001
1	 2.750173067623071e+000	 1.661926333029029e+000	-1.756816408021850e+001
1	 2.731907465088427e+000	 1.691783742804963e+000	-1.736452515172936e+001
1	 2.713294009018838e+000	 1.721477810796585e+000	-1.711956721756346e+001
1	 2.694334780439897e+000	 1.751002556986144e+000	-1.683224359058339e+001
1	 2.675031995733158e+000	 1.780352033883711e+000	-1.650148950799168e+001
1	 2.655388006092302e+000	 1.809520330314980e+000	-1.612622427219987e+001
1	 2.635405296853118e+000	 1.838501575202161e+000	-1.570535345937031e+001
1	 2.615086486697246e+000	 1.867289941333142e+000	-1.523777119155826e+001
1	 2.826125494589216e+000	 1.584475899682720e+000	-1.782993457524767e+001
1	 2.808771743008305e+000	 1.615038745508126e+000	-1.774589273961905e+001
1	 2.791061778559539e+000	 1.645455141477451e+000	-1.762218405513436e+001
1	 2.772997288076671e+000	 1.675718982462327e+000	-1.745790369833004e+001
1	 2.754580095759225e+000	 1.705824184681278e+000	-1.725212963215544e+001
1	 2.735812163002780e+000	 1.735764689510745e+000	-1.700392446145947e+001
1	 2.716695588103744e+000	 1.765534467303639e+000	-1.671233735455789e+001
1	 2.697232605837830e+000	 1.795127521210649e+000	-1.637640602753520e+001
1	 2.677425586911706e+000	 1.824537890999473e+000	-1.599515878771753e+001
1	 2.657277037287425e+000	 1.853759656867096e+000	-1.556761663254515e+001
1	 2.636789597379548e+000	 1.882786943240229e+000	-1.509279539987331e+001
1	 2.849387007174854e+000	 1.597517537837919e+000	-1.768973326903727e+001
1	 2.831890418868914e+000	 1.628331942917860e+000	-1.760715377653470e+001
1	 2.814034685748200e+000	 1.658998692729931e+000	-1.748364488256768e+001
1	 2.795821508530576e+000	 1.689511631895144e+000	-1.731840091538739e+001
1	 2.777252726430318e+000	 1.719864626557111e+000	-1.711060667589787e+001
1	 2.758330316987007e+000	 1.750051568224430e+000	-1.685943919572761e+001
1	 2.739056395767859e+000	 1.780066377620673e+000	-1.656406954707290e+001
1	 2.719433215942749e+000	 1.809903008537144e+000	-1.622366470103404e+001
1	 2.699463167731334e+000	 1.839555451683543e+000	-1.583738943098580e+001
1	 2.679148777721928e+000	 1.869017738531633e+000	-1.540440825735226e+001
1	 2.658492708062018e+000	 1.898283945146948e+000	-1.492388742999272e+001
1	 2.872648519760826e+000	 1.610559175992701e+000	-1.752146586028816e+001
1	 2.855009094729853e+000	 1.641625140327156e+000	-1.744008261325465e+001
1	 2.837007592937177e+000	 1.672542243981955e+000	-1.731661581965093e+001
1	 2.818645728984777e+000	 1.703304281327492e+000	-1.715038202307318e+001
1	 2.799925357101683e+000	 1.733905068432466e+000	-1.694069675749630e+001
1	 2.780848470971473e+000	 1.764338446937636e+000	-1.668687617127421e+001
1	 2.761417203432182e+000	 1.794598287937230e+000	-1.638823868670294e+001
1	 2.741633826047844e+000	 1.824678495863168e+000	-1.604410669199585e+001
1	 2.721500748551104e+000	 1.854573012367157e+000	-1.565380826238332e+001
1	 2.701020518156543e+000	 1.884275820195732e+000	-1.521667890691809e+001
1	 2.680195818744573e+000	 1.913780947053250e+000	-1.473206333744863e+001
1	 2.895910032347164e+000	 1.623600814147085e+000	-1.732585838505529e+001
1	 2.878127770591144e+000	 1.654918337736034e+000	-1.724538633009703e+001
1	 2.859980500126478e+000	 1.686085795233540e+000	-1.712179643515344e+001
1	 2.841469949439266e+000	 1.717096930759384e+000	-1.695454997720266e+001
1	 2.822597987773292e+000	 1.747945510307352e+000	-1.674311655992556e+001
1	 2.803366624956138e+000	 1.778625325650358e+000	-1.648697556743712e+001
1	 2.783778011096657e+000	 1.809130198253296e+000	-1.618561763549316e+001
1	 2.763834436153042e+000	 1.839453983188698e+000	-1.583854613721052e+001
1	 2.743538329370936e+000	 1.869590573050278e+000	-1.544527868024631e+001
1	 2.722892258591185e+000	 1.899533901859347e+000	-1.500534861230265e+001
1	 2.701898929427128e+000	 1.929277948959084e+000	-1.451830653174668e+001
1	 2.919171544933902e+000	 1.636642452301086e+000	-1.710361373762715e+001
1	 2.901246446452806e+000	 1.668211535144512e+000	-1.702374946981098e+001
1	 2.882953407316110e+000	 1.699629346484705e+000	-1.689986399969939e+001
1	 2.864294169894032e+000	 1.730889580190834e+000	-1.673158532748672e+001
1	 2.845270618445120e+000	 1.761985952181773e+000	-1.651855992251472e+001
1	 2.825884778940959e+000	 1.792912204362594e+000	-1.626045397098201e+001
1	 2.806138818761223e+000	 1.823662108568856e+000	-1.595695462118393e+001
1	 2.786035046258273e+000	 1.854229470513710e+000	-1.560777122356623e+001
1	 2.765575910190750e+000	 1.884608133732874e+000	-1.521263656284046e+001
1	 2.744763999025769e+000	 1.914791983522436e+000	-1.477130807937669e+001
1	 2.723602040109602e+000	 1.944774950864403e+000	-1.428356907707060e+001
1	 2.942433057521074e+000	 1.649684090454720e+000	-1.685541258526617e+001
1	 2.924365122314863e+000	 1.681504732552608e+000	-1.677583492843429e+001
1	 2.905926314506080e+000	 1.713172897735468e+000	-1.665147436716182e+001
1	 2.887118390349069e+000	 1.744682229621855e+000	-1.648214710319297e+001
1	 2.867943249117139e+000	 1.776026394055733e+000	-1.626769874390296e+001
1	 2.848402932925892e+000	 1.807199083074341e+000	-1.600800530866203e+001
1	 2.828499626425824e+000	 1.838194018883899e+000	-1.570297421094714e+001
1	 2.808235656363467e+000	 1.869004957838178e+000	-1.535254521378893e+001
1	 2.787613491010467e+000	 1.899625694414908e+000	-1.495669135616528e+001
1	 2.766635739460210e+000	 1.930050065184955e+000	-1.451541984797837e+001
1	 2.745305150791908e+000	 1.960271952769154e+000	-1.402877293129018e+001
1	 2.965694570108715e+000	 1.662725728608005e+000	-1.658191423990024e+001
1	 2.947483798177338e+000	 1.694797929960343e+000	-1.650228480422665e+001
1	 2.928899221696398e+000	 1.726716448985847e+000	-1.637726281457676e+001
1	 2.909942610804364e+000	 1.758474879052459e+000	-1.620687365712683e+001
1	 2.890615879789327e+000	 1.790066835929240e+000	-1.599118384250201e+001
1	 2.870921086910895e+000	 1.821485961785593e+000	-1.573030173588990e+001
1	 2.850860434090400e+000	 1.852725929198409e+000	-1.542437823929821e+001
1	 2.830436266468553e+000	 1.883780445162080e+000	-1.507360742390903e+001
1	 2.809651071830005e+000	 1.914643255096348e+000	-1.467822711056559e+001
1	 2.788507479894426e+000	 1.945308146846862e+000	-1.423851939651889e+001
1	 2.767008261473969e+000	 1.975768954673289e+000	-1.375481112665996e+001
1	 2.549977154652176e+000	 1.820798935610175e+000	-1.551842607709464e+001
1	 2.529839182825770e+000	 1.848676828161380e+000	-1.504590081705432e+001
1	 2.509378967208837e+000	 1.876355419114987e+000	-1.454805954031571e+001
1	 2.488599441235097e+000	 1.903829172691866e+000	-1.402642553806475e+001
1	 2.467503664099979e+000	 1.931092610269970e+000	-1.348257864700810e+001
1	 2.446094819379461e+000	 1.958140313934778e+000	-1.291815295981519e+001
1	 2.424376213529276e+000	 1.984966929989930e+000	-1.233483443230788e+001
1	 2.402351274265837e+000	 2.011567172423368e+000	-1.173435839176706e+001
1	 2.380023548830396e+000	 2.037935826324343e+000	-1.111850695099815e+001
1	 2.357396702138207e+000	 2.064067751246718e+000	-1.048910633305975e+001
1	 2.334474514814633e+000	 2.089957884514068e+000	-9.848024111806270e+000
1	 2.571680265333477e+000	 1.836295937518066e+000	-1.545169052281943e+001
1	 2.551370897214117e+000	 1.864411101601794e+000	-1.496709019660711e+001
1	 2.530736542655011e+000	 1.892325267812062e+000	-1.445752838487651e+001
1	 2.509780160056639e+000	 1.920032853254175e+000	-1.392483425339549e+001
1	 2.488504834651568e+000	 1.947528332676985e+000	-1.337090140182906e+001
1	 2.466913777111521e+000	 1.974806242053562e+000	-1.279768503759766e+001
1	 2.445010322033827e+000	 2.001861182121705e+000	-1.220719902950135e+001
1	 2.422797926308551e+000	 2.028687821879580e+000	-1.160151284655525e+001
1	 2.400280167367885e+000	 2.055280902031814e+000	-1.098274838780370e+001
1	 2.377460741319559e+000	 2.081635238381421e+000	-1.035307670918582e+001
1	 2.354343460966238e+000	 2.107745725163034e+000	-9.714714653815683e+000
1	 2.593383376015194e+000	 1.851792939425738e+000	-1.535776473747371e+001
1	 2.572902611602827e+000	 1.880145375042032e+000	-1.486273866450263e+001
1	 2.552094118101473e+000	 1.908295116508996e+000	-1.434339621726891e+001
1	 2.530960878878383e+000	 1.936236533816368e+000	-1.380180522433746e+001
1	 2.509506005203260e+000	 1.963964055083904e+000	-1.324010383079924e+001
1	 2.487732734843586e+000	 1.991472170172263e+000	-1.266049724513123e+001
1	 2.465644430538283e+000	 2.018755434253400e+000	-1.206525435287089e+001
1	 2.443244578351072e+000	 2.045808471335707e+000	-1.145670420341309e+001
1	 2.420536785905097e+000	 2.072625977739186e+000	-1.083723237659400e+001
1	 2.397524780500567e+000	 2.099202725516005e+000	-1.020927723606940e+001
1	 2.374212407117443e+000	 2.125533565811849e+000	-9.575326076813658e+000
1	 2.615086486697246e+000	 1.867289941333142e+000	-1.523777119155826e+001
1	 2.594434325991823e+000	 1.895879648482040e+000	-1.473402758725534e+001
1	 2.573451693548162e+000	 1.924264965205734e+000	-1.420687028733840e+001
1	 2.552141597700285e+000	 1.952440214378395e+000	-1.365854024029579e+001
1	 2.530507175755037e+000	 1.980399777490679e+000	-1.309135262236515e+001
1	 2.508551692575658e+000	 2.008138098290838e+000	-1.250769326540645e+001
1	 2.486278539042668e+000	 2.035649686384982e+000	-1.191001494261685e+001
1	 2.463691230393453e+000	 2.062929120791727e+000	-1.130083351904389e+001
1	 2.440793404442102e+000	 2.089971053446450e+000	-1.068272397423767e+001
1	 2.417588819681313e+000	 2.116770212650470e+000	-1.005831630474729e+001
1	 2.394081353268349e+000	 2.143321406460531e+000	-9.430291314510928e+000
1	 2.636789597379548e+000	 1.882786943240229e+000	-1.509279539987331e+001
1	 2.615966040381032e+000	 1.911613921921764e+000	-1.458209943661379e+001
1	 2.594809268995017e+000	 1.940234813902221e+000	-1.404911809799359e+001
1	 2.573322316522301e+000	 1.968643894940201e+000	-1.349620152351581e+001
1	 2.551508346306874e+000	 1.996835499897263e+000	-1.292577605346125e+001
1	 2.529370650307736e+000	 2.024804026409246e+000	-1.234034044426457e+001
1	 2.506912647547007e+000	 2.052543938516416e+000	-1.174246193668620e+001
1	 2.484137882435738e+000	 2.080049770247615e+000	-1.113477218417613e+001
1	 2.461050022978969e+000	 2.107316129153594e+000	-1.051996304922409e+001
1	 2.437652858861884e+000	 2.134337699784820e+000	-9.900782275870732e+000
1	 2.413950299419056e+000	 2.161109247109096e+000	-9.280029046908730e+000
1	 2.658492708062018e+000	 1.898283945146948e+000	-1.492388742999272e+001
1	 2.637497754770377e+000	 1.927348195361151e+000	-1.440805937718480e+001
1	 2.616166844441978e+000	 1.956204662598404e+000	-1.387126902761485e+001
1	 2.594503035344390e+000	 1.984847575501736e+000	-1.331591334415333e+001
1	 2.572509516858754e+000	 2.013271222303608e+000	-1.274446555740851e+001
1	 2.550189608039823e+000	 2.041469954527444e+000	-1.215947127362354e+001
1	 2.527546756051328e+000	 2.069438190647670e+000	-1.156354443420105e+001
1	 2.504584534477977e+000	 2.097170419703349e+000	-1.095936313448254e+001
1	 2.481306641515768e+000	 2.124661204860606e+000	-1.034966530981447e+001
1	 2.457716898042369e+000	 2.151905186919057e+000	-9.737244297314911e+000
1	 2.433819245569663e+000	 2.178897087757561e+000	-9.124944282113226e+000
1	 2.680195818744573e+000	 1.913780947053250e+000	-1.473206333744863e+001
1	 2.659029469159782e+000	 1.943082468800149e+000	-1.421297677692191e+001
1	 2.637524419888981e+000	 1.972174511294227e+000	-1.367441587363701e+001
1	 2.615683754166508e+000	 2.001051256062946e+000	-1.311876355687588e+001
1	 2.593510687410649e+000	 2.029706944709663e+000	-1.254847721563585e+001
1	 2.571008565771920e+000	 2.058135882645392e+000	-1.196608480264137e+001
1	 2.548180864555651e+000	 2.086332442778711e+000	-1.137418079264409e+001
1	 2.525031186520220e+000	 2.114291069158907e+000	-1.077542200266627e+001
1	 2.501563260052567e+000	 2.142006280567476e+000	-1.017252328223897e+001
1	 2.477780937222855e+000	 2.169472674053184e+000	-9.568253082064244e+000
1	 2.453688191720270e+000	 2.196684928405941e+000	-8.965428909882252e+000
1	 2.701898929427128e+000	 1.929277948959084e+000	-1.451830653174668e+001
1	 2.680561183549176e+000	 1.958816742238704e+000	-1.399788664481559e+001
1	 2.658881995335964e+000	 1.988144359989638e+000	-1.345961632173917e+001
1	 2.636864472988613e+000	 2.017254936623779e+000	-1.290580506340725e+001
1	 2.614511857962542e+000	 2.046142667115383e+000	-1.233883317750778e+001
1	 2.591827523504031e+000	 2.074801810763047e+000	-1.176114798086745e+001
1	 2.568814973060007e+000	 2.103226694909506e+000	-1.117525986252613e+001
1	 2.545477838562512e+000	 2.131411718614264e+000	-1.058373821502232e+001
1	 2.521819878589437e+000	 2.159351356274191e+000	-9.989207241750174e+000
1	 2.497844976403427e+000	 2.187040161187201e+000	-9.394341648607830e+000
1	 2.473557137870976e+000	 2.214472769054255e+000	-8.801862228493716e+000
1	 2.723602040109602e+000	 1.944774950864403e+000	-1.428356907707060e+001
1	 2.702092897938480e+000	 1.974551015676761e+000	-1.376379099984611e+001
1	 2.680239570782870e+000	 2.004114208684582e+000	-1.322789434479036e+001
1	 2.658045191810659e+000	 2.033458617184183e+000	-1.267805720514581e+001
1	 2.635513028514410e+000	 2.062578389520717e+000	-1.211652301226817e+001
1	 2.612646481236155e+000	 2.091467738880369e+000	-1.154559693717700e+001
1	 2.589449081564420e+000	 2.120120947040020e+000	-1.096764216302254e+001
1	 2.565924490604902e+000	 2.148532368069398e+000	-1.038507603557042e+001
1	 2.542076497126445e+000	 2.176696431980742e+000	-9.800366099161241e+000
1	 2.517909015584173e+000	 2.204607648321111e+000	-9.216026025935054e+000
1	 2.493426084021882e+000	 2.232260609702518e+000	-8.634611446423818e+000
1	 2.745305150791908e+000	 1.960271952769154e+000	-1.402877293129018e+001
1	 2.723624612327620e+000	 1.990285289114268e+000	-1.351166017500190e+001
1	 2.701597146229636e+000	 2.020084057379005e+000	-1.298024153543920e+001
1	 2.679225910632606e+000	 2.049662297744106e+000	-1.243650708972659e+001
1	 2.656514199066231e+000	 2.079014111925619e+000	-1.188250499685720e+001
1	 2.633465438968294e+000	 2.108133666997313e+000	-1.132033819804068e+001
1	 2.610083190068913e+000	 2.137015199170221e+000	-1.075216100184536e+001
1	 2.586371142647441e+000	 2.165653017524286e+000	-1.018017556066194e+001
1	 2.562333115663661e+000	 2.194041507687116e+000	-9.606628245333013e+000
1	 2.537973054765180e+000	 2.222175135454916e+000	-9.033805925091517e+000
1	 2.513295030173088e+000	 2.250048450350747e+000	-8.464032160228985e+000
1	 2.767008261473969e+000	 1.975768954673289e+000	-1.375481112665996e+001
1	 2.745156326716522e+000	 2.006019562551172e+000	-1.324243405992987e+001
1	 2.722954721676198e+000	 2.036053906072851e+000	-1.271761837598973e+001
1	 2.700406629454409e+000	 2.065865978303493e+000	-1.218211085515379e+001
1	 2.677515369617984e+000	 2.095449834330041e+000	-1.163770734312211e+001
1	 2.654284396700450e+000	 2.124799595113841e+000	-1.108624984846172e+001
1	 2.630717298573514e+000	 2.153909451300075e+000	-1.052962354241327e+001
1	 2.606817794690175e+000	 2.182773666978905e+000	-9.969753666778965e+000
1	 2.582589734201157e+000	 2.211386583393304e+000	-9.408602355918251e+000
1	 2.558037093946534e+000	 2.239742622588618e+000	-8.848165379130450e+000
1	 2.533163976324692e+000	 2.267836290998960e+000	-8.290468809938101e+000
1	 2.334474514814633e+000	 2.089957884514068e+000	-9.848024111806270e+000
1	 2.311264384991488e+000	 2.115597417230627e+000	-9.206542347489961e+000
1	 2.287766902175922e+000	 2.140985357364761e+000	-8.573988904275900e+000
1	 2.263986181384554e+000	 2.166116898914944e+000	-7.949614319620536e+000
1	 2.239926444295830e+000	 2.190987326190443e+000	-7.332662092805301e+000
1	 2.215592016756413e+000	 2.215592016756412e+000	-6.722369689316286e+000
1	 2.190987326190444e+000	 2.239926444295831e+000	-6.117969553690617e+000
1	 2.166116898914944e+000	 2.263986181384554e+000	-5.518690128834161e+000
1	 2.140985357364762e+000	 2.287766902175922e+000	-4.923756879800057e+000
1	 2.115597417230626e+000	 2.311264384991489e+000	-4.332393320009193e+000
1	 2.089957884514069e+000	 2.334474514814633e+000	-3.743822037890382e+000
1	 2.354343460966238e+000	 2.107745725163034e+000	-9.714714653815683e+000
1	 2.330935787405982e+000	 2.133603478507495e+000	-9.078805324824314e+000
1	 2.307238315163295e+000	 2.159207497939899e+000	-8.453956572259024e+000
1	 2.283255194278109e+000	 2.184552936554364e+000	-7.838889177820176e+000
1	 2.258990682359991e+000	 2.209635038524449e+000	-7.232306425559815e+000
1	 2.234449142073308e+000	 2.234449142073308e+000	-6.632896123662869e+000
1	 2.209635038524449e+000	 2.258990682359990e+000	-6.039332652639038e+000
1	 2.184552936554364e+000	 2.283255194278110e+000	-5.450279035718475e+000
1	 2.159207497939899e+000	 2.307238315163295e+000	-4.864389027188895e+000
1	 2.133603478507495e+000	 2.330935787405982e+000	-4.280309214367402e+000
1	 2.107745725163034e+000	 2.354343460966238e+000	-3.696681128870763e+000
1	 2.374212407117443e+000	 2.125533565811849e+000	-9.575326076813662e+000
1	 2.350607189820049e+000	 2.151609539784174e+000	-8.946218203122463e+000
1	 2.326709728150233e+000	 2.177429638514804e+000	-8.329793870958190e+000
1	 2.302524207171238e+000	 2.202988974193504e+000	-7.724340939578397e+000
1	 2.278054920423748e+000	 2.228282750858128e+000	-7.128120952160774e+000
1	 2.253306267389836e+000	 2.253306267389836e+000	-6.539372004791678e+000
1	 2.228282750858128e+000	 2.278054920423748e+000	-5.956311657073274e+000
1	 2.202988974193504e+000	 2.302524207171238e+000	-5.377139878295986e+000
1	 2.177429638514803e+000	 2.326709728150233e+000	-4.800042023029292e+000
1	 2.151609539784174e+000	 2.350607189820048e+000	-4.223191829912642e+000
1	 2.125533565811849e+000	 2.374212407117443e+000	-3.644754437373400e+000
1	 2.394081353268349e+000	 2.143321406460531e+000	-9.430291314510928e+000
1	 2.370278592233794e+000	 2.169615601060698e+000	-8.809045598498004e+000
1	 2.346181141136843e+000	 2.195651779089522e+000	-8.201627220440269e+000
1	 2.321793220064046e+000	 2.221425011832426e+000	-7.605985478839387e+000
1	 2.297119158487202e+000	 2.246930463191558e+000	-7.020036151463311e+000
1	 2.272163392706085e+000	 2.272163392706085e+000	-6.441665043863137e+000
1	 2.246930463191558e+000	 2.297119158487202e+000	-5.868731592018519e+000
1	 2.221425011832426e+000	 2.321793220064046e+000	-5.299072511568086e+000
1	 2.195651779089522e+000	 2.346181141136843e+000	-4.730505485960340e+000
1	 2.169615601060697e+000	 2.370278592233793e+000	-4.160832885763651e+000
1	 2.143321406460531e+000	 2.394081353268349e+000	-3.587845511299728e+000
1	 2.413950299419056e+000	 2.161109247109096e+000	-9.280029046908732e+000
1	 2.389949994647324e+000	 2.187621662337096e+000	-8.667543414965939e+000
1	 2.365652554123235e+000	 2.213873919664102e+000	-8.069578878576429e+000
1	 2.341062232956640e+000	 2.239861049471193e+000	-7.483838146921219e+000
1	 2.316183396550450e+000	 2.265578175524814e+000	-6.907984791204719e+000
1	 2.291020518022143e+000	 2.291020518022143e+000	-6.339647307454588e+000
1	 2.265578175524814e+000	 2.316183396550451e+000	-5.776423243295516e+000
1	 2.239861049471193e+000	 2.341062232956640e+000	-5.215883380017962e+000
1	 2.213873919664102e+000	 2.365652554123235e+000	-4.655575961120142e+000
1	 2.187621662337096e+000	 2.389949994647325e+000	-4.093030958382900e+000
1	 2.161109247109096e+000	 2.413950299419056e+000	-3.525764366449667e+000
1	 2.433819245569663e+000	 2.178897087757561e+000	-9.124944282113226e+000
1	 2.409621397060749e+000	 2.205627723613400e+000	-8.521959200057161e+000
1	 2.385123967109518e+000	 2.232096060238592e+000	-7.933767110936554e+000
1	 2.360331245849126e+000	 2.258297087109868e+000	-7.357913793848560e+000
1	 2.335247634613596e+000	 2.284225887857976e+000	-6.791901834576086e+000
1	 2.309877643338102e+000	 2.309877643338101e+000	-6.233195039778976e+000
1	 2.284225887857977e+000	 2.335247634613597e+000	-5.679222922373630e+000
1	 2.258297087109868e+000	 2.360331245849125e+000	-5.127385248638054e+000
1	 2.232096060238591e+000	 2.385123967109518e+000	-4.575056637416797e+000
1	 2.205627723613399e+000	 2.409621397060749e+000	-4.019591201670469e+000
1	 2.178897087757560e+000	 2.433819245569663e+000	-3.458327222511902e+000
1	 2.453688191720270e+000	 2.196684928405941e+000	-8.965428909882254e+000
1	 2.429292799474172e+000	 2.223633784889643e+000	-8.372532483155171e+000
1	 2.404595380095800e+000	 2.250318200813038e+000	-7.794306352429270e+000
1	 2.379600258741609e+000	 2.276733124748515e+000	-7.228226788649049e+000
1	 2.354311872676735e+000	 2.302873600191120e+000	-6.671724351332814e+000
1	 2.328734768654050e+000	 2.328734768654050e+000	-6.122188493540858e+000
1	 2.302873600191121e+000	 2.354311872676736e+000	-5.576972242649044e+000
1	 2.276733124748514e+000	 2.379600258741609e+000	-5.033396947025744e+000
1	 2.250318200813038e+000	 2.404595380095800e+000	-4.488757078535932e+000
1	 2.223633784889643e+000	 2.429292799474172e+000	-3.940325080657099e+000
1	 2.196684928405941e+000	 2.453688191720269e+000	-3.385356251881121e+000
1	 2.473557137870976e+000	 2.214472769054255e+000	-8.801862228493713e+000
1	 2.448964201887703e+000	 2.241639846165858e+000	-8.219495097526531e+000
1	 2.424066793082190e+000	 2.268540341387490e+000	-7.651307361151722e+000
1	 2.398869271634196e+000	 2.295169162387196e+000	-7.094791038671512e+000
1	 2.373376110739969e+000	 2.321521312524323e+000	-6.547391433189385e+000
1	 2.347591893970077e+000	 2.347591893970077e+000	-6.006511768944753e+000
1	 2.321521312524323e+000	 2.373376110739969e+000	-5.469517906504855e+000
1	 2.295169162387196e+000	 2.398869271634196e+000	-4.933743125812430e+000
1	 2.268540341387491e+000	 2.424066793082190e+000	-4.396492966912252e+000
1	 2.241639846165858e+000	 2.448964201887703e+000	-3.855050118032222e+000
1	 2.214472769054255e+000	 2.473557137870976e+000	-3.306679340581252e+000
1	 2.493426084021882e+000	 2.232260609702518e+000	-8.634611446423818e+000
1	 2.468635604301448e+000	 2.259645907442076e+000	-8.063071486954963e+000
1	 2.443538206068797e+000	 2.286762481961994e+000	-7.504877364883583e+000
1	 2.418138284526992e+000	 2.313605200025974e+000	-6.957620007980546e+000
1	 2.392440348803396e+000	 2.340169024857662e+000	-6.418844113259050e+000
1	 2.366449019286273e+000	 2.366449019286272e+000	-5.886052660400508e+000
1	 2.340169024857661e+000	 2.392440348803396e+000	-5.356711502552352e+000
1	 2.313605200025974e+000	 2.418138284526992e+000	-4.828254024738019e+000
1	 2.286762481961994e+000	 2.443538206068797e+000	-4.298085859942479e+000
1	 2.259645907442075e+000	 2.468635604301448e+000	-3.763589652790431e+000
1	 2.232260609702518e+000	 2.493426084021882e+000	-3.222129860619132e+000
1	 2.513295030173088e+000	 2.250048450350747e+000	-8.464032160228985e+000
1	 2.488307006715512e+000	 2.277651968718327e+000	-7.903478997830337e+000
1	 2.463009619055729e+000	 2.304984622536598e+000	-7.355120200632499e+000
1	 2.437407297420105e+000	 2.332041237664912e+000	-6.816726734878470e+000
1	 2.411504586867115e+000	 2.358816737191213e+000	-6.286025289315072e+000
1	 2.385306144602727e+000	 2.385306144602727e+000	-5.760702510499804e+000
1	 2.358816737191213e+000	 2.411504586867115e+000	-5.238409312489706e+000
1	 2.332041237664912e+000	 2.437407297420106e+000	-4.716765251726291e+000
1	 2.304984622536598e+000	 2.463009619055729e+000	-4.193362957761378e+000
1	 2.277651968718327e+000	 2.488307006715513e+000	-3.665772610326465e+000
1	 2.250048450350747e+000	 2.513295030173087e+000	-3.131546453136192e+000
1	 2.533163976324692e+000	 2.267836290998960e+000	-8.290468809938101e+000
1	 2.507978409130006e+000	 2.295658029994647e+000	-7.740928157492039e+000
1	 2.482481032043097e+000	 2.323206763111350e+000	-7.202136447612031e+000
1	 2.456676310313640e+000	 2.350477275304074e+000	-6.672123848602871e+000
1	 2.430568824931228e+000	 2.377464449525057e+000	-6.148879650662934e+000
1	 2.404163269919529e+000	 2.404163269919529e+000	-5.630356070864868e+000
1	 2.377464449525057e+000	 2.430568824931227e+000	-5.114472127050143e+000
1	 2.350477275304074e+000	 2.456676310313640e+000	-4.599117572357448e+000
1	 2.323206763111350e+000	 2.482481032043097e+000	-4.082156881946933e+000
1	 2.295658029994646e+000	 2.507978409130006e+000	-3.561433283349591e+000
1	 2.267836290998959e+000	 2.533163976324692e+000	-3.034772821765225e+000
1	 2.089957884514069e+000	 2.334474514814633e+000	-3.743822037890381e+000
1	 2.064067751246718e+000	 2.357396702138207e+000	-3.157516635166827e+000
1	 2.037935826324343e+000	 2.380023548830395e+000	-2.575399140585633e+000
1	 2.011567172423368e+000	 2.402351274265837e+000	-2.000107598774191e+000
1	 1.984966929989930e+000	 2.424376213529276e+000	-1.434286300985034e+000
1	 1.958140313934778e+000	 2.446094819379461e+000	-8.805814841296558e-001
1	 1.931092610269970e+000	 2.467503664099979e+000	-3.416370382711639e-001
1	 1.903829172691866e+000	 2.488599441235097e+000	 1.799097685551213e-001
1	 1.876355419114987e+000	 2.509378967208838e+000	 6.814325394104672e-001
1	 1.848676828161380e+000	 2.529839182825770e+000	 1.160319962738853e+000
1	 1.820798935610176e+000	 2.549977154652176e+000	 1.613979983335383e+000
1	 2.107745725163034e+000	 2.354343460966238e+000	-3.696681128870763e+000
1	 2.081635238381421e+000	 2.377460741319560e+000	-3.112725600171580e+000
1	 2.055280902031814e+000	 2.400280167367884e+000	-2.530701338979544e+000
1	 2.028687821879580e+000	 2.422797926308551e+000	-1.953551128917915e+000
1	 2.001861182121705e+000	 2.445010322033828e+000	-1.384226779820427e+000
1	 1.974806242053562e+000	 2.466913777111521e+000	-8.256842197123216e-001
1	 1.947528332676985e+000	 2.488504834651568e+000	-2.808785942391894e-001
1	 1.920032853254174e+000	 2.509780160056640e+000	 2.472406162787753e-001
1	 1.892325267812062e+000	 2.530736542655012e+000	 7.557344520809324e-001
1	 1.864411101601794e+000	 2.551370897214117e+000	 1.241679291527529e+000
1	 1.836295937518066e+000	 2.571680265333477e+000	 1.702171621178213e+000
1	 2.125533565811849e+000	 2.374212407117443e+000	-3.644754437373400e+000
1	 2.099202725516006e+000	 2.397524780500568e+000	-3.063828209693834e+000
1	 2.072625977739186e+000	 2.420536785905096e+000	-2.483016695066945e+000
1	 2.045808471335707e+000	 2.443244578351072e+000	-1.905488927409547e+000
1	 2.018755434253400e+000	 2.465644430538283e+000	-1.334425255963655e+000
1	 1.991472170172263e+000	 2.487732734843587e+000	-7.730119691902579e-001
1	 1.963964055083904e+000	 2.509506005203261e+000	-2.244359251112633e-001
1	 1.936236533816368e+000	 2.530960878878383e+000	 3.081208007035412e-001
1	 1.908295116508996e+000	 2.552094118101472e+000	 8.214862384071240e-001
1	 1.880145375042031e+000	 2.572902611602827e+000	 1.312503807437982e+000
1	 1.851792939425738e+000	 2.593383376015194e+000	 1.778037549574748e+000
1	 2.143321406460531e+000	 2.394081353268349e+000	-3.587845511299728e+000
1	 2.116770212650470e+000	 2.417588819681313e+000	-3.010636953086348e+000
1	 2.089971053446451e+000	 2.440793404442101e+000	-2.432154169580175e+000
1	 2.062929120791727e+000	 2.463691230393453e+000	-1.855715902700992e+000
1	 2.035649686384982e+000	 2.486278539042668e+000	-1.284654014319986e+000
1	 2.008138098290838e+000	 2.508551692575658e+000	-7.223077790360980e-001
1	 1.980399777490679e+000	 2.530507175755036e+000	-1.720181824157072e-001
1	 1.952440214378395e+000	 2.552141597700285e+000	 3.628777633778149e-001
1	 1.924264965205734e+000	 2.573451693548162e+000	 8.790526747417392e-001
1	 1.895879648482040e+000	 2.594434325991823e+000	 1.373194410893363e+000
1	 1.867289941333142e+000	 2.615086486697246e+000	 1.842011635718633e+000
1	 2.161109247109096e+000	 2.413950299419056e+000	-3.525764366449665e+000
1	 2.134337699784820e+000	 2.437652858861884e+000	-2.952970493216254e+000
1	 2.107316129153595e+000	 2.461050022978969e+000	-2.377929012940430e+000
1	 2.080049770247615e+000	 2.484137882435739e+000	-1.804033715583900e+000
1	 2.052543938516416e+000	 2.506912647547007e+000	-1.234692836981637e+000
1	 2.024804026409246e+000	 2.529370650307736e+000	-6.733231555421190e-001
1	 1.996835499897263e+000	 2.551508346306874e+000	-1.233440934418944e-001
1	 1.968643894940202e+000	 2.573322316522302e+000	 4.118281653153582e-001
1	 1.940234813902220e+000	 2.594809268995017e+000	 9.287865277092000e-001
1	 1.911613921921764e+000	 2.615966040381032e+000	 1.424138803256251e+000
1	 1.882786943240229e+000	 2.636789597379548e+000	 1.894513462360257e+000
1	 2.178897087757560e+000	 2.433819245569663e+000	-3.458327222511902e+000
1	 2.151905186919057e+000	 2.457716898042369e+000	-2.890653414471353e+000
1	 2.124661204860606e+000	 2.481306641515767e+000	-2.320162508522361e+000
1	 2.097170419703349e+000	 2.504584534477977e+000	-1.750250503569430e+000
1	 2.069438190647671e+000	 2.527546756051328e+000	-1.184328697203922e+000
1	 2.041469954527445e+000	 2.550189608039823e+000	-6.258177195032235e-001
1	 2.013271222303608e+000	 2.572509516858754e+000	-7.814157037241711e-002
1	 1.984847575501735e+000	 2.594503035344390e+000	 4.552783270402495e-001
1	 1.956204662598403e+000	 2.616166844441977e+000	 9.710290444239874e-001
1	 1.927348195361151e+000	 2.637497754770376e+000	 1.465712025593972e+000
1	 1.898283945146948e+000	 2.658492708062018e+000	 1.935948910875698e+000
1	 2.196684928405941e+000	 2.453688191720269e+000	-3.385356251881120e+000
1	 2.169472674053184e+000	 2.477780937222855e+000	-2.823515983010158e+000
1	 2.142006280567476e+000	 2.501563260052567e+000	-2.258681728392073e+000
1	 2.114291069158906e+000	 2.525031186520220e+000	-1.694180618659227e+000
1	 2.086332442778711e+000	 2.548180864555652e+000	-1.133355468250029e+000
1	 2.058135882645392e+000	 2.571008565771921e+000	-5.795588776774993e-001
1	 2.029706944709663e+000	 2.593510687410649e+000	-3.614733840557247e-002
1	 2.001051256062946e+000	 2.615683754166508e+000	 4.935246472517854e-001
1	 1.972174511294227e+000	 2.637524419888981e+000	 1.006110418891977e+000
1	 1.943082468800149e+000	 2.659029469159783e+000	 1.498276971267502e+000
1	 1.913780947053250e+000	 2.680195818744573e+000	 1.966710716006773e+000
1	 2.214472769054255e+000	 2.473557137870976e+000	-3.306679340581249e+000
1	 2.187040161187200e+000	 2.497844976403427e+000	-2.751393918566442e+000
1	 2.159351356274192e+000	 2.521819878589436e+000	-2.193319300817665e+000
1	 2.131411718614264e+000	 2.545477838562512e+000	-1.635644377754423e+000
1	 2.103226694909506e+000	 2.568814973060009e+000	-1.081573646267768e+000
1	 2.074801810763048e+000	 2.591827523504031e+000	-5.343215100807585e-001
1	 2.046142667115383e+000	 2.614511857962541e+000	 2.893418199116172e-003
1	 2.017254936623779e+000	 2.636864472988613e+000	 5.268540013120052e-001
1	 1.988144359989638e+000	 2.658881995335965e+000	 1.034350235932951e+000
1	 1.958816742238703e+000	 2.680561183549176e+000	 1.522184873816357e+000
1	 1.929277948959085e+000	 2.701898929427129e+000	 1.987178993865407e+000
1	 2.232260609702518e+000	 2.493426084021882e+000	-3.222129860619134e+000
1	 2.204607648321111e+000	 2.517909015584173e+000	-2.674128177164036e+000
1	 2.176696431980743e+000	 2.542076497126444e+000	-2.123913188894963e+000
1	 2.148532368069398e+000	 2.565924490604902e+000	-1.574467824998024e+000
1	 2.120120947040020e+000	 2.589449081564420e+000	-1.028790086416085e+000
1	 2.091467738880369e+000	 2.612646481236154e+000	-4.898876722318645e-001
1	 2.062578389520717e+000	 2.635513028514410e+000	 3.922739315265373e-002
1	 2.033458617184183e+000	 2.658045191810659e+000	 5.555441206808158e-001
1	 2.004114208684582e+000	 2.680239570782871e+000	 1.056057893879085e+000
1	 1.974551015676761e+000	 2.702092897938480e+000	 1.537775771516778e+000
1	 1.944774950864403e+000	 2.723602040109602e+000	 1.997721744693305e+000
1	 2.250048450350747e+000	 2.513295030173087e+000	-3.131546453136190e+000
1	 2.222175135454916e+000	 2.537973054765179e+000	-2.591564744138404e+000
1	 2.194041507687117e+000	 2.562333115663662e+000	-2.050306479674159e+000
1	 2.165653017524286e+000	 2.586371142647441e+000	-1.510482505390226e+000
1	 2.137015199170221e+000	 2.610083190068913e+000	-9.748177515079645e-001
1	 2.108133666997313e+000	 2.633465438968294e+000	-4.460463115215363e-001
1	 2.079014111925619e+000	 2.656514199066230e+000	 7.309347918165793e-002
1	 2.049662297744106e+000	 2.679225910632606e+000	 5.798639543533958e-001
1	 2.020084057379004e+000	 2.701597146229636e+000	 1.071533007223138e+000
1	 1.990285289114268e+000	 2.723624612327620e+000	 1.545378949904787e+000
1	 1.960271952769154e+000	 2.745305150791909e+000	 1.998695331774369e+000
1	 2.267836290998959e+000	 2.533163976324692e+000	-3.034772821765224e+000
1	 2.239742622588619e+000	 2.558037093946534e+000	-2.503554436898569e+000
1	 2.211386583393305e+000	 2.582589734201157e+000	-1.972347183210078e+000
1	 2.182773666978905e+000	 2.606817794690176e+000	-1.443525249057456e+000
1	 2.153909451300075e+000	 2.630717298573514e+000	-9.194754724823289e-001
1	 2.124799595113840e+000	 2.654284396700450e+000	-4.025929969292680e-001
1	 2.095449834330041e+000	 2.677515369617983e+000	 1.047230739648892e-001
1	 2.065865978303493e+000	 2.700406629454409e+000	 6.000740132879739e-001
1	 2.036053906072851e+000	 2.722954721676199e+000	 1.081065790317827e+000
1	 2.006019562551172e+000	 2.745156326716522e+000	 1.545313363473224e+000
1	 1.975768954673289e+000	 2.767008261473968e+000	 1.990444937808690e+000
1	 1.820798935610176e+000	 2.549977154652176e+000	 1.613979983335383e+000
1	 1.792727330205413e+000	 2.569790075552224e+000	 2.032417180954508e+000
1	 1.764467648259313e+000	 2.589275263636230e+000	 2.408793629091548e+000
1	 1.736025571900472e+000	 2.608430165421335e+000	 2.745299644660356e+000
1	 1.707406826031018e+000	 2.627252357450538e+000	 3.044160825053711e+000
1	 1.678617174651289e+000	 2.645739547069144e+000	 3.307633455398197e+000
1	 1.649662417173072e+000	 2.663889573078078e+000	 3.537999916018079e+000
1	 1.620548384726113e+000	 2.681700406264190e+000	 3.737564099782088e+000
1	 1.591280936462618e+000	 2.699170149807902e+000	 3.908646848863609e+000
1	 1.561865955864427e+000	 2.716297039568712e+000	 4.053581420274226e+000
1	 1.532309347057451e+000	 2.733079444249318e+000	 4.174708989335442e+000
1	 1.836295937518066e+000	 2.571680265333477e+000	 1.702171621178213e+000
1	 1.807985411871278e+000	 2.591661815985435e+000	 2.127188670825245e+000
1	 1.779485208944865e+000	 2.611312844454483e+000	 2.510026986223058e+000
1	 1.750801059228598e+000	 2.630630775524840e+000	 2.852812035117243e+000
1	 1.721938736349818e+000	 2.649613165113236e+000	 3.157708426980948e+000
1	 1.692904053366853e+000	 2.668257701051977e+000	 3.426915341020232e+000
1	 1.663702859050867e+000	 2.686562203747828e+000	 3.662661947463848e+000
1	 1.634341034160935e+000	 2.704524626716821e+000	 3.867202831871050e+000
1	 1.604824487717100e+000	 2.722143056995375e+000	 4.042813432065189e+000
1	 1.575159153276105e+000	 2.739415715428226e+000	 4.191785497145395e+000
1	 1.545350985214473e+000	 2.756340956833962e+000	 4.316422577848827e+000
1	 1.851792939425738e+000	 2.593383376015194e+000	 1.778037549574748e+000
1	 1.823243493536874e+000	 2.613533556419093e+000	 2.208119384257907e+000
1	 1.794502769630099e+000	 2.633350425273200e+000	 2.596186935188850e+000
1	 1.765576546556352e+000	 2.652831385628806e+000	 2.944265997994786e+000
1	 1.736470646668198e+000	 2.671973972776374e+000	 3.254424956911481e+000
1	 1.707190932081953e+000	 2.690775855035223e+000	 3.528770301066696e+000
1	 1.677743300928162e+000	 2.709234834417954e+000	 3.769442127088821e+000
1	 1.648133683595235e+000	 2.727348847169784e+000	 3.978609637694115e+000
1	 1.618368038971053e+000	 2.745115964183133e+000	 4.158466645797401e+000
1	 1.588452350687268e+000	 2.762534391287983e+000	 4.311227093554317e+000
1	 1.558392623371014e+000	 2.779602469418803e+000	 4.439120595581128e+000
1	 1.867289941333142e+000	 2.615086486697246e+000	 1.842011635718633e+000
1	 1.838501575202161e+000	 2.635405296853118e+000	 2.275668340243348e+000
1	 1.809520330314980e+000	 2.655388006092302e+000	 2.667747050144055e+000
1	 1.780352033883710e+000	 2.675031995733159e+000	 3.020139943742501e+000
1	 1.751002556986143e+000	 2.694334780439896e+000	 3.334784826045260e+000
1	 1.721477810796585e+000	 2.713294009018838e+000	 3.613660799911858e+000
1	 1.691783742804964e+000	 2.731907465088427e+000	 3.858783916555993e+000
1	 1.661926333029029e+000	 2.750173067623071e+000	 4.072202814812702e+000
1	 1.631911590224498e+000	 2.768088871371186e+000	 4.255994358515833e+000
1	 1.601745548097935e+000	 2.785653067148001e+000	 4.412259281214778e+000
1	 1.571434261527091e+000	 2.802863982003876e+000	 4.543117847317554e+000
1	 1.882786943240229e+000	 2.636789597379548e+000	 1.894513462360257e+000
1	 1.853759656867096e+000	 2.657277037287426e+000	 2.330279445243103e+000
1	 1.824537890999473e+000	 2.677425586911706e+000	 2.725165313507115e+000
1	 1.795127521210649e+000	 2.697232605837831e+000	 3.080896531845482e+000
1	 1.765534467303639e+000	 2.716695588103744e+000	 3.399246826287245e+000
1	 1.735764689510745e+000	 2.735812163002779e+000	 3.682034075966879e+000
1	 1.705824184681278e+000	 2.754580095759224e+000	 3.931116177201918e+000
1	 1.675718982462327e+000	 2.772997288076670e+000	 4.148386888953072e+000
1	 1.645455141477451e+000	 2.791061778559538e+000	 4.335771668674693e+000
1	 1.615038745508127e+000	 2.808771743008305e+000	 4.495223507471124e+000
1	 1.584475899682721e+000	 2.826125494589216e+000	 4.628718773356486e+000
1	 1.898283945146948e+000	 2.658492708062018e+000	 1.935948910875698e+000
1	 1.869017738531634e+000	 2.679148777721928e+000	 2.372382110059475e+000
1	 1.839555451683543e+000	 2.699463167731334e+000	 2.768884752390329e+000
1	 1.809903008537143e+000	 2.719433215942749e+000	 3.126983313754242e+000
1	 1.780066377620673e+000	 2.739056395767860e+000	 3.448254767802865e+000
1	 1.750051568224430e+000	 2.758330316987007e+000	 3.734322763180014e+000
1	 1.719864626557111e+000	 2.777252726430318e+000	 3.986853765999230e+000
1	 1.689511631895144e+000	 2.795821508530576e+000	 4.207553176151225e+000
1	 1.658998692729931e+000	 2.814034685748200e+000	 4.398161425978523e+000
1	 1.628331942917861e+000	 2.831890418868914e+000	 4.560450069786881e+000
1	 1.597517537837919e+000	 2.849387007174854e+000	 4.696217872571724e+000
1	 1.913780947053250e+000	 2.680195818744573e+000	 1.966710716006773e+000
1	 1.884275820195732e+000	 2.701020518156543e+000	 2.402391836734580e+000
1	 1.854573012367156e+000	 2.721500748551103e+000	 2.799334044108910e+000
1	 1.824678495863168e+000	 2.741633826047844e+000	 3.158833344577410e+000
1	 1.794598287937230e+000	 2.761417203432182e+000	 3.482238085597214e+000
1	 1.764338446937635e+000	 2.780848470971473e+000	 3.770945482340767e+000
1	 1.733905068432467e+000	 2.799925357101683e+000	 4.026398102564085e+000
1	 1.703304281327492e+000	 2.818645728984777e+000	 4.250080317585558e+000
1	 1.672542243981954e+000	 2.837007592937177e+000	 4.443514727308357e+000
1	 1.641625140327156e+000	 2.855009094729854e+000	 4.608258567180148e+000
1	 1.610559175992701e+000	 2.872648519760826e+000	 4.745900104919956e+000
1	 1.929277948959085e+000	 2.701898929427129e+000	 1.987178993865407e+000
1	 1.899533901859347e+000	 2.722892258591184e+000	 2.420710777163453e+000
1	 1.869590573050279e+000	 2.743538329370937e+000	 2.816928092507449e+000
1	 1.839453983188698e+000	 2.763834436153043e+000	 3.176865765293901e+000
1	 1.809130198253296e+000	 2.783778011096656e+000	 3.501612416860189e+000
1	 1.778625325650358e+000	 2.803366624956139e+000	 3.792307403885920e+000
1	 1.747945510307352e+000	 2.822597987773292e+000	 4.050137708836499e+000
1	 1.717096930759385e+000	 2.841469949439266e+000	 4.276334788633173e+000
1	 1.686085795233540e+000	 2.859980500126478e+000	 4.472171388746722e+000
1	 1.654918337736034e+000	 2.878127770591143e+000	 4.638958329902001e+000
1	 1.623600814147085e+000	 2.895910032347164e+000	 4.778041274549514e+000
1	 1.944774950864403e+000	 2.723602040109602e+000	 1.997721744693305e+000
1	 1.914791983522436e+000	 2.744763999025769e+000	 2.427728264999574e+000
1	 1.884608133732874e+000	 2.765575910190751e+000	 2.822068576731605e+000
1	 1.854229470513710e+000	 2.786035046258275e+000	 3.181486357128623e+000
1	 1.823662108568856e+000	 2.806138818761223e+000	 3.506780150707989e+000
1	 1.792912204362594e+000	 2.825884778940959e+000	 3.798800783797253e+000
1	 1.761985952181773e+000	 2.845270618445119e+000	 4.058448722957835e+000
1	 1.730889580190835e+000	 2.864294169894032e+000	 4.286671383587759e+000
1	 1.699629346484705e+000	 2.882953407316110e+000	 4.484460395034600e+000
1	 1.668211535144512e+000	 2.901246446452806e+000	 4.652848828571363e+000
1	 1.636642452301086e+000	 2.919171544933902e+000	 4.792908394592027e+000
1	 1.960271952769154e+000	 2.745305150791909e+000	 1.998695331774369e+000
1	 1.930050065184955e+000	 2.766635739460210e+000	 2.423821322330174e+000
1	 1.899625694414909e+000	 2.787613491010468e+000	 2.815144473969683e+000
1	 1.869004957838178e+000	 2.808235656363468e+000	 3.173088069632573e+000
1	 1.838194018883899e+000	 2.828499626425822e+000	 3.498130951848605e+000
1	 1.807199083074341e+000	 2.848402932925892e+000	 3.790805474079912e+000
1	 1.776026394055733e+000	 2.867943249117138e+000	 4.051695388773646e+000
1	 1.744682229621855e+000	 2.887118390349068e+000	 4.281433677385498e+000
1	 1.713172897735468e+000	 2.905926314506080e+000	 4.480700327709065e+000
1	 1.681504732552608e+000	 2.924365122314863e+000	 4.650220063903345e+000
1	 1.649684090454720e+000	 2.942433057521074e+000	 4.790760034650882e+000
1	 1.975768954673289e+000	 2.767008261473968e+000	 1.990444937808690e+000
1	 1.945308146846862e+000	 2.788507479894426e+000	 2.409355142506676e+000
1	 1.914643255096348e+000	 2.809651071830004e+000	 2.796532557593406e+000
1	 1.883780445162079e+000	 2.830436266468553e+000	 3.152051523910733e+000
1	 1.852725929198409e+000	 2.850860434090399e+000	 3.476042259603096e+000
1	 1.821485961785593e+000	 2.870921086910894e+000	 3.768689409216953e+000
1	 1.790066835929240e+000	 2.890615879789326e+000	 4.030230522299761e+000
1	 1.758474879052460e+000	 2.909942610804365e+000	 4.260954465601794e+000
1	 1.726716448985847e+000	 2.928899221696398e+000	 4.461199773092393e+000
1	 1.694797929960344e+000	 2.947483798177338e+000	 4.631352938096510e+000
1	 1.662725728608005e+000	 2.965694570108715e+000	 4.771846651936595e+000
1	 1.532309347057451e+000	 2.733079444249318e+000	 4.174708989335439e+000
1	 1.502621494919892e+000	 2.749513426483720e+000	 4.277155917405991e+000
1	 1.472803909760124e+000	 2.765600166241469e+000	 4.360891685504118e+000
1	 1.442862534573746e+000	 2.781338433307961e+000	 4.420539248874516e+000
1	 1.412803318353237e+000	 2.796727129707190e+000	 4.450812070541165e+000
1	 1.382632212507476e+000	 2.811765289274062e+000	 4.446521489802528e+000
1	 1.352355167314767e+000	 2.826452077113804e+000	 4.402583835104827e+000
1	 1.321978128413372e+000	 2.840786788950489e+000	 4.314027270566317e+000
1	 1.291507033333439e+000	 2.854768850366804e+000	 4.175998366244786e+000
1	 1.260947808074111e+000	 2.868397815937405e+000	 3.983768383073779e+000
1	 1.230306363729441e+000	 2.881673368258283e+000	 3.732739264238734e+000
1	 1.545350985214473e+000	 2.756340956833962e+000	 4.316422577848829e+000
1	 1.515410456797143e+000	 2.772914810335272e+000	 4.422183008449744e+000
1	 1.485339091186876e+000	 2.789138465944542e+000	 4.509659215726514e+000
1	 1.455142881960698e+000	 2.805010682976676e+000	 4.573872515624544e+000
1	 1.424827828743552e+000	 2.820530354110669e+000	 4.609931700315910e+000
1	 1.394399933597354e+000	 2.835696504958287e+000	 4.613039827780283e+000
1	 1.363865197443819e+000	 2.850508293518875e+000	 4.578500768911853e+000
1	 1.333229616525126e+000	 2.864965009522324e+000	 4.501725502374559e+000
1	 1.302499178906338e+000	 2.879066073662390e+000	 4.378238148198347e+000
1	 1.271679861023363e+000	 2.892811036722655e+000	 4.203681731891841e+000
1	 1.240777624280165e+000	 2.906199578597639e+000	 3.973823671638495e+000
1	 1.558392623371014e+000	 2.779602469418803e+000	 4.439120595581131e+000
1	 1.528199418673973e+000	 2.796316194186986e+000	 4.547877160781482e+000
1	 1.497874272613285e+000	 2.812676765647745e+000	 4.638675675637740e+000
1	 1.467423229347397e+000	 2.828682932645490e+000	 4.706935148370896e+000
1	 1.436852339133718e+000	 2.844333578514223e+000	 4.748158729360707e+000
1	 1.406167654687189e+000	 2.859627720642560e+000	 4.757939919720521e+000
1	 1.375375227572934e+000	 2.874564509923965e+000	 4.731968551188953e+000
1	 1.344481104637046e+000	 2.889143230094151e+000	 4.666036528507398e+000
1	 1.313491324479492e+000	 2.903363296957934e+000	 4.556043326170383e+000
1	 1.282411913972944e+000	 2.917224257507826e+000	 4.398001232166404e+000
1	 1.251248884831276e+000	 2.930725788936877e+000	 4.188040332064818e+000
1	 1.571434261527091e+000	 2.802863982003876e+000	 4.543117847317554e+000
1	 1.540988380550389e+000	 2.819717578038901e+000	 4.654510780228347e+000
1	 1.510409454039345e+000	 2.836215065351122e+000	 4.748165675207305e+000
1	 1.479703576733828e+000	 2.852355182314455e+000	 4.819898578628666e+000
1	 1.448876849523699e+000	 2.868136802917896e+000	 4.865606047731681e+000
1	 1.417935375776931e+000	 2.883558936326929e+000	 4.881270776027184e+000
1	 1.386885257702045e+000	 2.898620726329122e+000	 4.862967004449961e+000
1	 1.355732592749046e+000	 2.913321450666013e+000	 4.806865710367823e+000
1	 1.324483470052802e+000	 2.927660520253484e+000	 4.709239567223848e+000
1	 1.293143966922747e+000	 2.941637478292966e+000	 4.566467668264688e+000
1	 1.261720145382654e+000	 2.955251999276043e+000	 4.375040008489947e+000
1	 1.584475899682721e+000	 2.826125494589216e+000	 4.628718773356485e+000
1	 1.553777342426400e+000	 2.843118961891062e+000	 4.742347304054196e+000
1	 1.522944635465056e+000	 2.859753365054722e+000	 4.838346429450064e+000
1	 1.491983924119970e+000	 2.876027431983614e+000	 4.912928593781176e+000
1	 1.460901359913464e+000	 2.891940027321741e+000	 4.962382828744957e+000
1	 1.429703096866527e+000	 2.907490152011438e+000	 4.983079793508297e+000
1	 1.398395287831081e+000	 2.922676942734390e+000	 4.971476615522851e+000
1	 1.366984080861041e+000	 2.937499671237958e+000	 4.924121525196070e+000
1	 1.335475615626169e+000	 2.951957743549081e+000	 4.837658278078663e+000
1	 1.303876019872661e+000	 2.966050699078124e+000	 4.708830358849501e+000
1	 1.272191405934185e+000	 2.979778209615192e+000	 4.534484962004634e+000
1	 1.597517537837919e+000	 2.849387007174854e+000	 4.696217872571724e+000
1	 1.566566304302014e+000	 2.866520345743511e+000	 4.811641567042528e+000
1	 1.535479816890413e+000	 2.883291664758588e+000	 4.909428060276918e+000
1	 1.504264271505810e+000	 2.899699681653019e+000	 4.986185567464687e+000
1	 1.472925870302978e+000	 2.915743251725803e+000	 5.038594680688425e+000
1	 1.441470817955927e+000	 2.931421367696138e+000	 5.063412821240628e+000
1	 1.409905317959977e+000	 2.946733159139817e+000	 5.057478508433601e+000
1	 1.378235568972946e+000	 2.961677891810029e+000	 5.017715438886261e+000
1	 1.346467761199496e+000	 2.976254966844774e+000	 4.941136370827997e+000
1	 1.314608072822576e+000	 2.990463919863343e+000	 4.824846808522683e+000
1	 1.282662666485751e+000	 3.004304419954371e+000	 4.666048482482804e+000
1	 1.610559175992701e+000	 2.872648519760826e+000	 4.745900104919955e+000
1	 1.579355266177241e+000	 2.889921729596284e+000	 4.862640149793025e+000
1	 1.548014998315415e+000	 2.906829964462771e+000	 4.961613883679899e+000
1	 1.516544618891328e+000	 2.923371931322718e+000	 5.039824678759885e+000
1	 1.484950380692207e+000	 2.939546476130134e+000	 5.094343791162291e+000
1	 1.453238539045079e+000	 2.955352583381074e+000	 5.122314223234203e+000
1	 1.421415348088662e+000	 2.970789375545450e+000	 5.120954418607634e+000
1	 1.389487057084678e+000	 2.985856112382272e+000	 5.087561784982039e+000
1	 1.357459906772683e+000	 3.000552190140606e+000	 5.019516040036991e+000
1	 1.325340125772382e+000	 3.014877140648669e+000	 4.914282376393428e+000
1	 1.293133927037235e+000	 3.028830630293632e+000	 4.769414442049000e+000
1	 1.623600814147085e+000	 2.895910032347164e+000	 4.778041274549512e+000
1	 1.592144228052090e+000	 2.913323113449428e+000	 4.895581710231824e+000
1	 1.560550179740057e+000	 2.930368264167312e+000	 4.995100683076259e+000
1	 1.528824966276507e+000	 2.947044180992758e+000	 5.073996120819311e+000
1	 1.496974891081117e+000	 2.963349700534780e+000	 5.129729064463399e+000
1	 1.465006260133933e+000	 2.979283799066296e+000	 5.159826938076731e+000
1	 1.432925378217068e+000	 2.994845591951334e+000	 5.161886668314236e+000
1	 1.400738545196150e+000	 3.010034332954731e+000	 5.133577649504157e+000
1	 1.368452052345631e+000	 3.024849413436621e+000	 5.072644550584831e+000
1	 1.336072178721969e+000	 3.039290361434152e+000	 4.976909960620191e+000
1	 1.303605187588521e+000	 3.053356840633026e+000	 4.844276870066803e+000
1	 1.636642452301086e+000	 2.919171544933902e+000	 4.792908394592027e+000
1	 1.604933189926567e+000	 2.936724497302984e+000	 4.910697299271973e+000
1	 1.573085361164337e+000	 2.953906563872260e+000	 5.010078969583752e+000
1	 1.541105313661329e+000	 2.970716430663187e+000	 5.088845299520135e+000
1	 1.508999401469674e+000	 2.987152924939791e+000	 5.144846252400742e+000
1	 1.476773981222437e+000	 3.003215014751852e+000	 5.175992535726297e+000
1	 1.444435408345127e+000	 3.018901808357515e+000	 5.180258143285512e+000
1	 1.411990033307279e+000	 3.034212553527452e+000	 5.155682761284580e+000
1	 1.379444197918242e+000	 3.049146636732866e+000	 5.100374035649778e+000
1	 1.346804231671228e+000	 3.063703582219837e+000	 5.012509698034940e+000
1	 1.314076448139491e+000	 3.077883050972602e+000	 4.890339548447296e+000
1	 1.649684090454720e+000	 2.942433057521074e+000	 4.790760034650882e+000
1	 1.617722151800683e+000	 2.960125881156992e+000	 4.908210661501026e+000
1	 1.585620542588254e+000	 2.977444863577661e+000	 5.006733229950044e+000
1	 1.553385661045779e+000	 2.994388680334057e+000	 5.084513022694101e+000
1	 1.521023911857845e+000	 3.010956149345216e+000	 5.139788078906187e+000
1	 1.488541702310539e+000	 3.027146230437786e+000	 5.170851271610308e+000
1	 1.455945438472771e+000	 3.042958024764042e+000	 5.176052270443930e+000
1	 1.423241521417981e+000	 3.058390774100482e+000	 5.153799387502424e+000
1	 1.390436343490416e+000	 3.073443860029386e+000	 5.102561304276868e+000
1	 1.357536284620048e+000	 3.088116803005770e+000	 5.020868678015246e+000
1	 1.324547708690028e+000	 3.102409261312412e+000	 4.907315626153595e+000
1	 1.662725728608005e+000	 2.965694570108715e+000	 4.771846651936595e+000
1	 1.630511113674446e+000	 2.983527265011494e+000	 4.888338521717948e+000
1	 1.598155724011803e+000	 3.000983163283563e+000	 4.985242162814535e+000
1	 1.565666008429836e+000	 3.018060930005414e+000	 5.061135680452144e+000
1	 1.533048422245595e+000	 3.034759373751101e+000	 5.114644358780785e+000
1	 1.500309423398188e+000	 3.051077446124149e+000	 5.144442138178348e+000
1	 1.467455468599930e+000	 3.067014241170959e+000	 5.149252996678335e+000
1	 1.434493009528169e+000	 3.082568994673866e+000	 5.127852234135998e+000
1	 1.401428489062056e+000	 3.097741083326226e+000	 5.079067658001408e+000
1	 1.368268337568320e+000	 3.112530023792000e+000	 5.001780669821898e+000
1	 1.335018969240017e+000	 3.126935471652506e+000	 4.894927251847076e+000
1	 1.230306363729441e+000	 2.881673368258283e+000	 3.732739264238734e+000
1	 1.199583979858828e+000	 2.894597229204027e+000	 3.410516064048850e+000
1	 1.168791122363753e+000	 2.907167317903020e+000	 3.005257009740875e+000
1	 1.137933641963362e+000	 2.919383696497329e+000	 2.513221676779669e+000
1	 1.107017361446401e+000	 2.931246550353865e+000	 1.930744282063172e+000
1	 1.076048072588372e+000	 2.942756186611073e+000	 1.254238013751177e+000
1	 1.045031533136541e+000	 2.953913032638836e+000	 4.801991829266779e-001
1	 1.013973463865370e+000	 2.964717634414845e+000	-3.947888079461056e-001
1	 9.828795457048584e-001	 2.975170654820722e+000	-1.374051684276163e+000
1	 9.517554169440449e-001	 2.985272871861279e+000	-2.460820710297206e+000
1	 9.206066705118042e-001	 2.995025176810348e+000	-3.658229295173357e+000
1	 1.240777624280165e+000	 2.906199578597639e+000	 3.973823671638497e+000
1	 1.209793759126601e+000	 2.919233435816973e+000	 3.675803979360984e+000
1	 1.178738820540489e+000	 2.931910509798534e+000	 3.296880761210866e+000
1	 1.147618709037034e+000	 2.944230863213301e+000	 2.833032326231815e+000
1	 1.116439296963322e+000	 2.956194683005870e+000	 2.280312735486605e+000
1	 1.085206425389242e+000	 2.967802278928781e+000	 1.634856645756342e+000
1	 1.053925901066823e+000	 2.979054081989313e+000	 8.928839624499556e-001
1	 1.022603493460617e+000	 2.989950642812039e+000	 5.070429591083287e-002
1	 9.912449318515898e-001	 3.000492629920440e+000	-8.952787841169762e-001
1	 9.598559025168251e-001	 3.010680827941015e+000	-1.948563700523561e+000
1	 9.284420459871779e-001	 3.020516135733327e+000	-3.112547031452073e+000
1	 1.251248884831276e+000	 2.930725788936877e+000	 4.188040332064816e+000
1	 1.220003538394792e+000	 2.943869642429749e+000	 3.912864177261640e+000
1	 1.188686518717652e+000	 2.956653701693829e+000	 3.558883275081748e+000
1	 1.157303776111121e+000	 2.969078029928999e+000	 3.121827547937458e+000
1	 1.125861232480630e+000	 2.981142815657544e+000	 2.597504533934261e+000
1	 1.094364778190454e+000	 2.992848371246103e+000	 1.981804678044786e+000
1	 1.062820268997394e+000	 3.004195131339357e+000	 1.270706419804716e+000
1	 1.031233523056087e+000	 3.015183651208757e+000	 4.602810710742895e-001
1	 9.996103179984714e-001	 3.025814605019650e+000	-4.533025219686485e-001
1	 9.679563880896778e-001	 3.036088784020224e+000	-1.473773537812990e+000
1	 9.362774214625443e-001	 3.046007094655771e+000	-2.604754964160553e+000
1	 1.261720145382654e+000	 2.955251999276043e+000	 4.375040008489946e+000
1	 1.230213317663281e+000	 2.968505849042415e+000	 4.121265225265594e+000
1	 1.198634216895123e+000	 2.981396893588967e+000	 3.790771120904365e+000
1	 1.166988843185511e+000	 2.993925196644493e+000	 3.379071224069061e+000
1	 1.135283167998224e+000	 3.006090948308973e+000	 2.881759284939420e+000
1	 1.103523130991923e+000	 3.017894463563139e+000	 2.294514948471657e+000
1	 1.071714636928179e+000	 3.029336180689076e+000	 1.613109211422786e+000
1	 1.039863552651724e+000	 3.040416659605120e+000	 8.334096561733381e-001
1	 1.007975704145466e+000	 3.051136580118482e+000	-4.861454495236853e-002
1	 9.760568736625851e-001	 3.061496740099038e+000	-1.036887860499641e+000
1	 9.441127969379056e-001	 3.071498053577817e+000	-2.135223870792075e+000
1	 1.272191405934185e+000	 2.979778209615192e+000	 4.534484962004636e+000
1	 1.240423096931948e+000	 2.993142055655025e+000	 4.300589895171431e+000
1	 1.208581915072786e+000	 3.006140085484014e+000	 3.992067113705841e+000
1	 1.176673910260096e+000	 3.018772363359864e+000	 3.604244887694917e+000
1	 1.144705103516002e+000	 3.031039080960243e+000	 3.132535046138350e+000
1	 1.112681483793558e+000	 3.042940555879987e+000	 2.572438967876967e+000
1	 1.080609004859105e+000	 3.054477230038581e+000	 1.919553343458712e+000
1	 1.048493582247471e+000	 3.065649668001247e+000	 1.169575700595803e+000
1	 1.016341090292535e+000	 3.076458555217061e+000	 3.183096865739015e-001
1	 9.841573592355286e-001	 3.086904696177588e+000	-6.383298983146678e-001
1	 9.519481724132636e-001	 3.096989012499596e+000	-1.704312321532351e+000
1	 1.282662666485751e+000	 3.004304419954371e+000	 4.666048482482804e+000
1	 1.250632876200675e+000	 3.017778262267638e+000	 4.450434583264815e+000
1	 1.218529613250524e+000	 3.030883277379036e+000	 4.162309650874309e+000
1	 1.186358977334763e+000	 3.043619530075185e+000	 3.796847002297022e+000
1	 1.154127039033863e+000	 3.055987213611442e+000	 3.349307572165681e+000
1	 1.121839836595271e+000	 3.067986648196746e+000	 2.815046157883211e+000
1	 1.089503372790100e+000	 3.079618279387982e+000	 2.189517422782386e+000
1	 1.057123611843272e+000	 3.090882676397256e+000	 1.468281649725982e+000
1	 1.024706476439640e+000	 3.101780530315511e+000	 6.470102382970094e-001
1	 9.922578448084908e-001	 3.112312652256009e+000	-2.785090605231426e-001
1	 9.597835478886195e-001	 3.122479971421242e+000	-1.312367177543068e+000
1	 1.293133927037235e+000	 3.028830630293632e+000	 4.769414442049002e+000
1	 1.260842655469342e+000	 3.042414468880311e+000	 4.570408758691092e+000
1	 1.228477311428221e+000	 3.055626469274102e+000	 4.301052081261586e+000
1	 1.196044044409403e+000	 3.068466696790535e+000	 3.956392276293621e+000
1	 1.163548974551707e+000	 3.080935346262660e+000	 3.531569598139557e+000
1	 1.130998189396973e+000	 3.093032740513514e+000	 3.021823125724953e+000
1	 1.098397740721089e+000	 3.104759328737387e+000	 2.422496944362618e+000
1	 1.065753641439071e+000	 3.116115684793267e+000	 1.729046064909747e+000
1	 1.033071862586746e+000	 3.127102505413966e+000	 9.370420733310945e-001
1	 1.000358330381453e+000	 3.137720608334429e+000	 4.217850451401282e-002
1	 9.676189233639758e-001	 3.147970930342888e+000	-9.597240650358468e-001
1	 1.303605187588521e+000	 3.053356840633026e+000	 4.844276870066803e+000
1	 1.271052434737831e+000	 3.067050675493101e+000	 4.660134438414233e+000
1	 1.238425009605759e+000	 3.080369661169275e+000	 4.407862104691929e+000
1	 1.205729111483903e+000	 3.093313863505989e+000	 4.082411010598753e+000
1	 1.172970910069433e+000	 3.105883478913984e+000	 3.678830157679719e+000
1	 1.140156542198578e+000	 3.118078832830393e+000	 3.192272974028226e+000
1	 1.107292108652001e+000	 3.129900378086907e+000	 2.618003612995432e+000
1	 1.074383671034811e+000	 3.141348693189400e+000	 1.951402976193952e+000
1	 1.041437248733813e+000	 3.152424480512545e+000	 1.187974453896758e+000
1	 1.008458815954396e+000	 3.163128564412980e+000	 3.233493767462981e-001
1	 9.754542988393339e-001	 3.173461889264667e+000	-6.467078264981494e-001
1	 1.314076448139491e+000	 3.077883050972602e+000	 4.890339548447297e+000
1	 1.281262214006022e+000	 3.091686882106064e+000	 4.719245687278179e+000
1	 1.248372707783021e+000	 3.105112853064621e+000	 4.482321200181077e+000
1	 1.215414178558155e+000	 3.118161030221624e+000	 4.174448477375676e+000
1	 1.182392845586939e+000	 3.130831611565499e+000	 3.790613933531496e+000
1	 1.149314894999995e+000	 3.143124925147479e+000	 3.325914643590084e+000
1	 1.116186476582760e+000	 3.155041427436653e+000	 2.775564697461348e+000
1	 1.083013700630438e+000	 3.166581701585775e+000	 2.134901266012018e+000
1	 1.049802634880804e+000	 3.177746455611380e+000	 1.399390371606476e+000
1	 1.016559301527304e+000	 3.188536520491794e+000	 5.646323573037184e-001
1	 9.832896743146951e-001	 3.198952848186712e+000	-3.736329503456524e-001
1	 1.324547708690028e+000	 3.102409261312412e+000	 4.907315626153595e+000
1	 1.291471993273796e+000	 3.116323088719257e+000	 4.747388141782050e+000
1	 1.258320405959892e+000	 3.129856044960207e+000	 4.524024081276727e+000
1	 1.225099245632046e+000	 3.143008196937515e+000	 4.232064328257938e+000
1	 1.191814781104125e+000	 3.155779744217294e+000	 3.866460638992254e+000
1	 1.158473247801138e+000	 3.168171017464872e+000	 3.422282287332301e+000
1	 1.125080844513294e+000	 3.180182476786733e+000	 2.894722415316966e+000
1	 1.091643730225893e+000	 3.191814709982507e+000	 2.279104082103553e+000
1	 1.058168021027681e+000	 3.203068430710596e+000	 1.570886004773477e+000
1	 1.024659787100156e+000	 3.213944476571005e+000	 7.656679854219382e-001
1	 9.911250497900614e-001	 3.224443807109156e+000	-1.408039801946714e-001
1	 1.335018969240017e+000	 3.126935471652506e+000	 4.894927251847076e+000
1	 1.301681772541034e+000	 3.140959295332738e+000	 4.744218556267115e+000
1	 1.268268104136253e+000	 3.154599236856098e+000	 4.532578177031257e+000
1	 1.234784312705468e+000	 3.167855363653740e+000	 4.254832030420395e+000
1	 1.201236716620890e+000	 3.180727876869459e+000	 3.905924428448325e+000
1	 1.167631600601917e+000	 3.193217109782673e+000	 3.480924673717660e+000
1	 1.133975212443531e+000	 3.205323526137257e+000	 2.975033346639191e+000
1	 1.100273759821121e+000	 3.217047718379722e+000	 2.383588278062462e+000
1	 1.066533407174408e+000	 3.228390405810319e+000	 1.702070201260397e+000
1	 1.032760272672935e+000	 3.239352432650741e+000	 9.261080781012026e-001
1	 9.989604252654352e-001	 3.249934766032135e+000	 5.148409512611321e-002
1	 9.206066705118042e-001	 2.995025176810348e+000	-3.658229295173357e+000
1	 8.894388508920191e-001	 3.004428571538802e+000	-4.971517751815250e+000
1	 8.582574502751356e-001	 3.013484164285996e+000	-6.407939181327265e+000
1	 8.270679074953227e-001	 3.022193169862039e+000	-7.973443461838871e+000
1	 7.958756060941372e-001	 3.030556908289346e+000	-9.673804551060540e+000
1	 7.646858720132438e-001	 3.038576802639415e+000	-1.151461325287359e+001
1	 7.335039713734896e-001	 3.046254376817458e+000	-1.350127041953488e+001
1	 7.023351083413049e-001	 3.053591253298464e+000	-1.563898059336689e+001
1	 6.711844230832484e-001	 3.060589150818338e+000	-1.793274609067527e+001
1	 6.400569898093635e-001	 3.067249882023707e+000	-2.038736152953099e+001
1	 6.089578149058431e-001	 3.073575351083983e+000	-2.300740880197589e+001
1	 9.284420459871779e-001	 3.020516135733327e+000	-3.112547031452073e+000
1	 8.970089539361903e-001	 3.029999563695273e+000	-4.392360241240517e+000
1	 8.655621652988902e-001	 3.039132229498540e+000	-5.794575351602866e+000
1	 8.341071651999050e-001	 3.047915358292587e+000	-7.324542031150265e+000
1	 8.026493830006501e-001	 3.056350281334656e+000	-8.987432413611733e+000
1	 7.711941899724105e-001	 3.064438433808137e+000	-1.078823480254040e+001
1	 7.397468970565124e-001	 3.072181352588336e+000	-1.273174779406741e+001
1	 7.083127527125638e-001	 3.079580673959275e+000	-1.482257482020240e+001
1	 6.768969408555946e-001	 3.086638131285180e+000	-1.706511911412911e+001
1	 6.455045788827541e-001	 3.093355552640277e+000	-1.946357909792076e+001
1	 6.141407157900874e-001	 3.099734858400542e+000	-2.202194419210266e+001
1	 9.362774214625443e-001	 3.046007094655771e+000	-2.604754964160553e+000
1	 9.045790569802750e-001	 3.055570555851223e+000	-3.851173617437469e+000
1	 8.728668803224783e-001	 3.064780294710581e+000	-5.218851104319395e+000
1	 8.411464229042434e-001	 3.073637546722664e+000	-6.712540131998752e+000
1	 8.094231599068449e-001	 3.082143654379540e+000	-8.336814971816255e+000
1	 7.777025079311873e-001	 3.090300064976481e+000	-1.009606609264624e+001
1	 7.459898227390770e-001	 3.098108328358891e+000	-1.199449519379911e+001
1	 7.142903970833032e-001	 3.105570094619816e+000	-1.403611063860620e+001
1	 6.826094586273637e-001	 3.112687111751801e+000	-1.622472328888200e+001
1	 6.509521679555173e-001	 3.119461223256674e+000	-1.856394273951630e+001
1	 6.193236166736610e-001	 3.125894365716972e+000	-2.105717395153527e+001
1	 9.441127969379056e-001	 3.071498053577817e+000	-2.135223870792075e+000
1	 9.121491600242940e-001	 3.081141548006778e+000	-3.348262977087402e+000
1	 8.801715953459424e-001	 3.090428359922246e+000	-4.681020370531753e+000
1	 8.481856806083995e-001	 3.099359735152392e+000	-6.137654937078188e+000
1	 8.161969368128004e-001	 3.107937027424103e+000	-7.722146928689559e+000
1	 7.842108258896708e-001	 3.116161696144542e+000	-9.438293516244023e+000
1	 7.522327484212990e-001	 3.124035304129198e+000	-1.128970472247156e+001
1	 7.202680414536518e-001	 3.131559515280150e+000	-1.327979973479028e+001
1	 6.883219763986999e-001	 3.138736092218256e+000	-1.541180359702425e+001
1	 6.563997570278098e-001	 3.145566893872942e+000	-1.768874427812250e+001
1	 6.245065175567315e-001	 3.152053873033303e+000	-2.011345011517039e+001
1	 9.519481724132636e-001	 3.096989012499596e+000	-1.704312321532351e+000
1	 9.197192630682695e-001	 3.106712540162070e+000	-2.883923372008889e+000
1	 8.874763103693232e-001	 3.116076425133662e+000	-4.181328720985695e+000
1	 8.552249383124337e-001	 3.125081923581885e+000	-5.600096468988610e+000
1	 8.229707137185969e-001	 3.133730400468455e+000	-7.143616576934686e+000
1	 7.907191438479603e-001	 3.142023327312415e+000	-8.815097329667877e+000
1	 7.584756741032915e-001	 3.149962279899343e+000	-1.061756215909140e+001
1	 7.262456858237402e-001	 3.157548935940349e+000	-1.255384682550738e+001
1	 6.940344941697477e-001	 3.164785072684600e+000	-1.462659695496875e+001
1	 6.618473460997887e-001	 3.171672564489124e+000	-1.683826592967153e+001
1	 6.296894184394667e-001	 3.178213380349571e+000	-1.919111312766959e+001
1	 9.597835478886195e-001	 3.122479971421242e+000	-1.312367177543068e+000
1	 9.272893661122238e-001	 3.132283532317234e+000	-2.458440219173511e+000
1	 8.947810253926622e-001	 3.141724490344950e+000	-3.720013707372663e+000
1	 8.622641960164071e-001	 3.150804112011263e+000	-5.100067892092110e+000
1	 8.297444906243133e-001	 3.159523773512700e+000	-6.601406060601388e+000
1	 7.972274618061515e-001	 3.167884958480192e+000	-8.226651903024044e+000
1	 7.647185997851699e-001	 3.175889255669407e+000	-9.978247216095836e+000
1	 7.322233301936989e-001	 3.183538356600478e+000	-1.185844994253321e+001
1	 6.997470119406511e-001	 3.190834053150890e+000	-1.386933254267919e+001
1	 6.672949351716104e-001	 3.197778235105263e+000	-1.601278069440109e+001
1	 6.348723193220341e-001	 3.204372887665806e+000	-1.829049231655488e+001
1	 9.676189233639758e-001	 3.147970930342888e+000	-9.597240650358468e-001
1	 9.348594691561778e-001	 3.157854524472396e+000	-2.072089690800860e+000
1	 9.020857404160018e-001	 3.167372555556241e+000	-3.297305187004615e+000
1	 8.693034537203804e-001	 3.176526300440638e+000	-4.637765790188295e+000
1	 8.365182675300302e-001	 3.185317146556945e+000	-6.095691624031852e+000
1	 8.037357797643429e-001	 3.193746589647969e+000	-7.673125958512157e+000
1	 7.709615254670481e-001	 3.201816231439471e+000	-9.371933784975587e+000
1	 7.382009745636574e-001	 3.209527777260609e+000	-1.119380070332735e+001
1	 7.054595297115545e-001	 3.216883033617179e+000	-1.314023211690247e+001
1	 6.727425242434325e-001	 3.223883905721402e+000	-1.521255272997884e+001
1	 6.400552202046016e-001	 3.230532394982041e+000	-1.741190634231798e+001
1	 9.754542988393339e-001	 3.173461889264667e+000	-6.467078264981494e-001
1	 9.424295722001534e-001	 3.183425516627688e+000	-1.725139085652642e+000
1	 9.093904554393824e-001	 3.193020620767654e+000	-2.913425631840938e+000
1	 8.763427114244147e-001	 3.202248488870132e+000	-4.213380430807632e+000
1	 8.432920444358267e-001	 3.211110519601296e+000	-5.626643848809211e+000
1	 8.102440977226320e-001	 3.219608220815843e+000	-7.154682797260040e+000
1	 7.772044511490408e-001	 3.227743207209616e+000	-8.798790170059327e+000
1	 7.441786189337460e-001	 3.235517197920807e+000	-1.056008456864909e+001
1	 7.111720474826019e-001	 3.242932014083524e+000	-1.243951030930514e+001
1	 6.781901133154112e-001	 3.249989576337585e+000	-1.443783770664336e+001
1	 6.452381210873366e-001	 3.256691902298308e+000	-1.655566362683689e+001
1	 9.832896743146951e-001	 3.198952848186712e+000	-3.736329503456524e-001
1	 9.499996752441726e-001	 3.208996508783244e+000	-1.417847182574813e+000
1	 9.166951704628461e-001	 3.218668685979320e+000	-2.568590422740595e+000
1	 8.833819691285707e-001	 3.227970677299859e+000	-3.827096016868228e+000
1	 8.500658213417820e-001	 3.236903892645859e+000	-5.194427879376491e+000
1	 8.167524156811158e-001	 3.245469851983902e+000	-6.671480515313879e+000
1	 7.834473768312622e-001	 3.253670182979923e+000	-8.258979311121246e+000
1	 7.501562633040948e-001	 3.261506618581142e+000	-9.957481087856680e+000
1	 7.168845652539382e-001	 3.268980994549978e+000	-1.176737491035515e+001
1	 6.836377023877035e-001	 3.276095246953852e+000	-1.368888314536578e+001
1	 6.504210219704072e-001	 3.282851409614640e+000	-1.572206276130955e+001
1	 9.911250497900614e-001	 3.224443807109156e+000	-1.408039801946714e-001
1	 9.575697782882571e-001	 3.234567500939191e+000	-1.150464577270155e+000
1	 9.239998854864346e-001	 3.244316751191363e+000	-2.263008129756849e+000
1	 8.904212268329095e-001	 3.253692865729938e+000	-3.479090926395727e+000
1	 8.568395982479764e-001	 3.262697265690743e+000	-4.799203637954276e+000
1	 8.232607336398921e-001	 3.271331483152246e+000	-6.223672209382483e+000
1	 7.896903025138271e-001	 3.279597158750477e+000	-7.752658995429060e+000
1	 7.561339076748334e-001	 3.287496039241681e+000	-9.386164132571196e+000
1	 7.225970830257071e-001	 3.295029975016600e+000	-1.112402713973874e+001
1	 6.890852914604664e-001	 3.302200917570249e+000	-1.296592873997128e+001
1	 6.556039228539802e-001	 3.309010916931070e+000	-1.491139289483741e+001
1	 9.989604252654352e-001	 3.249934766032135e+000	 5.148409512611321e-002
1	 9.651398813324286e-001	 3.260138493095665e+000	-9.232340032218778e-001
1	 9.313046005101890e-001	 3.269964816403907e+000	-1.996880779240960e+000
1	 8.974604845374918e-001	 3.279415054160485e+000	-3.169537940962074e+000
1	 8.636133751544897e-001	 3.288490638736054e+000	-4.441126029343764e+000
1	 8.297690515990591e-001	 3.297193114320970e+000	-5.811406172899778e+000
1	 7.959332281968499e-001	 3.305524134521356e+000	-7.279982059813232e+000
1	 7.621115520460927e-001	 3.313485459902493e+000	-8.846302119343806e+000
1	 7.283096007980531e-001	 3.321078955483442e+000	-1.050966190405049e+001
1	 6.945328805338571e-001	 3.328306588186819e+000	-1.226920666410119e+001
1	 6.607868237382243e-001	 3.335170424247628e+000	-1.412393410472211e+001
1	 6.089578149058431e-001	 3.073575351083983e+000	-2.300740880197589e+001
1	 5.778964908983216e-001	 3.079566677810540e+000	-2.582288160486717e+001
1	 5.468732083162867e-001	 3.085226917223479e+000	-2.887042635204286e+001
1	 5.158927506883084e-001	 3.090558234994752e+000	-3.216305243399930e+001
1	 4.849598273529440e-001	 3.095562878368370e+000	-3.571352444526173e+001
1	 4.540790720423593e-001	 3.100243173639482e+000	-3.953434420541798e+001
1	 4.232550415549730e-001	 3.104601523616498e+000	-4.363773362584633e+001
1	 3.924922145166819e-001	 3.108640405069572e+000	-4.803561843314101e+001
1	 3.617949902300640e-001	 3.112362366168643e+000	-5.273961275793828e+001
1	 3.311676876108508e-001	 3.115770023914197e+000	-5.776100459559934e+001
1	 3.006145442108607e-001	 3.118866061563839e+000	-6.311074214300626e+001
1	 6.141407157900874e-001	 3.099734858400542e+000	-2.202194419210266e+001
1	 5.828150257461738e-001	 3.105777177908166e+000	-2.477112908991680e+001
1	 5.515277009021272e-001	 3.111485592184849e+000	-2.774870485587026e+001
1	 5.202835654996195e-001	 3.116862285334807e+000	-3.096712262505134e+001
1	 4.890873689588724e-001	 3.121909523728591e+000	-3.443858450627798e+001
1	 4.579437844502214e-001	 3.126629653460698e+000	-3.817502636910299e+001
1	 4.268574075554643e-001	 3.131025097790100e+000	-4.218810146657657e+001
1	 3.958327550185428e-001	 3.135098354567003e+000	-4.648916490363506e+001
1	 3.648742635849503e-001	 3.138851993649093e+000	-5.108925895874520e+001
1	 3.339862889291539e-001	 3.142288654310430e+000	-5.599909926423530e+001
1	 3.031731046692104e-001	 3.145411042646106e+000	-6.122906184861395e+001
1	 6.193236166736610e-001	 3.125894365716972e+000	-2.105717395153527e+001
1	 5.877335605933207e-001	 3.131987678005702e+000	-2.373612459158539e+001
1	 5.561821934872365e-001	 3.137744267146154e+000	-2.663905907123597e+001
1	 5.246743803101857e-001	 3.143166335674824e+000	-2.977772654751197e+001
1	 4.932149105640552e-001	 3.148256169088801e+000	-3.316362453303588e+001
1	 4.618084968573515e-001	 3.153016133281928e+000	-3.680798266054825e+001
1	 4.304597735552533e-001	 3.157448671963742e+000	-4.072174726501230e+001
1	 3.991732955197487e-001	 3.161556304064507e+000	-4.491556679187238e+001
1	 3.679535369392488e-001	 3.165341621129662e+000	-4.939977803787281e+001
1	 3.368048902469567e-001	 3.168807284706830e+000	-5.418439322873125e+001
1	 3.057316651271697e-001	 3.171956023728603e+000	-5.927908793591018e+001
1	 6.245065175567315e-001	 3.152053873033303e+000	-2.011345011517039e+001
1	 5.926520954399379e-001	 3.158198178103163e+000	-2.271828141970609e+001
1	 5.608366860717978e-001	 3.164002942107413e+000	-2.554195497417833e+001
1	 5.290651951201936e-001	 3.169470386014816e+000	-2.859537794811605e+001
1	 4.973424521686786e-001	 3.174602814449002e+000	-3.188920482748144e+001
1	 4.656732092639322e-001	 3.179402613103171e+000	-3.543382236550779e+001
1	 4.340621395545159e-001	 3.183872246137423e+000	-3.923933532481924e+001
1	 4.025138360204639e-001	 3.188014253562083e+000	-4.331555301793142e+001
1	 3.710328102931063e-001	 3.191831248610334e+000	-4.767197665117952e+001
1	 3.396234915643843e-001	 3.195325915103381e+000	-5.231778747511098e+001
1	 3.082902255848362e-001	 3.198501004811306e+000	-5.726183574243319e+001
1	 6.296894184394667e-001	 3.178213380349571e+000	-1.919111312766959e+001
1	 5.975706302862025e-001	 3.184408678200579e+000	-2.171799927648912e+001
1	 5.654911786559937e-001	 3.190261617068638e+000	-2.445784319915452e+001
1	 5.334560099298289e-001	 3.195774436354789e+000	-2.742057365923704e+001
1	 5.014699937729290e-001	 3.200949459809202e+000	-3.061586724443676e+001
1	 4.695379216701472e-001	 3.205789092924431e+000	-3.405313470989223e+001
1	 4.376645055534270e-001	 3.210295820311139e+000	-3.774150807843525e+001
1	 4.058543765208516e-001	 3.214472203059717e+000	-4.168982850326180e+001
1	 3.741120836466699e-001	 3.218320876091100e+000	-4.590663489655831e+001
1	 3.424420928815618e-001	 3.221844545500062e+000	-5.040015332575102e+001
1	 3.108487860423075e-001	 3.225045985894189e+000	-5.517828717721845e+001
1	 6.348723193220341e-001	 3.204372887665806e+000	-1.829049231655488e+001
1	 6.024891651322907e-001	 3.210619178297972e+000	-2.073566481196368e+001
1	 5.701456712400070e-001	 3.216520292029850e+000	-2.338715966526027e+001
1	 5.378468247392780e-001	 3.222078486694757e+000	-2.625379428930460e+001
1	 5.055975353769930e-001	 3.227296105169404e+000	-2.934413594458316e+001
1	 4.734026340761792e-001	 3.232175572745705e+000	-3.266648967857933e+001
1	 4.412668715521625e-001	 3.236719394484886e+000	-3.622888697981951e+001
1	 4.091949170210756e-001	 3.240930152557404e+000	-4.003907515027124e+001
1	 3.771913570000865e-001	 3.244810503571943e+000	-4.410450739799196e+001
1	 3.452606941986142e-001	 3.248363175896857e+000	-4.843233365020377e+001
1	 3.134073464996812e-001	 3.251590966977224e+000	-5.302939208529698e+001
1	 6.400552202046016e-001	 3.230532394982041e+000	-1.741190634231798e+001
1	 6.074076999783787e-001	 3.236829678395365e+000	-1.977165215243308e+001
1	 5.748001638240200e-001	 3.242778966991062e+000	-2.233032617202387e+001
1	 5.422376395487272e-001	 3.248382537034726e+000	-2.509550487967843e+001
1	 5.097250769810570e-001	 3.253642750529616e+000	-2.807451811085970e+001
1	 4.772673464822108e-001	 3.258562052566995e+000	-3.127443879444378e+001
1	 4.448692375508982e-001	 3.263142968658663e+000	-3.470207335382674e+001
1	 4.125354575212996e-001	 3.267388102055136e+000	-3.836395277431758e+001
1	 3.802706303535030e-001	 3.271300131052852e+000	-4.226632433693739e+001
1	 3.480792955156666e-001	 3.274881806293745e+000	-4.641514401719360e+001
1	 3.159659069570548e-001	 3.278135948060387e+000	-5.081606954590105e+001
1	 6.452381210873366e-001	 3.256691902298308e+000	-1.655566362683688e+001
1	 6.123262348246433e-001	 3.263040178492782e+000	-1.882632340346166e+001
1	 5.794546564082159e-001	 3.269037641952292e+000	-2.128775096648568e+001
1	 5.466284543583625e-001	 3.274686587374711e+000	-2.394615552986332e+001
1	 5.138526185853074e-001	 3.279989395889841e+000	-2.680750463033458e+001
1	 4.811320588884258e-001	 3.284948532388303e+000	-2.987751585984011e+001
1	 4.484716035498094e-001	 3.289566542832465e+000	-3.316164920464641e+001
1	 4.158759980216870e-001	 3.293846051552904e+000	-3.666509999078462e+001
1	 3.833499037070666e-001	 3.297789758533815e+000	-4.039279243400397e+001
1	 3.508978968328441e-001	 3.301400436690709e+000	-4.434937379109071e+001
1	 3.185244674145261e-001	 3.304680929143654e+000	-4.853920910810030e+001
1	 6.504210219704072e-001	 3.282851409614640e+000	-1.572206276130955e+001
1	 6.172447696712605e-001	 3.289250678590245e+000	-1.790002912881236e+001
1	 5.841091489927768e-001	 3.295296316913555e+000	-2.025982928316540e+001
1	 5.510192691683702e-001	 3.300990637714720e+000	-2.280618199283200e+001
1	 5.179801601899307e-001	 3.306336041250084e+000	-2.554357074347596e+001
1	 4.849967712950066e-001	 3.311335012209629e+000	-2.847623766263523e+001
1	 4.520739695490715e-001	 3.315990117006285e+000	-3.160817798558886e+001
1	 4.192165385224019e-001	 3.320304001050699e+000	-3.494313505974444e+001
1	 3.864291770609240e-001	 3.324279386014817e+000	-3.848459588369494e+001
1	 3.537164981502716e-001	 3.327919067087727e+000	-4.223578717596231e+001
1	 3.210830278721925e-001	 3.331225910226997e+000	-4.619967196736264e+001
1	 6.556039228539802e-001	 3.309010916931070e+000	-1.491139289483741e+001
1	 6.221633045184069e-001	 3.315461178687778e+000	-1.699310880666738e+001
1	 5.887636415778862e-001	 3.321554991874869e+000	-1.924694385841630e+001
1	 5.554100839789363e-001	 3.327294688054762e+000	-2.167600624211034e+001
1	 5.221077017951132e-001	 3.332682686610352e+000	-2.428317666262539e+001
1	 4.888614837021363e-001	 3.337721492030971e+000	-2.707110464875146e+001
1	 4.556763355488605e-001	 3.342413691180124e+000	-3.004220533235818e+001
1	 4.225570790236078e-001	 3.346761950548516e+000	-3.319865669055576e+001
1	 3.895084504152222e-001	 3.350769013495848e+000	-3.654239724481219e+001
1	 3.565350994680742e-001	 3.354437697484785e+000	-4.007512421010067e+001
1	 3.236415883301516e-001	 3.357770891310391e+000	-4.379829208630535e+001
1	 6.607868237382243e-001	 3.335170424247628e+000	-1.412393410472211e+001
1	 6.270818393662591e-001	 3.341671678785408e+000	-1.610589126437837e+001
1	 5.934181341637264e-001	 3.347813666836248e+000	-1.824946542057387e+001
1	 5.598008987902472e-001	 3.353598738394850e+000	-2.055603701217429e+001
1	 5.262352434010413e-001	 3.359029331970649e+000	-2.302676816136517e+001
1	 4.927261961099982e-001	 3.364107971852334e+000	-2.566260156305860e+001
1	 4.592787015493515e-001	 3.368837265353978e+000	-2.846425976181651e+001
1	 4.258976195254683e-001	 3.373219900046345e+000	-3.143224480859607e+001
1	 3.925877237701084e-001	 3.377258640976893e+000	-3.456683828895697e+001
1	 3.593537007863771e-001	 3.380956327881860e+000	-3.786810171374732e+001
1	 3.262001487885013e-001	 3.384315872393811e+000	-4.133587726270343e+001
1	 3.006145442108607e-001	 3.118866061563839e+000	-6.311074214300626e+001
1	 2.701351603285507e-001	 3.121653621246674e+000	-6.880263282485231e+001
1	 2.397382515072781e-001	 3.124135025063762e+000	-7.485072677743318e+001
1	 2.094278692182750e-001	 3.126313141612288e+000	-8.126828589500832e+001
1	 1.792079785623931e-001	 3.128190895538556e+000	-8.806819943932996e+001
1	 1.490824577193054e-001	 3.129771264960268e+000	-9.526297049398103e+001
1	 1.190550974780862e-001	 3.131057278902433e+000	-1.028647033635215e+002
1	 8.912960084760466e-002	 3.132052014749406e+000	-1.108850919124190e+002
1	 5.930958274510228e-002	 3.132758595715478e+000	-1.193354088368660e+002
1	 2.959856976126172e-002	 3.133180188336288e+000	-1.282264958607915e+002
1	 0.000000000000000e+000	 3.133319999983334e+000	-1.375687548456866e+002
1	 3.031731046692104e-001	 3.145411042646106e+000	-6.122906184861395e+001
1	 2.724343077016805e-001	 3.148222327528214e+000	-6.679325857605217e+001
1	 2.417786877487560e-001	 3.150724850821440e+000	-7.270669410974121e+001
1	 2.112103307641123e-001	 3.152921505537871e+000	-7.898297322949868e+001
1	 1.807332355959375e-001	 3.154815241215753e+000	-8.563532117097596e+001
1	 1.503513134314467e-001	 3.156409061319833e+000	-9.267656946651482e+001
1	 1.200683873234671e-001	 3.157706020655442e+000	-1.001191427647362e+002
1	 8.988819179751452e-002	 3.158709222798845e+000	-1.079750466238203e+002
1	 5.981437253772146e-002	 3.159421817546308e+000	-1.162558562714887e+002
1	 2.985048614990561e-002	 3.159846998384162e+000	-1.249727063228329e+002
1	 0.000000000000000e+000	 3.159987999982150e+000	-1.341362814453741e+002
1	 3.057316651271697e-001	 3.171956023728603e+000	-5.927908793591018e+001
1	 2.747334550745512e-001	 3.174791033810060e+000	-6.469819557544491e+001
1	 2.438191239901174e-001	 3.177314676579507e+000	-7.045752815603854e+001
1	 2.129927923099747e-001	 3.179529869463931e+000	-7.657080666209070e+001
1	 1.822584926296357e-001	 3.181439586893518e+000	-8.305137021002423e+001
1	 1.516201691438457e-001	 3.183046857680052e+000	-8.991216152178386e+001
1	 1.210816771691728e-001	 3.184354762409182e+000	-9.716571339664563e+001
1	 9.064678274776827e-002	 3.185366430849083e+000	-1.048241361763100e+002
1	 6.031916233064413e-002	 3.186085039377992e+000	-1.128991061962441e+002
1	 3.010240253874203e-002	 3.186513808432925e+000	-1.214018552143400e+002
1	 0.000000000000000e+000	 3.186655999981866e+000	-1.303431608061430e+002
1	 3.082902255848362e-001	 3.198501004811306e+000	-5.726183574243319e+001
1	 2.770326024472274e-001	 3.201359740092179e+000	-6.251859154351688e+001
1	 2.458595602313915e-001	 3.203904502337920e+000	-6.810452679270262e+001
1	 2.147752538558560e-001	 3.206138233390415e+000	-7.403325798154577e+001
1	 1.837837496634492e-001	 3.208063932571783e+000	-8.031802191521834e+001
1	 1.528890248564379e-001	 3.209684654040851e+000	-8.697166106138887e+001
1	 1.220949670151220e-001	 3.211003504163571e+000	-9.400660990284537e+001
1	 9.140537369827995e-002	 3.212023638900031e+000	-1.014348822888517e+002
1	 6.082395212379443e-002	 3.212748261210434e+000	-1.092680597782239e+002
1	 3.035431892772286e-002	 3.213180618482476e+000	-1.175172809651832e+002
1	 0.000000000000000e+000	 3.213323999982383e+000	-1.261932317772249e+002
1	 3.108487860423075e-001	 3.225045985894189e+000	-5.517828717721845e+001
1	 2.793317498197742e-001	 3.227928446374532e+000	-6.025555641373637e+001
1	 2.478999964726072e-001	 3.230494328096633e+000	-6.564894516542933e+001
1	 2.165577154017498e-001	 3.232746597317268e+000	-7.137175052013465e+001
1	 1.853090066973396e-001	 3.234688278250491e+000	-7.743689648656596e+001
1	 1.541578805691588e-001	 3.236322450402154e+000	-8.385691945805769e+001
1	 1.231082568612337e-001	 3.237652245918531e+000	-9.064395467149808e+001
1	 9.216396464896356e-002	 3.238680846951602e+000	-9.780972365649622e+001
1	 6.132874191709650e-002	 3.239411483043539e+000	-1.053655226678289e+002
1	 3.060623531679994e-002	 3.239847428532718e+000	-1.133222120922995e+002
1	 0.000000000000000e+000	 3.239991999983599e+000	-1.216902068193371e+002
1	 3.134073464996812e-001	 3.251590966977224e+000	-5.302939208529698e+001
1	 2.816308971922560e-001	 3.254497152657088e+000	-5.791016387496185e+001
1	 2.499404327137938e-001	 3.257084153855606e+000	-6.309199743343561e+001
1	 2.183401769476500e-001	 3.259354961244440e+000	-6.858766113155555e+001
1	 1.868342637312685e-001	 3.261312623929575e+000	-7.440956121683385e+001
1	 1.554267362819441e-001	 3.262960246763894e+000	-8.056972762838610e+001
1	 1.241215467074266e-001	 3.264300987673977e+000	-8.707980078468891e+001
1	 9.292255559973316e-002	 3.265338055003706e+000	-9.395101933928915e+001
1	 6.183353171047444e-002	 3.266074704877214e+000	-1.011942088976127e+002
1	 3.085815170592516e-002	 3.266514238583551e+000	-1.088197716861690e+002
1	 0.000000000000000e+000	 3.266659999985416e+000	-1.168376771636655e+002
1	 3.159659069570548e-001	 3.278135948060387e+000	-5.081606954590105e+001
1	 2.839300445647380e-001	 3.281065858939814e+000	-5.548345283890977e+001
1	 2.519808689549805e-001	 3.283673979614793e+000	-6.043485842891466e+001
1	 2.201226384935501e-001	 3.285963325171877e+000	-6.568232207275509e+001
1	 1.883595207651974e-001	 3.287936969608975e+000	-7.123753263365218e+001
1	 1.566955919947295e-001	 3.289598043125997e+000	-7.711181848058203e+001
1	 1.251348365536195e-001	 3.290949729429829e+000	-8.331613482448626e+001
1	 9.368114655050273e-002	 3.291995263056253e+000	-8.986105198652716e+001
1	 6.233832150385239e-002	 3.292737926711360e+000	-9.675674459169699e+001
1	 3.111006809505041e-002	 3.293181048634879e+000	-1.040129816793122e+002
1	 0.000000000000000e+000	 3.293327999987732e+000	-1.116391177201948e+002
1	 3.185244674145261e-001	 3.304680929143654e+000	-4.853920910810030e+001
1	 2.862291919372847e-001	 3.307634565222676e+000	-5.297642883689900e+001
1	 2.540213051961963e-001	 3.310263805374154e+000	-5.767866523651643e+001
1	 2.219051000394439e-001	 3.312571689099526e+000	-6.265702279505537e+001
1	 1.898847777990878e-001	 3.314561315288624e+000	-6.792227853837983e+001
1	 1.579644477074505e-001	 3.316235839488389e+000	-7.348486924423945e+001
1	 1.261481263997312e-001	 3.317598471186007e+000	-7.935487954376147e+001
1	 9.443973750118642e-002	 3.318652471109158e+000	-8.554203090562086e+001
1	 6.284311129715450e-002	 3.319401148545888e+000	-9.205567149641408e+001
1	 3.136198448412752e-002	 3.319847858686600e+000	-9.890476690906581e+001
1	 0.000000000000000e+000	 3.319995999990449e+000	-1.060978917494802e+002
1	 3.210830278721925e-001	 3.331225910226997e+000	-4.619967196736264e+001
1	 2.885283393099610e-001	 3.334203271505640e+000	-5.039006534981402e+001
1	 2.560617414374702e-001	 3.336853631133645e+000	-5.482451869730971e+001
1	 2.236875615853252e-001	 3.339180053027334e+000	-5.951301164964294e+001
1	 1.914100348329013e-001	 3.341185660968463e+000	-6.446521994748875e+001
1	 1.592333034200427e-001	 3.342873635850998e+000	-6.969050368872293e+001
1	 1.271614162456806e-001	 3.344247212942430e+000	-7.519789640931488e+001
1	 9.519832845169815e-002	 3.345309679162326e+000	-8.099609498423160e+001
1	 6.334790109030486e-002	 3.346064370380699e+000	-8.709345034214033e+001
1	 3.161390087310839e-002	 3.346514668738616e+000	-9.349795898611470e+001
1	 0.000000000000000e+000	 3.346663999993465e+000	-1.002172553110581e+002
1	 3.236415883301516e-001	 3.357770891310391e+000	-4.379829208630535e+001
1	 2.908274866828316e-001	 3.360771977788671e+000	-4.772530507498446e+001
1	 2.581021776788315e-001	 3.363443456893221e+000	-5.187348484140727e+001
1	 2.254700231311878e-001	 3.365788416955247e+000	-5.625149751216259e+001
1	 1.929352918665995e-001	 3.367810006648428e+000	-6.086773294186297e+001
1	 1.605021591324418e-001	 3.369511432213754e+000	-6.573029423632745e+001
1	 1.281747060913863e-001	 3.370895954699014e+000	-7.084698802437269e+001
1	 9.595691940195203e-002	 3.371966887215674e+000	-7.622531547380056e+001
1	 6.385269088322762e-002	 3.372727592215699e+000	-8.187246404567179e+001
1	 3.186581726194487e-002	 3.373181478790831e+000	-8.779529997952403e+001
1	 0.000000000000000e+000	 3.373331999996682e+000	-9.400036150085187e+001
1	 3.262001487885013e-001	 3.384315872393811e+000	-4.133587726270343e+001
1	 2.931266340559612e-001	 3.387340684071736e+000	-4.498306113344305e+001
1	 2.601426139203095e-001	 3.390033282652841e+000	-4.882659625316940e+001
1	 2.272524846770250e-001	 3.392396780883214e+000	-5.287365133085530e+001
1	 1.944605489001440e-001	 3.394434352328458e+000	-5.713115042906670e+001
1	 1.617710148445833e-001	 3.396149228576582e+000	-6.160576397598928e+001
1	 1.291879959367674e-001	 3.397544696455680e+000	-6.630390043707854e+001
1	 9.671551035186207e-002	 3.398624095269112e+000	-7.123169864208424e+001
1	 6.435748067584694e-002	 3.399390814050797e+000	-7.639502076188909e+001
1	 3.211773365058886e-002	 3.399848288843145e+000	-8.179944592835155e+001
1	 0.000000000000000e+000	 3.400000000000000e+000	-8.745026448916265e+001
1	 3.400000000000000e+000	 0.000000000000000e+000	 6.678378094232897e+001
1	 3.399848288843145e+000	 3.211773365058896e-002	 6.247200010788018e+001
1	 3.399390814050797e+000	 6.435748067584715e-002	 5.829188966690699e+001
1	 3.398624095269110e+000	 9.671551035186184e-002	 5.424549179546350e+001
1	 3.397544696455680e+000	 1.291879959367673e-001	 5.033476119155618e+001
1	 3.396149228576581e+000	 1.617710148445832e-001	 4.656156282095375e+001
1	 3.394434352328458e+000	 1.944605489001441e-001	 4.292766974197961e+001
1	 3.392396780883214e+000	 2.272524846770251e-001	 3.943476101490059e+001
1	 3.390033282652842e+000	 2.601426139203092e-001	 3.608441970151426e+001
1	 3.387340684071737e+000	 2.931266340559610e-001	 3.287813096051085e+001
1	 3.384315872393811e+000	 3.262001487885011e-001	 2.981728024414474e+001
1	 3.426668000003317e+000	 0.000000000000000e+000	 6.337823655811965e+001
1	 3.426515098895459e+000	 3.236965003900857e-002	 5.929446003212178e+001
1	 3.426054035885893e+000	 6.486227046811326e-002	 5.533150335949036e+001
1	 3.425281303322550e+000	 9.747410130137259e-002	 5.149183629116937e+001
1	 3.424193438212349e+000	 1.302012857817725e-001	 4.777784499595688e+001
1	 3.422787024939412e+000	 1.630398705564287e-001	 4.419182922714353e+001
1	 3.421058698008491e+000	 1.959858059335152e-001	 4.073599954728141e+001
1	 3.419005144811186e+000	 2.290349462228409e-001	 3.741247461714925e+001
1	 3.416623108412468e+000	 2.621830501619324e-001	 3.422327855503038e+001
1	 3.413909390354809e+000	 2.954257814294041e-001	 3.117033837245583e+001
1	 3.410860853477238e+000	 3.287587092473185e-001	 2.825548149258834e+001
1	 3.453336000006534e+000	 0.000000000000000e+000	 6.002006643865410e+001
1	 3.453181908947675e+000	 3.262156642723706e-002	 5.616161153399273e+001
1	 3.452717257720900e+000	 6.536706026008118e-002	 5.241339606550227e+001
1	 3.451938511375909e+000	 9.823269225055065e-002	 4.877831180671988e+001
1	 3.450842179968952e+000	 1.312145756264717e-001	 4.525916934879902e+001
1	 3.449424821302194e+000	 1.643087262680443e-001	 4.185869465067303e+001
1	 3.447683043688490e+000	 1.975110629667697e-001	 3.857952562765867e+001
1	 3.445613508739141e+000	 2.308174077686786e-001	 3.542420878512176e+001
1	 3.443212934172093e+000	 2.642234864037292e-001	 3.239519590394369e+001
1	 3.440478096637889e+000	 2.977249288031721e-001	 2.949484078462610e+001
1	 3.437405834560681e+000	 3.313172697066004e-001	 2.672539605695781e+001
1	 3.480004000009550e+000	 0.000000000000000e+000	 5.671431257059111e+001
1	 3.479848718999697e+000	 3.287348281532392e-002	 5.307837051395796e+001
1	 3.479380479555727e+000	 6.587185005183192e-002	 4.954232894082765e+001
1	 3.478595719429110e+000	 9.899128319949312e-002	 4.610949614523970e+001
1	 3.477490921725428e+000	 1.322278654709649e-001	 4.278310016288523e+001
1	 3.476062617664880e+000	 1.655775819795217e-001	 3.956628466789139e+001
1	 3.474307389368426e+000	 1.990363199999830e-001	 3.646210488949962e+001
1	 3.472221872667065e+000	 2.325998693145915e-001	 3.347352355592485e+001
1	 3.469802759931711e+000	 2.662639226457270e-001	 3.060340687286113e+001
1	 3.467046802920988e+000	 3.000240761772669e-001	 2.785452054426299e+001
1	 3.463950815644158e+000	 3.338758301663241e-001	 2.522952584318362e+001
1	 3.506672000012267e+000	 0.000000000000000e+000	 5.346586356475583e+001
1	 3.506515529051426e+000	 3.312539920331866e-002	 5.004950333214925e+001
1	 3.506043701390285e+000	 6.637663984344668e-002	 4.672291830830123e+001
1	 3.505252927482078e+000	 9.974987414829721e-002	 4.348982785433983e+001
1	 3.504139663481709e+000	 1.332411553153518e-001	 4.035387054114728e+001
1	 3.502700414027417e+000	 1.668464376909529e-001	 3.731859935624393e+001
1	 3.500931735048262e+000	 2.005615770332309e-001	 3.438747691315410e+001
1	 3.498830236594934e+000	 2.343823308606330e-001	 3.156387067130884e+001
1	 3.496392585691322e+000	 2.683043588879537e-001	 2.885104817478247e+001
1	 3.493615509204113e+000	 3.023232235516896e-001	 2.625217231839164e+001
1	 3.490495796727684e+000	 3.364343906264662e-001	 2.377029664990130e+001
1	 3.533340000014583e+000	 0.000000000000000e+000	 5.027946044418578e+001
1	 3.533182339102767e+000	 3.337731559127077e-002	 4.707963245166873e+001
1	 3.532706923224484e+000	 6.688142963500651e-002	 4.395964112336833e+001
1	 3.531910135534731e+000	 1.005084650970601e-001	 4.092361148129564e+001
1	 3.530788405237732e+000	 1.342544451597326e-001	 3.797558578858043e+001
1	 3.529338210389759e+000	 1.681152934024299e-001	 3.511951803030772e+001
1	 3.527556080727968e+000	 2.020868340665887e-001	 3.235926838054445e+001
1	 3.525438600522740e+000	 2.361647924068565e-001	 2.969859766448120e+001
1	 3.522982411450922e+000	 2.703447951304369e-001	 2.714116182492417e+001
1	 3.520184215487275e+000	 3.046223709264417e-001	 2.469050640266768e+001
1	 3.517040777811276e+000	 3.389929510870034e-001	 2.235006104056304e+001
1	 3.560008000016400e+000	 0.000000000000000e+000	 4.715970217202790e+001
1	 3.559849149153620e+000	 3.362923197922979e-002	 4.417324182824828e+001
1	 3.559370145058234e+000	 6.738621942659254e-002	 4.125684019408705e+001
1	 3.558567343586992e+000	 1.012670560458787e-001	 3.841502259202571e+001
1	 3.557437146993432e+000	 1.352677350042070e-001	 3.565222819891148e+001
1	 3.555976006751857e+000	 1.693841491140445e-001	 3.297280376496150e+001
1	 3.554180426407513e+000	 2.036120911001322e-001	 3.038099730377255e+001
1	 3.552046964450459e+000	 2.379472539533151e-001	 2.788095176323455e+001
1	 3.549572237210508e+000	 2.723852313732046e-001	 2.547669868762228e+001
1	 3.546752921770479e+000	 3.069215183015246e-001	 2.317215188150439e+001
1	 3.543585758894952e+000	 3.415515115479126e-001	 2.097110108645934e+001
1	 3.586676000017616e+000	 0.000000000000000e+000	 4.411105093282561e+001
1	 3.586515959203890e+000	 3.388114836724521e-002	 4.133468205946662e+001
1	 3.586033366891444e+000	 6.789100921828585e-002	 3.861872916825634e+001
1	 3.585224551638781e+000	 1.020256469948502e-001	 3.596811256616517e+001
1	 3.584085888748746e+000	 1.362810248488751e-001	 3.338766162772527e+001
1	 3.582613803113660e+000	 1.706530048258888e-001	 3.088210771676863e+001
1	 3.580804772086859e+000	 2.051373481339368e-001	 2.845607706508187e+001
1	 3.578655328378077e+000	 2.397297155000623e-001	 2.611408361894922e+001
1	 3.576162062970080e+000	 2.744256676162844e-001	 2.386052186500162e+001
1	 3.573321628053737e+000	 3.092206656769395e-001	 2.169965964722113e+001
1	 3.570130739978726e+000	 3.441100720091705e-001	 1.963563098736980e+001
1	 3.613344000018133e+000	 0.000000000000000e+000	 4.113783717993733e+001
1	 3.613182769253481e+000	 3.413306475536653e-002	 3.856817530594586e+001
1	 3.612696588724027e+000	 6.839579901016757e-002	 3.604939729970146e+001
1	 3.611881759690020e+000	 1.027842379440719e-001	 3.358681317980108e+001
1	 3.610734630503605e+000	 1.372943146938367e-001	 3.118563586308145e+001
1	 3.609251599475124e+000	 1.719218605380546e-001	 2.885097325399880e+001
1	 3.607429117765978e+000	 2.066626051680781e-001	 2.658782027791923e+001
1	 3.605263692305578e+000	 2.415121770471514e-001	 2.440105087046613e+001
1	 3.602751888729632e+000	 2.764661038597041e-001	 2.229540993558594e+001
1	 3.599890334337059e+000	 3.115198130526881e-001	 2.027550528549604e+001
1	 3.596675721062617e+000	 3.466686324707543e-001	 1.834579957616461e+001
1	 3.640012000017849e+000	 0.000000000000000e+000	 3.824426446107969e+001
1	 3.639849579302291e+000	 3.438498114364327e-002	 3.587781999622165e+001
1	 3.639359810555890e+000	 6.890058880231878e-002	 3.355281400504270e+001
1	 3.638538967740630e+000	 1.035428288936408e-001	 3.127494098675932e+001
1	 3.637383372257951e+000	 1.383076045391919e-001	 2.904979080400732e+001
1	 3.635889395836193e+000	 1.731907162506339e-001	 2.688283990510150e+001
1	 3.634053463444836e+000	 2.081878622026318e-001	 2.477944247827220e+001
1	 3.631872056232944e+000	 2.432946385946359e-001	 2.274482155129868e+001
1	 3.629341714489164e+000	 2.785065401034914e-001	 2.078406005054538e+001
1	 3.626459040620449e+000	 3.138189604287712e-001	 1.890209183398018e+001
1	 3.623220702146641e+000	 3.492271929326405e-001	 1.710369271330878e+001
1	 3.666680000016666e+000	 0.000000000000000e+000	 3.543441403329178e+001
1	 3.666516389350228e+000	 3.463689753212492e-002	 3.326759532630010e+001
1	 3.666023032386948e+000	 6.940537859482068e-002	 3.113283322161373e+001
1	 3.665196175790535e+000	 1.043014198436540e-001	 2.903620150869935e+001
1	 3.664032114011715e+000	 1.393208943850406e-001	 2.698366045664787e+001
1	 3.662527192196825e+000	 1.744595719637187e-001	 2.498104713487455e+001
1	 3.660677809123401e+000	 2.097131192376734e-001	 2.303406565492205e+001
1	 3.658480420160158e+000	 2.450771001425689e-001	 2.114827734815944e+001
1	 3.655931540248671e+000	 2.805469763476741e-001	 1.932909089482825e+001
1	 3.653027746903921e+000	 3.161181078051908e-001	 1.758175242052975e+001
1	 3.649765683230813e+000	 3.517857533948059e-001	 1.591133557687405e+001
1	 3.384315872393811e+000	 3.262001487885011e-001	 2.981728024414474e+001
1	 3.380956327881860e+000	 3.593537007863772e-001	 2.688510191522186e+001
1	 3.377258640976893e+000	 3.925877237701081e-001	 2.406492937542004e+001
1	 3.373219900046344e+000	 4.258976195254685e-001	 2.135942558832316e+001
1	 3.368837265353978e+000	 4.592787015493513e-001	 1.877106243136973e+001
1	 3.364107971852335e+000	 4.927261961099983e-001	 1.630211468634869e+001
1	 3.359029331970650e+000	 5.262352434010416e-001	 1.395465419304900e+001
1	 3.353598738394850e+000	 5.598008987902470e-001	 1.173054418114350e+001
1	 3.347813666836249e+000	 5.934181341637267e-001	 9.631433795435740e+000
1	 3.341671678785408e+000	 6.270818393662587e-001	 7.658752829609584e+000
1	 3.335170424247629e+000	 6.607868237382245e-001	 5.813706683588907e+000
1	 3.410860853477238e+000	 3.287587092473185e-001	 2.825548149258834e+001
1	 3.407474958278943e+000	 3.621723021052771e-001	 2.546120610080827e+001
1	 3.403748268457944e+000	 3.956669971256944e-001	 2.277014248575760e+001
1	 3.399677849544182e+000	 4.292381600281079e-001	 2.018537886560367e+001
1	 3.395260839527842e+000	 4.628810675506773e-001	 1.770980924272459e+001
1	 3.390494451673717e+000	 4.965909085187303e-001	 1.534612660389830e+001
1	 3.385375977330978e+000	 5.303627850078559e-001	 1.309681627074744e+001
1	 3.379902788734986e+000	 5.641917136024434e-001	 1.096414941673927e+001
1	 3.374072341797700e+000	 5.980726267504357e-001	 8.950176767157441e+000
1	 3.367882178883140e+000	 6.320003742149503e-001	 7.056722498535604e+000
1	 3.361329931564333e+000	 6.659697246232672e-001	 5.285378354075697e+000
1	 3.437405834560681e+000	 3.313172697066004e-001	 2.672539605695781e+001
1	 3.433993588676044e+000	 3.649909034247586e-001	 2.406861234936432e+001
1	 3.430237895939014e+000	 3.987462704819553e-001	 2.150639212196628e+001
1	 3.426135799042037e+000	 4.325787005314929e-001	 1.904221149839066e+001
1	 3.421684413701722e+000	 4.664834335528000e-001	 1.667934996208519e+001
1	 3.416880931495114e+000	 5.004556209282911e-001	 1.442088283444784e+001
1	 3.411722622691324e+000	 5.344903266155145e-001	 1.226967389076866e+001
1	 3.406206839075148e+000	 5.685825284154835e-001	 1.022836813138592e+001
1	 3.400331016759192e+000	 6.027271193379756e-001	 8.299384725636321e+000
1	 3.394092678980937e+000	 6.369189090644474e-001	 6.484910146314861e+000
1	 3.387489438881134e+000	 6.711526255090805e-001	 4.786891512450143e+000
1	 3.463950815644158e+000	 3.338758301663241e-001	 2.522952584318362e+001
1	 3.460512219073185e+000	 3.678095047447778e-001	 2.270944068722204e+001
1	 3.456727523420122e+000	 4.018255438388306e-001	 2.027544152016228e+001
1	 3.452593748539921e+000	 4.359192410355515e-001	 1.793135586218261e+001
1	 3.448107987875623e+000	 4.700857995556378e-001	 1.568081286240943e+001
1	 3.443267411316521e+000	 5.043203333385941e-001	 1.352723512224353e+001
1	 3.438069268051671e+000	 5.386178682239287e-001	 1.147383064450309e+001
1	 3.432510889415307e+000	 5.729733432292812e-001	 9.523584926771230e+000
1	 3.426589691720682e+000	 6.073816119262632e-001	 7.679253217570564e+000
1	 3.420303179078741e+000	 6.418374439146738e-001	 5.943352954179165e+000
1	 3.413648946197965e+000	 6.763355263955971e-001	 4.318156401047954e+000
1	 3.490495796727684e+000	 3.364343906264662e-001	 2.377029664990129e+001
1	 3.487030849470385e+000	 3.706281060652908e-001	 2.138574665009212e+001
1	 3.483217150901286e+000	 4.049048171962604e-001	 1.907900027930155e+001
1	 3.479051698037852e+000	 4.392597815402108e-001	 1.685420076000749e+001
1	 3.474531562049550e+000	 4.736881655591101e-001	 1.471529189490109e+001
1	 3.469653891137935e+000	 5.081850457495538e-001	 1.266600930170545e+001
1	 3.464415913412003e+000	 5.427454098330110e-001	 1.070987176225687e+001
1	 3.458814939755432e+000	 5.773641580437487e-001	 8.850172705105573e+000
1	 3.452848366682128e+000	 6.120361045152155e-001	 7.089971841181995e+000
1	 3.446513679176499e+000	 6.467559787655527e-001	 5.432086972317977e+000
1	 3.439808453514761e+000	 6.815184272827487e-001	 3.879085992608841e+000
1	 3.517040777811276e+000	 3.389929510870034e-001	 2.235006104056304e+001
1	 3.513549479867664e+000	 3.734467073862540e-001	 2.009952371678928e+001
1	 3.509706778382525e+000	 4.079840905541842e-001	 1.791872638532110e+001
1	 3.505509647535838e+000	 4.426003220453980e-001	 1.581209306674644e+001
1	 3.500955136223510e+000	 4.772905315631356e-001	 1.378384798423281e+001
1	 3.496040370959348e+000	 5.120497581610831e-001	 1.183800627520392e+001
1	 3.490762558772303e+000	 5.468729514426730e-001	 9.978364806156566e+000
1	 3.485118990095495e+000	 5.817549728587999e-001	 8.208493110633055e+000
1	 3.479107041643489e+000	 6.166905971047497e-001	 6.531724470697785e+000
1	 3.472724179274159e+000	 6.516745136170080e-001	 4.951147162561433e+000
1	 3.465967960831457e+000	 6.867013281704680e-001	 3.469595887237478e+000
1	 3.543585758894952e+000	 3.415515115479126e-001	 2.097110108645935e+001
1	 3.540068110265041e+000	 3.762653087076237e-001	 1.885270563357169e+001
1	 3.536196405863857e+000	 4.110633639125422e-001	 1.679622814430328e+001
1	 3.531967597033896e+000	 4.459408625510411e-001	 1.480633929955106e+001
1	 3.527378710397506e+000	 4.808928975676332e-001	 1.288751026555413e+001
1	 3.522426850780760e+000	 5.159144705730965e-001	 1.104400294688884e+001
1	 3.517109204132555e+000	 5.510004930528264e-001	 9.279860331910513e+000
1	 3.511423040435468e+000	 5.861457876743472e-001	 7.598896951298472e+000
1	 3.505365716604720e+000	 6.213450896947828e-001	 6.004689470742703e+000
1	 3.498934679371662e+000	 6.565930484689632e-001	 4.500567439144900e+000
1	 3.492127468147986e+000	 6.918842290586874e-001	 3.089604213995771e+000
1	 3.570130739978726e+000	 3.441100720091705e-001	 1.963563098736980e+001
1	 3.566586740662536e+000	 3.790839100293559e-001	 1.764716863478725e+001
1	 3.562686033345299e+000	 4.141426372712738e-001	 1.571306602939797e+001
1	 3.558425546532040e+000	 4.492814030570673e-001	 1.383820711820233e+001
1	 3.553802284571547e+000	 4.844952635725215e-001	 1.202727726631409e+001
1	 3.548813330602161e+000	 5.197791829855072e-001	 1.028475311485945e+001
1	 3.543455849492743e+000	 5.551280346633837e-001	 8.614892521047718e+000
1	 3.537727090775320e+000	 5.905366024903044e-001	 7.021724601603072e+000
1	 3.531624391565783e+000	 6.259995822852323e-001	 5.509039901166752e+000
1	 3.525145179468956e+000	 6.615115833213418e-001	 4.080380707655091e+000
1	 3.518286975464283e+000	 6.970671299473390e-001	 2.739031536885237e+000
1	 3.596675721062617e+000	 3.466686324707543e-001	 1.834579957616461e+001
1	 3.593105371060168e+000	 3.819025113514069e-001	 1.648473356518429e+001
1	 3.589175660826872e+000	 4.172219106303193e-001	 1.467075444595874e+001
1	 3.584883496030281e+000	 4.526219435634038e-001	 1.290892675902915e+001
1	 3.580225858745636e+000	 4.880976295777195e-001	 1.120411803575009e+001
1	 3.575199810423550e+000	 5.236438953982293e-001	 9.560988323826113e+000
1	 3.569802494852850e+000	 5.592555762742565e-001	 7.983979785159721e+000
1	 3.564031141115022e+000	 5.949274173065841e-001	 6.477306387620506e+000
1	 3.557883066526630e+000	 6.306540748760147e-001	 5.044943712802943e+000
1	 3.551355679565987e+000	 6.664301181740676e-001	 3.690618902251308e+000
1	 3.544446482780284e+000	 7.022500308363556e-001	 2.417800764992652e+000
1	 3.623220702146641e+000	 3.492271929326405e-001	 1.710369271330878e+001
1	 3.619624001457956e+000	 3.847211126737331e-001	 1.536716790892949e+001
1	 3.615665288308592e+000	 4.203011839896183e-001	 1.367076341908667e+001
1	 3.611341445528634e+000	 4.559624840699787e-001	 1.201969240579525e+001
1	 3.606649432919778e+000	 4.916999955831460e-001	 1.041897322472640e+001
1	 3.601586290244921e+000	 5.275086078111761e-001	 8.873418680291238e+000
1	 3.596149140212859e+000	 5.633831178853564e-001	 7.387625343581211e+000
1	 3.590335191454546e+000	 5.993182321230999e-001	 5.965962955088687e+000
1	 3.584141741487224e+000	 6.353085674670475e-001	 4.612563934619384e+000
1	 3.577566179662699e+000	 6.713486530270642e-001	 3.331313021250717e+000
1	 3.570605990095922e+000	 7.074329317256695e-001	 2.125837066585552e+000
1	 3.649765683230813e+000	 3.517857533948059e-001	 1.591133557687405e+001
1	 3.646142631855923e+000	 3.875397139962905e-001	 1.429618773008255e+001
1	 3.642154915790480e+000	 4.233804573491110e-001	 1.271452020753280e+001
1	 3.637799395027112e+000	 4.593030245767192e-001	 1.117166350076209e+001
1	 3.633073007093982e+000	 4.953023615887200e-001	 9.672756118450261e+000
1	 3.627972770066271e+000	 5.313733202242620e-001	 8.222733632156631e+000
1	 3.622495785572755e+000	 5.675106594965961e-001	 6.826317775861304e+000
1	 3.616639241793862e+000	 6.037090469397646e-001	 5.488005621438315e+000
1	 3.610400416447522e+000	 6.399630600582474e-001	 4.212058852704766e+000
1	 3.603776679759039e+000	 6.762671878802548e-001	 3.002493161160715e+000
1	 3.596765497411132e+000	 7.126158326152124e-001	 1.863067786956476e+000
1	 3.335170424247629e+000	 6.607868237382245e-001	 5.813706683588909e+000
1	 3.328306588186820e+000	 6.945328805338576e-001	 4.063045786843160e+000
1	 3.321078955483442e+000	 7.283096007980534e-001	 2.374539706815837e+000
1	 3.313485459902493e+000	 7.621115520460923e-001	 7.498403728651241e-001
1	 3.305524134521356e+000	 7.959332281968499e-001	-8.095497394138509e-001
1	 3.297193114320970e+000	 8.297690515990592e-001	-2.302281804748380e+000
1	 3.288490638736053e+000	 8.636133751544897e-001	-3.727164683916215e+000
1	 3.279415054160485e+000	 8.974604845374922e-001	-5.083168787139836e+000
1	 3.269964816403906e+000	 9.313046005101889e-001	-6.369429753747443e+000
1	 3.260138493095666e+000	 9.651398813324287e-001	-7.585251936837923e+000
1	 3.249934766032135e+000	 9.989604252654352e-001	-8.730111681861613e+000
1	 3.361329931564333e+000	 6.659697246232672e-001	 5.285378354075696e+000
1	 3.354412258803586e+000	 6.999804696079965e-001	 3.603814010220331e+000
1	 3.347127935950537e+000	 7.340221185710896e-001	 1.980528781842955e+000
1	 3.339474880563621e+000	 7.680891964179748e-001	 4.173052618809236e-001
1	 3.331451110292614e+000	 8.021761538804227e-001	-1.084219358805476e+000
1	 3.323054745490133e+000	 8.362773695586973e-001	-2.522557638780711e+000
1	 3.314284011781863e+000	 8.703871520613905e-001	-3.896376081693873e+000
1	 3.305137242591581e+000	 9.044997422423740e-001	-5.204499168643596e+000
1	 3.295612881617041e+000	 9.386093155341523e-001	-6.445913215718388e+000
1	 3.285709485252758e+000	 9.727099843767159e-001	-7.619770045297998e+000
1	 3.275425724955747e+000	 1.006795800740831e+000	-8.725390459847342e+000
1	 3.387489438881134e+000	 6.711526255090805e-001	 4.786891512450143e+000
1	 3.380517929420490e+000	 7.054280586828631e-001	 3.174044019774422e+000
1	 3.373176916417826e+000	 7.397346363448024e-001	 1.615729139304573e+000
1	 3.365464301225001e+000	 7.740668407904772e-001	 1.138388464333896e-001
1	 3.357378086064188e+000	 8.084190795645522e-001	-1.329876473938281e+000
1	 3.348916376659676e+000	 8.427856875188232e-001	-2.713812498137791e+000
1	 3.340077384828114e+000	 8.771609289687061e-001	-4.036515290967594e+000
1	 3.330859431023175e+000	 9.115389999475941e-001	-5.296685477784590e+000
1	 3.321260946830720e+000	 9.459140305583734e-001	-6.493182249787274e+000
1	 3.311280477410429e+000	 9.802800874211785e-001	-7.625027190980339e+000
1	 3.300916683879955e+000	 1.014631176216317e+000	-8.691407915411798e+000
1	 3.413648946197965e+000	 6.763355263955971e-001	 4.318156401047954e+000
1	 3.406623600037462e+000	 7.108756477584002e-001	 2.773534714201336e+000
1	 3.399225896885227e+000	 7.454471541191478e-001	 1.279827944083979e+000
1	 3.391453721886553e+000	 7.800444851635687e-001	-1.609833872115898e-001
1	 3.383305061835990e+000	 8.146620052492226e-001	-1.547056772379002e+000
1	 3.374778007829510e+000	 8.492940054794386e-001	-2.876692285970438e+000
1	 3.365870757874714e+000	 8.839347058764533e-001	-4.148337015249013e+000
1	 3.356581619455178e+000	 9.185782576531858e-001	-5.360589343099334e+000
1	 3.346909012044858e+000	 9.532187455829028e-001	-6.512203071313680e+000
1	 3.336851469568601e+000	 9.878501904658823e-001	-7.602091372643361e+000
1	 3.326407642804696e+000	 1.022466551691976e+000	-8.629330560114715e+000
1	 3.439808453514761e+000	 6.815184272827487e-001	 3.879085992608841e+000
1	 3.432729270654426e+000	 7.163232368345508e-001	 2.402091109643787e+000
1	 3.425274877352659e+000	 7.511596718940811e-001	 9.725218774234975e-001
1	 3.417443142548179e+000	 7.860221295372193e-001	-4.075730391966947e-001
1	 3.409232037607928e+000	 8.209049309344189e-001	-1.736279646225452e+000
1	 3.400639638999539e+000	 8.558023234405421e-001	-3.011823257232896e+000
1	 3.391664130921576e+000	 8.907084827846498e-001	-4.232573000175951e+000
1	 3.382303807887502e+000	 9.256175153591826e-001	-5.397046182620584e+000
1	 3.372557077259375e+000	 9.605234606077897e-001	-6.503912503651021e+000
1	 3.362422461727200e+000	 9.954202935108940e-001	-7.551998100816183e+000
1	 3.351898601729900e+000	 1.030301927167889e+000	-8.540289420554121e+000
1	 3.465967960831457e+000	 6.867013281704680e-001	 3.469595887237478e+000
1	 3.458834941271304e+000	 7.217708259112585e-001	 2.059524108833238e+000
1	 3.451323857820038e+000	 7.568721896695587e-001	 6.935167777988063e-001
1	 3.443432563209798e+000	 7.919997739113979e-001	-6.263292834017308e-001
1	 3.435159013379911e+000	 8.271478566201258e-001	-1.898048807059475e+000
1	 3.426501270169675e+000	 8.623106414021357e-001	-3.119812760159657e+000
1	 3.417457503968606e+000	 8.974822596933118e-001	-4.289932899889223e+000
1	 3.408025996320059e+000	 9.326567730656179e-001	-5.406866193000750e+000
1	 3.398205142474186e+000	 9.678281756330857e-001	-6.469219087332456e+000
1	 3.387993453886149e+000	 1.002990396556281e+000	-7.475751623828935e+000
1	 3.377389560655498e+000	 1.038137302644139e+000	-8.425381377486335e+000
1	 3.492127468147986e+000	 6.918842290586874e-001	 3.089604213995769e+000
1	 3.484940611888026e+000	 7.272184149884663e-001	 1.745650280608118e+000
1	 3.477372838287284e+000	 7.625847074455355e-001	 4.425272979353895e-001
1	 3.469421983871323e+000	 7.979774182860747e-001	-8.176393328692698e-001
1	 3.461085989151848e+000	 8.333907823063274e-001	-2.032852873260304e+000
1	 3.452362901339824e+000	 8.688189593642191e-001	-3.201249944416526e+000
1	 3.443250877015715e+000	 9.042560366024566e-001	-4.321105104468921e+000
1	 3.433748184752760e+000	 9.396960307725260e-001	-5.390835294178165e+000
1	 3.423853207689207e+000	 9.751328906588402e-001	-6.409004139403234e+000
1	 3.413564446045371e+000	 1.010560499602108e+000	-7.374326098737534e+000
1	 3.402880519581427e+000	 1.045972678120808e+000	-8.285670444757511e+000
1	 3.518286975464283e+000	 6.970671299473390e-001	 2.739031536885237e+000
1	 3.511046282504512e+000	 7.326660040661169e-001	 1.460291649267675e+000
1	 3.503421818754312e+000	 7.682972252219673e-001	 2.192765771255414e-001
1	 3.495411404532665e+000	 8.039550626612186e-001	-9.818788844662252e-001
1	 3.487012964923652e+000	 8.396337079930085e-001	-2.141165931116746e+000
1	 3.478224532509898e+000	 8.753272773267932e-001	-3.256706437659301e+000
1	 3.469044250062812e+000	 9.110298135121011e-001	-4.326757530457731e+000
1	 3.459470373185520e+000	 9.467352884799398e-001	-5.349716031900104e+000
1	 3.449501272904357e+000	 9.824376056851036e-001	-6.324122765494510e+000
1	 3.439135438204790e+000	 1.018130602648443e+000	-7.248666710011712e+000
1	 3.428371478507617e+000	 1.053808053597977e+000	-8.122188991180181e+000
1	 3.544446482780284e+000	 7.022500308363556e-001	 2.417800764992651e+000
1	 3.537151953120691e+000	 7.381135931441537e-001	 1.203275493254179e+000
1	 3.529470799221043e+000	 7.740097429988094e-001	 2.349592805627784e-002
1	 3.521400825193738e+000	 8.099327070367999e-001	-1.119412543855257e+000
1	 3.512939940695230e+000	 8.458766336801536e-001	-2.223448071092155e+000
1	 3.504086163679800e+000	 8.818355952898579e-001	-3.286736992132897e+000
1	 3.494837623109805e+000	 9.178035904222620e-001	-4.307538376377520e+000
1	 3.485192561618248e+000	 9.537745461878934e-001	-5.284248440279756e+000
1	 3.475149338119550e+000	 9.897423207119256e-001	-6.215404827079785e+000
1	 3.464706430364329e+000	 1.025700705695351e+000	-7.099690738684716e+000
1	 3.453862437434002e+000	 1.061643429075729e+000	-7.935938908301610e+000
1	 3.570605990095922e+000	 7.074329317256695e-001	 2.125837066585552e+000
1	 3.563257623736486e+000	 7.435611822225200e-001	 9.744341526845634e-001
1	 3.555519779687395e+000	 7.797222607760181e-001	-1.450754625963882e-001
1	 3.547390245854455e+000	 8.159103514127873e-001	-1.230594231784864e+000
1	 3.538866916466492e+000	 8.521195593677474e-001	-2.280145900515846e+000
1	 3.529947794849443e+000	 8.883439132534144e-001	-3.291880102847503e+000
1	 3.520630996156604e+000	 9.245773673329562e-001	-4.264076845035175e+000
1	 3.510914750050856e+000	 9.608138038964199e-001	-5.195150866436895e+000
1	 3.500797403334707e+000	 9.970470357393572e-001	-6.083655866212759e+000
1	 3.490277422523912e+000	 1.033270808742900e+000	-6.928288584504972e+000
1	 3.479353396360510e+000	 1.069478804554146e+000	-7.727892726839720e+000
1	 3.596765497411132e+000	 7.126158326152124e-001	 1.863067786956475e+000
1	 3.589363294351825e+000	 7.490087713011588e-001	 7.736048452809549e-001
1	 3.581568760153285e+000	 7.854347785535488e-001	-2.866908205076378e-001
1	 3.573379666514728e+000	 8.218879957891508e-001	-1.315767572649750e+000
1	 3.564793892237348e+000	 8.583624850557747e-001	-2.311693033901740e+000
1	 3.555809426018735e+000	 8.948522312174628e-001	-3.272658598777830e+000
1	 3.546424369203119e+000	 9.313511442442009e-001	-4.196983834307883e+000
1	 3.536636938483259e+000	 9.678530616055532e-001	-5.083120759152363e+000
1	 3.526445468549742e+000	 1.004351750767448e+000	-5.929657989910798e+000
1	 3.515848414683465e+000	 1.040840911791156e+000	-6.735324743482950e+000
1	 3.504844355287081e+000	 1.077314180033311e+000	-7.498994684399075e+000
1	 3.249934766032135e+000	 9.989604252654352e-001	-8.730111681861613e+000
1	 3.239352432650741e+000	 1.032760272672935e+000	-9.794865606787088e+000
1	 3.228390405810319e+000	 1.066533407174408e+000	-1.077110945991494e+001
1	 3.217047718379721e+000	 1.100273759821121e+000	-1.165969099655304e+001
1	 3.205323526137257e+000	 1.133975212443531e+000	-1.246163463004235e+001
1	 3.193217109782673e+000	 1.167631600601917e+000	-1.317814226633242e+001
1	 3.180727876869459e+000	 1.201236716620890e+000	-1.381059386850472e+001
1	 3.167855363653740e+000	 1.234784312705469e+000	-1.436054774488338e+001
1	 3.154599236856098e+000	 1.268268104136253e+000	-1.482974055489377e+001
1	 3.140959295332737e+000	 1.301681772541035e+000	-1.522008702738017e+001
1	 3.126935471652506e+000	 1.335018969240017e+000	-1.553367938667335e+001
1	 3.275425724955747e+000	 1.006795800740831e+000	-8.725390459847342e+000
1	 3.264760388731105e+000	 1.040860758245642e+000	-9.753380326791167e+000
1	 3.253712380910649e+000	 1.074898793320969e+000	-1.069522473143469e+001
1	 3.242280726777507e+000	 1.108903789416095e+000	-1.155183161503850e+001
1	 3.230464575488312e+000	 1.142869580373430e+000	-1.232429594740577e+001
1	 3.218263202100959e+000	 1.176789953402282e+000	-1.301390061731720e+001
1	 3.205676009522064e+000	 1.210658652137173e+000	-1.362211703471778e+001
1	 3.192702530370364e+000	 1.244469379778354e+000	-1.415060543782104e+001
1	 3.179342428752352e+000	 1.278215802312035e+000	-1.460121489885424e+001
1	 3.165595501946556e+000	 1.311891551807666e+000	-1.497598302275571e+001
1	 3.151461681992926e+000	 1.345490229789387e+000	-1.527713533375564e+001
1	 3.300916683879955e+000	 1.014631176216317e+000	-8.691407915411798e+000
1	 3.290168344812070e+000	 1.048961243818355e+000	-9.682786787093676e+000
1	 3.279034356011567e+000	 1.083264179467451e+000	-1.059062133048243e+001
1	 3.267513735175860e+000	 1.117533819010909e+000	-1.141586471996248e+001
1	 3.255605624839903e+000	 1.151763948303092e+000	-1.215966603944372e+001
1	 3.243309294419742e+000	 1.185948306202339e+000	-1.282337123077347e+001
1	 3.230624142175128e+000	 1.220080587653086e+000	-1.340852373828490e+001
1	 3.217549697087408e+000	 1.254154446850814e+000	-1.391686484221921e+001
1	 3.204085620648994e+000	 1.288163500487353e+000	-1.435033367434551e+001
1	 3.190231708560741e+000	 1.322101331073807e+000	-1.471106690972416e+001
1	 3.175987892333698e+000	 1.355961490338257e+000	-1.500139812921271e+001
1	 3.326407642804696e+000	 1.022466551691976e+000	-8.629330560114715e+000
1	 3.315576300893580e+000	 1.057061729391170e+000	-9.584335743409479e+000
1	 3.304356331113032e+000	 1.091629565613964e+000	-1.045860951023754e+001
1	 3.292746743574746e+000	 1.126163848605684e+000	-1.125313564503364e+001
1	 3.280746674192009e+000	 1.160658316232648e+000	-1.196910125742282e+001
1	 3.268355386739016e+000	 1.195106659002230e+000	-1.260789779073357e+001
1	 3.255572274828653e+000	 1.229502523168778e+000	-1.317112171358230e+001
1	 3.242396863804885e+000	 1.263839513923010e+000	-1.366057488688055e+001
1	 3.228828812546041e+000	 1.298111198662370e+000	-1.407826459922907e+001
1	 3.214867915175308e+000	 1.332311110339624e+000	-1.442640326431082e+001
1	 3.200514102674839e+000	 1.366432750886795e+000	-1.470740777457687e+001
1	 3.351898601729900e+000	 1.030301927167889e+000	-8.540289420554121e+000
1	 3.340984256975579e+000	 1.065162214964183e+000	-9.459239903807745e+000
1	 3.329678306214996e+000	 1.099994951760619e+000	-1.030045966633705e+001
1	 3.317979751974136e+000	 1.134793878200544e+000	-1.106494879927839e+001
1	 3.305887723544611e+000	 1.169552684162233e+000	-1.175391669277640e+001
1	 3.293401479058773e+000	 1.204265011802098e+000	-1.236878310673044e+001
1	 3.280520407482643e+000	 1.238924458684402e+000	-1.291117891406547e+001
1	 3.267244030522806e+000	 1.273524580995097e+000	-1.338294650853653e+001
1	 3.253572004443512e+000	 1.308058896837248e+000	-1.378613986970984e+001
1	 3.239504121790274e+000	 1.342520889605283e+000	-1.412302427843050e+001
1	 3.225040313016362e+000	 1.376904011435166e+000	-1.439607567679229e+001
1	 3.377389560655498e+000	 1.038137302644139e+000	-8.425381377486335e+000
1	 3.366392213058008e+000	 1.073262700537491e+000	-9.308675364541328e+000
1	 3.355000281317417e+000	 1.108360337907524e+000	-1.011740384100666e+001
1	 3.343212760373997e+000	 1.143423907795610e+000	-1.085256921144294e+001
1	 3.331028772897689e+000	 1.178447052091981e+000	-1.151538773415433e+001
1	 3.318447571379005e+000	 1.213423364602087e+000	-1.210729065630592e+001
1	 3.305468540137102e+000	 1.248346394200107e+000	-1.262992501350835e+001
1	 3.292091197241183e+000	 1.283209648067234e+000	-1.308515408557947e+001
1	 3.278315196341421e+000	 1.318006595012151e+000	-1.347505750084059e+001
1	 3.264140328405664e+000	 1.352730668870948e+000	-1.380193098198865e+001
1	 3.249566523358288e+000	 1.387375271983537e+000	-1.406828572730752e+001
1	 3.402880519581427e+000	 1.045972678120808e+000	-8.285670444757511e+000
1	 3.391800169140812e+000	 1.081363186111191e+000	-9.133782981341891e+000
1	 3.380322256420250e+000	 1.116725724054792e+000	-9.910637159586715e+000
1	 3.368445768774295e+000	 1.152053937391004e+000	-1.061722400498104e+001
1	 3.356169822251226e+000	 1.187341420022024e+000	-1.125475155449010e+001
1	 3.343493663699706e+000	 1.222581717402338e+000	-1.182464605818938e+001
1	 3.330416672792031e+000	 1.257768329716046e+000	-1.232855283976786e+001
1	 3.316938363960027e+000	 1.292894715139578e+000	-1.276833680735429e+001
1	 3.303058388239788e+000	 1.327954293187240e+000	-1.314608260677601e+001
1	 3.288776535021494e+000	 1.362940448136786e+000	-1.346409441005340e+001
1	 3.274092733700633e+000	 1.397846532532076e+000	-1.372489533266797e+001
1	 3.428371478507617e+000	 1.053808053597977e+000	-8.122188991180181e+000
1	 3.417208125223934e+000	 1.089463671685380e+000	-8.935669679538220e+000
1	 3.405644231523448e+000	 1.125091110202530e+000	-9.681319202972475e+000
1	 3.393678777175000e+000	 1.160683966986851e+000	-1.036010380723924e+001
1	 3.381310871605199e+000	 1.196235787952496e+000	-1.097320853172661e+001
1	 3.368539756020867e+000	 1.231740070202997e+000	-1.152203847975559e+001
1	 3.355364805447436e+000	 1.267190265232369e+000	-1.200821974458563e+001
1	 3.341785530679351e+000	 1.302579782212286e+000	-1.243359998236356e+001
1	 3.327801580138630e+000	 1.337901991362676e+000	-1.280024862391229e+001
1	 3.313412741637784e+000	 1.373150227402962e+000	-1.311045671795796e+001
1	 3.298618944043411e+000	 1.408317793080948e+000	-1.336673639913108e+001
1	 3.453862437434002e+000	 1.061643429075729e+000	-7.935938908301610e+000
1	 3.442616081307318e+000	 1.097564157260154e+000	-8.715409706160326e+000
1	 3.430966206626969e+000	 1.133456496350850e+000	-9.430575319279138e+000
1	 3.418911785576080e+000	 1.169313996583270e+000	-1.008236409624067e+001
1	 3.406451920959592e+000	 1.205130155883531e+000	-1.067192360662925e+001
1	 3.393585848342482e+000	 1.240898423004204e+000	-1.120062198215641e+001
1	 3.380312938103318e+000	 1.276612200749228e+000	-1.167004891273158e+001
1	 3.366632697399166e+000	 1.312264849285518e+000	-1.208201628854202e+001
1	 3.352544772037962e+000	 1.347849689538625e+000	-1.243855847986339e+001
1	 3.338048948254552e+000	 1.383360006669642e+000	-1.274193224702377e+001
1	 3.323145154386643e+000	 1.418789053630321e+000	-1.299461627368083e+001
1	 3.479353396360510e+000	 1.069478804554146e+000	-7.727892726839720e+000
1	 3.468024037390906e+000	 1.105664642835609e+000	-8.474045827002406e+000
1	 3.456288181730765e+000	 1.141821882499862e+000	-9.159497877848555e+000
1	 3.444144793977504e+000	 1.177944026180386e+000	-9.785126488266190e+000
1	 3.431592970314385e+000	 1.214024523815262e+000	-1.035202758091166e+001
1	 3.418631940664544e+000	 1.250056775806104e+000	-1.086151680632337e+001
1	 3.405261070759681e+000	 1.286034136266774e+000	-1.131513061359964e+001
1	 3.391479864119481e+000	 1.321949916359429e+000	-1.171462696857128e+001
1	 3.377287963937803e+000	 1.357797387715248e+000	-1.206198571105100e+001
1	 3.362685154871818e+000	 1.393569785936990e+000	-1.235940854343637e+001
1	 3.347671364730342e+000	 1.429260314180360e+000	-1.260931864367658e+001
1	 3.504844355287081e+000	 1.077314180033311e+000	-7.498994684399075e+000
1	 3.493431993474643e+000	 1.113765128411843e+000	-8.212590471448491e+000
1	 3.481610156834797e+000	 1.150187268649676e+000	-8.869147468533305e+000
1	 3.469377802379237e+000	 1.186574055778320e+000	-9.469479969247685e+000
1	 3.456734019669560e+000	 1.222918891747823e+000	-1.001461835871351e+001
1	 3.443678032987045e+000	 1.259215128608840e+000	-1.050581060285095e+001
1	 3.430209203416529e+000	 1.295456071785157e+000	-1.094452339818636e+001
1	 3.416327030840312e+000	 1.331634983434178e+000	-1.133244297303316e+001
1	 3.402031155838170e+000	 1.367745085892707e+000	-1.167147553152454e+001
1	 3.387321361489601e+000	 1.403779565205173e+000	-1.196374733265910e+001
1	 3.372197575074528e+000	 1.439731574731234e+000	-1.221160439724302e+001
1	 3.126935471652506e+000	 1.335018969240017e+000	-1.553367938667336e+001
1	 3.112530023792000e+000	 1.368268337568320e+000	-1.579191352215218e+001
1	 3.097741083326226e+000	 1.401428489062056e+000	-1.601493358866873e+001
1	 3.082568994673866e+000	 1.434493009528169e+000	-1.620302164183148e+001
1	 3.067014241170958e+000	 1.467455468599930e+000	-1.635653878959168e+001
1	 3.051077446124150e+000	 1.500309423398188e+000	-1.647592560968225e+001
1	 3.034759373751101e+000	 1.533048422245595e+000	-1.656170244339811e+001
1	 3.018060930005414e+000	 1.565666008429837e+000	-1.661446956320527e+001
1	 3.000983163283562e+000	 1.598155724011803e+000	-1.663490721192922e+001
1	 2.983527265011496e+000	 1.630511113674446e+000	-1.662377551154788e+001
1	 2.965694570108715e+000	 1.662725728608005e+000	-1.658191423990023e+001
1	 3.151461681992926e+000	 1.345490229789387e+000	-1.527713533375564e+001
1	 3.136943244578563e+000	 1.379000390515981e+000	-1.552552354204077e+001
1	 3.122038306623422e+000	 1.412420634633105e+000	-1.574055137260699e+001
1	 3.106747215247636e+000	 1.445744497637801e+000	-1.592234118987748e+001
1	 3.091070457578299e+000	 1.478965498726574e+000	-1.607107946207319e+001
1	 3.075008661810973e+000	 1.512077144485368e+000	-1.618701729891533e+001
1	 3.058562598157479e+000	 1.545072932632920e+000	-1.627047089361495e+001
1	 3.041733179677284e+000	 1.577946355813512e+000	-1.632182186677598e+001
1	 3.024521462989988e+000	 1.610690905435004e+000	-1.634151751003314e+001
1	 3.006928648866512e+000	 1.643300075547886e+000	-1.633007092745147e+001
1	 2.988956082696837e+000	 1.675767366760974e+000	-1.628806107292999e+001
1	 3.175987892333698e+000	 1.355961490338257e+000	-1.500139812921271e+001
1	 3.161356465365481e+000	 1.389732443463149e+000	-1.524142844839927e+001
1	 3.146335529920983e+000	 1.423412780203684e+000	-1.544964548481746e+001
1	 3.130925435821790e+000	 1.456995985746995e+000	-1.562603193975164e+001
1	 3.115126673986046e+000	 1.490475528852819e+000	-1.577062095428285e+001
1	 3.098939877498229e+000	 1.523844865572194e+000	-1.588349674838300e+001
1	 3.082365822564309e+000	 1.557097443019938e+000	-1.596479518979795e+001
1	 3.065405429349620e+000	 1.590226703196920e+000	-1.601470429048971e+001
1	 3.048059762696877e+000	 1.623226086857971e+000	-1.603346462854091e+001
1	 3.030330032721980e+000	 1.656089037421116e+000	-1.602136969356747e+001
1	 3.012217595285378e+000	 1.688809004913743e+000	-1.597876615383532e+001
1	 3.200514102674839e+000	 1.366432750886795e+000	-1.470740777457687e+001
1	 3.185769686152757e+000	 1.400464496409990e+000	-1.494044386594859e+001
1	 3.170632753218907e+000	 1.434404925773955e+000	-1.514292831150998e+001
1	 3.155103656396314e+000	 1.468247473855910e+000	-1.531472370320742e+001
1	 3.139182890394172e+000	 1.501985558978823e+000	-1.545573067160688e+001
1	 3.122871093185870e+000	 1.535612586658817e+000	-1.556588860775312e+001
1	 3.106169046971531e+000	 1.569121953406790e+000	-1.564517633790834e+001
1	 3.089077679022347e+000	 1.602507050580201e+000	-1.569361274908817e+001
1	 3.071598062404153e+000	 1.635761268280842e+000	-1.571125736339101e+001
1	 3.053731416577815e+000	 1.668877999294270e+000	-1.569821085920285e+001
1	 3.035479107874254e+000	 1.701850643066445e+000	-1.565461553745091e+001
1	 3.225040313016362e+000	 1.376904011435166e+000	-1.439607567679229e+001
1	 3.210182906940405e+000	 1.411196549356671e+000	-1.462336060832977e+001
1	 3.194929976517193e+000	 1.445397071344083e+000	-1.482109056830161e+001
1	 3.179281876971192e+000	 1.479498961964707e+000	-1.498902713329782e+001
1	 3.163239106802647e+000	 1.513495589104740e+000	-1.512695875911554e+001
1	 3.146802308873855e+000	 1.547380307745388e+000	-1.523470156699475e+001
1	 3.129972271379087e+000	 1.581146463793625e+000	-1.531210010344366e+001
1	 3.112749928695398e+000	 1.614787397963496e+000	-1.535902807172275e+001
1	 3.095136362111731e+000	 1.648296449703754e+000	-1.537538903308885e+001
1	 3.077132800433933e+000	 1.681666961167483e+000	-1.536111707593256e+001
1	 3.058740620463381e+000	 1.714892281219213e+000	-1.531617745098418e+001
1	 3.249566523358288e+000	 1.387375271983537e+000	-1.406828572730752e+001
1	 3.234596127728435e+000	 1.421928602303357e+000	-1.429094561441608e+001
1	 3.219227199815839e+000	 1.456389216914231e+000	-1.448480211801408e+001
1	 3.203460097546411e+000	 1.490750450073546e+000	-1.464953444737984e+001
1	 3.187295323211441e+000	 1.525005619230725e+000	-1.478483875292687e+001
1	 3.170733524562135e+000	 1.559148028832056e+000	-1.489042895865972e+001
1	 3.153775495786916e+000	 1.593170974180589e+000	-1.496603758657688e+001
1	 3.136422178368696e+000	 1.627067745346946e+000	-1.501141657124939e+001
1	 3.118674661819536e+000	 1.660831631126843e+000	-1.502633806278920e+001
1	 3.100534184290246e+000	 1.694455923040890e+000	-1.501059521641145e+001
1	 3.082002133052676e+000	 1.727933919372181e+000	-1.496400296678818e+001
1	 3.274092733700633e+000	 1.397846532532076e+000	-1.372489533266797e+001
1	 3.259009348516858e+000	 1.432660655250213e+000	-1.394394284254176e+001
1	 3.243524423114846e+000	 1.467381362484561e+000	-1.413471275171467e+001
1	 3.227638318121956e+000	 1.502001938182587e+000	-1.429682011762275e+001
1	 3.211351539620524e+000	 1.536515649356934e+000	-1.442988820229460e+001
1	 3.194664740250668e+000	 1.570915749918973e+000	-1.453354933309409e+001
1	 3.177578720194960e+000	 1.605195484567825e+000	-1.460744577144576e+001
1	 3.160094428042173e+000	 1.639348092730692e+000	-1.465123058793558e+001
1	 3.142212961527484e+000	 1.673366812550247e+000	-1.466456854212585e+001
1	 3.123935568146673e+000	 1.707244884914625e+000	-1.464713696537339e+001
1	 3.105263645642055e+000	 1.740975557525482e+000	-1.459862664489628e+001
1	 3.298618944043411e+000	 1.408317793080948e+000	-1.336673639913108e+001
1	 3.283422569305680e+000	 1.443392708197407e+000	-1.358307412483745e+001
1	 3.267821646414211e+000	 1.478373508055239e+000	-1.377145293491326e+001
1	 3.251816538697812e+000	 1.513253426291988e+000	-1.393144153071172e+001
1	 3.235407756029868e+000	 1.548025679483521e+000	-1.406260926394328e+001
1	 3.218595955939409e+000	 1.582683471006288e+000	-1.416452700798855e+001
1	 3.201381944603160e+000	 1.617219994955479e+000	-1.423676805093717e+001
1	 3.183766677715757e+000	 1.651628440114874e+000	-1.427890900891247e+001
1	 3.165751261235494e+000	 1.685901993974103e+000	-1.429053075815604e+001
1	 3.147336952003127e+000	 1.720033846788822e+000	-1.427121938426471e+001
1	 3.128525158231437e+000	 1.754017195679249e+000	-1.422056714689213e+001
1	 3.323145154386643e+000	 1.418789053630321e+000	-1.299461627368083e+001
1	 3.307835790094914e+000	 1.454124761145104e+000	-1.320903998373366e+001
1	 3.292118869713935e+000	 1.489365653626425e+000	-1.339563452071579e+001
1	 3.275994759273966e+000	 1.524504914401911e+000	-1.355393961833795e+001
1	 3.259463972439443e+000	 1.559535709610643e+000	-1.368348927008477e+001
1	 3.242527171628312e+000	 1.594451192094152e+000	-1.378381259359308e+001
1	 3.225185169011457e+000	 1.629244505343696e+000	-1.385443472823288e+001
1	 3.207438927389378e+000	 1.663908787499634e+000	-1.389487776462337e+001
1	 3.189289560943490e+000	 1.698437175398548e+000	-1.390466170470438e+001
1	 3.170738335859523e+000	 1.732822808663616e+000	-1.388330545087411e+001
1	 3.151786670820736e+000	 1.767058833833616e+000	-1.383032782259596e+001
1	 3.347671364730342e+000	 1.429260314180360e+000	-1.260931864367658e+001
1	 3.332249010884568e+000	 1.464856814093469e+000	-1.282252041257219e+001
1	 3.316416093014018e+000	 1.500357799198286e+000	-1.300785143162928e+001
1	 3.300172979850403e+000	 1.535756402512514e+000	-1.316483945997379e+001
1	 3.283520188849219e+000	 1.571045739738455e+000	-1.329300127146616e+001
1	 3.266458387317334e+000	 1.606218913182716e+000	-1.339184349484451e+001
1	 3.248988393419791e+000	 1.641269015732624e+000	-1.346086349630804e+001
1	 3.231111177062963e+000	 1.676189134885112e+000	-1.349955030344997e+001
1	 3.212827860651388e+000	 1.710972356823719e+000	-1.350738556931713e+001
1	 3.194139719715778e+000	 1.745611770539141e+000	-1.348384457524181e+001
1	 3.175048183409871e+000	 1.780100471988717e+000	-1.342839727096120e+001
1	 3.372197575074528e+000	 1.439731574731234e+000	-1.221160439724302e+001
1	 3.356662231674654e+000	 1.475588867042669e+000	-1.242417562215293e+001
1	 3.340713316314456e+000	 1.511349944770984e+000	-1.260868031161350e+001
1	 3.324351200427108e+000	 1.547007890623957e+000	-1.276465085934349e+001
1	 3.307576405259167e+000	 1.582555769867112e+000	-1.289160455671940e+001
1	 3.290389603006430e+000	 1.617986634272130e+000	-1.298904439158163e+001
1	 3.272791617828106e+000	 1.653293526122406e+000	-1.305645989650536e+001
1	 3.254783426736442e+000	 1.688469482271450e+000	-1.309332804562638e+001
1	 3.236366160359109e+000	 1.723507538249754e+000	-1.309911419896660e+001
1	 3.217541103571808e+000	 1.758400732415532e+000	-1.307327309305491e+001
1	 3.198309695998757e+000	 1.793142110144684e+000	-1.301524987649450e+001
1	 2.965694570108715e+000	 1.662725728608005e+000	-1.658191423990024e+001
1	 2.947483798177338e+000	 1.694797929960343e+000	-1.650228480422665e+001
1	 2.928899221696398e+000	 1.726716448985847e+000	-1.637726281457676e+001
1	 2.909942610804364e+000	 1.758474879052459e+000	-1.620687365712683e+001
1	 2.890615879789327e+000	 1.790066835929240e+000	-1.599118384250201e+001
1	 2.870921086910895e+000	 1.821485961785593e+000	-1.573030173588990e+001
1	 2.850860434090400e+000	 1.852725929198409e+000	-1.542437823929821e+001
1	 2.830436266468553e+000	 1.883780445162080e+000	-1.507360742390903e+001
1	 2.809651071830005e+000	 1.914643255096348e+000	-1.467822711056559e+001
1	 2.788507479894426e+000	 1.945308146846862e+000	-1.423851939651889e+001
1	 2.767008261473969e+000	 1.975768954673289e+000	-1.375481112665996e+001
1	 2.988956082696837e+000	 1.675767366760974e+000	-1.628806107292999e+001
1	 2.970602474040236e+000	 1.708091127367755e+000	-1.620801095048721e+001
1	 2.951872128887056e+000	 1.740260000235878e+000	-1.608217293581994e+001
1	 2.932766831259906e+000	 1.772267528482681e+000	-1.591078297620678e+001
1	 2.913288510461653e+000	 1.804107277802321e+000	-1.569412978098798e+001
1	 2.893439240895929e+000	 1.835772840496374e+000	-1.543255526885516e+001
1	 2.873221241754907e+000	 1.867257839512400e+000	-1.512645494366977e+001
1	 2.852636876573476e+000	 1.898555932485417e+000	-1.477627819713985e+001
1	 2.831688652649308e+000	 1.929660815777189e+000	-1.438252853683232e+001
1	 2.810379220328354e+000	 1.960566228508146e+000	-1.394576373815257e+001
1	 2.788711372155723e+000	 1.991265956576792e+000	-1.346659591908350e+001
1	 3.012217595285378e+000	 1.688809004913743e+000	-1.597876615383532e+001
1	 2.993721149903497e+000	 1.721384324774959e+000	-1.589793958058367e+001
1	 2.974845036078005e+000	 1.753803551485679e+000	-1.577118937125179e+001
1	 2.955591051715656e+000	 1.786060177912640e+000	-1.559894440450322e+001
1	 2.935961141134095e+000	 1.818147719675097e+000	-1.538169703206371e+001
1	 2.915957394880990e+000	 1.850059719206805e+000	-1.512000326447071e+001
1	 2.895582049419351e+000	 1.881789749825994e+000	-1.481448286350060e+001
1	 2.874837486678263e+000	 1.913331419808317e+000	-1.446581933995243e+001
1	 2.853726233468411e+000	 1.944678376457553e+000	-1.407475985567394e+001
1	 2.832250960762047e+000	 1.975824310168927e+000	-1.364211502892921e+001
1	 2.810414482837230e+000	 2.006762958479779e+000	-1.316875864242389e+001
1	 3.035479107874254e+000	 1.701850643066445e+000	-1.565461553745091e+001
1	 3.016839825767045e+000	 1.734677522182089e+000	-1.557270431447791e+001
1	 2.997817943269185e+000	 1.767347102735386e+000	-1.544497834260381e+001
1	 2.978415272171568e+000	 1.799852827342473e+000	-1.527204220853819e+001
1	 2.958633771806631e+000	 1.832188161547714e+000	-1.505457377185152e+001
1	 2.938475548866074e+000	 1.864346597917032e+000	-1.479332411016613e+001
1	 2.917942857083756e+000	 1.896321660139343e+000	-1.448911735091484e+001
1	 2.897038096782951e+000	 1.928106907130930e+000	-1.414285038866811e+001
1	 2.875763814287376e+000	 1.959695937137597e+000	-1.375549248729179e+001
1	 2.854122701195575e+000	 1.991082391829359e+000	-1.332808476646445e+001
1	 2.832117593518570e+000	 2.022259960382399e+000	-1.286173957235516e+001
1	 3.058740620463381e+000	 1.714892281219213e+000	-1.531617745098418e+001
1	 3.039958501630808e+000	 1.747970719589279e+000	-1.523291949758642e+001
1	 3.020790850460532e+000	 1.780890653985136e+000	-1.510418580532524e+001
1	 3.001239492627601e+000	 1.813645476772324e+000	-1.493073983963393e+001
1	 2.981306402479240e+000	 1.846228603420313e+000	-1.471342724234515e+001
1	 2.960993702851183e+000	 1.878633476627206e+000	-1.445317555701183e+001
1	 2.940303664748140e+000	 1.910853570452599e+000	-1.415099382240509e+001
1	 2.919238706887588e+000	 1.942882394453412e+000	-1.380797203348365e+001
1	 2.897801395106262e+000	 1.974713497817474e+000	-1.342528046944157e+001
1	 2.875994441629014e+000	 2.006340473489594e+000	-1.300416888875715e+001
1	 2.853820704199826e+000	 2.037756962284804e+000	-1.254596559148631e+001
1	 3.082002133052676e+000	 1.727933919372181e+000	-1.496400296678818e+001
1	 3.063077177494705e+000	 1.761263916996664e+000	-1.487918092815671e+001
1	 3.043763757651986e+000	 1.794434205235065e+000	-1.474943821338535e+001
1	 3.024063713083709e+000	 1.827438126202331e+000	-1.457568071943021e+001
1	 3.003979033151893e+000	 1.860269045293039e+000	-1.435890454141497e+001
1	 2.983511856836313e+000	 1.892920355337473e+000	-1.410019549848714e+001
1	 2.962664472412528e+000	 1.925385480765913e+000	-1.380072851115684e+001
1	 2.941439316992212e+000	 1.957657881775916e+000	-1.346176682968009e+001
1	 2.919838975925133e+000	 1.989731058497339e+000	-1.308466111340681e+001
1	 2.897866182062439e+000	 2.021598555149789e+000	-1.267084836137300e+001
1	 2.875523814881082e+000	 2.053253964187143e+000	-1.222185069478449e+001
1	 3.105263645642055e+000	 1.740975557525482e+000	-1.459862664489628e+001
1	 3.086195853358668e+000	 1.774557114404378e+000	-1.451206655195099e+001
1	 3.066736664843483e+000	 1.807977756485311e+000	-1.438134324970093e+001
1	 3.046887933539847e+000	 1.841230775632634e+000	-1.420748899009541e+001
1	 3.026651663824572e+000	 1.874309487166035e+000	-1.399163337730567e+001
1	 3.006030010821464e+000	 1.907207234047981e+000	-1.373500271424600e+001
1	 2.985025280076941e+000	 1.939917391079437e+000	-1.343891918555869e+001
1	 2.963639927096867e+000	 1.972433369098596e+000	-1.310479987686570e+001
1	 2.941876556744047e+000	 2.004748619177347e+000	-1.273415563048817e+001
1	 2.919737922495926e+000	 2.036856636810096e+000	-1.232858973823670e+001
1	 2.897226925562421e+000	 2.068750966089566e+000	-1.188979647228111e+001
1	 3.128525158231437e+000	 1.754017195679249e+000	-1.422056714689213e+001
1	 3.109314529222616e+000	 1.787850311812554e+000	-1.413213712593887e+001
1	 3.089709572034964e+000	 1.821521307736009e+000	-1.400049052397800e+001
1	 3.069712153995974e+000	 1.855023425063373e+000	-1.382677023106971e+001
1	 3.049324294497249e+000	 1.888349929039446e+000	-1.361222278947440e+001
1	 3.028548164806635e+000	 1.921494112758879e+000	-1.335819758070166e+001
1	 3.007386087741395e+000	 1.954449301393320e+000	-1.306614583565869e+001
1	 2.985840537201595e+000	 1.987208856421605e+000	-1.273761946791633e+001
1	 2.963914137563063e+000	 2.019766179857653e+000	-1.237426973054437e+001
1	 2.941609662929547e+000	 2.052114718470668e+000	-1.197784569740607e+001
1	 2.918930036243927e+000	 2.084247967992224e+000	-1.155019257024392e+001
1	 3.151786670820736e+000	 1.767058833833616e+000	-1.383032782259596e+001
1	 3.132433205086475e+000	 1.801143509221328e+000	-1.373993685260004e+001
1	 3.112682479226364e+000	 1.835064858987296e+000	-1.360745223965149e+001
1	 3.092536374452043e+000	 1.868816074494688e+000	-1.343411214406875e+001
1	 3.071996925169904e+000	 1.902390370913415e+000	-1.322126383750849e+001
1	 3.051066318791824e+000	 1.935780991470312e+000	-1.297036275014543e+001
1	 3.029746895405916e+000	 1.968981211707714e+000	-1.268297132922273e+001
1	 3.008041147306436e+000	 2.001984343745096e+000	-1.236075770917959e+001
1	 2.985951718382243e+000	 2.034783740538410e+000	-1.200549419402797e+001
1	 2.963481403363379e+000	 2.067372800131659e+000	-1.161905555312072e+001
1	 2.940633146925679e+000	 2.099744969895266e+000	-1.120341713192685e+001
1	 3.175048183409871e+000	 1.780100471988717e+000	-1.342839727096120e+001
1	 3.155551880950169e+000	 1.814436706630833e+000	-1.333599398634417e+001
1	 3.135655386417623e+000	 1.848608410239309e+000	-1.320278383150743e+001
1	 3.115360594908013e+000	 1.882608723926719e+000	-1.303008520797633e+001
1	 3.094669555842513e+000	 1.916430812788086e+000	-1.281933025975967e+001
1	 3.073584472777031e+000	 1.950067870182429e+000	-1.257206380001206e+001
1	 3.052107703070523e+000	 1.983513122022769e+000	-1.228994203895348e+001
1	 3.030241757411437e+000	 2.016759831069224e+000	-1.197473111341552e+001
1	 3.007989299201648e+000	 2.049801301219773e+000	-1.162830541887586e+001
1	 2.985353143797493e+000	 2.082630881793222e+000	-1.125264574534226e+001
1	 2.962336257607764e+000	 2.115241971798842e+000	-1.084983721894563e+001
1	 3.198309695998757e+000	 1.793142110144684e+000	-1.301524987649450e+001
1	 3.178670556813624e+000	 1.827729904041205e+000	-1.292082141346771e+001
1	 3.158628293608679e+000	 1.862151961492185e+000	-1.278702457548032e+001
1	 3.138184815363838e+000	 1.896401373359606e+000	-1.261524330515799e+001
1	 3.117342186515054e+000	 1.930471254663603e+000	-1.240697910323630e+001
1	 3.096102626762256e+000	 1.964354748895379e+000	-1.216384985381261e+001
1	 3.074468510735240e+000	 1.998045032338640e+000	-1.188758844233911e+001
1	 3.052442367516636e+000	 2.031535318394142e+000	-1.158004116686260e+001
1	 3.030026880021336e+000	 2.064818861901898e+000	-1.124316594353399e+001
1	 3.007224884231966e+000	 2.097888963455511e+000	-1.087903030793150e+001
1	 2.984039368290266e+000	 2.130738973703105e+000	-1.048980921426518e+001
1	 2.767008261473969e+000	 1.975768954673289e+000	-1.375481112665996e+001
1	 2.745156326716522e+000	 2.006019562551172e+000	-1.324243405992987e+001
1	 2.722954721676198e+000	 2.036053906072851e+000	-1.271761837598973e+001
1	 2.700406629454409e+000	 2.065865978303493e+000	-1.218211085515379e+001
1	 2.677515369617984e+000	 2.095449834330041e+000	-1.163770734312211e+001
1	 2.654284396700450e+000	 2.124799595113841e+000	-1.108624984846172e+001
1	 2.630717298573514e+000	 2.153909451300075e+000	-1.052962354241327e+001
1	 2.606817794690175e+000	 2.182773666978905e+000	-9.969753666778965e+000
1	 2.582589734201157e+000	 2.211386583393304e+000	-9.408602355918251e+000
1	 2.558037093946534e+000	 2.239742622588618e+000	-8.848165379130450e+000
1	 2.533163976324692e+000	 2.267836290998960e+000	-8.290468809938101e+000
1	 2.788711372155723e+000	 1.991265956576792e+000	-1.346659591908350e+001
1	 2.766688041105134e+000	 2.021753835987452e+000	-1.296063572236826e+001
1	 2.744312297122522e+000	 2.052023754766099e+000	-1.244402681539616e+001
1	 2.721587348276045e+000	 2.082069658862324e+000	-1.191825262728372e+001
1	 2.698516540169660e+000	 2.111885556733959e+000	-1.138483601748955e+001
1	 2.675103354432631e+000	 2.141465523229930e+000	-1.084533680894542e+001
1	 2.651351407078246e+000	 2.170803703429568e+000	-1.030134924239151e+001
1	 2.627264446733149e+000	 2.199894316433246e+000	-9.754499356822791e+000
1	 2.602846352738986e+000	 2.228731659099303e+000	-9.206442301172503e+000
1	 2.578101133128303e+000	 2.257310109722225e+000	-8.658859582562069e+000
1	 2.553032922476773e+000	 2.285624131647170e+000	-8.113456256636537e+000
1	 2.810414482837230e+000	 2.006762958479779e+000	-1.316875864242389e+001
1	 2.788219755493519e+000	 2.037488109423218e+000	-1.267042751262707e+001
1	 2.765669872568660e+000	 2.067993603458853e+000	-1.216305131989555e+001
1	 2.742768067097567e+000	 2.098273339420692e+000	-1.164786421182158e+001
1	 2.719517710721304e+000	 2.128321279137459e+000	-1.112613063066850e+001
1	 2.695922312164874e+000	 2.158131451345657e+000	-1.059914326188441e+001
1	 2.671985515583138e+000	 2.187697955558761e+000	-1.006822092177804e+001
1	 2.647711098776373e+000	 2.217014965887358e+000	-9.534706388452490e+000
1	 2.623102971277156e+000	 2.246076734805151e+000	-8.999964180262831e+000
1	 2.598165172310488e+000	 2.274877596855761e+000	-8.465378286220524e+000
1	 2.572901868629318e+000	 2.303411972295396e+000	-7.932349852913601e+000
1	 2.832117593518570e+000	 2.022259960382399e+000	-1.286173957235516e+001
1	 2.809751469881757e+000	 2.053222382858615e+000	-1.237217746792251e+001
1	 2.787027448014699e+000	 2.083963452151246e+000	-1.187499638211246e+001
1	 2.763948785919044e+000	 2.114477019978720e+000	-1.137119490203842e+001
1	 2.740518881272978e+000	 2.144757001540650e+000	-1.086179326445566e+001
1	 2.716741269897224e+000	 2.174797379461116e+000	-1.034783169971416e+001
1	 2.692619624088216e+000	 2.204592207687736e+000	-9.830368731923384e+000
1	 2.668157750819863e+000	 2.234135615341308e+000	-9.310479438651191e+000
1	 2.643359589815660e+000	 2.263421810510898e+000	-8.789253673603296e+000
1	 2.618229211493063e+000	 2.292445083989264e+000	-8.267794255842288e+000
1	 2.592770814782297e+000	 2.321199812943656e+000	-7.747215129208479e+000
1	 2.853820704199826e+000	 2.037756962284804e+000	-1.254596559148631e+001
1	 2.831283184269936e+000	 2.068956656293786e+000	-1.206624242987979e+001
1	 2.808385023460716e+000	 2.099933300843413e+000	-1.158015723208949e+001
1	 2.785129504740552e+000	 2.130680700536533e+000	-1.108848640777232e+001
1	 2.761520051824738e+000	 2.161192723943644e+000	-1.059201985337476e+001
1	 2.737560227629725e+000	 2.191463307576405e+000	-1.009155967189469e+001
1	 2.713253732593508e+000	 2.221486459816572e+000	-9.587918865009360e+000
1	 2.688604402863628e+000	 2.251256264795160e+000	-9.081920000156405e+000
1	 2.663616208354491e+000	 2.280766886216589e+000	-8.574393855232904e+000
1	 2.638293250676009e+000	 2.310012571122761e+000	-8.066178043649780e+000
1	 2.612639760935674e+000	 2.338987653591965e+000	-7.558115622542074e+000
1	 2.875523814881082e+000	 2.053253964187143e+000	-1.222185069478449e+001
1	 2.852814898658140e+000	 2.084690929728875e+000	-1.175296846702855e+001
1	 2.829742598906793e+000	 2.115903149535490e+000	-1.127882018683525e+001
1	 2.806310223562162e+000	 2.146884381094253e+000	-1.079997314160933e+001
1	 2.782521222376647e+000	 2.177628446346550e+000	-1.031700041666029e+001
1	 2.758379185362421e+000	 2.208129235691617e+000	-9.830479971446728e+000
1	 2.733887841099043e+000	 2.238380711945352e+000	-9.340993703458871e+000
1	 2.709051054907677e+000	 2.268376914248977e+000	-8.849126501626259e+000
1	 2.683872826893645e+000	 2.298111961922277e+000	-8.355465291173971e+000
1	 2.658357289859304e+000	 2.327580058256287e+000	-7.860598071884080e+000
1	 2.632508707089417e+000	 2.356775494240340e+000	-7.365112951743794e+000
1	 2.897226925562421e+000	 2.068750966089566e+000	-1.188979647228111e+001
1	 2.874346613046457e+000	 2.100425203164026e+000	-1.143269127830897e+001
1	 2.851100174353010e+000	 2.131872998227611e+000	-1.097126298416200e+001
1	 2.827490942383945e+000	 2.163088061652005e+000	-1.050588249220205e+001
1	 2.803522392928762e+000	 2.194064168749482e+000	-1.003691927981440e+001
1	 2.779198143095355e+000	 2.224795163806850e+000	-9.564740813103978e+000
1	 2.754521949604845e+000	 2.255274964074154e+000	-9.089711962630172e+000
1	 2.729497706952019e+000	 2.285497563702824e+000	-8.612194422404206e+000
1	 2.704129445433113e+000	 2.315457037628008e+000	-8.132546133369871e+000
1	 2.678421329042928e+000	 2.345147545389874e+000	-7.651120712583249e+000
1	 2.652377653243494e+000	 2.374563334888798e+000	-7.168266889297379e+000
1	 2.918930036243927e+000	 2.084247967992224e+000	-1.155019257024392e+001
1	 2.895878327434964e+000	 2.116159476599381e+000	-1.110573657857640e+001
1	 2.872457749799449e+000	 2.147842846919910e+000	-1.065775510162977e+001
1	 2.848671661205972e+000	 2.179291742209911e+000	-1.020643508539426e+001
1	 2.824523563481143e+000	 2.210499891152546e+000	-9.751955286279639e+000
1	 2.800017100828571e+000	 2.241461091922200e+000	-9.294486003517708e+000
1	 2.775156058110943e+000	 2.272169216203060e+000	-8.834188827145370e+000
1	 2.749944358996667e+000	 2.302618213156769e+000	-8.371216402164212e+000
1	 2.724386063972889e+000	 2.332802113333830e+000	-7.905712209431874e+000
1	 2.698485368226857e+000	 2.362715032523553e+000	-7.437810363801589e+000
1	 2.672246599397870e+000	 2.392351175537356e+000	-6.967635429981378e+000
1	 2.940633146925679e+000	 2.099744969895266e+000	-1.120341713192685e+001
1	 2.917410041823754e+000	 2.131893750035086e+000	-1.077242046703536e+001
1	 2.893815325246190e+000	 2.163812695612522e+000	-1.033855806136714e+001
1	 2.869852380028318e+000	 2.195495422768095e+000	-9.901845033783236e+000
1	 2.845524734033850e+000	 2.226935613555857e+000	-9.462281999738607e+000
1	 2.820836058562116e+000	 2.258127020037764e+000	-9.019855103923989e+000
1	 2.795790166617365e+000	 2.289063468332152e+000	-8.574536081181917e+000
1	 2.770391011041629e+000	 2.319738862610873e+000	-8.126282345700293e+000
1	 2.744642682512967e+000	 2.350147189039793e+000	-7.675037108411705e+000
1	 2.718549407411074e+000	 2.380282519657359e+000	-7.220729522453760e+000
1	 2.692115545552514e+000	 2.410139016186032e+000	-6.763274856470330e+000
1	 2.962336257607764e+000	 2.115241971798842e+000	-1.084983721894563e+001
1	 2.938941756212907e+000	 2.147628023471283e+000	-1.043304977947728e+001
1	 2.915172900693314e+000	 2.179782544305583e+000	-1.001392572149248e+001
1	 2.891033098851052e+000	 2.211699103326682e+000	-9.592320175310929e+000
1	 2.866525904586939e+000	 2.243371335959520e+000	-9.168067897520627e+000
1	 2.841655016296031e+000	 2.274792948153638e+000	-8.740983585660880e+000
1	 2.816424275124137e+000	 2.305957720461509e+000	-8.310862233036788e+000
1	 2.790837663086917e+000	 2.336859512065201e+000	-7.877479523110020e+000
1	 2.764899301053341e+000	 2.367492264745944e+000	-7.440592262803943e+000
1	 2.738613446595554e+000	 2.397850006791322e+000	-6.999938853956724e+000
1	 2.711984491707391e+000	 2.427926856834841e+000	-6.555239802051834e+000
1	 2.984039368290266e+000	 2.130738973703105e+000	-1.048980921426518e+001
1	 2.960473470602511e+000	 2.163362296908118e+000	-1.008792242514779e+001
1	 2.936530476140903e+000	 2.195752392999228e+000	-9.684104554818065e+000
1	 2.912213817674248e+000	 2.227902783885794e+000	-9.278062301443946e+000
1	 2.887527075140474e+000	 2.259807058363652e+000	-8.869476555568509e+000
1	 2.862473974030363e+000	 2.291458876269918e+000	-8.458002978898520e+000
1	 2.837058383631288e+000	 2.322851972591213e+000	-8.043272634254812e+000
1	 2.811284315132539e+000	 2.353980161519819e+000	-7.624892665605959e+000
1	 2.785155919594004e+000	 2.384837340452332e+000	-7.202447026969765e+000
1	 2.758677485780279e+000	 2.415417493925475e+000	-6.775497258832669e+000
1	 2.731853437862469e+000	 2.445714697483801e+000	-6.343583310607145e+000
1	 2.533163976324692e+000	 2.267836290998960e+000	-8.290468809938101e+000
1	 2.507978409130006e+000	 2.295658029994647e+000	-7.740928157492039e+000
1	 2.482481032043097e+000	 2.323206763111350e+000	-7.202136447612031e+000
1	 2.456676310313640e+000	 2.350477275304074e+000	-6.672123848602871e+000
1	 2.430568824931228e+000	 2.377464449525057e+000	-6.148879650662934e+000
1	 2.404163269919529e+000	 2.404163269919529e+000	-5.630356070864868e+000
1	 2.377464449525057e+000	 2.430568824931227e+000	-5.114472127050143e+000
1	 2.350477275304074e+000	 2.456676310313640e+000	-4.599117572357448e+000
1	 2.323206763111350e+000	 2.482481032043097e+000	-4.082156881946933e+000
1	 2.295658029994646e+000	 2.507978409130006e+000	-3.561433283349591e+000
1	 2.267836290998959e+000	 2.533163976324692e+000	-3.034772821765225e+000
1	 2.553032922476773e+000	 2.285624131647170e+000	-8.113456256636537e+000
1	 2.527649811545008e+000	 2.313664091271059e+000	-7.574954871997136e+000
1	 2.501952445030983e+000	 2.341428903686288e+000	-7.045668497223003e+000
1	 2.475945323207677e+000	 2.368913312943507e+000	-6.523919015814378e+000
1	 2.449633062995806e+000	 2.396112161859249e+000	-6.007991482908381e+000
1	 2.423020395236747e+000	 2.423020395236746e+000	-5.496137433359045e+000
1	 2.396112161859249e+000	 2.449633062995806e+000	-4.986578252130111e+000
1	 2.368913312943507e+000	 2.475945323207676e+000	-4.477508599772623e+000
1	 2.341428903686289e+000	 2.501952445030982e+000	-3.967099885615237e+000
1	 2.313664091271059e+000	 2.527649811545009e+000	-3.453503781174732e+000
1	 2.285624131647170e+000	 2.553032922476773e+000	-2.934855766195522e+000
1	 2.572901868629318e+000	 2.303411972295396e+000	-7.932349852913601e+000
1	 2.547321213960504e+000	 2.331670152547573e+000	-7.404998662340979e+000
1	 2.521423858019364e+000	 2.359651044261410e+000	-6.885428087127696e+000
1	 2.495214336102196e+000	 2.387349350583203e+000	-6.372239060960706e+000
1	 2.468697301060834e+000	 2.414759874193777e+000	-5.863999609174096e+000
1	 2.441877520554362e+000	 2.441877520554361e+000	-5.359247677488806e+000
1	 2.414759874193777e+000	 2.468697301060833e+000	-4.856494016654626e+000
1	 2.387349350583203e+000	 2.495214336102196e+000	-4.354225116781921e+000
1	 2.359651044261410e+000	 2.521423858019364e+000	-3.850906185023444e+000
1	 2.331670152547573e+000	 2.547321213960505e+000	-3.344984160153563e+000
1	 2.303411972295396e+000	 2.572901868629318e+000	-2.834890757504684e+000
1	 2.592770814782297e+000	 2.321199812943656e+000	-7.747215129208480e+000
1	 2.566992616376451e+000	 2.349676213824190e+000	-7.231119122165040e+000
1	 2.540895271008198e+000	 2.377873184836706e+000	-6.721466248451759e+000
1	 2.514483348997150e+000	 2.405785388223142e+000	-6.217124108631552e+000
1	 2.487761539126262e+000	 2.433407586528607e+000	-5.716931187489786e+000
1	 2.460734645872333e+000	 2.460734645872333e+000	-5.219699220707561e+000
1	 2.433407586528608e+000	 2.487761539126262e+000	-4.724215611213316e+000
1	 2.405785388223142e+000	 2.514483348997150e+000	-4.229245889983130e+000
1	 2.377873184836706e+000	 2.540895271008198e+000	-3.733536215943625e+000
1	 2.349676213824190e+000	 2.566992616376451e+000	-3.235815909533096e+000
1	 2.321199812943656e+000	 2.592770814782297e+000	-2.734800014393371e+000
1	 2.612639760935674e+000	 2.338987653591965e+000	-7.558115622542074e+000
1	 2.586664018792810e+000	 2.367682275100913e+000	-7.053374032288247e+000
1	 2.560366683997438e+000	 2.396095325412165e+000	-6.553832459967687e+000
1	 2.533752361892490e+000	 2.424221425863299e+000	-6.058613062837434e+000
1	 2.506825777192050e+000	 2.452055298863711e+000	-5.566812549745371e+000
1	 2.479591771190625e+000	 2.479591771190625e+000	-5.077504102732998e+000
1	 2.452055298863711e+000	 2.506825777192050e+000	-4.589739342277179e+000
1	 2.424221425863298e+000	 2.533752361892491e+000	-4.102550331888347e+000
1	 2.396095325412165e+000	 2.560366683997438e+000	-3.614951617680842e+000
1	 2.367682275100913e+000	 2.586664018792810e+000	-3.125942298441444e+000
1	 2.338987653591965e+000	 2.612639760935674e+000	-2.634508121648107e+000
1	 2.632508707089417e+000	 2.356775494240340e+000	-7.365112951743794e+000
1	 2.606335421209538e+000	 2.385688336377744e+000	-6.871819429118615e+000
1	 2.579838096987040e+000	 2.414317465987774e+000	-6.382574706677081e+000
1	 2.553021374788173e+000	 2.442657463503651e+000	-5.896743653071390e+000
1	 2.525890015258152e+000	 2.470703011199052e+000	-5.413669232867213e+000
1	 2.498448896509196e+000	 2.498448896509196e+000	-4.932673999802125e+000
1	 2.470703011199053e+000	 2.525890015258151e+000	-4.453061627825150e+000
1	 2.442657463503652e+000	 2.553021374788173e+000	-3.974118476548683e+000
1	 2.414317465987774e+000	 2.579838096987041e+000	-3.495115187654807e+000
1	 2.385688336377744e+000	 2.606335421209539e+000	-3.015308308719559e+000
1	 2.356775494240340e+000	 2.632508707089417e+000	-2.533941940851122e+000
1	 2.652377653243494e+000	 2.374563334888798e+000	-7.168266889297379e+000
1	 2.626006823626593e+000	 2.403694397654686e+000	-6.686509669990069e+000
1	 2.599309509976958e+000	 2.432539606563527e+000	-6.207739535759626e+000
1	 2.572290387684151e+000	 2.461093501144180e+000	-5.731552478300556e+000
1	 2.544954253324521e+000	 2.489350723534602e+000	-5.257526008593717e+000
1	 2.517306021828006e+000	 2.517306021828006e+000	-4.785220238285366e+000
1	 2.489350723534602e+000	 2.544954253324522e+000	-4.314178993167939e+000
1	 2.461093501144179e+000	 2.572290387684152e+000	-3.843930956274651e+000
1	 2.432539606563527e+000	 2.599309509976957e+000	-3.373990838022684e+000
1	 2.403694397654687e+000	 2.626006823626595e+000	-2.903860570771533e+000
1	 2.374563334888798e+000	 2.652377653243494e+000	-2.433030525102878e+000
1	 2.672246599397870e+000	 2.392351175537356e+000	-6.967635429981378e+000
1	 2.645678226043938e+000	 2.421700458931741e+000	-6.497497495584494e+000
1	 2.618780922967142e+000	 2.450761747139410e+000	-6.029372110026304e+000
1	 2.591559400580378e+000	 2.479529538784858e+000	-5.563075048995024e+000
1	 2.564018491391117e+000	 2.507998435870327e+000	-5.098406911922172e+000
1	 2.536163147147017e+000	 2.536163147147017e+000	-4.635153807693333e+000
1	 2.507998435870326e+000	 2.564018491391118e+000	-4.173088066957577e+000
1	 2.479529538784858e+000	 2.591559400580378e+000	-3.711968979394967e+000
1	 2.450761747139409e+000	 2.618780922967142e+000	-3.251543554237163e+000
1	 2.421700458931741e+000	 2.645678226043937e+000	-2.791547302276912e+000
1	 2.392351175537357e+000	 2.672246599397870e+000	-2.331705037549282e+000
1	 2.692115545552514e+000	 2.410139016186032e+000	-6.763274856470330e+000
1	 2.665349628461526e+000	 2.439706520208910e+000	-6.304834089589493e+000
1	 2.638252335957553e+000	 2.468983887715412e+000	-5.847516259005457e+000
1	 2.610828413476806e+000	 2.497965576425667e+000	-5.391345827295737e+000
1	 2.583082729457892e+000	 2.526646148206194e+000	-4.936335268296071e+000
1	 2.555020272466187e+000	 2.555020272466187e+000	-4.482485373107722e+000
1	 2.526646148206194e+000	 2.583082729457892e+000	-4.029785577373986e+000
1	 2.497965576425666e+000	 2.610828413476806e+000	-3.578214309000233e+000
1	 2.468983887715411e+000	 2.638252335957553e+000	-3.127739355439606e+000
1	 2.439706520208911e+000	 2.665349628461527e+000	-2.678318249616960e+000
1	 2.410139016186032e+000	 2.692115545552514e+000	-2.229898673516585e+000
1	 2.711984491707391e+000	 2.427926856834841e+000	-6.555239802051834e+000
1	 2.685021030879321e+000	 2.457712581486198e+000	-6.108569135733802e+000
1	 2.657723748948141e+000	 2.487206028291523e+000	-5.662214527783172e+000
1	 2.630097426373389e+000	 2.516401614066581e+000	-5.216398265416546e+000
1	 2.602146967524803e+000	 2.545293860542173e+000	-4.771333719597322e+000
1	 2.573877397785479e+000	 2.573877397785478e+000	-4.327225287065696e+000
1	 2.545293860542173e+000	 2.602146967524804e+000	-3.884268348479180e+000
1	 2.516401614066580e+000	 2.630097426373389e+000	-3.442649242621144e+000
1	 2.487206028291522e+000	 2.657723748948141e+000	-3.002545256594306e+000
1	 2.457712581486198e+000	 2.685021030879322e+000	-2.564124631875669e+000
1	 2.427926856834841e+000	 2.711984491707391e+000	-2.127546586069185e+000
1	 2.731853437862469e+000	 2.445714697483801e+000	-6.343583310607145e+000
1	 2.704692433297279e+000	 2.475718642763606e+000	-5.908750872333688e+000
1	 2.677195161938863e+000	 2.505428168867732e+000	-5.473508223712492e+000
1	 2.649366439270082e+000	 2.534837651707582e+000	-5.038264842370497e+000
1	 2.621211205591807e+000	 2.563941572878231e+000	-4.603424249004076e+000
1	 2.592734523104852e+000	 2.592734523104852e+000	-4.169383600925572e+000
1	 2.563941572878231e+000	 2.621211205591807e+000	-3.736533296730396e+000
1	 2.534837651707581e+000	 2.649366439270081e+000	-3.305256592793382e+000
1	 2.505428168867732e+000	 2.677195161938863e+000	-2.875929232274991e+000
1	 2.475718642763605e+000	 2.704692433297279e+000	-2.448919087284498e+000
1	 2.445714697483802e+000	 2.731853437862469e+000	-2.024585814815900e+000
1	 2.267836290998959e+000	 2.533163976324692e+000	-3.034772821765224e+000
1	 2.239742622588619e+000	 2.558037093946534e+000	-2.503554436898569e+000
1	 2.211386583393305e+000	 2.582589734201157e+000	-1.972347183210078e+000
1	 2.182773666978905e+000	 2.606817794690176e+000	-1.443525249057456e+000
1	 2.153909451300075e+000	 2.630717298573514e+000	-9.194754724823289e-001
1	 2.124799595113840e+000	 2.654284396700450e+000	-4.025929969292680e-001
1	 2.095449834330041e+000	 2.677515369617983e+000	 1.047230739648892e-001
1	 2.065865978303493e+000	 2.700406629454409e+000	 6.000740132879739e-001
1	 2.036053906072851e+000	 2.722954721676199e+000	 1.081065790317827e+000
1	 2.006019562551172e+000	 2.745156326716522e+000	 1.545313363473224e+000
1	 1.975768954673289e+000	 2.767008261473968e+000	 1.990444937808690e+000
1	 2.285624131647170e+000	 2.553032922476773e+000	-2.934855766195522e+000
1	 2.257310109722224e+000	 2.578101133128303e+000	-2.413031247038376e+000
1	 2.228731659099303e+000	 2.602846352738986e+000	-1.892646693602731e+000
1	 2.199894316433245e+000	 2.627264446733148e+000	-1.375714839890170e+000
1	 2.170803703429568e+000	 2.651351407078246e+000	-8.642594468414085e-001
1	 2.141465523229931e+000	 2.675103354432631e+000	-3.603115870757815e-001
1	 2.111885556733959e+000	 2.698516540169659e+000	 1.340940721442484e-001
1	 2.082069658862324e+000	 2.721587348276045e+000	 6.169229798135429e-001
1	 2.052023754766099e+000	 2.744312297122521e+000	 1.086144398093585e+000
1	 2.021753835987452e+000	 2.766688041105134e+000	 1.539735077453338e+000
1	 1.991265956576792e+000	 2.788711372155724e+000	 1.975682902364639e+000
1	 2.303411972295396e+000	 2.572901868629318e+000	-2.834890757504684e+000
1	 2.274877596855761e+000	 2.598165172310488e+000	-2.322960769189957e+000
1	 2.246076734805151e+000	 2.623102971277155e+000	-1.813838765890950e+000
1	 2.217014965887358e+000	 2.647711098776373e+000	-1.309189775701442e+000
1	 2.187697955558761e+000	 2.671985515583138e+000	-8.106882990904984e-001
1	 2.158131451345657e+000	 2.695922312164874e+000	-3.200152032172532e-001
1	 2.128321279137459e+000	 2.719517710721304e+000	 1.611453863829436e-001
1	 2.098273339420692e+000	 2.742768067097567e+000	 6.311091901063519e-001
1	 2.067993603458852e+000	 2.765669872568660e+000	 1.088194867989749e+000
1	 2.037488109423218e+000	 2.788219755493518e+000	 1.530727096289721e+000
1	 2.006762958479779e+000	 2.810414482837230e+000	 1.957039620483071e+000
1	 2.321199812943656e+000	 2.592770814782297e+000	-2.734800014393371e+000
1	 2.292445083989264e+000	 2.618229211493063e+000	-2.233246994811335e+000
1	 2.263421810510898e+000	 2.643359589815661e+000	-1.735811168817787e+000
1	 2.234135615341307e+000	 2.668157750819863e+000	-1.243823280107286e+000
1	 2.204592207687736e+000	 2.692619624088216e+000	-7.586220573088701e-001
1	 2.174797379461117e+000	 2.716741269897225e+000	-2.815516987668372e-001
1	 2.144757001540649e+000	 2.740518881272977e+000	 1.860406461702753e-001
1	 2.114477019978720e+000	 2.763948785919044e+000	 6.428073939544859e-001
1	 2.083963452151246e+000	 2.787027448014699e+000	 1.087403036369242e+000
1	 2.053222382858615e+000	 2.809751469881758e+000	 1.518486637464850e+000
1	 2.022259960382399e+000	 2.832117593518569e+000	 1.934724312639907e+000
1	 2.338987653591965e+000	 2.612639760935674e+000	-2.634508121648108e+000
1	 2.310012571122760e+000	 2.638293250676008e+000	-2.143796835914288e+000
1	 2.280766886216590e+000	 2.663616208354491e+000	-1.658455085170807e+000
1	 2.251256264795159e+000	 2.688604402863627e+000	-1.179492433226907e+000
1	 2.221486459816572e+000	 2.713253732593509e+000	-7.079250074835969e-001
1	 2.191463307576405e+000	 2.737560227629726e+000	-2.447735553954726e-001
1	 2.161192723943644e+000	 2.761520051824738e+000	 2.089385034311036e-001
1	 2.130680700536533e+000	 2.785129504740552e+000	 6.521870253052013e-001
1	 2.099933300843413e+000	 2.808385023460716e+000	 1.083949086503672e+000
1	 2.068956656293786e+000	 2.831283184269936e+000	 1.503204919159491e+000
1	 2.037756962284804e+000	 2.853820704199826e+000	 1.908939834881547e+000
1	 2.356775494240340e+000	 2.632508707089417e+000	-2.533941940851121e+000
1	 2.327580058256288e+000	 2.658357289859304e+000	-2.054520014849632e+000
1	 2.298111961922277e+000	 2.683872826893644e+000	-1.581664982943834e+000
1	 2.268376914248976e+000	 2.709051054907677e+000	-1.116078026147311e+000
1	 2.238380711945352e+000	 2.733887841099044e+000	-6.584655328260852e-001
1	 2.208129235691617e+000	 2.758379185362420e+000	-2.095377083722825e-001
1	 2.177628446346551e+000	 2.782521222376647e+000	 2.299928203673908e-001
1	 2.146884381094253e+000	 2.806310223562161e+000	 6.594124028722275e-001
1	 2.115903149535490e+000	 2.829742598906794e+000	 1.078007761907701e+000
1	 2.084690929728875e+000	 2.852814898658141e+000	 1.485067386652242e+000
1	 2.053253964187143e+000	 2.875523814881082e+000	 1.879882919003655e+000
1	 2.374563334888798e+000	 2.652377653243494e+000	-2.433030525102878e+000
1	 2.345147545389875e+000	 2.678421329042928e+000	-1.965328959046163e+000
1	 2.315457037628008e+000	 2.704129445433113e+000	-1.505338492289988e+000
1	 2.285497563702824e+000	 2.729497706952019e+000	-1.053464421929264e+000
1	 2.255274964074154e+000	 2.754521949604845e+000	-6.101159603107924e-001
1	 2.224795163806849e+000	 2.779198143095354e+000	-1.757053797552684e-001
1	 2.194064168749482e+000	 2.803522392928762e+000	 2.493528488571470e-001
1	 2.163088061652005e+000	 2.827490942383944e+000	 6.646429217267419e-001
1	 2.131872998227610e+000	 2.851100174353011e+000	 1.069748570085026e+000
1	 2.100425203164026e+000	 2.874346613046457e+000	 1.464253928543348e+000
1	 2.068750966089566e+000	 2.897226925562421e+000	 1.847744401934759e+000
1	 2.392351175537357e+000	 2.672246599397870e+000	-2.331705037549283e+000
1	 2.362715032523554e+000	 2.698485368226857e+000	-1.876138700445337e+000
1	 2.332802113333830e+000	 2.724386063972889e+000	-1.429376287963671e+000
1	 2.302618213156768e+000	 2.749944358996667e+000	-9.915394228139400e-001
1	 2.272169216203061e+000	 2.775156058110944e+000	-5.627524140600652e-001
1	 2.241461091922200e+000	 2.800017100828571e+000	-1.431419190236540e-001
1	 2.210499891152547e+000	 2.824523563481142e+000	 2.671634018499061e-001
1	 2.179291742209911e+000	 2.848671661205972e+000	 6.680332363409086e-001
1	 2.147842846919909e+000	 2.872457749799449e+000	 1.059335977184710e+000
1	 2.116159476599381e+000	 2.895878327434966e+000	 1.440939083332535e+000
1	 2.084247967992224e+000	 2.918930036243927e+000	 1.812709444886708e+000
1	 2.410139016186032e+000	 2.692115545552514e+000	-2.229898673516584e+000
1	 2.380282519657360e+000	 2.718549407411073e+000	-1.786866779389400e+000
1	 2.350147189039793e+000	 2.744642682512968e+000	-1.353681976968467e+000
1	 2.319738862610872e+000	 2.770391011041629e+000	-9.301941433099624e-001
1	 2.289063468332153e+000	 2.795790166617366e+000	-5.162546752214435e-001
1	 2.258127020037764e+000	 2.820836058562116e+000	-1.117166507674543e-001
1	 2.226935613555856e+000	 2.845524734033849e+000	 2.835650171724883e-001
1	 2.195495422768095e+000	 2.869852380028318e+000	 6.697334355260258e-001
1	 2.163812695612522e+000	 2.893815325246190e+000	 1.046929594037821e+000
1	 2.131893750035085e+000	 2.917410041823753e+000	 1.415292236848846e+000
1	 2.099744969895266e+000	 2.940633146925679e+000	 1.774957742800548e+000
1	 2.427926856834841e+000	 2.711984491707391e+000	-2.127546586069186e+000
1	 2.397850006791323e+000	 2.738613446595554e+000	-1.697433152734390e+000
1	 2.367492264745944e+000	 2.764899301053342e+000	-1.278161991143850e+000
1	 2.336859512065201e+000	 2.790837663086917e+000	-8.693228888594176e-001
1	 2.305957720461509e+000	 2.816424275124138e+000	-4.705060480045535e-001
1	 2.274792948153638e+000	 2.841655016296031e+000	-8.130272907229062e-002
1	 2.243371335959520e+000	 2.866525904586940e+000	 2.986941141341621e-001
1	 2.211699103326681e+000	 2.891033098851052e+000	 6.698892096804727e-001
1	 2.179782544305583e+000	 2.915172900693315e+000	 1.032684354016161e+000
1	 2.147628023471283e+000	 2.938941756212908e+000	 1.387477811002051e+000
1	 2.115241971798842e+000	 2.962336257607765e+000	 1.734663724585573e+000
1	 2.445714697483802e+000	 2.731853437862469e+000	-2.024585814815901e+000
1	 2.415417493925476e+000	 2.758677485780278e+000	-1.607760105972858e+000
1	 2.384837340452332e+000	 2.785155919594005e+000	-1.202725484439118e+000
1	 2.353980161519820e+000	 2.811284315132540e+000	-8.088230397985660e-001
1	 2.322851972591212e+000	 2.837058383631288e+000	-4.253932315638511e-001
1	 2.291458876269918e+000	 2.862473974030362e+000	-5.177699825859482e-002
1	 2.259807058363652e+000	 2.887527075140474e+000	 3.126831432977212e-001
1	 2.227902783885794e+000	 2.912213817674249e+000	 6.686420107394618e-001
1	 2.195752392999227e+000	 2.936530476140903e+000	 1.016750683129425e+000
1	 2.163362296908118e+000	 2.960473470602511e+000	 1.357655444297072e+000
1	 2.130738973703105e+000	 2.984039368290266e+000	 1.691996744620273e+000
1	 1.975768954673289e+000	 2.767008261473968e+000	 1.990444937808690e+000
1	 1.945308146846862e+000	 2.788507479894426e+000	 2.409355142506676e+000
1	 1.914643255096348e+000	 2.809651071830004e+000	 2.796532557593406e+000
1	 1.883780445162079e+000	 2.830436266468553e+000	 3.152051523910733e+000
1	 1.852725929198409e+000	 2.850860434090399e+000	 3.476042259603096e+000
1	 1.821485961785593e+000	 2.870921086910894e+000	 3.768689409216953e+000
1	 1.790066835929240e+000	 2.890615879789326e+000	 4.030230522299761e+000
1	 1.758474879052460e+000	 2.909942610804365e+000	 4.260954465601794e+000
1	 1.726716448985847e+000	 2.928899221696398e+000	 4.461199773092393e+000
1	 1.694797929960344e+000	 2.947483798177338e+000	 4.631352938096510e+000
1	 1.662725728608005e+000	 2.965694570108715e+000	 4.771846651936595e+000
1	 1.991265956576792e+000	 2.788711372155724e+000	 1.975682902364639e+000
1	 1.960566228508145e+000	 2.810379220328354e+000	 2.387455977490585e+000
1	 1.929660815777188e+000	 2.831688652649307e+000	 2.769644431481491e+000
1	 1.898555932485416e+000	 2.852636876573476e+000	 3.121972156529807e+000
1	 1.867257839512399e+000	 2.873221241754905e+000	 3.444219027001136e+000
1	 1.835772840496374e+000	 2.893439240895928e+000	 3.736220057604459e+000
1	 1.804107277802321e+000	 2.913288510461652e+000	 3.997864484069084e+000
1	 1.772267528482681e+000	 2.932766831259905e+000	 4.229094769245865e+000
1	 1.740260000235878e+000	 2.951872128887057e+000	 4.429905537691773e+000
1	 1.708091127367755e+000	 2.970602474040235e+000	 4.600342441928381e+000
1	 1.675767366760974e+000	 2.988956082696838e+000	 4.740500963683434e+000
1	 2.006762958479779e+000	 2.810414482837230e+000	 1.957039620483071e+000
1	 1.975824310168927e+000	 2.832250960762047e+000	 2.361164224246259e+000
1	 1.944678376457553e+000	 2.853726233468411e+000	 2.737808446745160e+000
1	 1.913331419808316e+000	 2.874837486678262e+000	 3.086370430699441e+000
1	 1.881789749825994e+000	 2.895582049419351e+000	 3.406304352683489e+000
1	 1.850059719206805e+000	 2.915957394880990e+000	 3.697120152900934e+000
1	 1.818147719675098e+000	 2.935961141134096e+000	 3.958383180934549e+000
1	 1.786060177912640e+000	 2.955591051715656e+000	 4.189713759273620e+000
1	 1.753803551485679e+000	 2.974845036078005e+000	 4.390786666594731e+000
1	 1.721384324774959e+000	 2.993721149903496e+000	 4.561330542936817e+000
1	 1.688809004913743e+000	 3.012217595285378e+000	 4.701127219068591e+000
1	 2.022259960382399e+000	 2.832117593518569e+000	 1.934724312639907e+000
1	 1.991082391829358e+000	 2.854122701195576e+000	 2.330702462971785e+000
1	 1.959695937137597e+000	 2.875763814287376e+000	 2.701262044769937e+000
1	 1.928106907130930e+000	 2.897038096782952e+000	 3.045499592227284e+000
1	 1.896321660139343e+000	 2.917942857083756e+000	 3.362567673021811e+000
1	 1.864346597917032e+000	 2.938475548866074e+000	 3.651675152780903e+000
1	 1.832188161547714e+000	 2.958633771806631e+000	 3.912087369444629e+000
1	 1.799852827342474e+000	 2.978415272171569e+000	 4.143126218284666e+000
1	 1.767347102735386e+000	 2.997817943269185e+000	 4.344170148538853e+000
1	 1.734677522182089e+000	 3.016839825767045e+000	 4.514654072819015e+000
1	 1.701850643066445e+000	 3.035479107874254e+000	 4.654069190641122e+000
1	 2.037756962284804e+000	 2.853820704199826e+000	 1.908939834881547e+000
1	 2.006340473489595e+000	 2.875994441629014e+000	 2.296286503036839e+000
1	 1.974713497817474e+000	 2.897801395106263e+000	 2.660235444039683e+000
1	 1.942882394453412e+000	 2.919238706887588e+000	 2.999605183253125e+000
1	 1.910853570452600e+000	 2.940303664748141e+000	 3.313270228207373e+000
1	 1.878633476627206e+000	 2.960993702851183e+000	 3.600161831374842e+000
1	 1.846228603420313e+000	 2.981306402479240e+000	 3.859268657216242e+000
1	 1.813645476772324e+000	 3.001239492627601e+000	 4.089637353278335e+000
1	 1.780890653985136e+000	 3.020790850460533e+000	 4.290373025354097e+000
1	 1.747970719589279e+000	 3.039958501630808e+000	 4.460639616944257e+000
1	 1.714892281219213e+000	 3.058740620463381e+000	 4.599660193483451e+000
1	 2.053253964187143e+000	 2.875523814881082e+000	 1.879882919003655e+000
1	 2.021598555149789e+000	 2.897866182062439e+000	 2.258125638497857e+000
1	 1.989731058497339e+000	 2.919838975925133e+000	 2.614951912712082e+000
1	 1.957657881775916e+000	 2.941439316992211e+000	 2.948925332967427e+000
1	 1.925385480765913e+000	 2.962664472412528e+000	 3.258665371555946e+000
1	 1.892920355337473e+000	 2.983511856836313e+000	 3.542848606966035e+000
1	 1.860269045293039e+000	 3.003979033151893e+000	 3.800209848194170e+000
1	 1.827438126202331e+000	 3.024063713083709e+000	 4.029543157014710e+000
1	 1.794434205235066e+000	 3.043763757651987e+000	 4.229702767335924e+000
1	 1.761263916996664e+000	 3.063077177494705e+000	 4.399603901026632e+000
1	 1.727933919372180e+000	 3.082002133052676e+000	 4.538223479851708e+000
1	 2.068750966089566e+000	 2.897226925562421e+000	 1.847744401934759e+000
1	 2.036856636810096e+000	 2.919737922495927e+000	 2.216422892128987e+000
1	 2.004748619177347e+000	 2.941876556744046e+000	 2.565628028942937e+000
1	 1.972433369098596e+000	 2.963639927096867e+000	 2.893691035263241e+000
1	 1.939917391079437e+000	 2.985025280076940e+000	 3.198998864910501e+000
1	 1.907207234047982e+000	 3.006030010821463e+000	 3.479995854958644e+000
1	 1.874309487166035e+000	 3.026651663824572e+000	 3.735185272392418e+000
1	 1.841230775632635e+000	 3.046887933539848e+000	 3.963130753133575e+000
1	 1.807977756485311e+000	 3.066736664843483e+000	 4.162457631746892e+000
1	 1.774557114404378e+000	 3.086195853358668e+000	 4.331854160418068e+000
1	 1.740975557525482e+000	 3.105263645642056e+000	 4.470072616078645e+000
1	 2.084247967992224e+000	 2.918930036243927e+000	 1.812709444886708e+000
1	 2.052114718470668e+000	 2.941609662929547e+000	 2.171375248566288e+000
1	 2.019766179857653e+000	 2.963914137563062e+000	 2.512473929596998e+000
1	 1.987208856421604e+000	 2.985840537201594e+000	 2.834126414001426e+000
1	 1.954449301393320e+000	 3.007386087741394e+000	 3.134509160865550e+000
1	 1.921494112758879e+000	 3.028548164806635e+000	 3.411856206883721e+000
1	 1.888349929039446e+000	 3.049324294497249e+000	 3.664461100925144e+000
1	 1.855023425063373e+000	 3.069712153995974e+000	 3.890678725877344e+000
1	 1.821521307736009e+000	 3.089709572034964e+000	 4.088927005324924e+000
1	 1.787850311812554e+000	 3.109314529222617e+000	 4.257688492926704e+000
1	 1.754017195679249e+000	 3.128525158231438e+000	 4.395511842662254e+000
1	 2.099744969895266e+000	 2.940633146925679e+000	 1.774957742800548e+000
1	 2.067372800131659e+000	 2.963481403363379e+000	 2.123173877127865e+000
1	 2.034783740538409e+000	 2.985951718382242e+000	 2.455693547945144e+000
1	 2.001984343745095e+000	 3.008041147306437e+000	 2.770448976529438e+000
1	 1.968981211707714e+000	 3.029746895405916e+000	 3.065427672493883e+000
1	 1.935780991470312e+000	 3.051066318791825e+000	 3.338674836164551e+000
1	 1.902390370913415e+000	 3.071996925169904e+000	 3.588295647087494e+000
1	 1.868816074494688e+000	 3.092536374452044e+000	 3.812457435212769e+000
1	 1.835064858987296e+000	 3.112682479226365e+000	 4.009391731624348e+000
1	 1.801143509221328e+000	 3.132433205086475e+000	 4.177396196011513e+000
1	 1.767058833833616e+000	 3.151786670820736e+000	 4.314836418408599e+000
1	 2.115241971798842e+000	 2.962336257607765e+000	 1.734663724585573e+000
1	 2.082630881793222e+000	 2.985353143797493e+000	 2.072004344839036e+000
1	 2.049801301219773e+000	 3.007989299201646e+000	 2.395484840912989e+000
1	 2.016759831069223e+000	 3.030241757411437e+000	 2.702869856055827e+000
1	 1.983513122022770e+000	 3.052107703070523e+000	 2.991979031216664e+000
1	 1.950067870182429e+000	 3.073584472777031e+000	 3.260689731320208e+000
1	 1.916430812788086e+000	 3.094669555842513e+000	 3.506939654201165e+000
1	 1.882608723926719e+000	 3.115360594908013e+000	 3.728729318100655e+000
1	 1.848608410239309e+000	 3.135655386417623e+000	 3.924124423967714e+000
1	 1.814436706630833e+000	 3.155551880950169e+000	 4.091258089154503e+000
1	 1.780100471988717e+000	 3.175048183409870e+000	 4.228332949447031e+000
1	 2.130738973703105e+000	 2.984039368290266e+000	 1.691996744620273e+000
1	 2.097888963455511e+000	 3.007224884231965e+000	 2.018046820161576e+000
1	 2.064818861901898e+000	 3.030026880021336e+000	 2.332040006412569e+000
1	 2.031535318394141e+000	 3.052442367516636e+000	 2.631594043447915e+000
1	 1.998045032338640e+000	 3.074468510735241e+000	 2.914381333420375e+000
1	 1.964354748895379e+000	 3.096102626762256e+000	 3.178131957247022e+000
1	 1.930471254663603e+000	 3.117342186515054e+000	 3.420636570899053e+000
1	 1.896401373359606e+000	 3.138184815363838e+000	 3.639749176618569e+000
1	 1.862151961492184e+000	 3.158628293608679e+000	 3.833389764740890e+000
1	 1.827729904041205e+000	 3.178670556813624e+000	 3.999546822165156e+000
1	 1.793142110144684e+000	 3.198309695998757e+000	 4.136279703887466e+000
1	 1.662725728608005e+000	 2.965694570108715e+000	 4.771846651936595e+000
1	 1.630511113674446e+000	 2.983527265011494e+000	 4.888338521717948e+000
1	 1.598155724011803e+000	 3.000983163283563e+000	 4.985242162814535e+000
1	 1.565666008429836e+000	 3.018060930005414e+000	 5.061135680452144e+000
1	 1.533048422245595e+000	 3.034759373751101e+000	 5.114644358780785e+000
1	 1.500309423398188e+000	 3.051077446124149e+000	 5.144442138178348e+000
1	 1.467455468599930e+000	 3.067014241170959e+000	 5.149252996678335e+000
1	 1.434493009528169e+000	 3.082568994673866e+000	 5.127852234135998e+000
1	 1.401428489062056e+000	 3.097741083326226e+000	 5.079067658001408e+000
1	 1.368268337568320e+000	 3.112530023792000e+000	 5.001780669821898e+000
1	 1.335018969240017e+000	 3.126935471652506e+000	 4.894927251847076e+000
1	 1.675767366760974e+000	 2.988956082696838e+000	 4.740500963683434e+000
1	 1.643300075547886e+000	 3.006928648866512e+000	 4.855758838894397e+000
1	 1.610690905435004e+000	 3.024521462989988e+000	 4.950720973413080e+000
1	 1.577946355813512e+000	 3.041733179677284e+000	 5.024334631315162e+000
1	 1.545072932632920e+000	 3.058562598157479e+000	 5.075588765836733e+000
1	 1.512077144485368e+000	 3.075008661810973e+000	 5.103514930582706e+000
1	 1.478965498726573e+000	 3.091070457578299e+000	 5.107188113001603e+000
1	 1.445744497637801e+000	 3.106747215247636e+000	 5.085727489604283e+000
1	 1.412420634633105e+000	 3.122038306623423e+000	 5.038297102596272e+000
1	 1.379000390515981e+000	 3.136943244578564e+000	 4.964106457785904e+000
1	 1.345490229789387e+000	 3.151461681992926e+000	 4.862411043816695e+000
1	 1.688809004913743e+000	 3.012217595285378e+000	 4.701127219068591e+000
1	 1.656089037421116e+000	 3.030330032721981e+000	 4.815247072807977e+000
1	 1.623226086857971e+000	 3.048059762696877e+000	 4.908412386662859e+000
1	 1.590226703196920e+000	 3.065405429349620e+000	 4.979893535028178e+000
1	 1.557097443019938e+000	 3.082365822564309e+000	 5.028997523381516e+000
1	 1.523844865572194e+000	 3.098939877498229e+000	 5.055068403322528e+000
1	 1.490475528852819e+000	 3.115126673986047e+000	 5.057487626255656e+000
1	 1.456995985746994e+000	 3.130925435821791e+000	 5.035674335942073e+000
1	 1.423412780203684e+000	 3.146335529920983e+000	 4.989085600286582e+000
1	 1.389732443463149e+000	 3.161356465365480e+000	 4.917216582859938e+000
1	 1.355961490338257e+000	 3.175987892333698e+000	 4.819600654788509e+000
1	 1.701850643066445e+000	 3.035479107874254e+000	 4.654069190641124e+000
1	 1.668877999294270e+000	 3.053731416577814e+000	 4.767152872360358e+000
1	 1.635761268280842e+000	 3.071598062404152e+000	 4.858673766849382e+000
1	 1.602507050580201e+000	 3.089077679022346e+000	 4.928180365555520e+000
1	 1.569121953406790e+000	 3.106169046971532e+000	 4.975253156035223e+000
1	 1.535612586658818e+000	 3.122871093185871e+000	 4.999504609800023e+000
1	 1.501985558978823e+000	 3.139182890394173e+000	 5.000579123439149e+000
1	 1.468247473855910e+000	 3.155103656396314e+000	 4.978152913882823e+000
1	 1.434404925773956e+000	 3.170632753218907e+000	 4.931933868761313e+000
1	 1.400464496409991e+000	 3.185769686152757e+000	 4.861661352900725e+000
1	 1.366432750886794e+000	 3.200514102674838e+000	 4.767105972078022e+000
1	 1.714892281219213e+000	 3.058740620463381e+000	 4.599660193483452e+000
1	 1.681666961167484e+000	 3.077132800433932e+000	 4.711815250229607e+000
1	 1.648296449703754e+000	 3.095136362111732e+000	 4.801851607334718e+000
1	 1.614787397963496e+000	 3.112749928695398e+000	 4.869551903194402e+000
1	 1.581146463793626e+000	 3.129972271379086e+000	 4.914726552123979e+000
1	 1.547380307745388e+000	 3.146802308873854e+000	 4.937213373063237e+000
1	 1.513495589104740e+000	 3.163239106802647e+000	 4.936877184471644e+000
1	 1.479498961964707e+000	 3.179281876971192e+000	 4.913609366805154e+000
1	 1.445397071344083e+000	 3.194929976517194e+000	 4.867327394014835e+000
1	 1.411196549356671e+000	 3.210182906940406e+000	 4.797974335551196e+000
1	 1.376904011435165e+000	 3.225040313016363e+000	 4.705518330396149e+000
1	 1.727933919372180e+000	 3.082002133052676e+000	 4.538223479851710e+000
1	 1.694455923040891e+000	 3.100534184290246e+000	 4.649562984256241e+000
1	 1.660831631126843e+000	 3.118674661819535e+000	 4.738281940800525e+000
1	 1.627067745346946e+000	 3.136422178368697e+000	 4.804354156997817e+000
1	 1.593170974180589e+000	 3.153775495786915e+000	 4.847777402806387e+000
1	 1.559148028832057e+000	 3.170733524562135e+000	 4.868572747350949e+000
1	 1.525005619230725e+000	 3.187295323211441e+000	 4.866783873050264e+000
1	 1.490750450073546e+000	 3.203460097546412e+000	 4.842476368960340e+000
1	 1.456389216914231e+000	 3.219227199815839e+000	 4.795737005155471e+000
1	 1.421928602303357e+000	 3.234596127728437e+000	 4.726672989976962e+000
1	 1.387375271983537e+000	 3.249566523358289e+000	 4.635411211981166e+000
1	 1.740975557525482e+000	 3.105263645642056e+000	 4.470072616078645e+000
1	 1.707244884914625e+000	 3.123935568146672e+000	 4.580715000788838e+000
1	 1.673366812550247e+000	 3.142212961527484e+000	 4.668290731052558e+000
1	 1.639348092730692e+000	 3.160094428042173e+000	 4.732922768210987e+000
1	 1.605195484567825e+000	 3.177578720194960e+000	 4.774754621463003e+000
1	 1.570915749918973e+000	 3.194664740250668e+000	 4.793949458893022e+000
1	 1.536515649356933e+000	 3.211351539620524e+000	 4.790689205444357e+000
1	 1.502001938182587e+000	 3.227638318121956e+000	 4.765173629957992e+000
1	 1.467381362484561e+000	 3.243524423114845e+000	 4.717619423378624e+000
1	 1.432660655250214e+000	 3.259009348516858e+000	 4.648259270208745e+000
1	 1.397846532532076e+000	 3.274092733700632e+000	 4.557340915262433e+000
1	 1.754017195679249e+000	 3.128525158231438e+000	 4.395511842662256e+000
1	 1.720033846788822e+000	 3.147336952003127e+000	 4.505580740927832e+000
1	 1.685901993974103e+000	 3.165751261235494e+000	 4.592194247346055e+000
1	 1.651628440114874e+000	 3.183766677715757e+000	 4.655583395710025e+000
1	 1.617219994955478e+000	 3.201381944603160e+000	 4.695996744376194e+000
1	 1.582683471006289e+000	 3.218595955939409e+000	 4.713699327045799e+000
1	 1.548025679483521e+000	 3.235407756029868e+000	 4.708971598376421e+000
1	 1.513253426291988e+000	 3.251816538697813e+000	 4.682108376745674e+000
1	 1.478373508055239e+000	 3.267821646414212e+000	 4.633417786449274e+000
1	 1.443392708197408e+000	 3.283422569305681e+000	 4.563220201568794e+000
1	 1.408317793080948e+000	 3.298618944043411e+000	 4.471847193694052e+000
1	 1.767058833833616e+000	 3.151786670820736e+000	 4.314836418408598e+000
1	 1.732822808663616e+000	 3.170738335859523e+000	 4.424460510551110e+000
1	 1.698437175398548e+000	 3.189289560943490e+000	 4.510299422134898e+000
1	 1.663908787499634e+000	 3.207438927389378e+000	 4.572652084372266e+000
1	 1.629244505343696e+000	 3.225185169011458e+000	 4.611832313666776e+000
1	 1.594451192094152e+000	 3.242527171628312e+000	 4.628167666778685e+000
1	 1.559535709610643e+000	 3.259463972439442e+000	 4.621998297069593e+000
1	 1.524504914401911e+000	 3.275994759273966e+000	 4.593675814245376e+000
1	 1.489365653626425e+000	 3.292118869713935e+000	 4.543562149959080e+000
1	 1.454124761145104e+000	 3.307835790094913e+000	 4.472028431571515e+000
1	 1.418789053630321e+000	 3.323145154386643e+000	 4.379453866299097e+000
1	 1.780100471988717e+000	 3.175048183409870e+000	 4.228332949447031e+000
1	 1.745611770539141e+000	 3.194139719715779e+000	 4.337645814953174e+000
1	 1.710972356823719e+000	 3.212827860651388e+000	 4.422904193095097e+000
1	 1.676189134885112e+000	 3.231111177062963e+000	 4.484435617253793e+000
1	 1.641269015732624e+000	 3.248988393419792e+000	 4.522580243397554e+000
1	 1.606218913182716e+000	 3.266458387317334e+000	 4.537689673467993e+000
1	 1.571045739738455e+000	 3.283520188849218e+000	 4.530125784479236e+000
1	 1.535756402512514e+000	 3.300172979850403e+000	 4.500259565741172e+000
1	 1.500357799198286e+000	 3.316416093014017e+000	 4.448469966549101e+000
1	 1.464856814093469e+000	 3.332249010884568e+000	 4.375142756607562e+000
1	 1.429260314180360e+000	 3.347671364730342e+000	 4.280669401375721e+000
1	 1.793142110144684e+000	 3.198309695998757e+000	 4.136279703887466e+000
1	 1.758400732415532e+000	 3.217541103571808e+000	 4.245419678881139e+000
1	 1.723507538249754e+000	 3.236366160359109e+000	 4.330297830222545e+000
1	 1.688469482271451e+000	 3.254783426736442e+000	 4.391231852398470e+000
1	 1.653293526122406e+000	 3.272791617828106e+000	 4.428550169700641e+000
1	 1.617986634272130e+000	 3.290389603006430e+000	 4.442590790899152e+000
1	 1.582555769867112e+000	 3.307576405259167e+000	 4.433700172666099e+000
1	 1.547007890623957e+000	 3.324351200427108e+000	 4.402232094049110e+000
1	 1.511349944770983e+000	 3.340713316314455e+000	 4.348546544220126e+000
1	 1.475588867042669e+000	 3.356662231674654e+000	 4.273008625644455e+000
1	 1.439731574731233e+000	 3.372197575074528e+000	 4.175987474731049e+000
1	 1.335018969240017e+000	 3.126935471652506e+000	 4.894927251847076e+000
1	 1.301681772541034e+000	 3.140959295332738e+000	 4.744218556267115e+000
1	 1.268268104136253e+000	 3.154599236856098e+000	 4.532578177031257e+000
1	 1.234784312705468e+000	 3.167855363653740e+000	 4.254832030420395e+000
1	 1.201236716620890e+000	 3.180727876869459e+000	 3.905924428448325e+000
1	 1.167631600601917e+000	 3.193217109782673e+000	 3.480924673717660e+000
1	 1.133975212443531e+000	 3.205323526137257e+000	 2.975033346639191e+000
1	 1.100273759821121e+000	 3.217047718379722e+000	 2.383588278062462e+000
1	 1.066533407174408e+000	 3.228390405810319e+000	 1.702070201260397e+000
1	 1.032760272672935e+000	 3.239352432650741e+000	 9.261080781012026e-001
1	 9.989604252654352e-001	 3.249934766032135e+000	 5.148409512611321e-002
1	 1.345490229789387e+000	 3.151461681992926e+000	 4.862411043816692e+000
1	 1.311891551807665e+000	 3.165595501946556e+000	 4.719260179647006e+000
1	 1.278215802312036e+000	 3.179342428752352e+000	 4.517713480172169e+000
1	 1.244469379778353e+000	 3.192702530370364e+000	 4.252614852755832e+000
1	 1.210658652137173e+000	 3.205676009522064e+000	 3.918933977070875e+000
1	 1.176789953402282e+000	 3.218263202100959e+000	 3.511772795020616e+000
1	 1.142869580373430e+000	 3.230464575488313e+000	 3.026371681000038e+000
1	 1.108903789416096e+000	 3.242280726777507e+000	 2.458115286006003e+000
1	 1.074898793320969e+000	 3.253712380910649e+000	 1.802538050019018e+000
1	 1.040860758245642e+000	 3.264760388731104e+000	 1.055329377986952e+000
1	 1.006795800740831e+000	 3.275425724955747e+000	 2.123384756424729e-001
1	 1.355961490338257e+000	 3.175987892333698e+000	 4.819600654788510e+000
1	 1.322101331073807e+000	 3.190231708560741e+000	 4.682716714468766e+000
1	 1.288163500487353e+000	 3.204085620648993e+000	 4.489906124131486e+000
1	 1.254154446850814e+000	 3.217549697087409e+000	 4.236070039636198e+000
1	 1.220080587653086e+000	 3.230624142175128e+000	 3.916241815258517e+000
1	 1.185948306202339e+000	 3.243309294419742e+000	 3.525593338053160e+000
1	 1.151763948303092e+000	 3.255605624839903e+000	 3.059441033144526e+000
1	 1.117533819010909e+000	 3.267513735175860e+000	 2.513251533960457e+000
1	 1.083264179467451e+000	 3.279034356011568e+000	 1.882647012350985e+000
1	 1.048961243818355e+000	 3.290168344812070e+000	 1.163410164451597e+000
1	 1.014631176216317e+000	 3.300916683879955e+000	 3.514888490598647e-001
1	 1.366432750886794e+000	 3.200514102674838e+000	 4.767105972078022e+000
1	 1.332311110339624e+000	 3.214867915175308e+000	 4.635257912639863e+000
1	 1.298111198662370e+000	 3.228828812546042e+000	 4.449875068892366e+000
1	 1.263839513923010e+000	 3.242396863804885e+000	 4.205954253315511e+000
1	 1.229502523168778e+000	 3.255572274828654e+000	 3.898629969700261e+000
1	 1.195106659002230e+000	 3.268355386739017e+000	 3.523180541914638e+000
1	 1.160658316232648e+000	 3.280746674192009e+000	 3.075033906762648e+000
1	 1.126163848605685e+000	 3.292746743574747e+000	 2.549773065505227e+000
1	 1.091629565613964e+000	 3.304356331113032e+000	 1.943141189542623e+000
1	 1.057061729391169e+000	 3.315576300893580e+000	 1.251046376678511e+000
1	 1.022466551691976e+000	 3.326407642804696e+000	 4.695660552958860e-001
1	 1.376904011435165e+000	 3.225040313016363e+000	 4.705518330396151e+000
1	 1.342520889605282e+000	 3.239504121790274e+000	 4.577533152398761e+000
1	 1.308058896837248e+000	 3.253572004443512e+000	 4.398317403872843e+000
1	 1.273524580995097e+000	 3.267244030522805e+000	 4.163001138589894e+000
1	 1.238924458684401e+000	 3.280520407482642e+000	 3.866856678048123e+000
1	 1.204265011802098e+000	 3.293401479058773e+000	 3.505304485169182e+000
1	 1.169552684162233e+000	 3.305887723544611e+000	 3.073918697799793e+000
1	 1.134793878200544e+000	 3.317979751974136e+000	 2.568432317187186e+000
1	 1.099994951760619e+000	 3.329678306214997e+000	 1.984742047523567e+000
1	 1.065162214964182e+000	 3.340984256975578e+000	 1.318912783572334e+000
1	 1.030301927167889e+000	 3.351898601729900e+000	 5.671817442912676e-001
1	 1.387375271983537e+000	 3.249566523358289e+000	 4.635411211981166e+000
1	 1.352730668870948e+000	 3.264140328405665e+000	 4.510172207169549e+000
1	 1.318006595012151e+000	 3.278315196341421e+000	 4.335909173269831e+000
1	 1.283209648067233e+000	 3.292091197241182e+000	 4.107922191422659e+000
1	 1.248346394200107e+000	 3.305468540137102e+000	 3.821657286659757e+000
1	 1.213423364602087e+000	 3.318447571379005e+000	 3.472711997607932e+000
1	 1.178447052091981e+000	 3.331028772897690e+000	 3.056840604226956e+000
1	 1.143423907795610e+000	 3.343212760373997e+000	 2.569959009395133e+000
1	 1.108360337907524e+000	 3.355000281317418e+000	 2.008149271072388e+000
1	 1.073262700537491e+000	 3.366392213058008e+000	 1.367663782675981e+000
1	 1.038137302644139e+000	 3.377389560655498e+000	 6.449291001948170e-001
1	 1.397846532532076e+000	 3.274092733700632e+000	 4.557340915262433e+000
1	 1.362940448136786e+000	 3.288776535021494e+000	 4.433785979859694e+000
1	 1.327954293187240e+000	 3.303058388239788e+000	 4.263306164307301e+000
1	 1.292894715139578e+000	 3.316938363960028e+000	 4.041407588528320e+000
1	 1.257768329716046e+000	 3.330416672792032e+000	 3.763745107991442e+000
1	 1.222581717402338e+000	 3.343493663699706e+000	 3.426127531031323e+000
1	 1.187341420022024e+000	 3.356169822251225e+000	 3.024522494920184e+000
1	 1.152053937391005e+000	 3.368445768774295e+000	 2.555060997192952e+000
1	 1.116725724054791e+000	 3.380322256420249e+000	 2.014041579629017e+000
1	 1.081363186111191e+000	 3.391800169140812e+000	 1.397934163179505e+000
1	 1.045972678120807e+000	 3.402880519581427e+000	 7.033835329993514e-001
1	 1.408317793080948e+000	 3.298618944043411e+000	 4.471847193694052e+000
1	 1.373150227402962e+000	 3.313412741637784e+000	 4.348967204399464e+000
1	 1.337901991362677e+000	 3.327801580138630e+000	 4.181144660319264e+000
1	 1.302579782212286e+000	 3.341785530679351e+000	 3.964126979947323e+000
1	 1.267190265232369e+000	 3.355364805447437e+000	 3.693812239740906e+000
1	 1.231740070202997e+000	 3.368539756020867e+000	 3.366253991184008e+000
1	 1.196235787952496e+000	 3.381310871605198e+000	 2.977665739777908e+000
1	 1.160683966986851e+000	 3.393678777175001e+000	 2.524425083195468e+000
1	 1.125091110202530e+000	 3.405644231523448e+000	 2.003077506712546e+000
1	 1.089463671685380e+000	 3.417208125223935e+000	 1.410339834889883e+000
1	 1.053808053597977e+000	 3.428371478507618e+000	 7.431033393223172e-001
1	 1.418789053630321e+000	 3.323145154386643e+000	 4.379453866299097e+000
1	 1.383360006669641e+000	 3.338048948254552e+000	 4.256291116215436e+000
1	 1.347849689538625e+000	 3.352544772037962e+000	 4.090042160484389e+000
1	 1.312264849285517e+000	 3.366632697399167e+000	 3.876730246523493e+000
1	 1.276612200749228e+000	 3.380312938103318e+000	 3.612530347716837e+000
1	 1.240898423004204e+000	 3.393585848342482e+000	 3.293773532849943e+000
1	 1.205130155883532e+000	 3.406451920959592e+000	 2.916951003078650e+000
1	 1.169313996583270e+000	 3.418911785576081e+000	 2.478717794448413e+000
1	 1.133456496350850e+000	 3.430966206626969e+000	 1.975896144824198e+000
1	 1.097564157260153e+000	 3.442616081307317e+000	 1.405478524919996e+000
1	 1.061643429075730e+000	 3.453862437434002e+000	 7.646303339255391e-001
1	 1.429260314180360e+000	 3.347671364730342e+000	 4.280669401375721e+000
1	 1.393569785936990e+000	 3.362685154871817e+000	 4.156316093231188e+000
1	 1.357797387715248e+000	 3.377287963937803e+000	 3.990598067922483e+000
1	 1.321949916359428e+000	 3.391479864119481e+000	 3.779848224084260e+000
1	 1.286034136266774e+000	 3.405261070759681e+000	 3.520551414294586e+000
1	 1.250056775806104e+000	 3.418631940664543e+000	 3.209348319996189e+000
1	 1.214024523815262e+000	 3.431592970314385e+000	 2.843039001964011e+000
1	 1.177944026180386e+000	 3.444144793977504e+000	 2.418586125157901e+000
1	 1.141821882499862e+000	 3.456288181730766e+000	 1.933117857605946e+000
1	 1.105664642835609e+000	 3.468024037390906e+000	 1.383930443752658e+000
1	 1.069478804554146e+000	 3.479353396360511e+000	 7.684904534744144e-001
1	 1.439731574731233e+000	 3.372197575074528e+000	 4.175987474731049e+000
1	 1.403779565205173e+000	 3.387321361489601e+000	 4.049584268895799e+000
1	 1.367745085892707e+000	 3.402031155838170e+000	 3.883394347763417e+000
1	 1.331634983434178e+000	 3.416327030840312e+000	 3.674093396018954e+000
1	 1.295456071785157e+000	 3.430209203416529e+000	 3.418508454210621e+000
1	 1.259215128608840e+000	 3.443678032987045e+000	 3.113621252745630e+000
1	 1.222918891747823e+000	 3.456734019669561e+000	 2.756571231822924e+000
1	 1.186574055778320e+000	 3.469377802379238e+000	 2.344658247008616e+000
1	 1.150187268649676e+000	 3.481610156834798e+000	 1.875344960921571e+000
1	 1.113765128411843e+000	 3.493431993474643e+000	 1.346258922238596e+000
1	 1.077314180033310e+000	 3.504844355287081e+000	 7.551943339501813e-001
1	 9.989604252654352e-001	 3.249934766032135e+000	 5.148409512611321e-002
1	 9.651398813324286e-001	 3.260138493095665e+000	-9.232340032218778e-001
1	 9.313046005101890e-001	 3.269964816403907e+000	-1.996880779240960e+000
1	 8.974604845374918e-001	 3.279415054160485e+000	-3.169537940962074e+000
1	 8.636133751544897e-001	 3.288490638736054e+000	-4.441126029343764e+000
1	 8.297690515990591e-001	 3.297193114320970e+000	-5.811406172899778e+000
1	 7.959332281968499e-001	 3.305524134521356e+000	-7.279982059813232e+000
1	 7.621115520460927e-001	 3.313485459902493e+000	-8.846302119343806e+000
1	 7.283096007980531e-001	 3.321078955483442e+000	-1.050966190405049e+001
1	 6.945328805338571e-001	 3.328306588186819e+000	-1.226920666410119e+001
1	 6.607868237382243e-001	 3.335170424247628e+000	-1.412393410472211e+001
1	 1.006795800740831e+000	 3.275425724955747e+000	 2.123384756424729e-001
1	 9.727099843767157e-001	 3.285709485252757e+000	-7.273834657327531e-001
1	 9.386093155341527e-001	 3.295612881617041e+000	-1.761876730769984e+000
1	 9.044997422423738e-001	 3.305137242591581e+000	-2.890687964858060e+000
1	 8.703871520613904e-001	 3.314284011781864e+000	-4.113207348253135e+000
1	 8.362773695586973e-001	 3.323054745490132e+000	-5.428671151505091e+000
1	 8.021761538804225e-001	 3.331451110292612e+000	-6.836164483356367e+000
1	 7.680891964179751e-001	 3.339474880563621e+000	-8.334624221963084e+000
1	 7.340221185710891e-001	 3.347127935950536e+000	-9.922842120092556e+000
1	 6.999804696079962e-001	 3.354412258803585e+000	-1.159946807478531e+001
1	 6.659697246232671e-001	 3.361329931564333e+000	-1.336301355183467e+001
1	 1.014631176216317e+000	 3.300916683879955e+000	 3.514888490598647e-001
1	 9.802800874211786e-001	 3.311280477410428e+000	-5.536078817194667e-001
1	 9.459140305583736e-001	 3.321260946830719e+000	-1.549222397361240e+000
1	 9.115389999475941e-001	 3.330859431023176e+000	-2.634441718718294e+000
1	 8.771609289687057e-001	 3.340077384828113e+000	-3.808200977203569e+000
1	 8.427856875188232e-001	 3.348916376659676e+000	-5.069286656026256e+000
1	 8.084190795645522e-001	 3.357378086064188e+000	-6.416340001677083e+000
1	 7.740668407904775e-001	 3.365464301225003e+000	-7.847860595710868e+000
1	 7.397346363448019e-001	 3.373176916417826e+000	-9.362210076751994e+000
1	 7.054280586828629e-001	 3.380517929420490e+000	-1.095761600255763e+001
1	 6.711526255090805e-001	 3.387489438881134e+000	-1.263217584191211e+001
1	 1.022466551691976e+000	 3.326407642804696e+000	 4.695660552958860e-001
1	 9.878501904658823e-001	 3.336851469568601e+000	-4.013575746363318e-001
1	 9.532187455829029e-001	 3.346909012044858e+000	-1.358462836785308e+000
1	 9.185782576531852e-001	 3.356581619455178e+000	-2.400450840149287e+000
1	 8.839347058764531e-001	 3.365870757874714e+000	-3.525875258749963e+000
1	 8.492940054794380e-001	 3.374778007829509e+000	-4.733146145225416e+000
1	 8.146620052492227e-001	 3.383305061835990e+000	-6.020533895205200e+000
1	 7.800444851635688e-001	 3.391453721886552e+000	-7.386173351863469e+000
1	 7.454471541191473e-001	 3.399225896885227e+000	-8.828068039987391e+000
1	 7.108756477583998e-001	 3.406623600037462e+000	-1.034409451887031e+001
1	 6.763355263955969e-001	 3.413648946197964e+000	-1.193200684334278e+001
1	 1.030301927167889e+000	 3.351898601729900e+000	 5.671817442912676e-001
1	 9.954202935108945e-001	 3.362422461727201e+000	-2.700995889470346e-001
1	 9.605234606077903e-001	 3.372557077259375e+000	-1.189156946030156e+000
1	 9.256175153591821e-001	 3.382303807887502e+000	-2.188377563845837e+000
1	 8.907084827846497e-001	 3.391664130921577e+000	-3.266005582402990e+000
1	 8.558023234405420e-001	 3.400639638999539e+000	-4.420146318819791e+000
1	 8.209049309344191e-001	 3.409232037607926e+000	-5.648770675346688e+000
1	 7.860221295372192e-001	 3.417443142548177e+000	-6.949719670316836e+000
1	 7.511596718940810e-001	 3.425274877352658e+000	-8.320709080910193e+000
1	 7.163232368345507e-001	 3.432729270654426e+000	-9.759334186644445e+000
1	 6.815184272827486e-001	 3.439808453514760e+000	-1.126307460256033e+001
1	 1.038137302644139e+000	 3.377389560655498e+000	 6.449291001948170e-001
1	 1.002990396556281e+000	 3.387993453886149e+000	-1.593170591127191e-001
1	 9.678281756330861e-001	 3.398205142474185e+000	-1.040876939041414e+000
1	 9.326567730656176e-001	 3.408025996320059e+000	-1.997894321681303e+000
1	 8.974822596933115e-001	 3.417457503968606e+000	-3.028374118693173e+000
1	 8.623106414021357e-001	 3.426501270169676e+000	-4.130186995175600e+000
1	 8.271478566201258e-001	 3.435159013379910e+000	-5.301074113505121e+000
1	 7.919997739113981e-001	 3.443432563209798e+000	-6.538651985685293e+000
1	 7.568721896695579e-001	 3.451323857820037e+000	-7.840417422776820e+000
1	 7.217708259112582e-001	 3.458834941271304e+000	-9.203752570050591e+000
1	 6.867013281704680e-001	 3.465967960831457e+000	-1.062593001660281e+001
1	 1.045972678120807e+000	 3.402880519581427e+000	 7.033835329993514e-001
1	 1.010560499602108e+000	 3.413564446045371e+000	-6.850860694139511e-002
1	 9.751328906588406e-001	 3.423853207689207e+000	-9.132078479359223e-001
1	 9.396960307725256e-001	 3.433748184752760e+000	-1.828683360772724e+000
1	 9.042560366024565e-001	 3.443250877015715e+000	-2.812769565188158e+000
1	 8.688189593642189e-001	 3.452362901339825e+000	-3.863170994499077e+000
1	 8.333907823063274e-001	 3.461085989151849e+000	-4.977467268798172e+000
1	 7.979774182860748e-001	 3.469421983871322e+000	-6.153118165036135e+000
1	 7.625847074455351e-001	 3.477372838287284e+000	-7.387468772384910e+000
1	 7.272184149884663e-001	 3.484940611888026e+000	-8.677754721376555e+000
1	 6.918842290586873e-001	 3.492127468147986e+000	-1.002110747544275e+001
1	 1.053808053597977e+000	 3.428371478507618e+000	 7.431033393223172e-001
1	 1.018130602648443e+000	 3.439135438204790e+000	 2.812234177133444e-003
1	 9.824376056851037e-001	 3.449501272904357e+000	-8.057470464672417e-001
1	 9.467352884799394e-001	 3.459470373185520e+000	-1.680436378584402e+000
1	 9.110298135121008e-001	 3.469044250062812e+000	-2.618986903840241e+000
1	 8.753272773267932e-001	 3.478224532509899e+000	-3.619004027238673e+000
1	 8.396337079930086e-001	 3.487012964923652e+000	-4.677972514537991e+000
1	 8.039550626612187e-001	 3.495411404532665e+000	-5.793261677694770e+000
1	 7.682972252219670e-001	 3.503421818754314e+000	-6.962130636685289e+000
1	 7.326660040661166e-001	 3.511046282504512e+000	-8.181733646175321e+000
1	 6.970671299473389e-001	 3.518286975464283e+000	-9.449125475661953e+000
1	 1.061643429075730e+000	 3.453862437434002e+000	 7.646303339255391e-001
1	 1.025700705695351e+000	 3.464706430364328e+000	 5.511756954020592e-002
1	 9.897423207119259e-001	 3.475149338119550e+000	-7.181037945931548e-001
1	 9.537745461878929e-001	 3.485192561618248e+000	-1.552854174190127e+000
1	 9.178035904222616e-001	 3.494837623109806e+000	-2.446827169079350e+000
1	 8.818355952898580e-001	 3.504086163679801e+000	-3.397594587429006e+000
1	 8.458766336801538e-001	 3.512939940695230e+000	-4.402611563538911e+000
1	 8.099327070367999e-001	 3.521400825193738e+000	-5.459221757530828e+000
1	 7.740097429988093e-001	 3.529470799221044e+000	-6.564662625373729e+000
1	 7.381135931441535e-001	 3.537151953120691e+000	-7.716070747814986e+000
1	 7.022500308363554e-001	 3.544446482780284e+000	-8.910487206951103e+000
1	 1.069478804554146e+000	 3.479353396360511e+000	 7.684904534744144e-001
1	 1.033270808742900e+000	 3.490277422523913e+000	 8.886566921236903e-002
1	 9.970470357393574e-001	 3.500797403334707e+000	-6.498988030631006e-001
1	 9.608138038964192e-001	 3.510914750050856e+000	-1.445646314865363e+000
1	 9.245773673329560e-001	 3.520630996156605e+000	-2.296097226100258e+000
1	 8.883439132534143e-001	 3.529947794849443e+000	-3.198853850723124e+000
1	 8.521195593677479e-001	 3.538866916466493e+000	-4.151405492312669e+000
1	 8.159103514127873e-001	 3.547390245854455e+000	-5.151133558110289e+000
1	 7.797222607760179e-001	 3.555519779687395e+000	-6.195316740181037e+000
1	 7.435611822225196e-001	 3.563257623736487e+000	-7.281136252486967e+000
1	 7.074329317256694e-001	 3.570605990095922e+000	-8.405681112827965e+000
1	 1.077314180033310e+000	 3.504844355287081e+000	 7.551943339501813e-001
1	 1.040840911791156e+000	 3.515848414683465e+000	 1.045014711480631e-001
1	 1.004351750767449e+000	 3.526445468549742e+000	-6.007638170064942e-001
1	 9.678530616055532e-001	 3.536636938483259e+000	-1.358530817228596e+000
1	 9.313511442442004e-001	 3.546424369203119e+000	-2.166609558824739e+000
1	 8.948522312174626e-001	 3.555809426018735e+000	-3.022695576874690e+000
1	 8.583624850557751e-001	 3.564793892237349e+000	-3.924374764207601e+000
1	 8.218879957891512e-001	 3.573379666514729e+000	-4.869128301076999e+000
1	 7.854347785535484e-001	 3.581568760153285e+000	-5.854337651539369e+000
1	 7.490087713011586e-001	 3.589363294351826e+000	-6.877289615667894e+000
1	 7.126158326152123e-001	 3.596765497411133e+000	-7.935181426886726e+000
1	 6.607868237382243e-001	 3.335170424247628e+000	-1.412393410472211e+001
1	 6.270818393662591e-001	 3.341671678785408e+000	-1.610589126437837e+001
1	 5.934181341637264e-001	 3.347813666836248e+000	-1.824946542057387e+001
1	 5.598008987902472e-001	 3.353598738394850e+000	-2.055603701217429e+001
1	 5.262352434010413e-001	 3.359029331970649e+000	-2.302676816136517e+001
1	 4.927261961099982e-001	 3.364107971852334e+000	-2.566260156305860e+001
1	 4.592787015493515e-001	 3.368837265353978e+000	-2.846425976181651e+001
1	 4.258976195254683e-001	 3.373219900046345e+000	-3.143224480859607e+001
1	 3.925877237701084e-001	 3.377258640976893e+000	-3.456683828895697e+001
1	 3.593537007863771e-001	 3.380956327881860e+000	-3.786810171374732e+001
1	 3.262001487885013e-001	 3.384315872393811e+000	-4.133587726270343e+001
1	 6.659697246232671e-001	 3.361329931564333e+000	-1.336301355183467e+001
1	 6.320003742149505e-001	 3.367882178883140e+000	-1.524470923963546e+001
1	 5.980726267504355e-001	 3.374072341797701e+000	-1.727726465501406e+001
1	 5.641917136024434e-001	 3.379902788734986e+000	-1.946033772423853e+001
1	 5.303627850078557e-001	 3.385375977330978e+000	-2.179337772847873e+001
1	 4.965909085187302e-001	 3.390494451673717e+000	-2.427562678163345e+001
1	 4.628810675506775e-001	 3.395260839527842e+000	-2.690612161376441e+001
1	 4.292381600281079e-001	 3.399677849544182e+000	-2.968369564986573e+001
1	 3.956669971256946e-001	 3.403748268457943e+000	-3.260698137330216e+001
1	 3.621723021052770e-001	 3.407474958278943e+000	-3.567441296289505e+001
1	 3.287587092473185e-001	 3.410860853477239e+000	-3.888422919231658e+001
1	 6.711526255090805e-001	 3.387489438881134e+000	-1.263217584191211e+001
1	 6.369189090644476e-001	 3.394092678980937e+000	-1.441618756007146e+001
1	 6.027271193379755e-001	 3.400331016759193e+000	-1.634060214468315e+001
1	 5.685825284154836e-001	 3.406206839075148e+000	-1.840347875211264e+001
1	 5.344903266155143e-001	 3.411722622691323e+000	-2.060267721525242e+001
1	 5.004556209282910e-001	 3.416880931495114e+000	-2.293586194110266e+001
1	 4.664834335528003e-001	 3.421684413701723e+000	-2.540050603679032e+001
1	 4.325787005314929e-001	 3.426135799042036e+000	-2.799389565135617e+001
1	 3.987462704819556e-001	 3.430237895939014e+000	-3.071313452049921e+001
1	 3.649909034247584e-001	 3.433993588676045e+000	-3.355514870136358e+001
1	 3.313172697066006e-001	 3.437405834560681e+000	-3.651669148438451e+001
1	 6.763355263955969e-001	 3.413648946197964e+000	-1.193200684334278e+001
1	 6.418374439146737e-001	 3.420303179078740e+000	-1.362106799615497e+001
1	 6.073816119262631e-001	 3.426589691720682e+000	-1.544040297305739e+001
1	 5.729733432292812e-001	 3.432510889415307e+000	-1.738659298387859e+001
1	 5.386178682239284e-001	 3.438069268051671e+000	-1.945602889462396e+001
1	 5.043203333385939e-001	 3.443267411316521e+000	-2.164491737864700e+001
1	 4.700857995556381e-001	 3.448107987875623e+000	-2.394928722376392e+001
1	 4.359192410355516e-001	 3.452593748539921e+000	-2.636499578041887e+001
1	 4.018255438388309e-001	 3.456727523420122e+000	-2.888773553610437e+001
1	 3.678095047447776e-001	 3.460512219073185e+000	-3.151304080137160e+001
1	 3.338758301663242e-001	 3.463950815644158e+000	-3.423629449293205e+001
1	 6.815184272827486e-001	 3.439808453514760e+000	-1.126307460256033e+001
1	 6.467559787655529e-001	 3.446513679176500e+000	-1.286006975390163e+001
1	 6.120361045152155e-001	 3.452848366682128e+000	-1.457756408282893e+001
1	 5.773641580437486e-001	 3.458814939755431e+000	-1.641077884547546e+001
1	 5.427454098330107e-001	 3.464415913412002e+000	-1.835475359956411e+001
1	 5.081850457495537e-001	 3.469653891137935e+000	-2.040435444543404e+001
1	 4.736881655591105e-001	 3.474531562049550e+000	-2.255428235512375e+001
1	 4.392597815402107e-001	 3.479051698037851e+000	-2.479908157257018e+001
1	 4.049048171962606e-001	 3.483217150901287e+000	-2.713314806829884e+001
1	 3.706281060652907e-001	 3.487030849470385e+000	-2.955073803233513e+001
1	 3.364343906264664e-001	 3.490495796727684e+000	-3.204597638944502e+001
1	 6.867013281704680e-001	 3.465967960831457e+000	-1.062593001660281e+001
1	 6.516745136170079e-001	 3.472724179274157e+000	-1.213389032640404e+001
1	 6.166905971047496e-001	 3.479107041643489e+000	-1.375295533787346e+001
1	 5.817549728588000e-001	 3.485118990095495e+000	-1.547710160122015e+001
1	 5.468729514426727e-001	 3.490762558772302e+000	-1.730013228692388e+001
1	 5.120497581610830e-001	 3.496040370959349e+000	-1.921568735523551e+001
1	 4.772905315631359e-001	 3.500955136223510e+000	-2.121725375039351e+001
1	 4.426003220453980e-001	 3.505509647535838e+000	-2.329817560073608e+001
1	 4.079840905541844e-001	 3.509706778382526e+000	-2.545166440641513e+001
1	 3.734467073862539e-001	 3.513549479867663e+000	-2.767080919697282e+001
1	 3.389929510870035e-001	 3.517040777811276e+000	-2.994858664162473e+001
1	 6.918842290586873e-001	 3.492127468147986e+000	-1.002110747544274e+001
1	 6.565930484689633e-001	 3.498934679371662e+000	-1.144320630708875e+001
1	 6.213450896947828e-001	 3.505365716604721e+000	-1.296742053748648e+001
1	 5.861457876743472e-001	 3.511423040435469e+000	-1.458659459587528e+001
1	 5.510004930528263e-001	 3.517109204132556e+000	-1.629340753099377e+001
1	 5.159144705730965e-001	 3.522426850780760e+000	-1.808038494995771e+001
1	 4.808928975676334e-001	 3.527378710397507e+000	-1.993991092299561e+001
1	 4.459408625510410e-001	 3.531967597033896e+000	-2.186423983351385e+001
1	 4.110633639125423e-001	 3.536196405863857e+000	-2.384550815367998e+001
1	 3.762653087076235e-001	 3.540068110265040e+000	-2.587574612645628e+001
1	 3.415515115479128e-001	 3.543585758894952e+000	-2.794688933578478e+001
1	 6.970671299473389e-001	 3.518286975464283e+000	-9.449125475661953e+000
1	 6.615115833213421e-001	 3.525145179468955e+000	-1.078867416669231e+001
1	 6.259995822852320e-001	 3.531624391565782e+000	-1.222177838537285e+001
1	 5.905366024903045e-001	 3.537727090775320e+000	-1.374026044130579e+001
1	 5.551280346633835e-001	 3.543455849492744e+000	-1.533578495043232e+001
1	 5.197791829855072e-001	 3.548813330602162e+000	-1.699987238640733e+001
1	 4.844952635725218e-001	 3.553802284571547e+000	-1.872391254339639e+001
1	 4.492814030570671e-001	 3.558425546532040e+000	-2.049917788822797e+001
1	 4.141426372712742e-001	 3.562686033345300e+000	-2.231683678072261e+001
1	 3.790839100293557e-001	 3.566586740662535e+000	-2.416796654194107e+001
1	 3.441100720091707e-001	 3.570130739978726e+000	-2.604356635103102e+001
1	 7.022500308363554e-001	 3.544446482780284e+000	-8.910487206951103e+000
1	 6.664301181740677e-001	 3.551355679565987e+000	-1.017093099583095e+001
1	 6.306540748760146e-001	 3.557883066526630e+000	-1.151682341572691e+001
1	 5.949274173065843e-001	 3.564031141115022e+000	-1.293907215058761e+001
1	 5.592555762742563e-001	 3.569802494852851e+000	-1.442843457200668e+001
1	 5.236438953982293e-001	 3.575199810423551e+000	-1.597553274836374e+001
1	 4.880976295777198e-001	 3.580225858745636e+000	-1.757086831531828e+001
1	 4.526219435634039e-001	 3.584883496030281e+000	-1.920483718421476e+001
1	 4.172219106303195e-001	 3.589175660826871e+000	-2.086774406600629e+001
1	 3.819025113514069e-001	 3.593105371060167e+000	-2.254981678938244e+001
1	 3.466686324707544e-001	 3.596675721062616e+000	-2.424122039288029e+001
1	 7.074329317256694e-001	 3.570605990095922e+000	-8.405681112827965e+000
1	 6.713486530270640e-001	 3.577566179662699e+000	-9.590595214928491e+000
1	 6.353085674670472e-001	 3.584141741487224e+000	-1.085332687860393e+001
1	 5.993182321231001e-001	 3.590335191454545e+000	-1.218397422226304e+001
1	 5.633831178853562e-001	 3.596149140212859e+000	-1.357249213438574e+001
1	 5.275086078111761e-001	 3.601586290244922e+000	-1.500870858778748e+001
1	 4.916999955831463e-001	 3.606649432919779e+000	-1.648234076947681e+001
1	 4.559624840699785e-001	 3.611341445528634e+000	-1.798301100145258e+001
1	 4.203011839896186e-001	 3.615665288308593e+000	-1.950026242898367e+001
1	 3.847211126737328e-001	 3.619624001457956e+000	-2.102357445413324e+001
1	 3.492271929326406e-001	 3.623220702146639e+000	-2.254237789352720e+001
1	 7.126158326152123e-001	 3.596765497411133e+000	-7.935181426886726e+000
1	 6.762671878802550e-001	 3.603776679759038e+000	-9.048267253163701e+000
1	 6.399630600582476e-001	 3.610400416447522e+000	-1.023203758665539e+001
1	 6.037090469397647e-001	 3.616639241793862e+000	-1.147588367728107e+001
1	 5.675106594965956e-001	 3.622495785572754e+000	-1.276906033503789e+001
1	 5.313733202242620e-001	 3.627972770066271e+000	-1.410070339877280e+001
1	 4.953023615887203e-001	 3.633073007093981e+000	-1.545984697904235e+001
1	 4.593030245767192e-001	 3.637799395027112e+000	-1.683544044935721e+001
1	 4.233804573491112e-001	 3.642154915790479e+000	-1.821636516143672e+001
1	 3.875397139962902e-001	 3.646142631855923e+000	-1.959145086144552e+001
1	 3.517857533948060e-001	 3.649765683230813e+000	-2.094949178554803e+001
1	 3.262001487885013e-001	 3.384315872393811e+000	-4.133587726270343e+001
1	 2.931266340559612e-001	 3.387340684071736e+000	-4.498306113344305e+001
1	 2.601426139203095e-001	 3.390033282652841e+000	-4.882659625316940e+001
1	 2.272524846770250e-001	 3.392396780883214e+000	-5.287365133085530e+001
1	 1.944605489001440e-001	 3.394434352328458e+000	-5.713115042906670e+001
1	 1.617710148445833e-001	 3.396149228576582e+000	-6.160576397598928e+001
1	 1.291879959367674e-001	 3.397544696455680e+000	-6.630390043707854e+001
1	 9.671551035186207e-002	 3.398624095269112e+000	-7.123169864208424e+001
1	 6.435748067584694e-002	 3.399390814050797e+000	-7.639502076188909e+001
1	 3.211773365058886e-002	 3.399848288843145e+000	-8.179944592835155e+001
1	 0.000000000000000e+000	 3.400000000000000e+000	-8.745026448916265e+001
1	 3.287587092473185e-001	 3.410860853477239e+000	-3.888422919231658e+001
1	 2.954257814294042e-001	 3.413909390354809e+000	-4.224882631046418e+001
1	 2.621830501619328e-001	 3.416623108412469e+000	-4.578471848648932e+001
1	 2.290349462228407e-001	 3.419005144811186e+000	-4.949749847150723e+001
1	 1.959858059335152e-001	 3.421058698008491e+000	-5.339254670576236e+001
1	 1.630398705564288e-001	 3.422787024939412e+000	-5.747502395408282e+001
1	 1.302012857817726e-001	 3.424193438212349e+000	-6.174986450650523e+001
1	 9.747410130137282e-002	 3.425281303322549e+000	-6.622176993992018e+001
1	 6.486227046811306e-002	 3.426054035885894e+000	-7.089520343547660e+001
1	 3.236965003900847e-002	 3.426515098895460e+000	-7.577438464542549e+001
1	 0.000000000000000e+000	 3.426668000003317e+000	-8.086328510208664e+001
1	 3.313172697066006e-001	 3.437405834560681e+000	-3.651669148438451e+001
1	 2.977249288031724e-001	 3.440478096637889e+000	-3.960975620242186e+001
1	 2.642234864037295e-001	 3.443212934172093e+000	-4.285046112759054e+001
1	 2.308174077686785e-001	 3.445613508739142e+000	-4.624284642023739e+001
1	 1.975110629667696e-001	 3.447683043688490e+000	-4.979076975356902e+001
1	 1.643087262680443e-001	 3.449424821302194e+000	-5.349790062125034e+001
1	 1.312145756264719e-001	 3.450842179968952e+000	-5.736771511769669e+001
1	 9.823269225055085e-002	 3.451938511375909e+000	-6.140349118685543e+001
1	 6.536706026008096e-002	 3.452717257720900e+000	-6.560830433436752e+001
1	 3.262156642723695e-002	 3.453181908947675e+000	-6.998502379712885e+001
1	 0.000000000000000e+000	 3.453336000006534e+000	-7.453630916346725e+001
1	 3.338758301663242e-001	 3.463950815644158e+000	-3.423629449293205e+001
1	 3.000240761772671e-001	 3.467046802920987e+000	-3.706915882125581e+001
1	 2.662639226457273e-001	 3.469802759931710e+000	-4.002736518988098e+001
1	 2.325998693145914e-001	 3.472221872667065e+000	-4.311342401102749e+001
1	 1.990363199999830e-001	 3.474307389368425e+000	-4.632969055684696e+001
1	 1.655775819795217e-001	 3.476062617664879e+000	-4.967836098757046e+001
1	 1.322278654709650e-001	 3.477490921725426e+000	-5.316146876181308e+001
1	 9.899128319949337e-002	 3.478595719429112e+000	-5.678088142463235e+001
1	 6.587185005183170e-002	 3.479380479555727e+000	-6.053829776822820e+001
1	 3.287348281532380e-002	 3.479848718999696e+000	-6.443524535950749e+001
1	 0.000000000000000e+000	 3.480004000009550e+000	-6.847307842810780e+001
1	 3.364343906264664e-001	 3.490495796727684e+000	-3.204597638944502e+001
1	 3.023232235516898e-001	 3.493615509204113e+000	-3.463024155008809e+001
1	 2.683043588879538e-001	 3.496392585691321e+000	-3.731886397010937e+001
1	 2.343823308606329e-001	 3.498830236594936e+000	-4.011284664774858e+001
1	 2.005615770332309e-001	 3.500931735048263e+000	-4.301306234566952e+001
1	 1.668464376909529e-001	 3.502700414027417e+000	-4.602025138775815e+001
1	 1.332411553153519e-001	 3.504139663481708e+000	-4.913501974945105e+001
1	 9.974987414829747e-002	 3.505252927482079e+000	-5.235783743684306e+001
1	 6.637663984344647e-002	 3.506043701390285e+000	-5.568903714931641e+001
1	 3.312539920331854e-002	 3.506515529051426e+000	-5.912881321996817e+001
1	 0.000000000000000e+000	 3.506672000012267e+000	-6.267722082767311e+001
1	 3.389929510870035e-001	 3.517040777811276e+000	-2.994858664162473e+001
1	 3.046223709264421e-001	 3.520184215487275e+000	-3.229611494072007e+001
1	 2.703447951304372e-001	 3.522982411450922e+000	-3.472828711334014e+001
1	 2.361647924068563e-001	 3.525438600522739e+000	-3.724462058474823e+001
1	 2.020868340665886e-001	 3.527556080727968e+000	-3.984452503959478e+001
1	 1.681152934024299e-001	 3.529338210389759e+000	-4.252730203517211e+001
1	 1.342544451597327e-001	 3.530788405237732e+000	-4.529214482145352e+001
1	 1.005084650970603e-001	 3.531910135534731e+000	-4.813813836266845e+001
1	 6.688142963500628e-002	 3.532706923224483e+000	-5.106425955486827e+001
1	 3.337731559127066e-002	 3.533182339102766e+000	-5.406937763366867e+001
1	 0.000000000000000e+000	 3.533340000014583e+000	-5.715225476610858e+001
1	 3.415515115479128e-001	 3.543585758894952e+000	-2.794688933578478e+001
1	 3.069215183015248e-001	 3.546752921770478e+000	-3.006979634044624e+001
1	 2.723852313732049e-001	 3.549572237210507e+000	-3.225886449522419e+001
1	 2.379472539533150e-001	 3.552046964450459e+000	-3.451214701504325e+001
1	 2.036120911001321e-001	 3.554180426407512e+000	-3.682760949170807e+001
1	 1.693841491140445e-001	 3.555976006751856e+000	-3.920313137113703e+001
1	 1.352677350042071e-001	 3.557437146993431e+000	-4.163650755248185e+001
1	 1.012670560458789e-001	 3.558567343586992e+000	-4.412545010324614e+001
1	 6.738621942659229e-002	 3.559370145058233e+000	-4.666759008442373e+001
1	 3.362923197922968e-002	 3.559849149153620e+000	-4.926047947961131e+001
1	 0.000000000000000e+000	 3.560008000016400e+000	-5.190159322199921e+001
1	 3.441100720091707e-001	 3.570130739978726e+000	-2.604356635103102e+001
1	 3.092206656769397e-001	 3.573321628053737e+000	-2.795421335707005e+001
1	 2.744256676162848e-001	 3.576162062970079e+000	-2.991372993107499e+001
1	 2.397297155000622e-001	 3.578655328378078e+000	-3.191872597613021e+001
1	 2.051373481339368e-001	 3.580804772086859e+000	-3.396574154333005e+001
1	 1.706530048258889e-001	 3.582613803113661e+000	-3.605125022023489e+001
1	 1.362810248488753e-001	 3.584085888748745e+000	-3.817166255813714e+001
1	 1.020256469948505e-001	 3.585224551638780e+000	-4.032332953146395e+001
1	 6.789100921828561e-002	 3.586033366891444e+000	-4.250254602276448e+001
1	 3.388114836724510e-002	 3.586515959203891e+000	-4.470555432686415e+001
1	 0.000000000000000e+000	 3.586676000017616e+000	-4.692854766791360e+001
1	 3.466686324707544e-001	 3.596675721062616e+000	-2.424122039288029e+001
1	 3.115198130526881e-001	 3.599890334337058e+000	-2.595220717047987e+001
1	 2.764661038597044e-001	 3.602751888729631e+000	-2.769592472069694e+001
1	 2.415121770471513e-001	 3.605263692305578e+000	-2.946756008283755e+001
1	 2.066626051680781e-001	 3.607429117765978e+000	-3.126224589917232e+001
1	 1.719218605380546e-001	 3.609251599475123e+000	-3.307506576159040e+001
1	 1.372943146938369e-001	 3.610734630503605e+000	-3.490105951577969e+001
1	 1.027842379440721e-001	 3.611881759690019e+000	-3.673522851533197e+001
1	 6.839579901016735e-002	 3.612696588724027e+000	-3.857254081850613e+001
1	 3.413306475536642e-002	 3.613182769253480e+000	-4.040793632072018e+001
1	 0.000000000000000e+000	 3.613344000018133e+000	-4.223633181619015e+001
1	 3.492271929326406e-001	 3.623220702146639e+000	-2.254237789352720e+001
1	 3.138189604287714e-001	 3.626459040620449e+000	-2.406653569865467e+001
1	 2.785065401034917e-001	 3.629341714489162e+000	-2.560840103739049e+001
1	 2.432946385946357e-001	 3.631872056232944e+000	-2.716175809608830e+001
1	 2.081878622026318e-001	 3.634053463444835e+000	-2.872034983214842e+001
1	 1.731907162506340e-001	 3.635889395836193e+000	-3.027788532558513e+001
1	 1.383076045391921e-001	 3.637383372257951e+000	-3.182804700860051e+001
1	 1.035428288936410e-001	 3.638538967740631e+000	-3.336449776449592e+001
1	 6.890058880231857e-002	 3.639359810555891e+000	-3.488088788779877e+001
1	 3.438498114364316e-002	 3.639849579302291e+000	-3.637086189802751e+001
1	 0.000000000000000e+000	 3.640012000017849e+000	-3.782806520006511e+001
1	 3.517857533948060e-001	 3.649765683230813e+000	-2.094949178554803e+001
1	 3.161181078051911e-001	 3.653027746903922e+000	-2.229987662550992e+001
1	 2.805469763476744e-001	 3.655931540248671e+000	-2.365402516906618e+001
1	 2.450771001425687e-001	 3.658480420160160e+000	-2.500433833592763e+001
1	 2.097131192376733e-001	 3.660677809123401e+000	-2.634318672651288e+001
1	 1.744595719637188e-001	 3.662527192196826e+000	-2.766292002488993e+001
1	 1.393208943850408e-001	 3.664032114011716e+000	-2.895587620194401e+001
1	 1.043014198436543e-001	 3.665196175790536e+000	-3.021439050889385e+001
1	 6.940537859482046e-002	 3.666023032386947e+000	-3.143080425204072e+001
1	 3.463689753212482e-002	 3.666516389350228e+000	-3.259747334038896e+001
1	 0.000000000000000e+000	 3.666680000016666e+000	-3.370677659852597e+001
1	 3.666680000016666e+000	 0.000000000000000e+000	 3.543441403329178e+001
1	 3.666516389350228e+000	 3.463689753212492e-002	 3.326759532630010e+001
1	 3.666023032386948e+000	 6.940537859482068e-002	 3.113283322161373e+001
1	 3.665196175790535e+000	 1.043014198436540e-001	 2.903620150869935e+001
1	 3.664032114011715e+000	 1.393208943850406e-001	 2.698366045664787e+001
1	 3.662527192196825e+000	 1.744595719637187e-001	 2.498104713487455e+001
1	 3.660677809123401e+000	 2.097131192376734e-001	 2.303406565492205e+001
1	 3.658480420160158e+000	 2.450771001425689e-001	 2.114827734815944e+001
1	 3.655931540248671e+000	 2.805469763476741e-001	 1.932909089482825e+001
1	 3.653027746903921e+000	 3.161181078051908e-001	 1.758175242052975e+001
1	 3.649765683230813e+000	 3.517857533948059e-001	 1.591133557687405e+001
1	 3.693344000014533e+000	 0.000000000000000e+000	 3.270623289038597e+001
1	 3.693179199575722e+000	 3.488877613527524e-002	 3.073464444072460e+001
1	 3.692682254933839e+000	 6.991009267304311e-002	 2.878603911860108e+001
1	 3.691849385458404e+000	 1.050598970112210e-001	 2.686682920797852e+001
1	 3.690676858653458e+000	 1.403340322455685e-001	 2.498330475520295e+001
1	 3.689160993087310e+000	 1.757282373585245e-001	 2.314162304615894e+001
1	 3.687298161349475e+000	 2.112381474961306e-001	 2.134779799491292e+001
1	 3.685084793032175e+000	 2.468592943351136e-001	 1.960768945994287e+001
1	 3.682517377733704e+000	 2.825871065421269e-001	 1.792699250477847e+001
1	 3.679592468080790e+000	 3.184169103270726e-001	 1.631122662058565e+001
1	 3.676306682767058e+000	 3.543439300923416e-001	 1.476572492892004e+001
1	 3.720008000011599e+000	 0.000000000000000e+000	 3.006064417292111e+001
1	 3.719842009800440e+000	 3.514065473862902e-002	 2.827846177655506e+001
1	 3.719341477480015e+000	 7.041480675161087e-002	 2.651079483526189e+001
1	 3.718502595125647e+000	 1.058183741792211e-001	 2.476431885301792e+001
1	 3.717321603294685e+000	 1.413471701065709e-001	 2.304558002991302e+001
1	 3.715794793977405e+000	 1.769969027538079e-001	 2.136098404447418e+001
1	 3.713918513575290e+000	 2.127631757550383e-001	 1.971678473930852e+001
1	 3.711689165904060e+000	 2.486414885280598e-001	 1.811907272724162e+001
1	 3.709103215218715e+000	 2.846272367369182e-001	 1.657376393590783e+001
1	 3.706157189257729e+000	 3.207157128492246e-001	 1.508658810951483e+001
1	 3.702847682303435e+000	 3.569021067900821e-001	 1.366307728724904e+001
1	 3.746672000008066e+000	 0.000000000000000e+000	 2.750714211691783e+001
1	 3.746504820024573e+000	 3.539253334213540e-002	 2.590743949309745e+001
1	 3.746000700025651e+000	 7.091952083043755e-002	 2.431444948334549e+001
1	 3.745155804792418e+000	 1.065768513475459e-001	 2.273503706407949e+001
1	 3.743966347935525e+000	 1.423603079679293e-001	 2.117593246689127e+001
1	 3.742428594867207e+000	 1.782655681494496e-001	 1.964371941288031e+001
1	 3.740538865800909e+000	 2.142882040142841e-001	 1.814482324356872e+001
1	 3.738293538775842e+000	 2.504236827213071e-001	 1.668549896642343e+001
1	 3.735689052703710e+000	 2.866673669319632e-001	 1.527181923383687e+001
1	 3.732721910434723e+000	 3.230145153715789e-001	 1.390966227522850e+001
1	 3.729388681839912e+000	 3.594602834879762e-001	 1.260469980271746e+001
1	 3.773336000004134e+000	 0.000000000000000e+000	 2.505495259710984e+001
1	 3.773167630248318e+000	 3.564441194574353e-002	 2.362973253935146e+001
1	 3.772659922570928e+000	 7.142423490943686e-002	 2.220414444677347e+001
1	 3.771809014458874e+000	 1.073353285160872e-001	 2.078517050441504e+001
1	 3.770611092576107e+000	 1.433734458295249e-001	 1.937965431196291e+001
1	 3.769062395756812e+000	 1.795342335453302e-001	 1.799428871511962e+001
1	 3.767159218026396e+000	 2.158132322737551e-001	 1.663560352822839e+001
1	 3.764897911647557e+000	 2.522058769147550e-001	 1.530995316680514e+001
1	 3.762274890188694e+000	 2.887074971271775e-001	 1.402350420948874e+001
1	 3.759286631611750e+000	 3.253133178940683e-001	 1.278222290976526e+001
1	 3.755929681376454e+000	 3.620184601859726e-001	 1.159186267864399e+001
1	 3.800000000000001e+000	 0.000000000000000e+000	 2.271304254218813e+001
1	 3.799830440471870e+000	 3.589629054940256e-002	 2.145326697634696e+001
1	 3.799319145116026e+000	 7.192894898852251e-002	 2.018682066960668e+001
1	 3.798462224125175e+000	 1.080938056847368e-001	 1.892073219391597e+001
1	 3.797255837216560e+000	 1.443865836912391e-001	 1.766188927153886e+001
1	 3.795696196646321e+000	 1.808028989413303e-001	 1.641702634671681e+001
1	 3.793779570251820e+000	 2.173382605333389e-001	 1.519271204465866e+001
1	 3.791502284519238e+000	 2.539880711083034e-001	 1.399533653691144e+001
1	 3.788860727673674e+000	 2.907476273224763e-001	 1.283109883305015e+001
1	 3.785851352788797e+000	 3.276121204166252e-001	 1.170599401949172e+001
1	 3.782470680913030e+000	 3.645766368840203e-001	 1.062580046708490e+001
1	 3.826663999995868e+000	 0.000000000000000e+000	 2.049012895641585e+001
1	 3.826493250695418e+000	 3.614816915306155e-002	 1.938574795154300e+001
1	 3.825978367661124e+000	 7.243366306760815e-002	 1.826922563931928e+001
1	 3.825115433791474e+000	 1.088522828533864e-001	 1.714756755880405e+001
1	 3.823900581857011e+000	 1.453997215529534e-001	 1.602763768769144e+001
1	 3.822329997535829e+000	 1.820715643373304e-001	 1.491614589580812e+001
1	 3.820399922477241e+000	 2.188632887929226e-001	 1.381963528339050e+001
1	 3.818106657390919e+000	 2.557702653018517e-001	 1.274446942337657e+001
1	 3.815446565158653e+000	 2.927877575177752e-001	 1.169681952784590e+001
1	 3.812416073965843e+000	 3.299109229391820e-001	 1.068265155962265e+001
1	 3.809011680449607e+000	 3.671348135820680e-001	 9.707713310914826e+000
1	 3.853327999991935e+000	 0.000000000000000e+000	 1.839468756668037e+001
1	 3.853156060919162e+000	 3.640004775666967e-002	 1.743466734214279e+001
1	 3.852637590206400e+000	 7.293837714660749e-002	 1.645792008013845e+001
1	 3.851768643457932e+000	 1.096107600219277e-001	 1.547136023014869e+001
1	 3.850545326497594e+000	 1.464128594145490e-001	 1.448176149836909e+001
1	 3.848963798425434e+000	 1.833402297332110e-001	 1.349574432291568e+001
1	 3.847020274702730e+000	 2.203883170523936e-001	 1.251976323262660e+001
1	 3.844711030262634e+000	 2.575524594952997e-001	 1.156009410865804e+001
1	 3.842032402643639e+000	 2.948278877129895e-001	 1.062282136897580e+001
1	 3.838980795142871e+000	 3.322097254616714e-001	 9.713825096726996e+000
1	 3.835552679986150e+000	 3.696929902800644e-001	 8.838768134338800e+000
1	 3.879991999988402e+000	 0.000000000000000e+000	 1.643496111300126e+001
1	 3.879818871143298e+000	 3.665192636017606e-002	 1.560731108325126e+001
1	 3.879296812752037e+000	 7.344309122543419e-002	 1.475928437039728e+001
1	 3.878421853124702e+000	 1.103692371902526e-001	 1.389763760329359e+001
1	 3.877190071138434e+000	 1.474259972759073e-001	 1.302898899308624e+001
1	 3.875597599315237e+000	 1.846088951288528e-001	 1.215980596837705e+001
1	 3.873640626928349e+000	 2.219133453116393e-001	 1.129639269414775e+001
1	 3.871315403134415e+000	 2.593346536885469e-001	 1.044487749339163e+001
1	 3.868618240128634e+000	 2.968680179080345e-001	 9.611200191294520e+000
1	 3.865545516319864e+000	 3.345085279840258e-001	 8.801099402683217e+000
1	 3.862093679522626e+000	 3.722511669779585e-001	 8.020099784315239e+000
1	 3.906655999985469e+000	 0.000000000000000e+000	 1.461896729952830e+001
1	 3.906481681368015e+000	 3.690380496352986e-002	 1.391076619593293e+001
1	 3.905956035298213e+000	 7.394780530400193e-002	 1.317952469708653e+001
1	 3.905075062791944e+000	 1.111277143582526e-001	 1.243177616961564e+001
1	 3.903834815779661e+000	 1.484391351369098e-001	 1.167391937385988e+001
1	 3.902231400205331e+000	 1.858775605241362e-001	 1.091220639566381e+001
1	 3.900260979154164e+000	 2.234383735705472e-001	 1.015273046342783e+001
1	 3.897919776006298e+000	 2.611168478814930e-001	 9.401413668899998e+000
1	 3.895204077613645e+000	 2.989081481028258e-001	 8.663994611066658e+000
1	 3.892110237496803e+000	 3.368073305061777e-001	 7.946015983359742e+000
1	 3.888634679059003e+000	 3.748093436756990e-001	 7.252812125236194e+000
1	 3.933319999983334e+000	 0.000000000000000e+000	 1.295450642214103e+001
1	 3.933144491593509e+000	 3.715568356668014e-002	 1.235192752941037e+001
1	 3.932615257845103e+000	 7.445251938222434e-002	 1.172467896007618e+001
1	 3.931728272459812e+000	 1.118861915258195e-001	 1.107900663141997e+001
1	 3.930479560421403e+000	 1.494522729974376e-001	 1.042102713063447e+001
1	 3.928865201095816e+000	 1.871462259189419e-001	 9.756716078376952e+000
1	 3.926881331380236e+000	 2.249634018290042e-001	 9.091896380400387e+000
1	 3.924524148878316e+000	 2.628990420740378e-001	 8.432226385066473e+000
1	 3.921789915098675e+000	 3.009482782972785e-001	 7.783187965392719e+000
1	 3.918674958673671e+000	 3.391061330280594e-001	 7.150074545117883e+000
1	 3.915175678595246e+000	 3.773675203732345e-001	 6.537979089082316e+000
1	 3.649765683230813e+000	 3.517857533948059e-001	 1.591133557687405e+001
1	 3.646142631855923e+000	 3.875397139962905e-001	 1.429618773008255e+001
1	 3.642154915790480e+000	 4.233804573491110e-001	 1.271452020753280e+001
1	 3.637799395027112e+000	 4.593030245767192e-001	 1.117166350076209e+001
1	 3.633073007093982e+000	 4.953023615887200e-001	 9.672756118450261e+000
1	 3.627972770066271e+000	 5.313733202242620e-001	 8.222733632156631e+000
1	 3.622495785572755e+000	 5.675106594965961e-001	 6.826317775861303e+000
1	 3.616639241793862e+000	 6.037090469397646e-001	 5.488005621438315e+000
1	 3.610400416447522e+000	 6.399630600582474e-001	 4.212058852704765e+000
1	 3.603776679759039e+000	 6.762671878802548e-001	 3.002493161160716e+000
1	 3.596765497411132e+000	 7.126158326152124e-001	 1.863067786956476e+000
1	 3.676306682767058e+000	 3.543439300923416e-001	 1.476572492892004e+001
1	 3.672657284658395e+000	 3.903578925499764e-001	 1.326904910248900e+001
1	 3.668640570027081e+000	 4.264592688408317e-001	 1.179954558829545e+001
1	 3.664253376031720e+000	 4.626430640275384e-001	 1.036262274972867e+001
1	 3.659492617930285e+000	 4.989041872664869e-001	 8.963500710638217e+000
1	 3.654355292113509e+000	 5.352374529595347e-001	 7.607200272280175e+000
1	 3.648838479133311e+000	 5.716375820076131e-001	 6.298531875401698e+000
1	 3.642939346722671e+000	 6.080992031672104e-001	 5.042084629650015e+000
1	 3.636655152803182e+000	 6.446168545105612e-001	 3.842215433031281e+000
1	 3.629983248476528e+000	 6.811849849902316e-001	 2.703038204637834e+000
1	 3.622921080995963e+000	 7.177979561086598e-001	 1.628413254308695e+000
1	 3.702847682303435e+000	 3.569021067900821e-001	 1.366307728724904e+001
1	 3.699171937461023e+000	 3.931760711038122e-001	 1.228214793188697e+001
1	 3.695126224263829e+000	 4.295380803326591e-001	 1.092242809140904e+001
1	 3.690707357036439e+000	 4.659831034784319e-001	 9.589356620805775e+000
1	 3.685912228766642e+000	 5.025060129443072e-001	 8.288189093518749e+000
1	 3.680737814160723e+000	 5.391015856948495e-001	 7.023986689252773e+000
1	 3.675181172693759e+000	 5.757645045186707e-001	 5.801605118629434e+000
1	 3.669239451651285e+000	 6.124893593947065e-001	 4.625683606744127e+000
1	 3.662909889158565e+000	 6.492706489629425e-001	 3.500633958242707e+000
1	 3.656189817193663e+000	 6.861027821003025e-001	 2.430629727045322e+000
1	 3.649076664580380e+000	 7.229800796022365e-001	 1.419595514308169e+000
1	 3.729388681839912e+000	 3.594602834879762e-001	 1.260469980271746e+001
1	 3.725686590263769e+000	 3.959942496577605e-001	 1.133632541945932e+001
1	 3.721611878500688e+000	 4.326168918245666e-001	 1.008357677531567e+001
1	 3.717161338041240e+000	 4.693231429293812e-001	 8.851876799745549e+000
1	 3.712331839603034e+000	 5.061078386221668e-001	 7.646471296468993e+000
1	 3.707120336207917e+000	 5.429657184301957e-001	 6.472417900601161e+000
1	 3.701523866254123e+000	 5.798914270297597e-001	 5.334575064694584e+000
1	 3.695539556579746e+000	 6.168795156222395e-001	 4.237591095446152e+000
1	 3.689164625513729e+000	 6.539244434153747e-001	 3.185893263387631e+000
1	 3.682396385910517e+000	 6.910205792104438e-001	 2.183677008402455e+000
1	 3.675232248164469e+000	 7.281622030959103e-001	 1.234895264385744e+000
1	 3.755929681376454e+000	 3.620184601859726e-001	 1.159186267864399e+001
1	 3.752201243066594e+000	 3.988124282117838e-001	 1.043239898924641e+001
1	 3.748097532737623e+000	 4.356957033165273e-001	 9.283389136133300e+000
1	 3.743615319046093e+000	 4.726631823803677e-001	 8.150194641994689e+000
1	 3.738751450439450e+000	 5.097096643000530e-001	 7.038007241032739e+000
1	 3.733502858255094e+000	 5.468298511655627e-001	 5.951838002707308e+000
1	 3.727866559814423e+000	 5.840183495408690e-001	 4.896506476815648e+000
1	 3.721839661508096e+000	 6.212696718497973e-001	 3.876629881174528e+000
1	 3.715419361868731e+000	 6.585782378678403e-001	 2.896612353742796e+000
1	 3.708602954627166e+000	 6.959383763206328e-001	 1.960634291548935e+000
1	 3.701387831748314e+000	 7.333443265896485e-001	 1.072641799270363e+000
1	 3.782470680913030e+000	 3.645766368840203e-001	 1.062580046708490e+001
1	 3.778715895869458e+000	 4.016306067658447e-001	 9.571163122348272e+000
1	 3.774583186974591e+000	 4.387745148085147e-001	 8.522251513310826e+000
1	 3.770069300050975e+000	 4.760032218313729e-001	 7.484321184282843e+000
1	 3.765171061275874e+000	 5.133114899779525e-001	 6.462466393860860e+000
1	 3.759885380302258e+000	 5.506939839009404e-001	 5.461609501441348e+000
1	 3.754209253374684e+000	 5.881452720519883e-001	 4.486490367846050e+000
1	 3.748139766436377e+000	 6.256598280773674e-001	 3.541655790662620e+000
1	 3.741674098223633e+000	 6.632320323203232e-001	 2.631448995472072e+000
1	 3.734809523343683e+000	 7.008561734308451e-001	 1.759999204659735e+000
1	 3.727543415331994e+000	 7.385264500834197e-001	 9.312113059910842e-001
1	 3.809011680449607e+000	 3.671348135820680e-001	 9.707713310914826e+000
1	 3.805230548672322e+000	 4.044487853199054e-001	 8.753390156250722e+000
1	 3.801068841211559e+000	 4.418533263005018e-001	 7.800539478323276e+000
1	 3.796523281055853e+000	 4.793432612823781e-001	 6.854267155726237e+000
1	 3.791590672112294e+000	 5.169133156558521e-001	 5.919527434162305e+000
1	 3.786267902349411e+000	 5.545581166363182e-001	 5.001112670779413e+000
1	 3.780551946934928e+000	 5.922721945631080e-001	 4.103643085743002e+000
1	 3.774439871364629e+000	 6.300499843049378e-001	 3.231556540807210e+000
1	 3.767928834578493e+000	 6.678858267728057e-001	 2.389098365206777e+000
1	 3.761016092060141e+000	 7.057739705410574e-001	 1.580311249711004e+000
1	 3.753698998915594e+000	 7.437085735771906e-001	 8.090252301611844e-001
1	 3.835552679986150e+000	 3.696929902800644e-001	 8.838768134338796e+000
1	 3.831745201475147e+000	 4.072669638739287e-001	 7.979831050964921e+000
1	 3.827554495448490e+000	 4.449321377924626e-001	 7.118618207229178e+000
1	 3.822977262060702e+000	 4.826833007333646e-001	 6.260042988470369e+000
1	 3.818010282948695e+000	 5.205151413337383e-001	 5.408877934961267e+000
1	 3.812650424396558e+000	 5.584222493716853e-001	 4.569744938050488e+000
1	 3.806894640495177e+000	 5.963991170742170e-001	 3.747105437006594e+000
1	 3.800739976292897e+000	 6.344401405324956e-001	 2.945250635311252e+000
1	 3.794183570933372e+000	 6.725396212252713e-001	 2.168291755693208e+000
1	 3.787222660776614e+000	 7.106917676512461e-001	 1.420150353702156e+000
1	 3.779854582499194e+000	 7.488906970709290e-001	 7.045487100918145e-001
1	 3.862093679522626e+000	 3.722511669779585e-001	 8.020099784315239e+000
1	 3.858259854277893e+000	 4.100851424278770e-001	 7.251216123576167e+000
1	 3.854040149685346e+000	 4.480109492843699e-001	 6.476842837866162e+000
1	 3.849431243065491e+000	 4.860233401843139e-001	 5.701658827894050e+000
1	 3.844429893785062e+000	 5.241169670115981e-001	 4.930214057497518e+000
1	 3.839032946443703e+000	 5.622863821070315e-001	 4.166920294531532e+000
1	 3.833237334055452e+000	 6.005260395853056e-001	 3.416041846261862e+000
1	 3.827040081221221e+000	 6.388302967600287e-001	 2.681686306821241e+000
1	 3.820438307288329e+000	 6.771934156777035e-001	 1.967795334810388e+000
1	 3.813429229493175e+000	 7.156095647613878e-001	 1.278135479615701e+000
1	 3.806010166082880e+000	 7.540728205646027e-001	 6.162890754712830e-001
1	 3.888634679059003e+000	 3.748093436756990e-001	 7.252812125236195e+000
1	 3.884774507080521e+000	 4.129033209817129e-001	 6.568255752712186e+000
1	 3.880525803922092e+000	 4.510897607761975e-001	 5.875558812418847e+000
1	 3.875885224070195e+000	 4.893633796352074e-001	 5.179124542395368e+000
1	 3.870849504621382e+000	 5.277187926894180e-001	 4.483240258141410e+000
1	 3.865415468490847e+000	 5.661505148423461e-001	 3.792068730179627e+000
1	 3.859580027615782e+000	 6.046529620963637e-001	 3.109639550257537e+000
1	 3.853340186149642e+000	 6.432204529875243e-001	 2.439840502385930e+000
1	 3.846693043643426e+000	 6.818472101300851e-001	 1.786408955407915e+000
1	 3.839635798209899e+000	 7.205273618714588e-001	 1.152923294260648e+000
1	 3.832165749666732e+000	 7.592549440581793e-001	 5.427944075266814e-001
1	 3.915175678595246e+000	 3.773675203732345e-001	 6.537979089082315e+000
1	 3.911289159882991e+000	 4.157214995353987e-001	 5.931641054357643e+000
1	 3.907011458158685e+000	 4.541685722679180e-001	 5.315102206053101e+000
1	 3.902339205074782e+000	 4.927034190860264e-001	 4.692449732779640e+000
1	 3.897269115457639e+000	 5.313206183671849e-001	 4.067669007229866e+000
1	 3.891797990537994e+000	 5.700146475776188e-001	 3.444635691355850e+000
1	 3.885922721176181e+000	 6.087798846073804e-001	 2.827107824648042e+000
1	 3.879640291078204e+000	 6.476106092149703e-001	 2.218717910180335e+000
1	 3.872947779998714e+000	 6.865010045823983e-001	 1.622965013552602e+000
1	 3.865842366926857e+000	 7.254451589814351e-001	 1.043206890299920e+000
1	 3.858321333250832e+000	 7.644370675516264e-001	 4.826521577489856e-001
1	 3.596765497411132e+000	 7.126158326152124e-001	 1.863067786956475e+000
1	 3.589363294351825e+000	 7.490087713011588e-001	 7.736048452809540e-001
1	 3.581568760153285e+000	 7.854347785535488e-001	-2.866908205076378e-001
1	 3.573379666514728e+000	 8.218879957891508e-001	-1.315767572649751e+000
1	 3.564793892237348e+000	 8.583624850557747e-001	-2.311693033901740e+000
1	 3.555809426018735e+000	 8.948522312174628e-001	-3.272658598777830e+000
1	 3.546424369203119e+000	 9.313511442442009e-001	-4.196983834307883e+000
1	 3.536636938483259e+000	 9.678530616055532e-001	-5.083120759152363e+000
1	 3.526445468549742e+000	 1.004351750767448e+000	-5.929657989910798e+000
1	 3.515848414683465e+000	 1.040840911791156e+000	-6.735324743482949e+000
1	 3.504844355287081e+000	 1.077314180033311e+000	-7.498994684399074e+000
1	 3.622921080995963e+000	 7.177979561086598e-001	 1.628413254308696e+000
1	 3.615465049311848e+000	 7.544555432825085e-001	 5.996828072273364e-001
1	 3.607613833466946e+000	 7.911464394965301e-001	-4.025527901391403e-001
1	 3.599365188956308e+000	 8.278647435640266e-001	-1.376296003377983e+000
1	 3.590716979155808e+000	 8.646044743521743e-001	-2.319666084787394e+000
1	 3.581667178136880e+000	 9.013595729831021e-001	-3.230903479102166e+000
1	 3.572213873436759e+000	 9.381239051402547e-001	-4.108374120107282e+000
1	 3.562355268780022e+000	 9.748912634794354e-001	-4.950573607202580e+000
1	 3.552089686747149e+000	 1.011655370143745e+000	-5.756131250976451e+000
1	 3.541415571385863e+000	 1.048409879381463e+000	-6.523813976873569e+000
1	 3.530331490760975e+000	 1.085148380265702e+000	-7.252530076098696e+000
1	 3.649076664580380e+000	 7.229800796022365e-001	 1.419595514308168e+000
1	 3.641566804271423e+000	 7.599023152640309e-001	 4.503746994827397e-001
1	 3.633658906780143e+000	 7.968581004397330e-001	-4.950314789135574e-001
1	 3.625350711397430e+000	 8.338414913391794e-001	-1.414678180715992e+000
1	 3.616640066073833e+000	 8.708464636489086e-001	-2.306733798446792e+000
1	 3.607524930254624e+000	 9.078669147491354e-001	-3.169484239449446e+000
1	 3.598003377670048e+000	 9.448966660367626e-001	-4.001337101756458e+000
1	 3.588073599076493e+000	 9.819294653538295e-001	-4.800825733045120e+000
1	 3.577733904944330e+000	 1.018958989520610e+000	-5.566613162031127e+000
1	 3.566982728088108e+000	 1.055978846972389e+000	-6.297495891676880e+000
1	 3.555818626234796e+000	 1.092982580498757e+000	-6.992407543647218e+000
1	 3.675232248164469e+000	 7.281622030959103e-001	 1.234895264385743e+000
1	 3.667668559230636e+000	 7.653490872456820e-001	 3.238621875130903e-001
1	 3.659703980092961e+000	 8.025697613831027e-001	-5.660266408107859e-001
1	 3.651336233838164e+000	 8.398182391145390e-001	-1.432877698650036e+000
1	 3.642563152991476e+000	 8.770884529458933e-001	-2.274906077506679e+000
1	 3.633382682372007e+000	 9.143742565154637e-001	-3.090439623003818e+000
1	 3.623792881903003e+000	 9.516694269336102e-001	-3.877922973605155e+000
1	 3.613791929372667e+000	 9.889676672286075e-001	-4.635921487087110e+000
1	 3.603378123141265e+000	 1.026262608897900e+000	-5.363125044474344e+000
1	 3.592549884790161e+000	 1.063547814563778e+000	-6.058351721172939e+000
1	 3.581305761708479e+000	 1.100816780732308e+000	-6.720551315089439e+000
1	 3.701387831748314e+000	 7.333443265896485e-001	 1.072641799270363e+000
1	 3.693770314189572e+000	 7.707958592274198e-001	 2.183783332907843e-001
1	 3.685749053405477e+000	 8.082814223265831e-001	-6.173843319262866e-001
1	 3.677321756278585e+000	 8.457949868900372e-001	-1.432802648798897e+000
1	 3.668486239908798e+000	 8.833304422430448e-001	-2.226136013279774e+000
1	 3.659240434489070e+000	 9.208815982819893e-001	-2.995750746436588e+000
1	 3.649582386135648e+000	 9.584421878306851e-001	-3.740123979814759e+000
1	 3.639510259668550e+000	 9.960058691036422e-001	-4.457847434730323e+000
1	 3.629022341337930e+000	 1.033566228275474e+000	-5.147631085631352e+000
1	 3.618117041491971e+000	 1.071116782155477e+000	-5.808306697686483e+000
1	 3.606792897181959e+000	 1.108650980966191e+000	-6.438831228808057e+000
1	 3.727543415331994e+000	 7.385264500834197e-001	 9.312113059910832e-001
1	 3.719872069148313e+000	 7.762426312092003e-001	 1.322057920888356e-001
1	 3.711794126717774e+000	 8.139930832701192e-001	-6.508987944185877e-001
1	 3.703307278718762e+000	 8.517717346656040e-001	-1.416307567670352e+000
1	 3.694409326825858e+000	 8.895724315402802e-001	-2.162321878944610e+000
1	 3.685098186605857e+000	 9.273889400486128e-001	-2.887343121686544e+000
1	 3.675371890368006e+000	 9.652149487278732e-001	-3.589876447494827e+000
1	 3.665228589964140e+000	 1.003044070978804e+000	-4.268534383712431e+000
1	 3.654666559534302e+000	 1.040869847653190e+000	-4.922040343256785e+000
1	 3.643684198193497e+000	 1.078685749747331e+000	-5.549232017336153e+000
1	 3.632280032655169e+000	 1.116485181200240e+000	-6.149064641741853e+000
1	 3.753698998915594e+000	 7.437085735771906e-001	 8.090252301611850e-001
1	 3.745973824106948e+000	 7.816894031909812e-001	 6.367508466292760e-002
1	 3.737839200029932e+000	 8.197047442136549e-001	-6.683142616936262e-001
1	 3.729292801158767e+000	 8.577484824411708e-001	-1.385195302507502e+000
1	 3.720332413742714e+000	 8.958144208375151e-001	-2.085309039395094e+000
1	 3.710955938722406e+000	 9.338962818152368e-001	-2.767088593214502e+000
1	 3.701161394600098e+000	 9.719877096250615e-001	-3.429062734838345e+000
1	 3.690946920259437e+000	 1.010082272853967e+000	-4.069859326689270e+000
1	 3.680310777730361e+000	 1.048173467030906e+000	-4.688208666234695e+000
1	 3.669251354894696e+000	 1.086254717339184e+000	-5.282946722641706e+000
1	 3.657767168128049e+000	 1.124319381434289e+000	-5.853018257825630e+000
1	 3.779854582499194e+000	 7.488906970709290e-001	 7.045487100918150e-001
1	 3.772075579065561e+000	 7.871361751727187e-001	 1.116294116983043e-002
1	 3.763884273342034e+000	 8.254164051571353e-001	-6.713266886405365e-001
1	 3.755278323598675e+000	 8.637252302166685e-001	-1.341218799667811e+000
1	 3.746255500659427e+000	 9.020564101346671e-001	-1.996891781796130e+000
1	 3.736813690838762e+000	 9.404036235817622e-001	-2.636807194825938e+000
1	 3.726950898831944e+000	 9.787604705221360e-001	-3.259513098374089e+000
1	 3.716665250554443e+000	 1.017120474729001e+000	-3.863647303164728e+000
1	 3.705954995926085e+000	 1.055477086408480e+000	-4.447940535534013e+000
1	 3.694818511595526e+000	 1.093823684930882e+000	-5.011219506968689e+000
1	 3.683254303600529e+000	 1.132153581668172e+000	-5.552409880516136e+000
1	 3.806010166082880e+000	 7.540728205646027e-001	 6.162890754712830e-001
1	 3.798177334024235e+000	 7.925829471543703e-001	-2.690928662904786e-002
1	 3.789929346654160e+000	 8.311280661005048e-001	-6.615854105247860e-001
1	 3.781263846038558e+000	 8.697019779920285e-001	-1.286082819262285e+000
1	 3.772178587576050e+000	 9.082983994316514e-001	-1.898815070660139e+000
1	 3.762671442954964e+000	 9.469109653480906e-001	-2.498268929931382e+000
1	 3.752740403063570e+000	 9.855332314189841e-001	-3.083007483226075e+000
1	 3.742383580849156e+000	 1.024158676603780e+000	-3.651673184647018e+000
1	 3.731599214121452e+000	 1.062780705785770e+000	-4.202990829256003e+000
1	 3.720385668295939e+000	 1.101392652522272e+000	-4.735770444570305e+000
1	 3.708741439072548e+000	 1.139987781901724e+000	-5.248910093056230e+000
1	 3.832165749666732e+000	 7.592549440581793e-001	 5.427944075266805e-001
1	 3.824279088983057e+000	 7.980297191358923e-001	-5.207714814106548e-002
1	 3.815974419966391e+000	 8.368397270437079e-001	-6.406947339463993e-001
1	 3.807249368478485e+000	 8.756787257671810e-001	-1.221445579576975e+000
1	 3.798101674492648e+000	 9.145403887283856e-001	-1.792776231049727e+000
1	 3.788529195071056e+000	 9.534183071141238e-001	-2.353195478901970e+000
1	 3.778529907294995e+000	 9.923059923154921e-001	-2.901277240059049e+000
1	 3.768101911143579e+000	 1.031196878478174e+000	-3.435663386700547e+000
1	 3.757243432316443e+000	 1.070084325162635e+000	-3.955066515399735e+000
1	 3.745952824995893e+000	 1.108961620113198e+000	-4.458272649781128e+000
1	 3.734228574544038e+000	 1.147821982134779e+000	-4.944143869929324e+000
1	 3.858321333250832e+000	 7.644370675516264e-001	 4.826521577489853e-001
1	 3.850380843942109e+000	 8.034764911172418e-001	-6.583455477866061e-002
1	 3.842019493278809e+000	 8.425513879866889e-001	-6.102154630881647e-001
1	 3.833234890918528e+000	 8.816554735420564e-001	-1.148920334609423e+000
1	 3.824024761409275e+000	 9.207823780247851e-001	-1.680426563318356e+000
1	 3.814386947187075e+000	 9.599256488797630e-001	-2.203261836980118e+000
1	 3.804319411526238e+000	 9.990787532115453e-001	-2.716006772188940e+000
1	 3.793820241437710e+000	 1.038235080352055e+000	-3.217297511360885e+000
1	 3.782887650511028e+000	 1.077387944538931e+000	-3.705828275776501e+000
1	 3.771519981695345e+000	 1.116530587703505e+000	-4.180353868724724e+000
1	 3.759715710014934e+000	 1.155656182367169e+000	-4.639692122769390e+000
1	 3.504844355287081e+000	 1.077314180033311e+000	-7.498994684399074e+000
1	 3.493431993474643e+000	 1.113765128411843e+000	-8.212590471448490e+000
1	 3.481610156834797e+000	 1.150187268649676e+000	-8.869147468533305e+000
1	 3.469377802379237e+000	 1.186574055778320e+000	-9.469479969247685e+000
1	 3.456734019669560e+000	 1.222918891747823e+000	-1.001461835871351e+001
1	 3.443678032987045e+000	 1.259215128608840e+000	-1.050581060285095e+001
1	 3.430209203416529e+000	 1.295456071785157e+000	-1.094452339818636e+001
1	 3.416327030840312e+000	 1.331634983434178e+000	-1.133244297303316e+001
1	 3.402031155838170e+000	 1.367745085892707e+000	-1.167147553152454e+001
1	 3.387321361489601e+000	 1.403779565205173e+000	-1.196374733265910e+001
1	 3.372197575074528e+000	 1.439731574731234e+000	-1.221160439724302e+001
1	 3.530331490760975e+000	 1.085148380265702e+000	-7.252530076098696e+000
1	 3.518836138555602e+000	 1.121864398976820e+000	-7.934556784129989e+000
1	 3.506928333832647e+000	 1.158551400055168e+000	-8.563215253725410e+000
1	 3.494607026019215e+000	 1.195202790937426e+000	-9.139246377610309e+000
1	 3.481871298056221e+000	 1.231811925592805e+000	-9.663603893494168e+000
1	 3.468720368583944e+000	 1.268372107728260e+000	-1.013745594963768e+001
1	 3.455153594041044e+000	 1.304876594084805e+000	-1.056218633675432e+001
1	 3.441170470672978e+000	 1.341318597822436e+000	-1.093939537702210e+001
1	 3.426770636445833e+000	 1.377691291990981e+000	-1.127090046160831e+001
1	 3.411953872861663e+000	 1.413987813083974e+000	-1.155873622877805e+001
1	 3.396720106671580e+000	 1.450201264672493e+000	-1.180515437536539e+001
1	 3.555818626234796e+000	 1.092982580498757e+000	-6.992407543647218e+000
1	 3.544240283636571e+000	 1.129963669542497e+000	-7.643979083360389e+000
1	 3.532246510830581e+000	 1.166915531461389e+000	-8.245818612569023e+000
1	 3.519836249659356e+000	 1.203831526097284e+000	-8.798585903493533e+000
1	 3.507008576443118e+000	 1.240704959438558e+000	-9.303149586396845e+000
1	 3.493762704181139e+000	 1.277529086848464e+000	-9.760588791599036e+000
1	 3.480097984665906e+000	 1.314297116385243e+000	-1.017219446493154e+001
1	 3.466013910506030e+000	 1.351002212211490e+000	-1.053947034736972e+001
1	 3.451510117053901e+000	 1.387637498090054e+000	-1.086413361019480e+001
1	 3.436586384234134e+000	 1.424196060963575e+000	-1.114811513768498e+001
1	 3.421242638269016e+000	 1.460670954614553e+000	-1.139355945002609e+001
1	 3.581305761708479e+000	 1.100816780732308e+000	-6.720551315089439e+000
1	 3.569644428717461e+000	 1.138062940108699e+000	-7.342711049746010e+000
1	 3.557564687828503e+000	 1.175279662868157e+000	-7.918730472528093e+000
1	 3.545065473299544e+000	 1.212460261257707e+000	-8.449180619498229e+000
1	 3.532145854830122e+000	 1.249597993284889e+000	-8.934836667462017e+000
1	 3.518805039778498e+000	 1.286686065969255e+000	-9.376679652617655e+000
1	 3.505042375290976e+000	 1.323717638686274e+000	-9.775897871042565e+000
1	 3.490857350339327e+000	 1.360685826601141e+000	-1.013388795174656e+001
1	 3.476249597662238e+000	 1.397583704189727e+000	-1.045225559361198e+001
1	 3.461218895606880e+000	 1.434404308843775e+000	-1.073281595816928e+001
1	 3.445765169866719e+000	 1.471140644557212e+000	-1.097759371082750e+001
1	 3.606792897181959e+000	 1.108650980966191e+000	-6.438831228808057e+000
1	 3.595048573798192e+000	 1.146162210675251e+000	-7.032553968304178e+000
1	 3.582882864826309e+000	 1.183643794275289e+000	-7.583673648022250e+000
1	 3.570294696939667e+000	 1.221088996418505e+000	-8.092665053257473e+000
1	 3.557283133217109e+000	 1.258491027131605e+000	-8.560201672148544e+000
1	 3.543847375375882e+000	 1.295843045090436e+000	-8.987157491182158e+000
1	 3.529986765916116e+000	 1.333138160987702e+000	-9.374608482213819e+000
1	 3.515700790172728e+000	 1.370369440991190e+000	-9.723833771750584e+000
1	 3.500989078270704e+000	 1.407529910289798e+000	-1.003631648380566e+001
1	 3.485851406979773e+000	 1.444612556724376e+000	-1.031374424824437e+001
1	 3.470287701464573e+000	 1.481610334500272e+000	-1.055800936718404e+001
1	 3.632280032655169e+000	 1.116485181200240e+000	-6.149064641741853e+000
1	 3.620452718878675e+000	 1.154261481241977e+000	-6.715258566720889e+000
1	 3.608201041823901e+000	 1.192007925682604e+000	-7.242322598603028e+000
1	 3.595523920579608e+000	 1.229717731579492e+000	-7.730627855514258e+000
1	 3.582420411603949e+000	 1.267384060978512e+000	-8.180738009407827e+000
1	 3.568889710973160e+000	 1.305000024211814e+000	-8.593411158676171e+000
1	 3.554931156541185e+000	 1.342558683289327e+000	-8.969601403229490e+000
1	 3.540544230006091e+000	 1.380053055381439e+000	-9.310460112824018e+000
1	 3.525728558879165e+000	 1.417476116390069e+000	-9.617336879965444e+000
1	 3.510483918352681e+000	 1.454820804605176e+000	-9.891780149293384e+000
1	 3.494810233062459e+000	 1.492080024443532e+000	-1.013553751597141e+001
1	 3.657767168128049e+000	 1.124319381434289e+000	-5.853018257825630e+000
1	 3.645856863958831e+000	 1.162360751808704e+000	-6.392526776755256e+000
1	 3.633519218821176e+000	 1.200372057089920e+000	-6.896305113625147e+000
1	 3.620753144219252e+000	 1.238346466740478e+000	-7.364613398460618e+000
1	 3.607557689990518e+000	 1.276277094825420e+000	-7.797897464200116e+000
1	 3.593932046570194e+000	 1.314157003333191e+000	-8.196790796699791e+000
1	 3.579875547166042e+000	 1.351979205590951e+000	-8.562116199412145e+000
1	 3.565387669839278e+000	 1.389736669771687e+000	-8.894887163585953e+000
1	 3.550468039487480e+000	 1.427422322490340e+000	-9.196308935347741e+000
1	 3.535116429725481e+000	 1.465029052485976e+000	-9.467779271577786e+000
1	 3.519332764660260e+000	 1.502549714386791e+000	-9.710888877082144e+000
1	 3.683254303600529e+000	 1.132153581668172e+000	-5.552409880516136e+000
1	 3.671261009038573e+000	 1.170460022375256e+000	-6.066013422513249e+000
1	 3.658837395818034e+000	 1.208736188497053e+000	-6.547203926972851e+000
1	 3.645982367858484e+000	 1.246975201901277e+000	-6.996123307716072e+000
1	 3.632694968376690e+000	 1.285170128672135e+000	-7.413091637629133e+000
1	 3.618974382166853e+000	 1.323313982454373e+000	-7.798609176376115e+000
1	 3.604819937790552e+000	 1.361399727892379e+000	-8.153358126240859e+000
1	 3.590231109672148e+000	 1.399420284161736e+000	-8.478204107031724e+000
1	 3.575207520095516e+000	 1.437368528590412e+000	-8.774197341467437e+000
1	 3.559748941098035e+000	 1.475237300366577e+000	-9.042573542981728e+000
1	 3.543855296257858e+000	 1.513019404329850e+000	-9.284754498442052e+000
1	 3.708741439072548e+000	 1.139987781901724e+000	-5.248910093056230e+000
1	 3.696665154117818e+000	 1.178559292941458e+000	-5.737327839108591e+000
1	 3.684155572814372e+000	 1.217100319903820e+000	-6.196558265206095e+000
1	 3.671211591497188e+000	 1.255603937061700e+000	-6.626617931138227e+000
1	 3.657832246762335e+000	 1.294063162518466e+000	-7.027693327695141e+000
1	 3.644016717762999e+000	 1.332470961575163e+000	-7.400142982434474e+000
1	 3.629764328414572e+000	 1.370820250193410e+000	-7.744499308268138e+000
1	 3.615074549504560e+000	 1.409103898551387e+000	-8.061470185913839e+000
1	 3.599947000703133e+000	 1.447314734690084e+000	-8.351940271707658e+000
1	 3.584381452470216e+000	 1.485445548246777e+000	-8.616972022759649e+000
1	 3.568377827855136e+000	 1.523489094272510e+000	-8.857806431956650e+000
1	 3.734228574544038e+000	 1.147821982134779e+000	-4.944143869929324e+000
1	 3.722069299196483e+000	 1.186658563507135e+000	-5.408035425036988e+000
1	 3.709473749810091e+000	 1.225464451310042e+000	-5.845865332307537e+000
1	 3.696440815135249e+000	 1.264232672221558e+000	-6.257517747482901e+000
1	 3.682969525147330e+000	 1.302956196364219e+000	-6.643037853504173e+000
1	 3.669059053358499e+000	 1.341627940695366e+000	-7.002634044707953e+000
1	 3.654708719037963e+000	 1.380240772493848e+000	-7.336679869758151e+000
1	 3.639917989336374e+000	 1.418787512940442e+000	-7.645715724493829e+000
1	 3.624686481310193e+000	 1.457260940789157e+000	-7.930450286287585e+000
1	 3.609013963841896e+000	 1.495653796126379e+000	-8.191761681959813e+000
1	 3.592900359451976e+000	 1.533958784214570e+000	-8.430698381776553e+000
1	 3.759715710014934e+000	 1.155656182367169e+000	-4.639692122769390e+000
1	 3.747473444274480e+000	 1.194757834072111e+000	-5.079659131409003e+000
1	 3.734791926805089e+000	 1.233828582715533e+000	-5.496581734039026e+000
1	 3.721670038772552e+000	 1.272861407380663e+000	-5.890204717768415e+000
1	 3.708106803531545e+000	 1.311849230209201e+000	-6.260424325616229e+000
1	 3.694101388953216e+000	 1.350784919814787e+000	-6.607290519541247e+000
1	 3.679653109660587e+000	 1.389661294793495e+000	-6.931009019337640e+000
1	 3.664761429167448e+000	 1.428471127328699e+000	-7.231943108735507e+000
1	 3.649425961916560e+000	 1.467207146887431e+000	-7.510615200421577e+000
1	 3.633646475212943e+000	 1.505862044005179e+000	-7.767708152104770e+000
1	 3.617422891048259e+000	 1.544428474155829e+000	-8.004066326195311e+000
1	 3.372197575074528e+000	 1.439731574731234e+000	-1.221160439724302e+001
1	 3.356662231674654e+000	 1.475588867042669e+000	-1.242417562215293e+001
1	 3.340713316314456e+000	 1.511349944770984e+000	-1.260868031161350e+001
1	 3.324351200427108e+000	 1.547007890623957e+000	-1.276465085934349e+001
1	 3.307576405259167e+000	 1.582555769867112e+000	-1.289160455671940e+001
1	 3.290389603006430e+000	 1.617986634272130e+000	-1.298904439158162e+001
1	 3.272791617828106e+000	 1.653293526122406e+000	-1.305645989650536e+001
1	 3.254783426736442e+000	 1.688469482271450e+000	-1.309332804562638e+001
1	 3.236366160359109e+000	 1.723507538249754e+000	-1.309911419896660e+001
1	 3.217541103571808e+000	 1.758400732415532e+000	-1.307327309305491e+001
1	 3.198309695998757e+000	 1.793142110144684e+000	-1.301524987649450e+001
1	 3.396720106671580e+000	 1.450201264672493e+000	-1.180515437536539e+001
1	 3.381071790665133e+000	 1.486319310265351e+000	-1.201757900568556e+001
1	 3.365006895213961e+000	 1.522340441605221e+000	-1.220160431592628e+001
1	 3.348525794452300e+000	 1.558257691097506e+000	-1.235678397372654e+001
1	 3.331629013417209e+000	 1.594064073578511e+000	-1.248265389171606e+001
1	 3.314317229192684e+000	 1.629752590292575e+000	-1.257873297134663e+001
1	 3.296591271931205e+000	 1.665316232926751e+000	-1.264452390043179e+001
1	 3.278452125749841e+000	 1.700747987698722e+000	-1.267951400365680e+001
1	 3.259900929498166e+000	 1.736040839493528e+000	-1.268317614516649e+001
1	 3.240938977395473e+000	 1.771187776044500e+000	-1.265496968218137e+001
1	 3.221567719534899e+000	 1.806181792153683e+000	-1.259434146843713e+001
1	 3.421242638269016e+000	 1.460670954614553e+000	-1.139355945002609e+001
1	 3.405481349655952e+000	 1.497049753488834e+000	-1.160617806333292e+001
1	 3.389300474113741e+000	 1.533330938440259e+000	-1.178995152970048e+001
1	 3.372700388477688e+000	 1.569507491571855e+000	-1.194447146127628e+001
1	 3.355681621575360e+000	 1.605572377290711e+000	-1.206931085602723e+001
1	 3.338244855378957e+000	 1.641518546313822e+000	-1.216402477634536e+001
1	 3.320390926034240e+000	 1.677338939731900e+000	-1.222815108226703e+001
1	 3.302120824763098e+000	 1.713026493126799e+000	-1.226121121871591e+001
1	 3.283435698637017e+000	 1.748574140738111e+000	-1.226271105602068e+001
1	 3.264336851218891e+000	 1.783974819674280e+000	-1.223214178280520e+001
1	 3.244825743070775e+000	 1.819221474163497e+000	-1.216898085018815e+001
1	 3.445765169866719e+000	 1.471140644557212e+000	-1.097759371082750e+001
1	 3.429890908647009e+000	 1.507780196712916e+000	-1.119059793296785e+001
1	 3.413594053013717e+000	 1.544321435275896e+000	-1.137422454097842e+001
1	 3.396874982503221e+000	 1.580757292046805e+000	-1.152811939060395e+001
1	 3.379734229733591e+000	 1.617080681003512e+000	-1.165191063166449e+001
1	 3.362172481565244e+000	 1.653284502335673e+000	-1.174520931128250e+001
1	 3.344190580137224e+000	 1.689361646537656e+000	-1.180761002932934e+001
1	 3.325789523776246e+000	 1.725304998555488e+000	-1.183869164562009e+001
1	 3.306970467775714e+000	 1.761107441983310e+000	-1.183801803823879e+001
1	 3.287734725042120e+000	 1.796761863304683e+000	-1.180513891222516e+001
1	 3.268083766606454e+000	 1.832261156173944e+000	-1.173959065770533e+001
1	 3.470287701464573e+000	 1.481610334500272e+000	-1.055800936718404e+001
1	 3.454300467638207e+000	 1.518510639937398e+000	-1.077144608250094e+001
1	 3.437887631913810e+000	 1.555311932111934e+000	-1.095491173179735e+001
1	 3.421049576528834e+000	 1.592007092522155e+000	-1.110812235250573e+001
1	 3.403786837891866e+000	 1.628588984716717e+000	-1.123077892648396e+001
1	 3.386100107751537e+000	 1.665050458357931e+000	-1.132256789780881e+001
1	 3.367990234240172e+000	 1.701384353343822e+000	-1.138316173712740e+001
1	 3.349458222789323e+000	 1.737583503984593e+000	-1.141221955219158e+001
1	 3.330505236914307e+000	 1.773640743228935e+000	-1.140938774406878e+001
1	 3.311132598865224e+000	 1.809548906935523e+000	-1.137430070838773e+001
1	 3.291341790142000e+000	 1.845300838184841e+000	-1.130658158084350e+001
1	 3.494810233062459e+000	 1.492080024443532e+000	-1.013553751597141e+001
1	 3.478710026629442e+000	 1.529241083162080e+000	-1.034931292981732e+001
1	 3.462181210813938e+000	 1.566302428948173e+000	-1.053248777659631e+001
1	 3.445224170554475e+000	 1.603256892997708e+000	-1.068486386265289e+001
1	 3.427839446050156e+000	 1.640097288430126e+000	-1.080623230657988e+001
1	 3.410027733937825e+000	 1.676816414380396e+000	-1.089637396161703e+001
1	 3.391789888343101e+000	 1.713407060150203e+000	-1.095505987571340e+001
1	 3.373126921802362e+000	 1.749862009413920e+000	-1.098205178895070e+001
1	 3.354040006052849e+000	 1.786174044474793e+000	-1.097710266791537e+001
1	 3.334530472688268e+000	 1.822335950566610e+000	-1.093995727649627e+001
1	 3.314599813677478e+000	 1.858340520196004e+000	-1.087035278247434e+001
1	 3.519332764660260e+000	 1.502549714386791e+000	-9.710888877082146e+000
1	 3.503119585620614e+000	 1.539971526386763e+000	-9.924772436795164e+000
1	 3.486474789714023e+000	 1.577292925784412e+000	-1.010741411978533e+001
1	 3.469398764580086e+000	 1.614506693473263e+000	-1.025871674744635e+001
1	 3.451892054208428e+000	 1.651605592143541e+000	-1.037857851478112e+001
1	 3.433955360124103e+000	 1.688582370402872e+000	-1.046689330753504e+001
1	 3.415589542446022e+000	 1.725429766956601e+000	-1.052355104489983e+001
1	 3.396795620815398e+000	 1.762140514843276e+000	-1.054843804753285e+001
1	 3.377574775191389e+000	 1.798707345720694e+000	-1.054143743055707e+001
1	 3.357928346511310e+000	 1.835122994197757e+000	-1.050242952112937e+001
1	 3.337857837212957e+000	 1.871380202207249e+000	-1.043129230008333e+001
1	 3.543855296257858e+000	 1.513019404329850e+000	-9.284754498442052e+000
1	 3.527529144611625e+000	 1.550701969611245e+000	-9.498382678661853e+000
1	 3.510768368613983e+000	 1.588283422620452e+000	-9.680139433486881e+000
1	 3.493573358605612e+000	 1.625756493948621e+000	-9.830043513851328e+000
1	 3.475944662366648e+000	 1.663113895856762e+000	-9.948116775924609e+000
1	 3.457882986310363e+000	 1.700348326425160e+000	-1.003438438319786e+001
1	 3.439389196548955e+000	 1.737452473762821e+000	-1.008887501888063e+001
1	 3.420464319828467e+000	 1.774419020272466e+000	-1.011162110837629e+001
1	 3.401109544329980e+000	 1.811240646966444e+000	-1.010265905156323e+001
1	 3.381326220334416e+000	 1.847910037828777e+000	-1.006202946457033e+001
1	 3.361115860748503e+000	 1.884419884218392e+000	-9.989777430693399e+000
1	 3.568377827855136e+000	 1.523489094272510e+000	-8.857806431956650e+000
1	 3.551938703602373e+000	 1.561432412835328e+000	-9.070686389873304e+000
1	 3.535061947513740e+000	 1.599273919456093e+000	-9.251100056403095e+000
1	 3.517747952630995e+000	 1.637006294423582e+000	-9.399196703982362e+000
1	 3.499997270524786e+000	 1.674622199569589e+000	-9.515138089541186e+000
1	 3.481810612496596e+000	 1.712114282447062e+000	-9.599098531847389e+000
1	 3.463188850651912e+000	 1.749475180568665e+000	-9.651264980765435e+000
1	 3.444133018841604e+000	 1.786697525701294e+000	-9.671837078197287e+000
1	 3.424644313468674e+000	 1.823773948211853e+000	-9.661027210478526e+000
1	 3.404724094157645e+000	 1.860697081459479e+000	-9.619060552010712e+000
1	 3.384373884284180e+000	 1.897459566229251e+000	-9.546175099916846e+000
1	 3.592900359451976e+000	 1.533958784214570e+000	-8.430698381776555e+000
1	 3.576348262592755e+000	 1.572162856058811e+000	-8.642211487639191e+000
1	 3.559355526413214e+000	 1.610264416291135e+000	-8.820720414710847e+000
1	 3.541922546656179e+000	 1.648256094897945e+000	-8.966519235167786e+000
1	 3.524049878682808e+000	 1.686130503281826e+000	-9.079925510555521e+000
1	 3.505738238682794e+000	 1.723880238468381e+000	-9.161280234779593e+000
1	 3.486988504754907e+000	 1.761497887373937e+000	-9.210947747509559e+000
1	 3.467801717854844e+000	 1.798976031129568e+000	-9.229315617739980e+000
1	 3.448179082607521e+000	 1.836307249456730e+000	-9.216794497311275e+000
1	 3.428121967981061e+000	 1.873484125089678e+000	-9.173817944255449e+000
1	 3.407631907820056e+000	 1.910499248239640e+000	-9.100842215893877e+000
1	 3.617422891048259e+000	 1.544428474155829e+000	-8.004066326195309e+000
1	 3.600757821582671e+000	 1.582893299281493e+000	-8.213471574153965e+000
1	 3.583649105312324e+000	 1.621254913125378e+000	-8.389413425837324e+000
1	 3.566097140681105e+000	 1.659505895371513e+000	-8.532344726182028e+000
1	 3.548102486840681e+000	 1.697638806993271e+000	-8.642754418568954e+000
1	 3.529665864868949e+000	 1.735646194488917e+000	-8.721167343930560e+000
1	 3.510788158857956e+000	 1.773520594178442e+000	-8.768143985695071e+000
1	 3.491470416868223e+000	 1.811254536557092e+000	-8.784280160262989e+000
1	 3.471713851746570e+000	 1.848840550700881e+000	-8.770206652833613e+000
1	 3.451519841804725e+000	 1.886271168719184e+000	-8.726588798522400e+000
1	 3.430889931356198e+000	 1.923538930249378e+000	-8.654126008835313e+000
1	 3.198309695998757e+000	 1.793142110144684e+000	-1.301524987649450e+001
1	 3.178670556813624e+000	 1.827729904041205e+000	-1.292082141346771e+001
1	 3.158628293608679e+000	 1.862151961492185e+000	-1.278702457548032e+001
1	 3.138184815363838e+000	 1.896401373359606e+000	-1.261524330515799e+001
1	 3.117342186515054e+000	 1.930471254663603e+000	-1.240697910323630e+001
1	 3.096102626762256e+000	 1.964354748895379e+000	-1.216384985381261e+001
1	 3.074468510735240e+000	 1.998045032338640e+000	-1.188758844233911e+001
1	 3.052442367516636e+000	 2.031535318394142e+000	-1.158004116686260e+001
1	 3.030026880021336e+000	 2.064818861901898e+000	-1.124316594353400e+001
1	 3.007224884231966e+000	 2.097888963455511e+000	-1.087903030793150e+001
1	 2.984039368290266e+000	 2.130738973703105e+000	-1.048980921426518e+001
1	 3.221567719534899e+000	 1.806181792153683e+000	-1.259434146843713e+001
1	 3.201785765048789e+000	 1.841021107572606e+000	-1.249796662779254e+001
1	 3.181597755035698e+000	 1.875693481314890e+000	-1.236381159571254e+001
1	 3.161005612357593e+000	 1.910191953999462e+000	-1.219330757715767e+001
1	 3.140011416462942e+000	 1.944509590579075e+000	-1.198800598429768e+001
1	 3.118617403193275e+000	 1.978639484684598e+000	-1.174957718354915e+001
1	 3.096825964446625e+000	 2.012574762977862e+000	-1.147980902911402e+001
1	 3.074639647697041e+000	 2.046308589507667e+000	-1.118060518363215e+001
1	 3.052061155369497e+000	 2.079834170063415e+000	-1.085398322709804e+001
1	 3.029093344069806e+000	 2.113144756520817e+000	-1.050207255572954e+001
1	 3.005739223669391e+000	 2.146233651174094e+000	-1.012711207301673e+001
1	 3.244825743070775e+000	 1.819221474163497e+000	-1.216898085018815e+001
1	 3.224900973283702e+000	 1.854312311104829e+000	-1.207085444302199e+001
1	 3.204567216462507e+000	 1.889235001138423e+000	-1.193667751019190e+001
1	 3.183826409351194e+000	 1.923982534640148e+000	-1.176790678214778e+001
1	 3.162680646410756e+000	 1.958547926495382e+000	-1.156612033576989e+001
1	 3.141132179624304e+000	 1.992924220474648e+000	-1.133301629039257e+001
1	 3.119183418158108e+000	 2.027104493617908e+000	-1.107041128702990e+001
1	 3.096836927877633e+000	 2.061081860622007e+000	-1.078023875149575e+001
1	 3.074095430717927e+000	 2.094849478225728e+000	-1.046454694265566e+001
1	 3.050961803907982e+000	 2.128400549586891e+000	-1.012549678759653e+001
1	 3.027439079048901e+000	 2.161728328645818e+000	-9.765359506049904e+000
1	 3.268083766606454e+000	 1.832261156173944e+000	-1.173959065770533e+001
1	 3.248016181518426e+000	 1.867603514637696e+000	-1.163998098078383e+001
1	 3.227536677889154e+000	 1.902776520962612e+000	-1.150617060616899e+001
1	 3.206647206344684e+000	 1.937773115281502e+000	-1.133962051918662e+001
1	 3.185349876358512e+000	 1.972586262412363e+000	-1.114191270261511e+001
1	 3.163646956055338e+000	 2.007208956265380e+000	-1.091474880857642e+001
1	 3.141540871869665e+000	 2.041634224258642e+000	-1.065994861324066e+001
1	 3.119034208058361e+000	 2.075855131737030e+000	-1.037944825508539e+001
1	 3.096129706066546e+000	 2.109864786388716e+000	-1.007529825799720e+001
1	 3.072830263746392e+000	 2.143656342653623e+000	-9.749661341053916e+000
1	 3.049138934428674e+000	 2.177223006118176e+000	-9.404810017376924e+000
1	 3.291341790142000e+000	 1.845300838184841e+000	-1.130658158084350e+001
1	 3.271131389753024e+000	 1.880894718171027e+000	-1.120582833947860e+001
1	 3.250506139315697e+000	 1.916318040787283e+000	-1.107282367316917e+001
1	 3.229468003338097e+000	 1.951563695923357e+000	-1.090901200455687e+001
1	 3.208019106306228e+000	 1.986624598329864e+000	-1.071595693762602e+001
1	 3.186161732486373e+000	 2.021493692056648e+000	-1.049533993203272e+001
1	 3.163898325581261e+000	 2.056163954899922e+000	-1.024895876273954e+001
1	 3.141231488239165e+000	 2.090628402852606e+000	-9.978725765714355e+000
1	 3.118163981415277e+000	 2.124880094552258e+000	-9.686665870994487e+000
1	 3.094698723584940e+000	 2.158912135720905e+000	-9.374914424960492e+000
1	 3.070838789808597e+000	 2.192717683591068e+000	-9.045714804211960e+000
1	 3.314599813677478e+000	 1.858340520196004e+000	-1.087035278247434e+001
1	 3.294246597987558e+000	 1.894185921704647e+000	-1.076886508627354e+001
1	 3.273475600742184e+000	 1.929859560612265e+000	-1.063715454671778e+001
1	 3.252288800331470e+000	 1.965354276565549e+000	-1.047662864654221e+001
1	 3.230688336253921e+000	 2.000662934247727e+000	-1.028881078705742e+001
1	 3.208676508917402e+000	 2.035778427848301e+000	-1.007533899118708e+001
1	 3.186255779292868e+000	 2.070693685541607e+000	-9.837964397152108e+000
1	 3.163428768419997e+000	 2.105401673968605e+000	-9.578549543549045e+000
1	 3.140198256764044e+000	 2.139895402716236e+000	-9.299066447098017e+000
1	 3.116567183423525e+000	 2.174167928788625e+000	-9.001594474868622e+000
1	 3.092538645188554e+000	 2.208212361064393e+000	-8.688318013324325e+000
1	 3.337857837212957e+000	 1.871380202207249e+000	-1.043129230008333e+001
1	 3.317361806222093e+000	 1.907477125238375e+000	-1.032954672852724e+001
1	 3.296445062168671e+000	 1.943401080437388e+000	-1.019966662933379e+001
1	 3.275109597324840e+000	 1.979144857207913e+000	-1.004300259617394e+001
1	 3.253357566201609e+000	 2.014701270165795e+000	-9.861016451773860e+000
1	 3.231191285348421e+000	 2.050063163640193e+000	-9.655280005638936e+000
1	 3.208613233004459e+000	 2.085223416183562e+000	-9.427473610585293e+000
1	 3.185626048600800e+000	 2.120174945084899e+000	-9.179384518785543e+000
1	 3.162232532112769e+000	 2.154910710880527e+000	-8.912905038543448e+000
1	 3.138435643262050e+000	 2.189423721856673e+000	-8.630030493523632e+000
1	 3.114238500568428e+000	 2.223707038538050e+000	-8.332856986674218e+000
1	 3.361115860748503e+000	 1.884419884218392e+000	-9.989777430693399e+000
1	 3.340477014456691e+000	 1.920768328772035e+000	-9.888316165641617e+000
1	 3.319414523595212e+000	 1.956942600262478e+000	-9.760849389892679e+000
1	 3.297930394318245e+000	 1.992935437850285e+000	-9.608651275111610e+000
1	 3.276026796149310e+000	 2.028739606083914e+000	-9.433101125099370e+000
1	 3.253706061779425e+000	 2.064347899432174e+000	-9.235682213895979e+000
1	 3.230970686716002e+000	 2.099753146825645e+000	-9.017980433643949e+000
1	 3.207823328781521e+000	 2.134948216201357e+000	-8.781682752848795e+000
1	 3.184266807461373e+000	 2.169926019045013e+000	-8.528575486153351e+000
1	 3.160304103100417e+000	 2.204679514924937e+000	-8.260542377226363e+000
1	 3.135938355948102e+000	 2.239201716011940e+000	-7.979562496849880e+000
1	 3.384373884284180e+000	 1.897459566229251e+000	-9.546175099916846e+000
1	 3.363592222691413e+000	 1.934059532305448e+000	-9.445604122282642e+000
1	 3.342383985021857e+000	 1.970484120087366e+000	-9.321178842398576e+000
1	 3.320751191311725e+000	 2.006726018492501e+000	-9.174077881757262e+000
1	 3.298696026097039e+000	 2.042777942001923e+000	-9.005577508489957e+000
1	 3.276220838210407e+000	 2.078632635224096e+000	-8.817050581265450e+000
1	 3.253328140427467e+000	 2.114282877467717e+000	-8.609965316665479e+000
1	 3.230020608962105e+000	 2.149721487317850e+000	-8.385883880575177e+000
1	 3.206301082809781e+000	 2.184941327209573e+000	-8.146460804571230e+000
1	 3.182172562938526e+000	 2.219935307993310e+000	-7.893441228738732e+000
1	 3.157638211327462e+000	 2.254696393485963e+000	-7.628658972797223e+000
1	 3.407631907820056e+000	 1.910499248239640e+000	-9.100842215893879e+000
1	 3.386707430926326e+000	 1.947350735838436e+000	-9.001829563859738e+000
1	 3.365353446448659e+000	 1.984025639911878e+000	-8.881118005150524e+000
1	 3.343571988305312e+000	 2.020516599134396e+000	-8.739771876643708e+000
1	 3.321365256044816e+000	 2.056816277919669e+000	-8.578944306088475e+000
1	 3.298735614641365e+000	 2.092917371015812e+000	-8.399876286946714e+000
1	 3.275685594138827e+000	 2.128812608109640e+000	-8.203895593164917e+000
1	 3.252217889142500e+000	 2.164494758434246e+000	-7.992415534286751e+000
1	 3.228335358157913e+000	 2.199956635374086e+000	-7.766933551719856e+000
1	 3.204041022776280e+000	 2.235191101061679e+000	-7.529029657375254e+000
1	 3.179338066706392e+000	 2.270191070960018e+000	-7.280364716305192e+000
1	 3.430889931356198e+000	 1.923538930249378e+000	-8.654126008835313e+000
1	 3.409822639161488e+000	 1.960641939370820e+000	-8.557400095106440e+000
1	 3.388322907875672e+000	 1.997567159735842e+000	-8.441117341232021e+000
1	 3.366392785299044e+000	 2.034307179775804e+000	-8.306209448080013e+000
1	 3.344034485992657e+000	 2.070854613836993e+000	-8.153686699163927e+000
1	 3.321250391072290e+000	 2.107202106807173e+000	-7.984637191311848e+000
1	 3.298043047850050e+000	 2.143342338751271e+000	-7.800225924430175e+000
1	 3.274415169322649e+000	 2.179268029550415e+000	-7.601693750616909e+000
1	 3.250369633505694e+000	 2.214971943538432e+000	-7.390356183232075e+000
1	 3.225909482613576e+000	 2.250446894129934e+000	-7.167602066888731e+000
1	 3.201037922084772e+000	 2.285685748434004e+000	-6.934892109686017e+000
1	 2.984039368290266e+000	 2.130738973703105e+000	-1.048980921426518e+001
1	 2.960473470602511e+000	 2.163362296908118e+000	-1.008792242514779e+001
1	 2.936530476140903e+000	 2.195752392999228e+000	-9.684104554818065e+000
1	 2.912213817674248e+000	 2.227902783885794e+000	-9.278062301443946e+000
1	 2.887527075140474e+000	 2.259807058363652e+000	-8.869476555568509e+000
1	 2.862473974030363e+000	 2.291458876269918e+000	-8.458002978898518e+000
1	 2.837058383631288e+000	 2.322851972591213e+000	-8.043272634254816e+000
1	 2.811284315132539e+000	 2.353980161519819e+000	-7.624892665605958e+000
1	 2.785155919594004e+000	 2.384837340452332e+000	-7.202447026969766e+000
1	 2.758677485780279e+000	 2.415417493925475e+000	-6.775497258832668e+000
1	 2.731853437862469e+000	 2.445714697483801e+000	-6.343583310607145e+000
1	 3.005739223669391e+000	 2.146233651174094e+000	-1.012711207301673e+001
1	 2.982001955396933e+000	 2.179094210322679e+000	-9.740697919763678e+000
1	 2.957884848112856e+000	 2.211719846336016e+000	-9.352612149524203e+000
1	 2.933391359548965e+000	 2.244104034014960e+000	-8.962429864993467e+000
1	 2.908525095676397e+000	 2.276240315533232e+000	-8.569695697298290e+000
1	 2.883289809077596e+000	 2.308122304622443e+000	-8.173924621893601e+000
1	 2.857689397177288e+000	 2.339743690710203e+000	-7.774602835180168e+000
1	 2.831727900334018e+000	 2.371098243005754e+000	-7.371188690293301e+000
1	 2.805409499794067e+000	 2.402179814527716e+000	-6.963113690347730e+000
1	 2.778738515509805e+000	 2.432982346068520e+000	-6.549783537265824e+000
1	 2.751719403824789e+000	 2.463499870090225e+000	-6.130579234161161e+000
1	 3.027439079048901e+000	 2.161728328645818e+000	-9.765359506049904e+000
1	 3.003530440191761e+000	 2.194826123737928e+000	-9.394845112774544e+000
1	 2.979239220085216e+000	 2.227687299673442e+000	-9.022756367180422e+000
1	 2.954568901424073e+000	 2.260305284144704e+000	-8.648558690637874e+000
1	 2.929523116212681e+000	 2.292673572703324e+000	-8.271683464693652e+000
1	 2.904105644125149e+000	 2.324785732975416e+000	-7.891529048232902e+000
1	 2.878320410723559e+000	 2.356635408829572e+000	-7.507461862819592e+000
1	 2.852171485535715e+000	 2.388216324492002e+000	-7.118817544259209e+000
1	 2.825663079994292e+000	 2.419522288603349e+000	-6.724902158244916e+000
1	 2.798799545239443e+000	 2.450547198211752e+000	-6.324993477768842e+000
1	 2.771585369787176e+000	 2.481285042696783e+000	-5.918342319807720e+000
1	 3.049138934428674e+000	 2.177223006118176e+000	-9.404810017376924e+000
1	 3.025058924986865e+000	 2.210558037153778e+000	-9.050522507021089e+000
1	 3.000593592057848e+000	 2.243654753011425e+000	-8.694611632569373e+000
1	 2.975746443299435e+000	 2.276506534274954e+000	-8.336454543193913e+000
1	 2.950521136749184e+000	 2.309106829873869e+000	-7.975391859789109e+000
1	 2.924921479172883e+000	 2.341449161328783e+000	-7.610728858015503e+000
1	 2.898951424269965e+000	 2.373527126949274e+000	-7.241736724897590e+000
1	 2.872615070737500e+000	 2.405334405978519e+000	-6.867653886683827e+000
1	 2.845916660194561e+000	 2.436864762679191e+000	-6.487687405476700e+000
1	 2.818860574969084e+000	 2.468112050355137e+000	-6.101014441948214e+000
1	 2.791451335749533e+000	 2.499070215303443e+000	-5.706783781269910e+000
1	 3.070838789808597e+000	 2.192717683591068e+000	-9.045714804211960e+000
1	 3.046587409782116e+000	 2.226289950570137e+000	-8.707884125149578e+000
1	 3.021947964030613e+000	 2.259622206349883e+000	-8.368250266804960e+000
1	 2.996923985174902e+000	 2.292707784405640e+000	-8.026123024531634e+000
1	 2.971519157285764e+000	 2.325540087044802e+000	-7.680774241315641e+000
1	 2.945737314220657e+000	 2.358112589682488e+000	-7.331439121760398e+000
1	 2.919582437816374e+000	 2.390418845069261e+000	-6.977317622945154e+000
1	 2.893058655939246e+000	 2.422452487465266e+000	-6.617575919594081e+000
1	 2.866170240394755e+000	 2.454207236755210e+000	-6.251347940783619e+000
1	 2.838921604698616e+000	 2.485676902498641e+000	-5.877736975214107e+000
1	 2.811317301711755e+000	 2.516855387910169e+000	-5.495817341877541e+000
1	 3.092538645188554e+000	 2.208212361064393e+000	-8.688318013324327e+000
1	 3.068115894577388e+000	 2.242021863986914e+000	-8.367079666795888e+000
1	 3.043302336003374e+000	 2.275589659688736e+000	-8.043742561137693e+000
1	 3.018101527050339e+000	 2.308909034536690e+000	-7.717569579291595e+000
1	 2.992517177822280e+000	 2.341973344216064e+000	-7.387785277102018e+000
1	 2.966553149268331e+000	 2.374776018036477e+000	-7.053577293733754e+000
1	 2.940213451362647e+000	 2.407310563189484e+000	-6.714097840247538e+000
1	 2.913502241140828e+000	 2.439570568952202e+000	-6.368465263565614e+000
1	 2.886423820594753e+000	 2.471549710831363e+000	-6.015765682846194e+000
1	 2.858982634427930e+000	 2.503241754642231e+000	-5.655054695079147e+000
1	 2.831183267673744e+000	 2.534640560516928e+000	-5.285359146519605e+000
1	 3.114238500568428e+000	 2.223707038538050e+000	-8.332856986674218e+000
1	 3.089644379372549e+000	 2.257753777404020e+000	-8.028254659198108e+000
1	 3.064656707975995e+000	 2.291557113027905e+000	-7.721156847674725e+000
1	 3.039279068925602e+000	 2.325110284668035e+000	-7.410799500362375e+000
1	 3.013515198358589e+000	 2.358406601387590e+000	-7.096380898466138e+000
1	 2.987368984315768e+000	 2.391439446390696e+000	-6.777063128899790e+000
1	 2.960844464908652e+000	 2.424202281309898e+000	-6.451973634476629e+000
1	 2.933945826342113e+000	 2.456688650439283e+000	-6.120206838621474e+000
1	 2.906677400794436e+000	 2.488892184907616e+000	-5.780825841483696e+000
1	 2.879043664156916e+000	 2.520806606785870e+000	-5.432864184127090e+000
1	 2.851049233635401e+000	 2.552425733123689e+000	-5.075327677277830e+000
1	 3.135938355948102e+000	 2.239201716011940e+000	-7.979562496849880e+000
1	 3.111172864167472e+000	 2.273485690821364e+000	-7.691550601555860e+000
1	 3.086011079948337e+000	 2.307524566367307e+000	-7.400559567163540e+000
1	 3.060456610800552e+000	 2.341311534799600e+000	-7.105817934131290e+000
1	 3.034513218894551e+000	 2.374839858559317e+000	-6.806518256500127e+000
1	 3.008184819362824e+000	 2.408102874745090e+000	-6.501818603319663e+000
1	 2.981475478454253e+000	 2.441093999430454e+000	-6.190844134781310e+000
1	 2.954389411542977e+000	 2.473806731926469e+000	-5.872688750075611e+000
1	 2.926930980993685e+000	 2.506234658983931e+000	-5.546416803784996e+000
1	 2.899104693885465e+000	 2.538371458929527e+000	-5.211064887425415e+000
1	 2.870915199596624e+000	 2.570210905730416e+000	-4.865643672562877e+000
1	 3.157638211327462e+000	 2.254696393485963e+000	-7.628658972797223e+000
1	 3.132701348962026e+000	 2.289217604238856e+000	-7.357105103437320e+000
1	 3.107365451920266e+000	 2.323492019706863e+000	-7.082015333980717e+000
1	 3.081634152675045e+000	 2.357512784931316e+000	-6.802629885517955e+000
1	 3.055511239430021e+000	 2.391273115731184e+000	-6.518155680157570e+000
1	 3.029000654409364e+000	 2.424766303099606e+000	-6.227767837832604e+000
1	 3.002106491999318e+000	 2.457985717551106e+000	-5.930611243120757e+000
1	 2.974832996743292e+000	 2.490924813413718e+000	-5.625802179083399e+000
1	 2.947184561192381e+000	 2.523577133060271e+000	-5.312430024934792e+000
1	 2.919165723613464e+000	 2.555936311073164e+000	-4.989559014167708e+000
1	 2.890781165557315e+000	 2.587996078337078e+000	-4.656230049584846e+000
1	 3.179338066706392e+000	 2.270191070960018e+000	-7.280364716305193e+000
1	 3.154229833756086e+000	 2.304949517656405e+000	-7.025052017518242e+000
1	 3.128719823891644e+000	 2.339459473046494e+000	-6.765586998459452e+000
1	 3.102811694548940e+000	 2.373714035063113e+000	-6.501240222802408e+000
1	 3.076509259964860e+000	 2.407706372903129e+000	-6.231252636057585e+000
1	 3.049816489455246e+000	 2.441429731454187e+000	-5.954837024862400e+000
1	 3.022737505543708e+000	 2.474877435671805e+000	-5.671179539638650e+000
1	 2.995276581942927e+000	 2.508042894900989e+000	-5.379441277674391e+000
1	 2.967438141390402e+000	 2.540919607136599e+000	-5.078759923510632e+000
1	 2.939226753340806e+000	 2.573501163216749e+000	-4.768251443344127e+000
1	 2.910647131517372e+000	 2.605781250943639e+000	-4.447011829998796e+000
1	 3.201037922084772e+000	 2.285685748434004e+000	-6.934892109686017e+000
1	 3.175758318549517e+000	 2.320681431073920e+000	-6.695521566921880e+000
1	 3.150074195862331e+000	 2.355426926386116e+000	-6.451335706681702e+000
1	 3.123989236422097e+000	 2.389915285194917e+000	-6.201653682256199e+000
1	 3.097507280498922e+000	 2.424139630075088e+000	-5.945769689923458e+000
1	 3.070632324500330e+000	 2.458093159808781e+000	-5.682954358200996e+000
1	 3.043368519087291e+000	 2.491769153792504e+000	-5.412456191885851e+000
1	 3.015720167141756e+000	 2.525160976388238e+000	-5.133503068054405e+000
1	 2.987691721587631e+000	 2.558262081212876e+000	-4.845303781038592e+000
1	 2.959287783067377e+000	 2.591066015360246e+000	-4.547049633248617e+000
1	 2.930513097476696e+000	 2.623566423550066e+000	-4.237916068574483e+000
1	 2.731853437862469e+000	 2.445714697483801e+000	-6.343583310607145e+000
1	 2.704692433297279e+000	 2.475718642763606e+000	-5.908750872333688e+000
1	 2.677195161938863e+000	 2.505428168867732e+000	-5.473508223712492e+000
1	 2.649366439270082e+000	 2.534837651707582e+000	-5.038264842370499e+000
1	 2.621211205591807e+000	 2.563941572878231e+000	-4.603424249004075e+000
1	 2.592734523104852e+000	 2.592734523104852e+000	-4.169383600925573e+000
1	 2.563941572878231e+000	 2.621211205591807e+000	-3.736533296730396e+000
1	 2.534837651707581e+000	 2.649366439270081e+000	-3.305256592793382e+000
1	 2.505428168867732e+000	 2.677195161938863e+000	-2.875929232274992e+000
1	 2.475718642763605e+000	 2.704692433297279e+000	-2.448919087284498e+000
1	 2.445714697483802e+000	 2.731853437862469e+000	-2.024585814815900e+000
1	 2.751719403824789e+000	 2.463499870090225e+000	-6.130579234161161e+000
1	 2.724360885152517e+000	 2.493722003266977e+000	-5.707577698654742e+000
1	 2.696663654363745e+000	 2.523647576259597e+000	-5.283540664915575e+000
1	 2.668632561959409e+000	 2.553270924081258e+000	-4.859046590665079e+000
1	 2.640272584166119e+000	 2.582586488197333e+000	-4.434670706160426e+000
1	 2.611588819996889e+000	 2.611588819996888e+000	-4.010984289326838e+000
1	 2.582586488197333e+000	 2.640272584166119e+000	-3.588553947388586e+000
1	 2.553270924081256e+000	 2.668632561959408e+000	-3.167940906396267e+000
1	 2.523647576259597e+000	 2.696663654363745e+000	-2.749700310029195e+000
1	 2.493722003266977e+000	 2.724360885152517e+000	-2.334380529027891e+000
1	 2.463499870090225e+000	 2.751719403824789e+000	-1.922522482585151e+000
1	 2.771585369787176e+000	 2.481285042696783e+000	-5.918342319807721e+000
1	 2.744029337007786e+000	 2.511725363770436e+000	-5.507113627580743e+000
1	 2.716132146788635e+000	 2.541866983651511e+000	-5.094342955953919e+000
1	 2.687898684648724e+000	 2.571704196454953e+000	-4.680752237602118e+000
1	 2.659333962740416e+000	 2.601231403516437e+000	-4.267062563653878e+000
1	 2.630443116888912e+000	 2.630443116888912e+000	-3.853993184720956e+000
1	 2.601231403516437e+000	 2.659333962740415e+000	-3.442260514368509e+000
1	 2.571704196454952e+000	 2.687898684648725e+000	-3.032577137018439e+000
1	 2.541866983651512e+000	 2.716132146788636e+000	-2.625650822267487e+000
1	 2.511725363770435e+000	 2.744029337007786e+000	-2.222183547586544e+000
1	 2.481285042696783e+000	 2.771585369787176e+000	-1.822870531345394e+000
1	 2.791451335749533e+000	 2.499070215303443e+000	-5.706783781269911e+000
1	 2.763697788862998e+000	 2.529728724273948e+000	-5.307296331175032e+000
1	 2.735600639213451e+000	 2.560086391043440e+000	-4.905873757913717e+000
1	 2.707164807337962e+000	 2.590137468828627e+000	-4.503356515018517e+000
1	 2.678395341314634e+000	 2.619876318835490e+000	-4.100586261748901e+000
1	 2.649297413780869e+000	 2.649297413780869e+000	-3.698404633768354e+000
1	 2.619876318835491e+000	 2.678395341314634e+000	-3.297652012762222e+000
1	 2.590137468828628e+000	 2.707164807337962e+000	-2.899166297489251e+000
1	 2.560086391043440e+000	 2.735600639213451e+000	-2.503781678758192e+000
1	 2.529728724273947e+000	 2.763697788862998e+000	-2.112327420810716e+000
1	 2.499070215303442e+000	 2.791451335749532e+000	-1.725626651576016e+000
1	 2.811317301711755e+000	 2.516855387910169e+000	-5.495817341877541e+000
1	 2.783366240718062e+000	 2.547732084777479e+000	-5.108065243244091e+000
1	 2.755069131638113e+000	 2.578305798435343e+000	-4.718092900354686e+000
1	 2.726430930027048e+000	 2.608570741202241e+000	-4.326834868973615e+000
1	 2.697456719888714e+000	 2.638521234154451e+000	-3.935228623985358e+000
1	 2.668151710672706e+000	 2.668151710672706e+000	-3.544213142925061e+000
1	 2.638521234154452e+000	 2.697456719888714e+000	-3.154727485500831e+000
1	 2.608570741202240e+000	 2.726430930027047e+000	-2.767709372009675e+000
1	 2.578305798435343e+000	 2.755069131638112e+000	-2.384093763554218e+000
1	 2.547732084777478e+000	 2.783366240718062e+000	-2.004811446962596e+000
1	 2.516855387910169e+000	 2.811317301711755e+000	-1.630787627302181e+000
1	 2.831183267673744e+000	 2.534640560516928e+000	-5.285359146519605e+000
1	 2.803034692572887e+000	 2.565735445280995e+000	-4.909361497528109e+000
1	 2.774537624062540e+000	 2.596525205827184e+000	-4.530961340315150e+000
1	 2.745697052715913e+000	 2.627004013575751e+000	-4.151163434691294e+000
1	 2.716518098462591e+000	 2.657166149473270e+000	-3.770976843731729e+000
1	 2.687006007564368e+000	 2.687006007564368e+000	-3.391413372836376e+000
1	 2.657166149473270e+000	 2.716518098462591e+000	-3.013486002377777e+000
1	 2.627004013575750e+000	 2.745697052715913e+000	-2.638207317156637e+000
1	 2.596525205827185e+000	 2.774537624062540e+000	-2.266587935895381e+000
1	 2.565735445280996e+000	 2.803034692572888e+000	-1.899634944000177e+000
1	 2.534640560516928e+000	 2.831183267673744e+000	-1.538350332812822e+000
1	 2.851049233635401e+000	 2.552425733123689e+000	-5.075327677277830e+000
1	 2.822703144427385e+000	 2.583738805784463e+000	-4.711127868475748e+000
1	 2.794006116486655e+000	 2.614744613218929e+000	-4.344441123030997e+000
1	 2.764963175404485e+000	 2.645437285949114e+000	-3.976319012549602e+000
1	 2.735579477036205e+000	 2.675811064791898e+000	-3.607818471300273e+000
1	 2.705860304455802e+000	 2.705860304455801e+000	-3.240000132964995e+000
1	 2.675811064791898e+000	 2.735579477036205e+000	-2.873926659113000e+000
1	 2.645437285949114e+000	 2.764963175404485e+000	-2.510661062845460e+000
1	 2.614744613218929e+000	 2.794006116486654e+000	-2.151265031072858e+000
1	 2.583738805784463e+000	 2.822703144427385e+000	-1.796797248891052e+000
1	 2.552425733123689e+000	 2.851049233635401e+000	-1.448311729515923e+000
1	 2.870915199596624e+000	 2.570210905730416e+000	-4.865643672562877e+000
1	 2.842371596281464e+000	 2.601742166287846e+000	-4.513308714477903e+000
1	 2.813474608910373e+000	 2.632964020610537e+000	-4.158495344285391e+000
1	 2.784229298092693e+000	 2.663870558322291e+000	-3.802279045067363e+000
1	 2.754640855609494e+000	 2.694455980110292e+000	-3.445741401597334e+000
1	 2.724714601346952e+000	 2.724714601346950e+000	-3.089968376442099e+000
1	 2.694455980110293e+000	 2.754640855609494e+000	-2.736048576455886e+000
1	 2.663870558322291e+000	 2.784229298092693e+000	-2.385071513252360e+000
1	 2.632964020610537e+000	 2.813474608910373e+000	-2.038125861257700e+000
1	 2.601742166287846e+000	 2.842371596281464e+000	-1.696297716954748e+000
1	 2.570210905730416e+000	 2.870915199596625e+000	-1.360668862924274e+000
1	 2.890781165557315e+000	 2.587996078337078e+000	-4.656230049584846e+000
1	 2.862040048135035e+000	 2.619745526791112e+000	-4.315849923441869e+000
1	 2.832943101333616e+000	 2.651183428001972e+000	-3.973088114311140e+000
1	 2.803495420780467e+000	 2.682303830695239e+000	-3.629021594839601e+000
1	 2.773702234182394e+000	 2.713100895428402e+000	-3.284733862282701e+000
1	 2.743568898237764e+000	 2.743568898237764e+000	-2.941313195130779e+000
1	 2.713100895428401e+000	 2.773702234182393e+000	-2.599850899325231e+000
1	 2.682303830695240e+000	 2.803495420780468e+000	-2.261439547698821e+000
1	 2.651183428001973e+000	 2.832943101333616e+000	-1.927171216295359e+000
1	 2.619745526791112e+000	 2.862040048135035e+000	-1.598135721232068e+000
1	 2.587996078337078e+000	 2.890781165557315e+000	-1.275418859765630e+000
1	 2.910647131517372e+000	 2.605781250943639e+000	-4.447011829998796e+000
1	 2.881708499988006e+000	 2.637748887294224e+000	-4.118698860594644e+000
1	 2.852411593756304e+000	 2.669402835393198e+000	-3.788184523171129e+000
1	 2.822761543467736e+000	 2.700737103067920e+000	-3.456525323376654e+000
1	 2.792763612754842e+000	 2.731745810746180e+000	-3.124784402413977e+000
1	 2.762423195128184e+000	 2.762423195128184e+000	-2.794029814891654e+000
1	 2.731745810746180e+000	 2.792763612754843e+000	-2.465332795984462e+000
1	 2.700737103067920e+000	 2.822761543467736e+000	-2.139766021499809e+000
1	 2.669402835393198e+000	 2.852411593756304e+000	-1.818401864467556e+000
1	 2.637748887294224e+000	 2.881708499988007e+000	-1.502310651880428e+000
1	 2.605781250943640e+000	 2.910647131517372e+000	-1.192558925211045e+000
1	 2.930513097476696e+000	 2.623566423550066e+000	-4.237916068574485e+000
1	 2.901376951840289e+000	 2.655752247797149e+000	-3.921804318409039e+000
1	 2.871880086178356e+000	 2.687622242784177e+000	-3.603750607547012e+000
1	 2.842027666154427e+000	 2.719170375440287e+000	-3.284769470803842e+000
1	 2.811824991326779e+000	 2.750390726063579e+000	-2.965881881552829e+000
1	 2.781277492018158e+000	 2.781277492018158e+000	-2.648113591040969e+000
1	 2.750390726063578e+000	 2.811824991326778e+000	-2.332493457250330e+000
1	 2.719170375440287e+000	 2.842027666154426e+000	-2.020051766777551e+000
1	 2.687622242784177e+000	 2.871880086178356e+000	-1.711818553223190e+000
1	 2.655752247797149e+000	 2.901376951840288e+000	-1.408821915593611e+000
1	 2.623566423550066e+000	 2.930513097476694e+000	-1.112086340216082e+000
1	 2.445714697483802e+000	 2.731853437862469e+000	-2.024585814815900e+000
1	 2.415417493925476e+000	 2.758677485780278e+000	-1.607760105972858e+000
1	 2.384837340452332e+000	 2.785155919594005e+000	-1.202725484439119e+000
1	 2.353980161519820e+000	 2.811284315132540e+000	-8.088230397985650e-001
1	 2.322851972591212e+000	 2.837058383631288e+000	-4.253932315638501e-001
1	 2.291458876269918e+000	 2.862473974030362e+000	-5.177699825859582e-002
1	 2.259807058363652e+000	 2.887527075140474e+000	 3.126831432977222e-001
1	 2.227902783885794e+000	 2.912213817674249e+000	 6.686420107394618e-001
1	 2.195752392999227e+000	 2.936530476140903e+000	 1.016750683129426e+000
1	 2.163362296908118e+000	 2.960473470602511e+000	 1.357655444297072e+000
1	 2.130738973703105e+000	 2.984039368290266e+000	 1.691996744620272e+000
1	 2.463499870090225e+000	 2.751719403824789e+000	-1.922522482585154e+000
1	 2.432982346068520e+000	 2.778738515509805e+000	-1.519134327868982e+000
1	 2.402179814527717e+000	 2.805409499794068e+000	-1.128402650301054e+000
1	 2.371098243005754e+000	 2.831727900334018e+000	-7.494432989434606e-001
1	 2.339743690710204e+000	 2.857689397177288e+000	-3.813703862679991e-001
1	 2.308122304622443e+000	 2.883289809077596e+000	-2.329782400522594e-002
1	 2.276240315533231e+000	 2.908525095676397e+000	 3.256591513933956e-001
1	 2.244104034014959e+000	 2.933391359548965e+000	 6.663824668235873e-001
1	 2.211719846336016e+000	 2.957884848112856e+000	 9.997497172156454e-001
1	 2.179094210322679e+000	 2.982001955396933e+000	 1.326632689866015e+000
1	 2.146233651174095e+000	 3.005739223669392e+000	 1.647895911365855e+000
1	 2.481285042696783e+000	 2.771585369787176e+000	-1.822870531345394e+000
1	 2.450547198211751e+000	 2.798799545239443e+000	-1.432861863052596e+000
1	 2.419522288603349e+000	 2.825663079994292e+000	-1.056253118607618e+000
1	 2.388216324492002e+000	 2.852171485535715e+000	-6.919700177164324e-001
1	 2.356635408829572e+000	 2.878320410723559e+000	-3.389352549604972e-001
1	 2.324785732975417e+000	 2.904105644125149e+000	 3.929597103361077e-003
1	 2.292673572703324e+000	 2.929523116212680e+000	 3.377021951330459e-001
1	 2.260305284144704e+000	 2.954568901424074e+000	 6.634575464107798e-001
1	 2.227687299673442e+000	 2.979239220085217e+000	 9.822661483414517e-001
1	 2.194826123737930e+000	 3.003530440191762e+000	 1.295192149837060e+000
1	 2.161728328645818e+000	 3.027439079048901e+000	 1.603291538300953e+000
1	 2.499070215303442e+000	 2.791451335749532e+000	-1.725626651576016e+000
1	 2.468112050355138e+000	 2.818860574969083e+000	-1.348936282853055e+000
1	 2.436864762679192e+000	 2.845916660194561e+000	-9.862663493604894e-001
1	 2.405334405978519e+000	 2.872615070737500e+000	-6.363868011778734e-001
1	 2.373527126949274e+000	 2.898951424269965e+000	-2.980630957347817e-001
1	 2.341449161328784e+000	 2.924921479172883e+000	 2.994159060412331e-002
1	 2.309106829873869e+000	 2.950521136749184e+000	 3.488641604683724e-001
1	 2.276506534274954e+000	 2.975746443299434e+000	 6.599394075219373e-001
1	 2.243654753011425e+000	 3.000593592057848e+000	 9.643978471478694e-001
1	 2.210558037153777e+000	 3.025058924986865e+000	 1.263463570232809e+000
1	 2.177223006118176e+000	 3.049138934428674e+000	 1.558352124416756e+000
1	 2.516855387910169e+000	 2.811317301711755e+000	-1.630787627302181e+000
1	 2.485676902498641e+000	 2.838921604698616e+000	-1.267351340310427e+000
1	 2.454207236755210e+000	 2.866170240394754e+000	-9.184321004816598e-001
1	 2.422452487465267e+000	 2.893058655939247e+000	-5.826777178025152e-001
1	 2.390418845069261e+000	 2.919582437816373e+000	-2.587298660314902e-001
1	 2.358112589682489e+000	 2.945737314220657e+000	 5.477345526735590e-002
1	 2.325540087044803e+000	 2.971519157285764e+000	 3.591954667581855e-001
1	 2.292707784405640e+000	 2.996923985174902e+000	 6.558981685807991e-001
1	 2.259622206349883e+000	 3.021947964030614e+000	 9.462399178934484e-001
1	 2.226289950570137e+000	 3.046587409782117e+000	 1.231573029713286e+000
1	 2.192717683591068e+000	 3.070838789808597e+000	 1.513241405961801e+000
1	 2.534640560516928e+000	 2.831183267673744e+000	-1.538350332812821e+000
1	 2.503241754642232e+000	 2.858982634427929e+000	-1.188100963800325e+000
1	 2.471549710831364e+000	 2.886423820594752e+000	-8.527404173610725e-001
1	 2.439570568952202e+000	 2.913502241140828e+000	-5.308272832208422e-001
1	 2.407310563189484e+000	 2.940213451362647e+000	-2.209121981024470e-001
1	 2.374776018036477e+000	 2.966553149268331e+000	 7.845949911991931e-002
1	 2.341973344216064e+000	 2.992517177822279e+000	 3.687451182228453e-001
1	 2.308909034536690e+000	 3.018101527050339e+000	 6.514019799716729e-001
1	 2.275589659688735e+000	 3.043302336003374e+000	 9.278847955105836e-001
1	 2.242021863986915e+000	 3.068115894577389e+000	 1.199643068242265e+000
1	 2.208212361064393e+000	 3.092538645188554e+000	 1.468118523538964e+000
1	 2.552425733123689e+000	 2.851049233635401e+000	-1.448311729515923e+000
1	 2.520806606785871e+000	 2.879043664156916e+000	-1.111179250925271e+000
1	 2.488892184907616e+000	 2.906677400794436e+000	-7.891816228413320e-001
1	 2.456688650439283e+000	 2.933945826342114e+000	-4.808204446403581e-001
1	 2.424202281309897e+000	 2.960844464908653e+000	-1.845873755003852e-001
1	 2.391439446390696e+000	 2.987368984315767e+000	 1.010330739625431e-001
1	 2.358406601387589e+000	 3.013515198358590e+000	 3.775607532471594e-001
1	 2.325110284668035e+000	 3.039279068925603e+000	 6.465170926052913e-001
1	 2.291557113027904e+000	 3.064656707975995e+000	 9.094223386041300e-001
1	 2.257753777404020e+000	 3.089644379372550e+000	 1.167792810374719e+000
1	 2.223707038538050e+000	 3.114238500568427e+000	 1.423138182216660e+000
1	 2.570210905730416e+000	 2.870915199596625e+000	-1.360668862924274e+000
1	 2.538371458929527e+000	 2.899104693885464e+000	-1.036580462659621e+000
1	 2.506234658983932e+000	 2.926930980993684e+000	-7.277463076182406e-001
1	 2.473806731926469e+000	 2.954389411542978e+000	-4.326425659135681e-001
1	 2.441093999430454e+000	 2.981475478454254e+000	-1.497333105448200e-001
1	 2.408102874745091e+000	 3.008184819362825e+000	 1.225266084539736e-001
1	 2.374839858559317e+000	 3.034513218894551e+000	 3.856886916365561e-001
1	 2.341311534799600e+000	 3.060456610800551e+000	 6.413079236381990e-001
1	 2.307524566367308e+000	 3.086011079948339e+000	 8.909399185889285e-001
1	 2.273485690821364e+000	 3.111172864167472e+000	 1.136138083425280e+000
1	 2.239201716011941e+000	 3.135938355948102e+000	 1.378450804992326e+000
1	 2.587996078337078e+000	 2.890781165557315e+000	-1.275418859765630e+000
1	 2.555936311073165e+000	 2.919165723613464e+000	-9.642990177360582e-001
1	 2.523577133060271e+000	 2.947184561192380e+000	-6.684253210371136e-001
1	 2.490924813413718e+000	 2.974832996743292e+000	-3.862794132216761e-001
1	 2.457985717551105e+000	 3.002106491999317e+000	-1.163285227170622e-001
1	 2.424766303099606e+000	 3.029000654409364e+000	 1.429716398308920e-001
1	 2.391273115731185e+000	 3.055511239430021e+000	 3.931739799246378e-001
1	 2.357512784931316e+000	 3.081634152675044e+000	 6.358371194820726e-001
1	 2.323492019706865e+000	 3.107365451920267e+000	 8.725225051518528e-001
1	 2.289217604238855e+000	 3.132701348962026e+000	 1.104791530764411e+000
1	 2.254696393485963e+000	 3.157638211327462e+000	 1.334202679928209e+000
1	 2.605781250943640e+000	 2.910647131517372e+000	-1.192558925211044e+000
1	 2.573501163216749e+000	 2.939226753340805e+000	-8.943294872618179e-001
1	 2.540919607136599e+000	 2.967438141390401e+000	-6.112097622660061e-001
1	 2.508042894900989e+000	 2.995276581942927e+000	-3.417171413445861e-001
1	 2.474877435671805e+000	 3.022737505543709e+000	-8.435211793996815e-002
1	 2.441429731454189e+000	 3.049816489455247e+000	 1.623988443289895e-001
1	 2.407706372903129e+000	 3.076509259964860e+000	 4.000604348252977e-001
1	 2.373714035063113e+000	 3.102811694548940e+000	 6.301656162329001e-001
1	 2.339459473046493e+000	 3.128719823891644e+000	 8.542527482140755e-001
1	 2.304949517656405e+000	 3.154229833756085e+000	 1.073862720474841e+000
1	 2.270191070960018e+000	 3.179338066706392e+000	 1.290536101261739e+000
1	 2.623566423550066e+000	 2.930513097476694e+000	-1.112086340216083e+000
1	 2.591066015360247e+000	 2.959287783067377e+000	-8.266665895539233e-001
1	 2.558262081212877e+000	 2.987691721587632e+000	-5.560909718279219e-001
1	 2.525160976388239e+000	 3.015720167141756e+000	-2.989422804893410e-001
1	 2.491769153792504e+000	 3.043368519087291e+000	-5.378376870052876e-002
1	 2.458093159808781e+000	 3.070632324500330e+000	 1.808380663665762e-001
1	 2.424139630075088e+000	 3.097507280498923e+000	 4.063906849175487e-001
1	 2.389915285194917e+000	 3.123989236422097e+000	 6.243526976421233e-001
1	 2.355426926386115e+000	 3.150074195862330e+000	 8.362110565595552e-001
1	 2.320681431073919e+000	 3.175758318549517e+000	 1.043458249588523e+000
1	 2.285685748434003e+000	 3.201037922084772e+000	 1.247589504776276e+000
1	 2.130738973703105e+000	 2.984039368290266e+000	 1.691996744620272e+000
1	 2.097888963455511e+000	 3.007224884231965e+000	 2.018046820161578e+000
1	 2.064818861901898e+000	 3.030026880021336e+000	 2.332040006412568e+000
1	 2.031535318394141e+000	 3.052442367516636e+000	 2.631594043447916e+000
1	 1.998045032338640e+000	 3.074468510735241e+000	 2.914381333420375e+000
1	 1.964354748895379e+000	 3.096102626762256e+000	 3.178131957247021e+000
1	 1.930471254663603e+000	 3.117342186515054e+000	 3.420636570899053e+000
1	 1.896401373359606e+000	 3.138184815363838e+000	 3.639749176618571e+000
1	 1.862151961492184e+000	 3.158628293608679e+000	 3.833389764740890e+000
1	 1.827729904041205e+000	 3.178670556813624e+000	 3.999546822165156e+000
1	 1.793142110144684e+000	 3.198309695998757e+000	 4.136279703887466e+000
1	 2.146233651174095e+000	 3.005739223669392e+000	 1.647895911365855e+000
1	 2.113144756520816e+000	 3.029093344069806e+000	 1.962309100387101e+000
1	 2.079834170063416e+000	 3.052061155369498e+000	 2.266377092458252e+000
1	 2.046308589507667e+000	 3.074639647697041e+000	 2.557599333722336e+000
1	 2.012574762977862e+000	 3.096825964446623e+000	 2.833529356689406e+000
1	 1.978639484684598e+000	 3.118617403193275e+000	 3.091778041487979e+000
1	 1.944509590579076e+000	 3.140011416462942e+000	 3.330016754574357e+000
1	 1.910191953999462e+000	 3.161005612357592e+000	 3.545980359727503e+000
1	 1.875693481314890e+000	 3.181597755035698e+000	 3.737470096525054e+000
1	 1.841021107572606e+000	 3.201785765048789e+000	 3.902356321874313e+000
1	 1.806181792153683e+000	 3.221567719534899e+000	 4.038581110558277e+000
1	 2.161728328645818e+000	 3.027439079048901e+000	 1.603291538300953e+000
1	 2.128400549586891e+000	 3.050961803907982e+000	 1.905807582991815e+000
1	 2.094849478225728e+000	 3.074095430717927e+000	 2.199537532510333e+000
1	 2.061081860622007e+000	 3.096836927877634e+000	 2.481898830490830e+000
1	 2.027104493617908e+000	 3.119183418158109e+000	 2.750362000102938e+000
1	 1.992924220474648e+000	 3.141132179624304e+000	 3.002454091927655e+000
1	 1.958547926495382e+000	 3.162680646410757e+000	 3.235762008541891e+000
1	 1.923982534640148e+000	 3.183826409351195e+000	 3.447935700247048e+000
1	 1.889235001138423e+000	 3.204567216462507e+000	 3.636691226753785e+000
1	 1.854312311104829e+000	 3.224900973283702e+000	 3.799813680021188e+000
1	 1.819221474163497e+000	 3.244825743070775e+000	 3.935159963845168e+000
1	 2.177223006118176e+000	 3.049138934428674e+000	 1.558352124416756e+000
1	 2.143656342653623e+000	 3.072830263746392e+000	 1.848751716770493e+000
1	 2.109864786388717e+000	 3.096129706066546e+000	 2.131768270381158e+000
1	 2.075855131737029e+000	 3.119034208058360e+000	 2.404772775203028e+000
1	 2.041634224258642e+000	 3.141540871869665e+000	 2.665187869786142e+000
1	 2.007208956265380e+000	 3.163646956055338e+000	 2.910491418531700e+000
1	 1.972586262412363e+000	 3.185349876358512e+000	 3.138219966286701e+000
1	 1.937773115281502e+000	 3.206647206344685e+000	 3.345972064425110e+000
1	 1.902776520962611e+000	 3.227536677889154e+000	 3.531411462941121e+000
1	 1.867603514637696e+000	 3.248016181518426e+000	 3.692270163470999e+000
1	 1.832261156173944e+000	 3.268083766606454e+000	 3.826351328560394e+000
1	 2.192717683591068e+000	 3.070838789808597e+000	 1.513241405961801e+000
1	 2.158912135720905e+000	 3.094698723584940e+000	 1.791345030300159e+000
1	 2.124880094552259e+000	 3.118163981415277e+000	 2.063309269842184e+000
1	 2.090628402852605e+000	 3.141231488239166e+000	 2.326493488086418e+000
1	 2.056163954899921e+000	 3.163898325581260e+000	 2.578306848894529e+000
1	 2.021493692056648e+000	 3.186161732486373e+000	 2.816211966556016e+000
1	 1.986624598329863e+000	 3.208019106306228e+000	 3.037728435188442e+000
1	 1.951563695923357e+000	 3.229468003338097e+000	 3.240436231433668e+000
1	 1.916318040787283e+000	 3.250506139315697e+000	 3.421978984786756e+000
1	 1.880894718171027e+000	 3.271131389753024e+000	 3.580067110283626e+000
1	 1.845300838184841e+000	 3.291341790142000e+000	 3.712480798673389e+000
1	 2.208212361064393e+000	 3.092538645188554e+000	 1.468118523538964e+000
1	 2.174167928788625e+000	 3.116567183423526e+000	 1.733785339646205e+000
1	 2.139895402716236e+000	 3.140198256764045e+000	 1.994393759513161e+000
1	 2.105401673968605e+000	 3.163428768419996e+000	 2.247325646056186e+000
1	 2.070693685541607e+000	 3.186255779292868e+000	 2.490010403652439e+000
1	 2.035778427848301e+000	 3.208676508917402e+000	 2.719928645100294e+000
1	 2.000662934247727e+000	 3.230688336253921e+000	 2.934615741262436e+000
1	 1.965354276565549e+000	 3.252288800331470e+000	 3.131665247265819e+000
1	 1.929859560612265e+000	 3.273475600742184e+000	 3.308732199502475e+000
1	 1.894185921704647e+000	 3.294246597987558e+000	 3.463536278057882e+000
1	 1.858340520196004e+000	 3.314599813677478e+000	 3.593864829587795e+000
1	 2.223707038538050e+000	 3.114238500568427e+000	 1.423138182216660e+000
1	 2.189423721856672e+000	 3.138435643262051e+000	 1.676264947384808e+000
1	 2.154910710880527e+000	 3.162232532112768e+000	 1.925248467513069e+000
1	 2.120174945084899e+000	 3.185626048600800e+000	 2.167526549006271e+000
1	 2.085223416183562e+000	 3.208613233004459e+000	 2.400581876596780e+000
1	 2.050063163640193e+000	 3.231191285348421e+000	 2.621945641925319e+000
1	 2.014701270165795e+000	 3.253357566201609e+000	 2.829201059487993e+000
1	 1.979144857207913e+000	 3.275109597324839e+000	 3.019986763837251e+000
1	 1.943401080437388e+000	 3.296445062168671e+000	 3.192000082283104e+000
1	 1.907477125238376e+000	 3.317361806222094e+000	 3.343000177712394e+000
1	 1.871380202207249e+000	 3.337857837212958e+000	 3.470811056526801e+000
1	 2.239201716011941e+000	 3.135938355948102e+000	 1.378450804992326e+000
1	 2.204679514924937e+000	 3.160304103100417e+000	 1.618970833362311e+000
1	 2.169926019045013e+000	 3.184266807461372e+000	 1.856093846368804e+000
1	 2.134948216201357e+000	 3.207823328781521e+000	 2.087346375044427e+000
1	 2.099753146825645e+000	 3.230970686716001e+000	 2.310296767645725e+000
1	 2.064347899432174e+000	 3.253706061779425e+000	 2.522558725199651e+000
1	 2.028739606083914e+000	 3.276026796149310e+000	 2.721794730422081e+000
1	 1.992935437850286e+000	 3.297930394318246e+000	 2.905719364008803e+000
1	 1.956942600262478e+000	 3.319414523595212e+000	 3.072102502641707e+000
1	 1.920768328772035e+000	 3.340477014456691e+000	 3.218772393408359e+000
1	 1.884419884218392e+000	 3.361115860748503e+000	 3.343618599699642e+000
1	 2.254696393485963e+000	 3.157638211327462e+000	 1.334202679928209e+000
1	 2.219935307993310e+000	 3.182172562938527e+000	 1.562084837588969e+000
1	 2.184941327209573e+000	 3.206301082809782e+000	 1.787144288650056e+000
1	 2.149721487317849e+000	 3.230020608962104e+000	 2.007028425203110e+000
1	 2.114282877467717e+000	 3.253328140427467e+000	 2.219423003578116e+000
1	 2.078632635224096e+000	 3.276220838210407e+000	 2.422055532804340e+000
1	 2.042777942001923e+000	 3.298696026097038e+000	 2.612698563757917e+000
1	 2.006726018492501e+000	 3.320751191311723e+000	 2.789172873207290e+000
1	 1.970484120087366e+000	 3.342383985021857e+000	 2.949350537289007e+000
1	 1.934059532305448e+000	 3.363592222691413e+000	 3.091157889280948e+000
1	 1.897459566229250e+000	 3.384373884284181e+000	 3.212578356885063e+000
1	 2.270191070960018e+000	 3.179338066706392e+000	 1.290536101261739e+000
1	 2.235191101061679e+000	 3.204041022776280e+000	 1.505783835642871e+000
1	 2.199956635374086e+000	 3.228335358157914e+000	 1.718608333773706e+000
1	 2.164494758434245e+000	 3.252217889142498e+000	 1.926809358129149e+000
1	 2.128812608109640e+000	 3.275685594138827e+000	 2.128221196477211e+000
1	 2.092917371015812e+000	 3.298735614641365e+000	 2.320715849790120e+000
1	 2.056816277919669e+000	 3.321365256044816e+000	 2.502206129452409e+000
1	 2.020516599134396e+000	 3.343571988305311e+000	 2.670648658284924e+000
1	 1.984025639911877e+000	 3.365353446448660e+000	 2.824046770199771e+000
1	 1.947350735838436e+000	 3.386707430926326e+000	 2.960453303609529e+000
1	 1.910499248239641e+000	 3.407631907820056e+000	 3.077973284033150e+000
1	 2.285685748434003e+000	 3.201037922084772e+000	 1.247589504776276e+000
1	 2.250446894129934e+000	 3.225909482613576e+000	 1.450239906939524e+000
1	 2.214971943538431e+000	 3.250369633505693e+000	 1.650688866396582e+000
1	 2.179268029550415e+000	 3.274415169322649e+000	 1.846919415227564e+000
1	 2.143342338751272e+000	 3.298043047850051e+000	 2.036944891662511e+000
1	 2.107202106807173e+000	 3.321250391072290e+000	 2.218811874549362e+000
1	 2.070854613836993e+000	 3.344034485992657e+000	 2.390603037012284e+000
1	 2.034307179775804e+000	 3.366392785299043e+000	 2.550439914223009e+000
1	 1.997567159735842e+000	 3.388322907875671e+000	 2.696485580474408e+000
1	 1.960641939370820e+000	 3.409822639161488e+000	 2.826947231022825e+000
1	 1.923538930249378e+000	 3.430889931356199e+000	 2.940078664453780e+000
1	 1.793142110144684e+000	 3.198309695998757e+000	 4.136279703887466e+000
1	 1.758400732415532e+000	 3.217541103571808e+000	 4.245419678881139e+000
1	 1.723507538249754e+000	 3.236366160359109e+000	 4.330297830222545e+000
1	 1.688469482271451e+000	 3.254783426736442e+000	 4.391231852398470e+000
1	 1.653293526122406e+000	 3.272791617828106e+000	 4.428550169700641e+000
1	 1.617986634272130e+000	 3.290389603006430e+000	 4.442590790899152e+000
1	 1.582555769867112e+000	 3.307576405259167e+000	 4.433700172666099e+000
1	 1.547007890623957e+000	 3.324351200427108e+000	 4.402232094049110e+000
1	 1.511349944770983e+000	 3.340713316314455e+000	 4.348546544220127e+000
1	 1.475588867042669e+000	 3.356662231674654e+000	 4.273008625644455e+000
1	 1.439731574731233e+000	 3.372197575074528e+000	 4.175987474731049e+000
1	 1.806181792153683e+000	 3.221567719534899e+000	 4.038581110558279e+000
1	 1.771187776044501e+000	 3.240938977395473e+000	 4.147505405650155e+000
1	 1.736040839493528e+000	 3.259900929498167e+000	 4.232041435649276e+000
1	 1.700747987698722e+000	 3.278452125749841e+000	 4.292466628953676e+000
1	 1.665316232926751e+000	 3.296591271931205e+000	 4.329067818475293e+000
1	 1.629752590292575e+000	 3.314317229192684e+000	 4.342140174078521e+000
1	 1.594064073578511e+000	 3.331629013417208e+000	 4.331986145094370e+000
1	 1.558257691097505e+000	 3.348525794452300e+000	 4.298914415031121e+000
1	 1.522340441605221e+000	 3.365006895213961e+000	 4.243238870527416e+000
1	 1.486319310265352e+000	 3.381071790665133e+000	 4.165277586514273e+000
1	 1.450201264672494e+000	 3.396720106671581e+000	 4.065351829469220e+000
1	 1.819221474163497e+000	 3.244825743070775e+000	 3.935159963845168e+000
1	 1.783974819674280e+000	 3.264336851218890e+000	 4.043630285326021e+000
1	 1.748574140738111e+000	 3.283435698637018e+000	 4.127691031655253e+000
1	 1.713026493126799e+000	 3.302120824763097e+000	 4.187556699635571e+000
1	 1.677338939731900e+000	 3.320390926034239e+000	 4.223450626357952e+000
1	 1.641518546313823e+000	 3.338244855378957e+000	 4.235604029591021e+000
1	 1.605572377290710e+000	 3.355681621575360e+000	 4.224255057746540e+000
1	 1.569507491571854e+000	 3.372700388477689e+000	 4.189647851330567e+000
1	 1.533330938440259e+000	 3.389300474113742e+000	 4.132031617720411e+000
1	 1.497049753488834e+000	 3.405481349655952e+000	 4.051659721033533e+000
1	 1.460670954614553e+000	 3.421242638269016e+000	 3.948788788777244e+000
1	 1.832261156173944e+000	 3.268083766606454e+000	 3.826351328560393e+000
1	 1.796761863304684e+000	 3.287734725042119e+000	 3.934112873500769e+000
1	 1.761107441983310e+000	 3.306970467775714e+000	 4.017557965282429e+000
1	 1.725304998555488e+000	 3.325789523776247e+000	 4.076815963796725e+000
1	 1.689361646537656e+000	 3.344190580137224e+000	 4.112025254154279e+000
1	 1.653284502335674e+000	 3.362172481565244e+000	 4.123332424881821e+000
1	 1.617080681003512e+000	 3.379734229733591e+000	 4.110891453390408e+000
1	 1.580757292046804e+000	 3.396874982503220e+000	 4.074862900381682e+000
1	 1.544321435275896e+000	 3.413594053013718e+000	 4.015413114800017e+000
1	 1.507780196712916e+000	 3.429890908647009e+000	 3.932713450874480e+000
1	 1.471140644557212e+000	 3.445765169866720e+000	 3.826939498729020e+000
1	 1.845300838184841e+000	 3.291341790142000e+000	 3.712480798673388e+000
1	 1.809548906935523e+000	 3.311132598865224e+000	 3.819262721568429e+000
1	 1.773640743228935e+000	 3.330505236914307e+000	 3.901944783129518e+000
1	 1.737583503984593e+000	 3.349458222789323e+000	 3.960549448203605e+000
1	 1.701384353343822e+000	 3.367990234240172e+000	 3.995109129372383e+000
1	 1.665050458357931e+000	 3.386100107751535e+000	 4.005665532493353e+000
1	 1.628588984716718e+000	 3.403786837891867e+000	 3.992269005421687e+000
1	 1.592007092522155e+000	 3.421049576528834e+000	 3.954977891305625e+000
1	 1.555311932111934e+000	 3.437887631913810e+000	 3.893857887804033e+000
1	 1.518510639937398e+000	 3.454300467638206e+000	 3.808981413527446e+000
1	 1.481610334500272e+000	 3.470287701464573e+000	 3.700426982953045e+000
1	 1.858340520196004e+000	 3.314599813677478e+000	 3.593864829587795e+000
1	 1.822335950566611e+000	 3.334530472688268e+000	 3.699380692630151e+000
1	 1.786174044474793e+000	 3.354040006052849e+000	 3.781145540108609e+000
1	 1.749862009413921e+000	 3.373126921802362e+000	 3.839053618324296e+000
1	 1.713407060150203e+000	 3.391789888343100e+000	 3.873010770165831e+000
1	 1.676816414380397e+000	 3.410027733937825e+000	 3.882933977220251e+000
1	 1.640097288430126e+000	 3.427839446050156e+000	 3.868750899207538e+000
1	 1.603256892997709e+000	 3.445224170554476e+000	 3.830399411826158e+000
1	 1.566302428948173e+000	 3.462181210813938e+000	 3.767827144073310e+000
1	 1.529241083162080e+000	 3.478710026629442e+000	 3.680991016076527e+000
1	 1.492080024443531e+000	 3.494810233062459e+000	 3.569856778444129e+000
1	 1.871380202207249e+000	 3.337857837212958e+000	 3.470811056526802e+000
1	 1.835122994197758e+000	 3.357928346511310e+000	 3.574759264192238e+000
1	 1.798707345720694e+000	 3.377574775191389e+000	 3.655446095293448e+000
1	 1.762140514843276e+000	 3.396795620815399e+000	 3.712616676602042e+000
1	 1.725429766956601e+000	 3.415589542446022e+000	 3.746030095733339e+000
1	 1.688582370402873e+000	 3.433955360124103e+000	 3.755459168750497e+000
1	 1.651605592143540e+000	 3.451892054208428e+000	 3.740690197486773e+000
1	 1.614506693473263e+000	 3.469398764580086e+000	 3.701522717337121e+000
1	 1.577292925784412e+000	 3.486474789714023e+000	 3.637769236271812e+000
1	 1.539971526386763e+000	 3.503119585620613e+000	 3.549254965823116e+000
1	 1.502549714386791e+000	 3.519332764660260e+000	 3.435817544793357e+000
1	 1.884419884218392e+000	 3.361115860748503e+000	 3.343618599699641e+000
1	 1.847910037828777e+000	 3.381326220334415e+000	 3.445682818296463e+000
1	 1.811240646966444e+000	 3.401109544329981e+000	 3.525124395484427e+000
1	 1.774419020272465e+000	 3.420464319828468e+000	 3.581518848344866e+000
1	 1.737452473762821e+000	 3.439389196548954e+000	 3.614458723831192e+000
1	 1.700348326425160e+000	 3.457882986310363e+000	 3.623553620495854e+000
1	 1.663113895856761e+000	 3.475944662366649e+000	 3.608430190599332e+000
1	 1.625756493948620e+000	 3.493573358605611e+000	 3.568732122985844e+000
1	 1.588283422620452e+000	 3.510768368613983e+000	 3.504120107141300e+000
1	 1.550701969611245e+000	 3.527529144611625e+000	 3.414271778878768e+000
1	 1.513019404329850e+000	 3.543855296257858e+000	 3.298881648123697e+000
1	 1.897459566229250e+000	 3.384373884284181e+000	 3.212578356885063e+000
1	 1.860697081459480e+000	 3.404724094157645e+000	 3.312427919687579e+000
1	 1.823773948211853e+000	 3.424644313468674e+000	 3.390450747081570e+000
1	 1.786697525701294e+000	 3.444133018841604e+000	 3.446032655827135e+000
1	 1.749475180568665e+000	 3.463188850651911e+000	 3.478580256018258e+000
1	 1.712114282447062e+000	 3.481810612496596e+000	 3.487521255275947e+000
1	 1.674622199569589e+000	 3.499997270524787e+000	 3.472304732274827e+000
1	 1.637006294423581e+000	 3.517747952630995e+000	 3.432401379589934e+000
1	 1.599273919456093e+000	 3.535061947513741e+000	 3.367303715917475e+000
1	 1.561432412835328e+000	 3.551938703602373e+000	 3.276526267787282e+000
1	 1.523489094272510e+000	 3.568377827855136e+000	 3.159605720948278e+000
1	 1.910499248239641e+000	 3.407631907820056e+000	 3.077973284033150e+000
1	 1.873484125089679e+000	 3.428121967981062e+000	 3.175263582589315e+000
1	 1.836307249456730e+000	 3.448179082607521e+000	 3.251688076823590e+000
1	 1.798976031129568e+000	 3.467801717854845e+000	 3.306423181166263e+000
1	 1.761497887373937e+000	 3.486988504754906e+000	 3.338670551219814e+000
1	 1.723880238468380e+000	 3.505738238682794e+000	 3.347657698484111e+000
1	 1.686130503281826e+000	 3.524049878682808e+000	 3.332638561669775e+000
1	 1.648256094897945e+000	 3.541922546656179e+000	 3.292894034159617e+000
1	 1.610264416291135e+000	 3.559355526413215e+000	 3.227732447283619e+000
1	 1.572162856058811e+000	 3.576348262592755e+000	 3.136490009177834e+000
1	 1.533958784214570e+000	 3.592900359451976e+000	 3.018531199101409e+000
1	 1.923538930249378e+000	 3.430889931356199e+000	 2.940078664453780e+000
1	 1.886271168719185e+000	 3.451519841804724e+000	 3.034451526629524e+000
1	 1.848840550700881e+000	 3.471713851746570e+000	 3.109092181921850e+000
1	 1.811254536557092e+000	 3.491470416868223e+000	 3.162948318506994e+000
1	 1.773520594178441e+000	 3.510788158857956e+000	 3.194997988164405e+000
1	 1.735646194488917e+000	 3.529665864868950e+000	 3.204250559328894e+000
1	 1.697638806993271e+000	 3.548102486840682e+000	 3.189747612306463e+000
1	 1.659505895371513e+000	 3.566097140681105e+000	 3.150563775756166e+000
1	 1.621254913125377e+000	 3.583649105312324e+000	 3.085807503690489e+000
1	 1.582893299281493e+000	 3.600757821582674e+000	 2.994621792396752e+000
1	 1.544428474155829e+000	 3.617422891048259e+000	 2.876184836830569e+000
1	 1.439731574731233e+000	 3.372197575074528e+000	 4.175987474731048e+000
1	 1.403779565205173e+000	 3.387321361489601e+000	 4.049584268895799e+000
1	 1.367745085892707e+000	 3.402031155838170e+000	 3.883394347763416e+000
1	 1.331634983434178e+000	 3.416327030840312e+000	 3.674093396018954e+000
1	 1.295456071785157e+000	 3.430209203416529e+000	 3.418508454210621e+000
1	 1.259215128608840e+000	 3.443678032987045e+000	 3.113621252745630e+000
1	 1.222918891747823e+000	 3.456734019669561e+000	 2.756571231822923e+000
1	 1.186574055778320e+000	 3.469377802379238e+000	 2.344658247008615e+000
1	 1.150187268649676e+000	 3.481610156834798e+000	 1.875344960921571e+000
1	 1.113765128411843e+000	 3.493431993474643e+000	 1.346258922238596e+000
1	 1.077314180033310e+000	 3.504844355287081e+000	 7.551943339501813e-001
1	 1.450201264672494e+000	 3.396720106671581e+000	 4.065351829469220e+000
1	 1.413987813083974e+000	 3.411953872861664e+000	 3.936414788478673e+000
1	 1.377691291990982e+000	 3.426770636445832e+000	 3.769184588346561e+000
1	 1.341318597822436e+000	 3.441170470672980e+000	 3.560692646057405e+000
1	 1.304876594084804e+000	 3.455153594041044e+000	 3.308120544257257e+000
1	 1.268372107728261e+000	 3.468720368583945e+000	 3.008802808754083e+000
1	 1.231811925592805e+000	 3.481871298056221e+000	 2.660229383715468e+000
1	 1.195202790937426e+000	 3.494607026019214e+000	 2.260047805139347e+000
1	 1.158551400055167e+000	 3.506928333832645e+000	 1.806065073886811e+000
1	 1.121864398976819e+000	 3.518836138555602e+000	 1.296249230258536e+000
1	 1.085148380265702e+000	 3.530331490760976e+000	 7.287306327668414e-001
1	 1.460670954614553e+000	 3.421242638269016e+000	 3.948788788777244e+000
1	 1.424196060963574e+000	 3.436586384234133e+000	 3.817235405213473e+000
1	 1.387637498090055e+000	 3.451510117053901e+000	 3.648858419663783e+000
1	 1.351002212211490e+000	 3.466013910506030e+000	 3.441038428891384e+000
1	 1.314297116385243e+000	 3.480097984665906e+000	 3.191304640869282e+000
1	 1.277529086848464e+000	 3.493762704181139e+000	 2.897337110404819e+000
1	 1.240704959438558e+000	 3.507008576443118e+000	 2.556968684601333e+000
1	 1.203831526097284e+000	 3.519836249659356e+000	 2.168186659566145e+000
1	 1.166915531461388e+000	 3.532246510830582e+000	 1.729134150438865e+000
1	 1.129963669542497e+000	 3.544240283636570e+000	 1.238111177456362e+000
1	 1.092982580498757e+000	 3.555818626234796e+000	 6.935754713914936e-001
1	 1.471140644557212e+000	 3.445765169866720e+000	 3.826939498729020e+000
1	 1.434404308843775e+000	 3.461218895606880e+000	 3.692772946748887e+000
1	 1.397583704189727e+000	 3.476249597662238e+000	 3.523221494952115e+000
1	 1.360685826601140e+000	 3.490857350339327e+000	 3.316008563736523e+000
1	 1.323717638686275e+000	 3.505042375290976e+000	 3.069004270921921e+000
1	 1.286686065969255e+000	 3.518805039778497e+000	 2.780227139861237e+000
1	 1.249597993284889e+000	 3.532145854830123e+000	 2.447845529906204e+000
1	 1.212460261257706e+000	 3.545065473299544e+000	 2.070178791433887e+000
1	 1.175279662868157e+000	 3.557564687828503e+000	 1.645698148256416e+000
1	 1.138062940108698e+000	 3.569644428717461e+000	 1.173027310829580e+000
1	 1.100816780732308e+000	 3.581305761708479e+000	 6.509428242454074e-001
1	 1.481610334500272e+000	 3.470287701464573e+000	 3.700426982953045e+000
1	 1.444612556724376e+000	 3.485851406979773e+000	 3.563733696438148e+000
1	 1.407529910289798e+000	 3.500989078270704e+000	 3.393056695092243e+000
1	 1.370369440991190e+000	 3.515700790172728e+000	 3.186456057629834e+000
1	 1.333138160987701e+000	 3.529986765916116e+000	 2.942136291838407e+000
1	 1.295843045090437e+000	 3.543847375375882e+000	 2.658447529289102e+000
1	 1.258491027131605e+000	 3.557283133217108e+000	 2.333886455294646e+000
1	 1.221088996418505e+000	 3.570294696939667e+000	 1.967096977082245e+000
1	 1.183643794275289e+000	 3.582882864826309e+000	 1.556870633716532e+000
1	 1.146162210675251e+000	 3.595048573798191e+000	 1.102146751851115e+000
1	 1.108650980966191e+000	 3.606792897181959e+000	 6.020123519069349e-001
1	 1.492080024443531e+000	 3.494810233062459e+000	 3.569856778444129e+000
1	 1.454820804605176e+000	 3.510483918352682e+000	 3.430804114119336e+000
1	 1.417476116390070e+000	 3.525728558879165e+000	 3.259124927558680e+000
1	 1.380053055381439e+000	 3.540544230006091e+000	 3.053209975945434e+000
1	 1.342558683289326e+000	 3.554931156541184e+000	 2.811591827266684e+000
1	 1.305000024211814e+000	 3.568889710973160e+000	 2.532945555493766e+000
1	 1.267384060978512e+000	 3.582420411603950e+000	 2.216089184276005e+000
1	 1.229717731579492e+000	 3.595523920579608e+000	 1.859983882841565e+000
1	 1.192007925682604e+000	 3.608201041823901e+000	 1.463733918317848e+000
1	 1.154261481241978e+000	 3.620452718878676e+000	 1.026586369177406e+000
1	 1.116485181200240e+000	 3.632280032655170e+000	 5.479306049853885e-001
1	 1.502549714386791e+000	 3.519332764660260e+000	 3.435817544793357e+000
1	 1.465029052485976e+000	 3.535116429725480e+000	 3.294651526761738e+000
1	 1.427422322490341e+000	 3.550468039487480e+000	 3.122165891967632e+000
1	 1.389736669771686e+000	 3.565387669839278e+000	 2.917076276515925e+000
1	 1.351979205590951e+000	 3.579875547166044e+000	 2.678237163637505e+000
1	 1.314157003333191e+000	 3.593932046570194e+000	 2.404642092973931e+000
1	 1.276277094825420e+000	 3.607557689990518e+000	 2.095423632012624e+000
1	 1.238346466740479e+000	 3.620753144219251e+000	 1.749853114057941e+000
1	 1.200372057089920e+000	 3.633519218821177e+000	 1.367340147592546e+000
1	 1.162360751808704e+000	 3.645856863958831e+000	 9.474319023281526e-001
1	 1.124319381434289e+000	 3.657767168128049e+000	 4.898121776639440e-001
1	 1.513019404329850e+000	 3.543855296257858e+000	 3.298881648123697e+000
1	 1.475237300366577e+000	 3.559748941098035e+000	 3.155924790437502e+000
1	 1.437368528590413e+000	 3.575207520095515e+000	 2.982898813840583e+000
1	 1.399420284161735e+000	 3.590231109672148e+000	 2.778838609122451e+000
1	 1.361399727892379e+000	 3.604819937790553e+000	 2.542914609498967e+000
1	 1.323313982454373e+000	 3.618974382166853e+000	 2.274432527406178e+000
1	 1.285170128672135e+000	 3.632694968376689e+000	 1.972832867451469e+000
1	 1.246975201901278e+000	 3.645982367858483e+000	 1.637690220564257e+000
1	 1.208736188497052e+000	 3.658837395818033e+000	 1.268712344808243e+000
1	 1.170460022375256e+000	 3.671261009038573e+000	 8.657390387127131e-001
1	 1.132153581668172e+000	 3.683254303600529e+000	 4.287408133489029e-001
1	 1.523489094272510e+000	 3.568377827855136e+000	 3.159605720948278e+000
1	 1.485445548246778e+000	 3.584381452470216e+000	 3.015254924998272e+000
1	 1.447314734690085e+000	 3.599947000703133e+000	 2.842023148112574e+000
1	 1.409103898551387e+000	 3.615074549504561e+000	 2.639259082019429e+000
1	 1.370820250193409e+000	 3.629764328414571e+000	 2.406443319418081e+000
1	 1.332470961575163e+000	 3.644016717763000e+000	 2.143187631463674e+000
1	 1.294063162518466e+000	 3.657832246762336e+000	 1.849234035783979e+000
1	 1.255603937061700e+000	 3.671211591497186e+000	 1.524453660692718e+000
1	 1.217100319903820e+000	 3.684155572814372e+000	 1.168845411635158e+000
1	 1.178559292941457e+000	 3.696665154117818e+000	 7.825344462474252e-001
1	 1.139987781901724e+000	 3.708741439072548e+000	 3.657704647301134e-001
1	 1.533958784214570e+000	 3.592900359451976e+000	 3.018531199101409e+000
1	 1.495653796126378e+000	 3.609013963841895e+000	 2.873255722760737e+000
1	 1.457260940789158e+000	 3.624686481310193e+000	 2.700219253830608e+000
1	 1.418787512940441e+000	 3.639917989336375e+000	 2.499078997068649e+000
1	 1.380240772493848e+000	 3.654708719037964e+000	 2.269620084142062e+000
1	 1.341627940695366e+000	 3.669059053358499e+000	 2.011754404768612e+000
1	 1.302956196364219e+000	 3.682969525147330e+000	 1.725519243129799e+000
1	 1.264232672221558e+000	 3.696440815135250e+000	 1.411075725809453e+000
1	 1.225464451310041e+000	 3.709473749810092e+000	 1.068707087833951e+000
1	 1.186658563507135e+000	 3.722069299196483e+000	 6.988167636855508e-001
1	 1.147821982134778e+000	 3.734228574544038e+000	 3.019263104297464e-001
1	 1.544428474155829e+000	 3.617422891048259e+000	 2.876184836830569e+000
1	 1.505862044005179e+000	 3.633646475212943e+000	 2.730524332434503e+000
1	 1.467207146887432e+000	 3.649425961916560e+000	 2.558149041409418e+000
1	 1.428471127328698e+000	 3.664761429167448e+000	 2.359019554972639e+000
1	 1.389661294793495e+000	 3.679653109660585e+000	 2.133220088620713e+000
1	 1.350784919814787e+000	 3.694101388953216e+000	 1.880956879680619e+000
1	 1.311849230209201e+000	 3.708106803531543e+000	 1.602556405236904e+000
1	 1.272861407380663e+000	 3.721670038772552e+000	 1.298463427244512e+000
1	 1.233828582715532e+000	 3.734791926805090e+000	 9.692388719095260e-001
1	 1.194757834072111e+000	 3.747473444274481e+000	 6.155575506664830e-001
1	 1.155656182367169e+000	 3.759715710014934e+000	 2.382057303001753e-001
1	 1.077314180033310e+000	 3.504844355287081e+000	 7.551943339501813e-001
1	 1.040840911791156e+000	 3.515848414683465e+000	 1.045014711480629e-001
1	 1.004351750767449e+000	 3.526445468549742e+000	-6.007638170064942e-001
1	 9.678530616055532e-001	 3.536636938483259e+000	-1.358530817228596e+000
1	 9.313511442442004e-001	 3.546424369203119e+000	-2.166609558824739e+000
1	 8.948522312174626e-001	 3.555809426018735e+000	-3.022695576874690e+000
1	 8.583624850557751e-001	 3.564793892237349e+000	-3.924374764207602e+000
1	 8.218879957891512e-001	 3.573379666514729e+000	-4.869128301076998e+000
1	 7.854347785535484e-001	 3.581568760153285e+000	-5.854337651539369e+000
1	 7.490087713011586e-001	 3.589363294351826e+000	-6.877289615667894e+000
1	 7.126158326152123e-001	 3.596765497411133e+000	-7.935181426886727e+000
1	 1.085148380265702e+000	 3.530331490760976e+000	 7.287306327668414e-001
1	 1.048409879381463e+000	 3.541415571385863e+000	 1.061150964945218e-001
1	 1.011655370143746e+000	 3.552089686747149e+000	-5.665785873766933e-001
1	 9.748912634794350e-001	 3.562355268780023e+000	-1.287389206655782e+000
1	 9.381239051402545e-001	 3.572213873436759e+000	-2.054240402747502e+000
1	 9.013595729831019e-001	 3.581667178136880e+000	-2.864945202302916e+000
1	 8.646044743521743e-001	 3.590716979155808e+000	-3.717210637016732e+000
1	 8.278647435640271e-001	 3.599365188956308e+000	-4.608642440917798e+000
1	 7.911464394965296e-001	 3.607613833466946e+000	-5.536749814587536e+000
1	 7.544555432825080e-001	 3.615465049311848e+000	-6.498950245855805e+000
1	 7.177979561086598e-001	 3.622921080995963e+000	-7.492574376665139e+000
1	 1.092982580498757e+000	 3.555818626234796e+000	 6.935754713914936e-001
1	 1.055978846972389e+000	 3.566982728088109e+000	 9.835176015642141e-002
1	 1.018958989520610e+000	 3.577733904944332e+000	-5.425986267794573e-001
1	 9.819294653538292e-001	 3.588073599076493e+000	-1.227409242142405e+000
1	 9.448966660367625e-001	 3.598003377670048e+000	-1.954103437290220e+000
1	 9.078669147491352e-001	 3.607524930254624e+000	-2.720598667202781e+000
1	 8.708464636489087e-001	 3.616640066073833e+000	-3.524710881427520e+000
1	 8.338414913391797e-001	 3.625350711397429e+000	-4.364158990799141e+000
1	 7.968581004397326e-001	 3.633658906780143e+000	-5.236569399832573e+000
1	 7.599023152640303e-001	 3.641566804271423e+000	-6.139480594792870e+000
1	 7.229800796022363e-001	 3.649076664580380e+000	-7.070347777577333e+000
1	 1.100816780732308e+000	 3.581305761708479e+000	 6.509428242454074e-001
1	 1.063547814563778e+000	 3.592549884790160e+000	 8.244930194510432e-002
1	 1.026262608897900e+000	 3.603378123141265e+000	-5.275725315028588e-001
1	 9.889676672286073e-001	 3.613791929372667e+000	-1.177336529971176e+000
1	 9.516694269336100e-001	 3.623792881903001e+000	-1.864952113112634e+000
1	 9.143742565154635e-001	 3.633382682372006e+000	-2.588428349503215e+000
1	 8.770884529458931e-001	 3.642563152991476e+000	-3.345678122021042e+000
1	 8.398182391145391e-001	 3.651336233838164e+000	-4.134522365783191e+000
1	 8.025697613831022e-001	 3.659703980092960e+000	-4.952694369037216e+000
1	 7.653490872456817e-001	 3.667668559230635e+000	-5.797844127502018e+000
1	 7.281622030959101e-001	 3.675232248164469e+000	-6.667542742775877e+000
1	 1.108650980966191e+000	 3.606792897181959e+000	 6.020123519069349e-001
1	 1.071116782155477e+000	 3.618117041491970e+000	 5.961057325692459e-002
1	 1.033566228275475e+000	 3.629022341337930e+000	-5.202842696432294e-001
1	 9.960058691036420e-001	 3.639510259668551e+000	-1.135952132747895e+000
1	 9.584421878306849e-001	 3.649582386135648e+000	-1.785575115470558e+000
1	 9.208815982819892e-001	 3.659240434489071e+000	-2.467241326736446e+000
1	 8.833304422430449e-001	 3.668486239908799e+000	-3.178948828038688e+000
1	 8.457949868900372e-001	 3.677321756278584e+000	-3.918609644354927e+000
1	 8.082814223265827e-001	 3.685749053405477e+000	-4.684053833851592e+000
1	 7.707958592274194e-001	 3.693770314189572e+000	-5.473033607397589e+000
1	 7.333443265896487e-001	 3.701387831748314e+000	-6.283227489025574e+000
1	 1.116485181200240e+000	 3.632280032655170e+000	 5.479306049853885e-001
1	 1.078685749747331e+000	 3.643684198193497e+000	 3.100466461382144e-002
1	 1.040869847653191e+000	 3.654666559534302e+000	-5.195519401135119e-001
1	 1.003044070978804e+000	 3.665228589964141e+000	-1.102071325444216e+000
1	 9.652149487278728e-001	 3.675371890368006e+000	-1.714795128038024e+000
1	 9.273889400486129e-001	 3.685098186605857e+000	-2.355878158630124e+000
1	 8.895724315402804e-001	 3.694409326825858e+000	-3.023392125969223e+000
1	 8.517717346656041e-001	 3.703307278718762e+000	-3.715329422451907e+000
1	 8.139930832701185e-001	 3.711794126717773e+000	-4.429606962944150e+000
1	 7.762426312092002e-001	 3.719872069148314e+000	-5.164070068374534e+000
1	 7.385264500834193e-001	 3.727543415331994e+000	-5.916496385794623e+000
1	 1.124319381434289e+000	 3.657767168128049e+000	 4.898121776639440e-001
1	 1.086254717339184e+000	 3.669251354894696e+000	-2.231918116461686e-003
1	 1.048173467030906e+000	 3.680310777730361e+000	-5.242265835343861e-001
1	 1.010082272853967e+000	 3.690946920259438e+000	-1.074542403448016e+000
1	 9.719877096250612e-001	 3.701161394600097e+000	-1.651467648411341e+000
1	 9.338962818152367e-001	 3.710955938722407e+000	-2.253211720596278e+000
1	 8.958144208375152e-001	 3.720332413742715e+000	-2.877908661778610e+000
1	 8.577484824411712e-001	 3.729292801158767e+000	-3.523620715404191e+000
1	 8.197047442136543e-001	 3.737839200029931e+000	-4.188341934822933e+000
1	 7.816894031909809e-001	 3.745973824106949e+000	-4.870001829872089e+000
1	 7.437085735771903e-001	 3.753698998915595e+000	-5.566469044100982e+000
1	 1.132153581668172e+000	 3.683254303600529e+000	 4.287408133489029e-001
1	 1.093823684930883e+000	 3.694818511595525e+000	-3.899412633508015e-002
1	 1.055477086408480e+000	 3.705954995926085e+000	-5.331910424954213e-001
1	 1.017120474729001e+000	 3.716665250554442e+000	-1.052245540101131e+000
1	 9.787604705221360e-001	 3.726950898831945e+000	-1.594479852791344e+000
1	 9.404036235817623e-001	 3.736813690838763e+000	-2.158146085652028e+000
1	 9.020564101346672e-001	 3.746255500659427e+000	-2.741429510378568e+000
1	 8.637252302166689e-001	 3.755278323598676e+000	-3.342451905464489e+000
1	 8.254164051571349e-001	 3.763884273342034e+000	-3.959274934133873e+000
1	 7.871361751727186e-001	 3.772075579065561e+000	-4.589903552830329e+000
1	 7.488906970709289e-001	 3.779854582499195e+000	-5.232289443188440e+000
1	 1.139987781901724e+000	 3.708741439072548e+000	 3.657704647301134e-001
1	 1.101392652522272e+000	 3.720385668295939e+000	-7.820728781231252e-002
1	 1.062780705785770e+000	 3.731599214121452e+000	-5.453588688111105e-001
1	 1.024158676603779e+000	 3.742383580849157e+000	-1.034091691344605e+000
1	 9.855332314189840e-001	 3.752740403063570e+000	-1.542749507478389e+000
1	 9.469109653480903e-001	 3.762671442954964e+000	-2.069615452442133e+000
1	 9.082983994316516e-001	 3.772178587576050e+000	-2.612915130060732e+000
1	 8.697019779920288e-001	 3.781263846038558e+000	-3.170819732734186e+000
1	 8.311280661005044e-001	 3.789929346654160e+000	-3.741449189344950e+000
1	 7.925829471543699e-001	 3.798177334024236e+000	-4.322875334572726e+000
1	 7.540728205646027e-001	 3.806010166082880e+000	-4.913125093212485e+000
1	 1.147821982134778e+000	 3.734228574544038e+000	 3.019263104297464e-001
1	 1.108961620113198e+000	 3.745952824995893e+000	-1.188260700524714e-001
1	 1.070084325162635e+000	 3.757243432316442e+000	-5.596732755266118e-001
1	 1.031196878478173e+000	 3.768101911143579e+000	-1.019021545220321e+000
1	 9.923059923154914e-001	 3.778529907294995e+000	-1.495223924943370e+000
1	 9.534183071141239e-001	 3.788529195071056e+000	-1.986583117160662e+000
1	 9.145403887283859e-001	 3.798101674492648e+000	-2.491354359748734e+000
1	 8.756787257671812e-001	 3.807249368478485e+000	-3.007748327413057e+000
1	 8.368397270437075e-001	 3.815974419966393e+000	-3.533934049838625e+000
1	 7.980297191358921e-001	 3.824279088983057e+000	-4.068041840754573e+000
1	 7.592549440581791e-001	 3.832165749666732e+000	-4.608166232215492e+000
1	 1.155656182367169e+000	 3.759715710014934e+000	 2.382057303001753e-001
1	 1.116530587703505e+000	 3.771519981695344e+000	-1.598334858228267e-001
1	 1.077387944538932e+000	 3.782887650511029e+000	-5.751061315495804e-001
1	 1.038235080352055e+000	 3.793820241437709e+000	-1.006004514100816e+000
1	 9.990787532115453e-001	 3.804319411526238e+000	-1.450878962359596e+000
1	 9.599256488797626e-001	 3.814386947187074e+000	-1.908040487288983e+000
1	 9.207823780247851e-001	 3.824024761409275e+000	-2.375763457035920e+000
1	 8.816554735420569e-001	 3.833234890918529e+000	-2.852288281411202e+000
1	 8.425513879866883e-001	 3.842019493278808e+000	-3.335824100542798e+000
1	 8.034764911172414e-001	 3.850380843942109e+000	-3.824551472618632e+000
1	 7.644370675516263e-001	 3.858321333250832e+000	-4.316625055764257e+000
1	 7.126158326152123e-001	 3.596765497411133e+000	-7.935181426886727e+000
1	 6.762671878802550e-001	 3.603776679759038e+000	-9.048267253163701e+000
1	 6.399630600582476e-001	 3.610400416447522e+000	-1.023203758665538e+001
1	 6.037090469397647e-001	 3.616639241793862e+000	-1.147588367728107e+001
1	 5.675106594965956e-001	 3.622495785572754e+000	-1.276906033503789e+001
1	 5.313733202242620e-001	 3.627972770066271e+000	-1.410070339877280e+001
1	 4.953023615887203e-001	 3.633073007093981e+000	-1.545984697904235e+001
1	 4.593030245767192e-001	 3.637799395027112e+000	-1.683544044935721e+001
1	 4.233804573491112e-001	 3.642154915790479e+000	-1.821636516143672e+001
1	 3.875397139962902e-001	 3.646142631855923e+000	-1.959145086144552e+001
1	 3.517857533948060e-001	 3.649765683230813e+000	-2.094949178554803e+001
1	 7.177979561086598e-001	 3.622921080995963e+000	-7.492574376665139e+000
1	 6.811849849902317e-001	 3.629983248476528e+000	-8.536461781357909e+000
1	 6.446168545105612e-001	 3.636655152803184e+000	-9.644191048166025e+000
1	 6.080992031672106e-001	 3.642939346722671e+000	-1.080457695127133e+001
1	 5.716375820076127e-001	 3.648838479133310e+000	-1.200630459453890e+001
1	 5.352374529595347e-001	 3.654355292113508e+000	-1.323794783205969e+001
1	 4.989041872664873e-001	 3.659492617930285e+000	-1.448798742651793e+001
1	 4.626430640275384e-001	 3.664253376031720e+000	-1.574482891886459e+001
1	 4.264592688408320e-001	 3.668640570027081e+000	-1.699682018421499e+001
1	 3.903578925499762e-001	 3.672657284658395e+000	-1.823226865034605e+001
1	 3.543439300923417e-001	 3.676306682767058e+000	-1.943945815663972e+001
1	 7.229800796022363e-001	 3.649076664580380e+000	-7.070347777577333e+000
1	 6.861027821003028e-001	 3.656189817193663e+000	-8.046564303160071e+000
1	 6.492706489629426e-001	 3.662909889158566e+000	-9.079875672357501e+000
1	 6.124893593947066e-001	 3.669239451651285e+000	-1.015867728101865e+001
1	 5.757645045186705e-001	 3.675181172693760e+000	-1.127124187554630e+001
1	 5.391015856948495e-001	 3.680737814160723e+000	-1.240573867144285e+001
1	 5.025060129443074e-001	 3.685912228766642e+000	-1.355025217962495e+001
1	 4.659831034784319e-001	 3.690707357036439e+000	-1.469280071347008e+001
1	 4.295380803326594e-001	 3.695126224263829e+000	-1.582135455108404e+001
1	 3.931760711038120e-001	 3.699171937461023e+000	-1.692385372881976e+001
1	 3.569021067900821e-001	 3.702847682303435e+000	-1.798822544363372e+001
1	 7.281622030959101e-001	 3.675232248164469e+000	-6.667542742775876e+000
1	 6.910205792104442e-001	 3.682396385910518e+000	-7.577722388610342e+000
1	 6.539244434153744e-001	 3.689164625513728e+000	-8.538388578962241e+000
1	 6.168795156222396e-001	 3.695539556579746e+000	-9.537671000776655e+000
1	 5.798914270297595e-001	 3.701523866254122e+000	-1.056358396642824e+001
1	 5.429657184301957e-001	 3.707120336207917e+000	-1.160404597957198e+001
1	 5.061078386221670e-001	 3.712331839603033e+000	-1.264689898483726e+001
1	 4.693231429293811e-001	 3.717161338041240e+000	-1.367992727410927e+001
1	 4.326168918245668e-001	 3.721611878500689e+000	-1.469087602372980e+001
1	 3.959942496577603e-001	 3.725686590263770e+000	-1.566746943855389e+001
1	 3.594602834879763e-001	 3.729388681839912e+000	-1.659742848041277e+001
1	 7.333443265896487e-001	 3.701387831748314e+000	-6.283227489025575e+000
1	 6.959383763206329e-001	 3.708602954627166e+000	-7.129107702282056e+000
1	 6.585782378678403e-001	 3.715419361868731e+000	-8.019046755118545e+000
1	 6.212696718497973e-001	 3.721839661508097e+000	-8.941058963922966e+000
1	 5.840183495408687e-001	 3.727866559814423e+000	-9.883050802057749e+000
1	 5.468298511655628e-001	 3.733502858255094e+000	-1.083284066529722e+001
1	 5.097096643000534e-001	 3.738751450439450e+000	-1.177817830324340e+001
1	 4.726631823803677e-001	 3.743615319046093e+000	-1.270676388953774e+001
1	 4.356957033165275e-001	 3.748097532737622e+000	-1.360626670531585e+001
1	 3.988124282117837e-001	 3.752201243066594e+000	-1.446434341199437e+001
1	 3.620184601859728e-001	 3.755929681376454e+000	-1.526865589113060e+001
1	 7.385264500834193e-001	 3.727543415331994e+000	-5.916496385794623e+000
1	 7.008561734308454e-001	 3.734809523343683e+000	-6.699915157944019e+000
1	 6.632320323203229e-001	 3.741674098223633e+000	-7.521186358337940e+000
1	 6.256598280773676e-001	 3.748139766436377e+000	-8.368356033567043e+000
1	 5.881452720519882e-001	 3.754209253374685e+000	-9.229370177998561e+000
1	 5.506939839009403e-001	 3.759885380302257e+000	-1.009209445398052e+001
1	 5.133114899779528e-001	 3.765171061275875e+000	-1.094433356614830e+001
1	 4.760032218313728e-001	 3.770069300050974e+000	-1.177385026301736e+001
1	 4.387745148085148e-001	 3.774583186974590e+000	-1.256838394069190e+001
1	 4.016306067658446e-001	 3.778715895869458e+000	-1.331566882517645e+001
1	 3.645766368840204e-001	 3.782470680913030e+000	-1.400345171144344e+001
1	 7.437085735771903e-001	 3.753698998915595e+000	-5.566469044100982e+000
1	 7.057739705410575e-001	 3.761016092060141e+000	-6.289362108564254e+000
1	 6.678858267728055e-001	 3.767928834578494e+000	-7.044162048614252e+000
1	 6.300499843049376e-001	 3.774439871364630e+000	-7.819090594454409e+000
1	 5.922721945631075e-001	 3.780551946934928e+000	-8.602277476640511e+000
1	 5.545581166363180e-001	 3.786267902349411e+000	-9.381779859048280e+000
1	 5.169133156558523e-001	 3.791590672112294e+000	-1.014560141998882e+001
1	 4.793432612823781e-001	 3.796523281055854e+000	-1.088171105531074e+001
1	 4.418533263005021e-001	 3.801068841211559e+000	-1.157806117896733e+001
1	 4.044487853199053e-001	 3.805230548672323e+000	-1.222260559817711e+001
1	 3.671348135820682e-001	 3.809011680449607e+000	-1.280331694196233e+001
1	 7.488906970709289e-001	 3.779854582499195e+000	-5.232289443188440e+000
1	 7.106917676512464e-001	 3.787222660776613e+000	-5.896687569943497e+000
1	 6.725396212252711e-001	 3.794183570933372e+000	-6.587346348262064e+000
1	 6.344401405324956e-001	 3.800739976292896e+000	-7.292804085135790e+000
1	 5.963991170742168e-001	 3.806894640495176e+000	-8.001515404705113e+000
1	 5.584222493716851e-001	 3.812650424396559e+000	-8.701870154725185e+000
1	 5.205151413337386e-001	 3.818010282948694e+000	-9.382211961081026e+000
1	 4.826833007333645e-001	 3.822977262060701e+000	-1.003085640513135e+001
1	 4.449321377924628e-001	 3.827554495448490e+000	-1.063610880027164e+001
1	 4.072669638739285e-001	 3.831745201475147e+000	-1.118628154572675e+001
1	 3.696929902800646e-001	 3.835552679986150e+000	-1.166971103720779e+001
1	 7.540728205646027e-001	 3.806010166082880e+000	-4.913125093212485e+000
1	 7.156095647613880e-001	 3.813429229493175e+000	-5.521151476360864e+000
1	 6.771934156777034e-001	 3.820438307288330e+000	-6.150129028151239e+000
1	 6.388302967600286e-001	 3.827040081221221e+000	-6.789050549426588e+000
1	 6.005260395853054e-001	 3.833237334055454e+000	-7.426833741574799e+000
1	 5.622863821070316e-001	 3.839032946443703e+000	-8.052339349892163e+000
1	 5.241169670115983e-001	 3.844429893785061e+000	-8.654388960687854e+000
1	 4.860233401843138e-001	 3.849431243065490e+000	-9.221782428133972e+000
1	 4.480109492843702e-001	 3.854040149685346e+000	-9.743314908425052e+000
1	 4.100851424278769e-001	 3.858259854277893e+000	-1.020779348037756e+001
1	 3.722511669779586e-001	 3.862093679522626e+000	-1.060405333317077e+001
1	 7.592549440581791e-001	 3.832165749666732e+000	-4.608166232215493e+000
1	 7.205273618714591e-001	 3.839635798209898e+000	-5.162033966701706e+000
1	 6.818472101300850e-001	 3.846693043643424e+000	-5.731916519076053e+000
1	 6.432204529875243e-001	 3.853340186149642e+000	-6.307396206234420e+000
1	 6.046529620963635e-001	 3.859580027615782e+000	-6.877989097928260e+000
1	 5.661505148423461e-001	 3.865415468490847e+000	-7.433162163015020e+000
1	 5.277187926894182e-001	 3.870849504621382e+000	-7.962350080870050e+000
1	 4.893633796352074e-001	 3.875885224070195e+000	-8.454971695470645e+000
1	 4.510897607761977e-001	 3.880525803922092e+000	-8.900446091148101e+000
1	 4.129033209817128e-001	 3.884774507080522e+000	-9.288208270495248e+000
1	 3.748093436756991e-001	 3.888634679059003e+000	-9.607724416412532e+000
1	 7.644370675516263e-001	 3.858321333250832e+000	-4.316625055764257e+000
1	 7.254451589814354e-001	 3.865842366926856e+000	-4.818634699621853e+000
1	 6.865010045823983e-001	 3.872947779998714e+000	-5.332131347066376e+000
1	 6.476106092149704e-001	 3.879640291078204e+000	-5.847419036884009e+000
1	 6.087798846073803e-001	 3.885922721176180e+000	-6.354744684193336e+000
1	 5.700146475776188e-001	 3.891797990537994e+000	-6.844313998092764e+000
1	 5.313206183671851e-001	 3.897269115457639e+000	-7.306307081557538e+000
1	 4.927034190860264e-001	 3.902339205074782e+000	-7.730893692881824e+000
1	 4.541685722679184e-001	 3.907011458158686e+000	-8.108248149350182e+000
1	 4.157214995353986e-001	 3.911289159882991e+000	-8.428563855218176e+000
1	 3.773675203732346e-001	 3.915175678595245e+000	-8.682067437477649e+000
1	 3.517857533948060e-001	 3.649765683230813e+000	-2.094949178554803e+001
1	 3.161181078051911e-001	 3.653027746903922e+000	-2.229987662550993e+001
1	 2.805469763476744e-001	 3.655931540248671e+000	-2.365402516906618e+001
1	 2.450771001425687e-001	 3.658480420160160e+000	-2.500433833592763e+001
1	 2.097131192376733e-001	 3.660677809123401e+000	-2.634318672651288e+001
1	 1.744595719637188e-001	 3.662527192196826e+000	-2.766292002488993e+001
1	 1.393208943850408e-001	 3.664032114011716e+000	-2.895587620194401e+001
1	 1.043014198436543e-001	 3.665196175790536e+000	-3.021439050889385e+001
1	 6.940537859482046e-002	 3.666023032386947e+000	-3.143080425204072e+001
1	 3.463689753212482e-002	 3.666516389350228e+000	-3.259747334038896e+001
1	 0.000000000000000e+000	 3.666680000016666e+000	-3.370677659852597e+001
1	 3.543439300923417e-001	 3.676306682767058e+000	-1.943945815663972e+001
1	 3.184169103270729e-001	 3.679592468080790e+000	-2.062724294581843e+001
1	 2.825871065421273e-001	 3.682517377733703e+000	-2.180603105108203e+001
1	 2.468592943351135e-001	 3.685084793032176e+000	-2.296694173613948e+001
1	 2.112381474961305e-001	 3.687298161349476e+000	-2.410107329609833e+001
1	 1.757282373585245e-001	 3.689160993087311e+000	-2.519951440933278e+001
1	 1.403340322455686e-001	 3.690676858653458e+000	-2.625335521691257e+001
1	 1.050598970112213e-001	 3.691849385458404e+000	-2.725369811852544e+001
1	 6.991009267304291e-002	 3.692682254933840e+000	-2.819166827478964e+001
1	 3.488877613527512e-002	 3.693179199575722e+000	-2.905842380680614e+001
1	 0.000000000000000e+000	 3.693344000014533e+000	-2.984516568474105e+001
1	 3.569021067900821e-001	 3.702847682303435e+000	-1.798822544363372e+001
1	 3.207157128492248e-001	 3.706157189257729e+000	-1.902277599838891e+001
1	 2.846272367369185e-001	 3.709103215218714e+000	-2.003690455925744e+001
1	 2.486414885280597e-001	 3.711689165904061e+000	-2.102062949389526e+001
1	 2.127631757550383e-001	 3.713918513575290e+000	-2.196395668728338e+001
1	 1.769969027538079e-001	 3.715794793977405e+000	-2.285689259409115e+001
1	 1.413471701065711e-001	 3.717321603294685e+000	-2.368945695435441e+001
1	 1.058183741792213e-001	 3.718502595125647e+000	-2.445169516038505e+001
1	 7.041480675161065e-002	 3.719341477480015e+000	-2.513369026396947e+001
1	 3.514065473862889e-002	 3.719842009800439e+000	-2.572557461404118e+001
1	 0.000000000000000e+000	 3.720008000011599e+000	-2.621754111612291e+001
1	 3.594602834879763e-001	 3.729388681839912e+000	-1.659742848041277e+001
1	 3.230145153715792e-001	 3.732721910434722e+000	-1.748851094683534e+001
1	 2.866673669319635e-001	 3.735689052703709e+000	-1.834912236901847e+001
1	 2.504236827213069e-001	 3.738293538775842e+000	-1.916835695656308e+001
1	 2.142882040142840e-001	 3.740538865800908e+000	-1.993530407278180e+001
1	 1.782655681494497e-001	 3.742428594867207e+000	-2.063906274226657e+001
1	 1.423603079679294e-001	 3.743966347935524e+000	-2.126875576584590e+001
1	 1.065768513475461e-001	 3.745155804792419e+000	-2.181354343000174e+001
1	 7.091952083043732e-002	 3.746000700025650e+000	-2.226263679911273e+001
1	 3.539253334213530e-002	 3.746504820024575e+000	-2.260531058016842e+001
1	 0.000000000000000e+000	 3.746672000008066e+000	-2.283091555085470e+001
1	 3.620184601859728e-001	 3.755929681376454e+000	-1.526865589113060e+001
1	 3.253133178940685e-001	 3.759286631611750e+000	-1.602642542944124e+001
1	 2.887074971271778e-001	 3.762274890188694e+000	-1.674509115081864e+001
1	 2.522058769147549e-001	 3.764897911647556e+000	-1.741299593653922e+001
1	 2.158132322737550e-001	 3.767159218026397e+000	-1.801848462323118e+001
1	 1.795342335453303e-001	 3.769062395756812e+000	-1.854991972340901e+001
1	 1.433734458295250e-001	 3.770611092576106e+000	-1.899569670569396e+001
1	 1.073353285160875e-001	 3.771809014458875e+000	-1.934425882111505e+001
1	 7.142423490943663e-002	 3.772659922570928e+000	-1.958411146331256e+001
1	 3.564441194574342e-002	 3.773167630248318e+000	-1.970383605186957e+001
1	 0.000000000000000e+000	 3.773336000004134e+000	-1.969210342937717e+001
1	 3.645766368840204e-001	 3.782470680913030e+000	-1.400345171144344e+001
1	 3.276121204166254e-001	 3.785851352788797e+000	-1.463844157739067e+001
1	 2.907476273224767e-001	 3.788860727673674e+000	-1.522715002620850e+001
1	 2.539880711083032e-001	 3.791502284519237e+000	-1.575733764200643e+001
1	 2.173382605333388e-001	 3.793779570251820e+000	-1.621677294551814e+001
1	 1.808028989413304e-001	 3.795696196646321e+000	-1.659324908833123e+001
1	 1.443865836912393e-001	 3.797255837216559e+000	-1.687460006722799e+001
1	 1.080938056847371e-001	 3.798462224125175e+000	-1.704871644452359e+001
1	 7.192894898852230e-002	 3.799319145116026e+000	-1.710356056182358e+001
1	 3.589629054940242e-002	 3.799830440471868e+000	-1.702718123612956e+001
1	 0.000000000000000e+000	 3.800000000000001e+000	-1.680772792870146e+001
1	 3.671348135820682e-001	 3.809011680449607e+000	-1.280331694196233e+001
1	 3.299109229391823e-001	 3.812416073965843e+000	-1.332642794862129e+001
1	 2.927877575177755e-001	 3.815446565158654e+000	-1.379757292122193e+001
1	 2.557702653018515e-001	 3.818106657390918e+000	-1.420409548516431e+001
1	 2.188632887929225e-001	 3.820399922477242e+000	-1.453335237735509e+001
1	 1.820715643373305e-001	 3.822329997535829e+000	-1.477273087774542e+001
1	 1.453997215529536e-001	 3.823900581857012e+000	-1.490966572944029e+001
1	 1.088522828533867e-001	 3.825115433791474e+000	-1.493165553292618e+001
1	 7.243366306760793e-002	 3.825978367661123e+000	-1.482627860158110e+001
1	 3.614816915306143e-002	 3.826493250695419e+000	-1.458120826721899e+001
1	 0.000000000000000e+000	 3.826663999995868e+000	-1.418422762597852e+001
1	 3.696929902800646e-001	 3.835552679986150e+000	-1.166971103720779e+001
1	 3.322097254616717e-001	 3.838980795142871e+000	-1.209220138138707e+001
1	 2.948278877129898e-001	 3.842032402643637e+000	-1.245857082205384e+001
1	 2.575524594952994e-001	 3.844711030262633e+000	-1.275590777386592e+001
1	 2.203883170523936e-001	 3.847020274702731e+000	-1.297131814507154e+001
1	 1.833402297332110e-001	 3.848963798425434e+000	-1.309194327277137e+001
1	 1.464128594145492e-001	 3.850545326497594e+000	-1.310497732316057e+001
1	 1.096107600219280e-001	 3.851768643457931e+000	-1.299768414212214e+001
1	 7.293837714660725e-002	 3.852637590206400e+000	-1.275741354321973e+001
1	 3.640004775666957e-002	 3.853156060919164e+000	-1.237161702178512e+001
1	 0.000000000000000e+000	 3.853327999991935e+000	-1.182786288540780e+001
1	 3.722511669779586e-001	 3.862093679522626e+000	-1.060405333317077e+001
1	 3.345085279840260e-001	 3.865545516319864e+000	-1.093752877139304e+001
1	 2.968680179080347e-001	 3.868618240128633e+000	-1.121229393772950e+001
1	 2.593346536885468e-001	 3.871315403134416e+000	-1.141534029227061e+001
1	 2.219133453116393e-001	 3.873640626928348e+000	-1.153368039119978e+001
1	 1.846088951288528e-001	 3.875597599315237e+000	-1.155436609492277e+001
1	 1.474259972759075e-001	 3.877190071138433e+000	-1.146450622544656e+001
1	 1.103692371902528e-001	 3.878421853124702e+000	-1.125128365836644e+001
1	 7.344309122543394e-002	 3.879296812752036e+000	-1.090197183653515e+001
1	 3.665192636017595e-002	 3.879818871143298e+000	-1.040395069416919e+001
1	 0.000000000000000e+000	 3.879991999988402e+000	-9.744721981794459e+000
1	 3.748093436756991e-001	 3.888634679059003e+000	-9.607724416412532e+000
1	 3.368073305061778e-001	 3.892110237496803e+000	-9.864128776153196e+000
1	 2.989081481028261e-001	 3.895204077613644e+000	-1.006083377420849e+001
1	 2.611168478814930e-001	 3.897919776006299e+000	-1.018488877581404e+001
1	 2.234383735705471e-001	 3.900260979154164e+000	-1.022336707807586e+001
1	 1.858775605241363e-001	 3.902231400205331e+000	-1.016338416276349e+001
1	 1.484391351369099e-001	 3.903834815779660e+000	-9.992115390397512e+000
1	 1.111277143582529e-001	 3.905075062791944e+000	-9.696813121141412e+000
1	 7.394780530400166e-002	 3.905956035298211e+000	-9.264823249735443e+000
1	 3.690380496352973e-002	 3.906481681368015e+000	-8.683601143405225e+000
1	 0.000000000000000e+000	 3.906655999985469e+000	-7.940726973336881e+000
1	 3.773675203732346e-001	 3.915175678595245e+000	-8.682067437477649e+000
1	 3.391061330280596e-001	 3.918674958673670e+000	-8.873673450025324e+000
1	 3.009482782972789e-001	 3.921789915098675e+000	-9.006225124127065e+000
1	 2.628990420740376e-001	 3.924524148878315e+000	-9.066981285511885e+000
1	 2.249634018290041e-001	 3.926881331380236e+000	-9.043226773339802e+000
1	 1.871462259189420e-001	 3.928865201095816e+000	-8.922290512035083e+000
1	 1.494522729974377e-001	 3.930479560421402e+000	-8.691563024153357e+000
1	 1.118861915258198e-001	 3.931728272459813e+000	-8.338513370103973e+000
1	 7.445251938222409e-002	 3.932615257845103e+000	-7.850705502267535e+000
1	 3.715568356668002e-002	 3.933144491593509e+000	-7.215814022735117e+000
1	 0.000000000000000e+000	 3.933319999983334e+000	-6.421639335544564e+000
1	 3.933319999983334e+000	 0.000000000000000e+000	 1.295450642214103e+001
1	 3.933144491593509e+000	 3.715568356668014e-002	 1.235192752941037e+001
1	 3.932615257845103e+000	 7.445251938222434e-002	 1.172467896007618e+001
1	 3.931728272459812e+000	 1.118861915258195e-001	 1.107900663141997e+001
1	 3.930479560421403e+000	 1.494522729974376e-001	 1.042102713063447e+001
1	 3.928865201095816e+000	 1.871462259189419e-001	 9.756716078376952e+000
1	 3.926881331380236e+000	 2.249634018290042e-001	 9.091896380400387e+000
1	 3.924524148878316e+000	 2.628990420740378e-001	 8.432226385066473e+000
1	 3.921789915098675e+000	 3.009482782972785e-001	 7.783187965392719e+000
1	 3.918674958673671e+000	 3.391061330280594e-001	 7.150074545117883e+000
1	 3.915175678595246e+000	 3.773675203732345e-001	 6.537979089082316e+000
1	 3.959987999982150e+000	 0.000000000000000e+000	 1.142704938844819e+001
1	 3.959811301641444e+000	 3.740759995516202e-002	 1.091826192765561e+001
1	 3.959278479676159e+000	 7.495730917472705e-002	 1.038390900775000e+001
1	 3.958385480509717e+000	 1.126447824758346e-001	 9.829911595032700e+000
1	 3.957128302175166e+000	 1.504655628432892e-001	 9.262067022544844e+000
1	 3.955502997456446e+000	 1.884150816320309e-001	 8.686037857682370e+000
1	 3.953505677058800e+000	 2.264886588640513e-001	 8.107340662007717e+000
1	 3.951132512805530e+000	 2.646815036219777e-001	 7.531334660288451e+000
1	 3.948379740858182e+000	 3.029887145414693e-001	 6.963210336607573e+000
1	 3.945243664957141e+000	 3.414052804044880e-001	 6.407977976187928e+000
1	 3.941720659679418e+000	 3.799260808354097e-001	 5.870456172353855e+000
1	 3.986655999981866e+000	 0.000000000000000e+000	 1.001524570993260e+001
1	 3.986478111690256e+000	 3.765951634344035e-002	 9.591203854488057e+000
1	 3.985941701508023e+000	 7.546209896688422e-002	 9.141095627451838e+000
1	 3.985042688560327e+000	 1.134033734254160e-001	 8.670505712410336e+000
1	 3.983777043929509e+000	 1.514788526886650e-001	 8.184900251616190e+000
1	 3.982140793817519e+000	 1.896839373446401e-001	 7.689616227948437e+000
1	 3.980130022737659e+000	 2.280139158986443e-001	 7.189850744468065e+000
1	 3.977740876732896e+000	 2.664639651695105e-001	 6.690650217845390e+000
1	 3.974969566617713e+000	 3.050291507853134e-001	 6.196899502712177e+000
1	 3.971812371240533e+000	 3.437044277806347e-001	 5.713310964755082e+000
1	 3.968265640763441e+000	 3.824846412973638e-001	 5.244413521111156e+000
1	 4.013323999982382e+000	 0.000000000000000e+000	 8.715856985216712e+000
1	 4.013144921739844e+000	 3.791143273156598e-002	 8.367848896928338e+000
1	 4.012604923340605e+000	 7.596688875878213e-002	 7.993659056900738e+000
1	 4.011699896611567e+000	 1.141619643746716e-001	 7.598524840025677e+000
1	 4.010425785684371e+000	 1.524921425336828e-001	 7.187569576669249e+000
1	 4.008778590178979e+000	 1.909527930568868e-001	 6.765792459206400e+000
1	 4.006754368416777e+000	 2.295391729328923e-001	 6.338058352816902e+000
1	 4.004349240660397e+000	 2.682464267167314e-001	 5.909087526083740e+000
1	 4.001559392377266e+000	 3.070695870288871e-001	 5.483445317672797e+000
1	 3.998381077523853e+000	 3.460035751565556e-001	 5.065531756097554e+000
1	 3.994810621847332e+000	 3.850432017591319e-001	 4.659571150279478e+000
1	 4.039991999983599e+000	 0.000000000000000e+000	 7.525730319725289e+000
1	 4.039811731790116e+000	 3.816334911958979e-002	 7.245369330161804e+000
1	 4.039268145173817e+000	 7.647167855050699e-002	 6.939087649896208e+000
1	 4.038357104663356e+000	 1.149205553237095e-001	 6.611764616827882e+000
1	 4.037074527439683e+000	 1.535054323784602e-001	 6.268169435545707e+000
1	 4.035416386540783e+000	 1.922216487688887e-001	 5.912951618613330e+000
1	 4.033378714096124e+000	 2.310644299669047e-001	 5.550631340036874e+000
1	 4.030957604588014e+000	 2.700288882637349e-001	 5.185589715738803e+000
1	 4.028149218136838e+000	 3.091100232722672e-001	 4.822059026559149e+000
1	 4.024949783807112e+000	 3.483027225323063e-001	 4.464112899989501e+000
1	 4.021355602931107e+000	 3.876017622207494e-001	 4.115656467511698e+000
1	 4.066659999985416e+000	 0.000000000000000e+000	 6.441795522037337e+000
1	 4.066478541840970e+000	 3.841526550756264e-002	 6.221011603041620e+000
1	 4.065931367007566e+000	 7.697646834214497e-002	 5.974935642888220e+000
1	 4.065014312715617e+000	 1.156791462726372e-001	 5.708078504059838e+000
1	 4.063723269195385e+000	 1.545187222231149e-001	 5.424844250626465e+000
1	 4.062054182902881e+000	 1.934905044807632e-001	 5.129521134406574e+000
1	 4.060003059775669e+000	 2.325896870007906e-001	 4.826272502474037e+000
1	 4.057565968515734e+000	 2.718113498106163e-001	 4.519127640135894e+000
1	 4.054739043896424e+000	 3.111504595155297e-001	 4.211972564160637e+000
1	 4.051518490090317e+000	 3.506018699079425e-001	 3.908540781677467e+000
1	 4.047900584014782e+000	 3.901603226822512e-001	 3.612404030791560e+000
1	 4.093327999987731e+000	 0.000000000000000e+000	 5.461062409832515e+000
1	 4.093145351892312e+000	 3.866718189553542e-002	 5.292093921883383e+000
1	 4.092594588841764e+000	 7.748125813378227e-002	 5.098821008851757e+000
1	 4.091671520768268e+000	 1.164377372215629e-001	 4.885375901698813e+000
1	 4.090372010951406e+000	 1.555320120677646e-001	 4.655786800587232e+000
1	 4.088691979265223e+000	 1.947593601926277e-001	 4.413969415993440e+000
1	 4.086627405455375e+000	 2.341149440346594e-001	 4.163718441559350e+000
1	 4.084174332443538e+000	 2.735938113574702e-001	 3.908698972128421e+000
1	 4.081328869656023e+000	 3.131908957587514e-001	 3.652437881019926e+000
1	 4.078087196373478e+000	 3.529010172835201e-001	 3.398315171190473e+000
1	 4.074445565098373e+000	 3.927188831436725e-001	 3.149555315512084e+000
1	 4.119995999990449e+000	 0.000000000000000e+000	 4.580618220466501e+000
1	 4.119812161944040e+000	 3.891909828355897e-002	 4.456003928097875e+000
1	 4.119257810676322e+000	 7.798604792550518e-002	 4.308423394510509e+000
1	 4.118328728821235e+000	 1.171963281705942e-001	 4.141620338049028e+000
1	 4.117020752707688e+000	 1.565453019125268e-001	 3.959236655390145e+000
1	 4.115329775627761e+000	 1.960282159045999e-001	 3.764804527632257e+000
1	 4.113251751135212e+000	 2.356402010686202e-001	 3.561738469737426e+000
1	 4.110782696371409e+000	 2.753762729043918e-001	 3.353327336107954e+000
1	 4.107918695415634e+000	 3.152313320020084e-001	 3.142726295641130e+000
1	 4.104655902656603e+000	 3.552001646590953e-001	 2.932948790153761e+000
1	 4.100990546181900e+000	 3.952774436050482e-001	 2.726858490599956e+000
1	 4.146663999993465e+000	 0.000000000000000e+000	 3.797625121464928e+000
1	 4.146478971996062e+000	 3.917101467168417e-002	 3.710196465437454e+000
1	 4.145921032511151e+000	 7.849083771739990e-002	 3.601482137157176e+000
1	 4.144985936874439e+000	 1.179549191198392e-001	 3.474827729192545e+000
1	 4.143669494464162e+000	 1.575585917575192e-001	 3.333478671664484e+000
1	 4.141967571990445e+000	 1.972970716167970e-001	 3.180572913292295e+000
1	 4.139876096815146e+000	 2.371654581027823e-001	 3.019133558612447e+000
1	 4.137391060299331e+000	 2.771587344514758e-001	 2.852061473507603e+000
1	 4.134508521175254e+000	 3.172717682453773e-001	 2.682127871694521e+000
1	 4.131224608939702e+000	 3.574993120347234e-001	 2.511966895317825e+000
1	 4.127535527265377e+000	 3.978360040664135e-001	 2.344068203278646e+000
1	 4.173331999996682e+000	 0.000000000000000e+000	 3.109317816466572e+000
1	 4.173145782048277e+000	 3.942293105996187e-002	 3.052191432847474e+000
1	 4.172584254346157e+000	 7.899562750955259e-002	 2.975794357510122e+000
1	 4.171643144927797e+000	 1.187135100694056e-001	 2.883064705173970e+000
1	 4.170318236220768e+000	 1.585718816028597e-001	 2.776841545775572e+000
1	 4.168605368353229e+000	 1.985659273293367e-001	 2.659858170403364e+000
1	 4.166500442495146e+000	 2.386907151372550e-001	 2.534735327422693e+000
1	 4.163999424227287e+000	 2.789411959988172e-001	 2.403974440300556e+000
1	 4.161098346934876e+000	 3.193122044889346e-001	 2.269950819099510e+000
1	 4.157793315222783e+000	 3.597984594104604e-001	 2.134906878055339e+000
1	 4.154080508348820e+000	 4.003945645278036e-001	 2.000945372083859e+000
1	 4.200000000000001e+000	 0.000000000000000e+000	 2.513001242373309e+000
1	 4.199812592100591e+000	 3.967484744844298e-002	 2.479571719118108e+000
1	 4.199247476181254e+000	 7.950041730204951e-002	 2.429213125226732e+000
1	 4.198300352981237e+000	 1.194721010194014e-001	 2.364446999952649e+000
1	 4.196966977977437e+000	 1.595851714486656e-001	 2.287696422017449e+000
1	 4.195243164716060e+000	 1.998347830423366e-001	 2.201279870322006e+000
1	 4.193124788175180e+000	 2.402159721721477e-001	 2.107405070051241e+000
1	 4.190607788155260e+000	 2.807236575465109e-001	 2.008162835071455e+000
1	 4.187688172694504e+000	 3.213526407327567e-001	 1.905520917924693e+000
1	 4.184362021505856e+000	 3.620976067863622e-001	 1.801317879115961e+000
1	 4.180625489432249e+000	 4.029531249892535e-001	 1.697256987764466e+000
1	 3.915175678595246e+000	 3.773675203732345e-001	 6.537979089082315e+000
1	 3.911289159882991e+000	 4.157214995353987e-001	 5.931641054357643e+000
1	 3.907011458158685e+000	 4.541685722679180e-001	 5.315102206053101e+000
1	 3.902339205074782e+000	 4.927034190860264e-001	 4.692449732779639e+000
1	 3.897269115457639e+000	 5.313206183671849e-001	 4.067669007229866e+000
1	 3.891797990537994e+000	 5.700146475776188e-001	 3.444635691355850e+000
1	 3.885922721176181e+000	 6.087798846073804e-001	 2.827107824648041e+000
1	 3.879640291078204e+000	 6.476106092149703e-001	 2.218717910180335e+000
1	 3.872947779998714e+000	 6.865010045823983e-001	 1.622965013552601e+000
1	 3.865842366926857e+000	 7.254451589814351e-001	 1.043206890299920e+000
1	 3.858321333250832e+000	 7.644370675516264e-001	 4.826521577489852e-001
1	 3.941720659679418e+000	 3.799260808354097e-001	 5.870456172353855e+000
1	 3.937807790280955e+000	 4.185401008579659e-001	 5.336264165292157e+000
1	 3.933501085640565e+000	 4.572478456274203e-001	 4.790296589178674e+000
1	 3.928797154573237e+000	 4.960439595927763e-001	 4.236310098349746e+000
1	 3.923692689631787e+000	 5.349229843727675e-001	 3.677973596839120e+000
1	 3.918184470359235e+000	 5.738793599907123e-001	 3.118861097062255e+000
1	 3.912269366535888e+000	 6.129074262186267e-001	 2.562444556681885e+000
1	 3.905944341417220e+000	 6.520014240316406e-001	 2.012086706752954e+000
1	 3.899206454958562e+000	 6.911554971736033e-001	 1.471033884675284e+000
1	 3.892052867022555e+000	 7.303636938346295e-001	 9.424088858905664e-001
1	 3.884480840565159e+000	 7.696199684411721e-001	 4.292038486423868e-001
1	 3.968265640763441e+000	 3.824846412973638e-001	 5.244413521111157e+000
1	 3.964326420678744e+000	 4.213587021803618e-001	 4.776727141752094e+000
1	 3.959990713122277e+000	 4.603271189867886e-001	 4.296036790098968e+000
1	 3.955255104071564e+000	 4.993845000994172e-001	 3.805779439091875e+000
1	 3.950116263805866e+000	 5.385253503782557e-001	 3.309317218542479e+000
1	 3.944570950180483e+000	 5.777440724037150e-001	 2.809930988926433e+000
1	 3.938616011895684e+000	 6.170349678297757e-001	 2.310813889347879e+000
1	 3.932248391756403e+000	 6.563922388481975e-001	 1.815064871302344e+000
1	 3.925465129918650e+000	 6.958099897646696e-001	 1.325682230262240e+000
1	 3.918263367118544e+000	 7.352822286876528e-001	 8.455571474858836e-001
1	 3.910640347879802e+000	 7.748028693305062e-001	 3.774672548064811e-001
1	 3.994810621847332e+000	 3.850432017591319e-001	 4.659571150279478e+000
1	 3.990845051076375e+000	 4.241773035026022e-001	 4.252996627264853e+000
1	 3.986480340603841e+000	 4.634063923460213e-001	 3.832512091806711e+000
1	 3.981713053569776e+000	 5.027250406059335e-001	 3.401245470457829e+000
1	 3.976539837979888e+000	 5.421277163836207e-001	 2.962261611854590e+000
1	 3.970957430001741e+000	 5.816087848165876e-001	 2.518556537733219e+000
1	 3.964962657255564e+000	 6.211625094407804e-001	 2.073051665009089e+000
1	 3.958552442095746e+000	 6.607830536645895e-001	 1.628588009170691e+000
1	 3.951723804878960e+000	 7.004644823555440e-001	 1.187920379603593e+000
1	 3.944473867214805e+000	 7.402007635404504e-001	 7.537115778072575e-001
1	 3.936799855194743e+000	 7.799857702195772e-001	 3.285266097951686e-001
1	 4.021355602931107e+000	 3.876017622207494e-001	 4.115656467511699e+000
1	 4.017363681473869e+000	 4.269959048247033e-001	 3.765040146101569e+000
1	 4.012969968085275e+000	 4.664856657051180e-001	 3.399906779463680e+000
1	 4.008171003067891e+000	 5.060655811123093e-001	 3.023085670655616e+000
1	 4.002963412153861e+000	 5.457300823888341e-001	 2.637353684113188e+000
1	 3.997343909823011e+000	 5.854734972292921e-001	 2.245430136505543e+000
1	 3.991309302615524e+000	 6.252900510515952e-001	 1.849971656436871e+000
1	 3.984856492435233e+000	 6.651738684807650e-001	 1.453567021965462e+000
1	 3.977982479839473e+000	 7.051189749461716e-001	 1.058731985242526e+000
1	 3.970684367311317e+000	 7.451192983929695e-001	 6.679040938910457e-001
1	 3.962959362509964e+000	 7.851686711083349e-001	 2.834375190454902e-001
1	 4.047900584014782e+000	 3.901603226822512e-001	 3.612404030791560e+000
1	 4.043882311871244e+000	 4.298145061466807e-001	 3.312826074398830e+000
1	 4.039459595566599e+000	 4.695649390640772e-001	 2.998400304272499e+000
1	 4.034628952565923e+000	 5.094061216185286e-001	 2.671667616314391e+000
1	 4.029386986327793e+000	 5.493324483938677e-001	 2.335125996805193e+000
1	 4.023730389644293e+000	 5.893382096417900e-001	 1.991226016200694e+000
1	 4.017655947975552e+000	 6.294175926621729e-001	 1.642366290441406e+000
1	 4.011160542774849e+000	 6.695646832966722e-001	 1.290888917559634e+000
1	 4.004241154800173e+000	 7.097734675364990e-001	 9.390748976677494e-001
1	 3.996894867408061e+000	 7.500378332451562e-001	 5.891395446997354e-001
1	 3.989118869825450e+000	 7.903515719967292e-001	 2.432278985528765e-001
1	 4.074445565098373e+000	 3.927188831436725e-001	 3.149555315512083e+000
1	 4.070400942268521e+000	 4.326331074685511e-001	 2.896323612409316e+000
1	 4.065949223047831e+000	 4.726442124228984e-001	 2.628167440942863e+000
1	 4.061086902063884e+000	 5.127466621245758e-001	 2.347349305027954e+000
1	 4.055810560501691e+000	 5.529348143986932e-001	 2.056097232882250e+000
1	 4.050116869465589e+000	 5.932029220540418e-001	 1.756600837338869e+000
1	 4.044002593335647e+000	 6.335451342724678e-001	 1.451007343215601e+000
1	 4.037464593114587e+000	 6.739554981122600e-001	 1.141417588429340e+000
1	 4.030499829761044e+000	 7.144279601264721e-001	 8.298820058144710e-001
1	 4.023105367505020e+000	 7.549563680969565e-001	 5.183965928631562e-001
1	 4.015278377141184e+000	 7.955344728847097e-001	 2.088988768535288e-001
1	 4.100990546181900e+000	 3.952774436050482e-001	 2.726858490599956e+000
1	 4.096919572665721e+000	 4.354517087903299e-001	 2.515502757830227e+000
1	 4.092438850528989e+000	 4.757234857815803e-001	 2.289378439042006e+000
1	 4.087544851561791e+000	 5.160872026304351e-001	 2.050479465371808e+000
1	 4.082234134675567e+000	 5.565371804032819e-001	 1.800772645927190e+000
1	 4.076503349286900e+000	 5.970676344660097e-001	 1.542194258654742e+000
1	 4.070349238695803e+000	 6.376726758824337e-001	 1.276646608673909e+000
1	 4.063768643454428e+000	 6.783463129274764e-001	 1.005994559762984e+000
1	 4.056758504722066e+000	 7.190824527160370e-001	 7.320620449229413e-001
1	 4.049315867602173e+000	 7.598749029483172e-001	 4.566285621758851e-001
1	 4.041437884457146e+000	 8.007173737722259e-001	 1.814256619768052e-001
1	 4.127535527265377e+000	 3.978360040664135e-001	 2.344068203278646e+000
1	 4.123438203062861e+000	 4.382703101120334e-001	 2.170334280160739e+000
1	 4.118928478010090e+000	 4.788027591401218e-001	 1.982199168505326e+000
1	 4.114002801059660e+000	 5.194277431360904e-001	 1.781397854957500e+000
1	 4.108657708849427e+000	 5.601395464076056e-001	 1.569644491988501e+000
1	 4.102889829108228e+000	 6.009323468776551e-001	 1.348629483806438e+000
1	 4.096695884056011e+000	 6.418002174920235e-001	 1.120016541001966e+000
1	 4.090072693794363e+000	 6.827371277422706e-001	 8.854397087031759e-001
1	 4.083017179683222e+000	 7.237369453051398e-001	 6.465003732238026e-001
1	 4.075526367699502e+000	 7.647934377991846e-001	 4.047642523921367e-001
1	 4.067597391773322e+000	 8.059002746592269e-001	 1.617583749441099e-001
1	 4.154080508348820e+000	 4.003945645278036e-001	 2.000945372083859e+000
1	 4.149956833459963e+000	 4.410889114336775e-001	 1.860789696042751e+000
1	 4.145418105491158e+000	 4.818820324985224e-001	 1.706791259567756e+000
1	 4.140460750557502e+000	 5.227682836415259e-001	 1.540435547059369e+000
1	 4.135081283023280e+000	 5.637419124116356e-001	 1.363192444857922e+000
1	 4.129276308929573e+000	 6.047970592889388e-001	 1.176513787123269e+000
1	 4.123042529416265e+000	 6.459277591011916e-001	 9.818308725703375e-001
1	 4.116376744134380e+000	 6.871279425565907e-001	 7.805519560123694e-001
1	 4.109275854644496e+000	 7.283914378937263e-001	 5.740597188450867e-001
1	 4.101736867796986e+000	 7.697119726495050e-001	 3.637087227807764e-001
1	 4.093756899089693e+000	 8.110831755456631e-001	 1.508228513111840e-001
1	 4.180625489432249e+000	 4.029531249892535e-001	 1.697256987764467e+000
1	 4.176475463857044e+000	 4.439075127552786e-001	 1.586841245540980e+000
1	 4.171907732972210e+000	 4.849613058567809e-001	 1.463312237364270e+000
1	 4.166918700055335e+000	 5.261088241467261e-001	 1.327915206321655e+000
1	 4.161504857197135e+000	 5.673442784153436e-001	 1.181883995527219e+000
1	 4.155662788750936e+000	 6.086617716998225e-001	 1.026439019324102e+000
1	 4.149389174776560e+000	 6.500553007098914e-001	 8.627852083076416e-001
1	 4.142680794474464e+000	 6.915187573703855e-001	 6.921099313880134e-001
1	 4.135534529605870e+000	 7.330459304817428e-001	 5.155808982640850e-001
1	 4.127947367894608e+000	 7.746305074992249e-001	 3.343440458291946e-001
1	 4.119916406406245e+000	 8.162660764314833e-001	 1.495214121737273e-001
1	 3.858321333250832e+000	 7.644370675516264e-001	 4.826521577489850e-001
1	 3.850380843942109e+000	 8.034764911172418e-001	-6.583455477866103e-002
1	 3.842019493278809e+000	 8.425513879866889e-001	-6.102154630881654e-001
1	 3.833234890918528e+000	 8.816554735420564e-001	-1.148920334609423e+000
1	 3.824024761409275e+000	 9.207823780247851e-001	-1.680426563318357e+000
1	 3.814386947187075e+000	 9.599256488797630e-001	-2.203261836980118e+000
1	 3.804319411526238e+000	 9.990787532115453e-001	-2.716006772188940e+000
1	 3.793820241437710e+000	 1.038235080352055e+000	-3.217297511360884e+000
1	 3.782887650511028e+000	 1.077387944538931e+000	-3.705828275776501e+000
1	 3.771519981695345e+000	 1.116530587703505e+000	-4.180353868724725e+000
1	 3.759715710014934e+000	 1.155656182367169e+000	-4.639692122769390e+000
1	 3.884480840565159e+000	 7.696199684411721e-001	 4.292038486423872e-001
1	 3.876486514556274e+000	 8.089240801958826e-001	-7.484928460514796e-002
1	 3.868068473743194e+000	 8.482639057642207e-001	-5.767592703763137e-001
1	 3.859224311576942e+000	 8.876331179184213e-001	-1.074999904307809e+000
1	 3.849951737177909e+000	 9.270253037128126e-001	-1.568081029144448e+000
1	 3.840248578353792e+000	 9.664339668438116e-001	-2.054550941733992e+000
1	 3.830112784569850e+000	 1.005852530122790e+000	-2.532998781842637e+000
1	 3.819542429866924e+000	 1.045274338061189e+000	-3.002056897781082e+000
1	 3.808535715722648e+000	 1.084692659567023e+000	-3.460403183756410e+000
1	 3.797090973851327e+000	 1.124100690751761e+000	-3.906763383805168e+000
1	 3.785206668937873e+000	 1.163491557846334e+000	-4.339913357115177e+000
1	 3.910640347879802e+000	 7.748028693305062e-001	 3.774672548064809e-001
1	 3.902592185170744e+000	 8.143716692742634e-001	-8.407187334001454e-002
1	 3.894117454207847e+000	 8.539764235414398e-001	-5.452013793713788e-001
1	 3.885213732235560e+000	 8.936107622944155e-001	-1.004443196362206e+000
1	 3.875878712946665e+000	 9.332682294004112e-001	-1.460344901721764e+000
1	 3.866110209520530e+000	 9.729422848073702e-001	-1.911481881649469e+000
1	 3.855906157613377e+000	 1.012626307033486e+000	-2.356459489897770e+000
1	 3.845264618295935e+000	 1.052313595769716e+000	-2.793915196592504e+000
1	 3.834183780933947e+000	 1.091997374594454e+000	-3.222520722777040e+000
1	 3.822661966006884e+000	 1.131670793799310e+000	-3.640984156271708e+000
1	 3.810697627860288e+000	 1.171326933324751e+000	-4.048052044377090e+000
1	 3.936799855194743e+000	 7.799857702195772e-001	 3.285266097951684e-001
1	 3.928697855785512e+000	 8.198192583523399e-001	-9.241592788207503e-002
1	 3.920166434672769e+000	 8.596889413183102e-001	-5.144722873038727e-001
1	 3.911203152894398e+000	 8.995884066700153e-001	-9.362166331352563e-001
1	 3.901805688715572e+000	 9.395111550875679e-001	-1.356239532134346e+000
1	 3.891971840687339e+000	 9.794506027704418e-001	-1.773149892528043e+000
1	 3.881699530656881e+000	 1.019400083943650e+000	-2.185576908658808e+000
1	 3.870986806724833e+000	 1.059352853477671e+000	-2.592172007343437e+000
1	 3.859831846145038e+000	 1.099302089621277e+000	-2.991610792291460e+000
1	 3.848232958162134e+000	 1.139240896846218e+000	-3.382594982845857e+000
1	 3.836188586782309e+000	 1.179162308802503e+000	-3.763854343230817e+000
1	 3.962959362509964e+000	 7.851686711083349e-001	 2.834375190454900e-001
1	 3.954803526400566e+000	 8.252668474300684e-001	-9.882374026820995e-002
1	 3.946215415137962e+000	 8.654014590947966e-001	-4.835307305701432e-001
1	 3.937192573553473e+000	 9.055660510451958e-001	-8.693139275879921e-001
1	 3.927732664484666e+000	 9.457540807742725e-001	-1.254812111726246e+000
1	 3.917833471854273e+000	 9.859589207330297e-001	-1.638674099578200e+000
1	 3.907492903700438e+000	 1.026173860853301e+000	-2.019560490165382e+000
1	 3.896708995153702e+000	 1.066392111185088e+000	-2.396145422966222e+000
1	 3.885479911356018e+000	 1.106606804647541e+000	-2.767118344696318e+000
1	 3.873803950317198e+000	 1.146810999892552e+000	-3.131185781707285e+000
1	 3.861679545704069e+000	 1.186997684279673e+000	-3.487073114782705e+000
1	 3.989118869825450e+000	 7.903515719967292e-001	 2.432278985528767e-001
1	 3.980909197015897e+000	 8.307144365074038e-001	-1.022653471283873e-001
1	 3.972264395603426e+000	 8.711139768708636e-001	-4.513627588103612e-001
1	 3.963181994212799e+000	 9.115436954199335e-001	-8.027551884600540e-001
1	 3.953659640253977e+000	 9.519970064605123e-001	-1.155134824836094e+000
1	 3.943695103021376e+000	 9.924672386951351e-001	-1.507196734115851e+000
1	 3.933286276744112e+000	 1.032947637762458e+000	-1.857640423213775e+000
1	 3.922431183582630e+000	 1.073431368892000e+000	-2.205171423405584e+000
1	 3.911127976566998e+000	 1.113911519673297e+000	-2.548502891767371e+000
1	 3.899374942472197e+000	 1.154381102938380e+000	-2.886357227836949e+000
1	 3.887170504625702e+000	 1.194833059756341e+000	-3.217467702806796e+000
1	 4.015278377141184e+000	 7.955344728847097e-001	 2.088988768535294e-001
1	 4.007014867631494e+000	 8.361620255843024e-001	-1.017376259067148e-001
1	 3.998313376069162e+000	 8.768264946464753e-001	-4.169808451805387e-001
1	 3.989171414872387e+000	 9.175213397942025e-001	-7.355860604281734e-001
1	 3.979586616023536e+000	 9.582399321462761e-001	-1.056304034651430e+000
1	 3.969556734188702e+000	 9.989755566567616e-001	-1.377882380883864e+000
1	 3.959079649787975e+000	 1.039721414671136e+000	-1.699066957858157e+000
1	 3.948153372011706e+000	 1.080470626598443e+000	-2.018603292949942e+000
1	 3.936776041778080e+000	 1.121216234698595e+000	-2.335238030388214e+000
1	 3.924945934627249e+000	 1.161951205983767e+000	-2.647720402614864e+000
1	 3.912661463547339e+000	 1.202668435232591e+000	-2.954803722571936e+000
1	 4.041437884457146e+000	 8.007173737722259e-001	 1.814256619768053e-001
1	 4.033120538247349e+000	 8.416096146607200e-001	-9.626342618237392e-002
1	 4.024362356535170e+000	 8.825390124215965e-001	-3.794230311791828e-001
1	 4.015160835532259e+000	 9.234989841679794e-001	-6.668768976584518e-001
1	 4.005513591793375e+000	 9.644828578315521e-001	-9.574395006817453e-001
1	 3.995418365356301e+000	 1.005483874617912e+000	-1.249917254603288e+000
1	 3.984873022832094e+000	 1.046495191579357e+000	-1.543109756145648e+000
1	 3.973875560441019e+000	 1.087509884304450e+000	-1.835811060191818e+000
1	 3.962424106989368e+000	 1.128520949723485e+000	-2.126810986698550e+000
1	 3.950516926782475e+000	 1.169521309028779e+000	-2.414896457026221e+000
1	 3.938152422469113e+000	 1.210503810708505e+000	-2.698852857870788e+000
1	 4.067597391773322e+000	 8.059002746592269e-001	 1.617583749441099e-001
1	 4.059226208863447e+000	 8.470572037366113e-001	-8.489073451051982e-002
1	 4.050411337001455e+000	 8.882515301961920e-001	-3.377521044723281e-001
1	 4.041150256192424e+000	 9.294766285412385e-001	-5.957219692487591e-001
1	 4.031440567563525e+000	 9.707257835163288e-001	-8.576836264272175e-001
1	 4.021279996524220e+000	 1.011992192578588e+000	-1.122508504440594e+000
1	 4.010666395876541e+000	 1.053268968487136e+000	-1.389057267905190e+000
1	 3.999597748870652e+000	 1.094549142010055e+000	-1.656180959598531e+000
1	 3.988072172200968e+000	 1.135825664748018e+000	-1.922722177832171e+000
1	 3.976087918937997e+000	 1.177091412073484e+000	-2.187516287863609e+000
1	 3.963643381391156e+000	 1.218339186184163e+000	-2.449392665880280e+000
1	 4.093756899089693e+000	 8.110831755456631e-001	 1.508228513111840e-001
1	 4.085331879479782e+000	 8.525047928119331e-001	-6.669187128356742e-002
1	 4.076460317468012e+000	 8.939640479702253e-001	-2.910548082415746e-001
1	 4.067139676852903e+000	 9.354542729139562e-001	-5.212386951350305e-001
1	 4.057367543334021e+000	 9.769687092005943e-001	-7.562007358921217e-001
1	 4.047141627692514e+000	 1.018500510538794e+000	-9.948835451419235e-001
1	 4.036459768921380e+000	 1.060042745394492e+000	-1.236216130468632e+000
1	 4.025319937300696e+000	 1.101588399715292e+000	-1.479114913726689e+000
1	 4.013720237412985e+000	 1.143130379772244e+000	-1.722484790458261e+000
1	 4.001658911093933e+000	 1.184661515117947e+000	-1.965220226343687e+000
1	 3.989134340313600e+000	 1.226174561659649e+000	-2.206206389504391e+000
1	 4.119916406406245e+000	 8.162660764314833e-001	 1.495214121737272e-001
1	 4.111437550096344e+000	 8.579523818866409e-001	-4.076271818983053e-002
1	 4.102509297934843e+000	 8.996765657436617e-001	-2.384410806534021e-001
1	 4.093129097513706e+000	 9.414319172861080e-001	-4.425669111073577e-001
1	 4.083294519104891e+000	 9.832116348843372e-001	-6.521763776611050e-001
1	 4.073003258861229e+000	 1.025008828498531e+000	-8.662894136492542e-001
1	 4.062253141966685e+000	 1.066816522301443e+000	-1.083910591260914e+000
1	 4.051042125731239e+000	 1.108627657420195e+000	-1.304030035162750e+000
1	 4.039368302625527e+000	 1.150435094796214e+000	-1.525624375379333e+000
1	 4.027229903250404e+000	 1.192231618162235e+000	-1.747657738586746e+000
1	 4.014625299236578e+000	 1.234009937135045e+000	-1.969082776865760e+000
1	 3.759715710014934e+000	 1.155656182367169e+000	-4.639692122769390e+000
1	 3.747473444274480e+000	 1.194757834072111e+000	-5.079659131409003e+000
1	 3.734791926805089e+000	 1.233828582715533e+000	-5.496581734039026e+000
1	 3.721670038772552e+000	 1.272861407380663e+000	-5.890204717768415e+000
1	 3.708106803531545e+000	 1.311849230209201e+000	-6.260424325616229e+000
1	 3.694101388953216e+000	 1.350784919814787e+000	-6.607290519541246e+000
1	 3.679653109660587e+000	 1.389661294793495e+000	-6.931009019337640e+000
1	 3.664761429167448e+000	 1.428471127328699e+000	-7.231943108735507e+000
1	 3.649425961916560e+000	 1.467207146887431e+000	-7.510615200421577e+000
1	 3.633646475212943e+000	 1.505862044005179e+000	-7.767708152104770e+000
1	 3.617422891048259e+000	 1.544428474155829e+000	-8.004066326195311e+000
1	 3.785206668937873e+000	 1.163491557846334e+000	-4.339913357115177e+000
1	 3.772881400354629e+000	 1.202858319648345e+000	-4.756164501741414e+000
1	 3.760113901905669e+000	 1.242193968865346e+000	-5.152288032424781e+000
1	 3.746903047171049e+000	 1.281491436978598e+000	-5.527892784958659e+000
1	 3.733247852883756e+000	 1.320743598141761e+000	-5.882728690955709e+000
1	 3.719147481273076e+000	 1.359943272617522e+000	-6.216689103023573e+000
1	 3.704601242315142e+000	 1.399083230311878e+000	-6.529812914081545e+000
1	 3.689608595886351e+000	 1.438156194403447e+000	-6.822286462371455e+000
1	 3.674169153815358e+000	 1.477154845064890e+000	-7.094445214051722e+000
1	 3.658282681829496e+000	 1.516071823273362e+000	-7.346775215633021e+000
1	 3.641949101391516e+000	 1.554899734706702e+000	-7.579914308913671e+000
1	 3.810697627860288e+000	 1.171326933324751e+000	-4.048052044377090e+000
1	 3.798289356434169e+000	 1.210958805223801e+000	-4.440563196568200e+000
1	 3.785435877005572e+000	 1.250559355014358e+000	-4.815765760469020e+000
1	 3.772136055568818e+000	 1.290121466575712e+000	-5.173146248337806e+000
1	 3.758388902235206e+000	 1.329637966073492e+000	-5.512321003014328e+000
1	 3.744193573592157e+000	 1.369101625419422e+000	-5.833038551674926e+000
1	 3.729549374968920e+000	 1.408505165829424e+000	-6.135181773072001e+000
1	 3.714455762604491e+000	 1.447841261477359e+000	-6.418769870114082e+000
1	 3.698912345713430e+000	 1.487102543241513e+000	-6.683960139937012e+000
1	 3.682918888445374e+000	 1.526281602540710e+000	-6.931049533943673e+000
1	 3.666475311734168e+000	 1.565370995256741e+000	-7.160476000645247e+000
1	 3.836188586782309e+000	 1.179162308802503e+000	-3.763854343230817e+000
1	 3.823697312513242e+000	 1.219059290798574e+000	-4.132770734455026e+000
1	 3.810757852104945e+000	 1.258924741162679e+000	-4.487085264400337e+000
1	 3.797369063966007e+000	 1.298751496172132e+000	-4.826175516565449e+000
1	 3.783529951586039e+000	 1.338532334004527e+000	-5.149536745505183e+000
1	 3.769239665910597e+000	 1.378259978220629e+000	-5.456784225969227e+000
1	 3.754497507622050e+000	 1.417927101346283e+000	-5.747655435929689e+000
1	 3.739302929321989e+000	 1.457526328550590e+000	-6.022012065743189e+000
1	 3.723655537610877e+000	 1.497050241417461e+000	-6.279841845946559e+000
1	 3.707555095060664e+000	 1.536491381807390e+000	-6.521260186467897e+000
1	 3.691001522076283e+000	 1.575842255806114e+000	-6.746511620344628e+000
1	 3.861679545704069e+000	 1.186997684279673e+000	-3.487073114782705e+000
1	 3.849105268591986e+000	 1.227159776372762e+000	-3.832704864617362e+000
1	 3.836079827203931e+000	 1.267290127310417e+000	-4.166315033025360e+000
1	 3.822602072362763e+000	 1.307381525767979e+000	-4.487185442668897e+000
1	 3.808671000936400e+000	 1.347426701935000e+000	-4.794702544025508e+000
1	 3.794285758228536e+000	 1.387418331021288e+000	-5.088359727076924e+000
1	 3.779445640274659e+000	 1.427349036862606e+000	-5.367759488343145e+000
1	 3.764150096038960e+000	 1.467211395623299e+000	-5.632615445983936e+000
1	 3.748398729507805e+000	 1.506997939592899e+000	-5.882754195901428e+000
1	 3.732191301675452e+000	 1.546701161073566e+000	-6.118117002013903e+000
1	 3.715527732417928e+000	 1.586313516354986e+000	-6.338761314135005e+000
1	 3.887170504625702e+000	 1.194833059756341e+000	-3.217467702806796e+000
1	 3.874513224670546e+000	 1.235260261946463e+000	-3.540285493780764e+000
1	 3.861401802302679e+000	 1.275655513457684e+000	-3.853521758630967e+000
1	 3.847835080759229e+000	 1.316011555363373e+000	-4.156375506204197e+000
1	 3.833812050286429e+000	 1.356321069865043e+000	-4.448136456501615e+000
1	 3.819331850546111e+000	 1.396576683821539e+000	-4.728187282435898e+000
1	 3.804393772926877e+000	 1.436770972378545e+000	-4.996005729434816e+000
1	 3.788997262755523e+000	 1.476896462695642e+000	-5.251166606175490e+000
1	 3.773141921404314e+000	 1.516945637767987e+000	-5.493343639901525e+000
1	 3.756827508289828e+000	 1.556910940339404e+000	-5.722311189967369e+000
1	 3.740053942759174e+000	 1.596784776903525e+000	-5.937945813467519e+000
1	 3.912661463547339e+000	 1.202668435232591e+000	-2.954803722571936e+000
1	 3.899921180749059e+000	 1.243360747519771e+000	-3.255434615899850e+000
1	 3.886723777401333e+000	 1.284020899604590e+000	-3.548770395505780e+000
1	 3.873068089155554e+000	 1.324641584958439e+000	-3.833939988297054e+000
1	 3.858953099636274e+000	 1.365215437794790e+000	-4.110148252280513e+000
1	 3.844377942863459e+000	 1.405735036621528e+000	-4.376678116250184e+000
1	 3.829341905578835e+000	 1.446192907894251e+000	-4.632892620857997e+000
1	 3.813844429471796e+000	 1.486581529767779e+000	-4.878236855000524e+000
1	 3.797885113300513e+000	 1.526893335942890e+000	-5.112239781576921e+000
1	 3.781463714903873e+000	 1.567120719605069e+000	-5.334515946818425e+000
1	 3.764580153100085e+000	 1.607256037451897e+000	-5.544767067553545e+000
1	 3.938152422469113e+000	 1.210503810708505e+000	-2.698852857870788e+000
1	 3.925329136827668e+000	 1.251461233092785e+000	-2.978076244607227e+000
1	 3.912045752500035e+000	 1.292386285751245e+000	-3.252124216188995e+000
1	 3.898301097551885e+000	 1.333271614553299e+000	-3.520068139884994e+000
1	 3.884094148986077e+000	 1.374109805724376e+000	-3.781039680382277e+000
1	 3.869424035180721e+000	 1.414893389421397e+000	-4.034232805599904e+000
1	 3.854290038230659e+000	 1.455614843409874e+000	-4.278905718451852e+000
1	 3.838691596187895e+000	 1.496266596839866e+000	-4.514382709224144e+000
1	 3.822628305196501e+000	 1.536841034117768e+000	-4.740055923308778e+000
1	 3.806099921517679e+000	 1.577330498870728e+000	-4.955387039132845e+000
1	 3.789106363440732e+000	 1.617727298000268e+000	-5.159908851234958e+000
1	 3.963643381391156e+000	 1.218339186184163e+000	-2.449392665880280e+000
1	 3.950737092906511e+000	 1.259561718665599e+000	-2.708136348268579e+000
1	 3.937367727598935e+000	 1.300751671897758e+000	-2.963644865548671e+000
1	 3.923534105948365e+000	 1.341901644148074e+000	-3.214944343468273e+000
1	 3.909235198335982e+000	 1.383004173653933e+000	-3.461104727401422e+000
1	 3.894470127498032e+000	 1.424051742221287e+000	-3.701241622809746e+000
1	 3.879238170882482e+000	 1.465036778925566e+000	-3.934518087240486e+000
1	 3.863538762903939e+000	 1.505951663912062e+000	-4.160146369342392e+000
1	 3.847371497092383e+000	 1.546788732292785e+000	-4.377389590411734e+000
1	 3.830736128131332e+000	 1.587540278136545e+000	-4.585563364028118e+000
1	 3.813632573781182e+000	 1.628198558548805e+000	-4.784037349398645e+000
1	 3.989134340313600e+000	 1.226174561659649e+000	-2.206206389504391e+000
1	 3.976145048985732e+000	 1.267662204238311e+000	-2.445542787528215e+000
1	 3.962689702698176e+000	 1.309117058044240e+000	-2.683392412786536e+000
1	 3.948767114345144e+000	 1.350531673742888e+000	-2.918748268658589e+000
1	 3.934376247686132e+000	 1.391898541583594e+000	-3.150629865520180e+000
1	 3.919516219815531e+000	 1.433210095021344e+000	-3.378084864690916e+000
1	 3.904186303534432e+000	 1.474458714441479e+000	-3.600190700520533e+000
1	 3.888385929620047e+000	 1.515636730984523e+000	-3.816056176993709e+000
1	 3.872114688988263e+000	 1.556736430468103e+000	-4.024823035218749e+000
1	 3.855372334744916e+000	 1.597750057402686e+000	-4.225667488160466e+000
1	 3.838158784121502e+000	 1.638669819097676e+000	-4.417801718984024e+000
1	 4.014625299236578e+000	 1.234009937135045e+000	-1.969082776865760e+000
1	 4.001553005065471e+000	 1.275762689811019e+000	-2.190225255233659e+000
1	 3.988011677797905e+000	 1.317482444190801e+000	-2.411425401461683e+000
1	 3.974000122742365e+000	 1.359161703337862e+000	-2.631655021802108e+000
1	 3.959517297036671e+000	 1.400792909513493e+000	-2.849894291073046e+000
1	 3.944562312133359e+000	 1.442368447821711e+000	-3.065133169239838e+000
1	 3.929134436186638e+000	 1.483880649957763e+000	-3.276372823744534e+000
1	 3.913233096336334e+000	 1.525321798057408e+000	-3.482627054944943e+000
1	 3.896857880884244e+000	 1.566684128643885e+000	-3.682923721961979e+000
1	 3.880008541358523e+000	 1.607959836669317e+000	-3.876306166178117e+000
1	 3.862684994461763e+000	 1.649141079647046e+000	-4.061834629579836e+000
1	 3.617422891048259e+000	 1.544428474155829e+000	-8.004066326195309e+000
1	 3.600757821582671e+000	 1.582893299281493e+000	-8.213471574153965e+000
1	 3.583649105312324e+000	 1.621254913125378e+000	-8.389413425837324e+000
1	 3.566097140681105e+000	 1.659505895371513e+000	-8.532344726182028e+000
1	 3.548102486840681e+000	 1.697638806993271e+000	-8.642754418568954e+000
1	 3.529665864868949e+000	 1.735646194488917e+000	-8.721167343930560e+000
1	 3.510788158857956e+000	 1.773520594178442e+000	-8.768143985695071e+000
1	 3.491470416868223e+000	 1.811254536557092e+000	-8.784280160262991e+000
1	 3.471713851746570e+000	 1.848840550700881e+000	-8.770206652833613e+000
1	 3.451519841804725e+000	 1.886271168719184e+000	-8.726588798522400e+000
1	 3.430889931356198e+000	 1.923538930249378e+000	-8.654126008835315e+000
1	 3.641949101391516e+000	 1.554899734706702e+000	-7.579914308913671e+000
1	 3.625171042372079e+000	 1.593625352230693e+000	-7.786613776790425e+000
1	 3.607946328612285e+000	 1.632247058698082e+000	-7.959569225950219e+000
1	 3.590275361257489e+000	 1.670757383482981e+000	-8.099385585661532e+000
1	 3.572158703250427e+000	 1.709148837121984e+000	-8.206716704342325e+000
1	 3.553597080557928e+000	 1.747413915578442e+000	-8.282265015418934e+000
1	 3.534591383266208e+000	 1.785545104568416e+000	-8.326781124114881e+000
1	 3.515142666541674e+000	 1.823534883943736e+000	-8.341063314792748e+000
1	 3.495252151454281e+000	 1.861375732127374e+000	-8.325956978654217e+000
1	 3.474921225660750e+000	 1.899060130596229e+000	-8.282353961790577e+000
1	 3.454151443945081e+000	 1.936580568406245e+000	-8.211191833764824e+000
1	 3.666475311734168e+000	 1.565370995256741e+000	-7.160476000645247e+000
1	 3.649584263160967e+000	 1.604357405179059e+000	-7.364105921179899e+000
1	 3.632243551911827e+000	 1.643239204269950e+000	-7.533965320412008e+000
1	 3.614453581833563e+000	 1.682008871593611e+000	-7.670784356789223e+000
1	 3.596214919659974e+000	 1.720658867249862e+000	-7.775353769010525e+000
1	 3.577528296246815e+000	 1.759181636667133e+000	-7.848524439201830e+000
1	 3.558394607674471e+000	 1.797569614957564e+000	-7.891206854503094e+000
1	 3.538814916215225e+000	 1.835815231329566e+000	-7.904370466586401e+000
1	 3.518790451162161e+000	 1.873910913553071e+000	-7.889042948864137e+000
1	 3.498322609516990e+000	 1.911849092472505e+000	-7.846309351387708e+000
1	 3.477412956534195e+000	 1.949622206562376e+000	-7.777311153685643e+000
1	 3.691001522076283e+000	 1.575842255806114e+000	-6.746511620344628e+000
1	 3.673997483949385e+000	 1.615089458126757e+000	-6.946723501748401e+000
1	 3.656540775210977e+000	 1.654231349841147e+000	-7.113377252777346e+000
1	 3.638631802409331e+000	 1.693260359703563e+000	-7.247301913219036e+000
1	 3.620271136069302e+000	 1.732168897377055e+000	-7.349397621322608e+000
1	 3.601459511935572e+000	 1.770949357755138e+000	-7.420635104527475e+000
1	 3.582197832082684e+000	 1.809594125346024e+000	-7.462055048445453e+000
1	 3.562487165888796e+000	 1.848095578714712e+000	-7.474767343485009e+000
1	 3.542328750870121e+000	 1.886446094978093e+000	-7.459950208793910e+000
1	 3.521723993373348e+000	 1.924638054348121e+000	-7.418849193488596e+000
1	 3.500674469123442e+000	 1.962663844717872e+000	-7.352776055438205e+000
1	 3.715527732417928e+000	 1.586313516354986e+000	-6.338761314135005e+000
1	 3.698410704737381e+000	 1.625821511073953e+000	-6.535221536756556e+000
1	 3.680837998509759e+000	 1.665223495411833e+000	-6.698560089138241e+000
1	 3.662810022984793e+000	 1.704511847812997e+000	-6.829679038486370e+000
1	 3.644327352478393e+000	 1.743678927503718e+000	-6.929560942058481e+000
1	 3.625390727624157e+000	 1.782717078842601e+000	-6.999268295360263e+000
1	 3.606001056490789e+000	 1.821618635733935e+000	-7.039942840773376e+000
1	 3.586159415562316e+000	 1.860375926099302e+000	-7.052804735843676e+000
1	 3.565867050578072e+000	 1.898981276402559e+000	-7.039151580787842e+000
1	 3.545125377229727e+000	 1.937427016223188e+000	-7.000357305114445e+000
1	 3.523935981712723e+000	 1.975705482872835e+000	-6.937870913597815e+000
1	 3.740053942759174e+000	 1.596784776903525e+000	-5.937945813467519e+000
1	 3.722823925524999e+000	 1.636553564020810e+000	-6.130335239683928e+000
1	 3.705135221808200e+000	 1.676215640982174e+000	-6.290249089550900e+000
1	 3.686988243559954e+000	 1.715763335922070e+000	-6.418637084734539e+000
1	 3.668383568887227e+000	 1.755188957630004e+000	-6.516537717765406e+000
1	 3.649321943312529e+000	 1.794484799929669e+000	-6.585077687306121e+000
1	 3.629804280898727e+000	 1.833643146121435e+000	-6.625471178338365e+000
1	 3.609831665235705e+000	 1.872656273483467e+000	-6.639018986310476e+000
1	 3.589405350285926e+000	 1.911516457826590e+000	-6.627107484651548e+000
1	 3.568526761086031e+000	 1.950215978097816e+000	-6.591207435434214e+000
1	 3.547197494301936e+000	 1.988747121027364e+000	-6.532872643348747e+000
1	 3.764580153100085e+000	 1.607256037451897e+000	-5.544767067553545e+000
1	 3.747237146312289e+000	 1.647285616967498e+000	-5.732780664368921e+000
1	 3.729432445106323e+000	 1.687207786552331e+000	-5.889160353216443e+000
1	 3.711166464134817e+000	 1.727014824030942e+000	-6.014878605691487e+000
1	 3.692439785295785e+000	 1.766698987756068e+000	-6.111003849721826e+000
1	 3.673253159000652e+000	 1.806252521016491e+000	-6.178699921204098e+000
1	 3.653607505306437e+000	 1.845667656508661e+000	-6.219225347334783e+000
1	 3.633503914908891e+000	 1.884936620867336e+000	-6.233932460459955e+000
1	 3.612943649993593e+000	 1.924051639250306e+000	-6.224266341664031e+000
1	 3.591928144942162e+000	 1.963004939972116e+000	-6.191763593724563e+000
1	 3.570459006890980e+000	 2.001788759181559e+000	-6.138050943473888e+000
1	 3.789106363440732e+000	 1.617727298000268e+000	-5.159908851234957e+000
1	 3.771650367099297e+000	 1.658017669914180e+000	-5.343255325093390e+000
1	 3.753729668404155e+000	 1.698199932122468e+000	-5.495991438604967e+000
1	 3.735344684709383e+000	 1.738266312139772e+000	-5.619087965063818e+000
1	 3.716496001704046e+000	 1.778209017882060e+000	-5.713617739251062e+000
1	 3.697184374688481e+000	 1.818020242103210e+000	-5.780755154441446e+000
1	 3.677410729713860e+000	 1.857692166895753e+000	-5.821775480143035e+000
1	 3.657176164581798e+000	 1.897216968251039e+000	-5.838053999148625e+000
1	 3.636481949700988e+000	 1.936586820673828e+000	-5.831064962899442e+000
1	 3.615329528798024e+000	 1.975793901846200e+000	-5.802380364592778e+000
1	 3.593720519479760e+000	 2.014830397335523e+000	-5.753668529906851e+000
1	 3.813632573781182e+000	 1.628198558548805e+000	-4.784037349398646e+000
1	 3.796063587886068e+000	 1.668749722861022e+000	-4.962438792740115e+000
1	 3.778026891701722e+000	 1.709192077692748e+000	-5.111421959650509e+000
1	 3.759522905283656e+000	 1.749517800248717e+000	-5.231931921454420e+000
1	 3.740552218111992e+000	 1.789719048008136e+000	-5.325020850449168e+000
1	 3.721115590375978e+000	 1.829787963189973e+000	-5.391847590994834e+000
1	 3.701213954120939e+000	 1.869716677282848e+000	-5.433677042615138e+000
1	 3.680848414254348e+000	 1.909497315634706e+000	-5.451879353415449e+000
1	 3.660020249408020e+000	 1.949122002097276e+000	-5.447928922564423e+000
1	 3.638730912653521e+000	 1.988582863720177e+000	-5.423403211036207e+000
1	 3.616982032068172e+000	 2.027872035489355e+000	-5.379981360272479e+000
1	 3.838158784121502e+000	 1.638669819097676e+000	-4.417801718984024e+000
1	 3.820476808672654e+000	 1.679481775808191e+000	-4.590993268092975e+000
1	 3.802324114999044e+000	 1.720184223263334e+000	-4.736114159087904e+000
1	 3.783701125857638e+000	 1.760769288357938e+000	-4.854060190854180e+000
1	 3.764608434519604e+000	 1.801229078134447e+000	-4.945838251337749e+000
1	 3.745046806063103e+000	 1.841555684276927e+000	-5.012565991149776e+000
1	 3.725017178527611e+000	 1.881741187670086e+000	-5.055471302677508e+000
1	 3.704520663926468e+000	 1.921777663018466e+000	-5.075891602707783e+000
1	 3.683558549114604e+000	 1.961657183520769e+000	-5.075272917021450e+000
1	 3.662132296508556e+000	 2.001371825594157e+000	-5.055168765882034e+000
1	 3.640243544656117e+000	 2.040913673643154e+000	-5.017238849818077e+000
1	 3.862684994461763e+000	 1.649141079647046e+000	-4.061834629579836e+000
1	 3.844890029459100e+000	 1.690213828755853e+000	-4.229564133296255e+000
1	 3.826621338296152e+000	 1.731176368834391e+000	-4.370713459946791e+000
1	 3.807879346431334e+000	 1.772020776467594e+000	-4.486105987704271e+000
1	 3.788664650926863e+000	 1.812739108261148e+000	-4.576679134400131e+000
1	 3.768978021749815e+000	 1.853323405364218e+000	-4.643484161800841e+000
1	 3.748820402933820e+000	 1.893765698057605e+000	-4.687685781081249e+000
1	 3.728192913598082e+000	 1.934058010402449e+000	-4.710561557174380e+000
1	 3.707096848820650e+000	 1.974192364944430e+000	-4.713501110134656e+000
1	 3.685533680363033e+000	 2.014160787468251e+000	-4.698005112124331e+000
1	 3.663505057243499e+000	 2.053955311797023e+000	-4.665684079118285e+000
1	 3.430889931356198e+000	 1.923538930249378e+000	-8.654126008835315e+000
1	 3.409822639161488e+000	 1.960641939370820e+000	-8.557400095106440e+000
1	 3.388322907875672e+000	 1.997567159735842e+000	-8.441117341232021e+000
1	 3.366392785299044e+000	 2.034307179775804e+000	-8.306209448080013e+000
1	 3.344034485992657e+000	 2.070854613836993e+000	-8.153686699163927e+000
1	 3.321250391072290e+000	 2.107202106807173e+000	-7.984637191311848e+000
1	 3.298043047850050e+000	 2.143342338751271e+000	-7.800225924430175e+000
1	 3.274415169322649e+000	 2.179268029550415e+000	-7.601693750616908e+000
1	 3.250369633505694e+000	 2.214971943538432e+000	-7.390356183232075e+000
1	 3.225909482613576e+000	 2.250446894129934e+000	-7.167602066888731e+000
1	 3.201037922084772e+000	 2.285685748434004e+000	-6.934892109686018e+000
1	 3.454151443945081e+000	 1.936580568406245e+000	-8.211191833764822e+000
1	 3.432941315024939e+000	 1.973935136782385e+000	-8.117527585732978e+000
1	 3.411295815066716e+000	 2.011110710990247e+000	-8.006295964230208e+000
1	 3.389217005754840e+000	 2.048099829210576e+000	-7.878298430047557e+000
1	 3.366707116665132e+000	 2.084895055714759e+000	-7.734404732257787e+000
1	 3.343768545057394e+000	 2.121488985522725e+000	-7.575552290970520e+000
1	 3.320403855514564e+000	 2.157874249070071e+000	-7.402745458535753e+000
1	 3.296615779427529e+000	 2.194043516878546e+000	-7.217054659303916e+000
1	 3.272407214324911e+000	 2.229989504223994e+000	-7.019615408354118e+000
1	 3.247781223047381e+000	 2.265704975795809e+000	-6.811627209907221e+000
1	 3.222741032766358e+000	 2.301182750341904e+000	-6.594352336448918e+000
1	 3.477412956534195e+000	 1.949622206562376e+000	-7.777311153685643e+000
1	 3.456059990888607e+000	 1.987228334193261e+000	-7.687422256133374e+000
1	 3.434268722257934e+000	 2.024654262244012e+000	-7.581685105530934e+000
1	 3.412041226210740e+000	 2.061892478644770e+000	-7.460793531246638e+000
1	 3.389379747337627e+000	 2.098935497592009e+000	-7.325500517334430e+000
1	 3.366286699042418e+000	 2.135775864237826e+000	-7.176617705379743e+000
1	 3.342764663178889e+000	 2.172406159388485e+000	-7.015014792842658e+000
1	 3.318816389532113e+000	 2.208819004206358e+000	-6.841618826907338e+000
1	 3.294444795143723e+000	 2.245007064909298e+000	-6.657413394106165e+000
1	 3.269652963480678e+000	 2.280963057461482e+000	-6.463437706248778e+000
1	 3.244444143447349e+000	 2.316679752249656e+000	-6.260785583449210e+000
1	 3.500674469123442e+000	 1.962663844717872e+000	-7.352776055438206e+000
1	 3.479178666752395e+000	 2.000521531603535e+000	-7.267276924928872e+000
1	 3.457241629449238e+000	 2.038197813497221e+000	-7.167394080008993e+000
1	 3.434865446666673e+000	 2.075685128078454e+000	-7.053735846638406e+000
1	 3.412052378010083e+000	 2.112975939468804e+000	-6.926961716394857e+000
1	 3.388804853027324e+000	 2.150062742952529e+000	-6.787781937785566e+000
1	 3.365125470843007e+000	 2.186938069706559e+000	-6.636957017825758e+000
1	 3.341016999636398e+000	 2.223594491533885e+000	-6.475297133840093e+000
1	 3.316482375962149e+000	 2.260024625594372e+000	-6.303661455665150e+000
1	 3.291524703913511e+000	 2.296221139126977e+000	-6.122957378655287e+000
1	 3.266147254127807e+000	 2.332176754157270e+000	-5.934139668118776e+000
1	 3.523935981712723e+000	 1.975705482872835e+000	-6.937870913597815e+000
1	 3.502297342616207e+000	 2.013814729013301e+000	-6.857279319555074e+000
1	 3.480214536640536e+000	 2.051741364749952e+000	-6.763529316187601e+000
1	 3.457689667122557e+000	 2.089477777511701e+000	-6.657165386112093e+000
1	 3.434725008682438e+000	 2.127016381345206e+000	-6.538776317212740e+000
1	 3.411323007012064e+000	 2.164349621666887e+000	-6.408994851155024e+000
1	 3.387486278506896e+000	 2.201469980024336e+000	-6.268497254680109e+000
1	 3.363217609740386e+000	 2.238369978861166e+000	-6.118002813630031e+000
1	 3.338519956780215e+000	 2.275042186279247e+000	-5.958273249843427e+000
1	 3.313396444345926e+000	 2.311479220792314e+000	-5.790112061254243e+000
1	 3.287850364807801e+000	 2.347673756064768e+000	-5.614363785719044e+000
1	 3.547197494301936e+000	 1.988747121027364e+000	-6.532872643348747e+000
1	 3.525416018479945e+000	 2.027107926422647e+000	-6.457612243194554e+000
1	 3.503187443831741e+000	 2.065284916002287e+000	-6.370194450877753e+000
1	 3.480513887578316e+000	 2.103270426944581e+000	-6.271121110062832e+000
1	 3.457397639354630e+000	 2.141056823221275e+000	-6.160932622652797e+000
1	 3.433841160996598e+000	 2.178636500380949e+000	-6.040207623592821e+000
1	 3.409847086170532e+000	 2.216001890341861e+000	-5.909562588736496e+000
1	 3.385418219844079e+000	 2.253145466188234e+000	-5.769651375764595e+000
1	 3.360557537597944e+000	 2.290059746963950e+000	-5.621164698309848e+000
1	 3.335268184777967e+000	 2.326737302457518e+000	-5.464829533608137e+000
1	 3.309553475487395e+000	 2.363170757972164e+000	-5.301408464163766e+000
1	 3.570459006890980e+000	 2.001788759181559e+000	-6.138050943473888e+000
1	 3.548534694343512e+000	 2.040401123831664e+000	-6.068453735184393e+000
1	 3.526160351022761e+000	 2.078828467254305e+000	-5.987490420118252e+000
1	 3.503338108033874e+000	 2.117063076377164e+000	-5.895640963578969e+000
1	 3.480070270026597e+000	 2.155097265097074e+000	-5.793419240406664e+000
1	 3.456359314980884e+000	 2.192923379094772e+000	-5.681372705500819e+000
1	 3.432207893833895e+000	 2.230533800659177e+000	-5.560082005479904e+000
1	 3.407618829947475e+000	 2.267920953515127e+000	-5.430160531551526e+000
1	 3.382595118415355e+000	 2.305077307648510e+000	-5.292253913812197e+000
1	 3.357139925209682e+000	 2.341995384122610e+000	-5.147039457342148e+000
1	 3.331256586166656e+000	 2.378667759879475e+000	-4.995225520608003e+000
1	 3.593720519479760e+000	 2.014830397335523e+000	-5.753668529906852e+000
1	 3.571653370206811e+000	 2.053694321240442e+000	-5.689977225193718e+000
1	 3.549133258213510e+000	 2.092372018506088e+000	-5.615515546583585e+000
1	 3.526162328489153e+000	 2.130855725809522e+000	-5.530761909301623e+000
1	 3.502742900698278e+000	 2.169137706972663e+000	-5.436225073127546e+000
1	 3.478877468964877e+000	 2.207210257808406e+000	-5.332443778401250e+000
1	 3.454568701496962e+000	 2.245065710976327e+000	-5.219986329052597e+000
1	 3.429819440050576e+000	 2.282696440841880e+000	-5.099450122858900e+000
1	 3.404632699232478e+000	 2.320094868332957e+000	-4.971461129264826e+000
1	 3.379011665641112e+000	 2.357253465787613e+000	-4.836673315232707e+000
1	 3.352959696845650e+000	 2.394164761786719e+000	-4.695768019722994e+000
1	 3.616982032068172e+000	 2.027872035489355e+000	-5.379981360272479e+000
1	 3.594772046069744e+000	 2.066987518649074e+000	-5.322351681452044e+000
1	 3.572106165403897e+000	 2.105915569757717e+000	-5.254365623619458e+000
1	 3.548986548944076e+000	 2.144648375241726e+000	-5.176519959016172e+000
1	 3.525415531369613e+000	 2.183178148848105e+000	-5.089339308945406e+000
1	 3.501395622948538e+000	 2.221497136521904e+000	-4.993375715348853e+000
1	 3.476929509159713e+000	 2.259597621293357e+000	-4.889208163130438e+000
1	 3.452020050153380e+000	 2.297471928168530e+000	-4.777442053604915e+000
1	 3.426670280049329e+000	 2.335112429017319e+000	-4.658708629572698e+000
1	 3.400883406072305e+000	 2.372511547452548e+000	-4.533664352646683e+000
1	 3.374662807524445e+000	 2.409661763693914e+000	-4.402990233580969e+000
1	 3.640243544656117e+000	 2.040913673643154e+000	-5.017238849818077e+000
1	 3.617890721932214e+000	 2.080280716057648e+000	-4.965741753294529e+000
1	 3.595079072593832e+000	 2.119459121009271e+000	-4.904133996055990e+000
1	 3.571810769398565e+000	 2.158441024673847e+000	-4.832950204032604e+000
1	 3.548088162040541e+000	 2.197218590723461e+000	-4.752751412345863e+000
1	 3.523913776931821e+000	 2.235784015235318e+000	-4.664124542860857e+000
1	 3.499290316822126e+000	 2.274129531610310e+000	-4.567681834065795e+000
1	 3.474220660255889e+000	 2.312247415495113e+000	-4.464060223874401e+000
1	 3.448707860865933e+000	 2.350129989701623e+000	-4.353920686069225e+000
1	 3.422755146503306e+000	 2.387769629117440e+000	-4.237947521225725e+000
1	 3.396365918203102e+000	 2.425158765601074e+000	-4.116847603078147e+000
1	 3.663505057243499e+000	 2.053955311797023e+000	-4.665684079118285e+000
1	 3.641009397794123e+000	 2.093573913466255e+000	-4.620307908276528e+000
1	 3.618051979783225e+000	 2.133002672260832e+000	-4.564911637942225e+000
1	 3.594634989852544e+000	 2.172233674105955e+000	-4.500086844408473e+000
1	 3.570760792710999e+000	 2.211259032598792e+000	-4.426451115396598e+000
1	 3.546431930914687e+000	 2.250070893948702e+000	-4.344647404297320e+000
1	 3.521651124484179e+000	 2.288661441927230e+000	-4.255343336196825e+000
1	 3.496421270358106e+000	 2.327022902821665e+000	-4.159230466545271e+000
1	 3.470745441682316e+000	 2.365147550385902e+000	-4.057023493451897e+000
1	 3.444626886934158e+000	 2.403027710782309e+000	-3.949459424716133e+000
1	 3.418069028881693e+000	 2.440655767508218e+000	-3.837296700827314e+000
1	 3.201037922084772e+000	 2.285685748434004e+000	-6.934892109686017e+000
1	 3.175758318549517e+000	 2.320681431073920e+000	-6.695521566921878e+000
1	 3.150074195862331e+000	 2.355426926386116e+000	-6.451335706681700e+000
1	 3.123989236422097e+000	 2.389915285194917e+000	-6.201653682256199e+000
1	 3.097507280498922e+000	 2.424139630075088e+000	-5.945769689923457e+000
1	 3.070632324500330e+000	 2.458093159808781e+000	-5.682954358200997e+000
1	 3.043368519087291e+000	 2.491769153792504e+000	-5.412456191885851e+000
1	 3.015720167141756e+000	 2.525160976388238e+000	-5.133503068054405e+000
1	 2.987691721587631e+000	 2.558262081212876e+000	-4.845303781038590e+000
1	 2.959287783067377e+000	 2.591066015360246e+000	-4.547049633248617e+000
1	 2.930513097476696e+000	 2.623566423550066e+000	-4.237916068574483e+000
1	 3.222741032766358e+000	 2.301182750341904e+000	-6.594352336448917e+000
1	 3.197290032937910e+000	 2.336415704514344e+000	-6.370359831135275e+000
1	 3.171431771308376e+000	 2.371396775083201e+000	-6.140937858576042e+000
1	 3.145169955243394e+000	 2.406118965757234e+000	-5.905457910713270e+000
1	 3.118508451050198e+000	 2.440575352482112e+000	-5.663271500558810e+000
1	 3.091451282232049e+000	 2.474759087927573e+000	-5.413711473858619e+000
1	 3.064002627591507e+000	 2.508663405924287e+000	-5.156093366325616e+000
1	 3.036166819184162e+000	 2.542281625844456e+000	-4.889716803741663e+000
1	 3.007948340124858e+000	 2.575607156920352e+000	-4.613866942097640e+000
1	 2.979351822248521e+000	 2.608633502494952e+000	-4.327815944817852e+000
1	 2.950382043628141e+000	 2.641354264199035e+000	-4.030824494000600e+000
1	 3.244444143447349e+000	 2.316679752249656e+000	-6.260785583449210e+000
1	 3.218821747325636e+000	 2.352149977954659e+000	-6.051409255823281e+000
1	 3.192789346753698e+000	 2.387366623780209e+000	-5.836122018473760e+000
1	 3.166350674063928e+000	 2.422322646319497e+000	-5.614337350072673e+000
1	 3.139509621600685e+000	 2.457011074889095e+000	-5.385453392176900e+000
1	 3.112270239962972e+000	 2.491425016046331e+000	-5.148854200372687e+000
1	 3.084636736094925e+000	 2.525557658056029e+000	-4.903911032407932e+000
1	 3.056613471225788e+000	 2.559402275300625e+000	-4.649983670707321e+000
1	 3.028204958661326e+000	 2.592952232627757e+000	-4.386421776556688e+000
1	 2.999415861428939e+000	 2.626200989629562e+000	-4.112566273141947e+000
1	 2.970250989778902e+000	 2.659142104847870e+000	-3.827750754534834e+000
1	 3.266147254127807e+000	 2.332176754157270e+000	-5.934139668118776e+000
1	 3.240353461712776e+000	 2.367884251394873e+000	-5.738644758460984e+000
1	 3.214146922198397e+000	 2.403336472477147e+000	-5.536885462580270e+000
1	 3.187531392883817e+000	 2.438526326881711e+000	-5.328307104672050e+000
1	 3.160510792150514e+000	 2.473446797296040e+000	-5.112343982097831e+000
1	 3.133089197693234e+000	 2.508090944165058e+000	-4.888420572880714e+000
1	 3.105270844597697e+000	 2.542451910187743e+000	-4.655952772239058e+000
1	 3.077060123266782e+000	 2.576522924756755e+000	-4.414349155614650e+000
1	 3.048461577197192e+000	 2.610297308335112e+000	-4.163012265563829e+000
1	 3.019479900608787e+000	 2.643768476764097e+000	-3.901339919799245e+000
1	 2.990119935929130e+000	 2.676929945496605e+000	-3.628726537597378e+000
1	 3.287850364807801e+000	 2.347673756064768e+000	-5.614363785719044e+000
1	 3.261885176099419e+000	 2.383618524835003e+000	-5.432041918803024e+000
1	 3.235504497642578e+000	 2.419306321174022e+000	-5.243225539020395e+000
1	 3.208712111703173e+000	 2.454730007443882e+000	-5.047381880034282e+000
1	 3.181511962699815e+000	 2.489882519702957e+000	-4.843971132029956e+000
1	 3.153908155422980e+000	 2.524756872283762e+000	-4.632447622240180e+000
1	 3.125904953099966e+000	 2.559346162319434e+000	-4.412261017182980e+000
1	 3.097506775307298e+000	 2.593643574212859e+000	-4.182857544096777e+000
1	 3.068718195732605e+000	 2.627642384042430e+000	-3.943681228988556e+000
1	 3.039543939788214e+000	 2.661335963898584e+000	-3.694175148648902e+000
1	 3.009988882078974e+000	 2.694717786145272e+000	-3.433782693933606e+000
1	 3.309553475487395e+000	 2.363170757972164e+000	-5.301408464163766e+000
1	 3.283416890485646e+000	 2.399352798275059e+000	-5.131576957168495e+000
1	 3.256862073086340e+000	 2.435276169870848e+000	-4.955139665480243e+000
1	 3.229892830522119e+000	 2.470933688006018e+000	-4.771575995943927e+000
1	 3.202513133248716e+000	 2.506318242109850e+000	-4.580361972845248e+000
1	 3.174727113152346e+000	 2.541422800402450e+000	-4.380971407957552e+000
1	 3.146539061601881e+000	 2.576240414451112e+000	-4.172877085592714e+000
1	 3.117953427347487e+000	 2.610764223668948e+000	-3.955551960136701e+000
1	 3.088974814267724e+000	 2.644987459749731e+000	-3.728470363498547e+000
1	 3.059607978967379e+000	 2.678903451033047e+000	-3.491109219856282e+000
1	 3.029857828228584e+000	 2.712505626793908e+000	-3.242949265047385e+000
1	 3.331256586166656e+000	 2.378667759879475e+000	-4.995225520608003e+000
1	 3.304948604871547e+000	 2.415087071715054e+000	-4.837226713574453e+000
1	 3.278219648529785e+000	 2.451246018567628e+000	-4.672625326941216e+000
1	 3.251073549340771e+000	 2.487137368568124e+000	-4.500903399012741e+000
1	 3.223514303797350e+000	 2.522753964516725e+000	-4.321542928386299e+000
1	 3.195546070881469e+000	 2.558088728521126e+000	-4.134027049829958e+000
1	 3.167173170103585e+000	 2.593134666582783e+000	-3.937841219066493e+000
1	 3.138400079387502e+000	 2.627884873125036e+000	-3.732474403908020e+000
1	 3.109231432802700e+000	 2.662332535457032e+000	-3.517420279147785e+000
1	 3.079672018146432e+000	 2.696470938167512e+000	-3.292178422588196e+000
1	 3.049726774378111e+000	 2.730293467442543e+000	-3.056255509562099e+000
1	 3.352959696845650e+000	 2.394164761786719e+000	-4.695768019722994e+000
1	 3.326480319257204e+000	 2.430821345154998e+000	-4.548968627680003e+000
1	 3.299577223973019e+000	 2.467215867264375e+000	-4.395680073502025e+000
1	 3.272254268159244e+000	 2.503341049130208e+000	-4.235377674756930e+000
1	 3.244515474345840e+000	 2.539189686923587e+000	-4.067539738348631e+000
1	 3.216365028610494e+000	 2.574754656639799e+000	-3.891648758357925e+000
1	 3.187807278605230e+000	 2.610028918714459e+000	-3.707192617296037e+000
1	 3.158846731427493e+000	 2.645005522581133e+000	-3.513665788145965e+000
1	 3.129488051337689e+000	 2.679677611164347e+000	-3.310570534543906e+000
1	 3.099736057325528e+000	 2.714038425301999e+000	-3.097418106438372e+000
1	 3.069595720527704e+000	 2.748081308091211e+000	-2.873729928557872e+000
1	 3.374662807524445e+000	 2.409661763693914e+000	-4.402990233580969e+000
1	 3.348012033642701e+000	 2.446555618594907e+000	-4.266780719504196e+000
1	 3.320934799416141e+000	 2.483185715961096e+000	-4.124301518284777e+000
1	 3.293434986977655e+000	 2.519544729692277e+000	-3.975012059208675e+000
1	 3.265516644894319e+000	 2.555625409330442e+000	-3.818377480280125e+000
1	 3.237183986339556e+000	 2.591420584758473e+000	-3.653869863984886e+000
1	 3.208441387106961e+000	 2.626923170846145e+000	-3.480969471570023e+000
1	 3.179293383467613e+000	 2.662126172037250e+000	-3.299165973115085e+000
1	 3.149744669872843e+000	 2.697022686871697e+000	-3.107959670658410e+000
1	 3.119800096504819e+000	 2.731605912436534e+000	-2.906862711640358e+000
1	 3.089464666677513e+000	 2.765869148739946e+000	-2.695400289931091e+000
1	 3.396365918203102e+000	 2.425158765601074e+000	-4.116847603078147e+000
1	 3.369543748028126e+000	 2.462289892034790e+000	-3.990641570883243e+000
1	 3.342292374859253e+000	 2.499155564657801e+000	-3.858487335421420e+000
1	 3.314615705796120e+000	 2.535748410254336e+000	-3.719819450082158e+000
1	 3.286517815442918e+000	 2.572061131737296e+000	-3.574080590736937e+000
1	 3.258002944068795e+000	 2.608086512877155e+000	-3.420722845215238e+000
1	 3.229075495608925e+000	 2.643817422977850e+000	-3.259208996993033e+000
1	 3.199740035508015e+000	 2.679246821493403e+000	-3.089013800236123e+000
1	 3.170001288408318e+000	 2.714367762579098e+000	-2.909625243340704e+000
1	 3.139864135684460e+000	 2.749173399571143e+000	-2.720545798122013e+000
1	 3.109333612827688e+000	 2.783656989388781e+000	-2.521293651819962e+000
1	 3.418069028881693e+000	 2.440655767508218e+000	-3.837296700827314e+000
1	 3.391075462413564e+000	 2.478024165474663e+000	-3.720530307634135e+000
1	 3.363649950302459e+000	 2.515125413354499e+000	-3.598235258116656e+000
1	 3.335796424614757e+000	 2.551952090816394e+000	-3.469812417514442e+000
1	 3.307518985991763e+000	 2.588496854144156e+000	-3.334672885633466e+000
1	 3.278821901798352e+000	 2.624752440995851e+000	-3.192239355661463e+000
1	 3.249709604111268e+000	 2.660711675109584e+000	-3.041947463477067e+000
1	 3.220186687548849e+000	 2.696367470949601e+000	-2.883247124431928e+000
1	 3.190257906944267e+000	 2.731712838286569e+000	-2.715603854593263e+000
1	 3.159928174864604e+000	 2.766740886705849e+000	-2.538500073453077e+000
1	 3.129202558978380e+000	 2.801444830037749e+000	-2.351436385137625e+000
1	 2.930513097476696e+000	 2.623566423550066e+000	-4.237916068574483e+000
1	 2.901376951840289e+000	 2.655752247797149e+000	-3.921804318409039e+000
1	 2.871880086178356e+000	 2.687622242784177e+000	-3.603750607547013e+000
1	 2.842027666154427e+000	 2.719170375440287e+000	-3.284769470803842e+000
1	 2.811824991326779e+000	 2.750390726063579e+000	-2.965881881552830e+000
1	 2.781277492018158e+000	 2.781277492018158e+000	-2.648113591040969e+000
1	 2.750390726063578e+000	 2.811824991326778e+000	-2.332493457250331e+000
1	 2.719170375440287e+000	 2.842027666154426e+000	-2.020051766777550e+000
1	 2.687622242784177e+000	 2.871880086178356e+000	-1.711818553223190e+000
1	 2.655752247797149e+000	 2.901376951840288e+000	-1.408821915593611e+000
1	 2.623566423550066e+000	 2.930513097476694e+000	-1.112086340216082e+000
1	 2.950382043628141e+000	 2.641354264199035e+000	-4.030824494000601e+000
1	 2.921048354254667e+000	 2.673758309074019e+000	-3.727010694041027e+000
1	 2.891351499165647e+000	 2.705844383359315e+000	-3.421538909967868e+000
1	 2.861296679047927e+000	 2.737606413079703e+000	-3.115373244705668e+000
1	 2.830889229390904e+000	 2.769038438397574e+000	-2.809483883911419e+000
1	 2.800134617335034e+000	 2.800134617335034e+000	-2.504845512959868e+000
1	 2.769038438397575e+000	 2.830889229390904e+000	-2.202435723986048e+000
1	 2.737606413079704e+000	 2.861296679047927e+000	-1.903233416296992e+000
1	 2.705844383359315e+000	 2.891351499165647e+000	-1.608217193483941e+000
1	 2.673758309074018e+000	 2.921048354254666e+000	-1.318363760575759e+000
1	 2.641354264199035e+000	 2.950382043628141e+000	-1.034646324573038e+000
1	 2.970250989778902e+000	 2.659142104847870e+000	-3.827750754534834e+000
1	 2.940719756668409e+000	 2.691764370350712e+000	-3.536270286196437e+000
1	 2.910822912152358e+000	 2.724066523934227e+000	-3.243388627855290e+000
1	 2.880565691940904e+000	 2.756042450718837e+000	-2.950023690103958e+000
1	 2.849953467454567e+000	 2.787686150731229e+000	-2.657099098343600e+000
1	 2.818991742651509e+000	 2.818991742651508e+000	-2.365542679949890e+000
1	 2.787686150731230e+000	 2.849953467454566e+000	-2.076284942042634e+000
1	 2.756042450718838e+000	 2.880565691940904e+000	-1.790257543026888e+000
1	 2.724066523934227e+000	 2.910822912152358e+000	-1.508391761091569e+000
1	 2.691764370350712e+000	 2.940719756668409e+000	-1.231616962860278e+000
1	 2.659142104847869e+000	 2.970250989778902e+000	-9.608590753877732e-001
1	 2.990119935929130e+000	 2.676929945496605e+000	-3.628726537597378e+000
1	 2.960391159081659e+000	 2.709770431627274e+000	-3.349605758886033e+000
1	 2.930294325138621e+000	 2.742288664508966e+000	-3.069313292841897e+000
1	 2.899834704833481e+000	 2.774478488357760e+000	-2.788725005767223e+000
1	 2.869017705517879e+000	 2.806333863064627e+000	-2.508722098961647e+000
1	 2.837848867967678e+000	 2.837848867967678e+000	-2.230189658672711e+000
1	 2.806333863064627e+000	 2.869017705517878e+000	-1.954015197231392e+000
1	 2.774478488357759e+000	 2.899834704833481e+000	-1.681087188411762e+000
1	 2.742288664508966e+000	 2.930294325138621e+000	-1.412293600071195e+000
1	 2.709770431627273e+000	 2.960391159081659e+000	-1.148520427135103e+000
1	 2.676929945496605e+000	 2.990119935929130e+000	-8.906502279886951e-001
1	 3.009988882078974e+000	 2.694717786145272e+000	-3.433782693933606e+000
1	 2.980062561494562e+000	 2.727776492903745e+000	-3.167039177699864e+000
1	 2.949765738124572e+000	 2.760510805083593e+000	-2.899326079271006e+000
1	 2.919103717725782e+000	 2.792914525996539e+000	-2.631481279599731e+000
1	 2.888081943580947e+000	 2.824981575397850e+000	-2.364347603143071e+000
1	 2.856705993283643e+000	 2.856705993283643e+000	-2.098771423292073e+000
1	 2.824981575397851e+000	 2.888081943580947e+000	-1.835601259602120e+000
1	 2.792914525996538e+000	 2.919103717725782e+000	-1.575686369750186e+000
1	 2.760510805083593e+000	 2.949765738124572e+000	-1.319875339160768e+000
1	 2.727776492903746e+000	 2.980062561494562e+000	-1.069014671249335e+000
1	 2.694717786145272e+000	 3.009988882078973e+000	-8.239473812296825e-001
1	 3.029857828228584e+000	 2.712505626793908e+000	-3.242949265047385e+000
1	 2.999733963907260e+000	 2.745782554180174e+000	-2.988592029428710e+000
1	 2.969237151110346e+000	 2.778732945658162e+000	-2.733439815911663e+000
1	 2.938372730617930e+000	 2.811350563635247e+000	-2.478296492276563e+000
1	 2.907146181643887e+000	 2.843629287730986e+000	-2.223970466833170e+000
1	 2.875563118599497e+000	 2.875563118599497e+000	-1.971273342112315e+000
1	 2.843629287730986e+000	 2.907146181643888e+000	-1.721018561007888e+000
1	 2.811350563635246e+000	 2.938372730617930e+000	-1.474020048197894e+000
1	 2.778732945658162e+000	 2.969237151110347e+000	-1.231090849687124e+000
1	 2.745782554180173e+000	 2.999733963907259e+000	-9.930417733200240e-001
1	 2.712505626793908e+000	 3.029857828228585e+000	-7.606800331089065e-001
1	 3.049726774378111e+000	 2.730293467442543e+000	-3.056255509562099e+000
1	 3.019405366319895e+000	 2.763788615456600e+000	-2.814285240918381e+000
1	 2.988708564096076e+000	 2.796955086232729e+000	-2.571666997215730e+000
1	 2.957641743510049e+000	 2.829786601273951e+000	-2.329174520736574e+000
1	 2.926210419706810e+000	 2.862277000064116e+000	-2.087585680031120e+000
1	 2.894420243915343e+000	 2.894420243915343e+000	-1.847681164739280e+000
1	 2.862277000064116e+000	 2.926210419706810e+000	-1.610243173546838e+000
1	 2.829786601273951e+000	 2.957641743510049e+000	-1.376054098021673e+000
1	 2.796955086232729e+000	 2.988708564096076e+000	-1.145895205088709e+000
1	 2.763788615456600e+000	 3.019405366319896e+000	-9.205453209064506e-001
1	 2.730293467442543e+000	 3.049726774378111e+000	-7.007795189042468e-001
1	 3.069595720527704e+000	 2.748081308091211e+000	-2.873729928557872e+000
1	 3.039076768732614e+000	 2.781794676733072e+000	-2.644139197191827e+000
1	 3.008179977081899e+000	 2.815177226807353e+000	-2.414019794137628e+000
1	 2.976910756402264e+000	 2.848222638912723e+000	-2.184119141539742e+000
1	 2.945274657769825e+000	 2.880924712397324e+000	-1.955188362451498e+000
1	 2.913277369231275e+000	 2.913277369231274e+000	-1.727981009739820e+000
1	 2.880924712397324e+000	 2.945274657769825e+000	-1.503251788841189e+000
1	 2.848222638912722e+000	 2.976910756402263e+000	-1.281755277047375e+000
1	 2.815177226807354e+000	 3.008179977081899e+000	-1.064244642010311e+000
1	 2.781794676733072e+000	 3.039076768732615e+000	-8.514703621584004e-001
1	 2.748081308091210e+000	 3.069595720527704e+000	-6.441789517114037e-001
1	 3.089464666677513e+000	 2.765869148739946e+000	-2.695400289931091e+000
1	 3.058748171145560e+000	 2.799800738009633e+000	-2.478173758871987e+000
1	 3.027651390067949e+000	 2.833399367382091e+000	-2.260510064536888e+000
1	 2.996179769294696e+000	 2.866658676551633e+000	-2.043134034094932e+000
1	 2.964338895833045e+000	 2.899572424730694e+000	-1.826773759353120e+000
1	 2.932134494547392e+000	 2.932134494547392e+000	-1.612159352777483e+000
1	 2.899572424730695e+000	 2.964338895833045e+000	-1.400021698115868e+000
1	 2.866658676551633e+000	 2.996179769294697e+000	-1.191091198248153e+000
1	 2.833399367382091e+000	 3.027651390067948e+000	-9.860965228990327e-001
1	 2.799800738009632e+000	 3.058748171145560e+000	-7.857633588494729e-001
1	 2.765869148739947e+000	 3.089464666677513e+000	-5.908131652764481e-001
1	 3.109333612827688e+000	 2.783656989388781e+000	-2.521293651819962e+000
1	 3.078419573558874e+000	 2.817806799286326e+000	-2.316408278936591e+000
1	 3.047122803054358e+000	 2.851621507956997e+000	-2.111149363181512e+000
1	 3.015448782187471e+000	 2.885094714190751e+000	-1.906222783763895e+000
1	 2.983403133896581e+000	 2.918220137064311e+000	-1.702337237527838e+000
1	 2.950991619863794e+000	 2.950991619863793e+000	-1.500203015203116e+000
1	 2.918220137064311e+000	 2.983403133896581e+000	-1.300530773040871e+000
1	 2.885094714190750e+000	 3.015448782187472e+000	-1.104030302422115e+000
1	 2.851621507956998e+000	 3.047122803054358e+000	-9.114093000343680e-001
1	 2.817806799286325e+000	 3.078419573558874e+000	-7.233721412110932e-001
1	 2.783656989388781e+000	 3.109333612827688e+000	-5.406186590201763e-001
1	 3.129202558978380e+000	 2.801444830037749e+000	-2.351436385137625e+000
1	 3.098090975972703e+000	 2.835812860563197e+000	-2.158861618834703e+000
1	 3.066594216041264e+000	 2.869843648532129e+000	-1.965948951370471e+000
1	 3.034717795080713e+000	 2.903530751830148e+000	-1.773388884847047e+000
1	 3.002467371960544e+000	 2.936867849398260e+000	-1.581874281442135e+000
1	 2.969848745180577e+000	 2.969848745180577e+000	-1.392099153080074e+000
1	 2.936867849398259e+000	 3.002467371960544e+000	-1.204757447303554e+000
1	 2.903530751830149e+000	 3.034717795080715e+000	-1.020541831910860e+000
1	 2.869843648532129e+000	 3.066594216041264e+000	-8.401424809285778e-001
1	 2.835812860563195e+000	 3.098090975972702e+000	-6.642458644872338e-001
1	 2.801444830037748e+000	 3.129202558978380e+000	-4.935335451569329e-001
1	 2.623566423550066e+000	 2.930513097476694e+000	-1.112086340216083e+000
1	 2.591066015360247e+000	 2.959287783067377e+000	-8.266665895539238e-001
1	 2.558262081212877e+000	 2.987691721587632e+000	-5.560909718279219e-001
1	 2.525160976388239e+000	 3.015720167141756e+000	-2.989422804893410e-001
1	 2.491769153792504e+000	 3.043368519087291e+000	-5.378376870052826e-002
1	 2.458093159808781e+000	 3.070632324500330e+000	 1.808380663665762e-001
1	 2.424139630075088e+000	 3.097507280498923e+000	 4.063906849175476e-001
1	 2.389915285194917e+000	 3.123989236422097e+000	 6.243526976421243e-001
1	 2.355426926386115e+000	 3.150074195862330e+000	 8.362110565595552e-001
1	 2.320681431073919e+000	 3.175758318549517e+000	 1.043458249588522e+000
1	 2.285685748434003e+000	 3.201037922084772e+000	 1.247589504776277e+000
1	 2.641354264199035e+000	 2.950382043628141e+000	-1.034646324573037e+000
1	 2.608633502494953e+000	 2.979351822248522e+000	-7.619678144072916e-001
1	 2.575607156920352e+000	 3.007948340124857e+000	-5.037876168362276e-001
1	 2.542281625844456e+000	 3.036166819184163e+000	-2.587656852935087e-001
1	 2.508663405924287e+000	 3.064002627591506e+000	-2.553983122701132e-002
1	 2.474759087927574e+000	 3.091451282232050e+000	 1.972715981020637e-001
1	 2.440575352482112e+000	 3.118508451050198e+000	 4.110670220957182e-001
1	 2.406118965757234e+000	 3.145169955243393e+000	 6.172589154235518e-001
1	 2.371396775083201e+000	 3.171431771308376e+000	 8.172710886073151e-001
1	 2.336415704514343e+000	 3.197290032937910e+000	 1.012535966420595e+000
1	 2.301182750341905e+000	 3.222741032766358e+000	 1.204491869903119e+000
1	 2.659142104847869e+000	 2.970250989778902e+000	-9.608590753877743e-001
1	 2.626200989629562e+000	 2.999415861428939e+000	-7.008552168152086e-001
1	 2.592952232627758e+000	 3.028204958661326e+000	-4.549753475669005e-001
1	 2.559402275300624e+000	 3.056613471225787e+000	-2.219508924077847e-001
1	 2.525557658056029e+000	 3.084636736094926e+000	-4.887711821810101e-004
1	 2.491425016046331e+000	 3.112270239962971e+000	 2.107260221379374e-001
1	 2.457011074889095e+000	 3.139509621600685e+000	 4.130278157308476e-001
1	 2.422322646319498e+000	 3.166350674063928e+000	 6.077676372124969e-001
1	 2.387366623780208e+000	 3.192789346753697e+000	 7.963105776307770e-001
1	 2.352149977954658e+000	 3.218821747325635e+000	 9.800331478608814e-001
1	 2.316679752249655e+000	 3.244444143447348e+000	 1.160320633075193e+000
1	 2.676929945496605e+000	 2.990119935929130e+000	-8.906502279886956e-001
1	 2.643768476764097e+000	 3.019479900608787e+000	-6.432422966433022e-001
1	 2.610297308335112e+000	 3.048461577197192e+000	-4.095587605193826e-001
1	 2.576522924756755e+000	 3.077060123266782e+000	-1.883969323360639e-001
1	 2.542451910187743e+000	 3.105270844597697e+000	 2.147250768589530e-002
1	 2.508090944165058e+000	 3.133089197693234e+000	 2.213030238721148e-001
1	 2.473446797296041e+000	 3.160510792150513e+000	 4.123697079748338e-001
1	 2.438526326881711e+000	 3.187531392883816e+000	 5.959667384124735e-001
1	 2.403336472477147e+000	 3.214146922198397e+000	 7.734048214225000e-001
1	 2.367884251394874e+000	 3.240353461712777e+000	 9.460086196912505e-001
1	 2.332176754157270e+000	 3.266147254127807e+000	 1.115114174017321e+000
1	 2.694717786145272e+000	 3.009988882078973e+000	-8.239473812296825e-001
1	 2.661335963898585e+000	 3.039543939788214e+000	-5.890448377075570e-001
1	 2.627642384042430e+000	 3.068718195732604e+000	-3.674449712280821e-001
1	 2.593643574212858e+000	 3.097506775307298e+000	-1.580055015817951e-001
1	 2.559346162319434e+000	 3.125904953099965e+000	 4.044437947472379e-002
1	 2.524756872283762e+000	 3.153908155422980e+000	 2.291016038002952e-001
1	 2.489882519702958e+000	 3.181511962699814e+000	 4.091867892392848e-001
1	 2.454730007443883e+000	 3.208712111703173e+000	 5.819417741640502e-001
1	 2.419306321174022e+000	 3.235504497642577e+000	 7.486271296114697e-001
1	 2.383618524835003e+000	 3.261885176099418e+000	 9.105196544571816e-001
1	 2.347673756064768e+000	 3.287850364807801e+000	 1.068909859075850e+000
1	 2.712505626793908e+000	 3.029857828228585e+000	-7.606800331089065e-001
1	 2.678903451033047e+000	 3.059607978967379e+000	-5.381808328868338e-001
1	 2.644987459749730e+000	 3.088974814267723e+000	-3.285435316667659e-001
1	 2.610764223668948e+000	 3.117953427347487e+000	-1.306808752336237e-001
1	 2.576240414451112e+000	 3.146539061601881e+000	 5.652458538297164e-002
1	 2.541422800402450e+000	 3.174727113152346e+000	 2.342181655500869e-001
1	 2.506318242109850e+000	 3.202513133248717e+000	 4.035706818634876e-001
1	 2.470933688006018e+000	 3.229892830522120e+000	 5.657760554229598e-001
1	 2.435276169870846e+000	 3.256862073086340e+000	 7.220488888521683e-001
1	 2.399352798275060e+000	 3.283416890485647e+000	 8.736220223961999e-001
1	 2.363170757972164e+000	 3.309553475487395e+000	 1.021744074445934e+000
1	 2.730293467442543e+000	 3.049726774378111e+000	-7.007795189042468e-001
1	 2.696470938167511e+000	 3.079672018146433e+000	-4.905704121627790e-001
1	 2.662332535457031e+000	 3.109231432802700e+000	-2.927663508816529e-001
1	 2.627884873125035e+000	 3.138400079387501e+000	-1.063298229681319e-001
1	 2.593134666582783e+000	 3.167173170103586e+000	 6.980831947699916e-002
1	 2.558088728521126e+000	 3.195546070881469e+000	 2.367466004738898e-001
1	 2.522753964516725e+000	 3.223514303797348e+000	 3.956106205117035e-001
1	 2.487137368568124e+000	 3.251073549340771e+000	 5.475507220643434e-001
1	 2.451246018567628e+000	 3.278219648529786e+000	 6.937396254654060e-001
1	 2.415087071715054e+000	 3.304948604871548e+000	 8.353700403754354e-001
1	 2.378667759879475e+000	 3.331256586166656e+000	 9.736522580998607e-001
1	 2.748081308091210e+000	 3.069595720527704e+000	-6.441789517114037e-001
1	 2.714038425301999e+000	 3.099736057325528e+000	-4.461357734543539e-001
1	 2.679677611164348e+000	 3.129488051337687e+000	-2.600276187069061e-001
1	 2.645005522581133e+000	 3.158846731427493e+000	-8.486152831469060e-002
1	 2.610028918714459e+000	 3.187807278605231e+000	 8.038831112654958e-002
1	 2.574754656639798e+000	 3.216365028610493e+000	 2.367783689563990e-001
1	 2.539189686923587e+000	 3.244515474345840e+000	 3.853935294481836e-001
1	 2.503341049130209e+000	 3.272254268159244e+000	 5.273448131478112e-001
1	 2.467215867264374e+000	 3.299577223973019e+000	 6.637670656463072e-001
1	 2.430821345154999e+000	 3.326480319257203e+000	 7.958166189287029e-001
1	 2.394164761786720e+000	 3.352959696845651e+000	 9.246689304754692e-001
1	 2.765869148739947e+000	 3.089464666677513e+000	-5.908131652764479e-001
1	 2.731605912436535e+000	 3.119800096504819e+000	-4.048011161213304e-001
1	 2.697022686871698e+000	 3.149744669872843e+000	-2.302437324236519e-001
1	 2.662126172037251e+000	 3.179293383467614e+000	-6.618751103569609e-002
1	 2.626923170846145e+000	 3.208441387106961e+000	 8.835490425943171e-002
1	 2.591420584758473e+000	 3.237183986339555e+000	 2.344025785847564e-001
1	 2.555625409330443e+000	 3.265516644894320e+000	 3.730040968302757e-001
1	 2.519544729692277e+000	 3.293434986977655e+000	 5.052353344711937e-001
1	 2.483185715961096e+000	 3.320934799416142e+000	 6.321971933491342e-001
1	 2.446555618594906e+000	 3.348012033642701e+000	 7.550133074784715e-001
1	 2.409661763693914e+000	 3.374662807524445e+000	 8.748277239803423e-001
1	 2.783656989388781e+000	 3.109333612827688e+000	-5.406186590201763e-001
1	 2.749173399571143e+000	 3.139864135684460e+000	-3.664925770172940e-001
1	 2.714367762579100e+000	 3.170001288408317e+000	-2.033332262309847e-001
1	 2.679246821493404e+000	 3.199740035508015e+000	-5.022155248281304e-002
1	 2.643817422977850e+000	 3.229075495608925e+000	 9.379613357757081e-002
1	 2.608086512877154e+000	 3.258002944068795e+000	 2.297060593215584e-001
1	 2.572061131737296e+000	 3.286517815442916e+000	 3.585248461531499e-001
1	 2.535748410254337e+000	 3.314615705796119e+000	 4.812973235342454e-001
1	 2.499155564657801e+000	 3.342292374859254e+000	 5.990943059526854e-001
1	 2.462289892034790e+000	 3.369543748028127e+000	 7.130103378240379e-001
1	 2.425158765601074e+000	 3.396365918203103e+000	 8.241614113647868e-001
1	 2.801444830037748e+000	 3.129202558978380e+000	-4.935335451569323e-001
1	 2.766740886705849e+000	 3.159928174864604e+000	-3.311381689788088e-001
1	 2.731712838286569e+000	 3.190257906944266e+000	-1.792167034039248e-001
1	 2.696367470949601e+000	 3.220186687548849e+000	-3.687962379688182e-002
1	 2.660711675109584e+000	 3.249709604111268e+000	 9.679779786939337e-002
1	 2.624752440995853e+000	 3.278821901798352e+000	 2.227734358140011e-001
1	 2.588496854144156e+000	 3.307518985991762e+000	 3.420362049726381e-001
1	 2.551952090816394e+000	 3.335796424614757e+000	 4.556039120274247e-001
1	 2.515125413354498e+000	 3.363649950302459e+000	 5.645210678050697e-001
1	 2.478024165474663e+000	 3.391075462413564e+000	 6.698566659729236e-001
1	 2.440655767508217e+000	 3.418069028881693e+000	 7.727019330139164e-001
1	 2.285685748434003e+000	 3.201037922084772e+000	 1.247589504776277e+000
1	 2.250446894129934e+000	 3.225909482613576e+000	 1.450239906939524e+000
1	 2.214971943538431e+000	 3.250369633505693e+000	 1.650688866396582e+000
1	 2.179268029550415e+000	 3.274415169322649e+000	 1.846919415227564e+000
1	 2.143342338751272e+000	 3.298043047850051e+000	 2.036944891662509e+000
1	 2.107202106807173e+000	 3.321250391072290e+000	 2.218811874549362e+000
1	 2.070854613836993e+000	 3.344034485992657e+000	 2.390603037012284e+000
1	 2.034307179775804e+000	 3.366392785299043e+000	 2.550439914223009e+000
1	 1.997567159735842e+000	 3.388322907875671e+000	 2.696485580474408e+000
1	 1.960641939370820e+000	 3.409822639161488e+000	 2.826947231022825e+000
1	 1.923538930249378e+000	 3.430889931356199e+000	 2.940078664453780e+000
1	 2.301182750341905e+000	 3.222741032766358e+000	 1.204491869903119e+000
1	 2.265704975795809e+000	 3.247781223047380e+000	 1.394846068687625e+000
1	 2.229989504223994e+000	 3.272407214324913e+000	 1.583114031957627e+000
1	 2.194043516878546e+000	 3.296615779427530e+000	 1.767467168571328e+000
1	 2.157874249070071e+000	 3.320403855514564e+000	 1.946103057649166e+000
1	 2.121488985522725e+000	 3.343768545057394e+000	 2.117248117761832e+000
1	 2.084895055714760e+000	 3.366707116665132e+000	 2.279160205217747e+000
1	 2.048099829210577e+000	 3.389217005754840e+000	 2.430131136801702e+000
1	 2.011110710990247e+000	 3.411295815066718e+000	 2.568489132552683e+000
1	 1.973935136782386e+000	 3.432941315024939e+000	 2.692601174415132e+000
1	 1.936580568406245e+000	 3.454151443945082e+000	 2.800875276853909e+000
1	 2.316679752249655e+000	 3.244444143447348e+000	 1.160320633075193e+000
1	 2.280963057461482e+000	 3.269652963480678e+000	 1.338912354850967e+000
1	 2.245007064909297e+000	 3.294444795143722e+000	 1.515503624688768e+000
1	 2.208819004206357e+000	 3.318816389532113e+000	 1.688434148782901e+000
1	 2.172406159388486e+000	 3.342764663178889e+000	 1.856066206732297e+000
1	 2.135775864237826e+000	 3.366286699042419e+000	 2.016787084148926e+000
1	 2.098935497592009e+000	 3.389379747337628e+000	 2.169011443037765e+000
1	 2.061892478644770e+000	 3.412041226210741e+000	 2.311183625684143e+000
1	 2.024654262244012e+000	 3.434268722257935e+000	 2.441779887993737e+000
1	 1.987228334193261e+000	 3.456059990888608e+000	 2.559310558449547e+000
1	 1.949622206562376e+000	 3.477412956534195e+000	 2.662322119078011e+000
1	 2.332176754157270e+000	 3.266147254127807e+000	 1.115114174017321e+000
1	 2.296221139126976e+000	 3.291524703913511e+000	 1.282457683971529e+000
1	 2.260024625594372e+000	 3.316482375962150e+000	 1.447863361802159e+000
1	 2.223594491533885e+000	 3.341016999636398e+000	 1.609819523427480e+000
1	 2.186938069706560e+000	 3.365125470843009e+000	 1.766833992642028e+000
1	 2.150062742952529e+000	 3.388804853027323e+000	 1.917436325507496e+000
1	 2.112975939468804e+000	 3.412052378010083e+000	 2.060179979963811e+000
1	 2.075685128078455e+000	 3.434865446666672e+000	 2.193644426735480e+000
1	 2.038197813497221e+000	 3.457241629449239e+000	 2.316437197794997e+000
1	 2.000521531603536e+000	 3.479178666752396e+000	 2.427195868840248e+000
1	 1.962663844717872e+000	 3.500674469123442e+000	 2.524589972446663e+000
1	 2.347673756064768e+000	 3.287850364807801e+000	 1.068909859075850e+000
1	 2.311479220792314e+000	 3.313396444345925e+000	 1.225500475066111e+000
1	 2.275042186279247e+000	 3.338519956780215e+000	 1.380198809552815e+000
1	 2.238369978861165e+000	 3.363217609740386e+000	 1.531622482050025e+000
1	 2.201469980024336e+000	 3.387486278506896e+000	 1.678406078251456e+000
1	 2.164349621666887e+000	 3.411323007012064e+000	 1.819203194236682e+000
1	 2.127016381345206e+000	 3.434725008682438e+000	 1.952688432135524e+000
1	 2.089477777511701e+000	 3.457689667122556e+000	 2.077559343621107e+000
1	 2.051741364749952e+000	 3.480214536640536e+000	 2.192538317768904e+000
1	 2.013814729013301e+000	 3.502297342616207e+000	 2.296374409994777e+000
1	 1.975705482872835e+000	 3.523935981712723e+000	 2.387845108967877e+000
1	 2.363170757972164e+000	 3.309553475487395e+000	 1.021744074445934e+000
1	 2.326737302457517e+000	 3.335268184777968e+000	 1.168058664005066e+000
1	 2.290059746963950e+000	 3.360557537597944e+000	 1.312515388188317e+000
1	 2.253145466188234e+000	 3.385418219844079e+000	 1.453842235454613e+000
1	 2.216001890341861e+000	 3.409847086170533e+000	 1.590782135276940e+000
1	 2.178636500380949e+000	 3.433841160996598e+000	 1.722094849875865e+000
1	 2.141056823221275e+000	 3.457397639354630e+000	 1.846558822451630e+000
1	 2.103270426944581e+000	 3.480513887578316e+000	 1.962972978536622e+000
1	 2.065284916002286e+000	 3.503187443831742e+000	 2.070158477241093e+000
1	 2.027107926422647e+000	 3.525416018479945e+000	 2.166960409324537e+000
1	 1.988747121027364e+000	 3.547197494301935e+000	 2.252249439191002e+000
1	 2.378667759879475e+000	 3.331256586166656e+000	 9.736522580998607e-001
1	 2.341995384122610e+000	 3.357139925209682e+000	 1.110149719250790e+000
1	 2.305077307648510e+000	 3.382595118415356e+000	 1.244818376704942e+000
1	 2.267920953515127e+000	 3.407618829947475e+000	 1.376478015011877e+000
1	 2.230533800659176e+000	 3.432207893833895e+000	 1.503961843989972e+000
1	 2.192923379094772e+000	 3.456359314980883e+000	 1.626118265387093e+000
1	 2.155097265097074e+000	 3.480070270026597e+000	 1.741812599894776e+000
1	 2.117063076377164e+000	 3.503338108033873e+000	 1.849928771345678e+000
1	 2.078828467254304e+000	 3.526160351022762e+000	 1.949370945063093e+000
1	 2.040401123831664e+000	 3.548534694343511e+000	 2.039065117477844e+000
1	 2.001788759181560e+000	 3.570459006890981e+000	 2.117960654281122e+000
1	 2.394164761786720e+000	 3.352959696845651e+000	 9.246689304754692e-001
1	 2.357253465787613e+000	 3.379011665641112e+000	 1.051790656984921e+000
1	 2.320094868332957e+000	 3.404632699232478e+000	 1.177112917419178e+000
1	 2.282696440841880e+000	 3.429819440050575e+000	 1.299529071993431e+000
1	 2.245065710976327e+000	 3.454568701496963e+000	 1.417944892940341e+000
1	 2.207210257808406e+000	 3.478877468964878e+000	 1.531280233193486e+000
1	 2.169137706972663e+000	 3.502742900698278e+000	 1.638470658105775e+000
1	 2.130855725809523e+000	 3.526162328489153e+000	 1.738469037197819e+000
1	 2.092372018506088e+000	 3.549133258213510e+000	 1.830247093061330e+000
1	 2.053694321240442e+000	 3.571653370206810e+000	 1.912796904680201e+000
1	 2.014830397335523e+000	 3.593720519479760e+000	 1.985132362575647e+000
1	 2.409661763693914e+000	 3.374662807524445e+000	 8.748277239803423e-001
1	 2.372511547452549e+000	 3.400883406072305e+000	 9.929980556518842e-001
1	 2.335112429017319e+000	 3.426670280049329e+000	 1.109404020362770e+000
1	 2.297471928168530e+000	 3.452020050153380e+000	 1.222994676931900e+000
1	 2.259597621293357e+000	 3.476929509159713e+000	 1.332730978689934e+000
1	 2.221497136521904e+000	 3.501395622948537e+000	 1.437587370984648e+000
1	 2.183178148848105e+000	 3.525415531369613e+000	 1.536553353241209e+000
1	 2.144648375241727e+000	 3.548986548944076e+000	 1.628635002694755e+000
1	 2.105915569757716e+000	 3.572106165403896e+000	 1.712856457037841e+000
1	 2.066987518649074e+000	 3.594772046069743e+000	 1.788261353357120e+000
1	 2.027872035489354e+000	 3.616982032068171e+000	 1.853914220871590e+000
1	 2.425158765601074e+000	 3.396365918203103e+000	 8.241614113647868e-001
1	 2.387769629117440e+000	 3.422755146503306e+000	 9.337880699447946e-001
1	 2.350129989701624e+000	 3.448707860865934e+000	 1.041696567509288e+000
1	 2.312247415495113e+000	 3.474220660255889e+000	 1.146874119005548e+000
1	 2.274129531610309e+000	 3.499290316822126e+000	 1.248319805556716e+000
1	 2.235784015235318e+000	 3.523913776931821e+000	 1.345046127299492e+000
1	 2.197218590723461e+000	 3.548088162040541e+000	 1.436080521146310e+000
1	 2.158441024673848e+000	 3.571810769398565e+000	 1.520466840670022e+000
1	 2.119459121009271e+000	 3.595079072593830e+000	 1.597266795432142e+000
1	 2.080280716057648e+000	 3.617890721932214e+000	 1.665561347205667e+000
1	 2.040913673643154e+000	 3.640243544656117e+000	 1.724452060679243e+000
1	 2.440655767508217e+000	 3.418069028881693e+000	 7.727019330139164e-001
1	 2.403027710782309e+000	 3.444626886934158e+000	 8.741764442585380e-001
1	 2.365147550385903e+000	 3.470745441682317e+000	 9.739953168396591e-001
1	 2.327022902821665e+000	 3.496421270358104e+000	 1.071166705446287e+000
1	 2.288661441927230e+000	 3.521651124484178e+000	 1.164711085368532e+000
1	 2.250070893948702e+000	 3.546431930914687e+000	 1.253662786896363e+000
1	 2.211259032598793e+000	 3.570760792711000e+000	 1.337071493873589e+000
1	 2.172233674105955e+000	 3.594634989852545e+000	 1.414003703643602e+000
1	 2.133002672260832e+000	 3.618051979783225e+000	 1.483544145748266e+000
1	 2.093573913466255e+000	 3.641009397794124e+000	 1.544797156872711e+000
1	 2.053955311797024e+000	 3.663505057243499e+000	 1.596888009665900e+000
1	 1.923538930249378e+000	 3.430889931356199e+000	 2.940078664453780e+000
1	 1.886271168719185e+000	 3.451519841804724e+000	 3.034451526629524e+000
1	 1.848840550700881e+000	 3.471713851746570e+000	 3.109092181921849e+000
1	 1.811254536557092e+000	 3.491470416868223e+000	 3.162948318506994e+000
1	 1.773520594178441e+000	 3.510788158857956e+000	 3.194997988164405e+000
1	 1.735646194488917e+000	 3.529665864868950e+000	 3.204250559328894e+000
1	 1.697638806993271e+000	 3.548102486840682e+000	 3.189747612306463e+000
1	 1.659505895371513e+000	 3.566097140681105e+000	 3.150563775756166e+000
1	 1.621254913125377e+000	 3.583649105312324e+000	 3.085807503690489e+000
1	 1.582893299281493e+000	 3.600757821582674e+000	 2.994621792396752e+000
1	 1.544428474155829e+000	 3.617422891048259e+000	 2.876184836830570e+000
1	 1.936580568406245e+000	 3.454151443945082e+000	 2.800875276853908e+000
1	 1.899060130596229e+000	 3.474921225660750e+000	 2.891864197521749e+000
1	 1.861375732127374e+000	 3.495252151454281e+000	 2.964324773857325e+000
1	 1.823534883943736e+000	 3.515142666541675e+000	 3.016984235177635e+000
1	 1.785545104568417e+000	 3.534591383266208e+000	 3.048605451251880e+000
1	 1.747413915578442e+000	 3.553597080557927e+000	 3.057988210954952e+000
1	 1.709148837121985e+000	 3.572158703250428e+000	 3.043970428520002e+000
1	 1.670757383482980e+000	 3.590275361257489e+000	 3.005429276062164e+000
1	 1.632247058698082e+000	 3.607946328612285e+000	 2.941282241240438e+000
1	 1.593625352230694e+000	 3.625171042372080e+000	 2.850488109119260e+000
1	 1.554899734706702e+000	 3.641949101391516e+000	 2.732047867485067e+000
1	 1.949622206562376e+000	 3.477412956534195e+000	 2.662322119078012e+000
1	 1.911849092472506e+000	 3.498322609516991e+000	 2.749399042728859e+000
1	 1.873910913553071e+000	 3.518790451162160e+000	 2.819112882160602e+000
1	 1.835815231329566e+000	 3.538814916215224e+000	 2.870005637479272e+000
1	 1.797569614957565e+000	 3.558394607674471e+000	 2.900659869178028e+000
1	 1.759181636667133e+000	 3.577528296246814e+000	 2.909700249621931e+000
1	 1.720658867249861e+000	 3.596214919659974e+000	 2.895795028949214e+000
1	 1.682008871593610e+000	 3.614453581833564e+000	 2.857657413715562e+000
1	 1.643239204269950e+000	 3.632243551911827e+000	 2.794046856842353e+000
1	 1.604357405179059e+000	 3.649584263160969e+000	 2.703770257663635e+000
1	 1.565370995256741e+000	 3.666475311734168e+000	 2.585683071100599e+000
1	 1.962663844717872e+000	 3.500674469123442e+000	 2.524589972446663e+000
1	 1.924638054348121e+000	 3.521723993373348e+000	 2.607281227903092e+000
1	 1.886446094978093e+000	 3.542328750870120e+000	 2.673734426520295e+000
1	 1.848095578714712e+000	 3.562487165888798e+000	 2.722340901972635e+000
1	 1.809594125346025e+000	 3.582197832082684e+000	 2.751537117355275e+000
1	 1.770949357755138e+000	 3.601459511935572e+000	 2.759806437325109e+000
1	 1.732168897377055e+000	 3.620271136069303e+000	 2.745680802842329e+000
1	 1.693260359703563e+000	 3.638631802409330e+000	 2.707742306577279e+000
1	 1.654231349841147e+000	 3.656540775210977e+000	 2.644624667315755e+000
1	 1.615089458126757e+000	 3.673997483949385e+000	 2.555014601964917e+000
1	 1.575842255806114e+000	 3.691001522076283e+000	 2.437653094029960e+000
1	 1.975705482872835e+000	 3.523935981712723e+000	 2.387845108967879e+000
1	 1.937427016223188e+000	 3.545125377229726e+000	 2.465729973419434e+000
1	 1.898981276402560e+000	 3.565867050578072e+000	 2.528459988429411e+000
1	 1.860375926099302e+000	 3.586159415562315e+000	 2.574309734758963e+000
1	 1.821618635733935e+000	 3.606001056490789e+000	 2.601603146576248e+000
1	 1.782717078842601e+000	 3.625390727624157e+000	 2.608715452658024e+000
1	 1.743678927503718e+000	 3.644327352478393e+000	 2.594075009727404e+000
1	 1.704511847812996e+000	 3.662810022984794e+000	 2.556165025813388e+000
1	 1.665223495411833e+000	 3.680837998509759e+000	 2.493525171815752e+000
1	 1.625821511073953e+000	 3.698410704737381e+000	 2.404753079757433e+000
1	 1.586313516354986e+000	 3.715527732417929e+000	 2.288505726504197e+000
1	 1.988747121027364e+000	 3.547197494301935e+000	 2.252249439191003e+000
1	 1.950215978097817e+000	 3.568526761086030e+000	 2.324958749312790e+000
1	 1.911516457826590e+000	 3.589405350285925e+000	 2.383553051794404e+000
1	 1.872656273483467e+000	 3.609831665235706e+000	 2.426223455771979e+000
1	 1.833643146121435e+000	 3.629804280898727e+000	 2.451214308427895e+000
1	 1.794484799929670e+000	 3.649321943312530e+000	 2.456825254221499e+000
1	 1.755188957630005e+000	 3.668383568887227e+000	 2.441413177128583e+000
1	 1.715763335922069e+000	 3.686988243559954e+000	 2.403394023677681e+000
1	 1.676215640982173e+000	 3.705135221808200e+000	 2.341244504894514e+000
1	 1.636553564020811e+000	 3.722823925524999e+000	 2.253503675589411e+000
1	 1.596784776903525e+000	 3.740053942759174e+000	 2.138774389743691e+000
1	 2.001788759181560e+000	 3.570459006890981e+000	 2.117960654281122e+000
1	 1.963004939972117e+000	 3.591928144942161e+000	 2.185175462595084e+000
1	 1.924051639250307e+000	 3.612943649993593e+000	 2.239270234138708e+000
1	 1.884936620867336e+000	 3.633503914908892e+000	 2.278385271957031e+000
1	 1.845667656508661e+000	 3.653607505306437e+000	 2.300717667985232e+000
1	 1.806252521016491e+000	 3.673253159000651e+000	 2.304523429826918e+000
1	 1.766698987756068e+000	 3.692439785295785e+000	 2.288119482735650e+000
1	 1.727014824030942e+000	 3.711166464134818e+000	 2.249885544572150e+000
1	 1.687207786552331e+000	 3.729432445106324e+000	 2.188265871852686e+000
1	 1.647285616967498e+000	 3.747237146312289e+000	 2.101770875347424e+000
1	 1.607256037451896e+000	 3.764580153100085e+000	 1.988978604028063e+000
1	 2.014830397335523e+000	 3.593720519479760e+000	 1.985132362575647e+000
1	 1.975793901846201e+000	 3.615329528798024e+000	 2.046582637297570e+000
1	 1.936586820673828e+000	 3.636481949700988e+000	 2.095861508827174e+000
1	 1.897216968251039e+000	 3.657176164581797e+000	 2.131090539840646e+000
1	 1.857692166895753e+000	 3.677410729713860e+000	 2.150451304361041e+000
1	 1.818020242103209e+000	 3.697184374688481e+000	 2.152187532137607e+000
1	 1.778209017882060e+000	 3.716496001704045e+000	 2.134607121731264e+000
1	 1.738266312139771e+000	 3.735344684709383e+000	 2.096084020143293e+000
1	 1.698199932122467e+000	 3.753729668404155e+000	 2.035059967183083e+000
1	 1.658017669914180e+000	 3.771650367099296e+000	 1.950046103128498e+000
1	 1.617727298000268e+000	 3.789106363440732e+000	 1.839624438587733e+000
1	 2.027872035489354e+000	 3.616982032068171e+000	 1.853914220871590e+000
1	 1.988582863720177e+000	 3.638730912653521e+000	 1.909377587565750e+000
1	 1.949122002097276e+000	 3.660020249408020e+000	 1.953570418715374e+000
1	 1.909497315634706e+000	 3.680848414254348e+000	 1.984627017968397e+000
1	 1.869716677282848e+000	 3.701213954120939e+000	 2.000744599658127e+000
1	 1.829787963189973e+000	 3.721115590375979e+000	 2.000185401358691e+000
1	 1.789719048008136e+000	 3.740552218111991e+000	 1.981278659944092e+000
1	 1.749517800248717e+000	 3.759522905283656e+000	 1.942422449132631e+000
1	 1.709192077692748e+000	 3.778026891701722e+000	 1.882085376867782e+000
1	 1.668749722861022e+000	 3.796063587886068e+000	 1.798808141254636e+000
1	 1.628198558548805e+000	 3.813632573781181e+000	 1.691204944135372e+000
1	 2.040913673643154e+000	 3.640243544656117e+000	 1.724452060679243e+000
1	 2.001371825594157e+000	 3.662132296508555e+000	 1.773752584117826e+000
1	 1.961657183520769e+000	 3.683558549114604e+000	 1.812634281607521e+000
1	 1.921777663018466e+000	 3.704520663926468e+000	 1.839275109664077e+000
1	 1.881741187670086e+000	 3.725017178527611e+000	 1.851918516843087e+000
1	 1.841555684276927e+000	 3.745046806063103e+000	 1.848875475554895e+000
1	 1.801229078134447e+000	 3.764608434519604e+000	 1.828526373461875e+000
1	 1.760769288357938e+000	 3.783701125857639e+000	 1.789322762663586e+000
1	 1.720184223263335e+000	 3.802324114999045e+000	 1.729788965250946e+000
1	 1.679481775808191e+000	 3.820476808672654e+000	 1.648523534183607e+000
1	 1.638669819097675e+000	 3.838158784121502e+000	 1.544200568813912e+000
1	 2.053955311797024e+000	 3.663505057243499e+000	 1.596888009665900e+000
1	 2.014160787468252e+000	 3.685533680363033e+000	 1.639895014361438e+000
1	 1.974192364944430e+000	 3.707096848820648e+000	 1.673284387887034e+000
1	 1.934058010402449e+000	 3.728192913598081e+000	 1.695308096540487e+000
1	 1.893765698057606e+000	 3.748820402933820e+000	 1.704285867033765e+000
1	 1.853323405364218e+000	 3.768978021749815e+000	 1.698607089146064e+000
1	 1.812739108261148e+000	 3.788664650926862e+000	 1.676732575306142e+000
1	 1.772020776467593e+000	 3.807879346431334e+000	 1.637196175612005e+000
1	 1.731176368834391e+000	 3.826621338296152e+000	 1.578606247172852e+000
1	 1.690213828755852e+000	 3.844890029459100e+000	 1.499646977031992e+000
1	 1.649141079647045e+000	 3.862684994461763e+000	 1.399079558298044e+000
1	 1.544428474155829e+000	 3.617422891048259e+000	 2.876184836830570e+000
1	 1.505862044005179e+000	 3.633646475212943e+000	 2.730524332434502e+000
1	 1.467207146887432e+000	 3.649425961916560e+000	 2.558149041409418e+000
1	 1.428471127328698e+000	 3.664761429167448e+000	 2.359019554972638e+000
1	 1.389661294793495e+000	 3.679653109660585e+000	 2.133220088620713e+000
1	 1.350784919814787e+000	 3.694101388953216e+000	 1.880956879680619e+000
1	 1.311849230209201e+000	 3.708106803531543e+000	 1.602556405236904e+000
1	 1.272861407380663e+000	 3.721670038772552e+000	 1.298463427244512e+000
1	 1.233828582715532e+000	 3.734791926805090e+000	 9.692388719095265e-001
1	 1.194757834072111e+000	 3.747473444274481e+000	 6.155575506664840e-001
1	 1.155656182367169e+000	 3.759715710014934e+000	 2.382057303001758e-001
1	 1.554899734706702e+000	 3.641949101391516e+000	 2.732047867485066e+000
1	 1.516071823273362e+000	 3.658282681829495e+000	 2.586567339122105e+000
1	 1.477154845064890e+000	 3.674169153815358e+000	 2.415441041710789e+000
1	 1.438156194403447e+000	 3.689608595886352e+000	 2.218915540843217e+000
1	 1.399083230311878e+000	 3.704601242315142e+000	 1.997355982894288e+000
1	 1.359943272617522e+000	 3.719147481273074e+000	 1.751244098935829e+000
1	 1.320743598141761e+000	 3.733247852883756e+000	 1.481176044678863e+000
1	 1.281491436978598e+000	 3.746903047171049e+000	 1.187860083717692e+000
1	 1.242193968865346e+000	 3.760113901905669e+000	 8.721141215744751e-001
1	 1.202858319648345e+000	 3.772881400354630e+000	 5.348630982399519e-001
1	 1.163491557846333e+000	 3.785206668937872e+000	 1.771362470774423e-001
1	 1.565370995256741e+000	 3.666475311734168e+000	 2.585683071100597e+000
1	 1.526281602540710e+000	 3.682918888445374e+000	 2.440928382750306e+000
1	 1.487102543241513e+000	 3.698912345713429e+000	 2.271705634331577e+000
1	 1.447841261477359e+000	 3.714455762604492e+000	 2.078517893305957e+000
1	 1.408505165829424e+000	 3.729549374968920e+000	 1.861980619003402e+000
1	 1.369101625419422e+000	 3.744193573592156e+000	 1.622819339787264e+000
1	 1.329637966073492e+000	 3.758388902235207e+000	 1.361867182624720e+000
1	 1.290121466575712e+000	 3.772136055568817e+000	 1.080062262651944e+000
1	 1.250559355014358e+000	 3.785435877005572e+000	 7.784449405008952e-001
1	 1.210958805223801e+000	 3.798289356434168e+000	 4.581549553060267e-001
1	 1.171326933324751e+000	 3.810697627860288e+000	 1.204284414337023e-001
1	 1.575842255806114e+000	 3.691001522076283e+000	 2.437653094029960e+000
1	 1.536491381807390e+000	 3.707555095060664e+000	 2.294172249698387e+000
1	 1.497050241417462e+000	 3.723655537610877e+000	 2.127489030883154e+000
1	 1.457526328550590e+000	 3.739302929321990e+000	 1.938334152937438e+000
1	 1.417927101346283e+000	 3.754497507622050e+000	 1.727543402043595e+000
1	 1.378259978220630e+000	 3.769239665910598e+000	 1.496055051737517e+000
1	 1.338532334004527e+000	 3.783529951586039e+000	 1.244907148936766e+000
1	 1.298751496172133e+000	 3.797369063966007e+000	 9.752346772294699e-001
1	 1.258924741162678e+000	 3.810757852104945e+000	 6.882666053136383e-001
1	 1.219059290798574e+000	 3.823697312513241e+000	 3.853228285833642e-001
1	 1.179162308802503e+000	 3.836188586782309e+000	 6.781101193971754e-002
1	 1.586313516354986e+000	 3.715527732417929e+000	 2.288505726504197e+000
1	 1.546701161073566e+000	 3.732191301675452e+000	 2.146848813718714e+000
1	 1.506997939592899e+000	 3.748398729507804e+000	 1.983323020798490e+000
1	 1.467211395623298e+000	 3.764150096038961e+000	 1.798858459206430e+000
1	 1.427349036862606e+000	 3.779445640274658e+000	 1.594481871012679e+000
1	 1.387418331021288e+000	 3.794285758228537e+000	 1.371313850128084e+000
1	 1.347426701935000e+000	 3.808671000936399e+000	 1.130565950856444e+000
1	 1.307381525767979e+000	 3.822602072362762e+000	 8.735376915439866e-001
1	 1.267290127310417e+000	 3.836079827203932e+000	 6.016134611936452e-001
1	 1.227159776372762e+000	 3.849105268591987e+000	 3.162593369765702e-001
1	 1.186997684279672e+000	 3.861679545704069e+000	 1.901982061353595e-002
1	 1.596784776903525e+000	 3.740053942759174e+000	 2.138774389743691e+000
1	 1.556910940339404e+000	 3.756827508289827e+000	 1.999493524900528e+000
1	 1.516945637767987e+000	 3.773141921404314e+000	 1.839725444214840e+000
1	 1.476896462695642e+000	 3.788997262755524e+000	 1.660571989877137e+000
1	 1.436770972378545e+000	 3.804393772926877e+000	 1.463222087883179e+000
1	 1.396576683821540e+000	 3.819331850546112e+000	 1.248948838587388e+000
1	 1.356321069865043e+000	 3.833812050286429e+000	 1.019106513102640e+000
1	 1.316011555363373e+000	 3.847835080759229e+000	 7.751274632011502e-001
1	 1.275655513457684e+000	 3.861401802302679e+000	 5.185189524187451e-001
1	 1.235260261946462e+000	 3.874513224670545e+000	 2.508599160897806e-001
1	 1.194833059756341e+000	 3.887170504625702e+000	-2.620234195877486e-002
1	 1.607256037451896e+000	 3.764580153100085e+000	 1.988978604028063e+000
1	 1.567120719605069e+000	 3.781463714903873e+000	 1.852627879520178e+000
1	 1.526893335942890e+000	 3.797885113300513e+000	 1.697200646371477e+000
1	 1.486581529767779e+000	 3.813844429471796e+000	 1.523943383236218e+000
1	 1.446192907894250e+000	 3.829341905578835e+000	 1.334179011465983e+000
1	 1.405735036621528e+000	 3.844377942863460e+000	 1.129303918874490e+000
1	 1.365215437794790e+000	 3.858953099636274e+000	 9.107849085845535e-001
1	 1.324641584958439e+000	 3.873068089155554e+000	 6.801560803446692e-001
1	 1.284020899604590e+000	 3.886723777401333e+000	 4.390156517104764e-001
1	 1.243360747519771e+000	 3.899921180749059e+000	 1.890227264727336e-001
1	 1.202668435232591e+000	 3.912661463547339e+000	-6.810598232089053e-002
1	 1.617727298000268e+000	 3.789106363440732e+000	 1.839624438587733e+000
1	 1.577330498870728e+000	 3.806099921517680e+000	 1.706759871643798e+000
1	 1.536841034117768e+000	 3.822628305196501e+000	 1.556239914359991e+000
1	 1.496266596839867e+000	 3.838691596187896e+000	 1.389429143921669e+000
1	 1.455614843409874e+000	 3.854290038230659e+000	 1.207756856754199e+000
1	 1.414893389421396e+000	 3.869424035180721e+000	 1.012714088689382e+000
1	 1.374109805724376e+000	 3.884094148986077e+000	 8.058505801544020e-001
1	 1.333271614553298e+000	 3.898301097551884e+000	 5.887716933608844e-001
1	 1.292386285751244e+000	 3.912045752500035e+000	 3.631352884412869e-001
1	 1.251461233092784e+000	 3.925329136827668e+000	 1.306485654304109e-001
1	 1.210503810708504e+000	 3.938152422469113e+000	-1.069351210786498e-001
1	 1.628198558548805e+000	 3.813632573781181e+000	 1.691204944135372e+000
1	 1.587540278136545e+000	 3.830736128131332e+000	 1.562384427303944e+000
1	 1.546788732292785e+000	 3.847371497092383e+000	 1.417321897021669e+000
1	 1.505951663912061e+000	 3.863538762903940e+000	 1.257474033092162e+000
1	 1.465036778925567e+000	 3.879238170882482e+000	 1.084349440401050e+000
1	 1.424051742221288e+000	 3.894470127498032e+000	 8.995057279915585e-001
1	 1.383004173653933e+000	 3.909235198335982e+000	 7.045465538033284e-001
1	 1.341901644148074e+000	 3.923534105948366e+000	 5.011186415011202e-001
1	 1.300751671897757e+000	 3.937367727598935e+000	 2.909087757532259e-001
1	 1.259561718665599e+000	 3.950737092906512e+000	 7.564078223560293e-002
1	 1.218339186184163e+000	 3.963643381391156e+000	-1.429275014616143e-001
1	 1.638669819097675e+000	 3.838158784121502e+000	 1.544200568813912e+000
1	 1.597750057402686e+000	 3.855372334744917e+000	 1.419983822029591e+000
1	 1.556736430468104e+000	 3.872114688988262e+000	 1.280913008745716e+000
1	 1.515636730984523e+000	 3.888385929620046e+000	 1.128511443636803e+000
1	 1.474458714441479e+000	 3.904186303534432e+000	 9.643405129518473e-001
1	 1.433210095021344e+000	 3.919516219815531e+000	 7.899968743410605e-001
1	 1.391898541583594e+000	 3.934376247686132e+000	 6.071096436832041e-001
1	 1.350531673742887e+000	 3.948767114345144e+000	 4.173375746493343e-001
1	 1.309117058044239e+000	 3.962689702698176e+000	 2.223662366368925e-001
1	 1.267662204238311e+000	 3.976145048985732e+000	 2.390519659231747e-002
1	 1.226174561659649e+000	 3.989134340313600e+000	-1.763147898883208e-001
1	 1.649141079647045e+000	 3.862684994461763e+000	 1.399079558298044e+000
1	 1.607959836669317e+000	 3.880008541358522e+000	 1.280028082469484e+000
1	 1.566684128643885e+000	 3.896857880884244e+000	 1.147467817883936e+000
1	 1.525321798057408e+000	 3.913233096336334e+000	 1.002963761090620e+000
1	 1.483880649957763e+000	 3.929134436186638e+000	 8.481040784189265e-001
1	 1.442368447821710e+000	 3.944562312133359e+000	 6.844974877497511e-001
1	 1.400792909513493e+000	 3.959517297036671e+000	 5.137706493177393e-001
1	 1.359161703337863e+000	 3.974000122742366e+000	 3.375655704506977e-001
1	 1.317482444190801e+000	 3.988011677797904e+000	 1.575370290168939e-001
1	 1.275762689811018e+000	 4.001553005065471e+000	-2.464997979450840e-002
1	 1.234009937135045e+000	 4.014625299236578e+000	-2.073227688904942e-001
1	 1.155656182367169e+000	 3.759715710014934e+000	 2.382057303001758e-001
1	 1.116530587703505e+000	 3.771519981695344e+000	-1.598334858228268e-001
1	 1.077387944538932e+000	 3.782887650511029e+000	-5.751061315495802e-001
1	 1.038235080352055e+000	 3.793820241437709e+000	-1.006004514100817e+000
1	 9.990787532115453e-001	 3.804319411526238e+000	-1.450878962359597e+000
1	 9.599256488797626e-001	 3.814386947187074e+000	-1.908040487288983e+000
1	 9.207823780247851e-001	 3.824024761409275e+000	-2.375763457035920e+000
1	 8.816554735420569e-001	 3.833234890918529e+000	-2.852288281411202e+000
1	 8.425513879866883e-001	 3.842019493278808e+000	-3.335824100542798e+000
1	 8.034764911172414e-001	 3.850380843942109e+000	-3.824551472618633e+000
1	 7.644370675516263e-001	 3.858321333250832e+000	-4.316625055764257e+000
1	 1.163491557846333e+000	 3.785206668937872e+000	 1.771362470774423e-001
1	 1.124100690751761e+000	 3.797090973851327e+000	-1.983054130575013e-001
1	 1.084692659567023e+000	 3.808535715722647e+000	-5.883709804108160e-001
1	 1.045274338061189e+000	 3.819542429866925e+000	-9.914351466187674e-001
1	 1.005852530122790e+000	 3.830112784569851e+000	-1.405841601455250e+000
1	 9.664339668438114e-001	 3.840248578353792e+000	-1.829905515600715e+000
1	 9.270253037128128e-001	 3.849951737177909e+000	-2.261916024136406e+000
1	 8.876331179184214e-001	 3.859224311576942e+000	-2.700138706142878e+000
1	 8.482639057642203e-001	 3.868068473743193e+000	-3.142818055902378e+000
1	 8.089240801958820e-001	 3.876486514556273e+000	-3.588179941333832e+000
1	 7.696199684411721e-001	 3.884480840565159e+000	-4.034434045427924e+000
1	 1.171326933324751e+000	 3.810697627860288e+000	 1.204284414337023e-001
1	 1.131670793799310e+000	 3.822661966006884e+000	-2.322624768775229e-001
1	 1.091997374594454e+000	 3.834183780933947e+000	-5.972365004176301e-001
1	 1.052313595769715e+000	 3.845264618295934e+000	-9.728559544159998e-001
1	 1.012626307033486e+000	 3.855906157613378e+000	-1.357461927739903e+000
1	 9.729422848073700e-001	 3.866110209520529e+000	-1.749376597489081e+000
1	 9.332682294004113e-001	 3.875878712946665e+000	-2.146905541839755e+000
1	 8.936107622944156e-001	 3.885213732235561e+000	-2.548340037130227e+000
1	 8.539764235414393e-001	 3.894117454207846e+000	-2.951959335312977e+000
1	 8.143716692742630e-001	 3.902592185170743e+000	-3.356032918037053e+000
1	 7.748028693305061e-001	 3.910640347879802e+000	-3.758822723771187e+000
1	 1.179162308802503e+000	 3.836188586782309e+000	 6.781101193971754e-002
1	 1.139240896846218e+000	 3.848232958162135e+000	-2.621351310332741e-001
1	 1.099302089621277e+000	 3.859831846145037e+000	-6.022736053947480e-001
1	 1.059352853477670e+000	 3.870986806724833e+000	-9.509596166055149e-001
1	 1.019400083943650e+000	 3.881699530656881e+000	-1.306535704167221e+000
1	 9.794506027704419e-001	 3.891971840687340e+000	-1.667333927256269e+000
1	 9.395111550875679e-001	 3.901805688715573e+000	-2.031678027601001e+000
1	 8.995884066700155e-001	 3.911203152894399e+000	-2.397885566133023e+000
1	 8.596889413183100e-001	 3.920166434672770e+000	-2.764270030086331e+000
1	 8.198192583523397e-001	 3.928697855785512e+000	-3.129142907366528e+000
1	 7.799857702195771e-001	 3.936799855194743e+000	-3.490815725164917e+000
1	 1.186997684279672e+000	 3.861679545704069e+000	 1.901982061353595e-002
1	 1.146810999892553e+000	 3.873803950317198e+000	-2.883424635677795e-001
1	 1.106606804647542e+000	 3.885479911356019e+000	-6.040381347498481e-001
1	 1.066392111185087e+000	 3.896708995153701e+000	-9.264205227909819e-001
1	 1.026173860853301e+000	 3.907492903700438e+000	-1.253837682354501e+000
1	 9.859589207330294e-001	 3.917833471854272e+000	-1.584634458541689e+000
1	 9.457540807742724e-001	 3.927732664484666e+000	-1.917154520217099e+000
1	 9.055660510451961e-001	 3.937192573553473e+000	-2.249742358021705e+000
1	 8.654014590947963e-001	 3.946215415137962e+000	-2.580745244221377e+000
1	 8.252668474300681e-001	 3.954803526400567e+000	-2.908515151694405e+000
1	 7.851686711083348e-001	 3.962959362509964e+000	-3.231410629520856e+000
1	 1.194833059756341e+000	 3.887170504625702e+000	-2.620234195877486e-002
1	 1.154381102938380e+000	 3.899374942472197e+000	-3.112925694820950e-001
1	 1.113911519673297e+000	 3.911127976566997e+000	-6.030713477422457e-001
1	 1.073431368892000e+000	 3.922431183582631e+000	-8.998953727536746e-001
1	 1.032947637762457e+000	 3.933286276744112e+000	-1.200122291514414e+000
1	 9.924672386951353e-001	 3.943695103021376e+000	-1.502112666350217e+000
1	 9.519970064605124e-001	 3.953659640253977e+000	-1.804231898841553e+000
1	 9.115436954199336e-001	 3.963181994212798e+000	-2.104852110719867e+000
1	 8.711139768708629e-001	 3.972264395603426e+000	-2.402353979279858e+000
1	 8.307144365074037e-001	 3.980909197015899e+000	-2.695128525017601e+000
1	 7.903515719967293e-001	 3.989118869825450e+000	-2.981578849368805e+000
1	 1.202668435232591e+000	 3.912661463547339e+000	-6.810598232089053e-002
1	 1.161951205983767e+000	 3.924945934627250e+000	-3.313829088331530e-001
1	 1.121216234698595e+000	 3.936776041778079e+000	-5.999003984305708e-001
1	 1.080470626598442e+000	 3.948153372011706e+000	-8.720237526977176e-001
1	 1.039721414671136e+000	 3.959079649787976e+000	-1.146124300456494e+000
1	 9.989755566567614e-001	 3.969556734188701e+000	-1.420581279292785e+000
1	 9.582399321462762e-001	 3.979586616023536e+000	-1.693783669983884e+000
1	 9.175213397942027e-001	 3.989171414872387e+000	-1.964131981531465e+000
1	 8.768264946464748e-001	 3.998313376069162e+000	-2.230039984672133e+000
1	 8.361620255843021e-001	 4.007014867631495e+000	-2.489936391906662e+000
1	 7.955344728847096e-001	 4.015278377141183e+000	-2.742266482258116e+000
1	 1.210503810708504e+000	 3.938152422469113e+000	-1.069351210786498e-001
1	 1.169521309028779e+000	 3.950516926782475e+000	-3.490006509242042e-001
1	 1.128520949723485e+000	 3.962424106989368e+000	-5.950387921749842e-001
1	 1.087509884304450e+000	 3.973875560441019e+000	-8.434286891157095e-001
1	 1.046495191579356e+000	 3.984873022832095e+000	-1.092559453878552e+000
1	 1.005483874617912e+000	 3.995418365356301e+000	-1.340831983388979e+000
1	 9.644828578315521e-001	 4.005513591793374e+000	-1.586660723944326e+000
1	 9.234989841679795e-001	 4.015160835532258e+000	-1.828475381376114e+000
1	 8.825390124215962e-001	 4.024362356535170e+000	-2.064722574920592e+000
1	 8.416096146607194e-001	 4.033120538247348e+000	-2.293867433095524e+000
1	 8.007173737722254e-001	 4.041437884457145e+000	-2.514395130054435e+000
1	 1.218339186184163e+000	 3.963643381391156e+000	-1.429275014616143e-001
1	 1.177091412073484e+000	 3.976087918937997e+000	-3.645230052139890e-001
1	 1.135825664748019e+000	 3.988072172200968e+000	-5.889868245242886e-001
1	 1.094549142010054e+000	 3.999597748870652e+000	-8.147171812822457e-001
1	 1.053268968487136e+000	 4.010666395876541e+000	-1.040125084105340e+000
1	 1.011992192578588e+000	 4.021279996524220e+000	-1.263636098711950e+000
1	 9.707257835163287e-001	 4.031440567563524e+000	-1.483692062059936e+000
1	 9.294766285412390e-001	 4.041150256192425e+000	-1.698752738377008e+000
1	 8.882515301961914e-001	 4.050411337001454e+000	-1.907297415387103e+000
1	 8.470572037366110e-001	 4.059226208863447e+000	-2.107826439214210e+000
1	 8.059002746592268e-001	 4.067597391773322e+000	-2.298862686622160e+000
1	 1.226174561659649e+000	 3.989134340313600e+000	-1.763147898883208e-001
1	 1.184661515117946e+000	 4.001658911093932e+000	-3.783175395385275e-001
1	 1.143130379772245e+000	 4.013720237412986e+000	-5.822320032757666e-001
1	 1.101588399715292e+000	 4.025319937300696e+000	-7.864807133312873e-001
1	 1.060042745394492e+000	 4.036459768921380e+000	-9.895006993728485e-001
1	 1.018500510538793e+000	 4.047141627692513e+000	-1.189745230090292e+000
1	 9.769687092005943e-001	 4.057367543334020e+000	-1.385685496067643e+000
1	 9.354542729139564e-001	 4.067139676852902e+000	-1.575812232172557e+000
1	 8.939640479702249e-001	 4.076460317468011e+000	-1.758637277875237e+000
1	 8.525047928119328e-001	 4.085331879479782e+000	-1.932695074089362e+000
1	 8.110831755456627e-001	 4.093756899089693e+000	-2.096544095306704e+000
1	 1.234009937135045e+000	 4.014625299236578e+000	-2.073227688904942e-001
1	 1.192231618162235e+000	 4.027229903250403e+000	-3.907424862096897e-001
1	 1.150435094796215e+000	 4.039368302625527e+000	-5.752494544558146e-001
1	 1.108627657420195e+000	 4.051042125731239e+000	-7.592957468249350e-001
1	 1.066816522301443e+000	 4.062253141966685e+000	-9.413485497006183e-001
1	 1.025008828498531e+000	 4.073003258861230e+000	-1.119891893020045e+000
1	 9.832116348843374e-001	 4.083294519104892e+000	-1.293428320823524e+000
1	 9.414319172861082e-001	 4.093129097513706e+000	-1.460480500252644e+000
1	 8.996765657436613e-001	 4.102509297934844e+000	-1.619592767446193e+000
1	 8.579523818866406e-001	 4.111437550096344e+000	-1.769332608965113e+000
1	 8.162660764314832e-001	 4.119916406406245e+000	-1.908292077558732e+000
1	 7.644370675516263e-001	 3.858321333250832e+000	-4.316625055764257e+000
1	 7.254451589814354e-001	 3.865842366926856e+000	-4.818634699621853e+000
1	 6.865010045823983e-001	 3.872947779998714e+000	-5.332131347066376e+000
1	 6.476106092149704e-001	 3.879640291078204e+000	-5.847419036884010e+000
1	 6.087798846073803e-001	 3.885922721176180e+000	-6.354744684193336e+000
1	 5.700146475776188e-001	 3.891797990537994e+000	-6.844313998092764e+000
1	 5.313206183671851e-001	 3.897269115457639e+000	-7.306307081557538e+000
1	 4.927034190860264e-001	 3.902339205074782e+000	-7.730893692881824e+000
1	 4.541685722679184e-001	 3.907011458158686e+000	-8.108248149350182e+000
1	 4.157214995353986e-001	 3.911289159882991e+000	-8.428563855218178e+000
1	 3.773675203732346e-001	 3.915175678595245e+000	-8.682067437477649e+000
1	 7.696199684411721e-001	 3.884480840565159e+000	-4.034434045427924e+000
1	 7.303636938346297e-001	 3.892052867022554e+000	-4.487121919475321e+000
1	 6.911554971736030e-001	 3.899206454958563e+000	-4.947201630531378e+000
1	 6.520014240316410e-001	 3.905944341417220e+000	-5.405751143113998e+000
1	 6.129074262186264e-001	 3.912269366535887e+000	-5.853800190228597e+000
1	 5.738793599907122e-001	 3.918184470359234e+000	-6.282344871833683e+000
1	 5.349229843727678e-001	 3.923692689631786e+000	-6.682361955411881e+000
1	 4.960439595927762e-001	 3.928797154573237e+000	-7.044822859822649e+000
1	 4.572478456274206e-001	 3.933501085640565e+000	-7.360707304896143e+000
1	 4.185401008579657e-001	 3.937807790280956e+000	-7.621016610516084e+000
1	 3.799260808354098e-001	 3.941720659679418e+000	-7.816786630228432e+000
1	 7.748028693305061e-001	 3.910640347879802e+000	-3.758822723771187e+000
1	 7.352822286876530e-001	 3.918263367118544e+000	-4.164900767735598e+000
1	 6.958099897646695e-001	 3.925465129918650e+000	-4.574697289420688e+000
1	 6.563922388481979e-001	 3.932248391756403e+000	-4.980038350101991e+000
1	 6.170349678297755e-001	 3.938616011895684e+000	-5.372709940017115e+000
1	 5.777440724037148e-001	 3.944570950180484e+000	-5.744471306282208e+000
1	 5.385253503782560e-001	 3.950116263805866e+000	-6.087068002674911e+000
1	 4.993845000994172e-001	 3.955255104071564e+000	-6.392244644254732e+000
1	 4.603271189867887e-001	 3.959990713122276e+000	-6.651757350972789e+000
1	 4.213587021803617e-001	 3.964326420678744e+000	-6.857385865607763e+000
1	 3.824846412973639e-001	 3.968265640763441e+000	-7.000945332548993e+000
1	 7.799857702195771e-001	 3.936799855194743e+000	-3.490815725164917e+000
1	 7.402007635404505e-001	 3.944473867214804e+000	-3.852969084366215e+000
1	 7.004644823555437e-001	 3.951723804878959e+000	-4.215570077806934e+000
1	 6.607830536645897e-001	 3.958552442095747e+000	-4.571167572430867e+000
1	 6.211625094407802e-001	 3.964962657255565e+000	-4.912277802313882e+000
1	 5.816087848165875e-001	 3.970957430001741e+000	-5.231396473993957e+000
1	 5.421277163836210e-001	 3.976539837979888e+000	-5.521010613337197e+000
1	 5.027250406059334e-001	 3.981713053569776e+000	-5.773610138621423e+000
1	 4.634063923460216e-001	 3.986480340603840e+000	-5.981699145599630e+000
1	 4.241773035026020e-001	 3.990845051076375e+000	-6.137806891390879e+000
1	 3.850432017591321e-001	 3.994810621847332e+000	-6.234498465127796e+000
1	 7.851686711083348e-001	 3.962959362509964e+000	-3.231410629520855e+000
1	 7.451192983929696e-001	 3.970684367311316e+000	-3.552298362351831e+000
1	 7.051189749461714e-001	 3.977982479839472e+000	-3.870746619636479e+000
1	 6.651738684807651e-001	 3.984856492435232e+000	-4.180002306580027e+000
1	 6.252900510515949e-001	 3.991309302615523e+000	-4.473286420513677e+000
1	 5.854734972292921e-001	 3.997343909823010e+000	-4.743804980948069e+000
1	 5.457300823888345e-001	 4.002963412153861e+000	-4.984759720745004e+000
1	 5.060655811123092e-001	 4.008171003067890e+000	-5.189358524715489e+000
1	 4.664856657051182e-001	 4.012969968085276e+000	-5.350825602936777e+000
1	 4.269959048247031e-001	 4.017363681473869e+000	-5.462411387067788e+000
1	 3.876017622207496e-001	 4.021355602931107e+000	-5.517402138926607e+000
1	 7.903515719967293e-001	 3.989118869825450e+000	-2.981578849368805e+000
1	 7.500378332451563e-001	 3.996894867408061e+000	-3.263834611578072e+000
1	 7.097734675364987e-001	 4.004241154800174e+000	-3.541129232710578e+000
1	 6.695646832966722e-001	 4.011160542774849e+000	-3.807383398771844e+000
1	 6.294175926621726e-001	 4.017655947975553e+000	-4.056497908600365e+000
1	 5.893382096417900e-001	 4.023730389644293e+000	-4.282363475318683e+000
1	 5.493324483938681e-001	 4.029386986327793e+000	-4.478870308401492e+000
1	 5.094061216185285e-001	 4.034628952565923e+000	-4.639917464212494e+000
1	 4.695649390640774e-001	 4.039459595566599e+000	-4.759421953752971e+000
1	 4.298145061466805e-001	 4.043882311871244e+000	-4.831327597256359e+000
1	 3.901603226822515e-001	 4.047900584014783e+000	-4.849613616153295e+000
1	 7.955344728847096e-001	 4.015278377141183e+000	-2.742266482258116e+000
1	 7.549563680969569e-001	 4.023105367505020e+000	-2.988499188942603e+000
1	 7.144279601264719e-001	 4.030499829761045e+000	-3.227596720457024e+000
1	 6.739554981122601e-001	 4.037464593114587e+000	-3.454129782802867e+000
1	 6.335451342724675e-001	 4.044002593335647e+000	-3.662654519891780e+000
1	 5.932029220540419e-001	 4.050116869465589e+000	-3.847721232449856e+000
1	 5.529348143986934e-001	 4.055810560501691e+000	-4.003882896957411e+000
1	 5.127466621245758e-001	 4.061086902063884e+000	-4.125703473938145e+000
1	 4.726442124228987e-001	 4.065949223047830e+000	-4.207765995711732e+000
1	 4.326331074685508e-001	 4.070400942268520e+000	-4.244680424523121e+000
1	 3.927188831436725e-001	 4.074445565098373e+000	-4.231091272760206e+000
1	 8.007173737722254e-001	 4.041437884457145e+000	-2.514395130054435e+000
1	 7.598749029483174e-001	 4.049315867602173e+000	-2.727189596227030e+000
1	 7.190824527160368e-001	 4.056758504722065e+000	-2.931005132951998e+000
1	 6.783463129274767e-001	 4.063768643454428e+000	-3.121039189219967e+000
1	 6.376726758824334e-001	 4.070349238695802e+000	-3.292479289812431e+000
1	 5.970676344660097e-001	 4.076503349286900e+000	-3.440510717111731e+000
1	 5.565371804032823e-001	 4.082234134675567e+000	-3.560324012288460e+000
1	 5.160872026304350e-001	 4.087544851561791e+000	-3.647122286561518e+000
1	 4.757234857815805e-001	 4.092438850528989e+000	-3.696128333937333e+000
1	 4.354517087903297e-001	 4.096919572665722e+000	-3.702591537545791e+000
1	 3.952774436050484e-001	 4.100990546181900e+000	-3.661794562398882e+000
1	 8.059002746592268e-001	 4.067597391773322e+000	-2.298862686622160e+000
1	 7.647934377991849e-001	 4.075526367699502e+000	-2.480780247181297e+000
1	 7.237369453051394e-001	 4.083017179683221e+000	-2.652188498576076e+000
1	 6.827371277422707e-001	 4.090072693794364e+000	-2.808888827131360e+000
1	 6.418002174920232e-001	 4.096695884056009e+000	-2.946676653863476e+000
1	 6.009323468776550e-001	 4.102889829108227e+000	-3.061348124060780e+000
1	 5.601395464076058e-001	 4.108657708849426e+000	-3.148706635510857e+000
1	 5.194277431360902e-001	 4.114002801059661e+000	-3.204569197370086e+000
1	 4.788027591401222e-001	 4.118928478010091e+000	-3.224772612297888e+000
1	 4.382703101120333e-001	 4.123438203062862e+000	-3.205179475102305e+000
1	 3.978360040664137e-001	 4.127535527265377e+000	-3.141683981765804e+000
1	 8.110831755456627e-001	 4.093756899089693e+000	-2.096544095306704e+000
1	 7.697119726495051e-001	 4.101736867796985e+000	-2.250123205197609e+000
1	 7.283914378937261e-001	 4.109275854644495e+000	-2.391959527618189e+000
1	 6.871279425565910e-001	 4.116376744134380e+000	-2.518436039876676e+000
1	 6.459277591011915e-001	 4.123042529416265e+000	-2.625933041899403e+000
1	 6.047970592889386e-001	 4.129276308929572e+000	-2.710833897874797e+000
1	 5.637419124116360e-001	 4.135081283023280e+000	-2.769530635743017e+000
1	 5.227682836415258e-001	 4.140460750557502e+000	-2.798429397749203e+000
1	 4.818820324985227e-001	 4.145418105491159e+000	-2.793955735820988e+000
1	 4.410889114336774e-001	 4.149956833459963e+000	-2.752559746072613e+000
1	 4.003945645278038e-001	 4.154080508348820e+000	-2.670721037276698e+000
1	 8.162660764314832e-001	 4.119916406406245e+000	-1.908292077558732e+000
1	 7.746305074992251e-001	 4.127947367894609e+000	-2.036048892881071e+000
1	 7.330459304817425e-001	 4.135534529605869e+000	-2.151110289074293e+000
1	 6.915187573703857e-001	 4.142680794474465e+000	-2.250418935717726e+000
1	 6.500553007098910e-001	 4.149389174776561e+000	-2.330917449764480e+000
1	 6.086617716998224e-001	 4.155662788750935e+000	-2.389553232983535e+000
1	 5.673442784153442e-001	 4.161504857197135e+000	-2.423283186380340e+000
1	 5.261088241467260e-001	 4.166918700055335e+000	-2.429078295957010e+000
1	 4.849613058567812e-001	 4.171907732972209e+000	-2.403928084635866e+000
1	 4.439075127552784e-001	 4.176475463857045e+000	-2.344844925630924e+000
1	 4.029531249892538e-001	 4.180625489432248e+000	-2.248868213010506e+000
1	 3.773675203732346e-001	 3.915175678595245e+000	-8.682067437477649e+000
1	 3.391061330280596e-001	 3.918674958673670e+000	-8.873673450025324e+000
1	 3.009482782972789e-001	 3.921789915098675e+000	-9.006225124127065e+000
1	 2.628990420740376e-001	 3.924524148878315e+000	-9.066981285511885e+000
1	 2.249634018290041e-001	 3.926881331380236e+000	-9.043226773339802e+000
1	 1.871462259189420e-001	 3.928865201095816e+000	-8.922290512035083e+000
1	 1.494522729974377e-001	 3.930479560421402e+000	-8.691563024153357e+000
1	 1.118861915258198e-001	 3.931728272459813e+000	-8.338513370103973e+000
1	 7.445251938222409e-002	 3.932615257845103e+000	-7.850705502267535e+000
1	 3.715568356668002e-002	 3.933144491593509e+000	-7.215814022735117e+000
1	 0.000000000000000e+000	 3.933319999983334e+000	-6.421639335544563e+000
1	 3.799260808354098e-001	 3.941720659679418e+000	-7.816786630228431e+000
1	 3.414052804044881e-001	 3.945243664957141e+000	-7.952733495257987e+000
1	 3.029887145414698e-001	 3.948379740858184e+000	-8.031204050889123e+000
1	 2.646815036219775e-001	 3.951132512805529e+000	-8.039795185217148e+000
1	 2.264886588640513e-001	 3.953505677058801e+000	-7.966130648764811e+000
1	 1.884150816320309e-001	 3.955502997456446e+000	-7.797878768493066e+000
1	 1.504655628432893e-001	 3.957128302175167e+000	-7.522769609730172e+000
1	 1.126447824758348e-001	 3.958385480509716e+000	-7.128611572238158e+000
1	 7.495730917472680e-002	 3.959278479676159e+000	-6.603307408328589e+000
1	 3.740759995516190e-002	 3.959811301641445e+000	-5.934869652597819e+000
1	 0.000000000000000e+000	 3.959987999982150e+000	-5.111435454473932e+000
1	 3.824846412973639e-001	 3.968265640763441e+000	-7.000945332548993e+000
1	 3.437044277806350e-001	 3.971812371240532e+000	-7.086914017435833e+000
1	 3.050291507853137e-001	 3.974969566617713e+000	-7.117193032382260e+000
1	 2.664639651695104e-001	 3.977740876732895e+000	-7.079823562315071e+000
1	 2.280139158986443e-001	 3.980130022737658e+000	-6.962872803042218e+000
1	 1.896839373446401e-001	 3.982140793817518e+000	-6.754451188613619e+000
1	 1.514788526886652e-001	 3.983777043929510e+000	-6.442729080086003e+000
1	 1.134033734254162e-001	 3.985042688560327e+000	-6.015952902325167e+000
1	 7.546209896688400e-002	 3.985941701508024e+000	-5.462460717128520e+000
1	 3.765951634344023e-002	 3.986478111690256e+000	-4.770697222567844e+000
1	 0.000000000000000e+000	 3.986655999981866e+000	-3.929228170033476e+000
1	 3.850432017591321e-001	 3.994810621847332e+000	-6.234498465127795e+000
1	 3.460035751565559e-001	 3.998381077523853e+000	-6.275982560177477e+000
1	 3.070695870288875e-001	 4.001559392377267e+000	-6.263771134636279e+000
1	 2.682464267167312e-001	 4.004349240660396e+000	-6.186453719008414e+000
1	 2.295391729328923e-001	 4.006754368416778e+000	-6.032643330596448e+000
1	 1.909527930568868e-001	 4.008778590178979e+000	-5.790993086664596e+000
1	 1.524921425336830e-001	 4.010425785684370e+000	-5.450212299028221e+000
1	 1.141619643746719e-001	 4.011699896611567e+000	-4.999082037131504e+000
1	 7.596688875878188e-002	 4.012604923340605e+000	-4.426470148267952e+000
1	 3.791143273156587e-002	 4.013144921739845e+000	-3.721345725159500e+000
1	 0.000000000000000e+000	 4.013323999982382e+000	-2.872793012636481e+000
1	 3.876017622207496e-001	 4.021355602931107e+000	-5.517402138926607e+000
1	 3.483027225323065e-001	 4.024949783807112e+000	-5.519712804880886e+000
1	 3.091100232722676e-001	 4.028149218136837e+000	-5.470528538024853e+000
1	 2.700288882637348e-001	 4.030957604588014e+000	-5.359089135178562e+000
1	 2.310644299669047e-001	 4.033378714096125e+000	-5.174653710607594e+000
1	 1.922216487688887e-001	 4.035416386540782e+000	-4.906516568688225e+000
1	 1.535054323784604e-001	 4.037074527439684e+000	-4.544022584492459e+000
1	 1.149205553237097e-001	 4.038357104663355e+000	-4.076582079798975e+000
1	 7.647167855050675e-002	 4.039268145173817e+000	-3.493685183556829e+000
1	 3.816334911958967e-002	 4.039811731790116e+000	-2.784915667319945e+000
1	 0.000000000000000e+000	 4.039991999983599e+000	-1.939964247628347e+000
1	 3.901603226822515e-001	 4.047900584014783e+000	-4.849613616153295e+000
1	 3.506018699079427e-001	 4.051518490090317e+000	-4.817884369474586e+000
1	 3.111504595155301e-001	 4.054739043896424e+000	-4.737066172842259e+000
1	 2.718113498106161e-001	 4.057565968515733e+000	-4.597148937942573e+000
1	 2.325896870007905e-001	 4.060003059775668e+000	-4.388136105835922e+000
1	 1.934905044807632e-001	 4.062054182902880e+000	-4.100059654037085e+000
1	 1.545187222231151e-001	 4.063723269195385e+000	-3.722994644417970e+000
1	 1.156791462726375e-001	 4.065014312715616e+000	-3.247073299898439e+000
1	 7.697646834214469e-002	 4.065931367007567e+000	-2.662498599324910e+000
1	 3.841526550756252e-002	 4.066478541840969e+000	-1.959557381343436e+000
1	 0.000000000000000e+000	 4.066659999985416e+000	-1.128632949450566e+000
1	 3.927188831436725e-001	 4.074445565098373e+000	-4.231091272760205e+000
1	 3.529010172835206e-001	 4.078087196373478e+000	-4.170282615035585e+000
1	 3.131908957587517e-001	 4.081328869656023e+000	-4.062995369125289e+000
1	 2.735938113574701e-001	 4.084174332443537e+000	-3.900067391945301e+000
1	 2.341149440346593e-001	 4.086627405455375e+000	-3.672342688855278e+000
1	 1.947593601926277e-001	 4.088691979265223e+000	-3.370685431249210e+000
1	 1.555320120677647e-001	 4.090372010951406e+000	-2.985993554219523e+000
1	 1.164377372215631e-001	 4.091671520768268e+000	-2.509211922734724e+000
1	 7.748125813378200e-002	 4.092594588841764e+000	-1.931345056104139e+000
1	 3.866718189553529e-002	 4.093145351892309e+000	-1.243469401812087e+000
1	 0.000000000000000e+000	 4.093327999987731e+000	-4.367451510855789e-001
1	 3.952774436050484e-001	 4.100990546181900e+000	-3.661794562398882e+000
1	 3.552001646590955e-001	 4.104655902656603e+000	-3.576698459917663e+000
1	 3.152313320020088e-001	 4.107918695415634e+000	-3.447937520075120e+000
1	 2.753762729043917e-001	 4.110782696371410e+000	-3.267293409447109e+000
1	 2.356402010686201e-001	 4.113251751135212e+000	-3.026544994453505e+000
1	 1.960282159045999e-001	 4.115329775627761e+000	-2.717481246706393e+000
1	 1.565453019125270e-001	 4.117020752707689e+000	-2.331913773971245e+000
1	 1.171963281705945e-001	 4.118328728821235e+000	-1.861688965671334e+000
1	 7.798604792550493e-002	 4.119257810676323e+000	-1.298699743083549e+000
1	 3.891909828355884e-002	 4.119812161944039e+000	-6.348969055710949e-001
1	 0.000000000000000e+000	 4.119995999990449e+000	 1.376999346283310e-001
1	 3.978360040664137e-001	 4.127535527265377e+000	-3.141683981765804e+000
1	 3.574993120347237e-001	 4.131224608939702e+000	-3.036928201051956e+000
1	 3.172717682453777e-001	 4.134508521175254e+000	-2.891523758466680e+000
1	 2.771587344514757e-001	 4.137391060299332e+000	-2.698290079315746e+000
1	 2.371654581027822e-001	 4.139876096815146e+000	-2.450033297021929e+000
1	 1.972970716167970e-001	 4.141967571990445e+000	-2.139557924599904e+000
1	 1.575585917575194e-001	 4.143669494464162e+000	-1.759678203514485e+000
1	 1.179549191198395e-001	 4.144985936874437e+000	-1.303229119357962e+000
1	 7.849083771739961e-002	 4.145921032511149e+000	-7.630770748707252e-001
1	 3.917101467168404e-002	 4.146478971996061e+000	-1.321302119011718e-001
1	 0.000000000000000e+000	 4.146663999993465e+000	 5.966516250478061e-001
1	 4.003945645278038e-001	 4.154080508348820e+000	-2.670721037276698e+000
1	 3.597984594104606e-001	 4.157793315222784e+000	-2.550773342098916e+000
1	 3.193122044889351e-001	 4.161098346934876e+000	-2.393394645464741e+000
1	 2.789411959988171e-001	 4.163999424227288e+000	-2.192534214077046e+000
1	 2.386907151372550e-001	 4.166500442495146e+000	-1.942116011816006e+000
1	 1.985659273293368e-001	 4.168605368353228e+000	-1.636049016803129e+000
1	 1.585718816028598e-001	 4.170318236220767e+000	-1.268237273793430e+000
1	 1.187135100694059e-001	 4.171643144927797e+000	-8.325896718525385e-001
1	 7.899562750955232e-002	 4.172584254346155e+000	-3.230294382203320e-001
1	 3.942293105996174e-002	 4.173145782048278e+000	 2.664966598049243e-001
1	 0.000000000000000e+000	 4.173331999996682e+000	 9.420094122106154e-001
1	 4.029531249892538e-001	 4.180625489432248e+000	-2.248868213010506e+000
1	 3.620976067863624e-001	 4.184362021505855e+000	-2.118040428147254e+000
1	 3.213526407327571e-001	 4.187688172694503e+000	-1.953199871295142e+000
1	 2.807236575465107e-001	 4.190607788155261e+000	-1.749515914221640e+000
1	 2.402159721721477e-001	 4.193124788175180e+000	-1.502119119026308e+000
1	 1.998347830423366e-001	 4.195243164716059e+000	-1.206110081321933e+000
1	 1.595851714486658e-001	 4.196966977977436e+000	-8.565680728081908e-001
1	 1.194721010194017e-001	 4.198300352981236e+000	-4.485594737310697e-001
1	 7.950041730204928e-002	 4.199247476181253e+000	 2.285401349144461e-002
1	 3.967484744844285e-002	 4.199812592100591e+000	 5.626073774172891e-001
1	 0.000000000000000e+000	 4.200000000000001e+000	 1.175624544671741e+000
1	 4.200000000000001e+000	 0.000000000000000e+000	 2.513001242373309e+000
1	 4.199812592100591e+000	 3.967484744844298e-002	 2.479571719118108e+000
1	 4.199247476181254e+000	 7.950041730204951e-002	 2.429213125226732e+000
1	 4.198300352981237e+000	 1.194721010194014e-001	 2.364446999952649e+000
1	 4.196966977977437e+000	 1.595851714486656e-001	 2.287696422017449e+000
1	 4.195243164716060e+000	 1.998347830423366e-001	 2.201279870322006e+000
1	 4.193124788175180e+000	 2.402159721721477e-001	 2.107405070051241e+000
1	 4.190607788155260e+000	 2.807236575465109e-001	 2.008162835071455e+000
1	 4.187688172694504e+000	 3.213526407327567e-001	 1.905520917924693e+000
1	 4.184362021505856e+000	 3.620976067863622e-001	 1.801317879115961e+000
1	 4.180625489432249e+000	 4.029531249892535e-001	 1.697256987764466e+000
1	 4.226668000003317e+000	 0.000000000000000e+000	 1.996149310385911e+000
1	 4.226479402152905e+000	 3.992676383716136e-002	 1.981648824227886e+000
1	 4.225910698016349e+000	 8.000520709494818e-002	 1.952622573077637e+000
1	 4.224957561034674e+000	 1.202306919698985e-001	 1.911185536436159e+000
1	 4.223615719734106e+000	 1.605984612950158e-001	 1.859355079063588e+000
1	 4.221880961078891e+000	 2.011036387558750e-001	 1.799045405391085e+000
1	 4.219749133855213e+000	 2.417412292075336e-001	 1.732062014156468e+000
1	 4.217216152083234e+000	 2.825061190946210e-001	 1.660096163540509e+000
1	 4.214277998454134e+000	 3.233930769768958e-001	 1.584719357432699e+000
1	 4.210930727788929e+000	 3.643967541624678e-001	 1.507377863792367e+000
1	 4.207170470515677e+000	 4.055116854507894e-001	 1.429387276392573e+000
1	 4.253336000006533e+000	 0.000000000000000e+000	 1.544656944898362e+000
1	 4.253146212205121e+000	 4.017868022608315e-002	 1.546121110848582e+000
1	 4.252573919851357e+000	 8.050999688819119e-002	 1.535270803163518e+000
1	 4.251614769088036e+000	 1.209892829208253e-001	 1.513843078932014e+000
1	 4.250264461490711e+000	 1.616117511418325e-001	 1.483479269283969e+000
1	 4.248518757441675e+000	 2.023724944698755e-001	 1.445720015598521e+000
1	 4.246373479535218e+000	 2.432664862433427e-001	 1.402000318852728e+000
1	 4.243824516011197e+000	 2.842885806430889e-001	 1.353644611726228e+000
1	 4.240867824213766e+000	 3.254335132213078e-001	 1.301861863378451e+000
1	 4.237499434072025e+000	 3.666959015387498e-001	 1.247740727100756e+000
1	 4.233715451599139e+000	 4.080702459124010e-001	 1.192244741316565e+000
1	 4.280004000009551e+000	 0.000000000000000e+000	 1.153605630395680e+000
1	 4.279813022257142e+000	 4.043059661515750e-002	 1.168287355907454e+000
1	 4.279237141686183e+000	 8.101478668169247e-002	 1.172682974421266e+000
1	 4.278271977141237e+000	 1.217478738720743e-001	 1.168179779128275e+000
1	 4.276913203247188e+000	 1.626250409889992e-001	 1.156072256996058e+000
1	 4.275156553804367e+000	 2.036413501842226e-001	 1.137557695022716e+000
1	 4.272997825215164e+000	 2.447917432794693e-001	 1.113731810653118e+000
1	 4.270432879939135e+000	 2.860710421918251e-001	 1.085584415272083e+000
1	 4.267457649973411e+000	 3.274739494659243e-001	 1.053995119942336e+000
1	 4.264068140355160e+000	 3.689950489151640e-001	 1.019729092792981e+000
1	 4.260260432682666e+000	 4.106288063740697e-001	 9.834328776867712e-001
1	 4.306672000012267e+000	 0.000000000000000e+000	 8.181986781162144e-001
1	 4.306479832308872e+000	 4.068251300433352e-002	 8.435627809678260e-001
1	 4.305900363520743e+000	 8.151957647536590e-002	 8.604950831666877e-001
1	 4.304929185194208e+000	 1.225064648235383e-001	 8.700608055550672e-001
1	 4.303561945003476e+000	 1.636383308363991e-001	 8.732363017009440e-001
1	 4.301794350166916e+000	 2.049102058988005e-001	 8.709052225982421e-001
1	 4.299622170895022e+000	 2.463170003158075e-001	 8.638547146731215e-001
1	 4.297041243867040e+000	 2.878535037407402e-001	 8.527716592717612e-001
1	 4.294047475733072e+000	 3.295143857106775e-001	 8.382389620126126e-001
1	 4.290636846638357e+000	 3.712941962916665e-001	 8.207319005789099e-001
1	 4.286805413766293e+000	 4.131873668357764e-001	 8.006145397052109e-001
1	 4.333340000014584e+000	 0.000000000000000e+000	 5.337574773555985e-001
1	 4.333146642360213e+000	 4.093442939356041e-002	 5.674754691443446e-001
1	 4.332563585354944e+000	 8.202436626912543e-002	 5.944505525489052e-001
1	 4.331586393246865e+000	 1.232650557751097e-001	 6.154531121408153e-001
1	 4.330210686759509e+000	 1.646516206839158e-001	 6.311696119301886e-001
1	 4.328432146529278e+000	 2.061790616134940e-001	 6.421993070588576e-001
1	 4.326246516574763e+000	 2.478422573522515e-001	 6.490509960831791e-001
1	 4.323649607794899e+000	 2.896359652897447e-001	 6.521398212439008e-001
1	 4.320637301492754e+000	 3.315548219554990e-001	 6.517841242852811e-001
1	 4.317205552921638e+000	 3.735933436682132e-001	 6.482023655364970e-001
1	 4.313350394850049e+000	 4.157459272975019e-001	 6.415101141047033e-001
1	 4.360008000016401e+000	 0.000000000000000e+000	 2.957178843440085e-001
1	 4.359813452411068e+000	 4.118634578278727e-002	 3.356629135137943e-001
1	 4.359226807188694e+000	 8.252915606288491e-002	 3.703969471682512e-001
1	 4.358243601299131e+000	 1.240236467266810e-001	 4.004223253592893e-001
1	 4.356859428515223e+000	 1.656649105314324e-001	 4.261634108835431e-001
1	 4.355069942891405e+000	 2.074479173281874e-001	 4.479638366583534e-001
1	 4.352870862254358e+000	 2.493675143886955e-001	 4.660837991274411e-001
1	 4.350257971722702e+000	 2.914184268387492e-001	 4.806974042772485e-001
1	 4.347227127252464e+000	 3.335952582003203e-001	 4.918900729697731e-001
1	 4.343774259205020e+000	 3.758924910447598e-001	 4.996560124094459e-001
1	 4.339895375933968e+000	 4.183044877592276e-001	 5.038957606594342e-001
1	 4.386676000017618e+000	 0.000000000000000e+000	 9.962674284228400e-002
1	 4.386480262461337e+000	 4.143826217196327e-002	 1.438686914257214e-001
1	 4.385890029021907e+000	 8.303394585655828e-002	 1.842828075314921e-001
1	 4.384900809350929e+000	 1.247822376781449e-001	 2.211297449207555e-001
1	 4.383508170270558e+000	 1.666782003788322e-001	 2.545991091001735e-001
1	 4.381707739253251e+000	 2.087167730427653e-001	 2.848072292103338e-001
1	 4.379495207933779e+000	 2.508927714250337e-001	 3.117949795566122e-001
1	 4.376866335650435e+000	 2.932008883876641e-001	 3.355256565090383e-001
1	 4.373816953012211e+000	 3.356356944450734e-001	 3.558829165852054e-001
1	 4.370342965488526e+000	 3.781916384212622e-001	 3.726687816057669e-001
1	 4.366440357018084e+000	 4.208630482209341e-001	 3.856017168745709e-001
1	 4.413344000018133e+000	 0.000000000000000e+000	-5.886146911455246e-002
1	 4.413147072510928e+000	 4.169017856103756e-002	-1.206074061253451e-002
1	 4.412553250854495e+000	 8.353873565005951e-002	 3.215459927535418e-002
1	 4.411558017402181e+000	 1.255408286293939e-001	 7.382945320452423e-002
1	 4.410156912025450e+000	 1.676914902259988e-001	 1.129455796361114e-001
1	 4.408345535614768e+000	 2.099856287571122e-001	 1.494198782036460e-001
1	 4.406119553612993e+000	 2.524180284611601e-001	 1.831027265237143e-001
1	 4.403474699578092e+000	 2.949833499364003e-001	 2.137763732848381e-001
1	 4.400406778771991e+000	 3.376761306896900e-001	 2.411533925017471e-001
1	 4.396911671772176e+000	 3.804907857976765e-001	 2.648752038642531e-001
1	 4.392985338102428e+000	 4.234216086826028e-001	 2.845106641402418e-001
1	 4.440012000017850e+000	 0.000000000000000e+000	-1.839878716301089e-001
1	 4.439813882559738e+000	 4.194209494995928e-002	-1.361791365457589e-001
1	 4.439216472686361e+000	 8.404352544330236e-002	-8.984622766687413e-002
1	 4.438215225452806e+000	 1.262994195803206e-001	-4.513447113897315e-002
1	 4.436805653779830e+000	 1.687047800728155e-001	-2.243468561870821e-003
1	 4.434983331975912e+000	 2.112544844711125e-001	 3.857169095403328e-002
1	 4.432743899291975e+000	 2.539432854969692e-001	 7.699927018137077e-002
1	 4.430083063505655e+000	 2.967658114848681e-001	 1.126697785236348e-001
1	 4.426996604531820e+000	 3.397165669341018e-001	 1.451549260425662e-001
1	 4.423480378055991e+000	 3.827899331739585e-001	 1.739666407019383e-001
1	 4.419530319187035e+000	 4.259801691442145e-001	 1.985561527656272e-001
1	 4.466680000016666e+000	 0.000000000000000e+000	-2.798922995661869e-001
1	 4.466480692607678e+000	 4.219401133867761e-002	-2.324434397030967e-001
1	 4.465879694517425e+000	 8.454831523620093e-002	-1.854860745505912e-001
1	 4.464872433502731e+000	 1.270580105308174e-001	-1.393306397702013e-001
1	 4.463454395533637e+000	 1.697180699191653e-001	-9.433202318984482e-002
1	 4.461621128336632e+000	 2.125233401846509e-001	-5.089028505442966e-002
1	 4.459368244970698e+000	 2.554685425323549e-001	-9.451328601114100e-003
1	 4.456691427433116e+000	 2.985482730329781e-001	 2.949248197787988e-002
1	 4.453586430291698e+000	 3.417570031782408e-001	 6.540175911373274e-002
1	 4.450049084339993e+000	 3.850890805500641e-001	 9.768958789326115e-002
1	 4.446075300271936e+000	 4.285387296057503e-001	 1.257210834324265e-001
1	 4.180625489432249e+000	 4.029531249892535e-001	 1.697256987764467e+000
1	 4.176475463857044e+000	 4.439075127552786e-001	 1.586841245540980e+000
1	 4.171907732972210e+000	 4.849613058567809e-001	 1.463312237364270e+000
1	 4.166918700055335e+000	 5.261088241467261e-001	 1.327915206321655e+000
1	 4.161504857197135e+000	 5.673442784153436e-001	 1.181883995527219e+000
1	 4.155662788750936e+000	 6.086617716998225e-001	 1.026439019324102e+000
1	 4.149389174776560e+000	 6.500553007098914e-001	 8.627852083076416e-001
1	 4.142680794474464e+000	 6.915187573703855e-001	 6.921099313880134e-001
1	 4.135534529605870e+000	 7.330459304817428e-001	 5.155808982640850e-001
1	 4.127947367894608e+000	 7.746305074992249e-001	 3.343440458291946e-001
1	 4.119916406406245e+000	 8.162660764314833e-001	 1.495214121737273e-001
1	 4.207170470515677e+000	 4.055116854507894e-001	 1.429387276392573e+000
1	 4.202994094254132e+000	 4.467261140768506e-001	 1.345003275887048e+000
1	 4.198397360453264e+000	 4.880405792149010e-001	 1.248331427023320e+000
1	 4.193376649553178e+000	 5.294493646516859e-001	 1.140391020617466e+000
1	 4.187928431371006e+000	 5.709466444187180e-001	 1.022193460898688e+000
1	 4.182049268572324e+000	 6.125264841102887e-001	 8.947406281926290e-001
1	 4.175735820136896e+000	 6.541828423181010e-001	 7.590232186961526e-001
1	 4.168984844814609e+000	 6.959095721836307e-001	 6.160190639017925e-001
1	 4.161793204567331e+000	 7.377004230691650e-001	 4.666914323558143e-001
1	 4.154157867992349e+000	 7.795490423483209e-001	 3.119873165578297e-001
1	 4.146075913722957e+000	 8.214489773166679e-001	 1.528357079288460e-001
1	 4.233715451599139e+000	 4.080702459124010e-001	 1.192244741316564e+000
1	 4.229512724651258e+000	 4.495447153984008e-001	 1.130369043756489e+000
1	 4.224886987934366e+000	 4.911198525729065e-001	 1.057057664750935e+000
1	 4.219834599051070e+000	 5.327899051564446e-001	 9.731231725071443e-001
1	 4.214352005544933e+000	 5.745490104218120e-001	 8.793734249900683e-001
1	 4.208435748393774e+000	 6.163911965204039e-001	 7.766102910214366e-001
1	 4.202082465497299e+000	 6.583103839258993e-001	 6.656283515148093e-001
1	 4.195288895154834e+000	 7.003003869964145e-001	 5.472135827998365e-001
1	 4.188051879528886e+000	 7.423549156560877e-001	 4.221420240914862e-001
1	 4.180368368090208e+000	 7.844675771968940e-001	 2.911784312592464e-001
1	 4.172235421039816e+000	 8.266318782013202e-001	 1.550749191483216e-001
1	 4.260260432682666e+000	 4.106288063740697e-001	 9.834328776867712e-001
1	 4.256031355048466e+000	 4.523633167199346e-001	 9.408200368009511e-001
1	 4.251376615415561e+000	 4.941991259308262e-001	 8.876399996407627e-001
1	 4.246292548549062e+000	 5.361304456610526e-001	 8.245175381479623e-001
1	 4.240775579718958e+000	 5.781513764246955e-001	 7.520755581846798e-001
1	 4.234822228215323e+000	 6.202559089302560e-001	 6.709341463527232e-001
1	 4.228429110857804e+000	 6.624379255333882e-001	 5.817095997686801e-001
1	 4.221592945495160e+000	 7.046912018088519e-001	 4.850134401998680e-001
1	 4.214310554490549e+000	 7.470094082426364e-001	 3.814514140457209e-001
1	 4.206578868188181e+000	 7.893861120450735e-001	 2.716224797275097e-001
1	 4.198394928356806e+000	 8.318147790855721e-001	 1.561177841251517e-001
1	 4.286805413766293e+000	 4.131873668357764e-001	 8.006145397052109e-001
1	 4.282549985445800e+000	 4.551819180414574e-001	 7.742902161249300e-001
1	 4.277866242896896e+000	 4.972783992886886e-001	 7.382733270074520e-001
1	 4.272750498047201e+000	 5.394709861655601e-001	 6.930194785662595e-001
1	 4.267199153893132e+000	 5.817537424274391e-001	 6.389849276555429e-001
1	 4.261208708037016e+000	 6.241206213399325e-001	 5.766259219743650e-001
1	 4.254775756218444e+000	 6.665654671406718e-001	 5.063980258243660e-001
1	 4.247896995835610e+000	 7.090820166210586e-001	 4.287554323329756e-001
1	 4.240569229452331e+000	 7.516639008289350e-001	 3.441502631134603e-001
1	 4.232789368286272e+000	 7.943046468929923e-001	 2.530318563915522e-001
1	 4.224554435673913e+000	 8.369976799695581e-001	 1.558460446860543e-001
1	 4.313350394850049e+000	 4.157459272975019e-001	 6.415101141047034e-001
1	 4.309068615843296e+000	 4.580005193629748e-001	 6.287644016396683e-001
1	 4.304355870378412e+000	 5.003576726465224e-001	 6.071969776652453e-001
1	 4.299208447545528e+000	 5.428115266700171e-001	 5.771126246794472e-001
1	 4.293622728067492e+000	 5.853561084301129e-001	 5.388189697218846e-001
1	 4.287595187858888e+000	 6.279853337495214e-001	 4.926260859788508e-001
1	 4.281122401579249e+000	 6.706930087478523e-001	 4.388460823196442e-001
1	 4.274201046176213e+000	 7.134728314331501e-001	 3.777926812379529e-001
1	 4.266827904414244e+000	 7.563183934151092e-001	 3.097807857129418e-001
1	 4.258999868384476e+000	 7.992231817407798e-001	 2.351260355461362e-001
1	 4.250713942991122e+000	 8.421805808534110e-001	 1.541443537703517e-001
1	 4.339895375933968e+000	 4.183044877592276e-001	 5.038957606594341e-001
1	 4.335587246240998e+000	 4.608191206844922e-001	 5.022767166730023e-001
1	 4.330845497860159e+000	 5.034369460043562e-001	 4.926933589787212e-001
1	 4.325666397044096e+000	 5.461520671744742e-001	 4.753177069065385e-001
1	 4.320046302242091e+000	 5.889584744327863e-001	 4.503264999192637e-001
1	 4.313981667680984e+000	 6.318500461591105e-001	 4.179010289774185e-001
1	 4.307469046940256e+000	 6.748205503550326e-001	 3.782269579951613e-001
1	 4.300505096516986e+000	 7.178636462452411e-001	 3.314941354769281e-001
1	 4.293086579376300e+000	 7.609728860012833e-001	 2.778963964498206e-001
1	 4.285210368482795e+000	 8.041417165885675e-001	 2.176313548315961e-001
1	 4.276873450308417e+000	 8.473634817372634e-001	 1.509001864006559e-001
1	 4.366440357018084e+000	 4.208630482209341e-001	 3.856017168745709e-001
1	 4.362105876638948e+000	 4.636377220060151e-001	 3.929090893135011e-001
1	 4.357335125342182e+000	 5.065162193622186e-001	 3.930866454823804e-001
1	 4.352124346542950e+000	 5.494926076789815e-001	 3.861914274696320e-001
1	 4.346469876416969e+000	 5.925608404355300e-001	 3.722867591782391e-001
1	 4.340368147503342e+000	 6.357147585687870e-001	 3.514422761438109e-001
1	 4.333815692301494e+000	 6.789480919623160e-001	 3.237339473874087e-001
1	 4.326809146857958e+000	 7.222544610574481e-001	 2.892440890629095e-001
1	 4.319345254338513e+000	 7.656273785875819e-001	 2.480613696694318e-001
1	 4.311420868581225e+000	 8.090602514364861e-001	 2.002808066113365e-001
1	 4.303032957625782e+000	 8.525463826212496e-001	 1.460037539009886e-001
1	 4.392985338102428e+000	 4.234216086826028e-001	 2.845106641402418e-001
1	 4.388624507037182e+000	 4.664563233275488e-001	 2.987898080891486e-001
1	 4.383824752824527e+000	 5.095954927201384e-001	 3.067415169725851e-001
1	 4.378582296042137e+000	 5.528331481835895e-001	 3.083253735807628e-001
1	 4.372893450592175e+000	 5.961632064384138e-001	 3.035084945843707e-001
1	 4.366754627326002e+000	 6.395794709786391e-001	 2.922657278256402e-001
1	 4.360162337663001e+000	 6.830756335698054e-001	 2.745798433739110e-001
1	 4.353113197199151e+000	 7.266452758698855e-001	 2.504417178287384e-001
1	 4.345603929300892e+000	 7.702818711741306e-001	 2.198505113522814e-001
1	 4.337631368679769e+000	 8.139787862846662e-001	 1.828138369131037e-001
1	 4.329192464943203e+000	 8.577292835055018e-001	 1.393479212249529e-001
1	 4.419530319187035e+000	 4.259801691442145e-001	 1.985561527656273e-001
1	 4.415143137435748e+000	 4.692749246490990e-001	 2.180921296961212e-001
1	 4.410314380307235e+000	 5.126747660781439e-001	 2.320619420757775e-001
1	 4.405040245541704e+000	 5.561736886883483e-001	 2.403449697950137e-001
1	 4.399317024767751e+000	 5.997655724415077e-001	 2.428290732655019e-001
1	 4.393141107149004e+000	 6.434441833887548e-001	 2.394109275225351e-001
1	 4.386508983024807e+000	 6.872031751776035e-001	 2.299963516096310e-001
1	 4.379417247540587e+000	 7.310360906826693e-001	 2.145006325043909e-001
1	 4.371862604263452e+000	 7.749363637610534e-001	 1.928488428335862e-001
1	 4.363841868778422e+000	 8.188973211332392e-001	 1.649761516159039e-001
1	 4.355351972260665e+000	 8.629121843901541e-001	 1.308281272631756e-001
1	 4.446075300271936e+000	 4.285387296057503e-001	 1.257210834324264e-001
1	 4.441661767834682e+000	 4.720935259706711e-001	 1.490329366023328e-001
1	 4.436804007790361e+000	 5.157540394362641e-001	 1.674900053924381e-001
1	 4.431498195041699e+000	 5.595142291933083e-001	 1.809084678930786e-001
1	 4.425740598943744e+000	 6.033679384448822e-001	 1.891136280219512e-001
1	 4.419527586972393e+000	 6.473088957992210e-001	 1.919403560871424e-001
1	 4.412855628386947e+000	 6.913307167858135e-001	 1.892335259398212e-001
1	 4.405721297882294e+000	 7.354269054959151e-001	 1.808484478041451e-001
1	 4.398121279226208e+000	 7.795908563484759e-001	 1.666512958528510e-001
1	 4.390052368877188e+000	 8.238158559823358e-001	 1.465195295798178e-001
1	 4.381511479578153e+000	 8.680950852753392e-001	 1.203423080056189e-001
1	 4.119916406406245e+000	 8.162660764314833e-001	 1.495214121737272e-001
1	 4.111437550096344e+000	 8.579523818866409e-001	-4.076271818983053e-002
1	 4.102509297934843e+000	 8.996765657436617e-001	-2.384410806534021e-001
1	 4.093129097513706e+000	 9.414319172861080e-001	-4.425669111073577e-001
1	 4.083294519104891e+000	 9.832116348843372e-001	-6.521763776611050e-001
1	 4.073003258861229e+000	 1.025008828498531e+000	-8.662894136492542e-001
1	 4.062253141966685e+000	 1.066816522301443e+000	-1.083910591260914e+000
1	 4.051042125731239e+000	 1.108627657420195e+000	-1.304030035162750e+000
1	 4.039368302625527e+000	 1.150435094796214e+000	-1.525624375379333e+000
1	 4.027229903250404e+000	 1.192231618162235e+000	-1.747657738586746e+000
1	 4.014625299236578e+000	 1.234009937135045e+000	-1.969082776865760e+000
1	 4.146075913722957e+000	 8.214489773166679e-001	 1.528357079288462e-001
1	 4.137543220713117e+000	 8.633999709607193e-001	-1.247171062629994e-002
1	 4.128558278401947e+000	 9.053890835164926e-001	-1.856357042105063e-001
1	 4.119118518174838e+000	 9.474095616576926e-001	-3.657889798777751e-001
1	 4.109221494876151e+000	 9.894545605675654e-001	-5.520461336213813e-001
1	 4.098864890030392e+000	 1.031517146457817e+000	-7.435043841084688e-001
1	 4.088046515012491e+000	 1.073590299208018e+000	-9.392443471353479e-001
1	 4.076764314162331e+000	 1.115666915124804e+000	-1.138330850359414e+000
1	 4.065016367838656e+000	 1.157739809819977e+000	-1.339813787760573e+000
1	 4.052800895407486e+000	 1.199801721206408e+000	-1.542729013179988e+000
1	 4.040116258160177e+000	 1.241845312610418e+000	-1.746099272177966e+000
1	 4.172235421039816e+000	 8.266318782013202e-001	 1.550749191483214e-001
1	 4.163648891330076e+000	 8.688475600342713e-001	 1.225256931124851e-002
1	 4.154607258869276e+000	 9.111016012888170e-001	-1.388011707740764e-001
1	 4.145107938836247e+000	 9.533872060288049e-001	-2.972924590331980e-001
1	 4.135148470647740e+000	 9.956974862503657e-001	-4.624082350736233e-001
1	 4.124726521199935e+000	 1.038025464416730e+000	-6.333168590137686e-001
1	 4.113839888058725e+000	 1.080364076114282e+000	-8.091687913120850e-001
1	 4.102486502593892e+000	 1.122706172829172e+000	-9.890973133347926e-001
1	 4.090664433052283e+000	 1.165044524843574e+000	-1.172219288300289e+000
1	 4.078371887565092e+000	 1.207371824250492e+000	-1.357635962136787e+000
1	 4.065607217084311e+000	 1.249680688085785e+000	-1.544433803686107e+000
1	 4.198394928356806e+000	 8.318147790855721e-001	 1.561177841251516e-001
1	 4.189754561947186e+000	 8.742951491074279e-001	 3.345592523127130e-002
1	 4.180656239336789e+000	 9.168141190607618e-001	-9.772498469298890e-002
1	 4.171097359497876e+000	 9.593648503995625e-001	-2.366985766396092e-001
1	 4.161075446419581e+000	 1.001940411932846e+000	-3.827180925108744e-001
1	 4.150588152369765e+000	 1.044533782375364e+000	-5.350169333762239e-001
1	 4.139633261105279e+000	 1.087137853020315e+000	-6.928092491896758e-001
1	 4.128208691025804e+000	 1.129745430533360e+000	-8.552905698851119e-001
1	 4.116312498266289e+000	 1.172349239867047e+000	-1.021638477670103e+000
1	 4.103942879723094e+000	 1.214941927294513e+000	-1.191013320239094e+000
1	 4.091098176008842e+000	 1.257516063561146e+000	-1.362558964525909e+000
1	 4.224554435673913e+000	 8.369976799695581e-001	 1.558460446860545e-001
1	 4.215860232564423e+000	 8.797427381803210e-001	 5.118302623368712e-002
1	 4.206705219804441e+000	 9.225266368324538e-001	-6.219991362136736e-002
1	 4.197086780159656e+000	 9.653424947700836e-001	-1.836379425670849e-001
1	 4.187002422191599e+000	 1.008183337615112e+000	-3.124446053673436e-001
1	 4.176449783539792e+000	 1.051042100333811e+000	-4.479122858489497e-001
1	 4.165426634152051e+000	 1.093911629926192e+000	-5.893127109888664e-001
1	 4.153930879457953e+000	 1.136784688237429e+000	-7.358974971951370e-001
1	 4.141960563480546e+000	 1.179653954890438e+000	-8.868987387811982e-001
1	 4.129513871881355e+000	 1.222512030338490e+000	-1.041529638535431e+000
1	 4.116589134933640e+000	 1.265351439036504e+000	-1.198985180188034e+000
1	 4.250713942991122e+000	 8.421805808534110e-001	 1.541443537703515e-001
1	 4.241965903181751e+000	 8.851903272530826e-001	 6.547744181929893e-002
1	 4.232754200272183e+000	 9.282391546040192e-001	-3.202382656315722e-002
1	 4.223076200821531e+000	 9.713201391404873e-001	-1.377502598051043e-001
1	 4.212929397963710e+000	 1.014426263297271e+000	-2.510697469541273e-001
1	 4.202311414709921e+000	 1.057550418292166e+000	-3.713276376658869e-001
1	 4.191220007198933e+000	 1.100685406831993e+000	-4.978471651106574e-001
1	 4.179653067890218e+000	 1.143823945941438e+000	-6.299299120649579e-001
1	 4.167608628694930e+000	 1.186958669913788e+000	-7.668563203634636e-001
1	 4.155084864039748e+000	 1.230082133382446e+000	-9.078862437901769e-001
1	 4.142080093858573e+000	 1.273186814511861e+000	-1.052259544389295e+000
1	 4.276873450308417e+000	 8.473634817372634e-001	 1.509001864006556e-001
1	 4.268071573799144e+000	 8.906379163258444e-001	 7.638167551811552e-002
1	 4.258803180739969e+000	 9.339516723755845e-001	-6.999537860150926e-003
1	 4.249065621483434e+000	 9.772977835108906e-001	-9.868404637232268e-002
1	 4.238856373735842e+000	 1.020669188979430e+000	-1.980881646274602e-001
1	 4.228173045880061e+000	 1.064058736250520e+000	-3.046042314370780e-001
1	 4.217013380245823e+000	 1.107459183737793e+000	-4.176009559593206e-001
1	 4.205375256322487e+000	 1.150863203645447e+000	-5.364238081941160e-001
1	 4.193256693909314e+000	 1.194263384937138e+000	-6.603954541763778e-001
1	 4.180655856198142e+000	 1.237652236426401e+000	-7.888162361198864e-001
1	 4.167571052783504e+000	 1.281022189987216e+000	-9.209646976662863e-001
1	 4.303032957625782e+000	 8.525463826212496e-001	 1.460037539009886e-001
1	 4.294177244416570e+000	 8.960855053987377e-001	 8.393719729099830e-002
1	 4.284852161207753e+000	 9.396641901472765e-001	 1.306534312914156e-002
1	 4.275055042145304e+000	 9.832754278814120e-001	-6.609636736994438e-002
1	 4.264783349507913e+000	 1.026912114661696e+000	-1.530067945411374e-001
1	 4.254034677050120e+000	 1.070567054208968e+000	-2.470993289553365e-001
1	 4.242806753292610e+000	 1.114232960643671e+000	-3.477821651894859e-001
1	 4.231097444754642e+000	 1.157902461349516e+000	-4.544386212863802e-001
1	 4.218904759123573e+000	 1.201568099960529e+000	-5.664275044204445e-001
1	 4.206226848356404e+000	 1.245222339470378e+000	-6.830835231918767e-001
1	 4.193062011708302e+000	 1.288857565462575e+000	-8.037177468732856e-001
1	 4.329192464943203e+000	 8.577292835055018e-001	 1.393479212249529e-001
1	 4.320282915033995e+000	 9.015330944718943e-001	 8.818447475667458e-002
1	 4.310901141675489e+000	 9.453767079192216e-001	 2.835855690078717e-002
1	 4.301044462807080e+000	 9.892530722521699e-001	-3.965257674966211e-002
1	 4.290710325279849e+000	 1.033155040344177e+000	-1.153444903662852e-001
1	 4.279896308220005e+000	 1.077075372167601e+000	-1.981857272102392e-001
1	 4.268600126339194e+000	 1.121006737549704e+000	-2.876180153864540e-001
1	 4.256819633186567e+000	 1.164941719053704e+000	-3.830565207986306e-001
1	 4.244552824337582e+000	 1.208872814984002e+000	-4.838901479871453e-001
1	 4.231797840514404e+000	 1.252792442514398e+000	-5.894818894382333e-001
1	 4.218552970632834e+000	 1.296692940937936e+000	-6.991692238543132e-001
1	 4.355351972260665e+000	 8.629121843901541e-001	 1.308281272631758e-001
1	 4.346388585651393e+000	 9.069806835454463e-001	 8.916300329325436e-002
1	 4.336950122143130e+000	 9.510892256915464e-001	 3.906333345581550e-002
1	 4.327033883468699e+000	 9.952307166232823e-001	-1.902606838761243e-002
1	 4.316637301051570e+000	 1.039397966026977e+000	-8.463166539123308e-002
1	 4.305757939389625e+000	 1.083583690126515e+000	-1.572512918437873e-001
1	 4.294393499385466e+000	 1.127780514455969e+000	-2.363542952364085e-001
1	 4.282541821618144e+000	 1.171980976758072e+000	-3.213817272133888e-001
1	 4.270200889551217e+000	 1.216177530007600e+000	-4.117465842507776e-001
1	 4.257368832672011e+000	 1.260362545558484e+000	-5.068340988134461e-001
1	 4.244043929556965e+000	 1.304528316413302e+000	-6.060020816423188e-001
1	 4.381511479578153e+000	 8.680950852753392e-001	 1.203423080056189e-001
1	 4.372494256268734e+000	 9.124282726195251e-001	 8.691133506155453e-002
1	 4.362999102610631e+000	 9.568017434643775e-001	 4.535852694799107e-002
1	 4.353023304130100e+000	 1.001208360994867e+000	-3.898036075578513e-003
1	 4.342564276822998e+000	 1.045640891710206e+000	-6.040994744229532e-002
1	 4.331619570558887e+000	 1.090092008085801e+000	-1.236985073189495e-001
1	 4.320186872431323e+000	 1.134554291362543e+000	-1.932548052885957e-001
1	 4.308264010049258e+000	 1.179020234462681e+000	-2.685398537684761e-001
1	 4.295848954764352e+000	 1.223482245031362e+000	-3.489847731675834e-001
1	 4.282939824829096e+000	 1.267932648602656e+000	-4.339910296934071e-001
1	 4.269534888480566e+000	 1.312363691888676e+000	-5.229307266170084e-001
1	 4.014625299236578e+000	 1.234009937135045e+000	-1.969082776865760e+000
1	 4.001553005065471e+000	 1.275762689811019e+000	-2.190225255233659e+000
1	 3.988011677797905e+000	 1.317482444190801e+000	-2.411425401461683e+000
1	 3.974000122742365e+000	 1.359161703337862e+000	-2.631655021802108e+000
1	 3.959517297036671e+000	 1.400792909513493e+000	-2.849894291073046e+000
1	 3.944562312133359e+000	 1.442368447821711e+000	-3.065133169239838e+000
1	 3.929134436186638e+000	 1.483880649957763e+000	-3.276372823744534e+000
1	 3.913233096336334e+000	 1.525321798057408e+000	-3.482627054944943e+000
1	 3.896857880884244e+000	 1.566684128643885e+000	-3.682923721961979e+000
1	 3.880008541358523e+000	 1.607959836669317e+000	-3.876306166178117e+000
1	 3.862684994461763e+000	 1.649141079647046e+000	-4.061834629579836e+000
1	 4.040116258160177e+000	 1.241845312610418e+000	-1.746099272177966e+000
1	 4.026960961145822e+000	 1.283863175383798e+000	-1.950372054807924e+000
1	 4.013333652898217e+000	 1.325847830337527e+000	-2.155964950911987e+000
1	 3.999233131140133e+000	 1.367791732933090e+000	-2.361839309735002e+000
1	 3.984658346387703e+000	 1.409687277443729e+000	-2.566947684917618e+000
1	 3.969608404451609e+000	 1.451526800622489e+000	-2.770235022061411e+000
1	 3.954082568839193e+000	 1.493302585474527e+000	-2.970639878021929e+000
1	 3.938080263052889e+000	 1.535006865130829e+000	-3.167095670245500e+000
1	 3.921601072780403e+000	 1.576631826820246e+000	-3.358531954358766e+000
1	 3.904644747972214e+000	 1.618169615936556e+000	-3.543875728115386e+000
1	 3.887211204802014e+000	 1.659612340197034e+000	-3.722052759703089e+000
1	 4.065607217084311e+000	 1.249680688085785e+000	-1.544433803686107e+000
1	 4.052368917226699e+000	 1.291963660956650e+000	-1.733083160966696e+000
1	 4.038655627999037e+000	 1.334213216484404e+000	-1.923989412044142e+000
1	 4.024466139538371e+000	 1.376421762528545e+000	-2.116113035696860e+000
1	 4.009799395739160e+000	 1.418581645374264e+000	-2.308391295389281e+000
1	 3.994654496770230e+000	 1.460685153423632e+000	-2.499739224939577e+000
1	 3.979030701492055e+000	 1.502724520991713e+000	-2.689050667661296e+000
1	 3.962927429769677e+000	 1.544691932204722e+000	-2.875199368113504e+000
1	 3.946344264676717e+000	 1.586579524997117e+000	-3.057040115451400e+000
1	 3.929280954585979e+000	 1.628379395204330e+000	-3.233409937223413e+000
1	 3.911737415142254e+000	 1.670083600747572e+000	-3.403129342317356e+000
1	 4.091098176008842e+000	 1.257516063561146e+000	-1.362558964525909e+000
1	 4.077776873307970e+000	 1.300064146529557e+000	-1.536688917317041e+000
1	 4.063977603100237e+000	 1.342578602631396e+000	-1.713725832803829e+000
1	 4.049699147936962e+000	 1.385051792124171e+000	-1.892638765608053e+000
1	 4.034940445090934e+000	 1.427476013305023e+000	-2.072361844531729e+000
1	 4.019700589089125e+000	 1.469843506225049e+000	-2.251795083107017e+000
1	 4.003978834145141e+000	 1.512146456509219e+000	-2.429805261172870e+000
1	 3.987774596486632e+000	 1.554376999278973e+000	-2.605226877298571e+000
1	 3.971087456573137e+000	 1.596527223174379e+000	-2.776863171701216e+000
1	 3.953917161199784e+000	 1.638589174472521e+000	-2.943487219127580e+000
1	 3.936263625482468e+000	 1.680554861298542e+000	-3.103843090991258e+000
1	 4.116589134933640e+000	 1.265351439036504e+000	-1.198985180188034e+000
1	 4.103184829389506e+000	 1.308164632102501e+000	-1.359561023201195e+000
1	 4.089299578201687e+000	 1.350943988778463e+000	-1.523445175403369e+000
1	 4.074932156335789e+000	 1.393681821719911e+000	-1.689624576811751e+000
1	 4.060081494442918e+000	 1.436370381235934e+000	-1.857042205938858e+000
1	 4.044746681408201e+000	 1.479001859026653e+000	-2.024597741673463e+000
1	 4.028926966798368e+000	 1.521568392026945e+000	-2.191148309587984e+000
1	 4.012621763203688e+000	 1.564062066353473e+000	-2.355509313045204e+000
1	 3.995830648469615e+000	 1.606474921351917e+000	-2.516455349281491e+000
1	 3.978553367813597e+000	 1.648798953741010e+000	-2.672721210443543e+000
1	 3.960789835822633e+000	 1.691026121849827e+000	-2.823002969349753e+000
1	 4.142080093858573e+000	 1.273186814511861e+000	-1.052259544389295e+000
1	 4.128592785471174e+000	 1.316265117675463e+000	-1.200111261150778e+000
1	 4.114621553303264e+000	 1.359309374925568e+000	-1.351460965048084e+000
1	 4.100165164734732e+000	 1.402311851315711e+000	-1.505322657654506e+000
1	 4.085222543795005e+000	 1.445264749166923e+000	-1.660659984638165e+000
1	 4.069792773727361e+000	 1.488160211828356e+000	-1.816386775099747e+000
1	 4.053875099451659e+000	 1.530990327544788e+000	-1.971367674622778e+000
1	 4.037468929920784e+000	 1.573747133428113e+000	-2.124418872829744e+000
1	 4.020573840366099e+000	 1.616422619529614e+000	-2.274308926027550e+000
1	 4.003189574427382e+000	 1.659008733009677e+000	-2.419759675309648e+000
1	 3.985316046162736e+000	 1.701497382401312e+000	-2.559447260258090e+000
1	 4.167571052783504e+000	 1.281022189987216e+000	-9.209646976662863e-001
1	 4.154000741552841e+000	 1.324365603248425e+000	-1.056790271042244e+000
1	 4.139943528404841e+000	 1.367674761072674e+000	-1.196127988253107e+000
1	 4.125398173133672e+000	 1.410941880911511e+000	-1.338027958461143e+000
1	 4.110363593147087e+000	 1.454159117097919e+000	-1.481486149091193e+000
1	 4.094838866046510e+000	 1.497318564630069e+000	-1.625444828436513e+000
1	 4.078823232104933e+000	 1.540412263062650e+000	-1.768793107186810e+000
1	 4.062316096637851e+000	 1.583432200502780e+000	-1.910367579962452e+000
1	 4.045317032262542e+000	 1.626370317707352e+000	-2.048953067721477e+000
1	 4.027825781041109e+000	 1.669218512278404e+000	-2.183283461681468e+000
1	 4.009842256502755e+000	 1.711968642952877e+000	-2.312042669165642e+000
1	 4.193062011708302e+000	 1.288857565462575e+000	-8.037177468732856e-001
1	 4.179408697634375e+000	 1.332466088821368e+000	-9.280863689661824e-001
1	 4.165265503506290e+000	 1.376040147219743e+000	-1.055841038640185e+000
1	 4.150631181532491e+000	 1.419571910507259e+000	-1.186076891716148e+000
1	 4.135504642499055e+000	 1.463053485028845e+000	-1.317833713092917e+000
1	 4.119884958365555e+000	 1.506476917431703e+000	-1.450096308125145e+000
1	 4.103771364758109e+000	 1.549834198580428e+000	-1.581794974094329e+000
1	 4.087163263354824e+000	 1.593117267577364e+000	-1.711806073017850e+000
1	 4.070060224158895e+000	 1.636318015885015e+000	-1.838952706824085e+000
1	 4.052461987654741e+000	 1.679428291547071e+000	-1.962005495696472e+000
1	 4.034368466842676e+000	 1.722439903504408e+000	-2.079683460156153e+000
1	 4.218552970632834e+000	 1.296692940937936e+000	-6.991692238543132e-001
1	 4.204816653715645e+000	 1.340566574394276e+000	-8.125244089188611e-001
1	 4.190587478607484e+000	 1.384405533366737e+000	-9.290337082063342e-001
1	 4.175864189931072e+000	 1.428201940102895e+000	-1.047846079371091e+000
1	 4.160645691850804e+000	 1.471947852959630e+000	-1.168056465459493e+000
1	 4.144931050684400e+000	 1.515635270233172e+000	-1.288706120264164e+000
1	 4.128719497411106e+000	 1.559256134098022e+000	-1.408783030939259e+000
1	 4.112010430071639e+000	 1.602802334651755e+000	-1.527222439154907e+000
1	 4.094803416055106e+000	 1.646265714062486e+000	-1.642907461859176e+000
1	 4.077098194268249e+000	 1.689638070815560e+000	-1.754669812498497e+000
1	 4.058894677182479e+000	 1.732911164055787e+000	-1.861290623320977e+000
1	 4.244043929556965e+000	 1.304528316413302e+000	-6.060020816423188e-001
1	 4.230224609796522e+000	 1.348667059967129e+000	-7.086646855160660e-001
1	 4.215909453708299e+000	 1.392770919513618e+000	-8.141772221523275e-001
1	 4.201097198329294e+000	 1.436831969698365e+000	-9.217511452958117e-001
1	 4.185786741202223e+000	 1.480842220890200e+000	-1.030547745495262e+000
1	 4.169977143002949e+000	 1.524793623034385e+000	-1.139678454345859e+000
1	 4.153667630063845e+000	 1.568678069615330e+000	-1.248205239192977e+000
1	 4.136857596788231e+000	 1.612487401725842e+000	-1.355141089481599e+000
1	 4.119546607951128e+000	 1.656213412239648e+000	-1.459450595740723e+000
1	 4.101734400881598e+000	 1.699847850083750e+000	-1.560050621989052e+000
1	 4.083420887522148e+000	 1.743382424606897e+000	-1.655811072138172e+000
1	 4.269534888480566e+000	 1.312363691888676e+000	-5.229307266170084e-001
1	 4.255632565876872e+000	 1.356767545539909e+000	-6.151018760144137e-001
1	 4.241231428808608e+000	 1.401136305660351e+000	-7.097793154506573e-001
1	 4.226330206727042e+000	 1.445461999293613e+000	-8.062455509873616e-001
1	 4.210927790553208e+000	 1.489736588820483e+000	-9.037392623255494e-001
1	 4.195023235321111e+000	 1.533951975835254e+000	-1.001455610562418e+000
1	 4.178615762716243e+000	 1.578100005132252e+000	-1.098546625676643e+000
1	 4.161704763504535e+000	 1.622172468799514e+000	-1.194121674706970e+000
1	 4.144289799846913e+000	 1.666161110416385e+000	-1.287248011415400e+000
1	 4.126370607494755e+000	 1.710057629351524e+000	-1.376951408045943e+000
1	 4.107947097861664e+000	 1.753853685157622e+000	-1.462216869603682e+000
1	 3.862684994461763e+000	 1.649141079647046e+000	-4.061834629579836e+000
1	 3.844890029459100e+000	 1.690213828755853e+000	-4.229564133296255e+000
1	 3.826621338296152e+000	 1.731176368834391e+000	-4.370713459946791e+000
1	 3.807879346431334e+000	 1.772020776467594e+000	-4.486105987704271e+000
1	 3.788664650926863e+000	 1.812739108261148e+000	-4.576679134400131e+000
1	 3.768978021749815e+000	 1.853323405364218e+000	-4.643484161800841e+000
1	 3.748820402933820e+000	 1.893765698057605e+000	-4.687685781081249e+000
1	 3.728192913598082e+000	 1.934058010402449e+000	-4.710561557174380e+000
1	 3.707096848820650e+000	 1.974192364944430e+000	-4.713501110134656e+000
1	 3.685533680363033e+000	 2.014160787468251e+000	-4.698005112124331e+000
1	 3.663505057243499e+000	 2.053955311797023e+000	-4.665684079118285e+000
1	 3.887211204802014e+000	 1.659612340197034e+000	-3.722052759703088e+000
1	 3.869303250245444e+000	 1.700945881704125e+000	-3.883561518497107e+000
1	 3.850918561593066e+000	 1.742168514406036e+000	-4.020105378909777e+000
1	 3.832057567004748e+000	 1.783272264577802e+000	-4.132425626045531e+000
1	 3.812720867333758e+000	 1.824249138388355e+000	-4.221379194898048e+000
1	 3.792909237436087e+000	 1.865091126451960e+000	-4.287938608725771e+000
1	 3.772623627339523e+000	 1.905790208445514e+000	-4.333191716741640e+000
1	 3.751865163269136e+000	 1.946338357786760e+000	-4.358341228494687e+000
1	 3.730635148526093e+000	 1.986727546368357e+000	-4.364704042780766e+000
1	 3.708935064216884e+000	 2.026949749342556e+000	-4.353710369393582e+000
1	 3.686766569830242e+000	 2.066996949951050e+000	-4.326902642515220e+000
1	 3.911737415142254e+000	 1.670083600747572e+000	-3.403129342317356e+000
1	 3.893716471031692e+000	 1.711677934652946e+000	-3.557284526407256e+000
1	 3.875215784889801e+000	 1.753160659978216e+000	-3.688189636875847e+000
1	 3.856235787577899e+000	 1.794523752688520e+000	-3.796507382719818e+000
1	 3.836777083740312e+000	 1.835759168516035e+000	-3.883016094635738e+000
1	 3.816840453121951e+000	 1.876858847540135e+000	-3.948609776525851e+000
1	 3.796426851744760e+000	 1.917814718833813e+000	-3.994297957088336e+000
1	 3.775537412939671e+000	 1.958618705171413e+000	-4.021205338648575e+000
1	 3.754173448230980e+000	 1.999262727792576e+000	-4.030571240842298e+000
1	 3.732336448070155e+000	 2.039738711217104e+000	-4.023748837231862e+000
1	 3.710028082416403e+000	 2.080038588105279e+000	-4.002204183421310e+000
1	 3.936263625482468e+000	 1.680554861298542e+000	-3.103843090991258e+000
1	 3.918129691817839e+000	 1.722409987602205e+000	-3.249719022229330e+000
1	 3.899513008186363e+000	 1.764152805550830e+000	-3.374136474542004e+000
1	 3.880414008150813e+000	 1.805775240799661e+000	-3.477683082326068e+000
1	 3.860833300146564e+000	 1.847269198644123e+000	-3.561060455559608e+000
1	 3.840771668807452e+000	 1.888626568628696e+000	-3.625084323694714e+000
1	 3.820230076149580e+000	 1.929839229222470e+000	-3.670684483033794e+000
1	 3.799209662609751e+000	 1.970899052556393e+000	-3.698904544603373e+000
1	 3.777711747935383e+000	 2.011797909217094e+000	-3.710901479984029e+000
1	 3.755737831922926e+000	 2.052527673091919e+000	-3.707944963015075e+000
1	 3.733289595002064e+000	 2.093080226259743e+000	-3.691416505768216e+000
1	 3.960789835822633e+000	 1.691026121849827e+000	-2.823002969349753e+000
1	 3.942542912603886e+000	 1.733142040551793e+000	-2.959875990281514e+000
1	 3.923810231482769e+000	 1.775144951123781e+000	-3.077136684922476e+000
1	 3.904592228723509e+000	 1.817026728911143e+000	-3.175301099507234e+000
1	 3.884889516552546e+000	 1.858779228772551e+000	-3.254996011787161e+000
1	 3.864702884492635e+000	 1.900394289717593e+000	-3.316959146786772e+000
1	 3.844033300554041e+000	 1.941863739611454e+000	-3.362039202047268e+000
1	 3.822881912279439e+000	 1.983179399941691e+000	-3.391195679307208e+000
1	 3.801250047639373e+000	 2.024333090641914e+000	-3.405498519998905e+000
1	 3.779139215775277e+000	 2.065316634967020e+000	-3.406127542384341e+000
1	 3.756551107587308e+000	 2.106121864414475e+000	-3.394371678614076e+000
1	 3.985316046162736e+000	 1.701497382401312e+000	-2.559447260258090e+000
1	 3.966956133389826e+000	 1.743874093501599e+000	-2.686790761064221e+000
1	 3.948107454779023e+000	 1.786137096696969e+000	-2.796400980939022e+000
1	 3.928770449296013e+000	 1.828278217022881e+000	-2.888725849693414e+000
1	 3.908945732958295e+000	 1.870289258901252e+000	-2.964319206136056e+000
1	 3.888634100177546e+000	 1.912162010806776e+000	-3.023841065384571e+000
1	 3.867836524958197e+000	 1.953888250000736e+000	-3.068057704248874e+000
1	 3.846554161948798e+000	 1.995459747327294e+000	-3.097841561649579e+000
1	 3.824788347343020e+000	 2.036868272067042e+000	-3.114170951442817e+000
1	 3.802540599627279e+000	 2.078105596842430e+000	-3.118129585446661e+000
1	 3.779812620172218e+000	 2.119163502569507e+000	-3.110905904902424e+000
1	 4.009842256502755e+000	 1.711968642952877e+000	-2.312042669165642e+000
1	 3.991369354175657e+000	 1.754606146451514e+000	-2.429522266692579e+000
1	 3.972404678075141e+000	 1.797129242270298e+000	-2.531159386219980e+000
1	 3.952948669868348e+000	 1.839529705134791e+000	-2.617337298534162e+000
1	 3.933001949363844e+000	 1.881799289030159e+000	-2.688538801459947e+000
1	 3.912565315862232e+000	 1.923929731896198e+000	-2.745346518627600e+000
1	 3.891639749362105e+000	 1.965912760390285e+000	-2.788443027454690e+000
1	 3.870226411617892e+000	 2.007740094713190e+000	-2.818610813396103e+000
1	 3.848326647046395e+000	 2.049403453492485e+000	-2.836732047897657e+000
1	 3.825941983479015e+000	 2.090894558718166e+000	-2.843788187885910e+000
1	 3.803074132756878e+000	 2.132205140724873e+000	-2.840859395037561e+000
1	 4.034368466842676e+000	 1.722439903504408e+000	-2.079683460156153e+000
1	 4.015782574961378e+000	 1.765338199401428e+000	-2.187152323487726e+000
1	 3.996701901371128e+000	 1.808121387843667e+000	-2.280660648120613e+000
1	 3.977126890440536e+000	 1.850781193246789e+000	-2.360530489224764e+000
1	 3.957058165769226e+000	 1.893309319159202e+000	-2.427175506161368e+000
1	 3.936496531546734e+000	 1.935697452985806e+000	-2.481101272810466e+000
1	 3.915442973765818e+000	 1.977937270780072e+000	-2.522905430792173e+000
1	 3.893898661286784e+000	 2.020020442099369e+000	-2.553277682800871e+000
1	 3.871864946749569e+000	 2.061938634918248e+000	-2.572999623623204e+000
1	 3.849343367330560e+000	 2.103683520594251e+000	-2.582944406775185e+000
1	 3.826335645341370e+000	 2.145246778880603e+000	-2.584076245071368e+000
1	 4.058894677182479e+000	 1.732911164055787e+000	-1.861290623320977e+000
1	 4.040195795746983e+000	 1.776070252351231e+000	-1.958784940578036e+000
1	 4.020999124666998e+000	 1.819113533416977e+000	-2.044171672024514e+000
1	 4.001305111012599e+000	 1.862032681358789e+000	-2.117715086969505e+000
1	 3.981114382174480e+000	 1.904819349288316e+000	-2.179761613281732e+000
1	 3.960427747231099e+000	 1.947465174075554e+000	-2.230740139582268e+000
1	 3.939246198169390e+000	 1.989961781170066e+000	-2.271162176523161e+000
1	 3.917570910955537e+000	 2.032300789485816e+000	-2.301621874613669e+000
1	 3.895403246452611e+000	 2.074473816344336e+000	-2.322795896369949e+000
1	 3.872744751181992e+000	 2.116472482470704e+000	-2.335443140891601e+000
1	 3.849597157925777e+000	 2.158288417036733e+000	-2.340404319306527e+000
1	 4.083420887522148e+000	 1.743382424606897e+000	-1.655811072138172e+000
1	 4.064609016532470e+000	 1.786802305300813e+000	-1.743545653417006e+000
1	 4.045296347962761e+000	 1.830105678990131e+000	-1.820976976031693e+000
1	 4.025483331584564e+000	 1.873284169470709e+000	-1.888314939861461e+000
1	 4.005170598579635e+000	 1.916329379417432e+000	-1.945840652597802e+000
1	 3.984358962915372e+000	 1.959232895165391e+000	-1.993906704301363e+000
1	 3.963049422572877e+000	 2.001986291560236e+000	-2.032937319729538e+000
1	 3.941243160624216e+000	 2.044581136872523e+000	-2.063428386213481e+000
1	 3.918941546155594e+000	 2.087008997770753e+000	-2.085947355135829e+000
1	 3.896146135033390e+000	 2.129261444347548e+000	-2.101133015344359e+000
1	 3.872858670510183e+000	 2.171330055193294e+000	-2.109695137130404e+000
1	 4.107947097861664e+000	 1.753853685157622e+000	-1.462216869603682e+000
1	 4.089022237317836e+000	 1.797534358250065e+000	-1.540580881175947e+000
1	 4.069593571258428e+000	 1.841097824563030e+000	-1.610378165181025e+000
1	 4.049661552156451e+000	 1.884535657582464e+000	-1.671767655492700e+000
1	 4.029226814984733e+000	 1.927839409546484e+000	-1.724967055180846e+000
1	 4.008290178599602e+000	 1.971000616255271e+000	-1.770253064121265e+000
1	 3.986852646976334e+000	 2.014010801950552e+000	-1.807961505532883e+000
1	 3.964915410292882e+000	 2.056861484259474e+000	-1.838487349612073e+000
1	 3.942479845858591e+000	 2.099544179197508e+000	-1.862284632660255e+000
1	 3.919547518884828e+000	 2.142050406224803e+000	-1.879866270335596e+000
1	 3.896120183094670e+000	 2.184371693350319e+000	-1.891803763902923e+000
1	 3.663505057243499e+000	 2.053955311797023e+000	-4.665684079118285e+000
1	 3.641009397794123e+000	 2.093573913466255e+000	-4.620307908276528e+000
1	 3.618051979783225e+000	 2.133002672260832e+000	-4.564911637942225e+000
1	 3.594634989852544e+000	 2.172233674105955e+000	-4.500086844408473e+000
1	 3.570760792710999e+000	 2.211259032598792e+000	-4.426451115396598e+000
1	 3.546431930914687e+000	 2.250070893948702e+000	-4.344647404297320e+000
1	 3.521651124484179e+000	 2.288661441927230e+000	-4.255343336196825e+000
1	 3.496421270358106e+000	 2.327022902821665e+000	-4.159230466545271e+000
1	 3.470745441682316e+000	 2.365147550385902e+000	-4.057023493451897e+000
1	 3.444626886934158e+000	 2.403027710782309e+000	-3.949459424716133e+000
1	 3.418069028881693e+000	 2.440655767508218e+000	-3.837296700827314e+000
1	 3.686766569830242e+000	 2.066996949951050e+000	-4.326902642515221e+000
1	 3.664128073655406e+000	 2.106867110874977e+000	-4.287519964462661e+000
1	 3.641024886972017e+000	 2.146546223512473e+000	-4.238147554077456e+000
1	 3.617459210305964e+000	 2.186026323538118e+000	-4.179435136986282e+000
1	 3.593433423380952e+000	 2.225299474474158e+000	-4.112058636315732e+000
1	 3.568950084897113e+000	 2.264357772662105e+000	-4.036719403786414e+000
1	 3.544011932145869e+000	 2.303193352244160e+000	-3.954143401000748e+000
1	 3.518621880460040e+000	 2.341798390148221e+000	-3.865080332035347e+000
1	 3.492783022498507e+000	 2.380165111070182e+000	-3.770302728581510e+000
1	 3.466498627364912e+000	 2.418285792447179e+000	-3.670604989008927e+000
1	 3.439772139560280e+000	 2.456152769415361e+000	-3.566802372856119e+000
1	 3.710028082416403e+000	 2.080038588105279e+000	-4.002204183421310e+000
1	 3.687246749516120e+000	 2.120160308283865e+000	-3.968621372312820e+000
1	 3.663997794160270e+000	 2.160089774764248e+000	-3.925107170254664e+000
1	 3.640283430758890e+000	 2.199818972970387e+000	-3.872353219623400e+000
1	 3.616106054050469e+000	 2.239339916349607e+000	-3.811077679785697e+000
1	 3.591468238879172e+000	 2.278644651375573e+000	-3.742024364245904e+000
1	 3.566372739807267e+000	 2.317725262561141e+000	-3.665961826407775e+000
1	 3.540822490561769e+000	 2.356573877474814e+000	-3.583682395252491e+000
1	 3.514820603314580e+000	 2.395182671754490e+000	-3.496001162374706e+000
1	 3.488370367795640e+000	 2.433543874112070e+000	-3.403754921955029e+000
1	 3.461475250238931e+000	 2.471649771322522e+000	-3.307801065380808e+000
1	 3.733289595002064e+000	 2.093080226259743e+000	-3.691416505768216e+000
1	 3.710365425376351e+000	 2.133453505692957e+000	-3.663433395960656e+000
1	 3.686970701348076e+000	 2.173633326016202e+000	-3.625607838275140e+000
1	 3.663107651211413e+000	 2.213611622402809e+000	-3.578657460363901e+000
1	 3.638778684719642e+000	 2.253380358225186e+000	-3.523326858332197e+000
1	 3.613986392860958e+000	 2.292931530089150e+000	-3.460386668827986e+000
1	 3.588733547468467e+000	 2.332257172878211e+000	-3.390632588176517e+000
1	 3.563023100663378e+000	 2.371349364801481e+000	-3.314884339993393e+000
1	 3.536858184130617e+000	 2.410200232438856e+000	-3.233984592854320e+000
1	 3.510242108226416e+000	 2.448801955777007e+000	-3.148797829741586e+000
1	 3.483178360917712e+000	 2.487146773229715e+000	-3.060209171125899e+000
1	 3.756551107587308e+000	 2.106121864414475e+000	-3.394371678614076e+000
1	 3.733484101236188e+000	 2.146746703102298e+000	-3.371781726650470e+000
1	 3.709943608535523e+000	 2.187176877268379e+000	-3.339471433955276e+000
1	 3.685931871663629e+000	 2.227404271835431e+000	-3.298168775633471e+000
1	 3.661451315388570e+000	 2.267420800100942e+000	-3.248629277268943e+000
1	 3.636504546842562e+000	 2.307218408802882e+000	-3.191635050540044e+000
1	 3.611094355129560e+000	 2.346789083195411e+000	-3.127993774321318e+000
1	 3.585223710764961e+000	 2.386124852128256e+000	-3.058537622775921e+000
1	 3.558895764946704e+000	 2.425217793123311e+000	-2.984122142092856e+000
1	 3.532113848657316e+000	 2.464060037442009e+000	-2.905625077669778e+000
1	 3.504881471596689e+000	 2.502643775136960e+000	-2.823945153684936e+000
1	 3.779812620172218e+000	 2.119163502569507e+000	-3.110905904902424e+000
1	 3.756602777095718e+000	 2.160039900511925e+000	-3.093496346511763e+000
1	 3.732916515722703e+000	 2.200720428520828e+000	-3.066524217919270e+000
1	 3.708756092115631e+000	 2.241196921268303e+000	-3.030712490282459e+000
1	 3.684123946057342e+000	 2.281461241976923e+000	-2.986812396451261e+000
1	 3.659022700824080e+000	 2.321505287516809e+000	-2.935602458396462e+000
1	 3.633455162790639e+000	 2.361320993512781e+000	-2.877887458575232e+000
1	 3.607424320866600e+000	 2.400900339455173e+000	-2.814497356749789e+000
1	 3.580933345762922e+000	 2.440235353807876e+000	-2.746286153929191e+000
1	 3.553985589088418e+000	 2.479318119107103e+000	-2.674130705254950e+000
1	 3.526584582275933e+000	 2.518140777044271e+000	-2.598929483798406e+000
1	 3.803074132756878e+000	 2.132205140724873e+000	-2.840859395037561e+000
1	 3.779721452955027e+000	 2.173333097921881e+000	-2.828411397333158e+000
1	 3.755889422909708e+000	 2.214263979773591e+000	-2.806596701500756e+000
1	 3.731580312567512e+000	 2.254989570701472e+000	-2.776118202765159e+000
1	 3.706796576726056e+000	 2.295501683853173e+000	-2.737707897103281e+000
1	 3.681540854805605e+000	 2.335792166230978e+000	-2.692125928482551e+000
1	 3.655815970451795e+000	 2.375852903830360e+000	-2.640159578496716e+000
1	 3.629624930968386e+000	 2.415675826782265e+000	-2.582622199867573e+000
1	 3.602970926579353e+000	 2.455252914492587e+000	-2.520352095438789e+000
1	 3.575857329519796e+000	 2.494576200772307e+000	-2.454211344442419e+000
1	 3.548287692955508e+000	 2.533637778951668e+000	-2.385084577970177e+000
1	 3.826335645341370e+000	 2.145246778880603e+000	-2.584076245071368e+000
1	 3.802840128814207e+000	 2.186626295332207e+000	-2.576365054122884e+000
1	 3.778862330096631e+000	 2.227807531026718e+000	-2.559523517535638e+000
1	 3.754404533019363e+000	 2.268782220134982e+000	-2.534219655236814e+000
1	 3.729469207394803e+000	 2.309542125729742e+000	-2.501151553502709e+000
1	 3.704059008787232e+000	 2.350079044945431e+000	-2.461046459721487e+000
1	 3.678176778113120e+000	 2.390384814148187e+000	-2.414659818022499e+000
1	 3.651825541070408e+000	 2.430451314109565e+000	-2.362774247134809e+000
1	 3.625008507396081e+000	 2.470270475177468e+000	-2.306198461998032e+000
1	 3.597729069951527e+000	 2.509834282437646e+000	-2.245766140806489e+000
1	 3.569990803635482e+000	 2.549134780859165e+000	-2.182334739322903e+000
1	 3.849597157925777e+000	 2.158288417036733e+000	-2.340404319306527e+000
1	 3.825958804673342e+000	 2.199919492742945e+000	-2.337199403253494e+000
1	 3.801835237283558e+000	 2.241351082280251e+000	-2.325143295839498e+000
1	 3.777228753471282e+000	 2.282574869568885e+000	-2.304854608360261e+000
1	 3.752141838063679e+000	 2.323582567606674e+000	-2.276983109317726e+000
1	 3.726577162769054e+000	 2.364365923660214e+000	-2.242208894145471e+000
1	 3.700537585774705e+000	 2.404916724466300e+000	-2.201241494278600e+000
1	 3.674026151172752e+000	 2.445226801437110e+000	-2.154818926766600e+000
1	 3.647046088213190e+000	 2.485288035862547e+000	-2.103706685790418e+000
1	 3.619600810383686e+000	 2.525092364103141e+000	-2.048696677606335e+000
1	 3.591693914315921e+000	 2.564631782766781e+000	-1.990606100597800e+000
1	 3.872858670510183e+000	 2.171330055193294e+000	-2.109695137130405e+000
1	 3.849077480532519e+000	 2.213212690154133e+000	-2.110760324997819e+000
1	 3.824808144470582e+000	 2.254894633534237e+000	-2.103298543172468e+000
1	 3.800052973923359e+000	 2.296367519003227e+000	-2.087864720624401e+000
1	 3.774814468732779e+000	 2.337623009484017e+000	-2.065046158400470e+000
1	 3.749095316751165e+000	 2.378652802375369e+000	-2.035461801481555e+000
1	 3.722898393436643e+000	 2.419448634784743e+000	-1.999761448470379e+000
1	 3.696226761275508e+000	 2.460002288764933e+000	-1.958624900086513e+000
1	 3.669083669030763e+000	 2.500305596547855e+000	-1.912761047609960e+000
1	 3.641472550816348e+000	 2.540350445768814e+000	-1.862906902578886e+000
1	 3.613397024996892e+000	 2.580128784674530e+000	-1.809826569208576e+000
1	 3.896120183094670e+000	 2.184371693350319e+000	-1.891803763902923e+000
1	 3.872196156391829e+000	 2.226505887565815e+000	-1.896897380272904e+000
1	 3.847781051657800e+000	 2.268438184788724e+000	-1.893835527504072e+000
1	 3.822877194375688e+000	 2.310160168438054e+000	-1.883095431985606e+000
1	 3.797487099402197e+000	 2.351663451361818e+000	-1.865188029850701e+000
1	 3.771613470733660e+000	 2.392939681090943e+000	-1.840657367871950e+000
1	 3.745259201099025e+000	 2.433980545103553e+000	-1.810079940681211e+000
1	 3.718427371378763e+000	 2.474777776093069e+000	-1.774063965011349e+000
1	 3.691121249848879e+000	 2.515323157233418e+000	-1.733248591824104e+000
1	 3.663344291249592e+000	 2.555608527434690e+000	-1.688303057354047e+000
1	 3.635100135678463e+000	 2.595625786582434e+000	-1.639925774263641e+000
1	 3.418069028881693e+000	 2.440655767508218e+000	-3.837296700827314e+000
1	 3.391075462413564e+000	 2.478024165474663e+000	-3.720530307634135e+000
1	 3.363649950302459e+000	 2.515125413354499e+000	-3.598235258116656e+000
1	 3.335796424614757e+000	 2.551952090816394e+000	-3.469812417514442e+000
1	 3.307518985991763e+000	 2.588496854144156e+000	-3.334672885633466e+000
1	 3.278821901798352e+000	 2.624752440995851e+000	-3.192239355661463e+000
1	 3.249709604111268e+000	 2.660711675109584e+000	-3.041947463477067e+000
1	 3.220186687548849e+000	 2.696367470949601e+000	-2.883247124431928e+000
1	 3.190257906944267e+000	 2.731712838286569e+000	-2.715603854593263e+000
1	 3.159928174864604e+000	 2.766740886705849e+000	-2.538500073453077e+000
1	 3.129202558978380e+000	 2.801444830037749e+000	-2.351436385137625e+000
1	 3.439772139560280e+000	 2.456152769415361e+000	-3.566802372856119e+000
1	 3.412607176799093e+000	 2.493758438914534e+000	-3.458891625607116e+000
1	 3.385007525745849e+000	 2.531095262051197e+000	-3.345892744795005e+000
1	 3.356977143433667e+000	 2.568155771378457e+000	-3.227179127080495e+000
1	 3.328520156540966e+000	 2.604932576551026e+000	-3.102136293442210e+000
1	 3.299640859528343e+000	 2.641418369114569e+000	-2.970163305984775e+000
1	 3.270343712614111e+000	 2.677605927241352e+000	-2.830674171870317e+000
1	 3.240633339590238e+000	 2.713488120405851e+000	-2.683099231214040e+000
1	 3.210514525480813e+000	 2.749057913994119e+000	-2.526886525801551e+000
1	 3.179992214045370e+000	 2.784308373840670e+000	-2.361503145512473e+000
1	 3.149071505129704e+000	 2.819232670686875e+000	-2.186436549371820e+000
1	 3.461475250238931e+000	 2.471649771322522e+000	-3.307801065380808e+000
1	 3.434138891184774e+000	 2.509492712354418e+000	-3.208146914733229e+000
1	 3.406365101189477e+000	 2.547065110747905e+000	-3.103789869999726e+000
1	 3.378157862252897e+000	 2.584359451940527e+000	-2.994096735833691e+000
1	 3.349521327090561e+000	 2.621368298957909e+000	-2.878448186779873e+000
1	 3.320459817258791e+000	 2.658084297233306e+000	-2.756240204131415e+000
1	 3.290977821117469e+000	 2.694500179373152e+000	-2.626885496653560e+000
1	 3.261079991632188e+000	 2.730608769862155e+000	-2.489814901957287e+000
1	 3.230771144017953e+000	 2.766402989701747e+000	-2.344478765331549e+000
1	 3.200056253226749e+000	 2.801875860975600e+000	-2.190348292878307e+000
1	 3.168940451281643e+000	 2.837020511336151e+000	-2.026916875839723e+000
1	 3.483178360917712e+000	 2.487146773229715e+000	-3.060209171125899e+000
1	 3.455670605570664e+000	 2.525226985794328e+000	-2.968241775801246e+000
1	 3.427722676633387e+000	 2.563034959444631e+000	-2.871898863280173e+000
1	 3.399338581072477e+000	 2.600563132502615e+000	-2.770561139859132e+000
1	 3.370522497640568e+000	 2.637804021364807e+000	-2.663624785159418e+000
1	 3.341278774989704e+000	 2.674750225352066e+000	-2.550502871484717e+000
1	 3.311611929621332e+000	 2.711394431504984e+000	-2.430626763900668e+000
1	 3.281526643674674e+000	 2.747729419318505e+000	-2.303447497842835e+000
1	 3.251027762555652e+000	 2.783748065409441e+000	-2.168437131093236e+000
1	 3.220120292408699e+000	 2.819443348110628e+000	-2.025090067009240e+000
1	 3.188809397434150e+000	 2.854808351985561e+000	-1.872924345941888e+000
1	 3.504881471596689e+000	 2.502643775136960e+000	-2.823945153684937e+000
1	 3.477202319956819e+000	 2.540961259234274e+000	-2.739123157014170e+000
1	 3.449080252077624e+000	 2.579004808141385e+000	-2.650192642031942e+000
1	 3.420519299892435e+000	 2.616766813064722e+000	-2.556568336891499e+000
1	 3.391523668190996e+000	 2.654239743771722e+000	-2.457681906352213e+000
1	 3.362097732721078e+000	 2.691416153470843e+000	-2.352983316474563e+000
1	 3.332246038125687e+000	 2.728288683636842e+000	-2.241942177003246e+000
1	 3.301973295717675e+000	 2.764850068774896e+000	-2.124049058347968e+000
1	 3.271284381093876e+000	 2.801093141117198e+000	-1.998816780112947e+000
1	 3.240184331591173e+000	 2.837010835245739e+000	-1.865781668178104e+000
1	 3.208678343587173e+000	 2.872596192635086e+000	-1.724504777395936e+000
1	 3.526584582275933e+000	 2.518140777044271e+000	-2.598929483798406e+000
1	 3.498734034343295e+000	 2.556695532674269e+000	-2.520739312528350e+000
1	 3.470437827522229e+000	 2.594974656838175e+000	-2.438644790331360e+000
1	 3.441700018712804e+000	 2.632970493626855e+000	-2.352114423187262e+000
1	 3.412524838741869e+000	 2.670675466178660e+000	-2.260634978749977e+000
1	 3.382916690452920e+000	 2.708082081589644e+000	-2.163712759592571e+000
1	 3.352880146630525e+000	 2.745182935768729e+000	-2.060874851216444e+000
1	 3.322419947761166e+000	 2.781970718231322e+000	-1.951670341915950e+000
1	 3.291540999632590e+000	 2.818438216825004e+000	-1.835671511639599e+000
1	 3.260248370774131e+000	 2.854578322380924e+000	-1.712474987048910e+000
1	 3.228547289740663e+000	 2.890384033284712e+000	-1.581702860043924e+000
1	 3.548287692955508e+000	 2.533637778951668e+000	-2.385084577970177e+000
1	 3.520265748730149e+000	 2.572429806114325e+000	-2.313039762514167e+000
1	 3.491795402967247e+000	 2.610944505535007e+000	-2.237229538546703e+000
1	 3.462880737533611e+000	 2.649174174189020e+000	-2.157195590511648e+000
1	 3.433526009293199e+000	 2.687111188585622e+000	-2.072499053272961e+000
1	 3.403735648185229e+000	 2.724748009708466e+000	-1.982721657489256e+000
1	 3.373514255135836e+000	 2.762077187900637e+000	-1.887466846936934e+000
1	 3.342866599805126e+000	 2.799091367687780e+000	-1.786360865133218e+000
1	 3.311797618171760e+000	 2.835783292532855e+000	-1.679053808668938e+000
1	 3.280312409957527e+000	 2.872145809516171e+000	-1.565220644728014e+000
1	 3.248416235894569e+000	 2.908171873934421e+000	-1.444562190345632e+000
1	 3.569990803635482e+000	 2.549134780859165e+000	-2.182334739322903e+000
1	 3.541797463117435e+000	 2.588164079554456e+000	-2.115975254673555e+000
1	 3.513152978412721e+000	 2.626914354231893e+000	-2.045921743693167e+000
1	 3.484061456354890e+000	 2.665377854751221e+000	-1.971808123235511e+000
1	 3.454527179845004e+000	 2.703546910992610e+000	-1.893288814843846e+000
1	 3.424554605918008e+000	 2.741413937827308e+000	-1.810039726192225e+000
1	 3.394148363641605e+000	 2.778971440032568e+000	-1.721759201767009e+000
1	 3.363313251849526e+000	 2.816212017144263e+000	-1.628168940477672e+000
1	 3.332054236711354e+000	 2.853128368240739e+000	-1.529014877953195e+000
1	 3.300376449141319e+000	 2.889713296651466e+000	-1.424068031354301e+000
1	 3.268285182048842e+000	 2.925959714584197e+000	-1.313125304613693e+000
1	 3.591693914315921e+000	 2.564631782766781e+000	-1.990606100597800e+000
1	 3.563329177505210e+000	 2.603898352994673e+000	-1.929497727152696e+000
1	 3.534510553858697e+000	 2.642884202928837e+000	-1.864696870500074e+000
1	 3.505242175176668e+000	 2.681581535313464e+000	-1.795948395537486e+000
1	 3.475528350397301e+000	 2.719982633399626e+000	-1.723018593445608e+000
1	 3.445373563651263e+000	 2.758079865946172e+000	-1.645695963482563e+000
1	 3.414782472147824e+000	 2.795865692164516e+000	-1.563791961416211e+000
1	 3.383759903894348e+000	 2.833332666600768e+000	-1.477141712698307e+000
1	 3.352310855251333e+000	 2.870473443948652e+000	-1.385604688560135e+000
1	 3.320440488325464e+000	 2.907280783786796e+000	-1.289065343290384e+000
1	 3.288154128203432e+000	 2.943747555234022e+000	-1.187433711043733e+000
1	 3.613397024996892e+000	 2.580128784674530e+000	-1.809826569208576e+000
1	 3.584860891893530e+000	 2.619632626434988e+000	-1.753560272791276e+000
1	 3.555868129305216e+000	 2.658854051625854e+000	-1.693530973160296e+000
1	 3.526422893998978e+000	 2.697785215875753e+000	-1.629612868706937e+000
1	 3.496529520950103e+000	 2.736418355806673e+000	-1.561702374780912e+000
1	 3.466192521384992e+000	 2.774745794065057e+000	-1.489718670464861e+000
1	 3.435416580654481e+000	 2.812759944296481e+000	-1.413604209489362e+000
1	 3.404206555939567e+000	 2.850453316057287e+000	-1.333325193883833e+000
1	 3.372567473791665e+000	 2.887818519656581e+000	-1.248872009042554e+000
1	 3.340504527509917e+000	 2.924848270922151e+000	-1.160259618973456e+000
1	 3.308023074358290e+000	 2.961535395883882e+000	-1.067527920590260e+000
1	 3.635100135678463e+000	 2.595625786582434e+000	-1.639925774263641e+000
1	 3.606392606282453e+000	 2.635366899875415e+000	-1.588117104652412e+000
1	 3.577225704752324e+000	 2.674823900322948e+000	-1.532400677733598e+000
1	 3.547603612821848e+000	 2.713988896438097e+000	-1.472798088543550e+000
1	 3.517530691503431e+000	 2.752854078213755e+000	-1.409353810549617e+000
1	 3.487011479119200e+000	 2.791411722183962e+000	-1.342135472364495e+000
1	 3.456050689161567e+000	 2.829654196428459e+000	-1.271234096207451e+000
1	 3.424653207985159e+000	 2.867573965513815e+000	-1.196764297275045e+000
1	 3.392824092332316e+000	 2.905163595364521e+000	-1.118864443276235e+000
1	 3.360568566694637e+000	 2.942415758057519e+000	-1.037696773481831e+000
1	 3.327892020513366e+000	 2.979323236533758e+000	-9.534474767364377e-001
1	 3.129202558978380e+000	 2.801444830037749e+000	-2.351436385137625e+000
1	 3.098090975972703e+000	 2.835812860563197e+000	-2.158861618834703e+000
1	 3.066594216041264e+000	 2.869843648532129e+000	-1.965948951370471e+000
1	 3.034717795080713e+000	 2.903530751830148e+000	-1.773388884847047e+000
1	 3.002467371960544e+000	 2.936867849398260e+000	-1.581874281442135e+000
1	 2.969848745180577e+000	 2.969848745180577e+000	-1.392099153080074e+000
1	 2.936867849398259e+000	 3.002467371960544e+000	-1.204757447303554e+000
1	 2.903530751830149e+000	 3.034717795080715e+000	-1.020541831910860e+000
1	 2.869843648532129e+000	 3.066594216041264e+000	-8.401424809285778e-001
1	 2.835812860563195e+000	 3.098090975972702e+000	-6.642458644872338e-001
1	 2.801444830037748e+000	 3.129202558978380e+000	-4.935335451569329e-001
1	 3.149071505129704e+000	 2.819232670686875e+000	-2.186436549371820e+000
1	 3.117762378387155e+000	 2.853818921840275e+000	-2.006027964674729e+000
1	 3.086065629028769e+000	 2.888065789107530e+000	-1.825338994924926e+000
1	 3.053986807974516e+000	 2.921966789469875e+000	-1.645036837078961e+000
1	 3.021531610025019e+000	 2.955515561732601e+000	-1.465790530591072e+000
1	 2.988705870497814e+000	 2.988705870497813e+000	-1.288269774668255e+000
1	 2.955515561732601e+000	 3.021531610025019e+000	-1.113143742638195e+000
1	 2.921966789469875e+000	 3.053986807974516e+000	-9.410798959413883e-001
1	 2.888065789107531e+000	 3.086065629028768e+000	-7.727428002617593e-001
1	 2.853818921840275e+000	 3.117762378387155e+000	-6.087929463055460e-001
1	 2.819232670686875e+000	 3.149071505129704e+000	-4.498855777259151e-001
1	 3.168940451281643e+000	 2.837020511336151e+000	-2.026916875839723e+000
1	 3.137433780802209e+000	 2.871824983117554e+000	-1.858413411287887e+000
1	 3.105537042016849e+000	 2.906287929683184e+000	-1.689757898908477e+000
1	 3.073255820868855e+000	 2.940402827109916e+000	-1.521575090350168e+000
1	 3.040595848089982e+000	 2.974163274067317e+000	-1.354490953322228e+000
1	 3.007562995815484e+000	 3.007562995815484e+000	-1.189131551279234e+000
1	 2.974163274067317e+000	 3.040595848089982e+000	-1.026121921289934e+000
1	 2.940402827109914e+000	 3.073255820868856e+000	-8.660849524736196e-001
1	 2.906287929683185e+000	 3.105537042016849e+000	-7.096402673880751e-001
1	 2.871824983117554e+000	 3.137433780802210e+000	-5.574031087463168e-001
1	 2.837020511336150e+000	 3.168940451281644e+000	-4.099832338254792e-001
1	 3.188809397434150e+000	 2.854808351985561e+000	-1.872924345941888e+000
1	 3.157105183217814e+000	 2.889831044395010e+000	-1.716053644166127e+000
1	 3.125008455005451e+000	 2.924510070259066e+000	-1.559228631461862e+000
1	 3.092524833763677e+000	 2.958838864750235e+000	-1.403012822803042e+000
1	 3.059660086155382e+000	 2.992810986402366e+000	-1.247970215012263e+000
1	 3.026420121133540e+000	 3.026420121133540e+000	-1.094664263366023e+000
1	 2.992810986402366e+000	 3.059660086155382e+000	-9.436568576132051e-001
1	 2.958838864750234e+000	 3.092524833763677e+000	-7.955072995885203e-001
1	 2.924510070259066e+000	 3.125008455005450e+000	-6.507712846004216e-001
1	 2.889831044395010e+000	 3.157105183217814e+000	-5.099998887642553e-001
1	 2.854808351985561e+000	 3.188809397434150e+000	-3.737385644358635e-001
1	 3.208678343587173e+000	 2.872596192635086e+000	-1.724504777395936e+000
1	 3.176776585633916e+000	 2.907837105672620e+000	-1.578983464906936e+000
1	 3.144479867994520e+000	 2.942732210835146e+000	-1.433773591827598e+000
1	 3.111793846658930e+000	 2.977274902390801e+000	-1.289358985246395e+000
1	 3.078724324221172e+000	 3.011458698737709e+000	-1.146223113171158e+000
1	 3.045277246451941e+000	 3.045277246451941e+000	-1.004848192199797e+000
1	 3.011458698737709e+000	 3.078724324221171e+000	-8.657142959899791e-001
1	 2.977274902390800e+000	 3.111793846658930e+000	-7.292984664345003e-001
1	 2.942732210835144e+000	 3.144479867994519e+000	-5.960738294440711e-001
1	 2.907837105672620e+000	 3.176776585633916e+000	-4.665087172281372e-001
1	 2.872596192635086e+000	 3.208678343587173e+000	-3.410657989476112e-001
1	 3.228547289740663e+000	 2.890384033284712e+000	-1.581702860043924e+000
1	 3.196447988050458e+000	 2.925843166950362e+000	-1.447236818411462e+000
1	 3.163951280984001e+000	 2.960954351411395e+000	-1.313414627855442e+000
1	 3.131062859554559e+000	 2.995710940031576e+000	-1.180622308150733e+000
1	 3.097788562287297e+000	 3.030106411073305e+000	-1.049244573376392e+000
1	 3.064134371770637e+000	 3.064134371770636e+000	-9.196641044593935e-001
1	 3.030106411073305e+000	 3.097788562287298e+000	-7.922608240583556e-001
1	 2.995710940031576e+000	 3.131062859554560e+000	-6.674111753465388e-001
1	 2.960954351411395e+000	 3.163951280984001e+000	-5.454874062450138e-001
1	 2.925843166950362e+000	 3.196447988050459e+000	-4.268568606437317e-001
1	 2.890384033284712e+000	 3.228547289740663e+000	-3.118812781303370e-001
1	 3.248416235894569e+000	 2.908171873934421e+000	-1.444562190345632e+000
1	 3.216119390467393e+000	 2.943849228228216e+000	-1.320846819084443e+000
1	 3.183422693973840e+000	 2.979176491987786e+000	-1.198173052865336e+000
1	 3.150331872450513e+000	 3.014146977672529e+000	-1.076811308386714e+000
1	 3.116852800353711e+000	 3.048754123409113e+000	-9.570296453563082e-001
1	 3.082991497089581e+000	 3.082991497089581e+000	-8.390932373863149e-001
1	 3.048754123409115e+000	 3.116852800353711e+000	-7.232638469237164e-001
1	 3.014146977672528e+000	 3.150331872450513e+000	-6.097993053555699e-001
1	 2.979176491987786e+000	 3.183422693973840e+000	-4.989529994171458e-001
1	 2.943849228228216e+000	 3.216119390467392e+000	-3.909733650153761e-001
1	 2.908171873934421e+000	 3.248416235894569e+000	-2.861033895614056e-001
1	 3.268285182048842e+000	 2.925959714584197e+000	-1.313125304613693e+000
1	 3.235790792884662e+000	 2.961855289506158e+000	-1.199845776078499e+000
1	 3.202894106963983e+000	 2.997398632564291e+000	-1.088069661895351e+000
1	 3.169600885346736e+000	 3.032583015313622e+000	-9.779342957179128e-001
1	 3.135917038420363e+000	 3.067401835745095e+000	-8.695734992163714e-001
1	 3.101848622408732e+000	 3.101848622408731e+000	-7.631172844812313e-001
1	 3.067401835745095e+000	 3.135917038420363e+000	-6.586915623104663e-001
1	 3.032583015313622e+000	 3.169600885346737e+000	-5.564178570288381e-001
1	 2.997398632564291e+000	 3.202894106963983e+000	-4.564130284726342e-001
1	 2.961855289506158e+000	 3.235790792884662e+000	-3.587890017552686e-001
1	 2.925959714584196e+000	 3.268285182048841e+000	-2.636525054099579e-001
1	 3.288154128203432e+000	 2.943747555234022e+000	-1.187433711043733e+000
1	 3.255462195302213e+000	 2.979861350784167e+000	-1.084265217623133e+000
1	 3.222365519954375e+000	 3.015620773140882e+000	-9.831247473604717e-001
1	 3.188869898243178e+000	 3.051019052954823e+000	-8.839993790581087e-001
1	 3.154981276487200e+000	 3.086049548081208e+000	-7.868714218022153e-001
1	 3.120705747728039e+000	 3.120705747728038e+000	-6.917183817190641e-001
1	 3.086049548081208e+000	 3.154981276487199e+000	-5.985129366147159e-001
1	 3.051019052954824e+000	 3.188869898243179e+000	-5.072229185850297e-001
1	 3.015620773140882e+000	 3.222365519954374e+000	-4.178113046634207e-001
1	 2.979861350784166e+000	 3.255462195302214e+000	-3.302362155538596e-001
1	 2.943747555234023e+000	 3.288154128203432e+000	-2.444509224765709e-001
1	 3.308023074358290e+000	 2.961535395883882e+000	-1.067527920590260e+000
1	 3.275133597719994e+000	 2.997867412062219e+000	-9.741359144770434e-001
1	 3.241836932944962e+000	 3.033842913717531e+000	-8.833581141471282e-001
1	 3.208138911139784e+000	 3.069455090596099e+000	-7.950144725031240e-001
1	 3.174045514554174e+000	 3.104697260417412e+000	-7.089188131937756e-001
1	 3.139562873047459e+000	 3.139562873047459e+000	-6.248790942608391e-001
1	 3.104697260417412e+000	 3.174045514554175e+000	-5.426976818199557e-001
1	 3.069455090596098e+000	 3.208138911139783e+000	-4.621716332304921e-001
1	 3.033842913717530e+000	 3.241836932944962e+000	-3.830929891852293e-001
1	 2.997867412062220e+000	 3.275133597719995e+000	-3.052490741288719e-001
1	 2.961535395883882e+000	 3.308023074358290e+000	-2.284228043937902e-001
1	 3.327892020513366e+000	 2.979323236533758e+000	-9.534474767364376e-001
1	 3.294805000137952e+000	 3.015873473340294e+000	-8.694879025402209e-001
1	 3.261308345935689e+000	 3.052065054294208e+000	-7.887890941669750e-001
1	 3.227407924036499e+000	 3.087891128237413e+000	-7.109873011465463e-001
1	 3.193109752621236e+000	 3.123344972753669e+000	-6.357111833250162e-001
1	 3.158419998366947e+000	 3.158419998366946e+000	-5.625824036415631e-001
1	 3.123344972753669e+000	 3.193109752621236e+000	-4.912162332396675e-001
1	 3.087891128237412e+000	 3.227407924036499e+000	-4.212221676656077e-001
1	 3.052065054294209e+000	 3.261308345935690e+000	-3.522045528788375e-001
1	 3.015873473340295e+000	 3.294805000137951e+000	-2.837632197744222e-001
1	 2.979323236533757e+000	 3.327892020513365e+000	-2.154941258971409e-001
1	 2.801444830037748e+000	 3.129202558978380e+000	-4.935335451569323e-001
1	 2.766740886705849e+000	 3.159928174864604e+000	-3.311381689788088e-001
1	 2.731712838286569e+000	 3.190257906944266e+000	-1.792167034039248e-001
1	 2.696367470949601e+000	 3.220186687548849e+000	-3.687962379688182e-002
1	 2.660711675109584e+000	 3.249709604111268e+000	 9.679779786939337e-002
1	 2.624752440995853e+000	 3.278821901798352e+000	 2.227734358140011e-001
1	 2.588496854144156e+000	 3.307518985991762e+000	 3.420362049726381e-001
1	 2.551952090816394e+000	 3.335796424614757e+000	 4.556039120274247e-001
1	 2.515125413354498e+000	 3.363649950302459e+000	 5.645210678050697e-001
1	 2.478024165474663e+000	 3.391075462413564e+000	 6.698566659729236e-001
1	 2.440655767508217e+000	 3.418069028881693e+000	 7.727019330139164e-001
1	 2.819232670686875e+000	 3.149071505129704e+000	-4.498855777259151e-001
1	 2.784308373840670e+000	 3.179992214045370e+000	-2.989366648557978e-001
1	 2.749057913994120e+000	 3.210514525480813e+000	-1.579246441934973e-001
1	 2.713488120405852e+000	 3.240633339590237e+000	-2.599573574382638e-002
1	 2.677605927241350e+000	 3.270343712614112e+000	 9.773934727086392e-002
1	 2.641418369114568e+000	 3.299640859528343e+000	 2.142033945016121e-001
1	 2.604932576551026e+000	 3.328520156540966e+000	 3.243506452439488e-001
1	 2.568155771378458e+000	 3.356977143433668e+000	 4.291646905686295e-001
1	 2.531095262051196e+000	 3.385007525745849e+000	 5.296563355773363e-001
1	 2.493758438914534e+000	 3.412607176799092e+000	 6.268614266189752e-001
1	 2.456152769415361e+000	 3.439772139560280e+000	 7.218386483576094e-001
1	 2.837020511336150e+000	 3.168940451281644e+000	-4.099832338254795e-001
1	 2.801875860975600e+000	 3.200056253226749e+000	-2.700685546380612e-001
1	 2.766402989701746e+000	 3.230771144017952e+000	-1.394716283898244e-001
1	 2.730608769862155e+000	 3.261079991632188e+000	-1.739149211819614e-002
1	 2.694500179373152e+000	 3.290977821117469e+000	 9.700831209868589e-002
1	 2.658084297233307e+000	 3.320459817258793e+000	 2.045978199802738e-001
1	 2.621368298957908e+000	 3.349521327090561e+000	 3.062786778833629e-001
1	 2.584359451940528e+000	 3.378157862252897e+000	 4.029821301477953e-001
1	 2.547065110747905e+000	 3.406365101189477e+000	 4.956669655414519e-001
1	 2.509492712354418e+000	 3.434138891184774e+000	 5.853174274721257e-001
1	 2.471649771322522e+000	 3.461475250238931e+000	 6.729410926933150e-001
1	 2.854808351985561e+000	 3.188809397434150e+000	-3.737385644358637e-001
1	 2.819443348110627e+000	 3.220120292408698e+000	-2.444376307416812e-001
1	 2.783748065409441e+000	 3.251027762555651e+000	-1.237578226532666e-001
1	 2.747729419318505e+000	 3.281526643674674e+000	-1.096774289976701e-002
1	 2.711394431504983e+000	 3.311611929621332e+000	 9.469917726546626e-002
1	 2.674750225352066e+000	 3.341278774989703e+000	 1.940428807659445e-001
1	 2.637804021364806e+000	 3.370522497640566e+000	 2.878948370882932e-001
1	 2.600563132502615e+000	 3.399338581072477e+000	 3.771161486098582e-001
1	 2.563034959444631e+000	 3.427722676633387e+000	 4.625956152157987e-001
1	 2.525226985794328e+000	 3.455670605570664e+000	 5.452477616314748e-001
1	 2.487146773229715e+000	 3.483178360917711e+000	 6.260108319598806e-001
1	 2.872596192635086e+000	 3.208678343587173e+000	-3.410657989476110e-001
1	 2.837010835245739e+000	 3.240184331591172e+000	-2.219500685495167e-001
1	 2.801093141117197e+000	 3.271284381093875e+000	-1.106858664173985e-001
1	 2.764850068774895e+000	 3.301973295717676e+000	-6.627793916360596e-003
1	 2.728288683636842e+000	 3.332246038125688e+000	 9.090408738585572e-002
1	 2.691416153470845e+000	 3.362097732721078e+000	 1.826226110655473e-001
1	 2.654239743771723e+000	 3.391523668190996e+000	 2.692718109176575e-001
1	 2.616766813064722e+000	 3.420519299892435e+000	 3.516251796938516e-001
1	 2.579004808141385e+000	 3.449080252077623e+000	 4.304838855340516e-001
1	 2.540961259234273e+000	 3.477202319956819e+000	 5.066749502027065e-001
1	 2.502643775136960e+000	 3.504881471596689e+000	 5.810493933091845e-001
1	 2.890384033284712e+000	 3.228547289740663e+000	-3.118812781303370e-001
1	 2.854578322380925e+000	 3.260248370774131e+000	-2.025143530856221e-001
1	 2.818438216825004e+000	 3.291540999632588e+000	-1.001607957999262e-001
1	 2.781970718231322e+000	 3.322419947761167e+000	-4.277331275612632e-003
1	 2.745182935768730e+000	 3.352880146630527e+000	 8.571291878921981e-002
1	 2.708082081589644e+000	 3.382916690452919e+000	 1.704189764512045e-001
1	 2.670675466178660e+000	 3.412524838741869e+000	 2.504804980989220e-001
1	 2.632970493626855e+000	 3.441700018712804e+000	 3.265662186999120e-001
1	 2.594974656838174e+000	 3.470437827522229e+000	 3.993723533570727e-001
1	 2.556695532674268e+000	 3.498734034343295e+000	 4.696209598987524e-001
1	 2.518140777044271e+000	 3.526584582275933e+000	 5.380582662996641e-001
1	 2.908171873934421e+000	 3.248416235894569e+000	-2.861033895614056e-001
1	 2.872145809516170e+000	 3.280312409957526e+000	-1.860412083805642e-001
1	 2.835783292532855e+000	 3.311797618171761e+000	-9.208997030608297e-002
1	 2.799091367687780e+000	 3.342866599805125e+000	-3.824348570010359e-003
1	 2.762077187900638e+000	 3.373514255135836e+000	 7.921334888954890e-002
1	 2.724748009708466e+000	 3.403735648185227e+000	 1.575119371243206e-001
1	 2.687111188585623e+000	 3.433526009293199e+000	 2.315900627503617e-001
1	 2.649174174189020e+000	 3.462880737533612e+000	 3.019948664804061e-001
1	 2.610944505535007e+000	 3.491795402967248e+000	 3.693006027916314e-001
1	 2.572429806114326e+000	 3.520265748730149e+000	 4.341072199945493e-001
1	 2.533637778951669e+000	 3.548287692955509e+000	 4.970389040460246e-001
1	 2.925959714584196e+000	 3.268285182048841e+000	-2.636525054099579e-001
1	 2.889713296651465e+000	 3.300376449141319e+000	-1.724435294132589e-001
1	 2.853128368240741e+000	 3.332054236711353e+000	-8.638300220551817e-002
1	 2.816212017144263e+000	 3.363313251849527e+000	-5.179076737196229e-003
1	 2.778971440032567e+000	 3.394148363641605e+000	 7.149092302498780e-002
1	 2.741413937827308e+000	 3.424554605918009e+000	 1.439795088720356e-001
1	 2.703546910992609e+000	 3.454527179845005e+000	 2.126679871073049e-001
1	 2.665377854751221e+000	 3.484061456354890e+000	 2.779653718263851e-001
1	 2.626914354231892e+000	 3.513152978412723e+000	 3.403072553667926e-001
1	 2.588164079554456e+000	 3.541797463117435e+000	 4.001546386633283e-001
1	 2.549134780859165e+000	 3.569990803635482e+000	 4.579927243270284e-001
1	 2.943747555234023e+000	 3.288154128203432e+000	-2.444509224765712e-001
1	 2.907280783786796e+000	 3.320440488325464e+000	-1.616363165202558e-001
1	 2.870473443948652e+000	 3.352310855251332e+000	-8.295168846971253e-002
1	 2.833332666600767e+000	 3.383759903894349e+000	-8.253916463215660e-003
1	 2.795865692164516e+000	 3.414782472147824e+000	 6.262911887410624e-002
1	 2.758079865946173e+000	 3.445373563651262e+000	 1.298978218136775e-001
1	 2.719982633399626e+000	 3.475528350397300e+000	 1.937801223367367e-001
1	 2.681581535313463e+000	 3.505242175176668e+000	 2.545306723173407e-001
1	 2.642884202928838e+000	 3.534510553858697e+000	 3.124299991161953e-001
1	 2.603898352994673e+000	 3.563329177505211e+000	 3.677836187206320e-001
1	 2.564631782766780e+000	 3.591693914315921e+000	 4.209211106531110e-001
1	 2.961535395883882e+000	 3.308023074358290e+000	-2.284228043937902e-001
1	 2.924848270922151e+000	 3.340504527509917e+000	-1.535366121687838e-001
1	 2.887818519656582e+000	 3.372567473791665e+000	-8.170994516216903e-002
1	 2.850453316057286e+000	 3.404206555939566e+000	-1.296337302181875e-002
1	 2.812759944296481e+000	 3.435416580654481e+000	 5.270940855072772e-002
1	 2.774745794065056e+000	 3.466192521384992e+000	 1.153411770301242e-001
1	 2.736418355806673e+000	 3.496529520950103e+000	 1.749907375206623e-001
1	 2.697785215875753e+000	 3.526422893998977e+000	 2.317424336987952e-001
1	 2.658854051625854e+000	 3.555868129305217e+000	 2.857056166123068e-001
1	 2.619632626434987e+000	 3.584860891893531e+000	 3.370140728009762e-001
1	 2.580128784674530e+000	 3.613397024996892e+000	 3.858254132955319e-001
1	 2.979323236533757e+000	 3.327892020513365e+000	-2.154941258971410e-001
1	 2.942415758057520e+000	 3.360568566694637e+000	-1.480634399947372e-001
1	 2.905163595364522e+000	 3.392824092332316e+000	-8.257374417896959e-002
1	 2.867573965513814e+000	 3.424653207985159e+000	-1.922399344795833e-002
1	 2.829654196428458e+000	 3.456050689161565e+000	 4.181131847437386e-002
1	 2.791411722183963e+000	 3.487011479119200e+000	 1.003821011645428e-001
1	 2.752854078213755e+000	 3.517530691503430e+000	 1.563625668847762e-001
1	 2.713988896438097e+000	 3.547603612821848e+000	 2.096510878493098e-001
1	 2.674823900322948e+000	 3.577225704752323e+000	 2.601700119963936e-001
1	 2.635366899875414e+000	 3.606392606282453e+000	 3.078654379908060e-001
1	 2.595625786582433e+000	 3.635100135678463e+000	 3.527069502786476e-001
1	 2.440655767508217e+000	 3.418069028881693e+000	 7.727019330139164e-001
1	 2.403027710782309e+000	 3.444626886934158e+000	 8.741764442585380e-001
1	 2.365147550385903e+000	 3.470745441682317e+000	 9.739953168396591e-001
1	 2.327022902821665e+000	 3.496421270358104e+000	 1.071166705446287e+000
1	 2.288661441927230e+000	 3.521651124484178e+000	 1.164711085368532e+000
1	 2.250070893948702e+000	 3.546431930914687e+000	 1.253662786896363e+000
1	 2.211259032598793e+000	 3.570760792711000e+000	 1.337071493873589e+000
1	 2.172233674105955e+000	 3.594634989852545e+000	 1.414003703643602e+000
1	 2.133002672260832e+000	 3.618051979783225e+000	 1.483544145748266e+000
1	 2.093573913466255e+000	 3.641009397794124e+000	 1.544797156872711e+000
1	 2.053955311797024e+000	 3.663505057243499e+000	 1.596888009665900e+000
1	 2.456152769415361e+000	 3.439772139560280e+000	 7.218386483576094e-001
1	 2.418285792447178e+000	 3.466498627364912e+000	 8.155797547245337e-001
1	 2.380165111070181e+000	 3.492783022498506e+000	 9.077052655551269e-001
1	 2.341798390148221e+000	 3.518621880460040e+000	 9.972416939878728e-001
1	 2.303193352244160e+000	 3.544011932145869e+000	 1.083228637788081e+000
1	 2.264357772662105e+000	 3.568950084897113e+000	 1.164720296828443e+000
1	 2.225299474474157e+000	 3.593433423380952e+000	 1.240786953389431e+000
1	 2.186026323538119e+000	 3.617459210305963e+000	 1.310516412558242e+000
1	 2.146546223512473e+000	 3.641024886972018e+000	 1.373015400132746e+000
1	 2.106867110874978e+000	 3.664128073655407e+000	 1.427410915571046e+000
1	 2.066996949951050e+000	 3.686766569830242e+000	 1.472851537667101e+000
1	 2.471649771322522e+000	 3.461475250238931e+000	 6.729410926933150e-001
1	 2.433543874112069e+000	 3.488370367795640e+000	 7.593910244434715e-001
1	 2.395182671754490e+000	 3.514820603314579e+000	 8.442024070381169e-001
1	 2.356573877474814e+000	 3.540822490561769e+000	 9.264317989992205e-001
1	 2.317725262561141e+000	 3.566372739807267e+000	 1.005149747308667e+000
1	 2.278644651375573e+000	 3.591468238879172e+000	 1.079442265127099e+000
1	 2.239339916349607e+000	 3.616106054050469e+000	 1.148412270996759e+000
1	 2.199818972970387e+000	 3.640283430758890e+000	 1.211180986897352e+000
1	 2.160089774764248e+000	 3.663997794160270e+000	 1.266889292653753e+000
1	 2.120160308283865e+000	 3.687246749516119e+000	 1.314699034330844e+000
1	 2.080038588105280e+000	 3.710028082416403e+000	 1.353794284392135e+000
1	 2.487146773229715e+000	 3.483178360917711e+000	 6.260108319598806e-001
1	 2.448801955777006e+000	 3.510242108226416e+000	 7.055907400575259e-001
1	 2.410200232438857e+000	 3.536858184130617e+000	 7.834486288951896e-001
1	 2.371349364801481e+000	 3.563023100663378e+000	 8.586825631947234e-001
1	 2.332257172878211e+000	 3.588733547468468e+000	 9.304056385657487e-001
1	 2.292931530089150e+000	 3.613986392860957e+000	 9.977473968547210e-001
1	 2.253380358225186e+000	 3.638778684719643e+000	 1.059855201641455e+000
1	 2.213611622402809e+000	 3.663107651211413e+000	 1.115895571389779e+000
1	 2.173633326016202e+000	 3.686970701348076e+000	 1.165055467890798e+000
1	 2.133453505692958e+000	 3.710365425376351e+000	 1.206543537774855e+000
1	 2.093080226259744e+000	 3.733289595002065e+000	 1.239591305010430e+000
1	 2.502643775136960e+000	 3.504881471596689e+000	 5.810493933091845e-001
1	 2.464060037442010e+000	 3.532113848657317e+000	 6.541598715352321e-001
1	 2.425217793123311e+000	 3.558895764946705e+000	 7.254067627389514e-001
1	 2.386124852128256e+000	 3.585223710764960e+000	 7.939408781416605e-001
1	 2.346789083195411e+000	 3.611094355129560e+000	 8.589292396923264e-001
1	 2.307218408802882e+000	 3.636504546842562e+000	 9.195564106687308e-001
1	 2.267420800100942e+000	 3.661451315388569e+000	 9.750257850880342e-001
1	 2.227404271835432e+000	 3.685931871663630e+000	 1.024560833618630e+000
1	 2.187176877268379e+000	 3.709943608535522e+000	 1.067406303818021e+000
1	 2.146746703102297e+000	 3.733484101236188e+000	 1.102829372659347e+000
1	 2.106121864414475e+000	 3.756551107587308e+000	 1.130120749451529e+000
1	 2.518140777044271e+000	 3.526584582275933e+000	 5.380582662996641e-001
1	 2.479318119107102e+000	 3.553985589088418e+000	 6.050798572991740e-001
1	 2.440235353807877e+000	 3.580933345762920e+000	 6.700405551403641e-001
1	 2.400900339455172e+000	 3.607424320866600e+000	 7.321549427550231e-001
1	 2.361320993512781e+000	 3.633455162790639e+000	 7.906551299011265e-001
1	 2.321505287516809e+000	 3.659022700824079e+000	 8.447919768618165e-001
1	 2.281461241976922e+000	 3.684123946057341e+000	 8.938362756141136e-001
1	 2.241196921268304e+000	 3.708756092115631e+000	 9.370798863912258e-001
1	 2.200720428520828e+000	 3.732916515722704e+000	 9.738368276956584e-001
1	 2.160039900511925e+000	 3.756602777095718e+000	 1.003444317957933e+000
1	 2.119163502569507e+000	 3.779812620172219e+000	 1.025263767177016e+000
1	 2.533637778951669e+000	 3.548287692955509e+000	 4.970389040460246e-001
1	 2.494576200772307e+000	 3.575857329519796e+000	 5.583325898995215e-001
1	 2.455252914492587e+000	 3.602970926579353e+000	 6.173146396469806e-001
1	 2.415675826782263e+000	 3.629624930968387e+000	 6.732742233155526e-001
1	 2.375852903830360e+000	 3.655815970451795e+000	 7.255194889904321e-001
1	 2.335792166230977e+000	 3.681540854805605e+000	 7.733786576760298e-001
1	 2.295501683853174e+000	 3.706796576726056e+000	 8.162010742850681e-001
1	 2.254989570701472e+000	 3.731580312567512e+000	 8.533582129580004e-001
1	 2.214263979773591e+000	 3.755889422909708e+000	 8.842446350482139e-001
1	 2.173333097921881e+000	 3.779721452955029e+000	 9.082788982452217e-001
1	 2.132205140724873e+000	 3.803074132756878e+000	 9.249044154472855e-001
1	 2.549134780859165e+000	 3.569990803635482e+000	 4.579927243270284e-001
1	 2.509834282437646e+000	 3.597729069951527e+000	 5.139004022100965e-001
1	 2.470270475177469e+000	 3.625008507396082e+000	 5.671945098219314e-001
1	 2.430451314109564e+000	 3.651825541070408e+000	 6.172494149461648e-001
1	 2.390384814148186e+000	 3.678176778113120e+000	 6.634600486917477e-001
1	 2.350079044945431e+000	 3.704059008787232e+000	 7.052428497939649e-001
1	 2.309542125729742e+000	 3.729469207394803e+000	 7.420366636989906e-001
1	 2.268782220134983e+000	 3.754404533019364e+000	 7.733035949591141e-001
1	 2.227807531026718e+000	 3.778862330096631e+000	 7.985298115979698e-001
1	 2.186626295332208e+000	 3.802840128814207e+000	 8.172263002399073e-001
1	 2.145246778880603e+000	 3.826335645341369e+000	 8.289295709343547e-001
1	 2.564631782766780e+000	 3.591693914315921e+000	 4.209211106531110e-001
1	 2.525092364103141e+000	 3.619600810383686e+000	 4.717660541249500e-001
1	 2.485288035862548e+000	 3.647046088213191e+000	 5.196464932603501e-001
1	 2.445226801437110e+000	 3.674026151172752e+000	 5.640324044850339e-001
1	 2.404916724466301e+000	 3.700537585774706e+000	 6.044160457813874e-001
1	 2.364365923660214e+000	 3.726577162769055e+000	 6.403127289149948e-001
1	 2.323582567606674e+000	 3.752141838063679e+000	 6.712615450975052e-001
1	 2.282574869568885e+000	 3.777228753471282e+000	 6.968260429833770e-001
1	 2.241351082280251e+000	 3.801835237283559e+000	 7.165948580288256e-001
1	 2.199919492742944e+000	 3.825958804673341e+000	 7.301822923735892e-001
1	 2.158288417036733e+000	 3.849597157925777e+000	 7.372288445391613e-001
1	 2.580128784674530e+000	 3.613397024996892e+000	 3.858254132955319e-001
1	 2.540350445768814e+000	 3.641472550816348e+000	 4.319127197343247e-001
1	 2.500305596547855e+000	 3.669083669030762e+000	 4.746377265421933e-001
1	 2.460002288764932e+000	 3.696226761275509e+000	 5.135762346966923e-001
1	 2.419448634784743e+000	 3.722898393436643e+000	 5.483281768818004e-001
1	 2.378652802375369e+000	 3.749095316751165e+000	 5.785181963288016e-001
1	 2.337623009484017e+000	 3.774814468732779e+000	 6.037961777430023e-001
1	 2.296367519003227e+000	 3.800052973923358e+000	 6.238377296296980e-001
1	 2.254894633534237e+000	 3.824808144470584e+000	 6.383446174615094e-001
1	 2.213212690154133e+000	 3.849077480532520e+000	 6.470451472581995e-001
1	 2.171330055193294e+000	 3.872858670510183e+000	 6.496944992786958e-001
1	 2.595625786582433e+000	 3.635100135678463e+000	 3.527069502786476e-001
1	 2.555608527434690e+000	 3.663344291249593e+000	 3.943239749600396e-001
1	 2.515323157233419e+000	 3.691121249848880e+000	 4.321361310823265e-001
1	 2.474777776093069e+000	 3.718427371378763e+000	 4.658350697651385e-001
1	 2.433980545103553e+000	 3.745259201099026e+000	 4.951385548820328e-001
1	 2.392939681090943e+000	 3.771613470733660e+000	 5.197908274028044e-001
1	 2.351663451361818e+000	 3.797487099402197e+000	 5.395629204674874e-001
1	 2.310160168438054e+000	 3.822877194375687e+000	 5.542529249664235e-001
1	 2.268438184788723e+000	 3.847781051657798e+000	 5.636862055267705e-001
1	 2.226505887565815e+000	 3.872196156391829e+000	 5.677155669308025e-001
1	 2.184371693350319e+000	 3.896120183094671e+000	 5.662213711146127e-001
1	 2.053955311797024e+000	 3.663505057243499e+000	 1.596888009665900e+000
1	 2.014160787468252e+000	 3.685533680363033e+000	 1.639895014361438e+000
1	 1.974192364944430e+000	 3.707096848820648e+000	 1.673284387887034e+000
1	 1.934058010402449e+000	 3.728192913598081e+000	 1.695308096540487e+000
1	 1.893765698057606e+000	 3.748820402933820e+000	 1.704285867033765e+000
1	 1.853323405364218e+000	 3.768978021749815e+000	 1.698607089146064e+000
1	 1.812739108261148e+000	 3.788664650926862e+000	 1.676732575306142e+000
1	 1.772020776467593e+000	 3.807879346431334e+000	 1.637196175612005e+000
1	 1.731176368834391e+000	 3.826621338296152e+000	 1.578606247172852e+000
1	 1.690213828755852e+000	 3.844890029459100e+000	 1.499646977031992e+000
1	 1.649141079647045e+000	 3.862684994461763e+000	 1.399079558298044e+000
1	 2.066996949951050e+000	 3.686766569830242e+000	 1.472851537667101e+000
1	 2.026949749342556e+000	 3.708935064216883e+000	 1.509696816200822e+000
1	 1.986727546368358e+000	 3.730635148526094e+000	 1.537734993947978e+000
1	 1.946338357786760e+000	 3.751865163269136e+000	 1.555307134854517e+000
1	 1.905790208445515e+000	 3.772623627339524e+000	 1.560823549696213e+000
1	 1.865091126451960e+000	 3.792909237436087e+000	 1.552765552834099e+000
1	 1.824249138388354e+000	 3.812720867333757e+000	 1.529687074875441e+000
1	 1.783272264577802e+000	 3.832057567004748e+000	 1.490216130058607e+000
1	 1.742168514406036e+000	 3.850918561593067e+000	 1.433056137554249e+000
1	 1.700945881704125e+000	 3.869303250245444e+000	 1.356987096245558e+000
1	 1.659612340197034e+000	 3.887211204802014e+000	 1.260866612914369e+000
1	 2.080038588105280e+000	 3.710028082416403e+000	 1.353794284392135e+000
1	 2.039738711217104e+000	 3.732336448070155e+000	 1.384832258021012e+000
1	 1.999262727792577e+000	 3.754173448230980e+000	 1.407932381183915e+000
1	 1.958618705171412e+000	 3.775537412939670e+000	 1.421525002741240e+000
1	 1.917814718833813e+000	 3.796426851744760e+000	 1.424109961072473e+000
1	 1.876858847540136e+000	 3.816840453121951e+000	 1.414258209444411e+000
1	 1.835759168516035e+000	 3.836777083740311e+000	 1.390613298247569e+000
1	 1.794523752688518e+000	 3.856235787577900e+000	 1.351892713167200e+000
1	 1.753160659978216e+000	 3.875215784889800e+000	 1.296889068723324e+000
1	 1.711677934652947e+000	 3.893716471031692e+000	 1.224471156976854e+000
1	 1.670083600747572e+000	 3.911737415142255e+000	 1.133584851555851e+000
1	 2.093080226259744e+000	 3.733289595002065e+000	 1.239591305010430e+000
1	 2.052527673091920e+000	 3.755737831922926e+000	 1.265161320653605e+000
1	 2.011797909217094e+000	 3.777711747935385e+000	 1.283704744370261e+000
1	 1.970899052556393e+000	 3.799209662609751e+000	 1.293741405309439e+000
1	 1.929839229222469e+000	 3.820230076149579e+000	 1.293859636532965e+000
1	 1.888626568628697e+000	 3.840771668807451e+000	 1.282717783336856e+000
1	 1.847269198644123e+000	 3.860833300146565e+000	 1.259045571371536e+000
1	 1.805775240799660e+000	 3.880414008150812e+000	 1.221645333813931e+000
1	 1.764152805550830e+000	 3.899513008186364e+000	 1.169393097202333e+000
1	 1.722409987602206e+000	 3.918129691817841e+000	 1.101239525897246e+000
1	 1.680554861298542e+000	 3.936263625482468e+000	 1.016210725477116e+000
1	 2.106121864414475e+000	 3.756551107587308e+000	 1.130120749451529e+000
1	 2.065316634967021e+000	 3.779139215775277e+000	 1.150547453066809e+000
1	 2.024333090641914e+000	 3.801250047639374e+000	 1.164884533728266e+000
1	 1.983179399941691e+000	 3.822881912279439e+000	 1.171741504154827e+000
1	 1.941863739611455e+000	 3.844033300554042e+000	 1.169794182124965e+000
1	 1.900394289717594e+000	 3.864702884492636e+000	 1.157786095925893e+000
1	 1.858779228772551e+000	 3.884889516552547e+000	 1.134529754482199e+000
1	 1.817026728911142e+000	 3.904592228723509e+000	 1.098907781542821e+000
1	 1.775144951123781e+000	 3.923810231482768e+000	 1.049873913649116e+000
1	 1.733142040551793e+000	 3.942542912603885e+000	 9.864538619450306e-001
1	 1.691026121849827e+000	 3.960789835822633e+000	 9.077460382221704e-001
1	 2.119163502569507e+000	 3.779812620172219e+000	 1.025263767177016e+000
1	 2.078105596842430e+000	 3.802540599627279e+000	 1.040857465648368e+000
1	 2.036868272067042e+000	 3.824788347343020e+000	 1.051308323981843e+000
1	 1.995459747327293e+000	 3.846554161948798e+000	 1.055315749459977e+000
1	 1.953888250000736e+000	 3.867836524958197e+000	 1.051642057002767e+000
1	 1.912162010806777e+000	 3.888634100177547e+000	 1.039113785757626e+000
1	 1.870289258901252e+000	 3.908945732958296e+000	 1.016622887181849e+000
1	 1.828278217022880e+000	 3.928770449296013e+000	 9.831277840622081e-001
1	 1.786137096696969e+000	 3.948107454779024e+000	 9.376543002419683e-001
1	 1.743874093501599e+000	 3.966956133389826e+000	 8.792964611468827e-001
1	 1.701497382401312e+000	 3.985316046162736e+000	 8.072171655161085e-001
1	 2.132205140724873e+000	 3.803074132756878e+000	 9.249044154472860e-001
1	 2.090894558718166e+000	 3.825941983479015e+000	 9.359614274048460e-001
1	 2.049403453492485e+000	 3.848326647046395e+000	 9.428166882198940e-001
1	 2.007740094713190e+000	 3.870226411617892e+000	 9.442597182559818e-001
1	 1.965912760390286e+000	 3.891639749362105e+000	 9.391383638423585e-001
1	 1.923929731896198e+000	 3.912565315862232e+000	 9.263600388596628e-001
1	 1.881799289030159e+000	 3.933001949363844e+000	 9.048928465470538e-001
1	 1.839529705134790e+000	 3.952948669868349e+000	 8.737665809806218e-001
1	 1.797129242270298e+000	 3.972404678075140e+000	 8.320736079779758e-001
1	 1.754606146451515e+000	 3.991369354175658e+000	 7.789696254838563e-001
1	 1.711968642952877e+000	 4.009842256502755e+000	 7.136743037860212e-001
1	 2.145246778880603e+000	 3.826335645341369e+000	 8.289295709343547e-001
1	 2.103683520594251e+000	 3.849343367330560e+000	 8.357325669107003e-001
1	 2.061938634918248e+000	 3.871864946749569e+000	 8.392540763595547e-001
1	 2.020020442099368e+000	 3.893898661286785e+000	 8.383739585837122e-001
1	 1.977937270780072e+000	 3.915442973765817e+000	 8.320246469009625e-001
1	 1.935697452985807e+000	 3.936496531546734e+000	 8.191923289268100e-001
1	 1.893309319159202e+000	 3.957058165769227e+000	 7.989180177062959e-001
1	 1.850781193246788e+000	 3.977126890440536e+000	 7.702985130909686e-001
1	 1.808121387843667e+000	 3.996701901371128e+000	 7.324872530372882e-001
1	 1.765338199401428e+000	 4.015782574961377e+000	 6.846950547784859e-001
1	 1.722439903504408e+000	 4.034368466842676e+000	 6.261907460928233e-001
1	 2.158288417036733e+000	 3.849597157925777e+000	 7.372288445391613e-001
1	 2.116472482470704e+000	 3.872744751181992e+000	 7.400471768484719e-001
1	 2.074473816344336e+000	 3.895403246452611e+000	 7.404686980159043e-001
1	 2.032300789485816e+000	 3.917570910955538e+000	 7.374638393050343e-001
1	 1.989961781170066e+000	 3.939246198169390e+000	 7.300486973980274e-001
1	 1.947465174075554e+000	 3.960427747231099e+000	 7.172861669263697e-001
1	 1.904819349288316e+000	 3.981114382174480e+000	 6.982869763610243e-001
1	 1.862032681358789e+000	 4.001305111012600e+000	 6.722106265455051e-001
1	 1.819113533416977e+000	 4.020999124666999e+000	 6.382662314070570e-001
1	 1.776070252351231e+000	 4.040195795746982e+000	 5.957132606293348e-001
1	 1.732911164055787e+000	 4.058894677182480e+000	 5.438621843144839e-001
1	 2.171330055193294e+000	 3.872858670510183e+000	 6.496944992786958e-001
1	 2.129261444347548e+000	 3.896146135033388e+000	 6.487845219891626e-001
1	 2.087008997770753e+000	 3.918941546155594e+000	 6.463124095927213e-001
1	 2.044581136872522e+000	 3.941243160624216e+000	 6.413394053265377e-001
1	 2.001986291560236e+000	 3.963049422572876e+000	 6.329643659098599e-001
1	 1.959232895165393e+000	 3.984358962915372e+000	 6.203248597271672e-001
1	 1.916329379417432e+000	 4.005170598579635e+000	 6.025981827479083e-001
1	 1.873284169470709e+000	 4.025483331584564e+000	 5.790022912954166e-001
1	 1.830105678990131e+000	 4.045296347962762e+000	 5.487966509971725e-001
1	 1.786802305300814e+000	 4.064609016532470e+000	 5.112830014660512e-001
1	 1.743382424606897e+000	 4.083420887522147e+000	 4.658060364770426e-001
1	 2.184371693350319e+000	 3.896120183094671e+000	 5.662213711146127e-001
1	 2.142050406224803e+000	 3.919547518884829e+000	 5.618267504689550e-001
1	 2.099544179197507e+000	 3.942479845858591e+000	 5.566406054179708e-001
1	 2.056861484259474e+000	 3.964915410292883e+000	 5.498152380094963e-001
1	 2.014010801950552e+000	 3.986852646976335e+000	 5.405313814847191e-001
1	 1.971000616255271e+000	 4.008290178599602e+000	 5.279992773750655e-001
1	 1.927839409546484e+000	 4.029226814984732e+000	 5.114596865641732e-001
1	 1.884535657582464e+000	 4.049661552156452e+000	 4.901848331988665e-001
1	 1.841097824563030e+000	 4.069593571258429e+000	 4.634792805168320e-001
1	 1.797534358250065e+000	 4.089022237317836e+000	 4.306807378421838e-001
1	 1.753853685157622e+000	 4.107947097861665e+000	 3.911607981823186e-001
1	 1.649141079647045e+000	 3.862684994461763e+000	 1.399079558298044e+000
1	 1.607959836669317e+000	 3.880008541358522e+000	 1.280028082469484e+000
1	 1.566684128643885e+000	 3.896857880884244e+000	 1.147467817883936e+000
1	 1.525321798057408e+000	 3.913233096336334e+000	 1.002963761090620e+000
1	 1.483880649957763e+000	 3.929134436186638e+000	 8.481040784189265e-001
1	 1.442368447821710e+000	 3.944562312133359e+000	 6.844974877497511e-001
1	 1.400792909513493e+000	 3.959517297036671e+000	 5.137706493177393e-001
1	 1.359161703337863e+000	 3.974000122742366e+000	 3.375655704506977e-001
1	 1.317482444190801e+000	 3.988011677797904e+000	 1.575370290168939e-001
1	 1.275762689811018e+000	 4.001553005065471e+000	-2.464997979450840e-002
1	 1.234009937135045e+000	 4.014625299236578e+000	-2.073227688904942e-001
1	 1.659612340197034e+000	 3.887211204802014e+000	 1.260866612914369e+000
1	 1.618169615936555e+000	 3.904644747972214e+000	 1.147669172558544e+000
1	 1.576631826820247e+000	 3.921601072780403e+000	 1.022176575059830e+000
1	 1.535006865130829e+000	 3.938080263052890e+000	 8.859763455760313e-001
1	 1.493302585474527e+000	 3.954082568839195e+000	 7.406648988423205e-001
1	 1.451526800622489e+000	 3.969608404451610e+000	 5.878451236239373e-001
1	 1.409687277443730e+000	 3.984658346387703e+000	 4.291239968284740e-001
1	 1.367791732933090e+000	 3.999233131140132e+000	 2.661102313418772e-001
1	 1.325847830337527e+000	 4.013333652898218e+000	 1.004119614873136e-001
1	 1.283863175383798e+000	 4.026960961145822e+000	-6.636553016635484e-002
1	 1.241845312610418e+000	 4.040116258160178e+000	-2.326220410984099e-001
1	 1.670083600747572e+000	 3.911737415142255e+000	 1.133584851555851e+000
1	 1.628379395204329e+000	 3.929280954585979e+000	 1.026949832696618e+000
1	 1.586579524997117e+000	 3.946344264676716e+000	 9.090447753416037e-001
1	 1.544691932204722e+000	 3.962927429769678e+000	 7.814661351180490e-001
1	 1.502724520991713e+000	 3.979030701492055e+000	 6.458072416740831e-001
1	 1.460685153423631e+000	 3.994654496770230e+000	 5.036560666962541e-001
1	 1.418581645374264e+000	 4.009799395739160e+000	 3.565930387439068e-001
1	 1.376421762528546e+000	 4.024466139538372e+000	 2.061889082349840e-001
1	 1.334213216484404e+000	 4.038655627999038e+000	 5.400266572893397e-002
1	 1.291963660956650e+000	 4.052368917226700e+000	-9.842048354130899e-002
1	 1.249680688085785e+000	 4.065607217084311e+000	-2.495510861335565e-001
1	 1.680554861298542e+000	 3.936263625482468e+000	 1.016210725477116e+000
1	 1.638589174472520e+000	 3.953917161199783e+000	 9.166897835294690e-001
1	 1.596527223174380e+000	 3.971087456573137e+000	 8.067660787805014e-001
1	 1.554376999278973e+000	 3.987774596486632e+000	 6.880315346486200e-001
1	 1.512146456509218e+000	 4.003978834145139e+000	 5.620651688290448e-001
1	 1.469843506225049e+000	 4.019700589089125e+000	 4.304310260235211e-001
1	 1.427476013305023e+000	 4.034940445090934e+000	 2.946761712057014e-001
1	 1.385051792124171e+000	 4.049699147936963e+000	 1.563287461389127e-001
1	 1.342578602631395e+000	 4.063977603100238e+000	 1.689609165575198e-002
1	 1.300064146529557e+000	 4.077776873307971e+000	-1.221370620012477e-001
1	 1.257516063561146e+000	 4.091098176008841e+000	-2.593103346895517e-001
1	 1.691026121849827e+000	 3.960789835822633e+000	 9.077460382221709e-001
1	 1.648798953741009e+000	 3.978553367813596e+000	 8.157379800541068e-001
1	 1.606474921351918e+000	 3.995830648469615e+000	 7.140665021750479e-001
1	 1.564062066353473e+000	 4.012621763203689e+000	 6.043056652218607e-001
1	 1.521568392026944e+000	 4.028926966798368e+000	 4.880090520569538e-001
1	 1.479001859026653e+000	 4.044746681408201e+000	 3.667078466146740e-001
1	 1.436370381235935e+000	 4.060081494442918e+000	 2.419089835961111e-001
1	 1.393681821719912e+000	 4.074932156335789e+000	 1.150933712220669e-001
1	 1.350943988778462e+000	 4.089299578201687e+000	-1.228581096715307e-002
1	 1.308164632102501e+000	 4.103184829389508e+000	-1.388047374968687e-001
1	 1.265351439036504e+000	 4.116589134933640e+000	-2.630704839810976e-001
1	 1.701497382401312e+000	 3.985316046162736e+000	 8.072171655161089e-001
1	 1.659008733009677e+000	 4.003189574427382e+000	 7.229717120566980e-001
1	 1.616422619529614e+000	 4.020573840366099e+000	 6.297034234305723e-001
1	 1.573747133428113e+000	 4.037468929920784e+000	 5.289552957739302e-001
1	 1.530990327544788e+000	 4.053875099451660e+000	 4.222444556626736e-001
1	 1.488160211828356e+000	 4.069792773727361e+000	 3.110603667306814e-001
1	 1.445264749166924e+000	 4.085222543795005e+000	 1.968631140751688e-001
1	 1.402311851315711e+000	 4.100165164734731e+000	 8.108176826075998e-002
1	 1.359309374925568e+000	 4.114621553303265e+000	-3.488716949423303e-002
1	 1.316265117675463e+000	 4.128592785471173e+000	-1.496812395927907e-001
1	 1.273186814511861e+000	 4.142080093858573e+000	-2.619734126645111e-001
1	 1.711968642952877e+000	 4.009842256502755e+000	 7.136743037860212e-001
1	 1.669218512278404e+000	 4.027825781041109e+000	 6.372957375634637e-001
1	 1.626370317707353e+000	 4.045317032262544e+000	 5.524646224577164e-001
1	 1.583432200502779e+000	 4.062316096637850e+000	 4.606798140862353e-001
1	 1.540412263062650e+000	 4.078823232104933e+000	 3.634110602293597e-001
1	 1.497318564630068e+000	 4.094838866046509e+000	 2.620973171204923e-001
1	 1.454159117097919e+000	 4.110363593147087e+000	 1.581451471184757e-001
1	 1.410941880911512e+000	 4.125398173133672e+000	 5.292719928421716e-002
1	 1.367674761072674e+000	 4.139943528404842e+000	-5.221922584638501e-002
1	 1.324365603248425e+000	 4.154000741552840e+000	-1.559935262294154e-001
1	 1.281022189987216e+000	 4.167571052783504e+000	-2.571330621815787e-001
1	 1.722439903504408e+000	 4.034368466842676e+000	 6.261907460928236e-001
1	 1.679428291547071e+000	 4.052461987654741e+000	 5.576414478998005e-001
1	 1.636318015885016e+000	 4.070060224158895e+000	 4.811673570550794e-001
1	 1.593117267577364e+000	 4.087163263354825e+000	 3.982102352836709e-001
1	 1.549834198580428e+000	 4.103771364758110e+000	 3.101816255998923e-001
1	 1.506476917431703e+000	 4.119884958365555e+000	 2.184612604082769e-001
1	 1.463053485028845e+000	 4.135504642499055e+000	 1.243955512683044e-001
1	 1.419571910507259e+000	 4.150631181532491e+000	 2.929616166287033e-002
1	 1.376040147219742e+000	 4.165265503506291e+000	-6.556133611602338e-002
1	 1.332466088821368e+000	 4.179408697634375e+000	-1.589387190753999e-001
1	 1.288857565462575e+000	 4.193062011708301e+000	-2.496362859555880e-001
1	 1.732911164055787e+000	 4.058894677182480e+000	 5.438621843144836e-001
1	 1.689638070815559e+000	 4.077098194268250e+000	 4.829660630205215e-001
1	 1.646265714062487e+000	 4.094803416055106e+000	 4.146574722961687e-001
1	 1.602802334651755e+000	 4.112010430071640e+000	 3.403082462802617e-001
1	 1.559256134098022e+000	 4.128719497411107e+000	 2.612609914558776e-001
1	 1.515635270233171e+000	 4.144931050684400e+000	 1.788275689337743e-001
1	 1.471947852959630e+000	 4.160645691850804e+000	 9.428765539708947e-002
1	 1.428201940102896e+000	 4.175864189931072e+000	 8.887383971734428e-003
1	 1.384405533366737e+000	 4.190587478607486e+000	-7.616193393096571e-002
1	 1.340566574394276e+000	 4.204816653715645e+000	-1.596850049684268e-001
1	 1.296692940937935e+000	 4.218552970632833e+000	-2.405436677993642e-001
1	 1.743382424606897e+000	 4.083420887522147e+000	 4.658060364770426e-001
1	 1.699847850083750e+000	 4.101734400881598e+000	 4.122518558386306e-001
1	 1.656213412239648e+000	 4.119546607951128e+000	 3.518085420120204e-001
1	 1.612487401725841e+000	 4.136857596788231e+000	 2.857652846608059e-001
1	 1.568678069615330e+000	 4.153667630063846e+000	 2.153851139135418e-001
1	 1.524793623034385e+000	 4.169977143002951e+000	 1.419034394288835e-001
1	 1.480842220890201e+000	 4.185786741202223e+000	 6.652666186399693e-002
1	 1.436831969698366e+000	 4.201097198329295e+000	-9.569141959413843e-003
1	 1.392770919513618e+000	 4.215909453708301e+000	-8.523945910090912e-002
1	 1.348667059967129e+000	 4.230224609796522e+000	-1.593725048701623e-001
1	 1.304528316413302e+000	 4.244043929556965e+000	-2.308903108297196e-001
1	 1.753853685157622e+000	 4.107947097861665e+000	 3.911607981823185e-001
1	 1.710057629351524e+000	 4.126370607494756e+000	 3.445054043406138e-001
1	 1.666161110416385e+000	 4.144289799846914e+000	 2.915210410281512e-001
1	 1.622172468799514e+000	 4.161704763504537e+000	 2.334016505593636e-001
1	 1.578100005132252e+000	 4.178615762716244e+000	 1.713201366312064e-001
1	 1.533951975835255e+000	 4.195023235321111e+000	 1.064269429911298e-001
1	 1.489736588820484e+000	 4.210927790553209e+000	 3.984869502282864e-002
1	 1.445461999293614e+000	 4.226330206727043e+000	-2.731309432143304e-002
1	 1.401136305660350e+000	 4.241231428808610e+000	-9.398325299737748e-002
1	 1.356767545539909e+000	 4.255632565876874e+000	-1.591141116929449e-001
1	 1.312363691888676e+000	 4.269534888480566e+000	-2.216865981209767e-001
1	 1.234009937135045e+000	 4.014625299236578e+000	-2.073227688904942e-001
1	 1.192231618162235e+000	 4.027229903250403e+000	-3.907424862096897e-001
1	 1.150435094796215e+000	 4.039368302625527e+000	-5.752494544558146e-001
1	 1.108627657420195e+000	 4.051042125731239e+000	-7.592957468249350e-001
1	 1.066816522301443e+000	 4.062253141966685e+000	-9.413485497006183e-001
1	 1.025008828498531e+000	 4.073003258861230e+000	-1.119891893020045e+000
1	 9.832116348843374e-001	 4.083294519104892e+000	-1.293428320823524e+000
1	 9.414319172861082e-001	 4.093129097513706e+000	-1.460480500252644e+000
1	 8.996765657436613e-001	 4.102509297934844e+000	-1.619592767446193e+000
1	 8.579523818866406e-001	 4.111437550096344e+000	-1.769332608965113e+000
1	 8.162660764314832e-001	 4.119916406406245e+000	-1.908292077558732e+000
1	 1.241845312610418e+000	 4.040116258160178e+000	-2.326220410984099e-001
1	 1.199801721206407e+000	 4.052800895407485e+000	-3.987729049535397e-001
1	 1.157739809819977e+000	 4.065016367838656e+000	-5.652799302313150e-001
1	 1.115666915124803e+000	 4.076764314162330e+000	-7.306281567063525e-001
1	 1.073590299208018e+000	 4.088046515012492e+000	-8.933179171416359e-001
1	 1.031517146457816e+000	 4.098864890030392e+000	-1.051866559797572e+000
1	 9.894545605675654e-001	 4.109221494876151e+000	-1.204810110656706e+000
1	 9.474095616576930e-001	 4.119118518174838e+000	-1.350704873641637e+000
1	 9.053890835164922e-001	 4.128558278401947e+000	-1.488128967288723e+000
1	 8.633999709607189e-001	 4.137543220713116e+000	-1.615683796523493e+000
1	 8.214489773166679e-001	 4.146075913722957e+000	-1.731995458366046e+000
1	 1.249680688085785e+000	 4.065607217084311e+000	-2.495510861335565e-001
1	 1.207371824250493e+000	 4.078371887565093e+000	-3.998730381248895e-001
1	 1.165044524843574e+000	 4.090664433052284e+000	-5.498871288184405e-001
1	 1.122706172829171e+000	 4.102486502593892e+000	-6.981129199308320e-001
1	 1.080364076114282e+000	 4.113839888058725e+000	-8.430856588592688e-001
1	 1.038025464416730e+000	 4.124726521199935e+000	-9.833579827199537e-001
1	 9.956974862503660e-001	 4.135148470647740e+000	-1.117501561538025e+000
1	 9.533872060288052e-001	 4.145107938836248e+000	-1.244108678903544e+000
1	 9.111016012888167e-001	 4.154607258869276e+000	-1.361793748593095e+000
1	 8.688475600342709e-001	 4.163648891330075e+000	-1.469194765841392e+000
1	 8.266318782013200e-001	 4.172235421039815e+000	-1.564974692129503e+000
1	 1.257516063561146e+000	 4.091098176008841e+000	-2.593103346895517e-001
1	 1.214941927294513e+000	 4.103942879723094e+000	-3.951077833853496e-001
1	 1.172349239867047e+000	 4.116312498266290e+000	-5.300037777186305e-001
1	 1.129745430533360e+000	 4.128208691025804e+000	-6.625538586454743e-001
1	 1.087137853020315e+000	 4.139633261105280e+000	-7.913298561416834e-001
1	 1.044533782375364e+000	 4.150588152369766e+000	-9.149215642861919e-001
1	 1.001940411932846e+000	 4.161075446419583e+000	-1.031938354836110e+000
1	 9.593648503995628e-001	 4.171097359497876e+000	-1.141010727668440e+000
1	 9.168141190607614e-001	 4.180656239336790e+000	-1.240791796649440e+000
1	 8.742951491074273e-001	 4.189754561947185e+000	-1.329958709677032e+000
1	 8.318147790855720e-001	 4.198394928356807e+000	-1.407214001824287e+000
1	 1.265351439036504e+000	 4.116589134933640e+000	-2.630704839810976e-001
1	 1.222512030338491e+000	 4.129513871881357e+000	-3.855156619368149e-001
1	 1.179653954890438e+000	 4.141960563480546e+000	-5.065395016977722e-001
1	 1.136784688237429e+000	 4.153930879457952e+000	-6.247348851199360e-001
1	 1.093911629926192e+000	 4.165426634152051e+000	-7.387117948761888e-001
1	 1.051042100333811e+000	 4.176449783539791e+000	-8.470989502266424e-001
1	 1.008183337615112e+000	 4.187002422191599e+000	-9.485453805247720e-001
1	 9.653424947700844e-001	 4.197086780159657e+000	-1.041721934919250e+000
1	 9.225266368324533e-001	 4.206705219804441e+000	-1.125322726897037e+000
1	 8.797427381803207e-001	 4.215860232564423e+000	-1.198066512497293e+000
1	 8.369976799695581e-001	 4.224554435673913e+000	-1.258698001207707e+000
1	 1.273186814511861e+000	 4.142080093858573e+000	-2.619734126645111e-001
1	 1.230082133382446e+000	 4.155084864039749e+000	-3.721096301440581e-001
1	 1.186958669913788e+000	 4.167608628694931e+000	-4.803815336738661e-001
1	 1.143823945941437e+000	 4.179653067890219e+000	-5.854206143875325e-001
1	 1.100685406831993e+000	 4.191220007198934e+000	-6.858764823557613e-001
1	 1.057550418292166e+000	 4.202311414709921e+000	-7.804184528085628e-001
1	 1.014426263297271e+000	 4.212929397963709e+000	-8.677370692418812e-001
1	 9.713201391404875e-001	 4.223076200821530e+000	-9.465455619771260e-001
1	 9.282391546040187e-001	 4.232754200272183e+000	-1.015581240927214e+000
1	 8.851903272530822e-001	 4.241965903181751e+000	-1.073606821505412e+000
1	 8.421805808534109e-001	 4.250713942991122e+000	-1.119411682794471e+000
1	 1.281022189987216e+000	 4.167571052783504e+000	-2.571330621815787e-001
1	 1.237652236426401e+000	 4.180655856198142e+000	-3.558778613715802e-001
1	 1.194263384937138e+000	 4.193256693909315e+000	-4.523953995159722e-001
1	 1.150863203645446e+000	 4.205375256322486e+000	-5.453569544031524e-001
1	 1.107459183737793e+000	 4.217013380245822e+000	-6.334531451191915e-001
1	 1.064058736250520e+000	 4.228173045880061e+000	-7.153954586067741e-001
1	 1.020669188979431e+000	 4.238856373735842e+000	-7.899177121619740e-001
1	 9.772977835108908e-001	 4.249065621483434e+000	-8.557774505695158e-001
1	 9.339516723755841e-001	 4.258803180739971e+000	-9.117572767609743e-001
1	 8.906379163258440e-001	 4.268071573799145e+000	-9.566661150619593e-001
1	 8.473634817372634e-001	 4.276873450308417e+000	-9.893404062731706e-001
1	 1.288857565462575e+000	 4.193062011708301e+000	-2.496362859555880e-001
1	 1.245222339470378e+000	 4.206226848356404e+000	-3.377844993022819e-001
1	 1.201568099960529e+000	 4.218904759123572e+000	-4.234255778643304e-001
1	 1.157902461349515e+000	 4.231097444754642e+000	-5.052716746745172e-001
1	 1.114232960643671e+000	 4.242806753292610e+000	-5.820557086320942e-001
1	 1.070567054208968e+000	 4.254034677050119e+000	-6.525328214004873e-001
1	 1.026912114661696e+000	 4.264783349507912e+000	-7.154817692012534e-001
1	 9.832754278814122e-001	 4.275055042145304e+000	-7.697062483603536e-001
1	 9.396641901472760e-001	 4.284852161207754e+000	-8.140361536451828e-001
1	 8.960855053987374e-001	 4.294177244416569e+000	-8.473287686101495e-001
1	 8.525463826212494e-001	 4.303032957625782e+000	-8.684698873453494e-001
1	 1.296692940937935e+000	 4.218552970632833e+000	-2.405436677993642e-001
1	 1.252792442514398e+000	 4.231797840514404e+000	-3.187703839441842e-001
1	 1.208872814984002e+000	 4.244552824337582e+000	-3.942961360285004e-001
1	 1.164941719053704e+000	 4.256819633186568e+000	-4.658749542775080e-001
1	 1.121006737549704e+000	 4.268600126339194e+000	-5.322832595768489e-001
1	 1.077075372167601e+000	 4.279896308220005e+000	-5.923212408255201e-001
1	 1.033155040344177e+000	 4.290710325279848e+000	-6.448141660484198e-001
1	 9.892530722521703e-001	 4.301044462807081e+000	-6.886136263035978e-001
1	 9.453767079192210e-001	 4.310901141675489e+000	-7.225987115990412e-001
1	 9.015330944718941e-001	 4.320282915033996e+000	-7.456771182109664e-001
1	 8.577292835055019e-001	 4.329192464943204e+000	-7.567861869691699e-001
1	 1.304528316413302e+000	 4.244043929556965e+000	-2.308903108297196e-001
1	 1.260362545558484e+000	 4.257368832672012e+000	-2.997537514734980e-001
1	 1.216177530007600e+000	 4.270200889551218e+000	-3.658113429691336e-001
1	 1.171980976758072e+000	 4.282541821618144e+000	-4.278599101222006e-001
1	 1.127780514455968e+000	 4.294393499385465e+000	-4.847204914826593e-001
1	 1.083583690126515e+000	 4.305757939389624e+000	-5.352396273806900e-001
1	 1.039397966026977e+000	 4.316637301051570e+000	-5.782905804912254e-001
1	 9.952307166232824e-001	 4.327033883468700e+000	-6.127744881637833e-001
1	 9.510892256915459e-001	 4.336950122143130e+000	-6.376214459316822e-001
1	 9.069806835454459e-001	 4.346388585651395e+000	-6.517915217886378e-001
1	 8.629121843901538e-001	 4.355351972260665e+000	-6.542757009907405e-001
1	 1.312363691888676e+000	 4.269534888480566e+000	-2.216865981209767e-001
1	 1.267932648602657e+000	 4.282939824829096e+000	-2.816309090075378e-001
1	 1.223482245031363e+000	 4.295848954764352e+000	-3.387562603211293e-001
1	 1.179020234462681e+000	 4.308264010049258e+000	-3.919031062951245e-001
1	 1.134554291362543e+000	 4.320186872431324e+000	-4.399381343919767e-001
1	 1.090092008085801e+000	 4.331619570558885e+000	-4.817554543587814e-001
1	 1.045640891710206e+000	 4.342564276822999e+000	-5.162777184860515e-001
1	 1.001208360994867e+000	 4.353023304130099e+000	-5.424571725310294e-001
1	 9.568017434643769e-001	 4.362999102610631e+000	-5.592766369409410e-001
1	 9.124282726195250e-001	 4.372494256268735e+000	-5.657504181821308e-001
1	 8.680950852753391e-001	 4.381511479578151e+000	-5.609251501468729e-001
1	 8.162660764314832e-001	 4.119916406406245e+000	-1.908292077558732e+000
1	 7.746305074992251e-001	 4.127947367894609e+000	-2.036048892881071e+000
1	 7.330459304817425e-001	 4.135534529605869e+000	-2.151110289074293e+000
1	 6.915187573703857e-001	 4.142680794474465e+000	-2.250418935717726e+000
1	 6.500553007098910e-001	 4.149389174776561e+000	-2.330917449764480e+000
1	 6.086617716998224e-001	 4.155662788750935e+000	-2.389553232983535e+000
1	 5.673442784153442e-001	 4.161504857197135e+000	-2.423283186380340e+000
1	 5.261088241467260e-001	 4.166918700055335e+000	-2.429078295957010e+000
1	 4.849613058567812e-001	 4.171907732972209e+000	-2.403928084635866e+000
1	 4.439075127552784e-001	 4.176475463857045e+000	-2.344844925630924e+000
1	 4.029531249892538e-001	 4.180625489432248e+000	-2.248868213010506e+000
1	 8.214489773166679e-001	 4.146075913722957e+000	-1.731995458366047e+000
1	 7.795490423483210e-001	 4.154157867992348e+000	-1.836352863177565e+000
1	 7.377004230691648e-001	 4.161793204567332e+000	-1.927293963719267e+000
1	 6.959095721836308e-001	 4.168984844814609e+000	-2.002287251950580e+000
1	 6.541828423181006e-001	 4.175735820136897e+000	-2.058803290123064e+000
1	 6.125264841102887e-001	 4.182049268572325e+000	-2.094318703017439e+000
1	 5.709466444187183e-001	 4.187928431371006e+000	-2.106320065574575e+000
1	 5.294493646516858e-001	 4.193376649553176e+000	-2.092307681336671e+000
1	 4.880405792149012e-001	 4.198397360453264e+000	-2.049799247500734e+000
1	 4.467261140768504e-001	 4.202994094254131e+000	-1.976333402771981e+000
1	 4.055116854507895e-001	 4.207170470515678e+000	-1.869473154587198e+000
1	 8.266318782013200e-001	 4.172235421039815e+000	-1.564974692129503e+000
1	 7.844675771968939e-001	 4.180368368090208e+000	-1.648198151247067e+000
1	 7.423549156560875e-001	 4.188051879528887e+000	-1.717466861431504e+000
1	 7.003003869964146e-001	 4.195288895154834e+000	-1.770729573737114e+000
1	 6.583103839258989e-001	 4.202082465497299e+000	-1.805938889005021e+000
1	 6.163911965204039e-001	 4.208435748393775e+000	-1.821054478956969e+000
1	 5.745490104218124e-001	 4.214352005544932e+000	-1.814046219739334e+000
1	 5.327899051564446e-001	 4.219834599051070e+000	-1.782897234289147e+000
1	 4.911198525729068e-001	 4.224886987934367e+000	-1.725606840210987e+000
1	 4.495447153984006e-001	 4.229512724651258e+000	-1.640193400168746e+000
1	 4.080702459124012e-001	 4.233715451599140e+000	-1.524697072109486e+000
1	 8.318147790855720e-001	 4.198394928356807e+000	-1.407214001824287e+000
1	 7.893861120450737e-001	 4.206578868188181e+000	-1.471453092671261e+000
1	 7.470094082426360e-001	 4.214310554490548e+000	-1.521365672749275e+000
1	 7.046912018088520e-001	 4.221592945495159e+000	-1.555336028713866e+000
1	 6.624379255333880e-001	 4.228429110857804e+000	-1.571753736291276e+000
1	 6.202559089302560e-001	 4.234822228215323e+000	-1.569016183464667e+000
1	 5.781513764246962e-001	 4.240775579718960e+000	-1.545531021822052e+000
1	 5.361304456610525e-001	 4.246292548549063e+000	-1.499718543296093e+000
1	 4.941991259308264e-001	 4.251376615415562e+000	-1.430013979779222e+000
1	 4.523633167199344e-001	 4.256031355048466e+000	-1.334869723349560e+000
1	 4.106288063740699e-001	 4.260260432682666e+000	-1.212757465092774e+000
1	 8.369976799695581e-001	 4.224554435673913e+000	-1.258698001207707e+000
1	 7.943046468929925e-001	 4.232789368286273e+000	-1.305989284229811e+000
1	 7.516639008289349e-001	 4.240569229452331e+000	-1.338733610126023e+000
1	 7.090820166210586e-001	 4.247896995835609e+000	-1.355706896650310e+000
1	 6.665654671406717e-001	 4.254775756218443e+000	-1.355691452833750e+000
1	 6.241206213399322e-001	 4.261208708037015e+000	-1.337477876692750e+000
1	 5.817537424274395e-001	 4.267199153893132e+000	-1.299866895480772e+000
1	 5.394709861655601e-001	 4.272750498047199e+000	-1.241671146475027e+000
1	 4.972783992886888e-001	 4.277866242896895e+000	-1.161716896485648e+000
1	 4.551819180414574e-001	 4.282549985445801e+000	-1.058845698469588e+000
1	 4.131873668357766e-001	 4.286805413766293e+000	-9.319159838240498e-001
1	 8.421805808534109e-001	 4.250713942991122e+000	-1.119411682794471e+000
1	 7.992231817407802e-001	 4.258999868384477e+000	-1.151681483550808e+000
1	 7.563183934151089e-001	 4.266827904414242e+000	-1.169320207246239e+000
1	 7.134728314331503e-001	 4.274201046176213e+000	-1.171452297060379e+000
1	 6.706930087478520e-001	 4.281122401579249e+000	-1.157209355635086e+000
1	 6.279853337495213e-001	 4.287595187858888e+000	-1.125731488948186e+000
1	 5.853561084301131e-001	 4.293622728067493e+000	-1.076168605797048e+000
1	 5.428115266700170e-001	 4.299208447545529e+000	-1.007681671548791e+000
1	 5.003576726465228e-001	 4.304355870378412e+000	-9.194439149588837e-001
1	 4.580005193629747e-001	 4.309068615843296e+000	-8.106419870032446e-001
1	 4.157459272975020e-001	 4.313350394850049e+000	-6.804770708107021e-001
1	 8.473634817372634e-001	 4.276873450308417e+000	-9.893404062731706e-001
1	 8.041417165885678e-001	 4.285210368482794e+000	-1.008407512443982e+000
1	 7.609728860012828e-001	 4.293086579376300e+000	-1.012881125706213e+000
1	 7.178636462452411e-001	 4.300505096516986e+000	-1.002191888278198e+000
1	 6.748205503550323e-001	 4.307469046940256e+000	-9.757780389858358e-001
1	 6.318500461591106e-001	 4.313981667680984e+000	-9.330862741783759e-001
1	 5.889584744327866e-001	 4.320046302242091e+000	-8.735725760190052e-001
1	 5.461520671744742e-001	 4.325666397044096e+000	-7.967030073772785e-001
1	 5.034369460043564e-001	 4.330845497860159e+000	-7.019544726500875e-001
1	 4.608191206844920e-001	 4.335587246240998e+000	-5.888154439363024e-001
1	 4.183044877592277e-001	 4.339895375933969e+000	-4.567866520868879e-001
1	 8.525463826212494e-001	 4.303032957625782e+000	-8.684698873453493e-001
1	 8.090602514364863e-001	 4.311420868581226e+000	-8.760481637599121e-001
1	 7.656273785875816e-001	 4.319345254338512e+000	-8.691779687463037e-001
1	 7.222544610574481e-001	 4.326809146857958e+000	-8.475545775104170e-001
1	 6.789480919623159e-001	 4.333815692301495e+000	-8.108809708801271e-001
1	 6.357147585687870e-001	 4.340368147503342e+000	-7.588682833914593e-001
1	 5.925608404355304e-001	 4.346469876416972e+000	-6.912362292268532e-001
1	 5.494926076789813e-001	 4.352124346542950e+000	-6.077135057083367e-001
1	 5.065162193622189e-001	 4.357335125342182e+000	-5.080381741091531e-001
1	 4.636377220060149e-001	 4.362105876638947e+000	-3.919580176064549e-001
1	 4.208630482209342e-001	 4.366440357018083e+000	-2.592308762556862e-001
1	 8.577292835055019e-001	 4.329192464943204e+000	-7.567861869691699e-001
1	 8.139787862846666e-001	 4.337631368679769e+000	-7.544871116260923e-001
1	 7.702818711741304e-001	 4.345603929300893e+000	-7.379781017364363e-001
1	 7.266452758698856e-001	 4.353113197199152e+000	-7.071782414006831e-001
1	 6.830756335698049e-001	 4.360162337663001e+000	-6.620141040633966e-001
1	 6.395794709786391e-001	 4.366754627326000e+000	-6.024198571680415e-001
1	 5.961632064384143e-001	 4.372893450592176e+000	-5.283373538666170e-001
1	 5.528331481835894e-001	 4.378582296042136e+000	-4.397162118695847e-001
1	 5.095954927201386e-001	 4.383824752824525e+000	-3.365138795486090e-001
1	 4.664563233275486e-001	 4.388624507037183e+000	-2.186956894307650e-001
1	 4.234216086826029e-001	 4.392985338102428e+000	-8.623489924792736e-002
1	 8.629121843901538e-001	 4.355351972260665e+000	-6.542757009907406e-001
1	 8.188973211332394e-001	 4.363841868778422e+000	-6.436108249179106e-001
1	 7.749363637610531e-001	 4.371862604263454e+000	-6.190544791309098e-001
1	 7.310360906826695e-001	 4.379417247540587e+000	-5.807094566643409e-001
1	 6.872031751776031e-001	 4.386508983024806e+000	-5.286855010971684e-001
1	 6.434441833887548e-001	 4.393141107149004e+000	-4.630991364616449e-001
1	 5.997655724415082e-001	 4.399317024767751e+000	-3.840734921486309e-001
1	 5.561736886883482e-001	 4.405040245541704e+000	-2.917381231843708e-001
1	 5.126747660781442e-001	 4.410314380307236e+000	-1.862288262536343e-001
1	 4.692749246490988e-001	 4.415143137435748e+000	-6.768745184293233e-002
1	 4.259801691442147e-001	 4.419530319187034e+000	 6.373828712440635e-002
1	 8.680950852753391e-001	 4.381511479578151e+000	-5.609251501468729e-001
1	 8.238158559823361e-001	 4.390052368877189e+000	-5.433084838293020e-001
1	 7.795908563484760e-001	 4.398121279226209e+000	-5.121854776220987e-001
1	 7.354269054959154e-001	 4.405721297882294e+000	-4.678032403725365e-001
1	 6.913307167858134e-001	 4.412855628386947e+000	-4.104149728549065e-001
1	 6.473088957992209e-001	 4.419527586972392e+000	-3.402795909235540e-001
1	 6.033679384448826e-001	 4.425740598943745e+000	-2.576613503551686e-001
1	 5.595142291933083e-001	 4.431498195041700e+000	-1.628294739531831e-001
1	 5.157540394362644e-001	 4.436804007790360e+000	-5.605778146542612e-002
1	 4.720935259706708e-001	 4.441661767834681e+000	 6.237567715650051e-002
1	 4.285387296057504e-001	 4.446075300271935e+000	 1.921889846505298e-001
1	 4.029531249892538e-001	 4.180625489432248e+000	-2.248868213010506e+000
1	 3.620976067863624e-001	 4.184362021505855e+000	-2.118040428147254e+000
1	 3.213526407327571e-001	 4.187688172694503e+000	-1.953199871295142e+000
1	 2.807236575465107e-001	 4.190607788155261e+000	-1.749515914221640e+000
1	 2.402159721721477e-001	 4.193124788175180e+000	-1.502119119026308e+000
1	 1.998347830423366e-001	 4.195243164716059e+000	-1.206110081321933e+000
1	 1.595851714486658e-001	 4.196966977977436e+000	-8.565680728081908e-001
1	 1.194721010194017e-001	 4.198300352981236e+000	-4.485594737310697e-001
1	 7.950041730204928e-002	 4.199247476181253e+000	 2.285401349144461e-002
1	 3.967484744844285e-002	 4.199812592100591e+000	 5.626073774172891e-001
1	 0.000000000000000e+000	 4.200000000000001e+000	 1.175624544671741e+000
1	 4.055116854507895e-001	 4.207170470515678e+000	-1.869473154587198e+000
1	 3.643967541624681e-001	 4.210930727788929e+000	-1.730966468184455e+000
1	 3.233930769768961e-001	 4.214277998454132e+000	-1.561820291773762e+000
1	 2.825061190946209e-001	 4.217216152083235e+000	-1.358407134675084e+000
1	 2.417412292075336e-001	 4.219749133855214e+000	-1.117047782548551e+000
1	 2.011036387558750e-001	 4.221880961078892e+000	-8.340186601357513e-001
1	 1.605984612950160e-001	 4.223615719734105e+000	-5.055590569322542e-001
1	 1.202306919698988e-001	 4.224957561034674e+000	-1.278782068528836e-001
1	 8.000520709494793e-002	 4.225910698016350e+000	 3.028377864196761e-001
1	 3.992676383716123e-002	 4.226479402152904e+000	 7.904191860854826e-001
1	 0.000000000000000e+000	 4.226668000003317e+000	 1.338706027937828e+000
1	 4.080702459124012e-001	 4.233715451599140e+000	-1.524697072109486e+000
1	 3.666959015387499e-001	 4.237499434072024e+000	-1.380550236915026e+000
1	 3.254335132213082e-001	 4.240867824213765e+000	-1.208855404235446e+000
1	 2.842885806430887e-001	 4.243824516011196e+000	-1.007066705909920e+000
1	 2.432664862433427e-001	 4.246373479535219e+000	-7.725762782128567e-001
1	 2.023724944698756e-001	 4.248518757441675e+000	-5.027202490531967e-001
1	 1.616117511418327e-001	 4.250264461490711e+000	-1.947846445576628e-001
1	 1.209892829208255e-001	 4.251614769088035e+000	 1.539887932854902e-001
1	 8.050999688819097e-002	 4.252573919851358e+000	 5.463968857606797e-001
1	 4.017868022608303e-002	 4.253146212205121e+000	 9.852694006893157e-001
1	 0.000000000000000e+000	 4.253336000006533e+000	 1.473463546689700e+000
1	 4.106288063740699e-001	 4.260260432682666e+000	-1.212757465092774e+000
1	 3.689950489151643e-001	 4.264068140355160e+000	-1.064782878869574e+000
1	 3.274739494659248e-001	 4.267457649973411e+000	-8.920818852205913e-001
1	 2.860710421918249e-001	 4.270432879939134e+000	-6.930709227160267e-001
1	 2.447917432794692e-001	 4.272997825215163e+000	-4.660967687991700e-001
1	 2.036413501842226e-001	 4.275156553804367e+000	-2.094412552189371e-001
1	 1.626250409889994e-001	 4.276913203247188e+000	 7.867404771655782e-002
1	 1.217478738720746e-001	 4.278271977141238e+000	 4.000831857265509e-001
1	 8.101478668169221e-002	 4.279237141686184e+000	 7.566712212921281e-001
1	 4.043059661515737e-002	 4.279813022257143e+000	 1.150369687487490e+000
1	 0.000000000000000e+000	 4.280004000009551e+000	 1.583152101493846e+000
1	 4.131873668357766e-001	 4.286805413766293e+000	-9.319159838240498e-001
1	 3.712941962916668e-001	 4.290636846638357e+000	-7.817052959389931e-001
1	 3.295143857106780e-001	 4.294047475733071e+000	-6.093314807895444e-001
1	 2.878535037407400e-001	 4.297041243867040e+000	-4.140561126605442e-001
1	 2.463170003158075e-001	 4.299622170895022e+000	-1.950660106320141e-001
1	 2.049102058988005e-001	 4.301794350166915e+000	 4.852321507522803e-002
1	 1.636383308363993e-001	 4.303561945003477e+000	 3.176636054417943e-001
1	 1.225064648235386e-001	 4.304929185194208e+000	 6.133712906327454e-001
1	 8.151957647536566e-002	 4.305900363520745e+000	 9.367229303388338e-001
1	 4.068251300433339e-002	 4.306479832308872e+000	 1.288852162949540e+000
1	 0.000000000000000e+000	 4.306672000012267e+000	 1.670946069780253e+000
1	 4.157459272975020e-001	 4.313350394850049e+000	-6.804770708107021e-001
1	 3.735933436682135e-001	 4.317205552921639e+000	-5.294066163045691e-001
1	 3.315548219554992e-001	 4.320637301492754e+000	-3.584893119936801e-001
1	 2.896359652897446e-001	 4.323649607794899e+000	-1.677167888360348e-001
1	 2.478422573522515e-001	 4.326246516574762e+000	 4.299663400946985e-002
1	 2.061790616134940e-001	 4.328432146529279e+000	 2.738114703125801e-001
1	 1.646516206839160e-001	 4.330210686759509e+000	 5.249605409766668e-001
1	 1.232650557751100e-001	 4.331586393246865e+000	 7.967464075178884e-001
1	 8.202436626912517e-002	 4.332563585354943e+000	 1.089538770886885e+000
1	 4.093442939356026e-002	 4.333146642360212e+000	 1.403771841559698e+000
1	 0.000000000000000e+000	 4.333340000014584e+000	 1.739941686673734e+000
1	 4.183044877592277e-001	 4.339895375933969e+000	-4.567866520868879e-001
1	 3.758924910447601e-001	 4.343774259205020e+000	-3.060227195568011e-001
1	 3.335952582003206e-001	 4.347227127252465e+000	-1.374922425340459e-001
1	 2.914184268387489e-001	 4.350257971722702e+000	 4.819612959911134e-002
1	 2.493675143886955e-001	 4.352870862254359e+000	 2.505111115388684e-001
1	 2.074479173281874e-001	 4.355069942891405e+000	 4.689972700948920e-001
1	 1.656649105314326e-001	 4.356859428515224e+000	 7.032734365011322e-001
1	 1.240236467266813e-001	 4.358243601299131e+000	 9.530310484017588e-001
1	 8.252915606288463e-002	 4.359226807188695e+000	 1.218032426872777e+000
1	 4.118634578278713e-002	 4.359813452411068e+000	 1.498108993788781e+000
1	 0.000000000000000e+000	 4.360008000016401e+000	 1.793159434781344e+000
1	 4.208630482209342e-001	 4.366440357018083e+000	-2.592308762556861e-001
1	 3.781916384212626e-001	 4.370342965488527e+000	-1.097348156119013e-001
1	 3.356356944450737e-001	 4.373816953012210e+000	 5.567269403881538e-002
1	 2.932008883876640e-001	 4.376866335650436e+000	 2.358770319727663e-001
1	 2.508927714250336e-001	 4.379495207933778e+000	 4.298385218713132e-001
1	 2.087167730427654e-001	 4.381707739253252e+000	 6.365917872082791e-001
1	 1.666782003788324e-001	 4.383508170270559e+000	 8.552450088622391e-001
1	 1.247822376781452e-001	 4.384900809350929e+000	 1.084979089508390e+000
1	 8.303394585655800e-002	 4.385890029021907e+000	 1.325046729385125e+000
1	 4.143826217196314e-002	 4.386480262461337e+000	 1.574771418056986e+000
1	 0.000000000000000e+000	 4.386676000017618e+000	 1.833546346810156e+000
1	 4.234216086826029e-001	 4.392985338102428e+000	-8.623489924792732e-002
1	 3.804907857976769e-001	 4.396911671772176e+000	 6.123192484958217e-002
1	 3.376761306896904e-001	 4.400406778771993e+000	 2.229698101023730e-001
1	 2.949833499364001e-001	 4.403474699578090e+000	 3.974672684892625e-001
1	 2.524180284611601e-001	 4.406119553612994e+000	 5.832828963478458e-001
1	 2.099856287571123e-001	 4.408345535614769e+000	 7.790454985534283e-001
1	 1.676914902259990e-001	 4.410156912025449e+000	 9.834540995578125e-001
1	 1.255408286293942e-001	 4.411558017402181e+000	 1.195277844953539e+000
1	 8.353873565005922e-002	 4.412553250854495e+000	 1.413355797335591e+000
1	 4.169017856103743e-002	 4.413147072510928e+000	 1.636596630325645e+000
1	 0.000000000000000e+000	 4.413344000018133e+000	 1.863978224702598e+000
1	 4.259801691442147e-001	 4.419530319187034e+000	 6.373828712440635e-002
1	 3.827899331739587e-001	 4.423480378055990e+000	 2.086096905882489e-001
1	 3.397165669341023e-001	 4.426996604531820e+000	 3.663162251143970e-001
1	 2.967658114848678e-001	 4.430083063505653e+000	 5.350567430710774e-001
1	 2.539432854969691e-001	 4.432743899291976e+000	 7.130929115873452e-001
1	 2.112544844711126e-001	 4.434983331975912e+000	 8.987500079309299e-001
1	 1.687047800728156e-001	 4.436805653779828e+000	 1.090417593005719e+000
1	 1.262994195803208e-001	 4.438215225452806e+000	 1.286550065701027e+000
1	 8.404352544330211e-002	 4.439216472686363e+000	 1.485667100984981e+000
1	 4.194209494995915e-002	 4.439813882559738e+000	 1.686353974781005e+000
1	 0.000000000000000e+000	 4.440012000017850e+000	 1.887261778799231e+000
1	 4.285387296057504e-001	 4.446075300271935e+000	 1.921889846505298e-001
1	 3.850890805500643e-001	 4.450049084339991e+000	 3.340893027181277e-001
1	 3.417570031782413e-001	 4.453586430291698e+000	 4.875832744230178e-001
1	 2.985482730329779e-001	 4.456691427433116e+000	 6.506854491409039e-001
1	 2.554685425323549e-001	 4.459368244970696e+000	 8.214635419438798e-001
1	 2.125233401846509e-001	 4.461621128336633e+000	 9.980398035297251e-001
1	 1.697180699191656e-001	 4.463454395533640e+000	 1.178592266095646e+000
1	 1.270580105308178e-001	 4.464872433502731e+000	 1.361355866911490e+000
1	 8.454831523620064e-002	 4.465879694517425e+000	 1.544623451548453e+000
1	 4.219401133867746e-002	 4.466480692607675e+000	 1.726746658908012e+000
1	 0.000000000000000e+000	 4.466680000016666e+000	 1.906136690371267e+000
1	 4.466680000016666e+000	 0.000000000000000e+000	-2.798922995661869e-001
1	 4.466480692607678e+000	 4.219401133867761e-002	-2.324434397030967e-001
1	 4.465879694517425e+000	 8.454831523620093e-002	-1.854860745505912e-001
1	 4.464872433502731e+000	 1.270580105308174e-001	-1.393306397702013e-001
1	 4.463454395533637e+000	 1.697180699191653e-001	-9.433202318984482e-002
1	 4.461621128336632e+000	 2.125233401846509e-001	-5.089028505442960e-002
1	 4.459368244970698e+000	 2.554685425323549e-001	-9.451328601114068e-003
1	 4.456691427433116e+000	 2.985482730329781e-001	 2.949248197787991e-002
1	 4.453586430291698e+000	 3.417570031782408e-001	 6.540175911373274e-002
1	 4.450049084339993e+000	 3.850890805500641e-001	 9.768958789326118e-002
1	 4.446075300271936e+000	 4.285387296057503e-001	 1.257210834324265e-001
1	 4.493344001125478e+000	 0.000000000000000e+000	-3.475860495796914e-001
1	 4.493143503944068e+000	 4.244588995207979e-002	-3.020925310549567e-001
1	 4.492538918175068e+000	 8.505302933503604e-002	-2.561820519798628e-001
1	 4.491525644281115e+000	 1.278164877294522e-001	-2.103034976423884e-001
1	 4.490099141285576e+000	 1.707312078212957e-001	-1.649404914297867e-001
1	 4.488254930336908e+000	 2.137920056316579e-001	-1.206116633291186e-001
1	 4.485988598306077e+000	 2.569935708536612e-001	-7.787087146500307e-002
1	 4.483295801413886e+000	 3.003304672990532e-001	-3.730737466119669e-002
1	 4.480172268884857e+000	 3.437971334569228e-001	 4.540459533729022e-004
1	 4.476613806624296e+000	 3.873878831668750e-001	 3.475301823289343e-002
1	 4.472616300914868e+000	 4.310969064089002e-001	 6.489356508849757e-002
1	 4.520008008899155e+000	 0.000000000000000e+000	-3.881546854361069e-001
1	 4.519806321945047e+000	 4.269776862821971e-002	-3.462719755062864e-001
1	 4.519198148496463e+000	 8.555774355965612e-002	-3.031136650461652e-001
1	 4.518178861721835e+000	 1.285749651172135e-001	-2.592389886209114e-001
1	 4.516743893697841e+000	 1.717443459761730e-001	-2.152333583898735e-001
1	 4.514888738994899e+000	 2.150606713952958e-001	-1.717082496524204e-001
1	 4.512608958295947e+000	 2.585185995557294e-001	-1.293010422489149e-001
1	 4.509900182045277e+000	 3.021126620102522e-001	-8.867481660402604e-002
1	 4.506758114124131e+000	 3.458372642453049e-001	-5.051810325484546e-002
1	 4.503178535549549e+000	 3.896866863581595e-001	-1.554458476688105e-002
1	 4.499157308192905e+000	 4.336550838514770e-001	 1.550725099303489e-002
1	 4.546672030003566e+000	 0.000000000000000e+000	-4.056652672307898e-001
1	 4.546469153276179e+000	 4.294964743008928e-002	-3.686249911942903e-001
1	 4.545857392146254e+000	 8.606245803627632e-002	-3.295276427815838e-001
1	 4.544832092488003e+000	 1.293334428837648e-001	-2.890151744311721e-001
1	 4.543388659431392e+000	 1.727574846371274e-001	-2.477482949303091e-001
1	 4.541522560968784e+000	 2.163293377927727e-001	-2.064060400888632e-001
1	 4.539229331595075e+000	 2.600436290198506e-001	-1.656853021902498e-001
1	 4.536504575978026e+000	 3.038948576121461e-001	-1.263003176850841e-001
1	 4.533343972655578e+000	 3.478773960534280e-001	-8.898211266539770e-002
1	 4.529743277756488e+000	 3.919854906986114e-001	-5.447790573355134e-002
1	 4.525698328740825e+000	 4.362132625730023e-001	-2.355046796032307e-002
1	 4.573336071104578e+000	 0.000000000000000e+000	-4.040900059418584e-001
1	 4.573132004603027e+000	 4.320152642068042e-002	-3.727098327857844e-001
1	 4.572516655789086e+000	 8.656717289111188e-002	-3.385949981535031e-001
1	 4.571485343242733e+000	 1.300919212187695e-001	-3.024429989995903e-001
1	 4.570033445147191e+000	 1.737706240574890e-001	-2.649637926713355e-001
1	 4.568156402916756e+000	 2.175980051412970e-001	-2.268791200972626e-001
1	 4.565849724858240e+000	 2.615686596273152e-001	-1.889217907772713e-001
1	 4.563108989862871e+000	 3.056770545503059e-001	-1.518349295974691e-001
1	 4.559929851125256e+000	 3.499175293913336e-001	-1.163711855774760e-001
1	 4.556308039885856e+000	 3.942842967629248e-001	-8.329190274568582e-002
1	 4.552239369193409e+000	 4.387714432129977e-001	-5.336625342885194e-002
1	 4.600000138868055e+000	 0.000000000000000e+000	-3.873090125584204e-001
1	 4.599794882591152e+000	 4.345340566298505e-002	-3.620022541167691e-001
1	 4.599175946089608e+000	 8.707188825037808e-002	-3.334132227043575e-001
1	 4.598138620649134e+000	 1.308504003118912e-001	-3.022682338993472e-001
1	 4.596678257506200e+000	 1.747837644905879e-001	-2.693008793581480e-001
1	 4.594790271496990e+000	 2.188666737580766e-001	-2.352511692251358e-001
1	 4.592470144740218e+000	 2.630936917594146e-001	-2.008646394698929e-001
1	 4.589713430350549e+000	 3.074592532703026e-001	-1.668914246123593e-001
1	 4.586515756179225e+000	 3.519576647690627e-001	-1.340852963891997e-001
1	 4.582872828578392e+000	 3.965831051257931e-001	-1.032026690097729e-001
1	 4.578780436185433e+000	 4.413296264109848e-001	-7.500157174724066e-002
1	 4.626664239959867e+000	 0.000000000000000e+000	-3.591129520401886e-001
1	 4.626457793906115e+000	 4.370528521999508e-002	-3.398978855809703e-001
1	 4.625835269712468e+000	 8.757660424029021e-002	-3.170084052178924e-001
1	 4.624791931370330e+000	 1.316088803527934e-001	-2.911733564492070e-001
1	 4.623323103169381e+000	 1.757969061897542e-001	-2.631247748437655e-001
1	 4.621424173367672e+000	 2.201353439603201e-001	-2.335969137140191e-001
1	 4.619090597895790e+000	 2.646187257974394e-001	-2.033252399424528e-001
1	 4.616317904091795e+000	 3.092414542177068e-001	-1.730453987401026e-001
1	 4.613101694463548e+000	 3.539978026966565e-001	-1.434921482126452e-001
1	 4.609437650474842e+000	 3.988819163619110e-001	-1.153982647077769e-001
1	 4.605321536351673e+000	 4.438878128064857e-001	-8.949342001718412e-002
1	 4.653328381045878e+000	 0.000000000000000e+000	-3.232056059300261e-001
1	 4.653120745213482e+000	 4.395716515470247e-002	-3.097145296906693e-001
1	 4.652494633322307e+000	 8.808132098706338e-002	-2.923372774627426e-001
1	 4.651445282069430e+000	 1.323673615311397e-001	-2.717793631697737e-001
1	 4.649967988797696e+000	 1.768100494083182e-001	-2.487464900743896e-001
1	 4.648058115186988e+000	 2.214040160652356e-001	-2.239435291073496e-001
1	 4.645711090979728e+000	 2.661437621226807e-001	-1.980734686746301e-001
1	 4.642922417737346e+000	 3.110236578380899e-001	-1.718363369214701e-001
1	 4.639687672624278e+000	 3.560379436841560e-001	-1.459280975285866e-001
1	 4.636002512215940e+000	 4.011807310459719e-001	-1.210395202132174e-001
1	 4.631862676326912e+000	 4.464460030390216e-001	-9.785502720560578e-002
1	 4.679992568791956e+000	 0.000000000000000e+000	-2.832063472666141e-001
1	 4.679783743178811e+000	 4.420904553009910e-002	-2.746943780769325e-001
1	 4.679154043583775e+000	 8.858603861691294e-002	-2.622891899248674e-001
1	 4.678098679409549e+000	 1.331258440365935e-001	-2.466475211781380e-001
1	 4.676612921052107e+000	 1.778231943996098e-001	-2.284243713529547e-001
1	 4.674692103613120e+000	 2.226726903900312e-001	-2.082719948571300e-001
1	 4.672331630646809e+000	 2.676688011164292e-001	-1.868388696334257e-001
1	 4.669526977937935e+000	 3.128058645770228e-001	-1.647686417650459e-001
1	 4.666273697307479e+000	 3.580780882416026e-001	-1.426990471969416e-001
1	 4.662567420442431e+000	 4.034795497526699e-001	-1.212608118189419e-001
1	 4.658403862745927e+000	 4.490041977481146e-001	-1.010765312493281e-001
1	 4.706656809863968e+000	 0.000000000000000e+000	-2.426525312789290e-001
1	 4.706446794467666e+000	 4.446092640917691e-002	-2.380061530481019e-001
1	 4.705813507161521e+000	 8.909075725605414e-002	-2.296880203082759e-001
1	 4.704752130053802e+000	 1.338843280588184e-001	-2.182810599847692e-001
1	 4.703257906593572e+000	 1.788363414169591e-001	-2.043655920533372e-001
1	 4.701326145304251e+000	 2.239413672519153e-001	-1.885184028350632e-001
1	 4.698952223551813e+000	 2.691938431599761e-001	-1.713117967099581e-001
1	 4.696131591344302e+000	 3.145880748800765e-001	-1.533126272779922e-001
1	 4.692859775159207e+000	 3.601182368790375e-001	-1.350813090792151e-001
1	 4.689132381795057e+000	 4.057783730566991e-001	-1.171708110678611e-001
1	 4.684945102243493e+000	 4.515623975732859e-001	-1.001256331187317e-001
1	 4.733321110927780e+000	 0.000000000000000e+000	-2.050018051871577e-001
1	 4.733109905745614e+000	 4.471280785492782e-002	-2.027471766846951e-001
1	 4.732473030720188e+000	 8.959547703070217e-002	-1.972940174581390e-001
1	 4.731405640665302e+000	 1.346428137874779e-001	-1.891268060453516e-001
1	 4.729902952083056e+000	 1.798494907136964e-001	-1.787275938596798e-001
1	 4.727960246918567e+000	 2.252100469680961e-001	-1.665752215677858e-001
1	 4.725572876349514e+000	 2.707188886346120e-001	-1.531445174998195e-001
1	 4.722736264607185e+000	 3.163702891928218e-001	-1.389054789721134e-001
1	 4.719445912825525e+000	 3.621583901065016e-001	-1.243224374725225e-001
1	 4.715697402914556e+000	 4.080772015327532e-001	-1.098532087287141e-001
1	 4.711486401454396e+000	 4.541206031540578e-001	-9.594822874999180e-002
1	 4.446075300271936e+000	 4.285387296057503e-001	 1.257210834324264e-001
1	 4.441661767834682e+000	 4.720935259706711e-001	 1.490329366023328e-001
1	 4.436804007790361e+000	 5.157540394362641e-001	 1.674900053924381e-001
1	 4.431498195041699e+000	 5.595142291933083e-001	 1.809084678930785e-001
1	 4.425740598943744e+000	 6.033679384448822e-001	 1.891136280219512e-001
1	 4.419527586972393e+000	 6.473088957992210e-001	 1.919403560871424e-001
1	 4.412855628386947e+000	 6.913307167858135e-001	 1.892335259398212e-001
1	 4.405721297882294e+000	 7.354269054959151e-001	 1.808484478041450e-001
1	 4.398121279226208e+000	 7.795908563484759e-001	 1.666512958528511e-001
1	 4.390052368877188e+000	 8.238158559823358e-001	 1.465195295798177e-001
1	 4.381511479578153e+000	 8.680950852753392e-001	 1.203423080056189e-001
1	 4.472616300914868e+000	 4.310969064089002e-001	 6.489356508849761e-002
1	 4.468176421743035e+000	 4.749117046406274e-001	 9.069989599700631e-002
1	 4.463289663131958e+000	 5.188328510548873e-001	 1.123260746231127e-001
1	 4.457952177150323e+000	 5.628542687816454e-001	 1.295384768164820e-001
1	 4.452160210882960e+000	 6.069697642707739e-001	 1.421129284137526e-001
1	 4.445910110121298e+000	 6.511730286932238e-001	 1.498352264446391e-001
1	 4.439198323047760e+000	 6.954576394661729e-001	 1.525016581606833e-001
1	 4.432021403909766e+000	 7.398170619033307e-001	 1.499195168502251e-001
1	 4.424376016678721e+000	 7.842446509914089e-001	 1.419076133777103e-001
1	 4.416258938689485e+000	 8.287336532936123e-001	 1.282967823618554e-001
1	 4.407667064255488e+000	 8.732772089808063e-001	 1.089303818860189e-001
1	 4.499157308192905e+000	 4.336550838514770e-001	 1.550725099303492e-002
1	 4.494691082279964e+000	 4.777298840151175e-001	 4.267098318833933e-002
1	 4.489775325094918e+000	 5.219116634433038e-001	 6.630654596948202e-002
1	 4.484406165872398e+000	 5.661943092051770e-001	 8.614036280615527e-002
1	 4.478579829427026e+000	 6.105715909973927e-001	 1.019082906663859e-001
1	 4.472292639865749e+000	 6.550371625536072e-001	 1.133562005495082e-001
1	 4.465541024294119e+000	 6.995845631786763e-001	 1.202405571348596e-001
1	 4.458321516512072e+000	 7.442072194087523e-001	 1.223289964285529e-001
1	 4.450630760694662e+000	 7.888984467982982e-001	 1.194009002597043e-001
1	 4.442465515053096e+000	 8.336514518348713e-001	 1.112479664488319e-001
1	 4.433822655471317e+000	 8.784593339823469e-001	 9.767477344456914e-002
1	 4.525698328740825e+000	 4.362132625730023e-001	-2.355046796032309e-002
1	 4.521205756073643e+000	 4.805480647986484e-001	 3.976565391157164e-003
1	 4.516261000300145e+000	 5.249904773711638e-001	 2.859739974298474e-002
1	 4.510860167820908e+000	 5.695343512988462e-001	 5.000821033334517e-002
1	 4.504999461180328e+000	 6.141734195251155e-001	 6.791425294666412e-002
1	 4.498675182800866e+000	 6.589012983463134e-001	 8.203048266995569e-002
1	 4.491883738711193e+000	 7.037114889549527e-001	 9.208217311776351e-002
1	 4.484621642263761e+000	 7.485973791096093e-001	 9.780553496898535e-002
1	 4.476885517837253e+000	 7.935522449324756e-001	 9.894833262371175e-002
1	 4.468672104519222e+000	 8.385692528354408e-001	 9.527049775522249e-002
1	 4.459978259764122e+000	 8.836414615753685e-001	 8.654473850158578e-002
1	 4.552239369193409e+000	 4.387714432129977e-001	-5.336625342885196e-002
1	 4.547720449752237e+000	 4.833662476957265e-001	-2.633037635196439e-002
1	 4.542746695368543e+000	 5.280692936081171e-001	-1.615931772885244e-003
1	 4.537314189608826e+000	 5.728743958975963e-001	 2.045256913625164e-002
1	 4.531419112747249e+000	 6.177752507543191e-001	 3.955901042161822e-002
1	 4.525057745521771e+000	 6.627654370372837e-001	 5.539630743185429e-002
1	 4.518226472884162e+000	 7.078384178266318e-001	 6.766704478297052e-002
1	 4.510921787739378e+000	 7.529875421033310e-001	 7.608411505015604e-002
1	 4.503140294669723e+000	 7.982060465572731e-001	 8.037135699438076e-002
1	 4.494878713639076e+000	 8.434870575246495e-001	 8.026419209543838e-002
1	 4.486133883672388e+000	 8.888235930552790e-001	 7.551025812904827e-002
1	 4.578780436185433e+000	 4.413296264109848e-001	-7.500157174724068e-002
1	 4.574235169943915e+000	 4.861844334108586e-001	-4.917490265642559e-002
1	 4.569232416921015e+000	 5.311481129238141e-001	-2.512912814392825e-002
1	 4.563768237849136e+000	 5.762144438363704e-001	-3.200023011926168e-003
1	 4.557838790732178e+000	 6.213770855853804e-001	 1.628401944534561e-002
1	 4.551440334623584e+000	 6.666295795924608e-001	 3.300262016108917e-002
1	 4.544569233398201e+000	 7.119653508253427e-001	 4.664405036717587e-002
1	 4.537221959513468e+000	 7.573777094873466e-001	 5.690586990776479e-002
1	 4.529395097755288e+000	 8.028598528360238e-001	 6.349556664562146e-002
1	 4.521085348963855e+000	 8.484048671318256e-001	 6.613119577295640e-002
1	 4.512289533734597e+000	 8.940057297174857e-001	 6.454201780211313e-002
1	 4.605321536351673e+000	 4.438878128064857e-001	-8.949342001718411e-002
1	 4.600749923276847e+000	 4.890026226485517e-001	-6.546074858990211e-002
1	 4.595718171578466e+000	 5.342269360879051e-001	-4.271952508841605e-002
1	 4.590222319154813e+000	 5.795544959501117e-001	-2.160750101427548e-002
1	 4.584258501739503e+000	 6.249789249186765e-001	-2.456384551995044e-003
1	 4.577822956701428e+000	 6.704937269777870e-001	 1.440876829171410e-002
1	 4.570912026838485e+000	 7.160922889827146e-001	 2.867016742990251e-002
1	 4.563522164160577e+000	 7.617678823590853e-001	 4.001790629491640e-002
1	 4.555649933657178e+000	 8.075136649320591e-001	 4.815058223056978e-002
1	 4.547292017044766e+000	 8.533226828862969e-001	 5.277591857226639e-002
1	 4.538445216489230e+000	 8.991878728573967e-001	 5.361138727231789e-002
1	 4.631862676326912e+000	 4.464460030390216e-001	-9.785502720560578e-002
1	 4.627264716379196e+000	 4.918208161133120e-001	-7.607093468642756e-002
1	 4.622203965961801e+000	 5.373057638700399e-001	-5.514664004582418e-002
1	 4.616676440138840e+000	 5.828945530737638e-001	-3.541271730417440e-002
1	 4.610678252373610e+000	 6.285807696545841e-001	-1.719535602327741e-002
1	 4.604205618350422e+000	 6.743578801592035e-001	-8.157966044520466e-004
1	 4.597254859790193e+000	 7.202192333303771e-001	 1.341024088205932e-002
1	 4.589822408255249e+000	 7.661580618159762e-001	 2.517313343943087e-002
1	 4.581904808938610e+000	 8.121674840087109e-001	 3.416993652013705e-002
1	 4.573498724433014e+000	 8.582405060173919e-001	 4.010496905714872e-002
1	 4.564600938474771e+000	 9.043700237704185e-001	 4.269040113350728e-002
1	 4.658403862745927e+000	 4.490041977481146e-001	-1.010765312493281e-001
1	 4.653779555879138e+000	 4.946390145096463e-001	-8.186835704985293e-002
1	 4.648689806691922e+000	 5.403845970398687e-001	-6.315267975913355e-002
1	 4.643130607414196e+000	 5.862346160422692e-001	-4.524387147516174e-002
1	 4.637098049238887e+000	 6.321826206934798e-001	-2.845389563670248e-002
1	 4.630588326165689e+000	 6.782220401026525e-001	-1.309180659086233e-002
1	 4.623597738838499e+000	 7.243461848999591e-001	 5.367589531921997e-004
1	 4.616122698372031e+000	 7.705482489554486e-001	 1.213009785468789e-002
1	 4.608159730162813e+000	 8.168213112293123e-001	 2.139096308608999e-002
1	 4.599705477679802e+000	 8.631583377544388e-001	 2.802709208318311e-002
1	 4.590756706229706e+000	 9.095521837519599e-001	 3.175174005279805e-002
1	 4.684945102243493e+000	 4.515623975732859e-001	-1.001256331187317e-001
1	 4.680294448404837e+000	 4.974572185420616e-001	-8.369635737684929e-002
1	 4.675175700389737e+000	 5.434634363670420e-001	-6.746303058476243e-002
1	 4.669584827593855e+000	 5.895746856905717e-001	-5.171492529105999e-002
1	 4.663517898939720e+000	 6.357844789357413e-001	-3.674119448257165e-002
1	 4.656971086742348e+000	 6.820862077740765e-001	-2.283045534674500e-002
1	 4.649940670568578e+000	 7.284731447230901e-001	-1.027036321774580e-002
1	 4.642423041085466e+000	 7.749384448749320e-001	 6.528237716126081e-004
1	 4.634414703893005e+000	 8.214751477571947e-001	 9.654688772085108e-003
1	 4.625912283336335e+000	 8.680761793267663e-001	 1.645310843660332e-002
1	 4.616912526292515e+000	 9.147343540974277e-001	 2.076871264020395e-002
1	 4.711486401454396e+000	 4.541206031540578e-001	-9.594822874999182e-002
1	 4.706809400584461e+000	 5.002754289150643e-001	-8.237927369214576e-002
1	 4.701661653676148e+000	 5.465422826212096e-001	-6.878673221197919e-002
1	 4.696039107290806e+000	 5.929147628536142e-001	-5.542600365348660e-002
1	 4.689937808080498e+000	 6.393863452817449e-001	-4.255496663321669e-002
1	 4.683353906675524e+000	 6.859503841394172e-001	-3.043366674165931e-002
1	 4.676283661565610e+000	 7.326001138313998e-001	-1.932399266904440e-002
1	 4.668723442970103e+000	 7.793286506718558e-001	-9.489341030085566e-003
1	 4.660669736692414e+000	 8.261289947556906e-001	-1.194270196898455e-003
1	 4.652119147953820e+000	 8.729940319637025e-001	 5.295856515536873e-003
1	 4.643068405201682e+000	 9.199165361022299e-001	 9.715237931681636e-003
1	 4.381511479578153e+000	 8.680950852753392e-001	 1.203423080056189e-001
1	 4.372494256268734e+000	 9.124282726195251e-001	 8.691133506155449e-002
1	 4.362999102610631e+000	 9.568017434643775e-001	 4.535852694799105e-002
1	 4.353023304130100e+000	 1.001208360994867e+000	-3.898036075578459e-003
1	 4.342564276822998e+000	 1.045640891710206e+000	-6.040994744229521e-002
1	 4.331619570558887e+000	 1.090092008085801e+000	-1.236985073189496e-001
1	 4.320186872431323e+000	 1.134554291362543e+000	-1.932548052885958e-001
1	 4.308264010049258e+000	 1.179020234462681e+000	-2.685398537684761e-001
1	 4.295848954764352e+000	 1.223482245031362e+000	-3.489847731675832e-001
1	 4.282939824829096e+000	 1.267932648602656e+000	-4.339910296934070e-001
1	 4.269534888480566e+000	 1.312363691888676e+000	-5.229307266170085e-001
1	 4.407667064255488e+000	 8.732772089808063e-001	 1.089303818860188e-001
1	 4.398596012318690e+000	 9.178750448236624e-001	 8.264141627449416e-002
1	 4.389044177011387e+000	 9.625134046409613e-001	 4.861457202443274e-002
1	 4.379008827655715e+000	 1.007185109014209e+000	 7.244079247347461e-003
1	 4.368487364822227e+000	 1.051882881261982e+000	-4.104419193210903e-002
1	 4.357477323754350e+000	 1.096599350117776e+000	-9.579271124551939e-002
1	 4.345976377738679e+000	 1.141327052535939e+000	-1.565123191524739e-001
1	 4.333982341416010e+000	 1.186058436624959e+000	-2.226823099455071e-001
1	 4.321493174027922e+000	 1.230785864707158e+000	-2.937505682296921e-001
1	 4.308506982593759e+000	 1.275501616503612e+000	-3.691337598230646e-001
1	 4.295022025012785e+000	 1.320197892442914e+000	-4.482175780229228e-001
1	 4.433822655471317e+000	 8.784593339823469e-001	 9.767477344456911e-002
1	 4.424697774893605e+000	 9.233218183900277e-001	 7.756074517479544e-002
1	 4.415089257922868e+000	 9.682250672459721e-001	 5.014467772304810e-002
1	 4.404994357677095e+000	 1.013161858528212e+000	 1.579702530094424e-002
1	 4.394410459301542e+000	 1.058124872374679e+000	-2.507943814613044e-002
1	 4.383335083413516e+000	 1.103106693776948e+000	-7.204955723695510e-002
1	 4.371765889492628e+000	 1.148099815402816e+000	-1.246457849852211e-001
1	 4.359700679211524e+000	 1.193096640547001e+000	-1.823682254886652e-001
1	 4.347137399701697e+000	 1.238089486208987e+000	-2.446847307136443e-001
1	 4.334074146749346e+000	 1.283070586296851e+000	-3.110310525177316e-001
1	 4.320509167915921e+000	 1.328032094955653e+000	-3.808110509521437e-001
1	 4.459978259764122e+000	 8.836414615753685e-001	 8.654473850158580e-002
1	 4.450799550518535e+000	 9.287685946801909e-001	 7.170167311591641e-002
1	 4.441134351855977e+000	 9.739367327072045e-001	 5.003524917867297e-002
1	 4.430979900690285e+000	 1.019138611030946e+000	 2.189221810525785e-002
1	 4.420333566741421e+000	 1.064366866608685e+000	-1.234829573538596e-002
1	 4.409192856000539e+000	 1.109614040690050e+000	-5.227470322377970e-002
1	 4.397555414140287e+000	 1.154872581656271e+000	-9.744290993300359e-002
1	 4.385419029865138e+000	 1.200134847988272e+000	-1.473763281901282e-001
1	 4.372781638196507e+000	 1.245393111362680e+000	-2.015659430477705e-001
1	 4.359641323687431e+000	 1.290639559874549e+000	-2.594704333645916e-001
1	 4.345996323561553e+000	 1.335866301385387e+000	-3.205163490945110e-001
1	 4.486133883672388e+000	 8.888235930552790e-001	 7.551025812904823e-002
1	 4.476901345718530e+000	 9.342153750557224e-001	 6.509580593268269e-002
1	 4.467179465321620e+000	 9.796484024524531e-001	 4.837068604836794e-002
1	 4.456965463191335e+000	 1.025115368016482e+000	 2.565801908191781e-002
1	 4.446256693622319e+000	 1.070608865524384e+000	-2.687267377759005e-003
1	 4.435050647979574e+000	 1.116121392483815e+000	-3.627832822241781e-002
1	 4.423344958128768e+000	 1.161645352989399e+000	-7.469634041940607e-002
1	 4.411137399806195e+000	 1.207173060708235e+000	-1.174904941271933e-001
1	 4.398425895923182e+000	 1.252696741994063e+000	-1.641780366371327e-001
1	 4.385208519799599e+000	 1.298208539128881e+000	-2.142443703569743e-001
1	 4.371483498321260e+000	 1.343700513690607e+000	-2.671432059553262e-001
1	 4.512289533734597e+000	 8.940057297174857e-001	 6.454201780211315e-002
1	 4.503003167018644e+000	 9.396621608781911e-001	 5.777402574510093e-002
1	 4.493224604830710e+000	 9.853600779095113e-001	 4.523344085648433e-002
1	 4.482951051676290e+000	 1.031092130978891e+000	 2.721982382857486e-002
1	 4.472179846424698e+000	 1.076850870682165e+000	 4.063364318229886e-003
1	 4.460908465814776e+000	 1.122628750784973e+000	-2.387500101529485e-002
1	 4.449134527905187e+000	 1.168418131095294e+000	-5.620351868546342e-002
1	 4.436855795464037e+000	 1.214211280466358e+000	-9.249959812584141e-002
1	 4.424070179292549e+000	 1.260000379928967e+000	-1.323098422889127e-001
1	 4.410775741477422e+000	 1.305777525952022e+000	-1.751501302891631e-001
1	 4.396970698566631e+000	 1.351534733829807e+000	-2.205057531909658e-001
1	 4.538445216489230e+000	 8.991878728573967e-001	 5.361138727231793e-002
1	 4.529105020943929e+000	 9.451089535091676e-001	 4.976651200733087e-002
1	 4.519269776894151e+000	 9.910717605061750e-001	 4.070407531988196e-002
1	 4.508936672641196e+000	 1.037068901412242e+000	 2.670014782011955e-002
1	 4.498103031629028e+000	 1.083092883642414e+000	 8.059645994497719e-003
1	 4.486766315970298e+000	 1.129136117220259e+000	-1.488355337702951e-002
1	 4.474924129916655e+000	 1.175190917667052e+000	-4.176654429601427e-002
1	 4.462574223268007e+000	 1.221249509022102e+000	-7.219736940094555e-002
1	 4.449714494715444e+000	 1.267304026993219e+000	-1.057550458157561e-001
1	 4.436342995112481e+000	 1.313346522236146e+000	-1.419896401225212e-001
1	 4.422457930669241e+000	 1.359368963761479e+000	-1.804223935024616e-001
1	 4.564600938474771e+000	 9.043700237704185e-001	 4.269040113350730e-002
1	 4.555206914019435e+000	 9.505557543102214e-001	 4.110276183214932e-002
1	 4.545314988022852e+000	 9.967834516702375e-001	 3.486131473448043e-002
1	 4.534922332582100e+000	 1.043045680810607e+000	 2.421870916009781e-002
1	 4.524026255715766e+000	 1.089334905965518e+000	 9.454058966470240e-003
1	 4.512624204910296e+000	 1.135643493416402e+000	-9.126957664101433e-003
1	 4.500713770610291e+000	 1.181963714397768e+000	-3.119204041291237e-002
1	 4.488292689647441e+000	 1.228287748134932e+000	-5.638225216526120e-002
1	 4.475358848602695e+000	 1.274607685012647e+000	-8.431204860918842e-002
1	 4.461910287096350e+000	 1.320915529873429e+000	-1.145693531233458e-001
1	 4.447945201000673e+000	 1.367203205444115e+000	-1.467156779040503e-001
1	 4.590756706229706e+000	 9.095521837519599e-001	 3.175174005279806e-002
1	 4.581308852770215e+000	 9.560025646429226e-001	 3.181160961979764e-002
1	 4.571360244727722e+000	 1.002495152829494e+000	 2.778210050046818e-002
1	 4.560908037995049e+000	 1.049022470668055e+000	 1.989250850009479e-002
1	 4.549949525165379e+000	 1.095576939211864e+000	 8.395621038263489e-003
1	 4.538482139098918e+000	 1.142150881000136e+000	-6.432208593792041e-003
1	 4.526503456433209e+000	 1.188736522980538e+000	-2.429102464482373e-002
1	 4.514011201031685e+000	 1.235325999564314e+000	-4.485727100884077e-002
1	 4.501003247365126e+000	 1.281911355813081e+000	-6.778383298466892e-002
1	 4.487477623820609e+000	 1.328484550756046e+000	-9.270011958188956e-002
1	 4.473432515932508e+000	 1.375037460836209e+000	-1.192121871919755e-001
1	 4.616912526292515e+000	 9.147343540974277e-001	 2.076871264020395e-002
1	 4.607410843721322e+000	 9.614493858688408e-001	 2.192124601884821e-002
1	 4.597405553519670e+000	 1.008206865411738e+000	 1.954164086013352e-002
1	 4.586893795376091e+000	 1.054999272478657e+000	 1.383590623952097e-002
1	 4.575872846458330e+000	 1.101818984941837e+000	 5.029984853155632e-003
1	 4.564340125000325e+000	 1.148658281598193e+000	-6.630209046098897e-003
1	 4.552293193832522e+000	 1.195509345108456e+000	-2.087878429187405e-002
1	 4.539729763850074e+000	 1.242364265069712e+000	-3.742990085945622e-002
1	 4.526647697413574e+000	 1.289215041220347e+000	-5.597783210881190e-002
1	 4.513045011676836e+000	 1.336053586776172e+000	-7.619706193074619e-002
1	 4.498919881836328e+000	 1.382871731896253e+000	-9.774241744684140e-002
1	 4.643068405201682e+000	 9.199165361022299e-001	 9.715237931681635e-003
1	 4.633512893397807e+000	 9.668962193495462e-001	 1.145923624545538e-002
1	 4.623450920909602e+000	 1.013918590844765e+000	 1.021345991881693e-002
1	 4.612879611221273e+000	 1.060976087736484e+000	 6.160697113140806e-003
1	 4.601796226075082e+000	 1.108061044715826e+000	-5.004670838532174e-004
1	 4.590198169078671e+000	 1.155165696837305e+000	-9.555659729802298e-003
1	 4.578082989255348e+000	 1.202282182474619e+000	-2.077475581168974e-002
1	 4.565448384531957e+000	 1.249402546410591e+000	-3.391194134321824e-002
1	 4.552292205158868e+000	 1.296518743060276e+000	-4.870580432794744e-002
1	 4.538612457056609e+000	 1.343622639825983e+000	-6.487945408885654e-002
1	 4.524407305083716e+000	 1.390706020582740e+000	-8.214066941023465e-002
1	 4.269534888480566e+000	 1.312363691888676e+000	-5.229307266170085e-001
1	 4.255632565876872e+000	 1.356767545539909e+000	-6.151018760144136e-001
1	 4.241231428808608e+000	 1.401136305660351e+000	-7.097793154506573e-001
1	 4.226330206727042e+000	 1.445461999293613e+000	-8.062455509873615e-001
1	 4.210927790553208e+000	 1.489736588820483e+000	-9.037392623255494e-001
1	 4.195023235321111e+000	 1.533951975835254e+000	-1.001455610562417e+000
1	 4.178615762716243e+000	 1.578100005132252e+000	-1.098546625676643e+000
1	 4.161704763504535e+000	 1.622172468799514e+000	-1.194121674706970e+000
1	 4.144289799846913e+000	 1.666161110416385e+000	-1.287248011415400e+000
1	 4.126370607494755e+000	 1.710057629351524e+000	-1.376951408045943e+000
1	 4.107947097861664e+000	 1.753853685157622e+000	-1.462216869603682e+000
1	 4.295022025012785e+000	 1.320197892442914e+000	-4.482175780229228e-001
1	 4.281036712012197e+000	 1.364866816437977e+000	-5.302412601999683e-001
1	 4.266549606856836e+000	 1.409500437410215e+000	-6.144577872091263e-001
1	 4.251559431413378e+000	 1.454090734808399e+000	-7.002227422744759e-001
1	 4.236065069982165e+000	 1.498629623032470e+000	-7.868550242532012e-001
1	 4.220065571956186e+000	 1.543108955333008e+000	-8.736371675372762e-001
1	 4.203560154374750e+000	 1.587520527821554e+000	-9.598157296641871e-001
1	 4.186548204366940e+000	 1.631856083588732e+000	-1.044601747339510e+000
1	 4.169029281479970e+000	 1.676107316926896e+000	-1.127171261424608e+000
1	 4.151003119887775e+000	 1.720265877653798e+000	-1.206665911287574e+000
1	 4.132469630475130e+000	 1.764323375533540e+000	-1.282193598755671e+000
1	 4.320509167915921e+000	 1.328032094955653e+000	-3.808110509521437e-001
1	 4.306440864497702e+000	 1.372966089360724e+000	-4.532605149062335e-001
1	 4.291867791233776e+000	 1.417864571250883e+000	-5.276600034203973e-001
1	 4.276788662406223e+000	 1.462719472480056e+000	-6.034338082263991e-001
1	 4.261202355694691e+000	 1.507522659467327e+000	-6.799758323695092e-001
1	 4.245107914851145e+000	 1.552265937119550e+000	-7.566499151403758e-001
1	 4.228504552268713e+000	 1.596941052865475e+000	-8.327902140215794e-001
1	 4.211391651439615e+000	 1.641539700798301e+000	-9.077016441296092e-001
1	 4.193768769297368e+000	 1.686053525923383e+000	-9.806603755052695e-001
1	 4.175635638438451e+000	 1.730474128507555e+000	-1.050914388472655e+000
1	 4.156992169218810e+000	 1.774793068526321e+000	-1.117684087151004e+000
1	 4.345996323561553e+000	 1.335866301385387e+000	-3.205163490945110e-001
1	 4.331845029684224e+000	 1.381065366332917e+000	-3.839812600945479e-001
1	 4.317185988268775e+000	 1.426228709273348e+000	-4.492127136784426e-001
1	 4.302017906012684e+000	 1.471348214465735e+000	-5.156993974559684e-001
1	 4.286339653974895e+000	 1.516415700348281e+000	-5.829050701716845e-001
1	 4.270150270266356e+000	 1.561422923484098e+000	-6.502688846389821e-001
1	 4.253448962634001e+000	 1.606361582619120e+000	-7.172057583070237e-001
1	 4.236235110933194e+000	 1.651223322849098e+000	-7.831067917592517e-001
1	 4.218508269483743e+000	 1.695999739892365e+000	-8.473397353330617e-001
1	 4.200268169304669e+000	 1.740682384464818e+000	-9.092495039379555e-001
1	 4.181514720223089e+000	 1.785262766753336e+000	-9.681587400340769e-001
1	 4.371483498321260e+000	 1.343700513690607e+000	-2.671432059553262e-001
1	 4.357249213922601e+000	 1.389164649379327e+000	-3.222292623935644e-001
1	 4.342504204291177e+000	 1.434592853568603e+000	-3.789466943310503e-001
1	 4.327247168539863e+000	 1.479976962922586e+000	-4.368443273487254e-001
1	 4.311476971106893e+000	 1.525308747898565e+000	-4.954506923359123e-001
1	 4.295192644462189e+000	 1.570579916715873e+000	-5.542743394831152e-001
1	 4.278393391706491e+000	 1.615782119437594e+000	-6.128041918266074e-001
1	 4.261078589058305e+000	 1.660906952161998e+000	-6.705099385005573e-001
1	 4.243247788223721e+000	 1.705945961320360e+000	-7.268424677601098e-001
1	 4.224900718644309e+000	 1.750890648077604e+000	-7.812343397439514e-001
1	 4.206037289618354e+000	 1.795732472831950e+000	-8.331002988478661e-001
1	 4.396970698566631e+000	 1.351534733829807e+000	-2.205057531909658e-001
1	 4.382653423563671e+000	 1.397263940524723e+000	-2.678343145223970e-001
1	 4.367822445630329e+000	 1.442957006227640e+000	-3.166966313612384e-001
1	 4.352476456294863e+000	 1.488605720007758e+000	-3.666974628111818e-001
1	 4.336614313374794e+000	 1.534201804341407e+000	-4.174250917859980e-001
1	 4.320235043699010e+000	 1.579736919104094e+000	-4.684516232003742e-001
1	 4.303337845722058e+000	 1.625202665676005e+000	-5.193333149202225e-001
1	 4.285922092025571e+000	 1.670590591157880e+000	-5.696109415243655e-001
1	 4.267987331701934e+000	 1.715892192693890e+000	-6.188101908513336e-001
1	 4.249533292615256e+000	 1.761098921897935e+000	-6.664420932251928e-001
1	 4.230559883534988e+000	 1.806202189379531e+000	-7.120034831728659e-001
1	 4.422457930669241e+000	 1.359368963761479e+000	-1.804223935024616e-001
1	 4.408057664958273e+000	 1.405363241793874e+000	-2.206301188879376e-001
1	 4.393140718615578e+000	 1.451321169341453e+000	-2.623010073230949e-001
1	 4.377705775584789e+000	 1.497234487878403e+000	-3.050915992165935e-001
1	 4.361751687062711e+000	 1.543094871900039e+000	-3.486449713639381e-001
1	 4.345277474237193e+000	 1.588893932937980e+000	-3.925910125563647e-001
1	 4.328282330916576e+000	 1.634623223689457e+000	-4.365467264342396e-001
1	 4.310765626045626e+000	 1.680274242257618e+000	-4.801165615716382e-001
1	 4.292726906103013e+000	 1.725838436499470e+000	-5.228927687123938e-001
1	 4.274165897375392e+000	 1.771307208477830e+000	-5.644557850108052e-001
1	 4.255082508103374e+000	 1.816671919013446e+000	-6.043746450614047e-001
1	 4.447945201000673e+000	 1.367203205444115e+000	-1.467156779040503e-001
1	 4.433461944457242e+000	 1.413462555211549e+000	-1.804541751886954e-001
1	 4.418459029576267e+000	 1.459685345001031e+000	-2.156019921692370e-001
1	 4.402935132716746e+000	 1.505863268691669e+000	-2.518633493796997e-001
1	 4.386889098454756e+000	 1.551987952797688e+000	-2.889312199175019e-001
1	 4.370319942337102e+000	 1.598050960506750e+000	-3.264875757692685e-001
1	 4.353226853525914e+000	 1.644043795833055e+000	-3.642036571324723e-001
1	 4.335609197329095e+000	 1.689957907882090e+000	-4.017402646922327e-001
1	 4.317466517611591e+000	 1.735784695223622e+000	-4.387480747564223e-001
1	 4.298798539082598e+000	 1.781515510369310e+000	-4.748679770948040e-001
1	 4.279605169453902e+000	 1.827141664351063e+000	-5.097314352695141e-001
1	 4.473432515932508e+000	 1.375037460836209e+000	-1.192121871919755e-001
1	 4.458866268411421e+000	 1.421561882802518e+000	-1.471476718652338e-001
1	 4.443777384841743e+000	 1.468049535297369e+000	-1.764453378145334e-001
1	 4.428164533997837e+000	 1.514492064604708e+000	-2.068530343995807e-001
1	 4.412026553835039e+000	 1.560881049257587e+000	-2.381087926285005e-001
1	 4.395362454259105e+000	 1.607208004099624e+000	-2.699410355768008e-001
1	 4.378171419785953e+000	 1.653464384461907e+000	-3.020688088083618e-001
1	 4.360452812086606e+000	 1.699641590452172e+000	-3.342020307687747e-001
1	 4.342206172412295e+000	 1.745730971352862e+000	-3.660417630724125e-001
1	 4.323431223894759e+000	 1.791723830124395e+000	-3.972805005548418e-001
1	 4.304127873716955e+000	 1.837611428009748e+000	-4.276024809113454e-001
1	 4.498919881836328e+000	 1.382871731896253e+000	-9.774241744684140e-002
1	 4.484270643171641e+000	 1.429661226591549e+000	-1.205553812444264e-001
1	 4.469095790741352e+000	 1.476413742321459e+000	-1.446802762877581e-001
1	 4.453393985735166e+000	 1.523120877774670e+000	-1.699045782170180e-001
1	 4.437164059487675e+000	 1.569774163502965e+000	-1.960065954134246e-001
1	 4.420405016263574e+000	 1.616365066005822e+000	-2.227556369628405e-001
1	 4.403116035932563e+000	 1.662884991931116e+000	-2.499121988720185e-001
1	 4.385296476528788e+000	 1.709325292388740e+000	-2.772281685562840e-001
1	 4.366945876689758e+000	 1.755677267373712e+000	-3.044470475737563e-001
1	 4.348063957969758e+000	 1.801932170295104e+000	-3.313041925364124e-001
1	 4.328650627022915e+000	 1.848081212606869e+000	-3.575270740826588e-001
1	 4.524407305083716e+000	 1.390706020582740e+000	-8.214066941023465e-002
1	 4.509675075088746e+000	 1.437760588603412e+000	-1.005255582318086e-001
1	 4.494414253604441e+000	 1.484777968164294e+000	-1.201594213295143e-001
1	 4.478623494235841e+000	 1.531749710358706e+000	-1.408654057398165e-001
1	 4.462301621696776e+000	 1.578667297757051e+000	-1.624573732356369e-001
1	 4.445447634610877e+000	 1.625522148514563e+000	-1.847400193598864e-001
1	 4.428060708201621e+000	 1.672305620595791e+000	-2.075090101960299e-001
1	 4.410140196866269e+000	 1.719009016112672e+000	-2.305511369803501e-001
1	 4.391685636628613e+000	 1.765623585772688e+000	-2.536444886197475e-001
1	 4.372696747465477e+000	 1.812140533433459e+000	-2.765586421367635e-001
1	 4.353173435502172e+000	 1.858551020759794e+000	-2.990548710203640e-001
1	 4.107947097861664e+000	 1.753853685157622e+000	-1.462216869603682e+000
1	 4.089022237317836e+000	 1.797534358250065e+000	-1.540580881175947e+000
1	 4.069593571258428e+000	 1.841097824563030e+000	-1.610378165181025e+000
1	 4.049661552156451e+000	 1.884535657582464e+000	-1.671767655492700e+000
1	 4.029226814984733e+000	 1.927839409546484e+000	-1.724967055180846e+000
1	 4.008290178599602e+000	 1.971000616255271e+000	-1.770253064121265e+000
1	 3.986852646976334e+000	 2.014010801950552e+000	-1.807961505532883e+000
1	 3.964915410292882e+000	 2.056861484259474e+000	-1.838487349612073e+000
1	 3.942479845858591e+000	 2.099544179197508e+000	-1.862284632660255e+000
1	 3.919547518884828e+000	 2.142050406224803e+000	-1.879866270335596e+000
1	 3.896120183094670e+000	 2.184371693350319e+000	-1.891803763902923e+000
1	 4.132469630475130e+000	 1.764323375533540e+000	-1.282193598755671e+000
1	 4.113431797320074e+000	 1.808264801918528e+000	-1.351902925157813e+000
1	 4.093887151164926e+000	 1.852088321854113e+000	-1.414628029126054e+000
1	 4.073836147183756e+000	 1.895785458523871e+000	-1.470481839292769e+000
1	 4.053279424139898e+000	 1.939347713736705e+000	-1.519623537092433e+000
1	 4.032217805777887e+000	 1.982766572765458e+000	-1.562258729896999e+000
1	 4.010652302066275e+000	 2.026033509255521e+000	-1.598639544348798e+000
1	 3.988584110287832e+000	 2.069139990198221e+000	-1.629064638469812e+000
1	 3.966014615973810e+000	 2.112077480963578e+000	-1.653879131304546e+000
1	 3.942945393679174e+000	 2.154837450386865e+000	-1.673474449040244e+000
1	 3.919378207595922e+000	 2.197411375903190e+000	-1.688288086740546e+000
1	 4.156992169218810e+000	 1.774793068526321e+000	-1.117684087151004e+000
1	 4.137841363424330e+000	 1.818995248269089e+000	-1.179610867222072e+000
1	 4.118180737144486e+000	 1.863078821892374e+000	-1.235920258894488e+000
1	 4.098010748254415e+000	 1.907035262277361e+000	-1.286685620552595e+000
1	 4.077332039307959e+000	 1.950856020803727e+000	-1.332015353153428e+000
1	 4.056145438937857e+000	 1.994532532216958e+000	-1.372053022965902e+000
1	 4.034451963105935e+000	 2.038056219566090e+000	-1.406977423568977e+000
1	 4.012252816199793e+000	 2.081418499206607e+000	-1.437002576056325e+000
1	 3.989549391972591e+000	 2.124610785863070e+000	-1.462377666532273e+000
1	 3.966343274322895e+000	 2.167624497745854e+000	-1.483386920125643e+000
1	 3.942636237911626e+000	 2.210451061716201e+000	-1.500349410895686e+000
1	 4.181514720223089e+000	 1.785262766753336e+000	-9.681587400340769e-001
1	 4.162250941732745e+000	 1.829725699984286e+000	-1.023096167149482e+000
1	 4.142474335270258e+000	 1.874069327425340e+000	-1.073584351631841e+000
1	 4.122185361411839e+000	 1.918285071655267e+000	-1.119663403364311e+000
1	 4.101384666501830e+000	 1.962364333624481e+000	-1.161398554668024e+000
1	 4.080073084061181e+000	 2.006298497551087e+000	-1.198880236670633e+000
1	 4.058251636045005e+000	 2.050078935887735e+000	-1.232224111806672e+000
1	 4.035921533945723e+000	 2.093697014354039e+000	-1.261571061727407e+000
1	 4.013084179738415e+000	 2.137144097029069e+000	-1.287087129997883e+000
1	 3.989741166665249e+000	 2.180411551498271e+000	-1.308963419062057e+000
1	 3.965894279856078e+000	 2.223490754048992e+000	-1.327415941064001e+000
1	 4.206037289618354e+000	 1.795732472831950e+000	-8.331002988478661e-001
1	 4.186660538347462e+000	 1.840456159746657e+000	-8.817644622058153e-001
1	 4.166767951615396e+000	 1.885059841200544e+000	-9.269654272799625e-001
1	 4.146359992699433e+000	 1.929534889469920e+000	-9.687162665856428e-001
1	 4.125437311734429e+000	 1.973872655075903e+000	-1.007046529339767e+000
1	 4.104000747129545e+000	 2.018064471709167e+000	-1.042002275432166e+000
1	 4.082051326833178e+000	 2.062101661225940e+000	-1.073646080233699e+000
1	 4.059590269442583e+000	 2.105975538709923e+000	-1.102057009810203e+000
1	 4.036618985154762e+000	 2.149677417594655e+000	-1.127330566179149e+000
1	 4.013139076555490e+000	 2.193198614840611e+000	-1.149578602315214e+000
1	 3.989152339243564e+000	 2.236530456161203e+000	-1.168929206683003e+000
1	 4.230559883534988e+000	 1.806202189379531e+000	-7.120034831728659e-001
1	 4.211070159370624e+000	 1.851186630238740e+000	-7.550351557099565e-001
1	 4.191061592253049e+000	 1.896050365965515e+000	-7.954237752546483e-001
1	 4.170534648160610e+000	 1.940784718533653e+000	-8.331614800311270e-001
1	 4.149489981018677e+000	 1.985380988034921e+000	-8.682494982927823e-001
1	 4.127928434124628e+000	 2.029830457632516e+000	-9.006981438192371e-001
1	 4.105851041420148e+000	 2.074124398586184e+000	-9.305267948068982e-001
1	 4.083259028607333e+000	 2.118254075343664e+000	-9.577638559754794e-001
1	 4.060153814105110e+000	 2.162210750692910e+000	-9.824467037527789e-001
1	 4.036537009842877e+000	 2.205985690969373e+000	-1.004621614440779e+000
1	 4.012410421888376e+000	 2.249570171312477e+000	-1.024343675308137e+000
1	 4.255082508103374e+000	 1.816671919013446e+000	-6.043746450614046e-001
1	 4.235479810904371e+000	 1.861917114143071e+000	-6.423410198448937e-001
1	 4.215355263256366e+000	 1.907040904467783e+000	-6.783344168164359e-001
1	 4.194709333838777e+000	 1.952034561658800e+000	-7.123320374117548e-001
1	 4.173542680367494e+000	 1.996889335378473e+000	-7.443140305050616e-001
1	 4.151856151028107e+000	 2.041596458262454e+000	-7.742634533050501e-001
1	 4.129650785755607e+000	 2.086147150973949e+000	-8.021662260726450e-001
1	 4.106927817356930e+000	 2.130532627324669e+000	-8.280110806982025e-001
1	 4.083688672472943e+000	 2.174744099456915e+000	-8.517895031927932e-001
1	 4.059934972376665e+000	 2.218772783081055e+000	-8.734956701651472e-001
1	 4.035668533604805e+000	 2.262609902762454e+000	-8.931263793729457e-001
1	 4.279605169453902e+000	 1.827141664351063e+000	-5.097314352695140e-001
1	 4.259889499050845e+000	 1.872647614142192e+000	-5.431278121396407e-001
1	 4.239648970698495e+000	 1.918031459454879e+000	-5.750866825041870e-001
1	 4.218884055777344e+000	 1.963284421657692e+000	-6.055762053504775e-001
1	 4.197595415793796e+000	 2.008397699983488e+000	-6.345625739545590e-001
1	 4.175783903821666e+000	 2.053362476540301e+000	-6.620099460010676e-001
1	 4.153450565789250e+000	 2.098169921394717e+000	-6.878803758434958e-001
1	 4.130596641608336e+000	 2.142811197722343e+000	-7.121337491201880e-001
1	 4.107223566141736e+000	 2.187277467019753e+000	-7.347277199401555e-001
1	 4.083332970006111e+000	 2.231559894372153e+000	-7.556176508506236e-001
1	 4.058926680207141e+000	 2.275649653770777e+000	-7.747565557958548e-001
1	 4.304127873716955e+000	 1.837611428009748e+000	-4.276024809113454e-001
1	 4.284299229912194e+000	 1.883378132918639e+000	-4.568539050763367e-001
1	 4.263942720652592e+000	 1.929022033674333e+000	-4.850838040301751e-001
1	 4.243058820019718e+000	 1.974534301342661e+000	-5.122570878316992e-001
1	 4.221648193310499e+000	 2.019906084726900e+000	-5.383330028108478e-001
1	 4.199711698486983e+000	 2.065128515407376e+000	-5.632650346899824e-001
1	 4.177250387470769e+000	 2.110192712853969e+000	-5.870008200733232e-001
1	 4.154265507278509e+000	 2.155089789606091e+000	-6.094820666600718e-001
1	 4.130758500994972e+000	 2.199810856514507e+000	-6.306444825220766e-001
1	 4.106731008580471e+000	 2.244347028039165e+000	-6.504177147707937e-001
1	 4.082184867509671e+000	 2.288689427597086e+000	-6.687252979206968e-001
1	 4.328650627022915e+000	 1.848081212606869e+000	-3.575270740826588e-001
1	 4.308709009590553e+000	 1.894108673154950e+000	-3.829899283013559e-001
1	 4.288236519191803e+000	 1.940012629873676e+000	-4.077425200625120e-001
1	 4.267233632609309e+000	 1.985784203526040e+000	-4.317522054721080e-001
1	 4.245701018930528e+000	 2.031414492485641e+000	-4.549781800353452e-001
1	 4.223639541005738e+000	 2.076894577804998e+000	-4.773713585108721e-001
1	 4.201050256749856e+000	 2.122215528357184e+000	-4.988742672879219e-001
1	 4.177934420284409e+000	 2.167368406045322e+000	-5.194209497452649e-001
1	 4.154293482916130e+000	 2.212344271074256e+000	-5.389368850274066e-001
1	 4.130129093949002e+000	 2.257134187278590e+000	-5.573389206477404e-001
1	 4.105443101326692e+000	 2.301729227501026e+000	-5.745352193012679e-001
1	 4.353173435502172e+000	 1.858551020759794e+000	-2.990548710203639e-001
1	 4.333118844188068e+000	 1.904839237533664e+000	-3.210184229429537e-001
1	 4.312530372389279e+000	 1.951003250800439e+000	-3.424926953467148e-001
1	 4.291408499589530e+000	 1.997034131020163e+000	-3.634530890276319e-001
1	 4.269753898666800e+000	 2.042922926136646e+000	-3.838655347817693e-001
1	 4.247567437359612e+000	 2.088660666674489e+000	-4.036863536785969e-001
1	 4.224850179576209e+000	 2.134238370909848e+000	-4.228621319569154e-001
1	 4.201603386542995e+000	 2.179647050109439e+000	-4.413296110691091e-001
1	 4.177828517788692e+000	 2.224877713832085e+000	-4.590155933713850e-001
1	 4.153527231960959e+000	 2.269921375286926e+000	-4.758368639276308e-001
1	 4.128701387472490e+000	 2.314769056742235e+000	-4.917001288624173e-001
1	 3.896120183094670e+000	 2.184371693350319e+000	-1.891803763902923e+000
1	 3.872196156391829e+000	 2.226505887565815e+000	-1.896897380272904e+000
1	 3.847781051657800e+000	 2.268438184788724e+000	-1.893835527504072e+000
1	 3.822877194375688e+000	 2.310160168438054e+000	-1.883095431985606e+000
1	 3.797487099402197e+000	 2.351663451361818e+000	-1.865188029850701e+000
1	 3.771613470733660e+000	 2.392939681090943e+000	-1.840657367871950e+000
1	 3.745259201099025e+000	 2.433980545103553e+000	-1.810079940681211e+000
1	 3.718427371378763e+000	 2.474777776093069e+000	-1.774063965011349e+000
1	 3.691121249848879e+000	 2.515323157233418e+000	-1.733248591824104e+000
1	 3.663344291249592e+000	 2.555608527434690e+000	-1.688303057354047e+000
1	 3.635100135678463e+000	 2.595625786582434e+000	-1.639925774263641e+000
1	 3.919378207595922e+000	 2.197411375903190e+000	-1.688288086740546e+000
1	 3.895311365586440e+000	 2.239797091651857e+000	-1.696879708975761e+000
1	 3.870750514038508e+000	 2.281979705176810e+000	-1.697736242144950e+000
1	 3.845697992317274e+000	 2.323950749653989e+000	-1.691252455414732e+000
1	 3.820156330291953e+000	 2.365701787864013e+000	-1.677857930004645e+000
1	 3.794128248100461e+000	 2.407224417477454e+000	-1.658016597582753e+000
1	 3.767616655739987e+000	 2.448510276350555e+000	-1.632226213973986e+000
1	 3.740624652482406e+000	 2.489551047824762e+000	-1.601017768585705e+000
1	 3.713155526113802e+000	 2.530338466023375e+000	-1.564954830121715e+000
1	 3.685212751997570e+000	 2.570864321138577e+000	-1.524632829322509e+000
1	 3.656799991960951e+000	 2.611120464702003e+000	-1.480678279636419e+000
1	 3.942636237911626e+000	 2.210451061716201e+000	-1.500349410895686e+000
1	 3.918426580559851e+000	 2.253088299060945e+000	-1.511673794342781e+000
1	 3.893719982161631e+000	 2.295521228950526e+000	-1.515727454866907e+000
1	 3.868518795964158e+000	 2.337741334317804e+000	-1.512826988260392e+000
1	 3.842825566849163e+000	 2.379740127875997e+000	-1.503324317049113e+000
1	 3.816643031096151e+000	 2.421509157435315e+000	-1.487606356688818e+000
1	 3.789974115970546e+000	 2.463040011230107e+000	-1.466094617037790e+000
1	 3.762821939135638e+000	 2.504324323249834e+000	-1.439244739245857e+000
1	 3.735189807887587e+000	 2.545353778567168e+000	-1.407545968363972e+000
1	 3.707081218212969e+000	 2.586120118656368e+000	-1.371520562143908e+000
1	 3.678499853668706e+000	 2.626615146695153e+000	-1.331723136663678e+000
1	 3.965894279856078e+000	 2.223490754048992e+000	-1.327415941064001e+000
1	 3.941541807090636e+000	 2.266379513115587e+000	-1.340780268795734e+000
1	 3.916689461769292e+000	 2.309062759494951e+000	-1.347374614718325e+000
1	 3.891339611021287e+000	 2.351531925876843e+000	-1.347441632336154e+000
1	 3.865494814740869e+000	 2.393778474907056e+000	-1.341259235819911e+000
1	 3.839157825349139e+000	 2.435793904535413e+000	-1.329140384404462e+000
1	 3.812331587379767e+000	 2.477569753374350e+000	-1.311432802993485e+000
1	 3.785019236887463e+000	 2.519097606061324e+000	-1.288518638874486e+000
1	 3.757224100678466e+000	 2.560369098618346e+000	-1.260814054607283e+000
1	 3.728949695362553e+000	 2.601375923801743e+000	-1.228768757310970e+000
1	 3.700199726226330e+000	 2.642109836435286e+000	-1.192865464737074e+000
1	 3.989152339243564e+000	 2.236530456161203e+000	-1.168929206683003e+000
1	 3.964657050957377e+000	 2.279670737138295e+000	-1.183711400887532e+000
1	 3.939658958603628e+000	 2.322604300195173e+000	-1.192253295720629e+000
1	 3.914160443193614e+000	 2.365322527778455e+000	-1.194727781950188e+000
1	 3.888164079634114e+000	 2.407816832466474e+000	-1.191342370916123e+000
1	 3.861672636487839e+000	 2.450078662348639e+000	-1.182339087628577e+000
1	 3.834689075556711e+000	 2.492099506415425e+000	-1.167994301961904e+000
1	 3.807216551286875e+000	 2.533870899952260e+000	-1.148618497639178e+000
1	 3.779258409994675e+000	 2.575384429930460e+000	-1.124555978855267e+000
1	 3.750818188913088e+000	 2.616631740388381e+000	-1.096184514541927e+000
1	 3.721899615058423e+000	 2.657604537795814e+000	-1.063914920436057e+000
1	 4.012410421888376e+000	 2.249570171312477e+000	-1.024343675308137e+000
1	 3.987772317938652e+000	 2.292961974451581e+000	-1.039990757636258e+000
1	 3.962628478406766e+000	 2.336145854436272e+000	-1.049948903016222e+000
1	 3.936981298186090e+000	 2.379113143469984e+000	-1.054325368687326e+000
1	 3.910833367195940e+000	 2.421855204063538e+000	-1.053260824905391e+000
1	 3.884187470140660e+000	 2.464363434445877e+000	-1.046929347335951e+000
1	 3.857046586090441e+000	 2.506629273985478e+000	-1.035538350382384e+000
1	 3.829413887882881e+000	 2.548644208615681e+000	-1.019328460962757e+000
1	 3.801292741344446e+000	 2.590399776257064e+000	-9.985733323935109e-001
1	 3.772686704331336e+000	 2.631887572229962e+000	-9.735793981853864e-001
1	 3.743599525589591e+000	 2.673099254650146e+000	-9.446855657067687e-001
1	 4.035668533604805e+000	 2.262609902762454e+000	-8.931263793729457e-001
1	 4.010887613813039e+000	 2.306253228377955e+000	-9.091528785484896e-001
1	 3.985598026920840e+000	 2.349687425603333e+000	-9.200563891889528e-001
1	 3.959802181703660e+000	 2.392903776398775e+000	-9.258826150261630e-001
1	 3.933502683093391e+000	 2.435893593207532e+000	-9.267089042072274e-001
1	 3.906702331936014e+000	 2.478648224398017e+000	-9.226443316708185e-001
1	 3.879404124570022e+000	 2.521159059716648e+000	-9.138297262399154e-001
1	 3.851611252224484e+000	 2.563417535744618e+000	-9.004376417910864e-001
1	 3.823327100236012e+000	 2.605415141351707e+000	-8.826722719937739e-001
1	 3.794555247084062e+000	 2.647143423140168e+000	-8.607693082500204e-001
1	 3.765299463244429e+000	 2.688593990871691e+000	-8.349957406043286e-001
1	 4.058926680207141e+000	 2.275649653770777e+000	-7.747565557958548e-001
1	 4.034002944359119e+000	 2.319544502239928e+000	-7.907429608625126e-001
1	 4.008567609887977e+000	 2.363229017081439e+000	-8.021799803486283e-001
1	 3.982623099451280e+000	 2.406694430012176e+000	-8.090557964365163e-001
1	 3.956172032993508e+000	 2.449932003407742e+000	-8.113879123460636e-001
1	 3.929217227502315e+000	 2.492933035775949e+000	-8.092233154736744e-001
1	 3.901761696584512e+000	 2.535688867241081e+000	-8.026385899637051e-001
1	 3.873808649860681e+000	 2.578190885032107e+000	-7.917399779458065e-001
1	 3.845361492177609e+000	 2.620430528967939e+000	-7.766633887922844e-001
1	 3.816423822638035e+000	 2.662399296932676e+000	-7.575743558733341e-001
1	 3.786999433447542e+000	 2.704088750333855e+000	-7.346679404152284e-001
1	 4.082184867509671e+000	 2.288689427597086e+000	-6.687252979206968e-001
1	 4.057118315355471e+000	 2.332835799360011e+000	-6.843165555634070e-001
1	 4.031537233050311e+000	 2.376770632255675e+000	-6.959329115897255e-001
1	 4.005444057133899e+000	 2.420485107757529e+000	-7.035090116186221e-001
1	 3.978841422563335e+000	 2.463970438173453e+000	-7.070059502798279e-001
1	 3.951732162467971e+000	 2.507217872150561e+000	-7.064115059844139e-001
1	 3.924119307722977e+000	 2.550218700190915e+000	-7.017403307706067e-001
1	 3.896006086340478e+000	 2.592964260171184e+000	-6.930340943588650e-001
1	 3.867395922677467e+000	 2.635445942859313e+000	-6.803615816553763e-001
1	 3.838292436460014e+000	 2.677655197421170e+000	-6.638187430522757e-001
1	 3.808699441623531e+000	 2.719583536910049e+000	-6.435286969849938e-001
1	 4.105443101326692e+000	 2.301729227501026e+000	-5.745352193012679e-001
1	 4.080233732580672e+000	 2.346127123060713e+000	-5.894392737424122e-001
1	 4.054506902149972e+000	 2.390312274511121e+000	-6.009371714521492e-001
1	 4.028265060456468e+000	 2.434275813082186e+000	-6.089139605608130e-001
1	 4.001510857469911e+000	 2.478008901013949e+000	-6.132777235231206e-001
1	 3.974247142461394e+000	 2.521502737092740e+000	-6.139598744765779e-001
1	 3.946476963574480e+000	 2.564748562198295e+000	-6.109154182374107e-001
1	 3.918203567212872e+000	 2.607737664854879e+000	-6.041231699950592e-001
1	 3.889430397243821e+000	 2.650461386779379e+000	-5.935859348543942e-001
1	 3.860161094016767e+000	 2.692911128419327e+000	-5.793306464665013e-001
1	 3.830399493196997e+000	 2.735078354473679e+000	-5.614084640841547e-001
1	 4.128701387472490e+000	 2.314769056742235e+000	-4.917001288624172e-001
1	 4.103349201813303e+000	 2.359418476664549e+000	-5.056865028922069e-001
1	 4.077476622929091e+000	 2.403853947232864e+000	-5.168232550286627e-001
1	 4.051086115123939e+000	 2.448066549433488e+000	-5.249497301070912e-001
1	 4.024180343380284e+000	 2.492047395438518e+000	-5.299243557967379e-001
1	 3.996762173110999e+000	 2.535787634173376e+000	-5.316249935886415e-001
1	 3.968834669728083e+000	 2.579278456895365e+000	-5.299492588954146e-001
1	 3.940401098026868e+000	 2.622511102776230e+000	-5.248148092775478e-001
1	 3.911464921384907e+000	 2.665476864481691e+000	-5.161595998796920e-001
1	 3.882029800775059e+000	 2.708167093740830e+000	-5.039421052327041e-001
1	 3.852099593592544e+000	 2.750573206898158e+000	-4.881415066530720e-001
1	 3.635100135678463e+000	 2.595625786582434e+000	-1.639925774263641e+000
1	 3.606392606282453e+000	 2.635366899875415e+000	-1.588117104652412e+000
1	 3.577225704752324e+000	 2.674823900322948e+000	-1.532400677733599e+000
1	 3.547603612821848e+000	 2.713988896438097e+000	-1.472798088543550e+000
1	 3.517530691503431e+000	 2.752854078213755e+000	-1.409353810549617e+000
1	 3.487011479119200e+000	 2.791411722183962e+000	-1.342135472364495e+000
1	 3.456050689161567e+000	 2.829654196428459e+000	-1.271234096207451e+000
1	 3.424653207985159e+000	 2.867573965513815e+000	-1.196764297275045e+000
1	 3.392824092332316e+000	 2.905163595364521e+000	-1.118864443276235e+000
1	 3.360568566694637e+000	 2.942415758057519e+000	-1.037696773481831e+000
1	 3.327892020513366e+000	 2.979323236533758e+000	-9.534474767364377e-001
1	 3.656799991960951e+000	 2.611120464702003e+000	-1.480678279636419e+000
1	 3.627921091973301e+000	 2.651098813948400e+000	-1.433034664733330e+000
1	 3.598580077613613e+000	 2.690791354327859e+000	-1.381314208345977e+000
1	 3.568781155578661e+000	 2.730190147244944e+000	-1.325686948393944e+000
1	 3.538528712914067e+000	 2.769287336070452e+000	-1.266346419047800e+000
1	 3.507827315033624e+000	 2.808075151232928e+000	-1.203509653260067e+000
1	 3.476681703567104e+000	 2.846545915253110e+000	-1.137417144715580e+000
1	 3.445096794038395e+000	 2.884692047714543e+000	-1.068332768941148e+000
1	 3.413077673376231e+000	 2.922506070163753e+000	-9.965436634146954e-001
1	 3.380629597259997e+000	 2.959980610933397e+000	-9.223600666161247e-001
1	 3.347757987303395e+000	 2.997108409881948e+000	-8.461151160646742e-001
1	 3.678499853668706e+000	 2.626615146695153e+000	-1.331723136663678e+000
1	 3.649449583046558e+000	 2.666830731954233e+000	-1.288028389615309e+000
1	 3.619934455813749e+000	 2.706758812324470e+000	-1.240115185348441e+000
1	 3.589958703630073e+000	 2.746391402101920e+000	-1.188286476581336e+000
1	 3.559526739574368e+000	 2.785720598035260e+000	-1.132869370815347e+000
1	 3.528643156152110e+000	 2.824738584447534e+000	-1.074214884984284e+000
1	 3.497312723130439e+000	 2.863437638300464e+000	-1.012697657224075e+000
1	 3.465540385202507e+000	 2.901810134194557e+000	-9.487156160246125e-001
1	 3.433331259483469e+000	 2.939848549298364e+000	-8.826896071341678e-001
1	 3.400690632840491e+000	 2.977545468200245e+000	-8.150629786952323e-001
1	 3.367623959059742e+000	 3.014893587676185e+000	-7.463011251980235e-001
1	 3.700199726226330e+000	 2.642109836435286e+000	-1.192865464737074e+000
1	 3.670978084883970e+000	 2.682562657825637e+000	-1.152902397936619e+000
1	 3.641288844690951e+000	 2.722726278304399e+000	-1.108607504537544e+000
1	 3.611136262270088e+000	 2.762592665059089e+000	-1.060401396129449e+000
1	 3.580524776733460e+000	 2.802153868216250e+000	-1.008729537973270e+000
1	 3.549459007678244e+000	 2.841402025993399e+000	-9.540617817938688e-001
1	 3.517943753008951e+000	 2.880329369793212e+000	-8.968918534215258e-001
1	 3.485983986588032e+000	 2.918928229233141e+000	-8.377367960116599e-001
1	 3.453584855717059e+000	 2.957191037103733e+000	-7.771363696885767e-001
1	 3.420751678451020e+000	 2.995110334249034e+000	-7.156524085736872e-001
1	 3.387489940748560e+000	 3.032678774362513e+000	-6.538681362711152e-001
1	 3.721899615058423e+000	 2.657604537795814e+000	-1.063914920436057e+000
1	 3.692506602867291e+000	 2.698294595495337e+000	-1.027465368832716e+000
1	 3.662643249583429e+000	 2.738693756259258e+000	-9.865996273454621e-001
1	 3.632313836792711e+000	 2.778793940166521e+000	-9.418409763354805e-001
1	 3.601522829640472e+000	 2.818587150721498e+000	-8.937382887319327e-001
1	 3.570274874815602e+000	 2.858065480036140e+000	-8.428653667220318e-001
1	 3.538574798360021e+000	 2.897221113954047e+000	-7.898202310457226e-001
1	 3.506427603305496e+000	 2.936046337109576e+000	-7.352243640378462e-001
1	 3.473838467140046e+000	 2.974533537915240e+000	-6.797219076845226e-001
1	 3.440812739106494e+000	 3.012675213470732e+000	-6.239788180814000e-001
1	 3.407355937335999e+000	 3.050463974386978e+000	-5.686819777989256e-001
1	 3.743599525589591e+000	 2.673099254650146e+000	-9.446855657067689e-001
1	 3.714035142378266e+000	 2.714026548896057e+000	-9.115304094430474e-001
1	 3.683997675829406e+000	 2.754661250180662e+000	-8.739044482002513e-001
1	 3.653491432491949e+000	 2.794995231474284e+000	-8.324189006934086e-001
1	 3.622520903544523e+000	 2.835020449659075e+000	-7.877113567708041e-001
1	 3.591090762767767e+000	 2.874728950741376e+000	-7.404449434913828e-001
1	 3.559205864341032e+000	 2.914112875005660e+000	-6.913074415892082e-001
1	 3.526871240465430e+000	 2.953164462103145e+000	-6.410103538276758e-001
1	 3.494092098815462e+000	 2.991876056068264e+000	-5.902879268773573e-001
1	 3.460873819821821e+000	 3.030240110256312e+000	-5.398961284783891e-001
1	 3.427221953788212e+000	 3.068249192195625e+000	-4.906115817707714e-001
1	 3.765299463244429e+000	 2.688593990871691e+000	-8.349957406043286e-001
1	 3.735563708798650e+000	 2.729758521960522e+000	-8.049149270044944e-001
1	 3.705352128767096e+000	 2.770628764060227e+000	-7.703391664778378e-001
1	 3.674669054661810e+000	 2.811196543032450e+000	-7.319531393895514e-001
1	 3.643519003694747e+000	 2.851453769137058e+000	-6.904687151399669e-001
1	 3.611906676738323e+000	 2.891392442274725e+000	-6.466239728609079e-001
1	 3.579836956109366e+000	 2.931004657170744e+000	-6.011821703076143e-001
1	 3.547314903178364e+000	 2.970282608493129e+000	-5.549306627558313e-001
1	 3.514345755806345e+000	 3.009218595898184e+000	-5.086797738515446e-001
1	 3.480934925611909e+000	 3.047805028996744e+000	-4.632616204940497e-001
1	 3.447087995071351e+000	 3.086034432234503e+000	-4.195288939605125e-001
1	 3.786999433447542e+000	 2.704088750333855e+000	-7.346679404152284e-001
1	 3.757092307510190e+000	 2.745490518621454e+000	-7.074405053473055e-001
1	 3.726706613734713e+000	 2.786596301889565e+000	-6.757251628613440e-001
1	 3.695846708596300e+000	 2.827397878891083e+000	-6.402658261866987e-001
1	 3.664517135340263e+000	 2.867887113263518e+000	-6.018344545018931e-001
1	 3.632722621930851e+000	 2.908055958801806e+000	-5.612299532290208e-001
1	 3.600468078822399e+000	 2.947896464671987e+000	-5.192770203580371e-001
1	 3.567758596554828e+000	 2.987400780558812e+000	-4.768249408645350e-001
1	 3.534599443175730e+000	 3.026561161740376e+000	-4.347463314293081e-001
1	 3.500996061491667e+000	 3.065369974082997e+000	-3.939358378070026e-001
1	 3.466954066151565e+000	 3.103819698949656e+000	-3.553087873238185e-001
1	 3.808699441623531e+000	 2.719583536910049e+000	-6.435286969849938e-001
1	 3.778620943894639e+000	 2.761222542811580e+000	-6.189327856176998e-001
1	 3.748061136070473e+000	 2.802563867660294e+000	-5.898878799317596e-001
1	 3.717024399589421e+000	 2.843599243100253e+000	-5.571831395217040e-001
1	 3.685515303730202e+000	 2.884320486146530e+000	-5.216366655401546e-001
1	 3.653538603548932e+000	 2.924719504488238e+000	-4.840943053227748e-001
1	 3.621099237637516e+000	 2.964788301732086e+000	-4.454284009025856e-001
1	 3.588202325705353e+000	 3.004518982579476e+000	-4.065364836790842e-001
1	 3.554853165986656e+000	 3.043903757930221e+000	-3.683399176587435e-001
1	 3.521057232475999e+000	 3.082934949906039e+000	-3.317824938281875e-001
1	 3.486820171995006e+000	 3.121604996787129e+000	-2.978289783592822e-001
1	 3.830399493196997e+000	 2.735078354473679e+000	-5.614084640841547e-001
1	 3.800149623333742e+000	 2.776954598463621e+000	-5.392213510593701e-001
1	 3.769415701112595e+000	 2.818531465364028e+000	-5.126567068220337e-001
1	 3.738202132935184e+000	 2.859800639710028e+000	-4.825351876491750e-001
1	 3.706513514113687e+000	 2.900753891894165e+000	-4.497073253696513e-001
1	 3.674354626796148e+000	 2.941383083499638e+000	-4.150522608109559e-001
1	 3.641730437712097e+000	 2.981680172573729e+000	-3.794764190196353e-001
1	 3.608646095740468e+000	 3.021637218834404e+000	-3.439121286707711e-001
1	 3.575106929302158e+000	 3.061246388803097e+000	-3.093161882392488e-001
1	 3.541118443579816e+000	 3.100499960856845e+000	-2.766683816560254e-001
1	 3.506686317567826e+000	 3.139390330192968e+000	-2.469699463156667e-001
1	 3.852099593592544e+000	 2.750573206898158e+000	-4.881415066530719e-001
1	 3.821678351209255e+000	 2.792686689510306e+000	-4.681396156936480e-001
1	 3.790770314199296e+000	 2.834499098992382e+000	-4.438648677740972e-001
1	 3.759379913927593e+000	 2.876002072770478e+000	-4.161558976715793e-001
1	 3.727511771739844e+000	 2.917187334614500e+000	-3.858821877903830e-001
1	 3.695170696876085e+000	 2.958046700001626e+000	-3.539427546861988e-001
1	 3.662361684203526e+000	 2.998572081419612e+000	-3.212647752725095e-001
1	 3.629089911770705e+000	 3.038755493602876e+000	-2.888021552231975e-001
1	 3.595360738185273e+000	 3.078589058694386e+000	-2.575340422486198e-001
1	 3.561179699818027e+000	 3.118065011326384e+000	-2.284632870784506e-001
1	 3.526552507836178e+000	 3.157175703613221e+000	-2.026148551329603e-001
1	 3.327892020513366e+000	 2.979323236533758e+000	-9.534474767364376e-001
1	 3.294805000137952e+000	 3.015873473340294e+000	-8.694879025402208e-001
1	 3.261308345935689e+000	 3.052065054294208e+000	-7.887890941669750e-001
1	 3.227407924036499e+000	 3.087891128237413e+000	-7.109873011465464e-001
1	 3.193109752621236e+000	 3.123344972753669e+000	-6.357111833250163e-001
1	 3.158419998366947e+000	 3.158419998366946e+000	-5.625824036415633e-001
1	 3.123344972753669e+000	 3.193109752621236e+000	-4.912162332396675e-001
1	 3.087891128237412e+000	 3.227407924036499e+000	-4.212221676656077e-001
1	 3.052065054294209e+000	 3.261308345935690e+000	-3.522045528788374e-001
1	 3.015873473340295e+000	 3.294805000137951e+000	-2.837632197744222e-001
1	 2.979323236533757e+000	 3.327892020513365e+000	-2.154941258971409e-001
1	 3.347757987303395e+000	 2.997108409881948e+000	-8.461151160646742e-001
1	 3.314473452812669e+000	 3.033876834594318e+000	-7.710929859280279e-001
1	 3.280776839171726e+000	 3.070284462445565e+000	-6.999631498687031e-001
1	 3.246674047528561e+000	 3.106324401379362e+000	-6.321811341967396e-001
1	 3.212171131989779e+000	 3.141989888849766e+000	-5.671934391684255e-001
1	 3.177274296044633e+000	 3.177274296044633e+000	-5.044384580747038e-001
1	 3.141989888849765e+000	 3.212171131989779e+000	-4.433474109276297e-001
1	 3.106324401379361e+000	 3.246674047528561e+000	-3.833452908007987e-001
1	 3.070284462445565e+000	 3.280776839171725e+000	-3.238518208470369e-001
1	 3.033876834594319e+000	 3.314473452812669e+000	-2.642824199898034e-001
1	 2.997108409881948e+000	 3.347757987303394e+000	-2.040491752642630e-001
1	 3.367623959059742e+000	 3.014893587676185e+000	-7.463011251980235e-001
1	 3.334141910404290e+000	 3.051880200348930e+000	-6.795920016192909e-001
1	 3.300245337274650e+000	 3.088503875151511e+000	-6.173185809379097e-001
1	 3.265940175836902e+000	 3.124757679129364e+000	-5.587776978214653e-001
1	 3.231232516123408e+000	 3.160634809606826e+000	-5.032558713777811e-001
1	 3.196128598435629e+000	 3.196128598435629e+000	-4.500305132381997e-001
1	 3.160634809606826e+000	 3.231232516123408e+000	-3.983711522826318e-001
1	 3.124757679129364e+000	 3.265940175836902e+000	-3.475406734438895e-001
1	 3.088503875151512e+000	 3.300245337274650e+000	-2.967965679922183e-001
1	 3.051880200348930e+000	 3.334141910404290e+000	-2.453921926720173e-001
1	 3.014893587676185e+000	 3.367623959059741e+000	-1.925780350420107e-001
1	 3.387489940748560e+000	 3.032678774362513e+000	-6.538681362711152e-001
1	 3.353810377829602e+000	 3.069883575104714e+000	-5.948659740662243e-001
1	 3.319713845111269e+000	 3.106723296966643e+000	-5.407567719808456e-001
1	 3.285206313777744e+000	 3.143190966095471e+000	-4.907003267289620e-001
1	 3.250293909787164e+000	 3.179279739685799e+000	-4.438449752054079e-001
1	 3.214982910253217e+000	 3.214982910253217e+000	-3.993290546316440e-001
1	 3.179279739685799e+000	 3.250293909787164e+000	-3.562823811689928e-001
1	 3.143190966095470e+000	 3.285206313777744e+000	-3.138277438964590e-001
1	 3.106723296966643e+000	 3.319713845111268e+000	-2.710824110098942e-001
1	 3.069883575104714e+000	 3.353810377829601e+000	-2.271596450685177e-001
1	 3.032678774362512e+000	 3.387489940748560e+000	-1.811702240937717e-001
1	 3.407355937335999e+000	 3.050463974386978e+000	-5.686819777989255e-001
1	 3.373478860005382e+000	 3.087886963362258e+000	-5.167986956102718e-001
1	 3.339182367548385e+000	 3.124942732445551e+000	-4.701814012073950e-001
1	 3.304472466167311e+000	 3.161624266885730e+000	-4.278741379375490e-001
1	 3.269355317746096e+000	 3.197924683747635e+000	-3.889084887362835e-001
1	 3.233837236210685e+000	 3.233837236210685e+000	-3.523052517786333e-001
1	 3.197924683747635e+000	 3.269355317746097e+000	-3.170761362075268e-001
1	 3.161624266885730e+000	 3.304472466167311e+000	-2.822254743732431e-001
1	 3.124942732445551e+000	 3.339182367548385e+000	-2.467519469742420e-001
1	 3.087886963362259e+000	 3.373478860005382e+000	-2.096503174571413e-001
1	 3.050463974386978e+000	 3.407355937335999e+000	-1.699131720122454e-001
1	 3.427221953788212e+000	 3.068249192195625e+000	-4.906115817707715e-001
1	 3.393147361848419e+000	 3.105890369622151e+000	-4.452766460130495e-001
1	 3.358650909452801e+000	 3.143162186142826e+000	-4.054983737294405e-001
1	 3.323738637821821e+000	 3.180057586108190e+000	-3.702259789163946e-001
1	 3.288416744765252e+000	 3.216569646453285e+000	-3.383953566895355e-001
1	 3.252691581021320e+000	 3.252691581021320e+000	-3.089309382499534e-001
1	 3.216569646453285e+000	 3.288416744765251e+000	-2.807475673233301e-001
1	 3.180057586108189e+000	 3.323738637821821e+000	-2.527523941191100e-001
1	 3.143162186142825e+000	 3.358650909452801e+000	-2.238467828104978e-001
1	 3.105890369622150e+000	 3.393147361848419e+000	-1.929282285019778e-001
1	 3.068249192195627e+000	 3.427221953788212e+000	-1.588922796292053e-001
1	 3.447087995071351e+000	 3.086034432234503e+000	-4.195288939605125e-001
1	 3.412815888275492e+000	 3.123893798384978e+000	-3.801889147729576e-001
1	 3.378119475691321e+000	 3.161381662613056e+000	-3.466157571683245e-001
1	 3.343004833557501e+000	 3.198490928370902e+000	-3.176843775215484e-001
1	 3.307478195609674e+000	 3.235214632463700e+000	-2.922556954731081e-001
1	 3.271545949398408e+000	 3.271545949398408e+000	-2.691785923783483e-001
1	 3.235214632463700e+000	 3.307478195609674e+000	-2.472919324130899e-001
1	 3.198490928370902e+000	 3.343004833557501e+000	-2.254266020719573e-001
1	 3.161381662613058e+000	 3.378119475691321e+000	-2.024075637470794e-001
1	 3.123893798384977e+000	 3.412815888275493e+000	-1.770559190391388e-001
1	 3.086034432234504e+000	 3.447087995071351e+000	-1.481909774305596e-001
1	 3.466954066151565e+000	 3.103819698949656e+000	-3.553087873238185e-001
1	 3.432484444203388e+000	 3.141897254151326e+000	-3.214271261156450e-001
1	 3.397588071130751e+000	 3.179601166410839e+000	-2.934437194786695e-001
1	 3.362271058190569e+000	 3.216924298281913e+000	-2.701794936551708e-001
1	 3.326539675044415e+000	 3.253859646439833e+000	-2.504407594412130e-001
1	 3.290400346055237e+000	 3.290400346055237e+000	-2.330213186370881e-001
1	 3.253859646439832e+000	 3.326539675044415e+000	-2.167045941271143e-001
1	 3.216924298281913e+000	 3.362271058190569e+000	-2.002657790897929e-001
1	 3.179601166410840e+000	 3.397588071130752e+000	-1.824740007884293e-001
1	 3.141897254151326e+000	 3.432484444203388e+000	-1.620944943554601e-001
1	 3.103819698949656e+000	 3.466954066151564e+000	-1.378907819608185e-001
1	 3.486820171995006e+000	 3.121604996787129e+000	-2.978289783592822e-001
1	 3.452153034548887e+000	 3.159900741421783e+000	-2.688853665515127e-001
1	 3.417056700637892e+000	 3.197820702090761e+000	-2.458944689000636e-001
1	 3.381537316537248e+000	 3.235357700449275e+000	-2.276430725791256e-001
1	 3.345601187834515e+000	 3.272504693042630e+000	-2.129029083065716e-001
1	 3.309254775705090e+000	 3.309254775705090e+000	-2.004328296558137e-001
1	 3.272504693042630e+000	 3.345601187834515e+000	-1.889810167615109e-001
1	 3.235357700449274e+000	 3.381537316537249e+000	-1.772871997593593e-001
1	 3.197820702090761e+000	 3.417056700637892e+000	-1.640848972476700e-001
1	 3.159900741421783e+000	 3.452153034548888e+000	-1.481036650203260e-001
1	 3.121604996787129e+000	 3.486820171995005e+000	-1.280713502972574e-001
1	 3.506686317567826e+000	 3.139390330192968e+000	-2.469699463156666e-001
1	 3.471821664228771e+000	 3.177904264696934e+000	-2.224601148983882e-001
1	 3.436525369079552e+000	 3.216040274207416e+000	-2.038821959521494e-001
1	 3.400803613413762e+000	 3.253791139481034e+000	-1.900083998172895e-001
1	 3.364662738745025e+000	 3.291149776933046e+000	-1.795955756616058e-001
1	 3.328109243061256e+000	 3.328109243061256e+000	-1.713874288484105e-001
1	 3.291149776933045e+000	 3.364662738745025e+000	-1.641167632561287e-001
1	 3.253791139481035e+000	 3.400803613413763e+000	-1.565077438029680e-001
1	 3.216040274207415e+000	 3.436525369079551e+000	-1.472781743763933e-001
1	 3.177904264696934e+000	 3.471821664228771e+000	-1.351417863280307e-001
1	 3.139390330192968e+000	 3.506686317567826e+000	-1.188105326703886e-001
1	 3.526552507836178e+000	 3.157175703613221e+000	-2.026148551329603e-001
1	 3.491490338159828e+000	 3.195907828477368e+000	-1.820501746720338e-001
1	 3.455994081322530e+000	 3.234259887315395e+000	-1.673230173924339e-001
1	 3.420069953636332e+000	 3.272224619985245e+000	-1.572102575838445e-001
1	 3.383724332540992e+000	 3.309794902772032e+000	-1.504732385647843e-001
1	 3.346963752837024e+000	 3.346963752837023e+000	-1.458599936286885e-001
1	 3.309794902772032e+000	 3.383724332540992e+000	-1.421074922941056e-001
1	 3.272224619985245e+000	 3.420069953636333e+000	-1.379439070993500e-001
1	 3.234259887315396e+000	 3.455994081322531e+000	-1.320908961272373e-001
1	 3.195907828477369e+000	 3.491490338159829e+000	-1.232658964055675e-001
1	 3.157175703613221e+000	 3.526552507836178e+000	-1.101844233039374e-001
1	 2.979323236533757e+000	 3.327892020513365e+000	-2.154941258971410e-001
1	 2.942415758057520e+000	 3.360568566694637e+000	-1.480634399947372e-001
1	 2.905163595364522e+000	 3.392824092332316e+000	-8.257374417896944e-002
1	 2.867573965513814e+000	 3.424653207985159e+000	-1.922399344795833e-002
1	 2.829654196428458e+000	 3.456050689161565e+000	 4.181131847437386e-002
1	 2.791411722183963e+000	 3.487011479119200e+000	 1.003821011645428e-001
1	 2.752854078213755e+000	 3.517530691503430e+000	 1.563625668847761e-001
1	 2.713988896438097e+000	 3.547603612821848e+000	 2.096510878493098e-001
1	 2.674823900322948e+000	 3.577225704752323e+000	 2.601700119963937e-001
1	 2.635366899875414e+000	 3.606392606282453e+000	 3.078654379908059e-001
1	 2.595625786582433e+000	 3.635100135678463e+000	 3.527069502786475e-001
1	 2.997108409881948e+000	 3.347757987303394e+000	-2.040491752642631e-001
1	 2.959980610933398e+000	 3.380629597259997e+000	-1.435785652916622e-001
1	 2.922506070163753e+000	 3.413077673376230e+000	-8.396917047891854e-002
1	 2.884692047714542e+000	 3.445096794038394e+000	-2.559563446095163e-002
1	 2.846545915253110e+000	 3.476681703567104e+000	 3.118943533266934e-002
1	 2.808075151232929e+000	 3.507827315033624e+000	 8.605575029545824e-002
1	 2.769287336070453e+000	 3.538528712914067e+000	 1.386955828011287e-001
1	 2.730190147244945e+000	 3.568781155578661e+000	 1.888239676818730e-001
1	 2.690791354327859e+000	 3.598580077613613e+000	 2.361788629126415e-001
1	 2.651098813948400e+000	 3.627921091973301e+000	 2.805212694891274e-001
1	 2.611120464702003e+000	 3.656799991960951e+000	 3.216353105890350e-001
1	 3.014893587676185e+000	 3.367623959059741e+000	-1.925780350420105e-001
1	 2.977545468200246e+000	 3.400690632840491e+000	-1.385695985576851e-001
1	 2.939848549298365e+000	 3.433331259483467e+000	-8.446262054943289e-002
1	 2.901810134194557e+000	 3.465540385202508e+000	-3.078781879905815e-002
1	 2.863437638300464e+000	 3.497312723130438e+000	 2.194395974041864e-002
1	 2.824738584447536e+000	 3.528643156152111e+000	 7.324232733853495e-002
1	 2.785720598035260e+000	 3.559526739574368e+000	 1.226379053529339e-001
1	 2.746391402101920e+000	 3.589958703630074e+000	 1.696828346827173e-001
1	 2.706758812324470e+000	 3.619934455813751e+000	 2.139512460292567e-001
1	 2.666830731954233e+000	 3.649449583046558e+000	 2.550396892893636e-001
1	 2.626615146695152e+000	 3.678499853668705e+000	 2.925675215122488e-001
1	 3.032678774362512e+000	 3.387489940748560e+000	-1.811702240937717e-001
1	 2.995110334249033e+000	 3.420751678451020e+000	-1.331457093309006e-001
1	 2.957191037103733e+000	 3.453584855717059e+000	-8.417895164539740e-002
1	 2.918928229233141e+000	 3.485983986588032e+000	-3.493748022412214e-002
1	 2.880329369793212e+000	 3.517943753008950e+000	 1.392913809849185e-002
1	 2.841402025993399e+000	 3.549459007678244e+000	 6.179015856150361e-002
1	 2.802153868216250e+000	 3.580524776733461e+000	 1.080344813567550e-001
1	 2.762592665059089e+000	 3.611136262270088e+000	 1.520714361905827e-001
1	 2.722726278304399e+000	 3.641288844690951e+000	 1.933315271562812e-001
1	 2.682562657825637e+000	 3.670978084883970e+000	 2.312671366531898e-001
1	 2.642109836435286e+000	 3.700199726226330e+000	 2.653531871989223e-001
1	 3.050463974386978e+000	 3.407355937335999e+000	-1.699131720122455e-001
1	 3.012675213470734e+000	 3.440812739106494e+000	-1.274135198333986e-001
1	 2.974533537915240e+000	 3.473838467140046e+000	-8.324010796307366e-002
1	 2.936046337109576e+000	 3.506427603305496e+000	-3.817835781871565e-002
1	 2.897221113954047e+000	 3.538574798360020e+000	 7.002617231245267e-003
1	 2.858065480036139e+000	 3.570274874815601e+000	 5.155110882515097e-002
1	 2.818587150721498e+000	 3.601522829640471e+000	 9.473387516667403e-002
1	 2.778793940166522e+000	 3.632313836792711e+000	 1.358371651897314e-001
1	 2.738693756259257e+000	 3.662643249583430e+000	 1.741677034400252e-001
1	 2.698294595495338e+000	 3.692506602867291e+000	 2.090536338931386e-001
1	 2.657604537795815e+000	 3.721899615058424e+000	 2.398454210434291e-001
1	 3.068249192195627e+000	 3.427221953788212e+000	-1.588922796292052e-001
1	 3.030240110256312e+000	 3.460873819821820e+000	-1.214771787682411e-001
1	 2.991876056068266e+000	 3.494092098815463e+000	-8.176520504508875e-002
1	 2.953164462103144e+000	 3.526871240465430e+000	-4.064108855777948e-002
1	 2.914112875005661e+000	 3.559205864341033e+000	 1.025345849836790e-003
1	 2.874728950741376e+000	 3.591090762767767e+000	 4.238047904185868e-002
1	 2.835020449659075e+000	 3.622520903544523e+000	 8.258816384554066e-002
1	 2.794995231474285e+000	 3.653491432491950e+000	 1.208309546675094e-001
1	 2.754661250180662e+000	 3.683997675829406e+000	 1.563112981357396e-001
1	 2.714026548896058e+000	 3.714035142378267e+000	 1.882526825437593e-001
1	 2.673099254650146e+000	 3.743599525589590e+000	 2.159007439910705e-001
1	 3.086034432234504e+000	 3.447087995071351e+000	-1.481909774305596e-001
1	 3.047805028996744e+000	 3.480934925611909e+000	-1.154384325617640e-001
1	 3.009218595898184e+000	 3.514345755806345e+000	-7.987061126353311e-002
1	 2.970282608493129e+000	 3.547314903178364e+000	-4.245329667567333e-002
1	 2.931004657170742e+000	 3.579836956109365e+000	-4.138520573346525e-003
1	 2.891392442274725e+000	 3.611906676738323e+000	 3.413690718388388e-002
1	 2.851453769137057e+000	 3.643519003694747e+000	 7.145283596515452e-002
1	 2.811196543032450e+000	 3.674669054661810e+000	 1.069071756290035e-001
1	 2.770628764060226e+000	 3.705352128767094e+000	 1.396172590230088e-001
1	 2.729758521960522e+000	 3.735563708798650e+000	 1.687211631270748e-001
1	 2.688593990871690e+000	 3.765299463244428e+000	 1.933789863656198e-001
1	 3.103819698949656e+000	 3.466954066151564e+000	-1.378907819608185e-001
1	 3.065369974082997e+000	 3.500996061491667e+000	-1.093966941537764e-001
1	 3.026561161740377e+000	 3.534599443175730e+000	-7.767002649847200e-002
1	 2.987400780558812e+000	 3.567758596554827e+000	-4.373967995727451e-002
1	 2.947896464671988e+000	 3.600468078822398e+000	-8.621711656135005e-003
1	 2.908055958801806e+000	 3.632722621930851e+000	 2.668227269885088e-002
1	 2.867887113263519e+000	 3.664517135340264e+000	 6.118669388964204e-002
1	 2.827397878891083e+000	 3.695846708596299e+000	 9.392353862193704e-002
1	 2.786596301889565e+000	 3.726706613734713e+000	 1.239438603175897e-001
1	 2.745490518621454e+000	 3.757092307510191e+000	 1.503192383680259e-001
1	 2.704088750333855e+000	 3.786999433447542e+000	 1.721431930758826e-001
1	 3.121604996787129e+000	 3.486820171995005e+000	-1.280713502972574e-001
1	 3.082934949906041e+000	 3.521057232476000e+000	-1.034491094335861e-001
1	 3.043903757930221e+000	 3.554853165986655e+000	-7.527455812386470e-002
1	 3.004518982579476e+000	 3.588202325705353e+000	-4.462209307596496e-002
1	 2.964788301732086e+000	 3.621099237637516e+000	-1.255393081460300e-002
1	 2.924719504488238e+000	 3.653538603548932e+000	 1.988160419639614e-002
1	 2.884320486146530e+000	 3.685515303730201e+000	 5.165175940298098e-002
1	 2.843599243100252e+000	 3.717024399589421e+000	 8.174099863165014e-002
1	 2.802563867660294e+000	 3.748061136070473e+000	 1.091526079401010e-001
1	 2.761222542811580e+000	 3.778620943894639e+000	 1.329102597221425e-001
1	 2.719583536910048e+000	 3.808699441623531e+000	 1.520595320663408e-001
1	 3.139390330192968e+000	 3.506686317567826e+000	-1.188105326703886e-001
1	 3.100499960856846e+000	 3.541118443579816e+000	-9.769062141528438e-002
1	 3.061246388803097e+000	 3.575106929302157e+000	-7.279279440779130e-002
1	 3.021637218834404e+000	 3.608646095740469e+000	-4.521962809573957e-002
1	 2.981680172573729e+000	 3.641730437712096e+000	-1.606194095248340e-002
1	 2.941383083499637e+000	 3.674354626796148e+000	 1.360299027612559e-002
1	 2.900753891894165e+000	 3.706513514113686e+000	 4.271318254787417e-002
1	 2.859800639710027e+000	 3.738202132935184e+000	 7.022366321238351e-002
1	 2.818531465364027e+000	 3.769415701112596e+000	 9.510814800829047e-002
1	 2.776954598463622e+000	 3.800149623333742e+000	 1.163606770839590e-001
1	 2.735078354473680e+000	 3.830399493196998e+000	 1.329972058830997e-001
1	 3.157175703613221e+000	 3.526552507836178e+000	-1.101844233039374e-001
1	 3.118065011326384e+000	 3.561179699818027e+000	-9.221403224155830e-002
1	 3.078589058694385e+000	 3.595360738185272e+000	-7.033087542905167e-002
1	 3.038755493602876e+000	 3.629089911770705e+000	-4.564869224938370e-002
1	 2.998572081419611e+000	 3.662361684203525e+000	-1.926964725113394e-002
1	 2.958046700001627e+000	 3.695170696876085e+000	 7.717493372854249e-003
1	 2.917187334614500e+000	 3.727511771739845e+000	 3.423915354923281e-002
1	 2.876002072770478e+000	 3.759379913927594e+000	 5.923870372709678e-002
1	 2.834499098992381e+000	 3.790770314199297e+000	 8.167817842562225e-002
1	 2.792686689510306e+000	 3.821678351209255e+000	 1.005399515505920e-001
1	 2.750573206898158e+000	 3.852099593592544e+000	 1.148283662321550e-001
1	 2.595625786582433e+000	 3.635100135678463e+000	 3.527069502786475e-001
1	 2.555608527434690e+000	 3.663344291249593e+000	 3.943239749600397e-001
1	 2.515323157233419e+000	 3.691121249848880e+000	 4.321361310823266e-001
1	 2.474777776093069e+000	 3.718427371378763e+000	 4.658350697651385e-001
1	 2.433980545103553e+000	 3.745259201099026e+000	 4.951385548820330e-001
1	 2.392939681090943e+000	 3.771613470733660e+000	 5.197908274028047e-001
1	 2.351663451361818e+000	 3.797487099402197e+000	 5.395629204674874e-001
1	 2.310160168438054e+000	 3.822877194375687e+000	 5.542529249664235e-001
1	 2.268438184788723e+000	 3.847781051657798e+000	 5.636862055267705e-001
1	 2.226505887565815e+000	 3.872196156391829e+000	 5.677155669308025e-001
1	 2.184371693350319e+000	 3.896120183094671e+000	 5.662213711146127e-001
1	 2.611120464702003e+000	 3.656799991960951e+000	 3.216353105890350e-001
1	 2.570864321138576e+000	 3.685212751997569e+000	 3.590285937967032e-001
1	 2.530338466023376e+000	 3.713155526113802e+000	 3.921997865724411e-001
1	 2.489551047824762e+000	 3.740624652482407e+000	 4.209577777209040e-001
1	 2.448510276350555e+000	 3.767616655739987e+000	 4.451393500069437e-001
1	 2.407224417477455e+000	 3.794128248100461e+000	 4.646093273794292e-001
1	 2.365701787864013e+000	 3.820156330291954e+000	 4.792606719569810e-001
1	 2.323950749653989e+000	 3.845697992317275e+000	 4.890145310128173e-001
1	 2.281979705176810e+000	 3.870750514038510e+000	 4.938202343182825e-001
1	 2.239797091651857e+000	 3.895311365586440e+000	 4.936552423245004e-001
1	 2.197411375903191e+000	 3.919378207595922e+000	 4.885250457786600e-001
1	 2.626615146695152e+000	 3.678499853668705e+000	 2.925675215122488e-001
1	 2.586120118656368e+000	 3.707081218212970e+000	 3.259531438568035e-001
1	 2.545353778567168e+000	 3.735189807887587e+000	 3.547886760604382e-001
1	 2.504324323249834e+000	 3.762821939135639e+000	 3.789932398242771e-001
1	 2.463040011230107e+000	 3.789974115970545e+000	 3.985151067496507e-001
1	 2.421509157435315e+000	 3.816643031096151e+000	 4.133316440053769e-001
1	 2.379740127875997e+000	 3.842825566849163e+000	 4.234492095548969e-001
1	 2.337741334317804e+000	 3.868518795964159e+000	 4.289029976025936e-001
1	 2.295521228950525e+000	 3.893719982161630e+000	 4.297568350360267e-001
1	 2.253088299060944e+000	 3.918426580559851e+000	 4.261029297543808e-001
1	 2.210451061716201e+000	 3.942636237911626e+000	 4.180615718830536e-001
1	 2.642109836435286e+000	 3.700199726226330e+000	 2.653531871989223e-001
1	 2.601375923801742e+000	 3.728949695362553e+000	 2.949472863548909e-001
1	 2.560369098618346e+000	 3.757224100678466e+000	 3.197455335828138e-001
1	 2.519097606061323e+000	 3.785019236887461e+000	 3.397704037616831e-001
1	 2.477569753374350e+000	 3.812331587379766e+000	 3.550742582864902e-001
1	 2.435793904535414e+000	 3.839157825349139e+000	 3.657391045730983e-001
1	 2.393778474907056e+000	 3.865494814740869e+000	 3.718763056820172e-001
1	 2.351531925876844e+000	 3.891339611021289e+000	 3.736262411023339e-001
1	 2.309062759494951e+000	 3.916689461769292e+000	 3.711579198479254e-001
1	 2.266379513115586e+000	 3.941541807090635e+000	 3.646685471242899e-001
1	 2.223490754048992e+000	 3.965894279856078e+000	 3.543830459252806e-001
1	 2.657604537795815e+000	 3.721899615058424e+000	 2.398454210434291e-001
1	 2.616631740388380e+000	 3.750818188913088e+000	 2.658641903331125e-001
1	 2.575384429930460e+000	 3.779258409994674e+000	 2.869167623814582e-001
1	 2.533870899952260e+000	 3.807216551286875e+000	 3.031222076858100e-001
1	 2.492099506415425e+000	 3.834689075556711e+000	 3.146297063552838e-001
1	 2.450078662348638e+000	 3.861672636487839e+000	 3.216181366834330e-001
1	 2.407816832466474e+000	 3.888164079634114e+000	 3.242956151535958e-001
1	 2.365322527778456e+000	 3.914160443193614e+000	 3.228989892601430e-001
1	 2.322604300195172e+000	 3.939658958603628e+000	 3.176932846318993e-001
1	 2.279670737138295e+000	 3.964657050957376e+000	 3.089711080414886e-001
1	 2.236530456161203e+000	 3.989152339243565e+000	 2.970520079758036e-001
1	 2.673099254650146e+000	 3.743599525589590e+000	 2.159007439910705e-001
1	 2.631887572229961e+000	 3.772686704331335e+000	 2.385604310035677e-001
1	 2.590399776257064e+000	 3.801292741344445e+000	 2.561523285602848e-001
1	 2.548644208615680e+000	 3.829413887882882e+000	 2.688854645501734e-001
1	 2.506629273985478e+000	 3.857046586090442e+000	 2.769986917201224e-001
1	 2.464363434445877e+000	 3.884187470140660e+000	 2.807601203854661e-001
1	 2.421855204063538e+000	 3.910833367195940e+000	 2.804665046354243e-001
1	 2.379113143469984e+000	 3.936981298186089e+000	 2.764425837190532e-001
1	 2.336145854436271e+000	 3.962628478406766e+000	 2.690403803912032e-001
1	 2.292961974451582e+000	 3.987772317938653e+000	 2.586384580854963e-001
1	 2.249570171312477e+000	 4.012410421888376e+000	 2.456411388621366e-001
1	 2.688593990871690e+000	 3.765299463244428e+000	 1.933789863656198e-001
1	 2.647143423140168e+000	 3.794555247084063e+000	 2.128958916098379e-001
1	 2.605415141351708e+000	 3.823327100236014e+000	 2.273056584232124e-001
1	 2.563417535744618e+000	 3.851611252224485e+000	 2.369007504477399e-001
1	 2.521159059716648e+000	 3.879404124570021e+000	 2.420026691203717e-001
1	 2.478648224398018e+000	 3.906702331936015e+000	 2.429612454349653e-001
1	 2.435893593207532e+000	 3.933502683093391e+000	 2.401538880037382e-001
1	 2.392903776398776e+000	 3.959802181703660e+000	 2.339847893669406e-001
1	 2.349687425603333e+000	 3.985598026920839e+000	 2.248840925828702e-001
1	 2.306253228377954e+000	 4.010887613813039e+000	 2.133070202066998e-001
1	 2.262609902762454e+000	 4.035668533604806e+000	 1.997329678357290e-001
1	 2.704088750333855e+000	 3.786999433447542e+000	 1.721431930758826e-001
1	 2.662399296932676e+000	 3.816423822638034e+000	 1.887336686663244e-001
1	 2.620430528967939e+000	 3.845361492177609e+000	 2.002335393456759e-001
1	 2.578190885032107e+000	 3.873808649860682e+000	 2.070122967928289e-001
1	 2.535688867241081e+000	 3.901761696584513e+000	 2.094671865238130e-001
1	 2.492933035775950e+000	 3.929217227502316e+000	 2.080223734658574e-001
1	 2.449932003407742e+000	 3.956172032993508e+000	 2.031280673719007e-001
1	 2.406694430012176e+000	 3.982623099451280e+000	 1.952596102484733e-001
1	 2.363229017081439e+000	 4.008567609887977e+000	 1.849165280414440e-001
1	 2.319544502239928e+000	 4.034002944359120e+000	 1.726215488881447e-001
1	 2.275649653770777e+000	 4.058926680207140e+000	 1.589195903007038e-001
1	 2.719583536910048e+000	 3.808699441623531e+000	 1.520595320663408e-001
1	 2.677655197421170e+000	 3.838292436460014e+000	 1.659399804405821e-001
1	 2.635445942859313e+000	 3.867395922677467e+000	 1.747960240385900e-001
1	 2.592964260171184e+000	 3.896006086340477e+000	 1.790678861928621e-001
1	 2.550218700190915e+000	 3.924119307722978e+000	 1.792217685120905e-001
1	 2.507217872150561e+000	 3.951732162467970e+000	 1.757489048785849e-001
1	 2.463970438173452e+000	 3.978841422563334e+000	 1.691645795575914e-001
1	 2.420485107757531e+000	 4.005444057133899e+000	 1.600071117770644e-001
1	 2.376770632255675e+000	 4.031537233050311e+000	 1.488368091948303e-001
1	 2.332835799360011e+000	 4.057118315355471e+000	 1.362348927206035e-001
1	 2.288689427597086e+000	 4.082184867509672e+000	 1.228023952027366e-001
1	 2.735078354473680e+000	 3.830399493196998e+000	 1.329972058830997e-001
1	 2.692911128419328e+000	 3.860161094016767e+000	 1.443840785498533e-001
1	 2.650461386779380e+000	 3.889430397243821e+000	 1.508563380700828e-001
1	 2.607737664854879e+000	 3.918203567212871e+000	 1.529187518634478e-001
1	 2.564748562198296e+000	 3.946476963574480e+000	 1.510998036343891e-001
1	 2.521502737092740e+000	 3.974247142461395e+000	 1.459506502580796e-001
1	 2.478008901013948e+000	 4.001510857469911e+000	 1.380440477745306e-001
1	 2.434275813082186e+000	 4.028265060456468e+000	 1.279732489967349e-001
1	 2.390312274511121e+000	 4.054506902149972e+000	 1.163508752826945e-001
1	 2.346127123060713e+000	 4.080233732580672e+000	 1.038077650569134e-001
1	 2.301729227501026e+000	 4.105443101326692e+000	 9.099180169453582e-002
1	 2.750573206898158e+000	 3.852099593592544e+000	 1.148283662321550e-001
1	 2.708167093740830e+000	 3.882029800775059e+000	 1.239381625489041e-001
1	 2.665476864481691e+000	 3.911464921384907e+000	 1.282807905163928e-001
1	 2.622511102776230e+000	 3.940401098026868e+000	 1.284194804469410e-001
1	 2.579278456895366e+000	 3.968834669728083e+000	 1.249384355727055e-001
1	 2.535787634173377e+000	 3.996762173110999e+000	 1.184417061425433e-001
1	 2.492047395438517e+000	 4.024180343380285e+000	 1.095520383424754e-001
1	 2.448066549433489e+000	 4.051086115123940e+000	 9.890970065504506e-002
1	 2.403853947232864e+000	 4.077476622929091e+000	 8.717129030100843e-002
1	 2.359418476664550e+000	 4.103349201813303e+000	 7.500852242665886e-002
1	 2.314769056742236e+000	 4.128701387472491e+000	 6.310700471174813e-002
1	 2.184371693350319e+000	 3.896120183094671e+000	 5.662213711146127e-001
1	 2.142050406224803e+000	 3.919547518884829e+000	 5.618267504689550e-001
1	 2.099544179197507e+000	 3.942479845858591e+000	 5.566406054179708e-001
1	 2.056861484259474e+000	 3.964915410292883e+000	 5.498152380094966e-001
1	 2.014010801950552e+000	 3.986852646976335e+000	 5.405313814847189e-001
1	 1.971000616255271e+000	 4.008290178599602e+000	 5.279992773750657e-001
1	 1.927839409546484e+000	 4.029226814984732e+000	 5.114596865641730e-001
1	 1.884535657582464e+000	 4.049661552156452e+000	 4.901848331988666e-001
1	 1.841097824563030e+000	 4.069593571258429e+000	 4.634792805168322e-001
1	 1.797534358250065e+000	 4.089022237317836e+000	 4.306807378421839e-001
1	 1.753853685157622e+000	 4.107947097861665e+000	 3.911607981823185e-001
1	 2.197411375903191e+000	 3.919378207595922e+000	 4.885250457786600e-001
1	 2.154837450386865e+000	 3.942945393679175e+000	 4.811218276374358e-001
1	 2.112077480963578e+000	 3.966014615973811e+000	 4.736008949861138e-001
1	 2.069139990198221e+000	 3.988584110287832e+000	 4.652005562292828e-001
1	 2.026033509255522e+000	 4.010652302066275e+000	 4.551783645545481e-001
1	 1.982766572765459e+000	 4.032217805777887e+000	 4.428121812084310e-001
1	 1.939347713736705e+000	 4.053279424139899e+000	 4.274011889191272e-001
1	 1.895785458523871e+000	 4.073836147183757e+000	 4.082668541071259e-001
1	 1.852088321854113e+000	 4.093887151164926e+000	 3.847538366733866e-001
1	 1.808264801918528e+000	 4.113431797320074e+000	 3.562308463044356e-001
1	 1.764323375533540e+000	 4.132469630475131e+000	 3.220914443837349e-001
1	 2.210451061716201e+000	 3.942636237911626e+000	 4.180615718830537e-001
1	 2.167624497745855e+000	 3.966343274322894e+000	 4.083288384653497e-001
1	 2.124610785863071e+000	 3.989549391972592e+000	 3.990412234561745e-001
1	 2.081418499206607e+000	 4.012252816199792e+000	 3.895128084303522e-001
1	 2.038056219566090e+000	 4.034451963105934e+000	 3.790688348992505e-001
1	 1.994532532216958e+000	 4.056145438937855e+000	 3.670467551257529e-001
1	 1.950856020803727e+000	 4.077332039307960e+000	 3.527972473501064e-001
1	 1.907035262277360e+000	 4.098010748254415e+000	 3.356851938540863e-001
1	 1.863078821892374e+000	 4.118180737144485e+000	 3.150906204084872e-001
1	 1.818995248269089e+000	 4.137841363424329e+000	 2.904095957689334e-001
1	 1.774793068526321e+000	 4.156992169218810e+000	 2.610550900064302e-001
1	 2.223490754048992e+000	 3.965894279856078e+000	 3.543830459252806e-001
1	 2.180411551498271e+000	 3.989741166665249e+000	 3.429458855518929e-001
1	 2.137144097029070e+000	 4.013084179738415e+000	 3.324191532368451e-001
1	 2.093697014354038e+000	 4.035921533945723e+000	 3.221826115318611e-001
1	 2.050078935887736e+000	 4.058251636045005e+000	 3.116201862041022e-001
1	 2.006298497551088e+000	 4.080073084061181e+000	 3.001210059521509e-001
1	 1.962364333624481e+000	 4.101384666501830e+000	 2.870804188970835e-001
1	 1.918285071655266e+000	 4.122185361411838e+000	 2.719009840914246e-001
1	 1.874069327425340e+000	 4.142474335270259e+000	 2.539934363794670e-001
1	 1.829725699984286e+000	 4.162250941732745e+000	 2.327776230365216e-001
1	 1.785262766753336e+000	 4.181514720223090e+000	 2.076834107114815e-001
1	 2.236530456161203e+000	 3.989152339243565e+000	 2.970520079758036e-001
1	 2.193198614840611e+000	 4.013139076555489e+000	 2.844827736695388e-001
1	 2.149677417594655e+000	 4.036618985154762e+000	 2.732048937607808e-001
1	 2.105975538709923e+000	 4.059590269442583e+000	 2.626538573025797e-001
1	 2.062101661225939e+000	 4.082051326833177e+000	 2.522633948411845e-001
1	 2.018064471709168e+000	 4.104000747129544e+000	 2.414665083968701e-001
1	 1.973872655075903e+000	 4.125437311734431e+000	 2.296964887016806e-001
1	 1.929534889469919e+000	 4.146359992699434e+000	 2.163879177809219e-001
1	 1.885059841200544e+000	 4.166767951615396e+000	 2.009776550332025e-001
1	 1.840456159746657e+000	 4.186660538347462e+000	 1.829058050357938e-001
1	 1.795732472831950e+000	 4.206037289618354e+000	 1.616166653781445e-001
1	 2.249570171312477e+000	 4.012410421888376e+000	 2.456411388621366e-001
1	 2.205985690969373e+000	 4.036537009842877e+000	 2.324606704510648e-001
1	 2.162210750692910e+000	 4.060153814105111e+000	 2.208809347689667e-001
1	 2.118254075343664e+000	 4.083259028607333e+000	 2.103833274323342e-001
1	 2.074124398586184e+000	 4.105851041420147e+000	 2.004426260039203e-001
1	 2.029830457632516e+000	 4.127928434124628e+000	 1.905280116040753e-001
1	 1.985380988034921e+000	 4.149489981018679e+000	 1.801040863954537e-001
1	 1.940784718533653e+000	 4.170534648160611e+000	 1.686318849005083e-001
1	 1.896050365965514e+000	 4.191061592253049e+000	 1.555698771602308e-001
1	 1.851186630238740e+000	 4.211070159370624e+000	 1.403749617966742e-001
1	 1.806202189379531e+000	 4.230559883534988e+000	 1.225034471004603e-001
1	 2.262609902762454e+000	 4.035668533604806e+000	 1.997329678357290e-001
1	 2.218772783081055e+000	 4.059934972376666e+000	 1.864117788228179e-001
1	 2.174744099456915e+000	 4.083688672472943e+000	 1.749416922899562e-001
1	 2.130532627324668e+000	 4.106927817356930e+000	 1.648403219288396e-001
1	 2.086147150973949e+000	 4.129650785755607e+000	 1.556148534763754e-001
1	 2.041596458262454e+000	 4.151856151028106e+000	 1.467630593239673e-001
1	 1.996889335378473e+000	 4.173542680367493e+000	 1.377743157679521e-001
1	 1.952034561658799e+000	 4.194709333838777e+000	 1.281306207613412e-001
1	 1.907040904467783e+000	 4.215355263256366e+000	 1.173076100612737e-001
1	 1.861917114143072e+000	 4.235479810904370e+000	 1.047755697064314e-001
1	 1.816671919013446e+000	 4.255082508103376e+000	 9.000044280382928e-002
1	 2.275649653770777e+000	 4.058926680207140e+000	 1.589195903007040e-001
1	 2.231559894372153e+000	 4.083332970006111e+000	 1.458790207125550e-001
1	 2.187277467019754e+000	 4.107223566141736e+000	 1.348931668042043e-001
1	 2.142811197722343e+000	 4.130596641608336e+000	 1.255063003047952e-001
1	 2.098169921394717e+000	 4.153450565789250e+000	 1.172494924897723e-001
1	 2.053362476540301e+000	 4.175783903821666e+000	 1.096416231573193e-001
1	 2.008397699983487e+000	 4.197595415793795e+000	 1.021903971812969e-001
1	 1.963284421657691e+000	 4.218884055777343e+000	 9.439336642955060e-002
1	 1.918031459454879e+000	 4.239648970698496e+000	 8.573895485984655e-002
1	 1.872647614142193e+000	 4.259889499050847e+000	 7.570748463516933e-002
1	 1.827141664351063e+000	 4.279605169453904e+000	 6.377220113539739e-002
1	 2.288689427597086e+000	 4.082184867509672e+000	 1.228023952027366e-001
1	 2.244347028039166e+000	 4.106731008580471e+000	 1.104157315816976e-001
1	 2.199810856514507e+000	 4.130758500994972e+000	 1.002526131070006e-001
1	 2.155089789606092e+000	 4.154265507278510e+000	 9.187453504458067e-002
1	 2.110192712853969e+000	 4.177250387470769e+000	 8.482804514370008e-002
1	 2.065128515407376e+000	 4.199711698486983e+000	 7.864574835140610e-002
1	 2.019906084726899e+000	 4.221648193310500e+000	 7.284732222236331e-002
1	 1.974534301342661e+000	 4.243058820019718e+000	 6.694054076931390e-002
1	 1.929022033674333e+000	 4.263942720652591e+000	 6.042230451593683e-002
1	 1.883378132918639e+000	 4.284299229912193e+000	 5.277967453678375e-002
1	 1.837611428009748e+000	 4.304127873716954e+000	 4.349090829792079e-002
1	 2.301729227501026e+000	 4.105443101326692e+000	 9.099180169453582e-002
1	 2.257134187278591e+000	 4.130129093949001e+000	 7.958536535228944e-002
1	 2.212344271074256e+000	 4.154293482916130e+000	 7.054822140554670e-002
1	 2.167368406045321e+000	 4.177934420284410e+000	 6.344977686305896e-002
1	 2.122215528357185e+000	 4.201050256749856e+000	 5.784375789321979e-002
1	 2.076894577804999e+000	 4.223639541005737e+000	 5.326921164908916e-002
1	 2.031414492485641e+000	 4.245701018930528e+000	 4.925152010672704e-002
1	 1.985784203526040e+000	 4.267233632609310e+000	 4.530342364590997e-002
1	 1.940012629873676e+000	 4.288236519191803e+000	 4.092605211592282e-002
1	 1.894108673154950e+000	 4.308709009590554e+000	 3.560996114918794e-002
1	 1.848081212606869e+000	 4.328650627022916e+000	 2.883617151173497e-002
1	 2.314769056742236e+000	 4.128701387472491e+000	 6.310700471174813e-002
1	 2.269921375286927e+000	 4.153527231960959e+000	 5.296120931828372e-002
1	 2.224877713832085e+000	 4.177828517788692e+000	 4.531880920671911e-002
1	 2.179647050109438e+000	 4.201603386542996e+000	 3.974793129096709e-002
1	 2.134238370909848e+000	 4.224850179576209e+000	 3.580129062551642e-002
1	 2.088660666674489e+000	 4.247567437359611e+000	 3.301719071520646e-002
1	 2.042922926136646e+000	 4.269753898666801e+000	 3.092053537046944e-002
1	 1.997034131020162e+000	 4.291408499589529e+000	 2.902384984820854e-002
1	 1.951003250800438e+000	 4.312530372389278e+000	 2.682830903304408e-002
1	 1.904839237533663e+000	 4.333118844188068e+000	 2.382477043461041e-002
1	 1.858551020759794e+000	 4.353173435502171e+000	 1.949480980372668e-002
1	 1.753853685157622e+000	 4.107947097861665e+000	 3.911607981823184e-001
1	 1.710057629351524e+000	 4.126370607494756e+000	 3.445054043406138e-001
1	 1.666161110416385e+000	 4.144289799846914e+000	 2.915210410281511e-001
1	 1.622172468799514e+000	 4.161704763504537e+000	 2.334016505593636e-001
1	 1.578100005132252e+000	 4.178615762716244e+000	 1.713201366312064e-001
1	 1.533951975835255e+000	 4.195023235321111e+000	 1.064269429911299e-001
1	 1.489736588820484e+000	 4.210927790553209e+000	 3.984869502282864e-002
1	 1.445461999293614e+000	 4.226330206727043e+000	-2.731309432143316e-002
1	 1.401136305660350e+000	 4.241231428808610e+000	-9.398325299737757e-002
1	 1.356767545539909e+000	 4.255632565876874e+000	-1.591141116929447e-001
1	 1.312363691888676e+000	 4.269534888480566e+000	-2.216865981209766e-001
1	 1.764323375533540e+000	 4.132469630475131e+000	 3.220914443837349e-001
1	 1.720265877653797e+000	 4.151003119887775e+000	 2.817063902428723e-001
1	 1.676107316926896e+000	 4.169029281479971e+000	 2.355857760335475e-001
1	 1.631856083588732e+000	 4.186548204366939e+000	 1.848238710386498e-001
1	 1.587520527821553e+000	 4.203560154374750e+000	 1.304995799756184e-001
1	 1.543108955333008e+000	 4.220065571956186e+000	 7.367505900815294e-002
1	 1.498629623032470e+000	 4.236065069982164e+000	 1.539438425865900e-002
1	 1.454090734808400e+000	 4.251559431413378e+000	-4.331772559067999e-002
1	 1.409500437410214e+000	 4.266549606856837e+000	-1.014571311832480e-001
1	 1.364866816437977e+000	 4.281036712012199e+000	-1.580414375982573e-001
1	 1.320197892442914e+000	 4.295022025012785e+000	-2.121111015872856e-001
1	 1.774793068526321e+000	 4.156992169218810e+000	 2.610550900064304e-001
1	 1.730474128507555e+000	 4.175635638438452e+000	 2.262639652020328e-001
1	 1.686053525923382e+000	 4.193768769297368e+000	 1.863354702471030e-001
1	 1.641539700798301e+000	 4.211391651439615e+000	 1.422678394308541e-001
1	 1.596941052865475e+000	 4.228504552268712e+000	 9.504869529589739e-002
1	 1.552265937119550e+000	 4.245107914851144e+000	 4.565371442294328e-002
1	 1.507522659467327e+000	 4.261202355694691e+000	-4.954663366364127e-003
1	 1.462719472480057e+000	 4.276788662406223e+000	-5.582848069556544e-002
1	 1.417864571250882e+000	 4.291867791233776e+000	-1.060354616594444e-001
1	 1.372966089360723e+000	 4.306440864497702e+000	-1.546601627859498e-001
1	 1.328032094955653e+000	 4.320509167915921e+000	-2.008050746753310e-001
1	 1.785262766753336e+000	 4.181514720223090e+000	 2.076834107114815e-001
1	 1.740682384464818e+000	 4.200268169304669e+000	 1.778819674414325e-001
1	 1.695999739892365e+000	 4.218508269483743e+000	 1.435341026656675e-001
1	 1.651223322849097e+000	 4.236235110933195e+000	 1.055456413808249e-001
1	 1.606361582619119e+000	 4.253448962634002e+000	 6.481563956914020e-002
1	 1.561422923484098e+000	 4.270150270266356e+000	 2.223511204471542e-002
1	 1.516415700348281e+000	 4.286339653974895e+000	-2.131420404232858e-002
1	 1.471348214465735e+000	 4.302017906012684e+000	-6.496104829970303e-002
1	 1.426228709273348e+000	 4.317185988268775e+000	-1.078457971673696e-001
1	 1.381065366332916e+000	 4.331845029684224e+000	-1.491215834832805e-001
1	 1.335866301385387e+000	 4.345996323561552e+000	-1.879553741805629e-001
1	 1.795732472831950e+000	 4.206037289618354e+000	 1.616166653781444e-001
1	 1.750890648077604e+000	 4.224900718644310e+000	 1.362711353581993e-001
1	 1.705945961320361e+000	 4.243247788223719e+000	 1.069511498472465e-001
1	 1.660906952161998e+000	 4.261078589058305e+000	 7.447373819909275e-002
1	 1.615782119437594e+000	 4.278393391706492e+000	 3.965210428650288e-002
1	 1.570579916715873e+000	 4.295192644462189e+000	 3.294428560216477e-003
1	 1.525308747898565e+000	 4.311476971106893e+000	-3.379730068391624e-002
1	 1.479976962922586e+000	 4.327247168539862e+000	-7.082842508780406e-002
1	 1.434592853568603e+000	 4.342504204291177e+000	-1.070127214332457e-001
1	 1.389164649379327e+000	 4.357249213922600e+000	-1.415734727457972e-001
1	 1.343700513690607e+000	 4.371483498321261e+000	-1.737445038976203e-001
1	 1.806202189379531e+000	 4.230559883534988e+000	 1.225034471004603e-001
1	 1.761098921897934e+000	 4.249533292615256e+000	 1.011489073030431e-001
1	 1.715892192693890e+000	 4.267987331701934e+000	 7.636142634844438e-002
1	 1.670590591157879e+000	 4.285922092025571e+000	 4.887283982306557e-002
1	 1.625202665676004e+000	 4.303337845722058e+000	 1.941321280337305e-002
1	 1.579736919104094e+000	 4.320235043699012e+000	-1.129027185531771e-002
1	 1.534201804341407e+000	 4.336614313374795e+000	-4.251440117294453e-002
1	 1.488605720007758e+000	 4.352476456294862e+000	-7.354099395486204e-002
1	 1.442957006227640e+000	 4.367822445630329e+000	-1.036579353688076e-001
1	 1.397263940524723e+000	 4.382653423563673e+000	-1.321601826991820e-001
1	 1.351534733829807e+000	 4.396970698566631e+000	-1.583507408908968e-001
1	 1.816671919013446e+000	 4.255082508103376e+000	 9.000044280382928e-002
1	 1.771307208477830e+000	 4.274165897375390e+000	 7.223922829125067e-002
1	 1.725838436499470e+000	 4.292726906103013e+000	 5.154493068565804e-002
1	 1.680274242257617e+000	 4.310765626045626e+000	 2.856778217605281e-002
1	 1.634623223689456e+000	 4.328282330916574e+000	 3.957421243070743e-003
1	 1.588893932937980e+000	 4.345277474237194e+000	-2.163812093661130e-002
1	 1.543094871900039e+000	 4.361751687062710e+000	-4.757341389231895e-002
1	 1.497234487878402e+000	 4.377705775584788e+000	-7.320659948857740e-002
1	 1.451321169341452e+000	 4.393140718615578e+000	-9.790034028789384e-002
1	 1.405363241793874e+000	 4.408057664958274e+000	-1.210227432416854e-001
1	 1.359368963761479e+000	 4.422457930669241e+000	-1.419482573938521e-001
1	 1.827141664351063e+000	 4.279605169453904e+000	 6.377220113539739e-002
1	 1.781515510369310e+000	 4.298798539082597e+000	 4.927236336653407e-002
1	 1.735784695223622e+000	 4.317466517611590e+000	 3.228669659813530e-002
1	 1.689957907882089e+000	 4.335609197329096e+000	 1.338740874750349e-002
1	 1.644043795833055e+000	 4.353226853525915e+000	-6.853577188617008e-003
1	 1.598050960506749e+000	 4.370319942337101e+000	-2.786552685624597e-002
1	 1.551987952797689e+000	 4.386889098454755e+000	-4.907978066014728e-002
1	 1.505863268691669e+000	 4.402935132716745e+000	-6.993062085371669e-002
1	 1.459685345001030e+000	 4.418459029576267e+000	-8.985611825878026e-002
1	 1.413462555211549e+000	 4.433461944457243e+000	-1.082989573492960e-001
1	 1.367203205444115e+000	 4.447945201000673e+000	-1.247072385126685e-001
1	 1.837611428009748e+000	 4.304127873716954e+000	 4.349090829792079e-002
1	 1.791723830124394e+000	 4.323431223894759e+000	 3.198471735213068e-002
1	 1.745730971352862e+000	 4.342206172412294e+000	 1.837664940130735e-002
1	 1.699641590452171e+000	 4.360452812086607e+000	 3.164456225941430e-003
1	 1.653464384461906e+000	 4.378171419785954e+000	-1.315494461424167e-002
1	 1.607208004099624e+000	 4.395362454259105e+000	-3.008625199664514e-002
1	 1.560881049257587e+000	 4.412026553835040e+000	-4.713654716779487e-002
1	 1.514492064604708e+000	 4.428164533997836e+000	-6.381604218213796e-002
1	 1.468049535297369e+000	 4.443777384841744e+000	-7.963880970658674e-002
1	 1.421561882802517e+000	 4.458866268411420e+000	-9.412349311926015e-002
1	 1.375037460836209e+000	 4.473432515932509e+000	-1.067939959017131e-001
1	 1.848081212606869e+000	 4.328650627022916e+000	 2.883617151173497e-002
1	 1.801932170295104e+000	 4.348063957969758e+000	 2.011866073557381e-002
1	 1.755677267373712e+000	 4.366945876689758e+000	 9.609467228225612e-003
1	 1.709325292388740e+000	 4.385296476528788e+000	-2.264555976306132e-003
1	 1.662884991931116e+000	 4.403116035932563e+000	-1.507878775085158e-002
1	 1.616365066005822e+000	 4.420405016263575e+000	-2.841148807555423e-002
1	 1.569774163502965e+000	 4.437164059487676e+000	-4.184443102102105e-002
1	 1.523120877774671e+000	 4.453393985735167e+000	-5.496352056750637e-002
1	 1.476413742321459e+000	 4.469095790741354e+000	-6.735938837496859e-002
1	 1.429661226591549e+000	 4.484270643171642e+000	-7.862797268146519e-002
1	 1.382871731896253e+000	 4.498919881836328e+000	-8.837107757074962e-002
1	 1.858551020759794e+000	 4.353173435502171e+000	 1.949480980372668e-002
1	 1.812140533433458e+000	 4.372696747465477e+000	 1.342236144500050e-002
1	 1.765623585772689e+000	 4.391685636628613e+000	 5.784446966200409e-003
1	 1.719009016112671e+000	 4.410140196866270e+000	-3.059432460221098e-003
1	 1.672305620595791e+000	 4.428060708201621e+000	-1.275424415563090e-002
1	 1.625522148514562e+000	 4.445447634610877e+000	-2.294992872946825e-002
1	 1.578667297757052e+000	 4.462301621696777e+000	-3.330188747876858e-002
1	 1.531749710358706e+000	 4.478623494235841e+000	-4.347145175925615e-002
1	 1.484777968164294e+000	 4.494414253604442e+000	-5.312633375129756e-002
1	 1.437760588603412e+000	 4.509675075088746e+000	-6.194105810131238e-002
1	 1.390706020582741e+000	 4.524407305083716e+000	-6.959737397660526e-002
1	 1.312363691888676e+000	 4.269534888480566e+000	-2.216865981209766e-001
1	 1.267932648602657e+000	 4.282939824829096e+000	-2.816309090075378e-001
1	 1.223482245031363e+000	 4.295848954764352e+000	-3.387562603211292e-001
1	 1.179020234462681e+000	 4.308264010049258e+000	-3.919031062951244e-001
1	 1.134554291362543e+000	 4.320186872431324e+000	-4.399381343919766e-001
1	 1.090092008085801e+000	 4.331619570558885e+000	-4.817554543587813e-001
1	 1.045640891710206e+000	 4.342564276822999e+000	-5.162777184860515e-001
1	 1.001208360994867e+000	 4.353023304130099e+000	-5.424571725310294e-001
1	 9.568017434643769e-001	 4.362999102610631e+000	-5.592766369409410e-001
1	 9.124282726195250e-001	 4.372494256268735e+000	-5.657504181821309e-001
1	 8.680950852753391e-001	 4.381511479578151e+000	-5.609251501468729e-001
1	 1.320197892442914e+000	 4.295022025012785e+000	-2.121111015872856e-001
1	 1.275501616503612e+000	 4.308506982593760e+000	-2.636188225812241e-001
1	 1.230785864707158e+000	 4.321493174027922e+000	-3.123877246767080e-001
1	 1.186058436624959e+000	 4.333982341416011e+000	-3.573019096291176e-001
1	 1.141327052535938e+000	 4.345976377738679e+000	-3.972733806185347e-001
1	 1.096599350117776e+000	 4.357477323754349e+000	-4.312431375743973e-001
1	 1.051882881261982e+000	 4.368487364822227e+000	-4.581822028460077e-001
1	 1.007185109014209e+000	 4.379008827655715e+000	-4.770925768832184e-001
1	 9.625134046409606e-001	 4.389044177011387e+000	-4.870081237624382e-001
1	 9.178750448236620e-001	 4.398596012318689e+000	-4.869953865593963e-001
1	 8.732772089808063e-001	 4.407667064255488e+000	-4.761543327316103e-001
1	 1.328032094955653e+000	 4.320509167915921e+000	-2.008050746753310e-001
1	 1.283070586296851e+000	 4.334074146749346e+000	-2.444931217286664e-001
1	 1.238089486208987e+000	 4.347137399701696e+000	-2.856069703078512e-001
1	 1.193096640547000e+000	 4.359700679211523e+000	-3.230736723529430e-001
1	 1.148099815402816e+000	 4.371765889492630e+000	-3.558489591472559e-001
1	 1.103106693776948e+000	 4.383335083413516e+000	-3.829182628256544e-001
1	 1.058124872374679e+000	 4.394410459301542e+000	-4.032976683951725e-001
1	 1.013161858528212e+000	 4.404994357677095e+000	-4.160347960704735e-001
1	 9.682250672459715e-001	 4.415089257922869e+000	-4.202096138934121e-001
1	 9.233218183900274e-001	 4.424697774893605e+000	-4.149351807677806e-001
1	 8.784593339823467e-001	 4.433822655471317e+000	-3.993583201973532e-001
1	 1.335866301385387e+000	 4.345996323561552e+000	-1.879553741805629e-001
1	 1.290639559874550e+000	 4.359641323687433e+000	-2.244759022414143e-001
1	 1.245393111362680e+000	 4.372781638196507e+000	-2.586589466686695e-001
1	 1.200134847988272e+000	 4.385419029865138e+000	-2.894738624625198e-001
1	 1.154872581656271e+000	 4.397555414140287e+000	-3.159185816736140e-001
1	 1.109614040690050e+000	 4.409192856000539e+000	-3.370205807954212e-001
1	 1.064366866608685e+000	 4.420333566741420e+000	-3.518377798508260e-001
1	 1.019138611030946e+000	 4.430979900690285e+000	-3.594593730492660e-001
1	 9.739367327072042e-001	 4.441134351855978e+000	-3.590065910527193e-001
1	 9.287685946801907e-001	 4.450799550518534e+000	-3.496333950461278e-001
1	 8.836414615753684e-001	 4.459978259764122e+000	-3.305271029599083e-001
1	 1.343700513690607e+000	 4.371483498321261e+000	-1.737445038976203e-001
1	 1.298208539128881e+000	 4.385208519799600e+000	-2.037840844908319e-001
1	 1.252696741994064e+000	 4.398425895923181e+000	-2.317828941225740e-001
1	 1.207173060708235e+000	 4.411137399806195e+000	-2.567519927698865e-001
1	 1.161645352989398e+000	 4.423344958128768e+000	-2.777300447883856e-001
1	 1.116121392483815e+000	 4.435050647979575e+000	-2.937842516800341e-001
1	 1.070608865524384e+000	 4.446256693622319e+000	-3.040112187441769e-001
1	 1.025115368016482e+000	 4.456965463191335e+000	-3.075377554980525e-001
1	 9.796484024524523e-001	 4.467179465321619e+000	-3.035216099097879e-001
1	 9.342153750557217e-001	 4.476901345718529e+000	-2.911521366390822e-001
1	 8.888235930552790e-001	 4.486133883672388e+000	-2.696508996279455e-001
1	 1.351534733829807e+000	 4.396970698566631e+000	-1.583507408908968e-001
1	 1.305777525952022e+000	 4.410775741477424e+000	-1.826295635103597e-001
1	 1.260000379928967e+000	 4.424070179292549e+000	-2.052125094652492e-001
1	 1.214211280466357e+000	 4.436855795464039e+000	-2.251517935298595e-001
1	 1.168418131095294e+000	 4.449134527905186e+000	-2.415254014117693e-001
1	 1.122628750784974e+000	 4.460908465814775e+000	-2.534380071820531e-001
1	 1.076850870682165e+000	 4.472179846424699e+000	-2.600218277768233e-001
1	 1.031092130978891e+000	 4.482951051676290e+000	-2.604374144028628e-001
1	 9.853600779095110e-001	 4.493224604830711e+000	-2.538743808311677e-001
1	 9.396621608781907e-001	 4.503003167018645e+000	-2.395520687089684e-001
1	 8.940057297174856e-001	 4.512289533734595e+000	-2.167201501629376e-001
1	 1.359368963761479e+000	 4.422457930669241e+000	-1.419482573938521e-001
1	 1.313346522236146e+000	 4.436342995112480e+000	-1.612193538822362e-001
1	 1.267304026993219e+000	 4.449714494715444e+000	-1.791761057175688e-001
1	 1.221249509022101e+000	 4.462574223268007e+000	-1.949113790907446e-001
1	 1.175190917667051e+000	 4.474924129916656e+000	-2.075411262928385e-001
1	 1.129136117220259e+000	 4.486766315970297e+000	-2.162053068951731e-001
1	 1.083092883642415e+000	 4.498103031629028e+000	-2.200687501799275e-001
1	 1.037068901412243e+000	 4.508936672641196e+000	-2.183219585377109e-001
1	 9.910717605061742e-001	 4.519269776894150e+000	-2.101818516933586e-001
1	 9.451089535091670e-001	 4.529105020943928e+000	-1.948924517621937e-001
1	 8.991878728573962e-001	 4.538445216489230e+000	-1.717255092759074e-001
1	 1.367203205444115e+000	 4.447945201000673e+000	-1.247072385126685e-001
1	 1.320915529873429e+000	 4.461910287096349e+000	-1.397557296373236e-001
1	 1.274607685012648e+000	 4.475358848602692e+000	-1.538967664185742e-001
1	 1.228287748134932e+000	 4.488292689647440e+000	-1.662634088090747e-001
1	 1.181963714397768e+000	 4.500713770610291e+000	-1.760082758126328e-001
1	 1.135643493416402e+000	 4.512624204910294e+000	-1.823044893064995e-001
1	 1.089334905965519e+000	 4.524026255715766e+000	-1.843465642767742e-001
1	 1.043045680810607e+000	 4.534922332582100e+000	-1.813512450047097e-001
1	 9.967834516702370e-001	 4.545314988022852e+000	-1.725582868797173e-001
1	 9.505557543102210e-001	 4.555206914019435e+000	-1.572311836497765e-001
1	 9.043700237704184e-001	 4.564600938474771e+000	-1.346578400514699e-001
1	 1.375037460836209e+000	 4.473432515932509e+000	-1.067939959017131e-001
1	 1.328484550756046e+000	 4.487477623820608e+000	-1.184363593671574e-001
1	 1.281911355813081e+000	 4.501003247365126e+000	-1.295924946380838e-001
1	 1.235325999564314e+000	 4.514011201031684e+000	-1.394352424573551e-001
1	 1.188736522980537e+000	 4.526503456433209e+000	-1.471526423183298e-001
1	 1.142150881000136e+000	 4.538482139098919e+000	-1.519489176310933e-001
1	 1.095576939211864e+000	 4.549949525165379e+000	-1.530454134401948e-001
1	 1.049022470668055e+000	 4.560908037995049e+000	-1.496814859911774e-001
1	 1.002495152829493e+000	 4.571360244727723e+000	-1.411153435738852e-001
1	 9.560025646429224e-001	 4.581308852770217e+000	-1.266248381989777e-001
1	 9.095521837519596e-001	 4.590756706229706e+000	-1.055082077900982e-001
1	 1.382871731896253e+000	 4.498919881836328e+000	-8.837107757074962e-002
1	 1.336053586776172e+000	 4.513045011676836e+000	-9.745443673827019e-002
1	 1.289215041220348e+000	 4.526647697413575e+000	-1.064763569185847e-001
1	 1.242364265069711e+000	 4.539729763850075e+000	-1.146490903434859e-001
1	 1.195509345108456e+000	 4.552293193832522e+000	-1.211949032056083e-001
1	 1.148658281598193e+000	 4.564340125000327e+000	-1.253471206839537e-001
1	 1.101818984941837e+000	 4.575872846458329e+000	-1.263511316277313e-001
1	 1.054999272478657e+000	 4.586893795376091e+000	-1.234653518939564e-001
1	 1.008206865411738e+000	 4.597405553519671e+000	-1.159621454570434e-001
1	 9.614493858688403e-001	 4.607410843721321e+000	-1.031287025303549e-001
1	 9.147343540974272e-001	 4.616912526292514e+000	-8.426787405995262e-002
1	 1.390706020582741e+000	 4.524407305083716e+000	-6.959737397660526e-002
1	 1.343622639825983e+000	 4.538612457056611e+000	-7.699880659031540e-002
1	 1.296518743060277e+000	 4.552292205158869e+000	-8.475662234655974e-002
1	 1.249402546410590e+000	 4.565448384531957e+000	-9.212215835059315e-002
1	 1.202282182474618e+000	 4.578082989255348e+000	-9.835076495652990e-002
1	 1.155165696837305e+000	 4.590198169078671e+000	-1.027029289853235e-001
1	 1.108061044715827e+000	 4.601796226075082e+000	-1.044453646690710e-001
1	 1.060976087736485e+000	 4.612879611221273e+000	-1.028520709543262e-001
1	 1.013918590844765e+000	 4.623450920909603e+000	-9.720535391151254e-002
1	 9.668962193495460e-001	 4.633512893397808e+000	-8.679681311214474e-002
1	 9.199165361022298e-001	 4.643068405201682e+000	-7.092829094999906e-002
1	 8.680950852753391e-001	 4.381511479578151e+000	-5.609251501468729e-001
1	 8.238158559823361e-001	 4.390052368877189e+000	-5.433084838293020e-001
1	 7.795908563484760e-001	 4.398121279226209e+000	-5.121854776220987e-001
1	 7.354269054959154e-001	 4.405721297882294e+000	-4.678032403725365e-001
1	 6.913307167858134e-001	 4.412855628386947e+000	-4.104149728549065e-001
1	 6.473088957992209e-001	 4.419527586972392e+000	-3.402795909235540e-001
1	 6.033679384448826e-001	 4.425740598943745e+000	-2.576613503551686e-001
1	 5.595142291933083e-001	 4.431498195041700e+000	-1.628294739531831e-001
1	 5.157540394362644e-001	 4.436804007790360e+000	-5.605778146542614e-002
1	 4.720935259706708e-001	 4.441661767834681e+000	 6.237567715650051e-002
1	 4.285387296057504e-001	 4.446075300271935e+000	 1.921889846505298e-001
1	 8.732772089808063e-001	 4.407667064255488e+000	-4.761543327316102e-001
1	 8.287336532936124e-001	 4.416258938689484e+000	-4.529510790315405e-001
1	 7.842446509914092e-001	 4.424376016678724e+000	-4.166691518181336e-001
1	 7.398170619033307e-001	 4.432021403909765e+000	-3.676718259738262e-001
1	 6.954576394661727e-001	 4.439198323047760e+000	-3.063276275922918e-001
1	 6.511730286932236e-001	 4.445910110121298e+000	-2.330097923260224e-001
1	 6.069697642707742e-001	 4.452160210882961e+000	-1.480957310039290e-001
1	 5.628542687816454e-001	 4.457952177150323e+000	-5.196650324326471e-002
1	 5.188328510548876e-001	 4.463289663131957e+000	 5.499370025929098e-002
1	 4.749117046406270e-001	 4.468176421743034e+000	 1.723980661124694e-001
1	 4.310969064089004e-001	 4.472616300914868e+000	 2.998576566863477e-001
1	 8.784593339823467e-001	 4.433822655471317e+000	-3.993583201973532e-001
1	 8.336514518348716e-001	 4.442465515053096e+000	-3.718934460901938e-001
1	 7.888984467982979e-001	 4.450630760694662e+000	-3.318058570949163e-001
1	 7.442072194087525e-001	 4.458321516512071e+000	-2.795578388528130e-001
1	 6.995845631786759e-001	 4.465541024294118e+000	-2.156164381085406e-001
1	 6.550371625536070e-001	 4.472292639865747e+000	-1.404527724626084e-001
1	 6.105715909973929e-001	 4.478579829427027e+000	-5.454135199871263e-002
1	 5.661943092051769e-001	 4.484406165872398e+000	 4.164058633978748e-002
1	 5.219116634433041e-001	 4.489775325094919e+000	 1.476137308048965e-001
1	 4.777298840151175e-001	 4.494691082279965e+000	 2.628973325661918e-001
1	 4.336550838514772e-001	 4.499157308192906e+000	 3.870098283911156e-001
1	 8.836414615753684e-001	 4.459978259764122e+000	-3.305271029599082e-001
1	 8.385692528354413e-001	 4.468672104519223e+000	-3.000468723565034e-001
1	 7.935522449324753e-001	 4.476885517837254e+000	-2.574297637728683e-001
1	 7.485973791096096e-001	 4.484621642263762e+000	-2.032201784255718e-001
1	 7.037114889549524e-001	 4.491883738711194e+000	-1.379671348062291e-001
1	 6.589012983463134e-001	 4.498675182800865e+000	-6.222344589589812e-002
1	 6.141734195251157e-001	 4.504999461180328e+000	 2.345508810787732e-002
1	 5.695343512988461e-001	 4.510860167820907e+000	 1.185104705286629e-001
1	 5.249904773711640e-001	 4.516261000300146e+000	 2.223832814585509e-001
1	 4.805480647986481e-001	 4.521205756073643e+000	 3.345134326288431e-001
1	 4.362132625730023e-001	 4.525698328740825e+000	 4.543409030855749e-001
1	 8.888235930552790e-001	 4.486133883672388e+000	-2.696508996279455e-001
1	 8.434870575246498e-001	 4.494878713639076e+000	-2.373247074327980e-001
1	 7.982060465572729e-001	 4.503140294669722e+000	-1.933789014639347e-001
1	 7.529875421033313e-001	 4.510921787739378e+000	-1.384233573782762e-001
1	 7.078384178266317e-001	 4.518226472884164e+000	-7.307276633107307e-002
1	 6.627654370372837e-001	 4.525057745521771e+000	 2.054304440520598e-003
1	 6.177752507543193e-001	 4.531419112747249e+000	 8.633633284191954e-002
1	 5.728743958975961e-001	 4.537314189608826e+000	 1.791497437837946e-001
1	 5.280692936081175e-001	 4.542746695368543e+000	 2.798697905920250e-001
1	 4.833662476957264e-001	 4.547720449752236e+000	 3.878714149531665e-001
1	 4.387714432129979e-001	 4.552239369193409e+000	 5.025300844626620e-001
1	 8.940057297174856e-001	 4.512289533734595e+000	-2.167201501629377e-001
1	 8.484048671318258e-001	 4.521085348963855e+000	-1.836423031340871e-001
1	 8.028598528360235e-001	 4.529395097755289e+000	-1.394950469067776e-001
1	 7.573777094873467e-001	 4.537221959513468e+000	-8.493733862377141e-002
1	 7.119653508253424e-001	 4.544569233398201e+000	-2.063348707061982e-002
1	 6.666295795924608e-001	 4.551440334623584e+000	 5.274788761066232e-002
1	 6.213770855853806e-001	 4.557838790732177e+000	 1.345348742866582e-001
1	 5.762144438363704e-001	 4.563768237849135e+000	 2.240532699607950e-001
1	 5.311481129238144e-001	 4.569232416921015e+000	 3.206275564369385e-001
1	 4.861844334108584e-001	 4.574235169943914e+000	 4.235818533784400e-001
1	 4.413296264109850e-001	 4.578780436185433e+000	 5.322408467107377e-001
1	 8.991878728573962e-001	 4.538445216489230e+000	-1.717255092759074e-001
1	 8.533226828862972e-001	 4.547292017044767e+000	-1.389169555280705e-001
1	 8.075136649320586e-001	 4.555649933657177e+000	-9.562361568488170e-002
1	 7.617678823590857e-001	 4.563522164160577e+000	-4.253737790238132e-002
1	 7.160922889827143e-001	 4.570912026838485e+000	 1.964364799071867e-002
1	 6.704937269777868e-001	 4.577822956701428e+000	 9.021625603131959e-002
1	 6.249789249186767e-001	 4.584258501739503e+000	 1.684732489513598e-001
1	 5.795544959501117e-001	 4.590222319154812e+000	 2.537045208385600e-001
1	 5.342269360879054e-001	 4.595718171578467e+000	 3.451981162629179e-001
1	 4.890026226485514e-001	 4.600749923276846e+000	 4.422412645981695e-001
1	 4.438878128064858e-001	 4.605321536351674e+000	 5.441213883621682e-001
1	 9.043700237704184e-001	 4.564600938474771e+000	-1.346578400514699e-001
1	 8.582405060173920e-001	 4.573498724433014e+000	-1.030678489701070e-001
1	 8.121674840087108e-001	 4.581904808938609e+000	-6.161355767166635e-002
1	 7.661580618159765e-001	 4.589822408255249e+000	-1.100387180029713e-002
1	 7.202192333303767e-001	 4.597254859790194e+000	 4.804488135567649e-002
1	 6.743578801592034e-001	 4.604205618350421e+000	 1.148101481757693e-001
1	 6.285807696545844e-001	 4.610678252373612e+000	 1.885643234565652e-001
1	 5.828945530737637e-001	 4.616676440138839e+000	 2.685759029954350e-001
1	 5.373057638700403e-001	 4.622203965961802e+000	 3.541106125047512e-001
1	 4.918208161133116e-001	 4.627264716379196e+000	 4.444325114519722e-001
1	 4.464460030390218e-001	 4.631862676326913e+000	 5.388050705207382e-001
1	 9.095521837519596e-001	 4.590756706229706e+000	-1.055082077900982e-001
1	 8.631583377544390e-001	 4.599705477679803e+000	-7.601600205349551e-002
1	 8.168213112293120e-001	 4.608159730162813e+000	-3.731725605379473e-002
1	 7.705482489554487e-001	 4.616122698372030e+000	 9.877789030759228e-003
1	 7.243461848999587e-001	 4.623597738838499e+000	 6.484994431910306e-002
1	 6.782220401026525e-001	 4.630588326165689e+000	 1.268723229714293e-001
1	 6.321826206934803e-001	 4.637098049238887e+000	 1.952115704423238e-001
1	 5.862346160422692e-001	 4.643130607414196e+000	 2.691290734987309e-001
1	 5.403845970398691e-001	 4.648689806691922e+000	 3.478821463595463e-001
1	 4.946390145096462e-001	 4.653779555879138e+000	 4.307251924156128e-001
1	 4.490041977481147e-001	 4.658403862745925e+000	 5.169108400916208e-001
1	 9.147343540974272e-001	 4.616912526292514e+000	-8.426787405995262e-002
1	 8.680761793267666e-001	 4.625912283336335e+000	-5.768421539901839e-002
1	 8.214751477571944e-001	 4.634414703893005e+000	-2.259042979061758e-002
1	 7.749384448749321e-001	 4.642423041085466e+000	 2.031736165908373e-002
1	 7.284731447230899e-001	 4.649940670568578e+000	 7.033224176302272e-002
1	 6.820862077740764e-001	 4.656971086742350e+000	 1.267377862211948e-001
1	 6.357844789357414e-001	 4.663517898939720e+000	 1.888093350875718e-001
1	 5.895746856905716e-001	 4.669584827593856e+000	 2.558152448516347e-001
1	 5.434634363670423e-001	 4.675175700389738e+000	 3.270181193513587e-001
1	 4.974572185420614e-001	 4.680294448404837e+000	 4.016760178370937e-001
1	 4.515623975732861e-001	 4.684945102243493e+000	 4.790436386093085e-001
1	 9.199165361022298e-001	 4.643068405201682e+000	-7.092829094999904e-002
1	 8.729940319637027e-001	 4.652119147953820e+000	-4.799702121115853e-002
1	 8.261289947556902e-001	 4.660669736692415e+000	-1.729203937412340e-002
1	 7.793286506718555e-001	 4.668723442970103e+000	 2.051988786092219e-002
1	 7.326001138313993e-001	 4.676283661565610e+000	 6.475903069877372e-002
1	 6.859503841394172e-001	 4.683353906675524e+000	 1.147340093633590e-001
1	 6.393863452817451e-001	 4.689937808080498e+000	 1.697430926112789e-001
1	 5.929147628536142e-001	 4.696039107290805e+000	 2.290754796216335e-001
1	 5.465422826212100e-001	 4.701661653676148e+000	 2.920125633383167e-001
1	 5.002754289150642e-001	 4.706809400584463e+000	 3.578291734420508e-001
1	 4.541206031540580e-001	 4.711486401454395e+000	 4.257947972320053e-001
1	 4.285387296057504e-001	 4.446075300271935e+000	 1.921889846505298e-001
1	 3.850890805500643e-001	 4.450049084339991e+000	 3.340893027181276e-001
1	 3.417570031782413e-001	 4.453586430291698e+000	 4.875832744230178e-001
1	 2.985482730329779e-001	 4.456691427433116e+000	 6.506854491409041e-001
1	 2.554685425323549e-001	 4.459368244970696e+000	 8.214635419438799e-001
1	 2.125233401846509e-001	 4.461621128336633e+000	 9.980398035297250e-001
1	 1.697180699191656e-001	 4.463454395533640e+000	 1.178592266095646e+000
1	 1.270580105308178e-001	 4.464872433502731e+000	 1.361355866911490e+000
1	 8.454831523620064e-002	 4.465879694517425e+000	 1.544623451548453e+000
1	 4.219401133867746e-002	 4.466480692607675e+000	 1.726746658908012e+000
1	 0.000000000000000e+000	 4.466680000016666e+000	 1.906136690371267e+000
1	 4.310969064089004e-001	 4.472616300914868e+000	 2.998576566863478e-001
1	 3.873878831668753e-001	 4.476613806624297e+000	 4.381546322168994e-001
1	 3.437971334569232e-001	 4.480172268884856e+000	 5.868743301432305e-001
1	 3.003304672990531e-001	 4.483295801413886e+000	 7.439220908397672e-001
1	 2.569935708536610e-001	 4.485988598306078e+000	 9.072464663634481e-001
1	 2.137920056316580e-001	 4.488254930336909e+000	 1.074841057721435e+000
1	 1.707312078212959e-001	 4.490099141285577e+000	 1.244746229584716e+000
1	 1.278164877294525e-001	 4.491525644281117e+000	 1.415050703296715e+000
1	 8.505302933503577e-002	 4.492538918175070e+000	 1.583893029257691e+000
1	 4.244588995207965e-002	 4.493143503944065e+000	 1.749462939985738e+000
1	 0.000000000000000e+000	 4.493344001125478e+000	 1.910002585363315e+000
1	 4.336550838514772e-001	 4.499157308192906e+000	 3.870098283911156e-001
1	 3.896866863581598e-001	 4.503178535549549e+000	 5.207389906011621e-001
1	 3.458372642453053e-001	 4.506758114124130e+000	 6.636997177020978e-001
1	 3.021126620102520e-001	 4.509900182045276e+000	 8.137335326048382e-001
1	 2.585185995557294e-001	 4.512608958295947e+000	 9.687169497009297e-001
1	 2.150606713952958e-001	 4.514888738994899e+000	 1.126563662035788e+000
1	 1.717443459761731e-001	 4.516743893697840e+000	 1.285226608250556e+000
1	 1.285749651172138e-001	 4.518178861721836e+000	 1.442699919420990e+000
1	 8.555774355965584e-002	 4.519198148496463e+000	 1.597020746175053e+000
1	 4.269776862821956e-002	 4.519806321945047e+000	 1.746270966714104e+000
1	 0.000000000000000e+000	 4.520008008899155e+000	 1.888578776594148e+000
1	 4.362132625730023e-001	 4.525698328740825e+000	 4.543409030855749e-001
1	 3.919854906986117e-001	 4.529743277756488e+000	 5.826115294048933e-001
1	 3.478773960534283e-001	 4.533343972655577e+000	 7.189420175958653e-001
1	 3.038948576121460e-001	 4.536504575978025e+000	 8.611545625968377e-001
1	 2.600436290198505e-001	 4.539229331595073e+000	 1.007099845558788e+000
1	 2.163293377927728e-001	 4.541522560968785e+000	 1.154659454679923e+000
1	 1.727574846371275e-001	 4.543388659431392e+000	 1.301748188943853e+000
1	 1.293334428837651e-001	 4.544832092488000e+000	 1.446316244352344e+000
1	 8.606245803627605e-002	 4.545857392146253e+000	 1.586351282510683e+000
1	 4.294964743008914e-002	 4.546469153276179e+000	 1.719880381680405e+000
1	 0.000000000000000e+000	 4.546672030003566e+000	 1.844971870661230e+000
1	 4.387714432129979e-001	 4.552239369193409e+000	 5.025300844626620e-001
1	 3.942842967629250e-001	 4.556308039885857e+000	 6.245234814104261e-001
1	 3.499175293913340e-001	 4.559929851125254e+000	 7.534632468335994e-001
1	 3.056770545503056e-001	 4.563108989862871e+000	 8.871958561145524e-001
1	 2.615686596273151e-001	 4.565849724858241e+000	 1.023591462073946e+000
1	 2.175980051412969e-001	 4.568156402916755e+000	 1.160546434383697e+000
1	 1.737706240574891e-001	 4.570033445147191e+000	 1.295985785821707e+000
1	 1.300919212187698e-001	 4.571485343242732e+000	 1.427865484604133e+000
1	 8.656717289111159e-002	 4.572516655789086e+000	 1.554174652302827e+000
1	 4.320152642068027e-002	 4.573132004603027e+000	 1.672937647117960e+000
1	 0.000000000000000e+000	 4.573336071104578e+000	 1.782216032528932e+000
1	 4.413296264109850e-001	 4.578780436185433e+000	 5.322408467107377e-001
1	 3.965831051257935e-001	 4.582872828578392e+000	 6.472086806194122e-001
1	 3.519576647690631e-001	 4.586515756179225e+000	 7.681054555762438e-001
1	 3.074592532703023e-001	 4.589713430350549e+000	 8.928446751125835e-001
1	 2.630936917594145e-001	 4.592470144740219e+000	 1.019360389902335e+000
1	 2.188666737580767e-001	 4.594790271496990e+000	 1.145609741804725e+000
1	 1.747837644905881e-001	 4.596678257506201e+000	 1.269575399481486e+000
1	 1.308504003118915e-001	 4.598138620649134e+000	 1.389267884649812e+000
1	 8.707188825037780e-002	 4.599175946089609e+000	 1.502727788300240e+000
1	 4.345340566298491e-002	 4.599794882591152e+000	 1.608027876468528e+000
1	 0.000000000000000e+000	 4.600000138868055e+000	 1.703275085400875e+000
1	 4.438878128064858e-001	 4.605321536351674e+000	 5.441213883621682e-001
1	 3.988819163619112e-001	 4.609437650474841e+000	 6.513840642235411e-001
1	 3.539978026966568e-001	 4.613101694463545e+000	 7.636913031212922e-001
1	 3.092414542177066e-001	 4.616317904091794e+000	 8.790655435032476e-001
1	 2.646187257974394e-001	 4.619090597895789e+000	 9.955483015404329e-001
1	 2.201353439603201e-001	 4.621424173367672e+000	 1.111202606959428e+000
1	 1.757969061897544e-001	 4.623323103169382e+000	 1.224115335968006e+000
1	 1.316088803527938e-001	 4.624791931370332e+000	 1.332399440339734e+000
1	 8.757660424028992e-002	 4.625835269712468e+000	 1.434196071979534e+000
1	 4.370528521999494e-002	 4.626457793906114e+000	 1.527676602540153e+000
1	 0.000000000000000e+000	 4.626664239959867e+000	 1.611044537899419e+000
1	 4.464460030390218e-001	 4.631862676326913e+000	 5.388050705207382e-001
1	 4.011807310459722e-001	 4.636002512215940e+000	 6.377501572977854e-001
1	 3.560379436841565e-001	 4.639687672624278e+000	 7.410246140625383e-001
1	 3.110236578380897e-001	 4.642922417737343e+000	 8.468008992151700e-001
1	 2.661437621226806e-001	 4.645711090979727e+000	 9.532707231347455e-001
1	 2.214040160652356e-001	 4.648058115186988e+000	 1.058647264044232e+000
1	 1.768100494083184e-001	 4.649967988797697e+000	 1.161167287265370e+000
1	 1.323673615311400e-001	 4.651445282069431e+000	 1.259093167111229e+000
1	 8.808132098706309e-002	 4.652494633322308e+000	 1.350714810900570e+000
1	 4.395716515470233e-002	 4.653120745213482e+000	 1.434351484806432e+000
1	 0.000000000000000e+000	 4.653328381045878e+000	 1.508353541471267e+000
1	 4.490041977481147e-001	 4.658403862745925e+000	 5.169108400916208e-001
1	 4.034795497526701e-001	 4.662567420442431e+000	 6.069915409059775e-001
1	 3.580780882416032e-001	 4.666273697307478e+000	 7.008909154163244e-001
1	 3.128058645770226e-001	 4.669526977937935e+000	 7.969717239364161e-001
1	 2.676688011164292e-001	 4.672331630646809e+000	 8.936177798776993e-001
1	 2.226726903900313e-001	 4.674692103613121e+000	 9.892358349488947e-001
1	 1.778231943996100e-001	 4.676612921052107e+000	 1.082257374811305e+000
1	 1.331258440365939e-001	 4.678098679409549e+000	 1.171140324796777e+000
1	 8.858603861691267e-002	 4.679154043583776e+000	 1.254370665502510e+000
1	 4.420904553009895e-002	 4.679783743178811e+000	 1.330463958277144e+000
1	 0.000000000000000e+000	 4.679992568791956e+000	 1.397966780805075e+000
1	 4.515623975732861e-001	 4.684945102243493e+000	 4.790436386093085e-001
1	 4.057783730566993e-001	 4.689132381795057e+000	 5.597773042772967e-001
1	 3.601182368790378e-001	 4.692859775159207e+000	 6.440579554700838e-001
1	 3.145880748800762e-001	 4.696131591344303e+000	 7.304781514282746e-001
1	 2.691938431599759e-001	 4.698952223551812e+000	 8.176549160386721e-001
1	 2.239413672519154e-001	 4.701326145304251e+000	 9.042311827049321e-001
1	 1.788363414169593e-001	 4.703257906593571e+000	 9.888771575018382e-001
1	 1.338843280588187e-001	 4.704752130053802e+000	 1.070291600753580e+000
1	 8.909075725605382e-002	 4.705813507161520e+000	 1.147203027347684e+000
1	 4.446092640917675e-002	 4.706446794467667e+000	 1.218370826259771e+000
1	 0.000000000000000e+000	 4.706656809863968e+000	 1.282586299920466e+000
1	 4.541206031540580e-001	 4.711486401454395e+000	 4.257947972320053e-001
1	 4.080772015327535e-001	 4.715697402914556e+000	 4.967614816824439e-001
1	 3.621583901065020e-001	 4.719445912825524e+000	 5.712762050744905e-001
1	 3.163702891928216e-001	 4.722736264607185e+000	 6.482000552554983e-001
1	 2.707188886346119e-001	 4.725572876349515e+000	 7.264235906311983e-001
1	 2.252100469680961e-001	 4.727960246918567e+000	 8.048677360559774e-001
1	 1.798494907136967e-001	 4.729902952083056e+000	 8.824846055883243e-001
1	 1.346428137874782e-001	 4.731405640665301e+000	 9.582582529595419e-001
1	 8.959547703070191e-002	 4.732473030720189e+000	 1.031205350730062e+000
1	 4.471280785492766e-002	 4.733109905745613e+000	 1.100375799226999e+000
1	 0.000000000000000e+000	 4.733321110927780e+000	 1.164853266467921e+000
1	 4.733321110927780e+000	 0.000000000000000e+000	-2.050018051871577e-001
1	 4.733109905745614e+000	 4.471280785492782e-002	-2.027471766846951e-001
1	 4.732473030720188e+000	 8.959547703070217e-002	-1.972940174581390e-001
1	 4.731405640665302e+000	 1.346428137874779e-001	-1.891268060453517e-001
1	 4.729902952083056e+000	 1.798494907136964e-001	-1.787275938596798e-001
1	 4.727960246918567e+000	 2.252100469680961e-001	-1.665752215677858e-001
1	 4.725572876349514e+000	 2.707188886346120e-001	-1.531445174998195e-001
1	 4.722736264607185e+000	 3.163702891928218e-001	-1.389054789721134e-001
1	 4.719445912825525e+000	 3.621583901065016e-001	-1.243224374725225e-001
1	 4.715697402914556e+000	 4.080772015327532e-001	-1.098532087287142e-001
1	 4.711486401454396e+000	 4.541206031540578e-001	-9.594822874999179e-002
1	 4.759989469820151e+000	 0.000000000000000e+000	-1.727824417845303e-001
1	 4.759777074671016e+000	 4.496472763253102e-002	-1.717180084028387e-001
1	 4.759136611380217e+000	 9.010027361466881e-002	-1.680401848561159e-001
1	 4.758063207462941e+000	 1.354014149440845e-001	-1.621292891346963e-001
1	 4.756552052470238e+000	 1.808627941936055e-001	-1.543638644835990e-001
1	 4.754598401764884e+000	 2.264789197545885e-001	-1.451200605512526e-001
1	 4.752197580332300e+000	 2.722441661938199e-001	-1.347710000405784e-001
1	 4.749344986623096e+000	 3.181527747266116e-001	-1.236861315487624e-001
1	 4.746036096423839e+000	 3.641988538086731e-001	-1.122305693377275e-001
1	 4.742266466752271e+000	 4.103763798492339e-001	-1.007644208332843e-001
1	 4.738031739773277e+000	 4.566791980477859e-001	-8.964210270694176e-002
1	 4.786657848721421e+000	 0.000000000000000e+000	-1.456195121686236e-001
1	 4.786444263604396e+000	 4.521664759929026e-002	-1.451518065890146e-001
1	 4.785800212045456e+000	 9.060507057761931e-002	-1.426092452568240e-001
1	 4.784720794261157e+000	 1.361600166701585e-001	-1.382808436670662e-001
1	 4.783201172851483e+000	 1.818760984341038e-001	-1.324544007397627e-001
1	 4.781236576596880e+000	 2.277477934934140e-001	-1.254160250567143e-001
1	 4.778822304290480e+000	 2.737694448977088e-001	-1.174496496902713e-001
1	 4.775953728602227e+000	 3.199352615980164e-001	-1.088365361405882e-001
1	 4.772626299971281e+000	 3.662393190419610e-001	-9.985476794092625e-002
1	 4.768835550523108e+000	 4.126755598908812e-001	-9.077873453392953e-002
1	 4.764577098007343e+000	 4.592377948612594e-001	-8.187860606522270e-002
1	 4.813326200962828e+000	 0.000000000000000e+000	-1.225577900229266e-001
1	 4.813111425879085e+000	 4.546856731450769e-002	-1.222410091163959e-001
1	 4.812463786055540e+000	 9.110986703643684e-002	-1.203364925740429e-001
1	 4.811378354410160e+000	 1.369186176384996e-001	-1.170546252587031e-001
1	 4.809850266591902e+000	 1.828894016623030e-001	-1.126050406567778e-001
1	 4.807874724798891e+000	 2.290166659644496e-001	-1.071962727078802e-001
1	 4.805447001632020e+000	 2.752947220774363e-001	-1.010353989390597e-001
1	 4.802562443980586e+000	 3.217177466880521e-001	-9.432767527408285e-002
1	 4.799216476936393e+000	 3.682797822358816e-001	-8.727616292032893e-002
1	 4.795404607732644e+000	 4.149747376344186e-001	-8.008134776827007e-002
1	 4.791122429703764e+000	 4.617963891171834e-001	-7.294075277092310e-002
1	 4.839994479875599e+000	 0.000000000000000e+000	-1.026631009898029e-001
1	 4.839778514828407e+000	 4.572048633748538e-002	-1.021958540922945e-001
1	 4.839127286750117e+000	 9.161466210800462e-002	-1.005718744306287e-001
1	 4.838035841260179e+000	 1.376772165219083e-001	-9.793540612272715e-002
1	 4.836499287056592e+000	 1.839027021053143e-001	-9.443031534588969e-002
1	 4.834512799755251e+000	 2.302855349475718e-001	-9.019984844746075e-002
1	 4.832071625764876e+000	 2.768199950641596e-001	-8.538638369889486e-002
1	 4.829171086194195e+000	 3.235002268777344e-001	-8.013117694126885e-002
1	 4.825806580787717e+000	 3.703202398199507e-001	-7.457410139310493e-002
1	 4.821973591886459e+000	 4.172739090565691e-001	-6.885338191431149e-002
1	 4.817667688409711e+000	 4.643549763382627e-001	-6.310532404320955e-002
1	 4.866662638790971e+000	 0.000000000000000e+000	-8.502174614299574e-002
1	 4.866445483785694e+000	 4.597240422752544e-002	-8.424389245638797e-002
1	 4.865790667468827e+000	 9.211945490920574e-002	-8.267959097909269e-002
1	 4.864693208161425e+000	 1.384358119931847e-001	-8.041925709665800e-002
1	 4.863148187610657e+000	 1.849159979902493e-001	-7.755321110867836e-002
1	 4.861150754850293e+000	 2.315543982226573e-001	-7.417152348780993e-002
1	 4.858696130097010e+000	 2.783452611890360e-001	-7.036385575036952e-002
1	 4.855779608679063e+000	 3.252826990480789e-001	-6.621929708764494e-002
1	 4.852396564993790e+000	 3.723606882236841e-001	-6.182619692207900e-002
1	 4.848542456490132e+000	 4.195730701340565e-001	-5.727199356769958e-002
1	 4.844212827672349e+000	 4.669135520472020e-001	-5.264303918952200e-002
1	 4.893330631040176e+000	 0.000000000000000e+000	-6.873994414072768e-002
1	 4.893112286084271e+000	 4.622432054392998e-002	-6.762951637174645e-002
1	 4.892453881551311e+000	 9.262424455692345e-002	-6.603770672128091e-002
1	 4.891350408464123e+000	 1.391944027251289e-001	-6.401323997298918e-002
1	 4.889796921619200e+000	 1.859292875442192e-001	-6.160493925307987e-002
1	 4.887788543468358e+000	 2.328232535695832e-001	-5.886163948003941e-002
1	 4.885320468036373e+000	 2.798705177832224e-001	-5.583209802664438e-002
1	 4.882387964871203e+000	 3.270651600801012e-001	-5.256490266772070e-002
1	 4.878986383023156e+000	 3.744011238765979e-001	-4.910837689598428e-002
1	 4.875111155049246e+000	 4.218722168436039e-001	-4.551048269734447e-002
1	 4.870757801038845e+000	 4.694721117667059e-001	-4.181872088620278e-002
1	 4.919998409954449e+000	 0.000000000000000e+000	-5.294329135707758e-002
1	 4.919778875057467e+000	 4.647623484600112e-002	-5.161350281492653e-002
1	 4.919116882337212e+000	 9.312903016804093e-002	-5.003777483841196e-002
1	 4.918007395518489e+000	 1.399529873905411e-001	-4.823510974546617e-002
1	 4.916445442447325e+000	 1.869425689943357e-001	-4.622471332793043e-002
1	 4.914426118993778e+000	 2.340920987682258e-001	-4.402595770542751e-002
1	 4.911944592990930e+000	 2.813957621778768e-001	-4.165834262777508e-002
1	 4.908996108206632e+000	 3.288476068548174e-001	-3.914145524682790e-002
1	 4.905575988344355e+000	 3.764415432082078e-001	-3.649492838292465e-002
1	 4.901679641069378e+000	 4.241713451619347e-001	-3.373839731558603e-002
1	 4.897302562056371e+000	 4.720306510194794e-001	-3.089145513263257e-002
1	 4.946665928865022e+000	 0.000000000000000e+000	-3.677623931932757e-002
1	 4.946445204038611e+000	 4.672814669304094e-002	-3.547257179676176e-002
1	 4.945779623166172e+000	 9.363381085944132e-002	-3.408447356367117e-002
1	 4.944664122674740e+000	 1.407115646622214e-001	-3.261302640026997e-002
1	 4.943093703460129e+000	 1.879558405677100e-001	-3.105953349862608e-002
1	 4.941063434810887e+000	 2.353609315984621e-001	-2.942551310130883e-002
1	 4.938568458368636e+000	 2.829209917041559e-001	-2.771269146335293e-002
1	 4.935603992121361e+000	 3.306300362532426e-001	-2.592299512877181e-002
1	 4.932165334425927e+000	 3.784819426480299e-001	-2.405854251414520e-002
1	 4.928247868056106e+000	 4.264704510657721e-001	-2.212163479323653e-002
1	 4.923847064272091e+000	 4.745891653282273e-001	-2.011474607806684e-002
1	 4.973333141103128e+000	 0.000000000000000e+000	-1.940158880756186e-002
1	 4.973111226361028e+000	 4.698005564435157e-002	-1.849895866962932e-002
1	 4.972442057377832e+000	 9.413858574800782e-002	-1.759525414941718e-002
1	 4.971320543283099e+000	 1.414701332129701e-001	-1.668527589708119e-002
1	 4.969741658022721e+000	 1.889691004914536e-001	-1.576397779828240e-002
1	 4.967700444304020e+000	 2.366297498401687e-001	-1.482647294163808e-002
1	 4.965192017577452e+000	 2.844462036932173e-001	-1.386803942570064e-002
1	 4.962211570051403e+000	 3.324124451563927e-001	-1.288412598977700e-002
1	 4.958754374736414e+000	 3.805223186255800e-001	-1.187035745279006e-002
1	 4.954815789515014e+000	 4.287695305318400e-001	-1.082253994431584e-002
1	 4.950391261233177e+000	 4.771476502156544e-001	-9.736665911897407e-003
1	 5.000000000000000e+000	 0.000000000000000e+000	 0.000000000000000e+000
1	 4.999776895358052e+000	 4.723196125923512e-002	 0.000000000000000e+000
1	 4.999104138311836e+000	 9.464335395062359e-002	 0.000000000000000e+000
1	 4.997976610693785e+000	 1.422286917155873e-001	 0.000000000000000e+000
1	 4.996389259500201e+000	 1.899823469926779e-001	 0.000000000000000e+000
1	 4.994337100857515e+000	 2.378985512732224e-001	 0.000000000000000e+000
1	 4.991815224025335e+000	 2.859713954762181e-001	 0.000000000000000e+000
1	 4.988818795432773e+000	 3.341948304452838e-001	 0.000000000000000e+000
1	 4.985343062744358e+000	 3.825626675703741e-001	 0.000000000000000e+000
1	 4.981383358951679e+000	 4.310685795368612e-001	 0.000000000000000e+000
1	 4.976935106486797e+000	 4.797061012044654e-001	 0.000000000000000e+000
1	 4.711486401454396e+000	 4.541206031540578e-001	-9.594822874999179e-002
1	 4.706809400584461e+000	 5.002754289150643e-001	-8.237927369214576e-002
1	 4.701661653676148e+000	 5.465422826212096e-001	-6.878673221197919e-002
1	 4.696039107290806e+000	 5.929147628536142e-001	-5.542600365348662e-002
1	 4.689937808080498e+000	 6.393863452817449e-001	-4.255496663321669e-002
1	 4.683353906675524e+000	 6.859503841394172e-001	-3.043366674165932e-002
1	 4.676283661565610e+000	 7.326001138313998e-001	-1.932399266904439e-002
1	 4.668723442970103e+000	 7.793286506718558e-001	-9.489341030085573e-003
1	 4.660669736692414e+000	 8.261289947556906e-001	-1.194270196898456e-003
1	 4.652119147953820e+000	 8.729940319637025e-001	 5.295856515536873e-003
1	 4.643068405201682e+000	 9.199165361022299e-001	 9.715237931681635e-003
1	 4.738031739773277e+000	 4.566791980477859e-001	-8.964210270694176e-002
1	 4.733328387862385e+000	 5.030940681690770e-001	-7.865301607472150e-002
1	 4.728151637647651e+000	 5.496215974204831e-001	-6.749328437368075e-002
1	 4.722497412852645e+000	 5.962553483164128e-001	-5.638140813141795e-002
1	 4.716361737855573e+000	 6.429887597671158e-001	-4.554080980826132e-002
1	 4.709740741598712e+000	 6.898151485630015e-001	-3.519962676591476e-002
1	 4.702630661491456e+000	 7.367277109902937e-001	-2.559049117428510e-002
1	 4.695027847302340e+000	 7.837195245792673e-001	-1.695029688809167e-002
1	 4.686928765035166e+000	 8.307835499861415e-001	-9.519953355888419e-003
1	 4.678330000784434e+000	 8.779126330095242e-001	-3.544126656095884e-003
1	 4.669228264565003e+000	 9.250995067421184e-001	 7.290322125391604e-004
1	 4.764577098007343e+000	 4.592377948612594e-001	-8.187860606522270e-002
1	 4.759847395035628e+000	 5.059127095378930e-001	-7.296682182001028e-002
1	 4.754641641492657e+000	 5.527009145300991e-001	-6.379481444603134e-002
1	 4.748955738264196e+000	 5.995959362855475e-001	-5.454681143488560e-002
1	 4.742785687454573e+000	 6.465911769552420e-001	-4.541378903844685e-002
1	 4.736127596318020e+000	 6.936799158861571e-001	-3.659335361683773e-002
1	 4.728977681183593e+000	 7.408553112459421e-001	-2.828960903839177e-002
1	 4.721332271368975e+000	 7.881104017809547e-001	-2.071300996918057e-002
1	 4.713187813078357e+000	 8.354381087086968e-001	-1.408020091707979e-002
1	 4.704540873279440e+000	 8.828312377455565e-001	-8.613840924099735e-003
1	 4.695388143554560e+000	 9.302824812705676e-001	-4.542413830768205e-003
1	 4.791122429703764e+000	 4.617963891171834e-001	-7.294075277092310e-002
1	 4.786366375697530e+000	 5.087313480891076e-001	-6.569360966506861e-002
1	 4.781131618855300e+000	 5.557802285614466e-001	-5.814468873665257e-002
1	 4.775414037225055e+000	 6.029365209151659e-001	-5.044653061603746e-002
1	 4.769209610637268e+000	 6.501935905420583e-001	-4.275964268200725e-002
1	 4.762514424658146e+000	 6.975446793456980e-001	-3.525245207095282e-002
1	 4.755324674536412e+000	 7.449829073751971e-001	-2.810124444699171e-002
1	 4.747636669138935e+000	 7.925012745930328e-001	-2.149008822508718e-002
1	 4.739446834870297e+000	 8.400926627780260e-001	-1.561074396303811e-002
1	 4.730751719571419e+000	 8.877498375643830e-001	-1.066255866367947e-002
1	 4.721547996392131e+000	 9.354654506175090e-001	-6.852344755688063e-003
1	 4.817667688409711e+000	 4.643549763382627e-001	-6.310532404320955e-002
1	 4.812885283441428e+000	 5.115499788903157e-001	-5.719808397613899e-002
1	 4.807621523379715e+000	 5.588595341259147e-001	-5.098628617497950e-002
1	 4.801872263434824e+000	 6.062770963594154e-001	-4.459333186946328e-002
1	 4.795633461163435e+000	 6.537959942234990e-001	-3.815120501959646e-002
1	 4.788901180443781e+000	 7.014094321784387e-001	-3.180048043384556e-002
1	 4.781671595444322e+000	 7.491104921549108e-001	-2.569031794756394e-002
1	 4.773940994581147e+000	 7.968921353316147e-001	-1.997844225633600e-002
1	 4.765705784459295e+000	 8.447472040487973e-001	-1.483110801918553e-002
1	 4.756962493792951e+000	 8.926684238585888e-001	-1.042304986865981e-002
1	 4.747707777299494e+000	 9.406484057128738e-001	-6.937416988676219e-003
1	 4.844212827672349e+000	 4.669135520472020e-001	-5.264303918952201e-002
1	 4.839404071860662e+000	 5.143685970091132e-001	-4.783695982679131e-002
1	 4.834111308710036e+000	 5.619388258348922e-001	-4.275327194398867e-002
1	 4.828330370593108e+000	 6.096176567724444e-001	-3.748874698438182e-002
1	 4.822057192792849e+000	 6.573983816954989e-001	-3.214875977425091e-002
1	 4.815287817499625e+000	 7.052741676211931e-001	-2.684733535996845e-002
1	 4.808018397801715e+000	 7.532380583619343e-001	-2.170718279032857e-002
1	 4.800245201664535e+000	 8.012829763128148e-001	-1.685971538915111e-002
1	 4.791964615893655e+000	 8.494017243756789e-001	-1.244505707995646e-002
1	 4.783173150076617e+000	 8.975869880207577e-001	-8.612034343110251e-003
1	 4.773867440498422e+000	 9.458313374865937e-001	-5.518153406281505e-003
1	 4.870757801038845e+000	 4.694721117667059e-001	-4.181872088620278e-002
1	 4.865922694548569e+000	 5.171871975130948e-001	-3.795918078325901e-002
1	 4.860600928490404e+000	 5.650180982997678e-001	-3.386986224590157e-002
1	 4.854788312399505e+000	 6.129581963083999e-001	-2.962337954335610e-002
1	 4.848480759285287e+000	 6.610007466539924e-001	-2.530038217682655e-002
1	 4.841674289650374e+000	 7.091388789107757e-001	-2.098962420376684e-002
1	 4.834365035503001e+000	 7.573655987731198e-001	-1.678802197355968e-002
1	 4.826549244358028e+000	 8.056737898527467e-001	-1.280069981733542e-002
1	 4.818223283221691e+000	 8.540562156133400e-001	-9.141023247982938e-003
1	 4.809383642555000e+000	 9.025055214434747e-001	-5.930619241467395e-003
1	 4.800026940210696e+000	 9.510142368686005e-001	-3.299383187356696e-003
1	 4.897302562056371e+000	 4.720306510194794e-001	-3.089145513263257e-002
1	 4.892441105098484e+000	 5.200057754698558e-001	-2.790612967117201e-002
1	 4.887090336364951e+000	 5.680973461319306e-001	-2.475108053520208e-002
1	 4.881246042553618e+000	 6.162987091214294e-001	-2.147720125302510e-002
1	 4.874904114400523e+000	 6.646030827949143e-001	-1.814227000755943e-002
1	 4.868060550720721e+000	 7.130035592839998e-001	-1.481102537090624e-002
1	 4.860711462442573e+000	 7.614931061653185e-001	-1.155523249317990e-002
1	 4.852853076630552e+000	 8.100645682675247e-001	-8.453739333028483e-003
1	 4.844481740491708e+000	 8.587106696164488e-001	-5.592522527210559e-003
1	 4.835593925360677e+000	 9.074240155193241e-001	-3.064722508005027e-003
1	 4.826186230658091e+000	 9.561970947888256e-001	-9.706674901565307e-004
1	 4.923847064272091e+000	 4.745891653282273e-001	-2.011474607806684e-002
1	 4.918959257103752e+000	 5.228243259469916e-001	-1.801183258614298e-002
1	 4.913579485977811e+000	 5.711765639427692e-001	-1.580300553805286e-002
1	 4.907703514755047e+000	 6.196391893656807e-001	-1.351983877587785e-002
1	 4.901327211898328e+000	 6.682053838141988e-001	-1.119906402599656e-002
1	 4.894446554535365e+000	 7.168682019776804e-001	-8.882637118347168e-003
1	 4.887057632514837e+000	 7.656205733153826e-001	-6.617797275149532e-003
1	 4.879156652451032e+000	 8.144553038732628e-001	-4.457119147862986e-003
1	 4.870739941752015e+000	 8.633650782396735e-001	-2.458557287730441e-003
1	 4.861803952626233e+000	 9.123424616408908e-001	-6.854827429583978e-004
1	 4.852345266062381e+000	 9.613799021772007e-001	 7.932885155852114e-004
1	 4.950391261233177e+000	 4.771476502156544e-001	-9.736665911897407e-003
1	 4.945477104157705e+000	 5.256428440120975e-001	-8.603156399520943e-003
1	 4.940068330973120e+000	 5.742557463436725e-001	-7.423011363632216e-003
1	 4.934160682703396e+000	 6.229796311953015e-001	-6.210851416401358e-003
1	 4.927750005538484e+000	 6.718076434077811e-001	-4.984158184020831e-003
1	 4.920832254918999e+000	 7.207328002286313e-001	-3.763315232932832e-003
1	 4.913403499614191e+000	 7.697479930001636e-001	-2.571645248813234e-003
1	 4.905459925788396e+000	 8.188459889860744e-001	-1.435443284722675e-003
1	 4.896997841050921e+000	 8.680194333376835e-001	-3.840058981044246e-004
1	 4.888013678484247e+000	 9.172608512007584e-001	 5.503439998018253e-004
1	 4.878504000645348e+000	 9.665626499636572e-001	 1.332236754035842e-003
1	 4.976935106486797e+000	 4.797061012044654e-001	 0.000000000000000e+000
1	 4.971994599853684e+000	 5.284613247327683e-001	 0.000000000000000e+000
1	 4.966556824995020e+000	 5.773348879460297e-001	 0.000000000000000e+000
1	 4.960617500098262e+000	 6.263200287644395e-001	 0.000000000000000e+000
1	 4.954172449080763e+000	 6.754098552715953e-001	 0.000000000000000e+000
1	 4.947217605696318e+000	 7.245973472736667e-001	 0.000000000000000e+000
1	 4.939749017635035e+000	 7.738753579965135e-001	 0.000000000000000e+000
1	 4.931762850611571e+000	 8.232366159220740e-001	 0.000000000000000e+000
1	 4.923255392436735e+000	 8.726737267651470e-001	 0.000000000000000e+000
1	 4.914223057067300e+000	 9.221791755915121e-001	 0.000000000000000e+000
1	 4.904662388628768e+000	 9.717453290781268e-001	 0.000000000000000e+000
1	 4.643068405201682e+000	 9.199165361022299e-001	 9.715237931681631e-003
1	 4.633512893397807e+000	 9.668962193495462e-001	 1.145923624545538e-002
1	 4.623450920909602e+000	 1.013918590844765e+000	 1.021345991881692e-002
1	 4.612879611221273e+000	 1.060976087736484e+000	 6.160697113140797e-003
1	 4.601796226075082e+000	 1.108061044715826e+000	-5.004670838532083e-004
1	 4.590198169078671e+000	 1.155165696837305e+000	-9.555659729802298e-003
1	 4.578082989255348e+000	 1.202282182474619e+000	-2.077475581168974e-002
1	 4.565448384531957e+000	 1.249402546410591e+000	-3.391194134321823e-002
1	 4.552292205158868e+000	 1.296518743060276e+000	-4.870580432794743e-002
1	 4.538612457056609e+000	 1.343622639825983e+000	-6.487945408885654e-002
1	 4.524407305083716e+000	 1.390706020582740e+000	-8.214066941023467e-002
1	 4.669228264565003e+000	 9.250995067421184e-001	 7.290322125391650e-004
1	 4.659618915336746e+000	 9.723438817405616e-001	 2.771389329388041e-003
1	 4.649500251936108e+000	 1.019631185499926e+000	 2.321740024786140e-003
1	 4.638869381640498e+000	 1.066953812558382e+000	-4.598417819803246e-004
1	 4.627723550764356e+000	 1.114304054419368e+000	-5.401615884412296e-003
1	 4.616060148286781e+000	 1.161674102388337e+000	-1.232023169328994e-002
1	 4.603876709421853e+000	 1.209056050545213e+000	-2.102080496619805e-002
1	 4.591170919126121e+000	 1.256441898851737e+000	-3.129701573139520e-002
1	 4.577940615537888e+000	 1.303823556392735e+000	-4.293122773477706e-002
1	 4.564183793342687e+000	 1.351192844750042e+000	-5.569462969594688e-002
1	 4.549898607059532e+000	 1.398541501507601e+000	-6.934739861457924e-002
1	 4.695388143554560e+000	 9.302824812705676e-001	-4.542413830768198e-003
1	 4.685724956861634e+000	 9.777915482187314e-001	-2.318795888900925e-003
1	 4.675549602506141e+000	 1.025343784441016e+000	-2.153575178191821e-003
1	 4.664859171558672e+000	 1.072931541865137e+000	-3.908430530226129e-003
1	 4.653650894905826e+000	 1.120547068806811e+000	-7.436921577562441e-003
1	 4.641922146898159e+000	 1.168182512822401e+000	-1.258458058633329e-002
1	 4.629670448940495e+000	 1.215829923698024e+000	-1.918901995694481e-002
1	 4.616893473019093e+000	 1.263481256574304e+000	-2.708005556939598e-002
1	 4.603589045160168e+000	 1.311128375205806e+000	-3.607984611656089e-002
1	 4.589755148814240e+000	 1.358763055353852e+000	-4.600304853419659e-002
1	 4.575389928160807e+000	 1.406376988311272e+000	-5.665698960050026e-002
1	 4.721547996392131e+000	 9.354654506175090e-001	-6.852344755688061e-003
1	 4.711830972288418e+000	 9.832392092507670e-001	-4.559870149775733e-003
1	 4.701598927034792e+000	 1.031056377671105e+000	-3.948557990133964e-003
1	 4.690848935495056e+000	 1.078909265195828e+000	-4.900868966421144e-003
1	 4.679578213127978e+000	 1.126790076952974e+000	-7.294114611384119e-003
1	 4.667784119655580e+000	 1.174690916749863e+000	-1.100057427230874e-002
1	 4.655464162673451e+000	 1.222603790078849e+000	-1.588762331784646e-002
1	 4.642616001197560e+000	 1.270520607259488e+000	-2.181787260260678e-002
1	 4.629237449142049e+000	 1.318433186716127e+000	-2.864931918538446e-002
1	 4.615326478722450e+000	 1.366333258389628e+000	-3.623550826958212e-002
1	 4.600881223778736e+000	 1.414212467281752e+000	-4.442570630635622e-002
1	 4.747707777299494e+000	 9.406484057128738e-001	-6.937416988676222e-003
1	 4.737936915933036e+000	 9.886868553033804e-001	-4.683901454333557e-003
1	 4.727648179937163e+000	 1.036768955193263e+000	-3.783075070445111e-003
1	 4.716838627968923e+000	 1.084886972089533e+000	-4.137200292503253e-003
1	 4.705505460059300e+000	 1.133033067932675e+000	-5.645789771356401e-003
1	 4.693646021301823e+000	 1.181199302781087e+000	-8.205737787014488e-003
1	 4.681257805482885e+000	 1.229377637833485e+000	-1.171145920336105e-002
1	 4.668338458648202e+000	 1.277559938588484e+000	-1.605503585036401e-002
1	 4.654885782599884e+000	 1.325737978140340e+000	-2.112637021978654e-002
1	 4.640897738318490e+000	 1.373903440609585e+000	-2.681334633951392e-002
1	 4.626372449304512e+000	 1.422047924707039e+000	-3.300199767050163e-002
1	 4.773867440498422e+000	 9.458313374865937e-001	-5.518153406281505e-003
1	 4.764042742111434e+000	 9.941344768432839e-001	-3.406926804969377e-003
1	 4.753697315628352e+000	 1.042481507010558e+000	-2.361231640774615e-003
1	 4.742828203499542e+000	 1.090864652085331e+000	-2.302143039722917e-003
1	 4.731432590328278e+000	 1.139276030820732e+000	-3.149821197089825e-003
1	 4.719507806579668e+000	 1.187707659526438e+000	-4.823646707262275e-003
1	 4.707051332230972e+000	 1.236151455107730e+000	-7.242360412453500e-003
1	 4.694060800357711e+000	 1.284599238242489e+000	-1.032420759909435e-002
1	 4.680534000650018e+000	 1.333042736695088e+000	-1.398708635534083e-002
1	 4.666468882853537e+000	 1.381473588765937e+000	-1.814869988782533e-002
1	 4.651863560129326e+000	 1.429883346875132e+000	-2.272671258060503e-002
1	 4.800026940210696e+000	 9.510142368686005e-001	-3.299383187356696e-003
1	 4.790148405139556e+000	 9.995820643371889e-001	-1.429389309159364e-003
1	 4.779746288523451e+000	 1.048194023126059e+000	-3.718012953891340e-004
1	 4.768817616606178e+000	 1.096842294722300e+000	-6.550903503663336e-005
1	 4.757359558563400e+000	 1.145518954691962e+000	-4.497639523857223e-004
1	 4.745369430231897e+000	 1.194215975596279e+000	-1.464307774307892e-003
1	 4.732844697779878e+000	 1.242925230047382e+000	-3.049503521079019e-003
1	 4.719782981312769e+000	 1.291638493902698e+000	-5.146468509496855e-003
1	 4.706182058408797e+000	 1.340347449597011e+000	-7.697209146182715e-003
1	 4.692039867578769e+000	 1.389043689610899e+000	-1.064475727836958e-002
1	 4.677354511644375e+000	 1.437718720074028e+000	-1.393330785926220e-002
1	 4.826186230658091e+000	 9.561970947888256e-001	-9.706674901565307e-004
1	 4.816253859333342e+000	 1.005029608251808e+000	 5.634388032360697e-004
1	 4.805795053037557e+000	 1.053906493542835e+000	 1.511358039825603e-003
1	 4.794806821808104e+000	 1.102819889539520e+000	 1.917392102097399e-003
1	 4.783286319393154e+000	 1.151761828621185e+000	 1.824757345818050e-003
1	 4.771230847001283e+000	 1.200724239600977e+000	 1.275472748701031e-003
1	 4.758637856991777e+000	 1.249698950798238e+000	 3.102474297234562e-004
1	 4.745504956500062e+000	 1.298677693250309e+000	-1.031632247064933e-003
1	 4.731829910992569e+000	 1.347652104062751e+000	-2.712415763283493e-003
1	 4.717610647745362e+000	 1.396613729896686e+000	-4.696001503867407e-003
1	 4.702845259240852e+000	 1.445554030591728e+000	-6.948049547745449e-003
1	 4.852345266062381e+000	 9.613799021772007e-001	 7.932885155852114e-004
1	 4.842359059008737e+000	 1.010477099053851e+000	 1.901046722369270e-003
1	 4.831843563585774e+000	 1.059618908263955e+000	 2.628901481739882e-003
1	 4.820795773624588e+000	 1.108797426076069e+000	 3.005361428805523e-003
1	 4.809212827446027e+000	 1.158004641683217e+000	 3.057672355656833e-003
1	 4.797092011630610e+000	 1.207232440150896e+000	 2.811732526538591e-003
1	 4.784430764728838e+000	 1.256472605506095e+000	 2.292008262128580e-003
1	 4.771226680906277e+000	 1.305716823966516e+000	 1.521449972246382e-003
1	 4.757477513517682e+000	 1.354956687308949e+000	 5.214088203577922e-004
1	 4.743181178604490e+000	 1.404183696375512e+000	-6.884457931254911e-004
1	 4.728335758309949e+000	 1.453389264716227e+000	-2.090207738554611e-003
1	 4.878504000645348e+000	 9.665626499636572e-001	 1.332236754035842e-003
1	 4.868463958481681e+000	 1.015924527210032e+000	 1.927288656110784e-003
1	 4.857891774583191e+000	 1.065331257292488e+000	 2.335607401758514e-003
1	 4.846784426574896e+000	 1.114774893871026e+000	 2.570931631459770e-003
1	 4.835139037350504e+000	 1.164247382952877e+000	 2.646100832318729e-003
1	 4.822952878862654e+000	 1.213740565856399e+000	 2.573007969765707e-003
1	 4.810223375853233e+000	 1.263246182316751e+000	 2.362552596418970e-003
1	 4.796948109518097e+000	 1.312755873732517e+000	 2.024594546055263e-003
1	 4.783124821100483e+000	 1.362261186552246e+000	 1.567908322312429e-003
1	 4.768751415407335e+000	 1.411753575799593e+000	 1.000138293152936e-003
1	 4.753825964242860e+000	 1.461224408735526e+000	 3.277548032394173e-004
1	 4.904662388628768e+000	 9.717453290781268e-001	 0.000000000000000e+000
1	 4.894568512068120e+000	 1.021371883187062e+000	 0.000000000000000e+000
1	 4.883939640444909e+000	 1.071043530631502e+000	 0.000000000000000e+000
1	 4.872772735178299e+000	 1.120752282463470e+000	 0.000000000000000e+000
1	 4.861064903735073e+000	 1.170490041504983e+000	 0.000000000000000e+000
1	 4.848813403440197e+000	 1.220248605327853e+000	 0.000000000000000e+000
1	 4.836015645227128e+000	 1.270019669376003e+000	 0.000000000000000e+000
1	 4.822669197322209e+000	 1.319794830229507e+000	 0.000000000000000e+000
1	 4.808771788857317e+000	 1.369565589009283e+000	 0.000000000000000e+000
1	 4.794321313405072e+000	 1.419323354921142e+000	 0.000000000000000e+000
1	 4.779315832430783e+000	 1.469059448937622e+000	 0.000000000000000e+000
1	 4.524407305083716e+000	 1.390706020582740e+000	-8.214066941023467e-002
1	 4.509675075088746e+000	 1.437760588603412e+000	-1.005255582318085e-001
1	 4.494414253604441e+000	 1.484777968164294e+000	-1.201594213295143e-001
1	 4.478623494235841e+000	 1.531749710358706e+000	-1.408654057398165e-001
1	 4.462301621696776e+000	 1.578667297757051e+000	-1.624573732356369e-001
1	 4.445447634610877e+000	 1.625522148514563e+000	-1.847400193598864e-001
1	 4.428060708201621e+000	 1.672305620595791e+000	-2.075090101960298e-001
1	 4.410140196866269e+000	 1.719009016112672e+000	-2.305511369803501e-001
1	 4.391685636628613e+000	 1.765623585772688e+000	-2.536444886197475e-001
1	 4.372696747465477e+000	 1.812140533433459e+000	-2.765586421367635e-001
1	 4.353173435502172e+000	 1.858551020759794e+000	-2.990548710203640e-001
1	 4.549898607059532e+000	 1.398541501507601e+000	-6.934739861457924e-002
1	 4.535083373104526e+000	 1.445861183193071e+000	-8.399061579453655e-002
1	 4.519736569483269e+000	 1.493143466892460e+000	-9.979899498664346e-002
1	 4.503856842214986e+000	 1.540379856096477e+000	-1.166277503299510e-001
1	 4.487443009391756e+000	 1.587561785386847e+000	-1.343224586980685e-001
1	 4.470494063995282e+000	 1.634680624567193e+000	-1.527191307153879e-001
1	 4.453009176602114e+000	 1.681727682911336e+000	-1.716442994163328e-001
1	 4.434987697972090e+000	 1.728694213525793e+000	-1.909151267450308e-001
1	 4.416429161514877e+000	 1.775571417823013e+000	-2.103395280538538e-001
1	 4.397333285629620e+000	 1.822350450101617e+000	-2.297163147189459e-001
1	 4.377699975912726e+000	 1.869022422229697e+000	-2.488353549491766e-001
1	 4.575389928160807e+000	 1.406376988311272e+000	-5.665698960050026e-002
1	 4.560491690183496e+000	 1.453961783860481e+000	-6.817726213267987e-002
1	 4.545058904360769e+000	 1.501508971897163e+000	-8.075902499212598e-002
1	 4.529090209126037e+000	 1.549010008309379e+000	-9.428628510505825e-002
1	 4.512584415949610e+000	 1.596456279690133e+000	-1.086333532792858e-001
1	 4.495540512171280e+000	 1.643839107491402e+000	-1.236648754199607e-001
1	 4.477957663720667e+000	 1.691149752296235e+000	-1.392358809128566e-001
1	 4.459835217720181e+000	 1.738379418205699e+000	-1.551918484418211e-001
1	 4.441172704965378e+000	 1.785519257337162e+000	-1.713687894706113e-001
1	 4.421969842277712e+000	 1.832560374430207e+000	-1.875933495812772e-001
1	 4.402226534724702e+000	 1.879493831556170e+000	-2.036829278216756e-001
1	 4.600881223778736e+000	 1.414212467281752e+000	-4.442570630635622e-002
1	 4.585899981862074e+000	 1.462062376429718e+000	-5.336548508122981e-002
1	 4.570381213923802e+000	 1.509874468538930e+000	-6.324740290097411e-002
1	 4.554323550811519e+000	 1.557640151894844e+000	-7.398101573808294e-002
1	 4.537725797373788e+000	 1.605350765101788e+000	-8.546641439201991e-002
1	 4.520586935308484e+000	 1.652997581260137e+000	-9.759422404661763e-002
1	 4.502906125898312e+000	 1.700571812262213e+000	-1.102456201411681e-001
1	 4.484682712628256e+000	 1.748064613203672e+000	-1.232923608679454e-001
1	 4.465916223679772e+000	 1.795467086906851e+000	-1.365968365753638e-001
1	 4.446606374296626e+000	 1.842770288552342e+000	-1.500121363207805e-001
1	 4.426753069017446e+000	 1.889965230414766e+000	-1.633821317802092e-001
1	 4.626372449304512e+000	 1.422047924707039e+000	-3.300199767050163e-002
1	 4.611308203676677e+000	 1.470162946724857e+000	-3.982914099796034e-002
1	 4.595703453859223e+000	 1.518239942178288e+000	-4.746748004767726e-002
1	 4.579556823113963e+000	 1.566270271750308e+000	-5.584890597054882e-002
1	 4.562867109667729e+000	 1.614245226056694e+000	-6.489636221449235e-002
1	 4.545633289576500e+000	 1.662156029846346e+000	-7.452382049256895e-002
1	 4.527854519476074e+000	 1.709993846320988e+000	-8.463627183580715e-002
1	 4.509530139214028e+000	 1.757749781570994e+000	-9.512973306653168e-002
1	 4.490659674357717e+000	 1.805414889123798e+000	-1.058912689978288e-001
1	 4.471242838573231e+000	 1.852980174601130e+000	-1.167990306330213e-001
1	 4.451279535870309e+000	 1.900436600481029e+000	-1.277223096056532e-001
1	 4.651863560129326e+000	 1.429883346875132e+000	-2.272671258060503e-002
1	 4.636716311163720e+000	 1.478263480569973e+000	-2.783612367643900e-002
1	 4.621025579853891e+000	 1.526605378175764e+000	-3.361819294747850e-002
1	 4.604789981875902e+000	 1.574900352773203e+000	-4.002396204503769e-002
1	 4.588008308834882e+000	 1.623139646989730e+000	-4.699632571335093e-002
1	 4.570679531144937e+000	 1.671314437222977e+000	-5.446999216614337e-002
1	 4.552802800794987e+000	 1.719415837984281e+000	-6.237145694685453e-002
1	 4.534377453995210e+000	 1.767434906358946e+000	-7.061899060848730e-002
1	 4.515403013698872e+000	 1.815362646579719e+000	-7.912264052278838e-002
1	 4.495879191994396e+000	 1.863190014709682e+000	-8.778424710063500e-002
1	 4.475805892362633e+000	 1.910907923430507e+000	-9.649747467616598e-002
1	 4.677354511644375e+000	 1.437718720074028e+000	-1.393330785926220e-002
1	 4.662124259859619e+000	 1.486363963789141e+000	-1.764852778706088e-002
1	 4.646347547594663e+000	 1.534970761891882e+000	-2.189418463560473e-002
1	 4.630022982939863e+000	 1.583530379860966e+000	-2.663731440314322e-002
1	 4.613149350878688e+000	 1.632034012335777e+000	-3.183788717666870e-002
1	 4.595725616183406e+000	 1.680472787362977e+000	-3.744875984496474e-002
1	 4.577750926196078e+000	 1.728837770763812e+000	-4.341564032517426e-002
1	 4.559224613489509e+000	 1.777119970618810e+000	-4.967706361637100e-002
1	 4.540146198402895e+000	 1.825310341866332e+000	-5.616437997167869e-002
1	 4.520515391446991e+000	 1.873399791011110e+000	-6.280175545715545e-002
1	 4.500332095573771e+000	 1.921379180938751e+000	-6.950618514095555e-002
1	 4.702845259240852e+000	 1.445554030591728e+000	-6.948049547745449e-003
1	 4.687532005300790e+000	 1.494464382206437e+000	-9.522807051871645e-003
1	 4.671669312768399e+000	 1.543336078687172e+000	-1.248592209719835e-002
1	 4.655255782148381e+000	 1.592160337911028e+000	-1.581729675173595e-002
1	 4.638290191802595e+000	 1.640928306529714e+000	-1.949112531307210e-002
1	 4.620771500861515e+000	 1.689631064239296e+000	-2.347584721780542e-002
1	 4.602698852020377e+000	 1.738259628171301e+000	-2.773410912823685e-002
1	 4.584071574214639e+000	 1.786804957401869e+000	-3.222273646478651e-002
1	 4.564889185169442e+000	 1.835257957575353e+000	-3.689271463547985e-002
1	 4.545151393817889e+000	 1.883609485638523e+000	-4.168918019553831e-002
1	 4.524858102583068e+000	 1.931850354681308e+000	-4.655142215067818e-002
1	 4.728335758309949e+000	 1.453389264716227e+000	-2.090207738554611e-003
1	 4.712939503023649e+000	 1.502564721645936e+000	-3.709927350149655e-003
1	 4.696990831061950e+000	 1.551701313922157e+000	-5.579809934188574e-003
1	 4.680488335343984e+000	 1.600790211820825e+000	-7.689522596014895e-003
1	 4.663430787610049e+000	 1.649822514006423e+000	-1.002465697065273e-002
1	 4.645817141348873e+000	 1.698789251824879e+000	-1.256669012197862e-002
1	 4.627646534608913e+000	 1.747681393718468e+000	-1.529295191961696e-002
1	 4.608918292688312e+000	 1.796489849759405e+000	-1.817659909467488e-002
1	 4.589631930698174e+000	 1.845205476298499e+000	-2.118659616355479e-002
1	 4.569787155993959e+000	 1.893819080725033e+000	-2.428770339635747e-002
1	 4.549383870469874e+000	 1.942321426333725e+000	-2.744047199281245e-002
1	 4.753825964242860e+000	 1.461224408735526e+000	 3.277548032394173e-004
1	 4.738346708564612e+000	 1.510664967931713e+000	-4.555149433443452e-004
1	 4.722312058162186e+000	 1.560066452957368e+000	-1.358300409114672e-003
1	 4.705720598369203e+000	 1.609419986487791e+000	-2.376959333606279e-003
1	 4.688571094304491e+000	 1.658716619200784e+000	-3.505677527063365e-003
1	 4.670862493815088e+000	 1.707947334092675e+000	-4.736445487656196e-003
1	 4.652593930302718e+000	 1.757103050917035e+000	-6.059038436424449e-003
1	 4.633764725428239e+000	 1.806174630742699e+000	-7.460999881515623e-003
1	 4.614374391688747e+000	 1.855152880627489e+000	-8.927628817133691e-003
1	 4.594422634862072e+000	 1.904028558403749e+000	-1.044197065596959e-002
1	 4.573909356313535e+000	 1.952792377571551e+000	-1.198481198681606e-002
1	 4.779315832430783e+000	 1.469059448937622e+000	 0.000000000000000e+000
1	 4.763753577460099e+000	 1.518765106887844e+000	 0.000000000000000e+000
1	 4.747632949755955e+000	 1.568431481153328e+000	 0.000000000000000e+000
1	 4.730952527066571e+000	 1.618049646809360e+000	 0.000000000000000e+000
1	 4.713711067889371e+000	 1.667610606547676e+000	 0.000000000000000e+000
1	 4.695907514429774e+000	 1.717105295015633e+000	 0.000000000000000e+000
1	 4.677540995442822e+000	 1.766524583278722e+000	 0.000000000000000e+000
1	 4.658610828952133e+000	 1.815859283403033e+000	 0.000000000000000e+000
1	 4.639116524840821e+000	 1.865100153154037e+000	 0.000000000000000e+000
1	 4.619057787309097e+000	 1.914237900807783e+000	 0.000000000000000e+000
1	 4.598434517193399e+000	 1.963263190070334e+000	 0.000000000000000e+000
1	 4.353173435502172e+000	 1.858551020759794e+000	-2.990548710203639e-001
1	 4.333118844188068e+000	 1.904839237533664e+000	-3.210184229429536e-001
1	 4.312530372389279e+000	 1.951003250800439e+000	-3.424926953467148e-001
1	 4.291408499589530e+000	 1.997034131020163e+000	-3.634530890276320e-001
1	 4.269753898666800e+000	 2.042922926136646e+000	-3.838655347817694e-001
1	 4.247567437359612e+000	 2.088660666674489e+000	-4.036863536785969e-001
1	 4.224850179576209e+000	 2.134238370909848e+000	-4.228621319569153e-001
1	 4.201603386542995e+000	 2.179647050109439e+000	-4.413296110691092e-001
1	 4.177828517788692e+000	 2.224877713832085e+000	-4.590155933713851e-001
1	 4.153527231960959e+000	 2.269921375286926e+000	-4.758368639276308e-001
1	 4.128701387472490e+000	 2.314769056742235e+000	-4.917001288624173e-001
1	 4.377699975912726e+000	 1.869022422229697e+000	-2.488353549491767e-001
1	 4.357532393524315e+000	 1.915571434911691e+000	-2.675888166739361e-001
1	 4.336827922675254e+000	 1.961995544302362e+000	-2.860142057399084e-001
1	 4.315587045550744e+000	 2.008285770551152e+000	-3.040968692268678e-001
1	 4.293810438819873e+000	 2.054433111164409e+000	-3.218121360943531e-001
1	 4.271498975110129e+000	 2.100428546131130e+000	-3.391251629599737e-001
1	 4.248653724323997e+000	 2.146263043122858e+000	-3.559907953182129e-001
1	 4.225275954793839e+000	 2.191927562762203e+000	-3.723534447636471e-001
1	 4.201367134271600e+000	 2.237413063954258e+000	-3.881469827528164e-001
1	 4.176928930750042e+000	 2.282710509275001e+000	-4.032946514073258e-001
1	 4.151963213112460e+000	 2.327810870410583e+000	-4.177089918268322e-001
1	 4.402226534724702e+000	 1.879493831556170e+000	-2.036829278216756e-001
1	 4.381945961177230e+000	 1.926303640341893e+000	-2.195377089324647e-001
1	 4.361125491190895e+000	 1.972987846051518e+000	-2.351897260687247e-001
1	 4.339765609652384e+000	 2.019537418523855e+000	-2.506325520844185e-001
1	 4.317866997021875e+000	 2.065943304827759e+000	-2.658495353414708e-001
1	 4.295430530815842e+000	 2.112196434416587e+000	-2.808136374727853e-001
1	 4.272457286930998e+000	 2.158287724357238e+000	-2.954872868861674e-001
1	 4.248948540805664e+000	 2.204208084628180e+000	-3.098222485904869e-001
1	 4.224905768415010e+000	 2.249948423480746e+000	-3.237595108954851e-001
1	 4.200330647096902e+000	 2.295499652857716e+000	-3.372291895040685e-001
1	 4.175225056205250e+000	 2.340852693863086e+000	-3.501504494815898e-001
1	 4.426753069017446e+000	 1.889965230414766e+000	-1.633821317802092e-001
1	 4.406359504423866e+000	 1.937035835043452e+000	-1.766160882167545e-001
1	 4.385423035416232e+000	 1.983980136811944e+000	-1.897409561834638e-001
1	 4.363944149582699e+000	 2.030789055248471e+000	-2.027568359843009e-001
1	 4.341923531174544e+000	 2.077453486984452e+000	-2.156537351009699e-001
1	 4.319362062597205e+000	 2.123964310937663e+000	-2.284114043605212e-001
1	 4.296260825741616e+000	 2.170312393570410e+000	-2.409991896308071e-001
1	 4.272621103152047e+000	 2.216488594217080e+000	-2.533758996223689e-001
1	 4.248444379026887e+000	 2.262483770475299e+000	-2.654896903456396e-001
1	 4.223732340049086e+000	 2.308288783654709e+000	-2.772779667404525e-001
1	 4.198486876043155e+000	 2.353894504277207e+000	-2.886673019606871e-001
1	 4.451279535870309e+000	 1.900436600481029e+000	-1.277223096056532e-001
1	 4.430772980541286e+000	 1.947768000235553e+000	-1.385804832875973e-001
1	 4.409720512831290e+000	 1.994972397347677e+000	-1.493957815231244e-001
1	 4.388122623029949e+000	 2.042040661035201e+000	-1.601731554215296e-001
1	 4.365979999179608e+000	 2.088963637492247e+000	-1.709079293595855e-001
1	 4.343293528574663e+000	 2.135732155101159e+000	-1.815856419149547e-001
1	 4.320064299100253e+000	 2.182337029719798e+000	-1.921819016052516e-001
1	 4.296293600406571e+000	 2.228769070038614e+000	-2.026622579882195e-001
1	 4.271982924915197e+000	 2.275019083001672e+000	-2.129820886502508e-001
1	 4.247133968654143e+000	 2.321077879285622e+000	-2.230865025799536e-001
1	 4.221748631918484e+000	 2.366936278830407e+000	-2.329102603910349e-001
1	 4.475805892362633e+000	 1.910907923430507e+000	-9.649747467616598e-002
1	 4.455186346806543e+000	 1.958500117137379e+000	-1.051928128899577e-001
1	 4.434017880916100e+000	 2.005964608422758e+000	-1.138881051752419e-001
1	 4.412300987682382e+000	 2.053292216194244e+000	-1.225914979890286e-001
1	 4.390036358938797e+000	 2.100473736208904e+000	-1.313023080268073e-001
1	 4.367224886868669e+000	 2.147499946313880e+000	-1.400108742257797e-001
1	 4.343867665351314e+000	 2.194361611762826e+000	-1.486984233464004e-001
1	 4.319965991142815e+000	 2.241049490602491e+000	-1.573369496445051e-001
1	 4.295521364887908e+000	 2.287554339123615e+000	-1.658891091203812e-001
1	 4.270535491959617e+000	 2.333866917370093e+000	-1.743081288032235e-001
1	 4.245010283123539e+000	 2.379977994700152e+000	-1.825377314995514e-001
1	 4.500332095573771e+000	 1.921379180938751e+000	-6.950618514095555e-002
1	 4.479599560496697e+000	 1.969232166968115e+000	-7.622024034531524e-002
1	 4.458315097150689e+000	 2.016956750801223e+000	-8.295768537876576e-002
1	 4.436479201228257e+000	 2.064543701035800e+000	-8.972822729592056e-002
1	 4.414092568353847e+000	 2.111983762992179e+000	-9.653386778426119e-002
1	 4.391156095599677e+000	 2.159267663982629e+000	-1.033687724853131e-001
1	 4.367670882839205e+000	 2.206386118656919e+000	-1.102191521655862e-001
1	 4.343638233934361e+000	 2.253329834418422e+000	-1.170631561864525e-001
1	 4.319059657752982e+000	 2.300089516904883e+000	-1.238707786994719e-001
1	 4.293936869013054e+000	 2.346655875527764e+000	-1.306037779693206e-001
1	 4.268271788950622e+000	 2.393019629063903e+000	-1.372156092004224e-001
1	 4.524858102583068e+000	 1.931850354681308e+000	-4.655142215067819e-002
1	 4.504012578888808e+000	 1.979964130946945e+000	-5.143503283170939e-002
1	 4.482612119015089e+000	 2.027948805247112e+000	-5.634997826538295e-002
1	 4.460657221355826e+000	 2.075795095870069e+000	-6.130591159427857e-002
1	 4.438148585326482e+000	 2.123493697699832e+000	-6.630622903248566e-002
1	 4.415087112888133e+000	 2.171035287514209e+000	-7.134796269818293e-002
1	 4.391473909908328e+000	 2.218410529359499e+000	-7.642168307016749e-002
1	 4.367310287354787e+000	 2.265610079996117e+000	-8.151141143454409e-002
1	 4.342597762318389e+000	 2.312624594409228e+000	-8.659454266940907e-002
1	 4.317338058861998e+000	 2.359444731378275e+000	-9.164177869556626e-002
1	 4.291533108692034e+000	 2.406061159099123e+000	-9.661707290014948e-002
1	 4.549383870469874e+000	 1.942321426333725e+000	-2.744047199281245e-002
1	 4.528425359259934e+000	 1.990695990293054e+000	-3.061442517622378e-002
1	 4.506908903989322e+000	 2.038940752524462e+000	-3.381598564342889e-002
1	 4.484835005753348e+000	 2.087046381007252e+000	-3.705315790092246e-002
1	 4.462204367758439e+000	 2.135003520189621e+000	-4.032945870712546e-002
1	 4.439017896854491e+000	 2.182802796315421e+000	-4.364383955648556e-002
1	 4.415276704903087e+000	 2.230434822827990e+000	-4.699061606816851e-002
1	 4.390982109977674e+000	 2.277890205845287e+000	-5.035940454295104e-002
1	 4.366135637392091e+000	 2.325159549700400e+000	-5.373506593876323e-002
1	 4.340739020553997e+000	 2.372233462541265e+000	-5.709765750108079e-002
1	 4.314794201640082e+000	 2.419102561983274e+000	-6.042239226922685e-002
1	 4.573909356313535e+000	 1.952792377571551e+000	-1.198481198681606e-002
1	 4.552837858887132e+000	 2.001427726225625e+000	-1.354048799213271e-002
1	 4.531205409553421e+000	 2.049932573397313e+000	-1.511210763690741e-002
1	 4.509012512109073e+000	 2.098297536757549e+000	-1.670445140990486e-002
1	 4.486259873551445e+000	 2.146513210319305e+000	-1.831989874628560e-002
1	 4.462948405619200e+000	 2.194570169793071e+000	-1.995838625116494e-002
1	 4.439079226167888e+000	 2.242458978019816e+000	-2.161736961858218e-002
1	 4.414653660376605e+000	 2.290170190475642e+000	-2.329178938737379e-002
1	 4.389673241782057e+000	 2.337694360842154e+000	-2.497404066839363e-002
1	 4.364139713136595e+000	 2.385022046636375e+000	-2.665394696991836e-002
1	 4.338055027087065e+000	 2.432143814893820e+000	-2.831873823994415e-002
1	 4.598434517193399e+000	 1.963263190070334e+000	 0.000000000000000e+000
1	 4.577250035047463e+000	 2.012159319963842e+000	 0.000000000000000e+000
1	 4.555501593187413e+000	 2.060924248629703e+000	 0.000000000000000e+000
1	 4.533189698111257e+000	 2.109548543431159e+000	 0.000000000000000e+000
1	 4.510315060607234e+000	 2.158022747946641e+000	 0.000000000000000e+000
1	 4.486878597302711e+000	 2.206337387353961e+000	 0.000000000000000e+000
1	 4.462881432047135e+000	 2.254482973892403e+000	 0.000000000000000e+000
1	 4.438324897125158e+000	 2.302450012396893e+000	 0.000000000000000e+000
1	 4.413210534296251e+000	 2.350229005898243e+000	 0.000000000000000e+000
1	 4.387540095657340e+000	 2.397810461283245e+000	 0.000000000000000e+000
1	 4.361315544325288e+000	 2.445184895008222e+000	 0.000000000000000e+000
1	 4.128701387472490e+000	 2.314769056742235e+000	-4.917001288624172e-001
1	 4.103349201813303e+000	 2.359418476664549e+000	-5.056865028922070e-001
1	 4.077476622929091e+000	 2.403853947232864e+000	-5.168232550286627e-001
1	 4.051086115123939e+000	 2.448066549433488e+000	-5.249497301070913e-001
1	 4.024180343380284e+000	 2.492047395438518e+000	-5.299243557967378e-001
1	 3.996762173110999e+000	 2.535787634173376e+000	-5.316249935886415e-001
1	 3.968834669728083e+000	 2.579278456895365e+000	-5.299492588954146e-001
1	 3.940401098026868e+000	 2.622511102776230e+000	-5.248148092775479e-001
1	 3.911464921384907e+000	 2.665476864481691e+000	-5.161595998796920e-001
1	 3.882029800775059e+000	 2.708167093740830e+000	-5.039421052327041e-001
1	 3.852099593592544e+000	 2.750573206898158e+000	-4.881415066530720e-001
1	 4.151963213112460e+000	 2.327810870410583e+000	-4.177089918268322e-001
1	 4.126468188805896e+000	 2.372711852972974e+000	-4.306291470109310e-001
1	 4.100449839287810e+000	 2.417397680753247e+000	-4.412142326600443e-001
1	 4.073910642746603e+000	 2.461859384486436e+000	-4.492660782077238e-001
1	 4.046853279179697e+000	 2.506088026269067e+000	-4.546016164937302e-001
1	 4.019280630144203e+000	 2.550074705158072e+000	-4.570532752863118e-001
1	 3.991195778323188e+000	 2.593810562780759e+000	-4.564693453487447e-001
1	 3.962602006906415e+000	 2.637286788948846e+000	-4.527143240451017e-001
1	 3.933502798784717e+000	 2.680494627269417e+000	-4.456692335298345e-001
1	 3.903901835557514e+000	 2.723425380745691e+000	-4.352319126191859e-001
1	 3.873802996353269e+000	 2.766070417360369e+000	-4.213172814989805e-001
1	 4.175225056205250e+000	 2.340852693863086e+000	-3.501504494815897e-001
1	 4.149587193144094e+000	 2.386005239254254e+000	-3.619045844883633e-001
1	 4.123423072882692e+000	 2.430941424434304e+000	-3.717740044132527e-001
1	 4.096735187493784e+000	 2.475652229886951e+000	-3.795354183077178e-001
1	 4.069526231989785e+000	 2.520128667633114e+000	-3.849771337709395e-001
1	 4.041799104072064e+000	 2.564361786861186e+000	-3.878994718077286e-001
1	 4.013556903694774e+000	 2.608342679568453e+000	-3.881151646753511e-001
1	 3.984802932442126e+000	 2.652062486206557e+000	-3.854497357212461e-001
1	 3.955540692718248e+000	 2.695512401323906e+000	-3.797418602470918e-001
1	 3.925773886749148e+000	 2.738683679197817e+000	-3.708437064715237e-001
1	 3.895506415396551e+000	 2.781567639449147e+000	-3.586212557039470e-001
1	 4.198486876043155e+000	 2.353894504277207e+000	-2.886673019606871e-001
1	 4.172706174370148e+000	 2.399298612245635e+000	-2.991657222703485e-001
1	 4.146396283511082e+000	 2.444485154575171e+000	-3.081707177596538e-001
1	 4.119559709423028e+000	 2.489445061498262e+000	-3.154460817416755e-001
1	 4.092199162133382e+000	 2.534169294960265e+000	-3.207641702041024e-001
1	 4.064317555487758e+000	 2.578648854281084e+000	-3.239063229567583e-001
1	 4.035918006711386e+000	 2.622874781828017e+000	-3.246632732337543e-001
1	 4.007003835782910e+000	 2.666838168692685e+000	-3.228355447858789e-001
1	 3.977578564619736e+000	 2.710530160364864e+000	-3.182338355187527e-001
1	 3.947645916074441e+000	 2.753941962396012e+000	-3.106793867554883e-001
1	 3.917209812741994e+000	 2.797064846045182e+000	-3.000043372286665e-001
1	 4.221748631918484e+000	 2.366936278830407e+000	-2.329102603910349e-001
1	 4.195825092026315e+000	 2.412591948684358e+000	-2.420731523641649e-001
1	 4.169369430970327e+000	 2.458028847474985e+000	-2.500798659613263e-001
1	 4.142384168591881e+000	 2.503237855183603e+000	-2.566932973420930e-001
1	 4.114872029933324e+000	 2.548209883680131e+000	-2.616823329962467e-001
1	 4.086835944984467e+000	 2.592935882416122e+000	-2.648222602841703e-001
1	 4.058279048241575e+000	 2.637406844129022e+000	-2.658951709271983e-001
1	 4.029204678077674e+000	 2.681613810550553e+000	-2.646903565435564e-001
1	 3.999616375923409e+000	 2.725547878111994e+000	-2.610046953346568e-001
1	 3.969517885257865e+000	 2.769200203639073e+000	-2.546430290385895e-001
1	 3.938913150409198e+000	 2.812562010029166e+000	-2.454185292824155e-001
1	 4.245010283123539e+000	 2.379977994700152e+000	-1.825377314995514e-001
1	 4.218943905654852e+000	 2.425885225307669e+000	-1.902949425700187e-001
1	 4.192342475057771e+000	 2.471572479432886e+000	-1.971840880232802e-001
1	 4.165208525057892e+000	 2.517030586806201e+000	-2.029790035936996e-001
1	 4.137544795712442e+000	 2.562250409222323e+000	-2.074574011973548e-001
1	 4.109354233155368e+000	 2.607222846264664e+000	-2.104012521143449e-001
1	 4.080639989153886e+000	 2.651938841041037e+000	-2.115971666543945e-001
1	 4.051405420475334e+000	 2.696389385923487e+000	-2.108367694875988e-001
1	 4.021654088063499e+000	 2.740565528285002e+000	-2.079170698232418e-001
1	 3.991389756023894e+000	 2.784458376225799e+000	-2.026408256231199e-001
1	 3.960616390417768e+000	 2.828059104281789e+000	-1.948169010418990e-001
1	 4.268271788950622e+000	 2.393019629063903e+000	-1.372156092004224e-001
1	 4.242062574798013e+000	 2.439178418852811e+000	-1.435064339941857e-001
1	 4.215315375570760e+000	 2.485116026748010e+000	-1.491729751284416e-001
1	 4.188032738878609e+000	 2.530823232229287e+000	-1.540116668751210e-001
1	 4.160217419793572e+000	 2.576290847016447e+000	-1.578211585231091e-001
1	 4.131872380593638e+000	 2.621509720825070e+000	-1.604026535939560e-001
1	 4.103000790316869e+000	 2.666470747133635e+000	-1.615602481203969e-001
1	 4.073606024124797e+000	 2.711164868954810e+000	-1.611012672818024e-001
1	 4.043691662474240e+000	 2.755583084603597e+000	-1.588365996862905e-001
1	 4.013261490097003e+000	 2.799716453454992e+000	-1.545810285869166e-001
1	 3.982319494787302e+000	 2.843556101683741e+000	-1.481535593191711e-001
1	 4.291533108692034e+000	 2.406061159099123e+000	-9.661707290014948e-002
1	 4.265181058998054e+000	 2.452471506057028e+000	-1.013900450888703e-001
1	 4.238288092306640e+000	 2.498659465719494e+000	-1.057428833117234e-001
1	 4.210856770111574e+000	 2.544615767316092e+000	-1.095061055589977e-001
1	 4.182889862499549e+000	 2.590331172492116e+000	-1.125112315622130e-001
1	 4.154390347892455e+000	 2.635796481095701e+000	-1.145910615738717e-001
1	 4.125361412599069e+000	 2.681002536976384e+000	-1.155799558437256e-001
1	 4.095806450174976e+000	 2.725940233787844e+000	-1.153141142237964e-001
1	 4.065729060589863e+000	 2.770600520787480e+000	-1.136318553271925e-001
1	 4.035133049201670e+000	 2.814974408625452e+000	-1.103738946601639e-001
1	 4.004022425537404e+000	 2.859052975115712e+000	-1.053836211429925e-001
1	 4.314794201640082e+000	 2.419102561983274e+000	-6.042239226922685e-002
1	 4.288299317797230e+000	 2.465764463657564e+000	-6.363508197475402e-002
1	 4.261260585062755e+000	 2.512202772646476e+000	-6.659675213990512e-002
1	 4.233680578814340e+000	 2.558408167929847e+000	-6.918331975155684e-002
1	 4.205562084153207e+000	 2.604371361078937e+000	-7.127093317083878e-002
1	 4.176908095644997e+000	 2.650083102074917e+000	-7.273617414355102e-002
1	 4.147721816869038e+000	 2.695534185138858e+000	-7.345626120279722e-002
1	 4.118006659774780e+000	 2.740715454565915e+000	-7.330925405986545e-002
1	 4.087766243844597e+000	 2.785617810556358e+000	-7.217425857202013e-002
1	 4.057004395062369e+000	 2.830232215035975e+000	-6.993163186956004e-002
1	 4.025725144687676e+000	 2.874549697458392e+000	-6.646318721945417e-002
1	 4.338055027087065e+000	 2.432143814893820e+000	-2.831873823994415e-002
1	 4.311417310737799e+000	 2.479057268391663e+000	-2.993755481257772e-002
1	 4.284232813636448e+000	 2.525745923828093e+000	-3.144392917397335e-002
1	 4.256504125044452e+000	 2.572200409933782e+000	-3.277032646187690e-002
1	 4.228234045077379e+000	 2.618411388206522e+000	-3.384911086126857e-002
1	 4.199425584444444e+000	 2.664369558761082e+000	-3.461265464491968e-002
1	 4.170081963995317e+000	 2.710065666190624e+000	-3.499344837150138e-002
1	 4.140206614073119e+000	 2.755490505432348e+000	-3.492421202659943e-002
1	 4.109803173672678e+000	 2.800634927629938e+000	-3.433800688699657e-002
1	 4.078875489403575e+000	 2.845489845985365e+000	-3.316834788417334e-002
1	 4.047427614257718e+000	 2.890046241592473e+000	-3.134931623920968e-002
1	 4.361315544325288e+000	 2.445184895008222e+000	 0.000000000000000e+000
1	 4.334534997362014e+000	 2.492349896996569e+000	 0.000000000000000e+000
1	 4.307204737825070e+000	 2.539288895563483e+000	 0.000000000000000e+000
1	 4.279327368859456e+000	 2.585992469191127e+000	 0.000000000000000e+000
1	 4.250905705594900e+000	 2.632451229304479e+000	 0.000000000000000e+000
1	 4.221942774883971e+000	 2.678655826152554e+000	 0.000000000000000e+000
1	 4.192441814846461e+000	 2.724596954701255e+000	 0.000000000000000e+000
1	 4.162406274218904e+000	 2.770265360530463e+000	 0.000000000000000e+000
1	 4.131839811508336e+000	 2.815651845727923e+000	 0.000000000000000e+000
1	 4.100746293949762e+000	 2.860747274772420e+000	 0.000000000000000e+000
1	 4.069129796267132e+000	 2.905542580398644e+000	 0.000000000000000e+000
1	 3.852099593592544e+000	 2.750573206898158e+000	-4.881415066530719e-001
1	 3.821678351209255e+000	 2.792686689510306e+000	-4.681396156936480e-001
1	 3.790770314199296e+000	 2.834499098992382e+000	-4.438648677740972e-001
1	 3.759379913927593e+000	 2.876002072770478e+000	-4.161558976715793e-001
1	 3.727511771739844e+000	 2.917187334614500e+000	-3.858821877903830e-001
1	 3.695170696876085e+000	 2.958046700001626e+000	-3.539427546861988e-001
1	 3.662361684203526e+000	 2.998572081419612e+000	-3.212647752725095e-001
1	 3.629089911770705e+000	 3.038755493602876e+000	-2.888021552231975e-001
1	 3.595360738185273e+000	 3.078589058694386e+000	-2.575340422486198e-001
1	 3.561179699818027e+000	 3.118065011326384e+000	-2.284632870784506e-001
1	 3.526552507836178e+000	 3.157175703613221e+000	-2.026148551329603e-001
1	 3.873802996353269e+000	 2.766070417360369e+000	-4.213172814989805e-001
1	 3.843210355370016e+000	 2.808421174698224e+000	-4.033143820786547e-001
1	 3.812128177074004e+000	 2.850469162607365e+000	-3.812040636645791e-001
1	 3.780560917797259e+000	 2.892205971397670e+000	-3.558262437104627e-001
1	 3.748513224922961e+000	 2.933623278209317e+000	-3.280522573930386e-001
1	 3.715989934787253e+000	 2.974712852406442e+000	-2.987835263399474e-001
1	 3.682996070399315e+000	 3.015466560910336e+000	-2.689501657912185e-001
1	 3.649536838981732e+000	 3.055876373465035e+000	-2.395095327483904e-001
1	 3.615617629333495e+000	 3.095934367828269e+000	-2.114447178318778e-001
1	 3.581244009018294e+000	 3.135632734880840e+000	-1.857629837266735e-001
1	 3.546421721381069e+000	 3.174963783647567e+000	-1.634941532480581e-001
1	 3.895506415396551e+000	 2.781567639449147e+000	-3.586212557039471e-001
1	 3.864742375684650e+000	 2.824155671690768e+000	-3.424995708713676e-001
1	 3.833486055971865e+000	 2.866439238203753e+000	-3.225175543907352e-001
1	 3.801741937557329e+000	 2.908409882181733e+000	-2.994966094035707e-001
1	 3.769514693861728e+000	 2.950059234135116e+000	-2.742892909999704e-001
1	 3.736809188317338e+000	 2.991379017314970e+000	-2.477779910985000e-001
1	 3.703630472075320e+000	 3.032361053076081e+000	-2.208735621644087e-001
1	 3.669983781532329e+000	 3.072997266172066e+000	-1.945138822940731e-001
1	 3.635874535678719e+000	 3.113279689975391e+000	-1.696623643591494e-001
1	 3.601308333271101e+000	 3.153200471615381e+000	-1.473064120624308e-001
1	 3.566290949832161e+000	 3.192751877027289e+000	-1.284558259082078e-001
1	 3.917209812741994e+000	 2.797064846045182e+000	-3.000043372286664e-001
1	 3.886274374472733e+000	 2.839890152953399e+000	-2.856920716163058e-001
1	 3.854843913517218e+000	 2.882409297834738e+000	-2.678390704754216e-001
1	 3.822922936141673e+000	 2.924613776766639e+000	-2.472287671189586e-001
1	 3.790516141804253e+000	 2.966495173629784e+000	-2.246746544038110e-001
1	 3.757628421033338e+000	 3.008045165562214e+000	-2.010190193967617e-001
1	 3.724264853122052e+000	 3.049255528352266e+000	-1.771316189229213e-001
1	 3.690430703641079e+000	 3.090118141763178e+000	-1.539082984328306e-001
1	 3.656131421772110e+000	 3.130624994782196e+000	-1.322695567846387e-001
1	 3.621372637464639e+000	 3.170768190787212e+000	-1.131590596910183e-001
1	 3.586160158419070e+000	 3.210539952623959e+000	-9.754210472636406e-002
1	 3.938913150409198e+000	 2.812562010029166e+000	-2.454185292824155e-001
1	 3.907806314053837e+000	 2.855624590951576e+000	-2.328888564337697e-001
1	 3.876201712334408e+000	 2.898379313553518e+000	-2.172016146426263e-001
1	 3.844103876484156e+000	 2.940817626796362e+000	-1.990831456143306e-001
1	 3.811517531998638e+000	 2.982931067931204e+000	-1.792879405910938e-001
1	 3.778447596502258e+000	 3.024711267983181e+000	-1.585974581309936e-001
1	 3.744899177430023e+000	 3.066149957174311e+000	-1.378188864395129e-001
1	 3.710877569526564e+000	 3.107238970277573e+000	-1.177838525331250e-001
1	 3.676388252164828e+000	 3.147970251895124e+000	-9.934708066470675e-002
1	 3.641436886487100e+000	 3.188335861653542e+000	-8.338500258447226e-002
1	 3.606029312371414e+000	 3.228327979309159e+000	-7.079432234699620e-002
1	 3.960616390417768e+000	 2.828059104281789e+000	-1.948169010418990e-001
1	 3.929338156747529e+000	 2.871358958150761e+000	-1.840869784945348e-001
1	 3.897559415047773e+000	 2.914349257413284e+000	-1.706374825261417e-001
1	 3.865284721518648e+000	 2.957021403914880e+000	-1.551188676641326e-001
1	 3.832518827692987e+000	 2.999366888277262e+000	-1.382070191841431e-001
1	 3.799266678291103e+000	 3.041377295412881e+000	-1.206021870291145e-001
1	 3.765533408889745e+000	 3.083044309977635e+000	-1.030278695637043e-001
1	 3.731324343407371e+000	 3.124359721754460e+000	-8.622964922229275e-002
1	 3.696644991408034e+000	 3.165315430960619e+000	-7.097398224484393e-002
1	 3.661501045226677e+000	 3.205903453471577e+000	-5.804694482517012e-002
1	 3.625898376918811e+000	 3.246115925954463e+000	-4.825293812005568e-002
1	 3.982319494787302e+000	 2.843556101683741e+000	-1.481535593191711e-001
1	 3.950869864873384e+000	 2.887093227016413e+000	-1.392835705442911e-001
1	 3.918916984281657e+000	 2.930319101467231e+000	-1.281782827076141e-001
1	 3.886465434179013e+000	 2.973225079766164e+000	-1.153937864679181e-001
1	 3.853519992135404e+000	 3.015802605905841e+000	-1.015080842814623e-001
1	 3.820085629966870e+000	 3.058043218686316e+000	-8.712017319510687e-002
1	 3.786167511391733e+000	 3.099938557197659e+000	-7.284908435742976e-002
1	 3.751770989502083e+000	 3.141480366233044e+000	-5.933288102077492e-002
1	 3.716901604052891e+000	 3.182660501625122e+000	-4.722761692453707e-002
1	 3.681565078571562e+000	 3.223470935498525e+000	-3.720625706248964e-002
1	 3.645767317290876e+000	 3.263903761431448e+000	-2.995756294390897e-002
1	 4.004022425537404e+000	 2.859052975115712e+000	-1.053836211429925e-001
1	 3.972401400750971e+000	 2.902827370013992e+000	-9.847584347601636e-002
1	 3.940274382660400e+000	 2.946288817768555e+000	-8.985495610920997e-002
1	 3.907645977399121e+000	 2.989428625994191e+000	-7.996452088579921e-002
1	 3.874520988573994e+000	 3.032238192054827e+000	-6.926570075686814e-002
1	 3.840904415096563e+000	 3.074709008638496e+000	-5.823652389617760e-002
1	 3.806801448826499e+000	 3.116832669269804e+000	-4.737111300291257e-002
1	 3.772217472029282e+000	 3.158600873752531e+000	-3.717888121637564e-002
1	 3.737158054650565e+000	 3.200005433535078e+000	-2.818369616104509e-002
1	 3.701628951409946e+000	 3.241038276991590e+000	-2.092301373096566e-002
1	 3.665636098717228e+000	 3.281691454611689e+000	-1.594698330850843e-002
1	 4.025725144687676e+000	 2.874549697458392e+000	-6.646318721945417e-002
1	 3.993932726699862e+000	 2.918561359608961e+000	-6.166108494846742e-002
1	 3.961631572808341e+000	 2.962258378370446e+000	-5.569779476506222e-002
1	 3.928826314112840e+000	 3.005632014242935e+000	-4.888648954488428e-002
1	 3.895521780256860e+000	 3.048673617962106e+000	-4.155284907503093e-002
1	 3.861722997247186e+000	 3.091374636104424e+000	-3.403453765843623e-002
1	 3.827435185084556e+000	 3.133726616629490e+000	-2.668065695115218e-002
1	 3.792663755207555e+000	 3.175721214352128e+000	-1.985117504439457e-002
1	 3.757414307752212e+000	 3.217350196336925e+000	-1.391633287049530e-002
1	 3.721692628630024e+000	 3.258605447207982e+000	-9.256029076286150e-003
1	 3.685504686427484e+000	 3.299478974366764e+000	-6.259184568748182e-003
1	 4.047427614257718e+000	 2.890046241592473e+000	-3.134931623920968e-002
1	 4.015463805039629e+000	 2.934295168266779e+000	-2.883665804913329e-002
1	 3.982988517349825e+000	 2.978227755326101e+000	-2.573645999460917e-002
1	 3.950006407254037e+000	 3.021835216156370e+000	-2.221394385872436e-002
1	 3.916522330432105e+000	 3.065108854865561e+000	-1.844096867862867e-002
1	 3.882541339985741e+000	 3.108040071919109e+000	-1.459575373402730e-002
1	 3.848068684056416e+000	 3.150620369712136e+000	-1.086258837649501e-002
1	 3.813109803255483e+000	 3.192841358071038e+000	-7.431529236681343e-003
1	 3.777670327908999e+000	 3.234694759677108e+000	-4.498085382235214e-003
1	 3.741756075119985e+000	 3.276172415404907e+000	-2.262892033508189e-003
1	 3.705373045651260e+000	 3.317266289568248e+000	-9.313734766731431e-004
1	 4.069129796267132e+000	 2.905542580398644e+000	 0.000000000000000e+000
1	 4.036994598089843e+000	 2.950028768452905e+000	 0.000000000000000e+000
1	 4.004345178909193e+000	 2.994196920688713e+000	 0.000000000000000e+000
1	 3.971186219756580e+000	 3.038038203378471e+000	 0.000000000000000e+000
1	 3.937522602347835e+000	 3.081543874003077e+000	 0.000000000000000e+000
1	 3.903359406879230e+000	 3.124705286917557e+000	 0.000000000000000e+000
1	 3.868701909632592e+000	 3.167513898953164e+000	 0.000000000000000e+000
1	 3.833555580391654e+000	 3.209961274948470e+000	 0.000000000000000e+000
1	 3.797926079672085e+000	 3.252039093202069e+000	 0.000000000000000e+000
1	 3.761819255768023e+000	 3.293739150839572e+000	 0.000000000000000e+000
1	 3.725241141618175e+000	 3.335053369087720e+000	 0.000000000000000e+000
1	 3.526552507836178e+000	 3.157175703613221e+000	-2.026148551329603e-001
1	 3.491490338159828e+000	 3.195907828477368e+000	-1.820501746720338e-001
1	 3.455994081322530e+000	 3.234259887315395e+000	-1.673230173924339e-001
1	 3.420069953636332e+000	 3.272224619985245e+000	-1.572102575838445e-001
1	 3.383724332540992e+000	 3.309794902772032e+000	-1.504732385647843e-001
1	 3.346963752837024e+000	 3.346963752837023e+000	-1.458599936286885e-001
1	 3.309794902772032e+000	 3.383724332540992e+000	-1.421074922941056e-001
1	 3.272224619985245e+000	 3.420069953636333e+000	-1.379439070993500e-001
1	 3.234259887315396e+000	 3.455994081322531e+000	-1.320908961272372e-001
1	 3.195907828477369e+000	 3.491490338159829e+000	-1.232658964055675e-001
1	 3.157175703613221e+000	 3.526552507836178e+000	-1.101844233039373e-001
1	 3.546421721381069e+000	 3.174963783647567e+000	-1.634941532480581e-001
1	 3.511162005309020e+000	 3.213914132076515e+000	-1.465061997712325e-001
1	 3.475465756353109e+000	 3.252482273120869e+000	-1.351740814199492e-001
1	 3.439339225849170e+000	 3.290660905733674e+000	-1.283002286833798e-001
1	 3.402788827168555e+000	 3.328442866063796e+000	-1.246716089268146e-001
1	 3.365821131929980e+000	 3.365821131929980e+000	-1.230619123567008e-001
1	 3.328442866063796e+000	 3.402788827168555e+000	-1.222337632556754e-001
1	 3.290660905733673e+000	 3.439339225849170e+000	-1.209409517975987e-001
1	 3.252482273120868e+000	 3.475465756353109e+000	-1.179306816977558e-001
1	 3.213914132076515e+000	 3.511162005309020e+000	-1.119458289131682e-001
1	 3.174963783647567e+000	 3.546421721381069e+000	-1.017272065823542e-001
1	 3.566290949832161e+000	 3.192751877027289e+000	-1.284558259082078e-001
1	 3.530833687216242e+000	 3.231920449184716e+000	-1.147686716790151e-001
1	 3.494937445991728e+000	 3.270704672597463e+000	-1.064562557170627e-001
1	 3.458608512518249e+000	 3.309097205313643e+000	-1.023690536512331e-001
1	 3.421853336098788e+000	 3.347090843345853e+000	-1.013424847853769e-001
1	 3.384678525170281e+000	 3.384678525170280e+000	-1.021990204979072e-001
1	 3.347090843345852e+000	 3.421853336098788e+000	-1.037503173108732e-001
1	 3.309097205313644e+000	 3.458608512518250e+000	-1.047993701002713e-001
1	 3.270704672597464e+000	 3.494937445991728e+000	-1.041426808656881e-001
1	 3.231920449184716e+000	 3.530833687216242e+000	-1.005724384378130e-001
1	 3.192751877027288e+000	 3.566290949832161e+000	-9.287870447692449e-002
1	 3.586160158419070e+000	 3.210539952623959e+000	-9.754210472636406e-002
1	 3.550505349456825e+000	 3.249926748291658e+000	-8.685570842852557e-002
1	 3.514409116163698e+000	 3.288927053856720e+000	-8.116746599916455e-002
1	 3.477877779923087e+000	 3.327533486462375e+000	-7.939800201582127e-002
1	 3.440917825969560e+000	 3.365738801984989e+000	-8.045362700942779e-002
1	 3.403535899558242e+000	 3.403535899558242e+000	-8.322832610585521e-002
1	 3.365738801984989e+000	 3.440917825969561e+000	-8.660577117457249e-002
1	 3.327533486462375e+000	 3.477877779923087e+000	-8.946135220932618e-002
1	 3.288927053856719e+000	 3.514409116163698e+000	-9.066422361452084e-002
1	 3.249926748291657e+000	 3.550505349456825e+000	-8.907936103302924e-002
1	 3.210539952623960e+000	 3.586160158419070e+000	-8.356962432661133e-002
1	 3.606029312371414e+000	 3.228327979309159e+000	-7.079432234699620e-002
1	 3.570176957606095e+000	 3.267932997887018e+000	-6.278505940408596e-002
1	 3.533880732794333e+000	 3.307149385010174e+000	-5.930571213187685e-002
1	 3.497146994343197e+000	 3.345969716917085e+000	-5.936878146888452e-002
1	 3.459982263418742e+000	 3.384386709347995e+000	-6.197352867319216e-002
1	 3.422393222094180e+000	 3.422393222094181e+000	-6.610780239601891e-002
1	 3.384386709347995e+000	 3.459982263418742e+000	-7.074988754264801e-002
1	 3.345969716917085e+000	 3.497146994343197e+000	-7.487037198947368e-002
1	 3.307149385010175e+000	 3.533880732794334e+000	-7.743402717836630e-002
1	 3.267932997887018e+000	 3.570176957606095e+000	-7.740169857419571e-002
1	 3.228327979309159e+000	 3.606029312371414e+000	-7.373220194833097e-002
1	 3.625898376918811e+000	 3.246115925954463e+000	-4.825293812005568e-002
1	 3.589848477239379e+000	 3.285939166460482e+000	-4.257411642808905e-002
1	 3.553352261808945e+000	 3.325371634169370e+000	-4.086906700055090e-002
1	 3.516416122058093e+000	 3.364405864414994e+000	-4.226352665446748e-002
1	 3.479046615084206e+000	 3.403034532801657e+000	-4.587139566656535e-002
1	 3.441250459778411e+000	 3.441250459778410e+000	-5.079636184277225e-002
1	 3.403034532801657e+000	 3.479046615084205e+000	-5.613354410227069e-002
1	 3.364405864414993e+000	 3.516416122058093e+000	-6.097115207875638e-002
1	 3.325371634169370e+000	 3.553352261808945e+000	-6.439215819887359e-002
1	 3.285939166460482e+000	 3.589848477239380e+000	-6.547597866599897e-002
1	 3.246115925954463e+000	 3.625898376918810e+000	-6.330015975671863e-002
1	 3.645767317290876e+000	 3.263903761431448e+000	-2.995756294390897e-002
1	 3.609519873932002e+000	 3.303945222501730e+000	-2.623992448947584e-002
1	 3.572823669132848e+000	 3.343593769445843e+000	-2.585567541716828e-002
1	 3.535685129347288e+000	 3.382841896693317e+000	-2.806478832183813e-002
1	 3.498110847603819e+000	 3.421682239712764e+000	-3.211712793435623e-002
1	 3.460107579611251e+000	 3.460107579611250e+000	-3.725383111615325e-002
1	 3.421682239712764e+000	 3.498110847603818e+000	-4.270870354670872e-002
1	 3.382841896693318e+000	 3.535685129347289e+000	-4.770963012988988e-002
1	 3.343593769445843e+000	 3.572823669132847e+000	-5.147999610850233e-002
1	 3.303945222501731e+000	 3.609519873932002e+000	-5.324011584907473e-002
1	 3.263903761431447e+000	 3.645767317290875e+000	-5.220866624096696e-002
1	 3.665636098717228e+000	 3.281691454611689e+000	-1.594698330850844e-002
1	 3.629191113259290e+000	 3.321951134500448e+000	-1.379919212730399e-002
1	 3.592294920691352e+000	 3.361815758951137e+000	-1.426375306326137e-002
1	 3.554953982490301e+000	 3.401277781489275e+000	-1.675552282870662e-002
1	 3.517174927615451e+000	 3.440329797448102e+000	-2.068130132077002e-002
1	 3.478964548593018e+000	 3.478964548593018e+000	-2.544092682686881e-002
1	 3.440329797448102e+000	 3.517174927615451e+000	-3.042838455687447e-002
1	 3.401277781489275e+000	 3.554953982490301e+000	-3.503292613985557e-002
1	 3.361815758951137e+000	 3.592294920691351e+000	-3.864019769406816e-002
1	 3.321951134500448e+000	 3.629191113259292e+000	-4.063337405698259e-002
1	 3.281691454611689e+000	 3.665636098717227e+000	-4.039429674768965e-002
1	 3.685504686427484e+000	 3.299478974366764e+000	-6.259184568748182e-003
1	 3.648862160796576e+000	 3.339956870946316e+000	-5.268301482344760e-003
1	 3.611765982409771e+000	 3.380037570796788e+000	-6.091585467537090e-003
1	 3.574222647766643e+000	 3.419713486540085e+000	-8.319081981654873e-003
1	 3.536238821756975e+000	 3.458977173374460e+000	-1.153514999651163e-002
1	 3.497821333724026e+000	 3.497821333724026e+000	-1.531923204933162e-002
1	 3.458977173374461e+000	 3.536238821756975e+000	-1.924663371349321e-002
1	 3.419713486540085e+000	 3.574222647766643e+000	-2.288931082706464e-002
1	 3.380037570796788e+000	 3.611765982409771e+000	-2.581666279642770e-002
1	 3.339956870946316e+000	 3.648862160796576e+000	-2.759633027677636e-002
1	 3.299478974366763e+000	 3.685504686427483e+000	-2.779499552099636e-002
1	 3.705373045651260e+000	 3.317266289568248e+000	-9.313734766731420e-004
1	 3.668532982119181e+000	 3.357962400329018e+000	-6.633180290854821e-004
1	 3.631236820213418e+000	 3.398259173094338e+000	-1.337527016947626e-003
1	 3.593491091455829e+000	 3.438148979582966e+000	-2.739203201271003e-003
1	 3.555302496666260e+000	 3.477624334858628e+000	-4.650549446862127e-003
1	 3.516677902004593e+000	 3.516677902004593e+000	-6.851173593811124e-003
1	 3.477624334858627e+000	 3.555302496666260e+000	-9.118498305280795e-003
1	 3.438148979582966e+000	 3.593491091455829e+000	-1.122817501713938e-002
1	 3.398259173094338e+000	 3.631236820213418e+000	-1.295450110404821e-002
1	 3.357962400329018e+000	 3.668532982119181e+000	-1.407083936839476e-002
1	 3.317266289568248e+000	 3.705373045651260e+000	-1.435003895300423e-002
1	 3.725241141618175e+000	 3.335053369087720e+000	 0.000000000000000e+000
1	 3.688203542802433e+000	 3.375967691138236e+000	 0.000000000000000e+000
1	 3.650707400027606e+000	 3.416480533955327e+000	 0.000000000000000e+000
1	 3.612759279837374e+000	 3.456584228355136e+000	 0.000000000000000e+000
1	 3.574365918981176e+000	 3.496271249267390e+000	 0.000000000000000e+000
1	 3.535534220435035e+000	 3.535534220435034e+000	 0.000000000000000e+000
1	 3.496271249267390e+000	 3.574365918981176e+000	 0.000000000000000e+000
1	 3.456584228355136e+000	 3.612759279837374e+000	 0.000000000000000e+000
1	 3.416480533955327e+000	 3.650707400027606e+000	 0.000000000000000e+000
1	 3.375967691138236e+000	 3.688203542802433e+000	 0.000000000000000e+000
1	 3.335053369087720e+000	 3.725241141618175e+000	 0.000000000000000e+000
1	 3.157175703613221e+000	 3.526552507836178e+000	-1.101844233039374e-001
1	 3.118065011326384e+000	 3.561179699818027e+000	-9.221403224155830e-002
1	 3.078589058694385e+000	 3.595360738185272e+000	-7.033087542905167e-002
1	 3.038755493602876e+000	 3.629089911770705e+000	-4.564869224938363e-002
1	 2.998572081419611e+000	 3.662361684203525e+000	-1.926964725113384e-002
1	 2.958046700001627e+000	 3.695170696876085e+000	 7.717493372854244e-003
1	 2.917187334614500e+000	 3.727511771739845e+000	 3.423915354923285e-002
1	 2.876002072770478e+000	 3.759379913927594e+000	 5.923870372709678e-002
1	 2.834499098992381e+000	 3.790770314199297e+000	 8.167817842562221e-002
1	 2.792686689510306e+000	 3.821678351209255e+000	 1.005399515505920e-001
1	 2.750573206898158e+000	 3.852099593592544e+000	 1.148283662321549e-001
1	 3.174963783647567e+000	 3.546421721381069e+000	-1.017272065823542e-001
1	 3.135632734880840e+000	 3.581244009018294e+000	-8.662045447417263e-002
1	 3.095934367828270e+000	 3.615617629333495e+000	-6.755592005342934e-002
1	 3.055876373465033e+000	 3.649536838981733e+000	-4.563811258377862e-002
1	 3.015466560910336e+000	 3.682996070399315e+000	-2.196014435191730e-002
1	 2.974712852406443e+000	 3.715989934787254e+000	 2.398095494868239e-003
1	 2.933623278209317e+000	 3.748513224922959e+000	 2.637173559269184e-002
1	 2.892205971397670e+000	 3.780560917797260e+000	 4.891268186851859e-002
1	 2.850469162607365e+000	 3.812128177074004e+000	 6.899133840136033e-002
1	 2.808421174698224e+000	 3.843210355370014e+000	 8.559828624583114e-002
1	 2.766070417360369e+000	 3.873802996353269e+000	 9.774591695455313e-002
1	 3.192751877027288e+000	 3.566290949832161e+000	-9.287870447692449e-002
1	 3.153200471615381e+000	 3.601308333271101e+000	-8.040349466523530e-002
1	 3.113279689975391e+000	 3.635874535678719e+000	-6.401784523211733e-002
1	 3.072997266172066e+000	 3.669983781532329e+000	-4.479333425214127e-002
1	 3.032361053076081e+000	 3.703630472075320e+000	-2.379054567490348e-002
1	 2.991379017314971e+000	 3.736809188317337e+000	-2.057282618924477e-003
1	 2.950059234135116e+000	 3.769514693861728e+000	 1.937318872235396e-002
1	 2.908409882181733e+000	 3.801741937557330e+000	 3.948386101460383e-002
1	 2.866439238203751e+000	 3.833486055971865e+000	 5.727567011440291e-002
1	 2.824155671690768e+000	 3.864742375684651e+000	 7.176913847188544e-002
1	 2.781567639449146e+000	 3.895506415396550e+000	 8.200597440210880e-002
1	 3.210539952623960e+000	 3.586160158419070e+000	-8.356962432661132e-002
1	 3.170768190787212e+000	 3.621372637464638e+000	-7.349194288113473e-002
1	 3.130624994782196e+000	 3.656131421772108e+000	-5.964531188935335e-002
1	 3.090118141763177e+000	 3.690430703641078e+000	-4.304506812303818e-002
1	 3.049255528352266e+000	 3.724264853122051e+000	-2.469617922746554e-002
1	 3.008045165562214e+000	 3.757628421033338e+000	-5.591538183507149e-003
1	 2.966495173629784e+000	 3.790516141804253e+000	 1.328971318607041e-002
1	 2.924613776766639e+000	 3.822922936141672e+000	 3.098382827282768e-002
1	 2.882409297834738e+000	 3.854843913517219e+000	 4.654406400858765e-002
1	 2.839890152953399e+000	 3.886274374472734e+000	 5.904225027812295e-002
1	 2.797064846045182e+000	 3.917209812741993e+000	 6.757031735443521e-002
1	 3.228327979309159e+000	 3.606029312371414e+000	-7.373220194833097e-002
1	 3.188335861653542e+000	 3.641436886487099e+000	-6.581615915478913e-002
1	 3.147970251895125e+000	 3.676388252164827e+000	-5.436855394877307e-002
1	 3.107238970277573e+000	 3.710877569526563e+000	-4.032555377138916e-002
1	 3.066149957174312e+000	 3.744899177430023e+000	-2.461380129939407e-002
1	 3.024711267983182e+000	 3.778447596502260e+000	-8.148831410625428e-003
1	 2.982931067931204e+000	 3.811517531998638e+000	 8.166485030167080e-003
1	 2.940817626796362e+000	 3.844103876484156e+000	 2.344346741018568e-002
1	 2.898379313553517e+000	 3.876201712334408e+000	 3.680911857022111e-002
1	 2.855624590951576e+000	 3.907806314053837e+000	 4.740758200886643e-002
1	 2.812562010029165e+000	 3.938913150409198e+000	 5.440156023917682e-002
1	 3.246115925954463e+000	 3.625898376918810e+000	-6.330015975671863e-002
1	 3.205903453471578e+000	 3.661501045226677e+000	-5.730803042839273e-002
1	 3.165315430960621e+000	 3.696644991408035e+000	-4.811933517928800e-002
1	 3.124359721754459e+000	 3.731324343407371e+000	-3.656851754392043e-002
1	 3.083044309977635e+000	 3.765533408889745e+000	-2.348155729890065e-002
1	 3.041377295412882e+000	 3.799266678291102e+000	-9.674550898906379e-003
1	 2.999366888277262e+000	 3.832518827692987e+000	 4.047684141232429e-003
1	 2.957021403914880e+000	 3.865284721518647e+000	 1.689297808492054e-002
1	 2.914349257413283e+000	 3.897559415047773e+000	 2.808314828241382e-002
1	 2.871358958150760e+000	 3.929338156747529e+000	 3.685530629049438e-002
1	 2.828059104281789e+000	 3.960616390417767e+000	 4.246313024257435e-002
1	 3.263903761431447e+000	 3.645767317290875e+000	-5.220866624096696e-002
1	 3.223470935498525e+000	 3.681565078571562e+000	-4.790092889133422e-002
1	 3.182660501625123e+000	 3.716901604052892e+000	-4.083090743929156e-002
1	 3.141480366233044e+000	 3.751770989502083e+000	-3.170913198344755e-002
1	 3.099938557197659e+000	 3.786167511391734e+000	-2.123894385771860e-002
1	 3.058043218686317e+000	 3.820085629966870e+000	-1.011528014556600e-002
1	 3.015802605905841e+000	 3.853519992135404e+000	 9.765213790939648e-004
1	 2.973225079766165e+000	 3.886465434179013e+000	 1.136189445486749e-002
1	 2.930319101467231e+000	 3.918916984281657e+000	 2.037819132142446e-002
1	 2.887093227016413e+000	 3.950869864873384e+000	 2.737580221311591e-002
1	 2.843556101683741e+000	 3.982319494787302e+000	 3.171924516146673e-002
1	 3.281691454611689e+000	 3.665636098717227e+000	-4.039429674768965e-002
1	 3.241038276991591e+000	 3.701628951409947e+000	-3.752967166084083e-002
1	 3.200005433535079e+000	 3.737158054650565e+000	-3.243797026661308e-002
1	 3.158600873752532e+000	 3.772217472029283e+000	-2.568397656091020e-002
1	 3.116832669269804e+000	 3.806801448826499e+000	-1.782677215760293e-002
1	 3.074709008638497e+000	 3.840904415096564e+000	-9.418765137533557e-003
1	 3.032238192054828e+000	 3.874520988573996e+000	-1.004735164846163e-003
1	 2.989428625994191e+000	 3.907645977399120e+000	 6.879103185854877e-003
1	 2.946288817768555e+000	 3.940274382660400e+000	 1.370601700470960e-002
1	 2.902827370013992e+000	 3.972401400750971e+000	 1.895964969950264e-002
1	 2.859052975115711e+000	 4.004022425537404e+000	 2.213489196885016e-002
1	 3.299478974366763e+000	 3.685504686427483e+000	-2.779499552099636e-002
1	 3.258605447207982e+000	 3.721692628630023e+000	-2.613048175514042e-002
1	 3.217350196336926e+000	 3.757414307752213e+000	-2.287663176390506e-002
1	 3.175721214352127e+000	 3.792663755207555e+000	-1.843099966625543e-002
1	 3.133726616629490e+000	 3.827435185084556e+000	-1.318713243253964e-002
1	 3.091374636104424e+000	 3.861722997247187e+000	-7.533882981635888e-003
1	 3.048673617962106e+000	 3.895521780256860e+000	-1.854734751219089e-003
1	 3.005632014242934e+000	 3.928826314112840e+000	 3.472860882583324e-003
1	 2.962258378370446e+000	 3.961631572808341e+000	 8.078132999955145e-003
1	 2.918561359608961e+000	 3.993932726699862e+000	 1.159762405426713e-002
1	 2.874549697458392e+000	 4.025725144687677e+000	 1.367580606630607e-002
1	 3.317266289568248e+000	 3.705373045651260e+000	-1.435003895300423e-002
1	 3.276172415404907e+000	 3.741756075119985e+000	-1.364095031105650e-002
1	 3.234694759677108e+000	 3.777670327908998e+000	-1.208437073127315e-002
1	 3.192841358071037e+000	 3.813109803255483e+000	-9.889481811337435e-003
1	 3.150620369712136e+000	 3.848068684056416e+000	-7.263359602951322e-003
1	 3.108040071919110e+000	 3.882541339985742e+000	-4.410611535190548e-003
1	 3.065108854865560e+000	 3.916522330432104e+000	-1.533019386923692e-003
1	 3.021835216156370e+000	 3.950006407254037e+000	 1.170810963466991e-003
1	 2.978227755326099e+000	 3.982988517349826e+000	 3.505792303977100e-003
1	 2.934295168266778e+000	 4.015463805039629e+000	 5.280690686580376e-003
1	 2.890046241592473e+000	 4.047427614257718e+000	 6.308451197746388e-003
1	 3.335053369087720e+000	 3.725241141618175e+000	 0.000000000000000e+000
1	 3.293739150839573e+000	 3.761819255768024e+000	 0.000000000000000e+000
1	 3.252039093202069e+000	 3.797926079672084e+000	 0.000000000000000e+000
1	 3.209961274948469e+000	 3.833555580391654e+000	 0.000000000000000e+000
1	 3.167513898953163e+000	 3.868701909632593e+000	 0.000000000000000e+000
1	 3.124705286917558e+000	 3.903359406879230e+000	 0.000000000000000e+000
1	 3.081543874003077e+000	 3.937522602347834e+000	 0.000000000000000e+000
1	 3.038038203378471e+000	 3.971186219756580e+000	 0.000000000000000e+000
1	 2.994196920688713e+000	 4.004345178909193e+000	 0.000000000000000e+000
1	 2.950028768452905e+000	 4.036994598089843e+000	 0.000000000000000e+000
1	 2.905542580398644e+000	 4.069129796267133e+000	 0.000000000000000e+000
1	 2.750573206898158e+000	 3.852099593592544e+000	 1.148283662321549e-001
1	 2.708167093740830e+000	 3.882029800775059e+000	 1.239381625489041e-001
1	 2.665476864481691e+000	 3.911464921384907e+000	 1.282807905163928e-001
1	 2.622511102776230e+000	 3.940401098026868e+000	 1.284194804469410e-001
1	 2.579278456895366e+000	 3.968834669728083e+000	 1.249384355727056e-001
1	 2.535787634173377e+000	 3.996762173110999e+000	 1.184417061425433e-001
1	 2.492047395438517e+000	 4.024180343380285e+000	 1.095520383424755e-001
1	 2.448066549433489e+000	 4.051086115123940e+000	 9.890970065504504e-002
1	 2.403853947232864e+000	 4.077476622929091e+000	 8.717129030100840e-002
1	 2.359418476664550e+000	 4.103349201813303e+000	 7.500852242665893e-002
1	 2.314769056742236e+000	 4.128701387472491e+000	 6.310700471174813e-002
1	 2.766070417360369e+000	 3.873802996353269e+000	 9.774591695455313e-002
1	 2.723425380745691e+000	 3.903901835557514e+000	 1.048564298243141e-001
1	 2.680494627269417e+000	 3.933502798784716e+000	 1.073940349959580e-001
1	 2.637286788948846e+000	 3.962602006906416e+000	 1.059657146730958e-001
1	 2.593810562780759e+000	 3.991195778323189e+000	 1.011965336123611e-001
1	 2.550074705158071e+000	 4.019280630144203e+000	 9.372845687025842e-002
1	 2.506088026269068e+000	 4.046853279179696e+000	 8.421914808229718e-002
1	 2.461859384486437e+000	 4.073910642746603e+000	 7.334075094425943e-002
1	 2.417397680753247e+000	 4.100449839287810e+000	 6.177865657851736e-002
1	 2.372711852972975e+000	 4.126468188805896e+000	 5.023025947318793e-002
1	 2.327810870410583e+000	 4.151963213112461e+000	 3.940370467867285e-002
1	 2.781567639449146e+000	 3.895506415396550e+000	 8.200597440210880e-002
1	 2.738683679197817e+000	 3.925773886749149e+000	 8.743646224487377e-002
1	 2.695512401323906e+000	 3.955540692718250e+000	 8.854873860908155e-002
1	 2.652062486206556e+000	 3.984802932442126e+000	 8.597035899652554e-002
1	 2.608342679568453e+000	 4.013556903694774e+000	 8.034425422342000e-002
1	 2.564361786861187e+000	 4.041799104072063e+000	 7.232753025272368e-002
1	 2.520128667633114e+000	 4.069526231989785e+000	 6.259025354111947e-002
1	 2.475652229886951e+000	 4.096735187493784e+000	 5.181422455342626e-002
1	 2.430941424434304e+000	 4.123423072882693e+000	 4.069174209796553e-002
1	 2.386005239254254e+000	 4.149587193144094e+000	 2.992436112926230e-002
1	 2.340852693863086e+000	 4.175225056205249e+000	 2.022164664942493e-002
1	 2.797064846045182e+000	 3.917209812741993e+000	 6.757031735443521e-002
1	 2.753941962396011e+000	 3.947645916074441e+000	 7.160987882982316e-002
1	 2.710530160364864e+000	 3.977578564619736e+000	 7.164726746413178e-002
1	 2.666838168692685e+000	 4.007003835782910e+000	 6.830779995407375e-002
1	 2.622874781828017e+000	 4.035918006711387e+000	 6.222964151431783e-002
1	 2.578648854281084e+000	 4.064317555487758e+000	 5.406262588210526e-002
1	 2.534169294960265e+000	 4.092199162133383e+000	 4.446706509931245e-002
1	 2.489445061498263e+000	 4.119559709423028e+000	 3.411255163652439e-002
1	 2.444485154575171e+000	 4.146396283511083e+000	 2.367675541496443e-002
1	 2.399298612245635e+000	 4.172706174370148e+000	 1.384421826580787e-002
1	 2.353894504277207e+000	 4.198486876043154e+000	 5.305148342715968e-003
1	 2.812562010029165e+000	 3.938913150409198e+000	 5.440156023917682e-002
1	 2.769200203639073e+000	 3.969517885257865e+000	 5.730980113677258e-002
1	 2.725547878111994e+000	 3.999616375923409e+000	 5.659413807767790e-002
1	 2.681613810550553e+000	 4.029204678077674e+000	 5.285519502772337e-002
1	 2.637406844129022e+000	 4.058279048241575e+000	 4.670409549077495e-002
1	 2.592935882416122e+000	 4.086835944984467e+000	 3.876134043189726e-002
1	 2.548209883680132e+000	 4.114872029933324e+000	 2.965567952769074e-002
1	 2.503237855183603e+000	 4.142384168591883e+000	 2.002297814962980e-002
1	 2.458028847474985e+000	 4.169369430970327e+000	 1.050508247070565e-002
1	 2.412591948684358e+000	 4.195825092026315e+000	 1.748685063171197e-003
1	 2.366936278830408e+000	 4.221748631918484e+000	-5.595806674155755e-003
1	 2.828059104281789e+000	 3.960616390417767e+000	 4.246313024257435e-002
1	 2.784458376225800e+000	 3.991389756023894e+000	 4.447081216693936e-002
1	 2.740565528285003e+000	 4.021654088063499e+000	 4.329595861903207e-002
1	 2.696389385923487e+000	 4.051405420475334e+000	 3.949239699434080e-002
1	 2.651938841041037e+000	 4.080639989153886e+000	 3.362228049630640e-002
1	 2.607222846264664e+000	 4.109354233155368e+000	 2.625506139158040e-002
1	 2.562250409222322e+000	 4.137544795712441e+000	 1.796646043553210e-002
1	 2.517030586806201e+000	 4.165208525057891e+000	 9.337434645056816e-003
1	 2.471572479432886e+000	 4.192342475057773e+000	 9.531455761414437e-004
1	 2.425885225307669e+000	 4.218943905654851e+000	-6.598069762205740e-003
1	 2.379977994700152e+000	 4.245010283123538e+000	-1.272572325797778e-002
1	 2.843556101683741e+000	 3.982319494787302e+000	 3.171924516146673e-002
1	 2.799716453454992e+000	 4.013261490097004e+000	 3.302891660176840e-002
1	 2.755583084603597e+000	 4.043691662474240e+000	 3.166137205850304e-002
1	 2.711164868954809e+000	 4.073606024124798e+000	 2.810188072666538e-002
1	 2.666470747133636e+000	 4.103000790316870e+000	 2.284203661958235e-002
1	 2.621509720825070e+000	 4.131872380593638e+000	 1.637886424476746e-002
1	 2.576290847016447e+000	 4.160217419793572e+000	 9.213922592709834e-003
1	 2.530823232229287e+000	 4.188032738878607e+000	 1.852409317348694e-003
1	 2.485116026748009e+000	 4.215315375570761e+000	-5.197733034001176e-003
1	 2.439178418852812e+000	 4.242062574798013e+000	-1.142670690982736e-002
1	 2.393019629063903e+000	 4.268271788950621e+000	-1.632374396274480e-002
1	 2.859052975115711e+000	 4.004022425537404e+000	 2.213489196885016e-002
1	 2.814974408625451e+000	 4.035133049201670e+000	 2.292150232088061e-002
1	 2.770600520787481e+000	 4.065729060589862e+000	 2.160100114778538e-002
1	 2.725940233787844e+000	 4.095806450174977e+000	 1.856867235338557e-002
1	 2.681002536976385e+000	 4.125361412599069e+000	 1.422429395710789e-002
1	 2.635796481095702e+000	 4.154390347892455e+000	 8.971412961371578e-003
1	 2.590331172492116e+000	 4.182889862499548e+000	 3.216619980316751e-003
1	 2.544615767316093e+000	 4.210856770111573e+000	-2.631174858703468e-003
1	 2.498659465719494e+000	 4.238288092306640e+000	-8.161463249156512e-003
1	 2.452471506057028e+000	 4.265181058998053e+000	-1.296285580712692e-002
1	 2.406061159099123e+000	 4.291533108692034e+000	-1.662379350115896e-002
1	 2.874549697458392e+000	 4.025725144687677e+000	 1.367580606630607e-002
1	 2.830232215035976e+000	 4.057004395062370e+000	 1.408730315342860e-002
1	 2.785617810556359e+000	 4.087766243844597e+000	 1.302739516397880e-002
1	 2.740715454565916e+000	 4.118006659774781e+000	 1.078028069008942e-002
1	 2.695534185138857e+000	 4.147721816869036e+000	 7.632989624454682e-003
1	 2.650083102074918e+000	 4.176908095644997e+000	 3.874863679893342e-003
1	 2.604371361078937e+000	 4.205562084153207e+000	-2.029625696331321e-004
1	 2.558408167929847e+000	 4.233680578814339e+000	-4.308079051017633e-003
1	 2.512202772646476e+000	 4.261260585062754e+000	-8.147314897248115e-003
1	 2.465764463657564e+000	 4.288299317797230e+000	-1.142724945488452e-002
1	 2.419102561983274e+000	 4.314794201640082e+000	-1.385471857441062e-002
1	 2.890046241592473e+000	 4.047427614257718e+000	 6.308451197746388e-003
1	 2.845489845985365e+000	 4.078875489403575e+000	 6.466362816981820e-003
1	 2.800634927629938e+000	 4.109803173672678e+000	 5.854978351633990e-003
1	 2.755490505432347e+000	 4.140206614073120e+000	 4.626630856628985e-003
1	 2.710065666190624e+000	 4.170081963995318e+000	 2.934987413818918e-003
1	 2.664369558761082e+000	 4.199425584444443e+000	 9.347714611767853e-004
1	 2.618411388206522e+000	 4.228234045077379e+000	-1.218514278906838e-003
1	 2.572200409933783e+000	 4.256504125044452e+000	-3.368863700651132e-003
1	 2.525745923828092e+000	 4.284232813636448e+000	-5.360041482852981e-003
1	 2.479057268391664e+000	 4.311417310737799e+000	-7.035854972183394e-003
1	 2.432143814893819e+000	 4.338055027087065e+000	-8.240423242489579e-003
1	 2.905542580398644e+000	 4.069129796267133e+000	 0.000000000000000e+000
1	 2.860747274772420e+000	 4.100746293949762e+000	 0.000000000000000e+000
1	 2.815651845727925e+000	 4.131839811508338e+000	 0.000000000000000e+000
1	 2.770265360530463e+000	 4.162406274218905e+000	 0.000000000000000e+000
1	 2.724596954701255e+000	 4.192441814846461e+000	 0.000000000000000e+000
1	 2.678655826152554e+000	 4.221942774883971e+000	 0.000000000000000e+000
1	 2.632451229304479e+000	 4.250905705594900e+000	 0.000000000000000e+000
1	 2.585992469191127e+000	 4.279327368859455e+000	 0.000000000000000e+000
1	 2.539288895563483e+000	 4.307204737825071e+000	 0.000000000000000e+000
1	 2.492349896996570e+000	 4.334534997362014e+000	 0.000000000000000e+000
1	 2.445184895008223e+000	 4.361315544325288e+000	 0.000000000000000e+000
1	 2.314769056742236e+000	 4.128701387472491e+000	 6.310700471174818e-002
1	 2.269921375286927e+000	 4.153527231960959e+000	 5.296120931828378e-002
1	 2.224877713832085e+000	 4.177828517788692e+000	 4.531880920671905e-002
1	 2.179647050109438e+000	 4.201603386542996e+000	 3.974793129096712e-002
1	 2.134238370909848e+000	 4.224850179576209e+000	 3.580129062551642e-002
1	 2.088660666674489e+000	 4.247567437359611e+000	 3.301719071520646e-002
1	 2.042922926136646e+000	 4.269753898666801e+000	 3.092053537046944e-002
1	 1.997034131020162e+000	 4.291408499589529e+000	 2.902384984820854e-002
1	 1.951003250800438e+000	 4.312530372389278e+000	 2.682830903304405e-002
1	 1.904839237533663e+000	 4.333118844188068e+000	 2.382477043461038e-002
1	 1.858551020759794e+000	 4.353173435502171e+000	 1.949480980372668e-002
1	 2.327810870410583e+000	 4.151963213112461e+000	 3.940370467867285e-002
1	 2.282710509275002e+000	 4.176928930750042e+000	 3.061511897246293e-002
1	 2.237413063954258e+000	 4.201367134271600e+000	 2.441989689973132e-002
1	 2.191927562762202e+000	 4.225275954793839e+000	 2.038548299047180e-002
1	 2.146263043122858e+000	 4.248653724323997e+000	 1.806475556680023e-002
1	 2.100428546131131e+000	 4.271498975110129e+000	 1.699701603778664e-002
1	 2.054433111164409e+000	 4.293810438819873e+000	 1.670898840513508e-002
1	 2.008285770551152e+000	 4.315587045550745e+000	 1.671582676509344e-002
1	 1.961995544302362e+000	 4.336827922675253e+000	 1.652212860896326e-002
1	 1.915571434911692e+000	 4.357532393524315e+000	 1.562295174783005e-002
1	 1.869022422229697e+000	 4.377699975912726e+000	 1.350483271631530e-002
1	 2.340852693863086e+000	 4.175225056205249e+000	 2.022164664942493e-002
1	 2.295499652857716e+000	 4.200330647096901e+000	 1.272879228340855e-002
1	 2.249948423480745e+000	 4.224905768415010e+000	 7.836893981201158e-003
1	 2.204208084628181e+000	 4.248948540805665e+000	 5.122906804666892e-003
1	 2.158287724357238e+000	 4.272457286930998e+000	 4.150222777490003e-003
1	 2.112196434416588e+000	 4.295430530815842e+000	 4.469628914890385e-003
1	 2.065943304827759e+000	 4.317866997021875e+000	 5.620274171656681e-003
1	 2.019537418523855e+000	 4.339765609652385e+000	 7.130643180009187e-003
1	 1.972987846051518e+000	 4.361125491190895e+000	 8.519534667419105e-003
1	 1.926303640341893e+000	 4.381945961177230e+000	 9.297042468972403e-003
1	 1.879493831556171e+000	 4.402226534724702e+000	 8.965537079097030e-003
1	 2.353894504277207e+000	 4.198486876043154e+000	 5.305148342715968e-003
1	 2.308288783654709e+000	 4.223732340049086e+000	-9.591671624632210e-004
1	 2.262483770475299e+000	 4.248444379026887e+000	-4.694678149947514e-003
1	 2.216488594217080e+000	 4.272621103152047e+000	-6.304899303006816e-003
1	 2.170312393570410e+000	 4.296260825741617e+000	-6.205748809729117e-003
1	 2.123964310937664e+000	 4.319362062597204e+000	-4.824641665553487e-003
1	 2.077453486984452e+000	 4.341923531174544e+000	-2.599575308765946e-003
1	 2.030789055248471e+000	 4.363944149582699e+000	 2.179040938123698e-005
1	 1.983980136811944e+000	 4.385423035416231e+000	 2.583056937529295e-003
1	 1.937035835043453e+000	 4.406359504423866e+000	 4.620012462441548e-003
1	 1.889965230414765e+000	 4.426753069017446e+000	 5.661557145121260e-003
1	 2.366936278830408e+000	 4.221748631918484e+000	-5.595806674155755e-003
1	 2.321077879285621e+000	 4.247133968654143e+000	-1.070436244556250e-002
1	 2.275019083001671e+000	 4.271982924915197e+000	-1.343343625783088e-002
1	 2.228769070038613e+000	 4.296293600406571e+000	-1.415716208285441e-002
1	 2.182337029719799e+000	 4.320064299100254e+000	-1.326076262747669e-002
1	 2.135732155101160e+000	 4.343293528574663e+000	-1.113971385664289e-002
1	 2.088963637492247e+000	 4.365979999179607e+000	-8.198903060300482e-003
1	 2.042040661035200e+000	 4.388122623029947e+000	-4.851782298550080e-003
1	 1.994972397347677e+000	 4.409720512831290e+000	-1.519519040466447e-003
1	 1.947768000235553e+000	 4.430772980541284e+000	 1.369854212095800e-003
1	 1.900436600481028e+000	 4.451279535870308e+000	 3.382289553363910e-003
1	 2.379977994700152e+000	 4.245010283123538e+000	-1.272572325797778e-002
1	 2.333866917370094e+000	 4.270535491959619e+000	-1.675676105755644e-002
1	 2.287554339123615e+000	 4.295521364887908e+000	-1.863229489511671e-002
1	 2.241049490602490e+000	 4.319965991142815e+000	-1.868739301949301e-002
1	 2.194361611762827e+000	 4.343867665351315e+000	-1.726674350863682e-002
1	 2.147499946313881e+000	 4.367224886868669e+000	-1.472390972712665e-002
1	 2.100473736208903e+000	 4.390036358938797e+000	-1.142058049849187e-002
1	 2.053292216194243e+000	 4.412300987682381e+000	-7.725816619628944e-003
1	 2.005964608422758e+000	 4.434017880916100e+000	-4.015295326565919e-003
1	 1.958500117137380e+000	 4.455186346806542e+000	-6.705542983572914e-004
1	 1.910907923430507e+000	 4.475805892362633e+000	 1.921763240835265e-003
1	 2.393019629063903e+000	 4.268271788950621e+000	-1.632374396274480e-002
1	 2.346655875527765e+000	 4.293936869013054e+000	-1.936084753370675e-002
1	 2.300089516904883e+000	 4.319059657752982e+000	-2.053862085547099e-002
1	 2.253329834418422e+000	 4.343638233934360e+000	-2.014354316655699e-002
1	 2.206386118656919e+000	 4.367670882839204e+000	-1.847009156741048e-002
1	 2.159267663982630e+000	 4.391156095599676e+000	-1.582010695541451e-002
1	 2.111983762992179e+000	 4.414092568353846e+000	-1.250215580680406e-002
1	 2.064543701035800e+000	 4.436479201228258e+000	-8.830889185773932e-003
1	 2.016956750801223e+000	 4.458315097150689e+000	-5.126400344943307e-003
1	 1.969232166968115e+000	 4.479599560496697e+000	-1.713582261486373e-003
1	 1.921379180938751e+000	 4.500332095573771e+000	 1.078513570235635e-003
1	 2.406061159099123e+000	 4.291533108692034e+000	-1.662379350115896e-002
1	 2.359444731378276e+000	 4.317338058861998e+000	-1.875577116528020e-002
1	 2.312624594409227e+000	 4.342597762318389e+000	-1.939438264739527e-002
1	 2.265610079996117e+000	 4.367310287354787e+000	-1.876815299047982e-002
1	 2.218410529359499e+000	 4.391473909908328e+000	-1.711183112021120e-002
1	 2.171035287514209e+000	 4.415087112888133e+000	-1.466588563395280e-002
1	 2.123493697699832e+000	 4.438148585326483e+000	-1.167599753050220e-002
1	 2.075795095870068e+000	 4.460657221355827e+000	-8.392550974389375e-003
1	 2.027948805247112e+000	 4.482612119015087e+000	-5.070123175168917e-003
1	 1.979964130946946e+000	 4.504012578888808e+000	-1.966974445830002e-003
1	 1.931850354681307e+000	 4.524858102583068e+000	 6.554605146892529e-004
1	 2.419102561983274e+000	 4.314794201640082e+000	-1.385471857441063e-002
1	 2.372233462541266e+000	 4.340739020553997e+000	-1.517548897597672e-002
1	 2.325159549700400e+000	 4.366135637392092e+000	-1.543629517559898e-002
1	 2.277890205845287e+000	 4.390982109977675e+000	-1.479849740995663e-002
1	 2.230434822827990e+000	 4.415276704903087e+000	-1.342775483184549e-002
1	 2.182802796315422e+000	 4.439017896854491e+000	-1.149367036677940e-002
1	 2.135003520189621e+000	 4.462204367758440e+000	-9.169433566689238e-003
1	 2.087046381007252e+000	 4.484835005753348e+000	-6.631462228791249e-003
1	 2.038940752524462e+000	 4.506908903989322e+000	-4.059043537949321e-003
1	 1.990695990293054e+000	 4.528425359259935e+000	-1.633975479054903e-003
1	 1.942321426333725e+000	 4.549383870469874e+000	 4.597907478515887e-004
1	 2.432143814893819e+000	 4.338055027087065e+000	-8.240423242489579e-003
1	 2.385022046636375e+000	 4.364139713136595e+000	-8.848904138506910e-003
1	 2.337694360842154e+000	 4.389673241782057e+000	-8.895959808135947e-003
1	 2.290170190475642e+000	 4.414653660376604e+000	-8.466726209755660e-003
1	 2.242458978019817e+000	 4.439079226167888e+000	-7.648563264558111e-003
1	 2.194570169793072e+000	 4.462948405619200e+000	-6.530867835309576e-003
1	 2.146513210319304e+000	 4.486259873551445e+000	-5.204885721724596e-003
1	 2.098297536757549e+000	 4.509012512109074e+000	-3.763523075844450e-003
1	 2.049932573397312e+000	 4.531205409553420e+000	-2.301157635512726e-003
1	 2.001427726225625e+000	 4.552837858887132e+000	-9.134501676801691e-004
1	 1.952792377571551e+000	 4.573909356313535e+000	 3.028434941440594e-004
1	 2.445184895008223e+000	 4.361315544325288e+000	 0.000000000000000e+000
1	 2.397810461283245e+000	 4.387540095657339e+000	 0.000000000000000e+000
1	 2.350229005898243e+000	 4.413210534296250e+000	 0.000000000000000e+000
1	 2.302450012396893e+000	 4.438324897125159e+000	 0.000000000000000e+000
1	 2.254482973892404e+000	 4.462881432047135e+000	 0.000000000000000e+000
1	 2.206337387353962e+000	 4.486878597302711e+000	 0.000000000000000e+000
1	 2.158022747946641e+000	 4.510315060607234e+000	 0.000000000000000e+000
1	 2.109548543431158e+000	 4.533189698111257e+000	 0.000000000000000e+000
1	 2.060924248629702e+000	 4.555501593187414e+000	 0.000000000000000e+000
1	 2.012159319963842e+000	 4.577250035047464e+000	 0.000000000000000e+000
1	 1.963263190070333e+000	 4.598434517193399e+000	 0.000000000000000e+000
1	 1.858551020759794e+000	 4.353173435502171e+000	 1.949480980372668e-002
1	 1.812140533433458e+000	 4.372696747465477e+000	 1.342236144500047e-002
1	 1.765623585772689e+000	 4.391685636628613e+000	 5.784446966200440e-003
1	 1.719009016112671e+000	 4.410140196866270e+000	-3.059432460221093e-003
1	 1.672305620595791e+000	 4.428060708201621e+000	-1.275424415563090e-002
1	 1.625522148514562e+000	 4.445447634610877e+000	-2.294992872946831e-002
1	 1.578667297757052e+000	 4.462301621696777e+000	-3.330188747876856e-002
1	 1.531749710358706e+000	 4.478623494235841e+000	-4.347145175925612e-002
1	 1.484777968164294e+000	 4.494414253604442e+000	-5.312633375129756e-002
1	 1.437760588603412e+000	 4.509675075088746e+000	-6.194105810131239e-002
1	 1.390706020582741e+000	 4.524407305083716e+000	-6.959737397660529e-002
1	 1.869022422229697e+000	 4.377699975912726e+000	 1.350483271631527e-002
1	 1.822350450101617e+000	 4.397333285629620e+000	 9.803136807905961e-003
1	 1.775571417823013e+000	 4.416429161514879e+000	 4.701531730353846e-003
1	 1.728694213525793e+000	 4.434987697972089e+000	-1.502950709147465e-003
1	 1.681727682911335e+000	 4.453009176602113e+000	-8.520080128673228e-003
1	 1.634680624567193e+000	 4.470494063995282e+000	-1.606679253667033e-002
1	 1.587561785386847e+000	 4.487443009391756e+000	-2.386753646807676e-002
1	 1.540379856096477e+000	 4.503856842214985e+000	-3.165459996784783e-002
1	 1.493143466892459e+000	 4.519736569483269e+000	-3.916841815142910e-002
1	 1.445861183193071e+000	 4.535083373104527e+000	-4.615786112439220e-002
1	 1.398541501507601e+000	 4.549898607059533e+000	-5.238050209545058e-002
1	 1.879493831556171e+000	 4.402226534724702e+000	 8.965537079096999e-003
1	 1.832560374430207e+000	 4.421969842277712e+000	 7.199911378518111e-003
1	 1.785519257337162e+000	 4.441172704965379e+000	 4.175230403309979e-003
1	 1.738379418205698e+000	 4.459835217720181e+000	 1.322277651206388e-004
1	 1.691149752296235e+000	 4.477957663720667e+000	-4.696861316825937e-003
1	 1.643839107491402e+000	 4.495540512171281e+000	-1.008854552552413e-002
1	 1.596456279690133e+000	 4.512584415949611e+000	-1.582830341319984e-002
1	 1.549010008309379e+000	 4.529090209126037e+000	-2.171078975602219e-002
1	 1.501508971897163e+000	 4.545058904360770e+000	-2.754002227588730e-002
1	 1.453961783860480e+000	 4.560491690183496e+000	-3.312954875643848e-002
1	 1.406376988311272e+000	 4.575389928160809e+000	-3.830259462703270e-002
1	 1.889965230414765e+000	 4.426753069017446e+000	 5.661557145121291e-003
1	 1.842770288552342e+000	 4.446606374296625e+000	 5.413994305562962e-003
1	 1.795467086906851e+000	 4.465916223679772e+000	 4.032369785451070e-003
1	 1.748064613203671e+000	 4.484682712628255e+000	 1.707181787101859e-003
1	 1.700571812262212e+000	 4.502906125898311e+000	-1.380637997264796e-003
1	 1.652997581260137e+000	 4.520586935308484e+000	-5.059870611585094e-003
1	 1.605350765101788e+000	 4.537725797373788e+000	-9.169136519969359e-003
1	 1.557640151894845e+000	 4.554323550811518e+000	-1.355700287769340e-002
1	 1.509874468538930e+000	 4.570381213923803e+000	-1.808207156241161e-002
1	 1.462062376429717e+000	 4.585899981862074e+000	-2.261304818150387e-002
1	 1.414212467281752e+000	 4.600881223778737e+000	-2.702879231246579e-002
1	 1.900436600481028e+000	 4.451279535870308e+000	 3.382289553363910e-003
1	 1.852980174601130e+000	 4.471242838573231e+000	 4.251086504412078e-003
1	 1.805414889123797e+000	 4.490659674357718e+000	 4.103603032663806e-003
1	 1.757749781570993e+000	 4.509530139214029e+000	 3.086058771263014e-003
1	 1.709993846320988e+000	 4.527854519476076e+000	 1.334660623332181e-003
1	 1.662156029846346e+000	 4.545633289576499e+000	-1.024464154316860e-003
1	 1.614245226056694e+000	 4.562867109667729e+000	-3.875316034903646e-003
1	 1.566270271750308e+000	 4.579556823113962e+000	-7.112052745300874e-003
1	 1.518239942178288e+000	 4.595703453859223e+000	-1.063900054115535e-002
1	 1.470162946724856e+000	 4.611308203676677e+000	-1.437064758241667e-002
1	 1.422047924707039e+000	 4.626372449304512e+000	-1.823161979355616e-002
1	 1.910907923430507e+000	 4.475805892362633e+000	 1.921763240835265e-003
1	 1.863190014709682e+000	 4.495879191994394e+000	 3.521160626082394e-003
1	 1.815362646579719e+000	 4.515403013698873e+000	 4.223305020639708e-003
1	 1.767434906358945e+000	 4.534377453995209e+000	 4.135990754809537e-003
1	 1.719415837984281e+000	 4.552802800794987e+000	 3.357168313739402e-003
1	 1.671314437222977e+000	 4.570679531144937e+000	 1.974936950028952e-003
1	 1.623139646989730e+000	 4.588008308834882e+000	 6.755471634851478e-005
1	 1.574900352773204e+000	 4.604789981875901e+000	-2.296534443186909e-003
1	 1.526605378175763e+000	 4.621025579853892e+000	-5.058656937784492e-003
1	 1.478263480569972e+000	 4.636716311163720e+000	-8.169849537461929e-003
1	 1.429883346875132e+000	 4.651863560129327e+000	-1.159078359951561e-002
1	 1.921379180938751e+000	 4.500332095573771e+000	 1.078513570235635e-003
1	 1.873399791011110e+000	 4.520515391446992e+000	 3.038344915841556e-003
1	 1.825310341866332e+000	 4.540146198402895e+000	 4.229471099862978e-003
1	 1.777119970618810e+000	 4.559224613489509e+000	 4.727013151387695e-003
1	 1.728837770763811e+000	 4.577750926196077e+000	 4.597025605674457e-003
1	 1.680472787362977e+000	 4.595725616183406e+000	 3.896529053467395e-003
1	 1.632034012335777e+000	 4.613149350878687e+000	 2.673558000210919e-003
1	 1.583530379860965e+000	 4.630022982939862e+000	 9.672236393435115e-004
1	 1.534970761891882e+000	 4.646347547594663e+000	-1.192208883872068e-003
1	 1.486363963789141e+000	 4.662124259859619e+000	-3.783229167360148e-003
1	 1.437718720074029e+000	 4.677354511644375e+000	-6.792976679356044e-003
1	 1.931850354681307e+000	 4.524858102583068e+000	 6.554605146892529e-004
1	 1.883609485638523e+000	 4.545151393817890e+000	 2.620810815192516e-003
1	 1.835257957575353e+000	 4.564889185169442e+000	 3.963619113815755e-003
1	 1.786804957401869e+000	 4.584071574214638e+000	 4.731986123405699e-003
1	 1.738259628171301e+000	 4.602698852020377e+000	 4.966325393044103e-003
1	 1.689631064239296e+000	 4.620771500861515e+000	 4.699416386273669e-003
1	 1.640928306529714e+000	 4.638290191802595e+000	 3.956470066952924e-003
1	 1.592160337911028e+000	 4.655255782148380e+000	 2.755206616168696e-003
1	 1.543336078687171e+000	 4.671669312768398e+000	 1.105944882231745e-003
1	 1.494464382206437e+000	 4.687532005300789e+000	-9.882968539513563e-004
1	 1.445554030591727e+000	 4.702845259240850e+000	-3.531689233879442e-003
1	 1.942321426333725e+000	 4.549383870469874e+000	 4.597907478515926e-004
1	 1.893819080725033e+000	 4.569787155993959e+000	 2.090664167268881e-003
1	 1.845205476298500e+000	 4.589631930698174e+000	 3.270694558383190e-003
1	 1.796489849759405e+000	 4.608918292688313e+000	 4.026518475060219e-003
1	 1.747681393718468e+000	 4.627646534608914e+000	 4.379060275204608e-003
1	 1.698789251824879e+000	 4.645817141348874e+000	 4.343586500308056e-003
1	 1.649822514006423e+000	 4.663430787610048e+000	 3.929769273473671e-003
1	 1.600790211820825e+000	 4.680488335343983e+000	 3.141758411991999e-003
1	 1.551701313922157e+000	 4.696990831061952e+000	 1.978261935875685e-003
1	 1.502564721645936e+000	 4.712939503023649e+000	 4.326346403649488e-004
1	 1.453389264716227e+000	 4.728335758309949e+000	-1.507025611692976e-003
1	 1.952792377571551e+000	 4.573909356313535e+000	 3.028434941440594e-004
1	 1.904028558403749e+000	 4.594422634862072e+000	 1.273839891615785e-003
1	 1.855152880627489e+000	 4.614374391688747e+000	 1.998978765621725e-003
1	 1.806174630742698e+000	 4.633764725428240e+000	 2.488893972309494e-003
1	 1.757103050917035e+000	 4.652593930302718e+000	 2.751071579363851e-003
1	 1.707947334092676e+000	 4.670862493815091e+000	 2.789886495426523e-003
1	 1.658716619200784e+000	 4.688571094304492e+000	 2.606643947102909e-003
1	 1.609419986487791e+000	 4.705720598369203e+000	 2.199625625287127e-003
1	 1.560066452957367e+000	 4.722312058162185e+000	 1.564140315001110e-003
1	 1.510664967931713e+000	 4.738346708564613e+000	 6.925788161254831e-004
1	 1.461224408735526e+000	 4.753825964242861e+000	-4.255270436931876e-004
1	 1.963263190070333e+000	 4.598434517193399e+000	 0.000000000000000e+000
1	 1.914237900807783e+000	 4.619057787309098e+000	 0.000000000000000e+000
1	 1.865100153154037e+000	 4.639116524840821e+000	 0.000000000000000e+000
1	 1.815859283403032e+000	 4.658610828952133e+000	 0.000000000000000e+000
1	 1.766524583278722e+000	 4.677540995442822e+000	 0.000000000000000e+000
1	 1.717105295015633e+000	 4.695907514429774e+000	 0.000000000000000e+000
1	 1.667610606547676e+000	 4.713711067889371e+000	 0.000000000000000e+000
1	 1.618049646809361e+000	 4.730952527066571e+000	 0.000000000000000e+000
1	 1.568431481153328e+000	 4.747632949755955e+000	 0.000000000000000e+000
1	 1.518765106887843e+000	 4.763753577460099e+000	 0.000000000000000e+000
1	 1.469059448937622e+000	 4.779315832430783e+000	 0.000000000000000e+000
1	 1.390706020582741e+000	 4.524407305083716e+000	-6.959737397660529e-002
1	 1.343622639825983e+000	 4.538612457056611e+000	-7.699880659031538e-002
1	 1.296518743060277e+000	 4.552292205158869e+000	-8.475662234655970e-002
1	 1.249402546410590e+000	 4.565448384531957e+000	-9.212215835059313e-002
1	 1.202282182474618e+000	 4.578082989255348e+000	-9.835076495652992e-002
1	 1.155165696837305e+000	 4.590198169078671e+000	-1.027029289853235e-001
1	 1.108061044715827e+000	 4.601796226075082e+000	-1.044453646690710e-001
1	 1.060976087736485e+000	 4.612879611221273e+000	-1.028520709543262e-001
1	 1.013918590844765e+000	 4.623450920909603e+000	-9.720535391151254e-002
1	 9.668962193495460e-001	 4.633512893397808e+000	-8.679681311214473e-002
1	 9.199165361022298e-001	 4.643068405201682e+000	-7.092829094999904e-002
1	 1.398541501507601e+000	 4.549898607059533e+000	-5.238050209545058e-002
1	 1.351192844750042e+000	 4.564183793342687e+000	-5.872438402011286e-002
1	 1.303823556392736e+000	 4.577940615537889e+000	-6.576552389126149e-002
1	 1.256441898851737e+000	 4.591170919126120e+000	-7.279807836302642e-002
1	 1.209056050545213e+000	 4.603876709421853e+000	-7.911443009549672e-002
1	 1.161674102388337e+000	 4.616060148286783e+000	-8.400637773801697e-002
1	 1.114304054419368e+000	 4.627723550764355e+000	-8.676630164180973e-002
1	 1.066953812558383e+000	 4.638869381640499e+000	-8.668830359575658e-002
1	 1.019631185499925e+000	 4.649500251936108e+000	-8.306931898459632e-002
1	 9.723438817405614e-001	 4.659618915336745e+000	-7.521019987574210e-002
1	 9.250995067421181e-001	 4.669228264565003e+000	-6.241676764885404e-002
1	 1.406376988311272e+000	 4.575389928160809e+000	-3.830259462703270e-002
1	 1.358763055353852e+000	 4.589755148814241e+000	-4.388245113054608e-002
1	 1.311128375205806e+000	 4.603589045160168e+000	-5.037209139564958e-002
1	 1.263481256574304e+000	 4.616893473019093e+000	-5.711611519008823e-002
1	 1.215829923698024e+000	 4.629670448940495e+000	-6.345279135922159e-002
1	 1.168182512822401e+000	 4.641922146898160e+000	-6.871527375197864e-002
1	 1.120547068806810e+000	 4.653650894905825e+000	-7.223279979594709e-002
1	 1.072931541865138e+000	 4.664859171558672e+000	-7.333186978444306e-002
1	 1.025343784441015e+000	 4.675549602506140e+000	-7.133740503433926e-002
1	 9.777915482187310e-001	 4.685724956861635e+000	-6.557388317180321e-002
1	 9.302824812705675e-001	 4.695388143554560e+000	-5.536644890343311e-002
1	 1.414212467281752e+000	 4.600881223778737e+000	-2.702879231246579e-002
1	 1.366333258389628e+000	 4.615326478722449e+000	-3.205128560503116e-002
1	 1.318433186716127e+000	 4.629237449142049e+000	-3.808514531634740e-002
1	 1.270520607259488e+000	 4.642616001197559e+000	-4.453284215291523e-002
1	 1.222603790078848e+000	 4.655464162673450e+000	-5.078717623568217e-002
1	 1.174690916749863e+000	 4.667784119655579e+000	-5.623247854625743e-002
1	 1.126790076952974e+000	 4.679578213127977e+000	-6.024580086742202e-002
1	 1.078909265195828e+000	 4.690848935495056e+000	-6.219809215684091e-002
1	 1.031056377671105e+000	 4.701598927034792e+000	-6.145535937874281e-002
1	 9.832392092507666e-001	 4.711830972288416e+000	-5.737981090729063e-002
1	 9.354654506175086e-001	 4.721547996392132e+000	-4.933098070699211e-002
1	 1.422047924707039e+000	 4.626372449304512e+000	-1.823161979355616e-002
1	 1.373903440609585e+000	 4.640897738318490e+000	-2.281846269121194e-002
1	 1.325737978140341e+000	 4.654885782599885e+000	-2.842433303044504e-002
1	 1.277559938588484e+000	 4.668338458648202e+000	-3.451680894585091e-002
1	 1.229377637833484e+000	 4.681257805482884e+000	-4.055166283853904e-002
1	 1.181199302781087e+000	 4.693646021301823e+000	-4.597400831120222e-002
1	 1.133033067932675e+000	 4.705505460059300e+000	-5.021944037638736e-002
1	 1.084886972089533e+000	 4.716838627968924e+000	-5.271516685911022e-002
1	 1.036768955193263e+000	 4.727648179937164e+000	-5.288112899020647e-002
1	 9.886868553033802e-001	 4.737936915933037e+000	-5.013110926551642e-002
1	 9.406484057128736e-001	 4.747707777299493e+000	-4.387382472778791e-002
1	 1.429883346875132e+000	 4.651863560129327e+000	-1.159078359951561e-002
1	 1.381473588765937e+000	 4.666468882853536e+000	-1.578060074934028e-002
1	 1.333042736695088e+000	 4.680534000650019e+000	-2.091983245402004e-002
1	 1.284599238242489e+000	 4.694060800357713e+000	-2.654821371516509e-002
1	 1.236151455107730e+000	 4.707051332230971e+000	-3.219273070980949e-002
1	 1.187707659526437e+000	 4.719507806579669e+000	-3.736867356494693e-002
1	 1.139276030820732e+000	 4.731432590328278e+000	-4.158068612607566e-002
1	 1.090864652085331e+000	 4.742828203499541e+000	-4.432381072851725e-002
1	 1.042481507010558e+000	 4.753697315628349e+000	-4.508452604434314e-002
1	 9.941344768432837e-001	 4.764042742111435e+000	-4.334177614535512e-002
1	 9.458313374865938e-001	 4.773867440498423e+000	-3.856798899344817e-002
1	 1.437718720074029e+000	 4.677354511644375e+000	-6.792976679356044e-003
1	 1.389043689610899e+000	 4.692039867578768e+000	-1.054311504541488e-002
1	 1.340347449597012e+000	 4.706182058408798e+000	-1.511206526398727e-002
1	 1.291638493902698e+000	 4.719782981312770e+000	-2.011858576298741e-002
1	 1.242925230047382e+000	 4.732844697779878e+000	-2.516892293707587e-002
1	 1.194215975596279e+000	 4.745369430231895e+000	-2.985773048550599e-002
1	 1.145518954691962e+000	 4.757359558563401e+000	-3.376898841468920e-002
1	 1.096842294722300e+000	 4.768817616606178e+000	-3.647691990643662e-002
1	 1.048194023126059e+000	 4.779746288523452e+000	-3.754690430515991e-002
1	 9.995820643371887e-001	 4.790148405139557e+000	-3.653638453304216e-002
1	 9.510142368686004e-001	 4.800026940210696e+000	-3.299576730103791e-002
1	 1.445554030591727e+000	 4.702845259240850e+000	-3.531689233879442e-003
1	 1.396613729896686e+000	 4.717610647745360e+000	-6.719979479118420e-003
1	 1.347652104062751e+000	 4.731829910992570e+000	-1.055141936222894e-002
1	 1.298677693250309e+000	 4.745504956500064e+000	-1.473047847699528e-002
1	 1.249698950798238e+000	 4.758637856991777e+000	-1.895051915983657e-002
1	 1.200724239600977e+000	 4.771230847001283e+000	-2.289454347951005e-002
1	 1.151761828621185e+000	 4.783286319393155e+000	-2.623594151994886e-002
1	 1.102819889539521e+000	 4.794806821808105e+000	-2.863923945316503e-002
1	 1.053906493542834e+000	 4.805795053037559e+000	-2.976084593920057e-002
1	 1.005029608251807e+000	 4.816253859333343e+000	-2.924979543311649e-002
1	 9.561970947888254e-001	 4.826186230658090e+000	-2.674848702474732e-002
1	 1.453389264716227e+000	 4.728335758309949e+000	-1.507025611692976e-003
1	 1.404183696375512e+000	 4.743181178604490e+000	-3.933495949827611e-003
1	 1.354956687308949e+000	 4.757477513517681e+000	-6.797980236394398e-003
1	 1.305716823966516e+000	 4.771226680906276e+000	-9.897172103461497e-003
1	 1.256472605506095e+000	 4.784430764728838e+000	-1.301921905780450e-002
1	 1.207232440150895e+000	 4.797092011630609e+000	-1.594425856739062e-002
1	 1.158004641683217e+000	 4.809212827446026e+000	-1.844495603474445e-002
1	 1.108797426076070e+000	 4.820795773624587e+000	-2.028704355311908e-002
1	 1.059618908263954e+000	 4.831843563585775e+000	-2.122985836863480e-002
1	 1.010477099053851e+000	 4.842359059008735e+000	-2.102688000102147e-002
1	 9.613799021772006e-001	 4.852345266062382e+000	-1.942626500715560e-002
1	 1.461224408735526e+000	 4.753825964242861e+000	-4.255270436931876e-004
1	 1.411753575799593e+000	 4.768751415407335e+000	-1.814071076594303e-003
1	 1.362261186552246e+000	 4.783124821100481e+000	-3.421270886442990e-003
1	 1.312755873732517e+000	 4.796948109518096e+000	-5.142385997521282e-003
1	 1.263246182316751e+000	 4.810223375853232e+000	-6.867835931253057e-003
1	 1.213740565856399e+000	 4.822952878862654e+000	-8.483487182665828e-003
1	 1.164247382952877e+000	 4.835139037350503e+000	-9.870941650259856e-003
1	 1.114774893871027e+000	 4.846784426574896e+000	-1.090782591648001e-002
1	 1.065331257292487e+000	 4.857891774583192e+000	-1.146808078986328e-002
1	 1.015924527210032e+000	 4.868463958481681e+000	-1.142225053507613e-002
1	 9.665626499636570e-001	 4.878504000645348e+000	-1.063777123336243e-002
1	 1.469059448937622e+000	 4.779315832430783e+000	 0.000000000000000e+000
1	 1.419323354921142e+000	 4.794321313405072e+000	 0.000000000000000e+000
1	 1.369565589009284e+000	 4.808771788857317e+000	 0.000000000000000e+000
1	 1.319794830229506e+000	 4.822669197322210e+000	 0.000000000000000e+000
1	 1.270019669376002e+000	 4.836015645227129e+000	 0.000000000000000e+000
1	 1.220248605327853e+000	 4.848813403440197e+000	 0.000000000000000e+000
1	 1.170490041504983e+000	 4.861064903735073e+000	 0.000000000000000e+000
1	 1.120752282463471e+000	 4.872772735178299e+000	 0.000000000000000e+000
1	 1.071043530631502e+000	 4.883939640444909e+000	 0.000000000000000e+000
1	 1.021371883187062e+000	 4.894568512068119e+000	 0.000000000000000e+000
1	 9.717453290781267e-001	 4.904662388628768e+000	 0.000000000000000e+000
1	 9.199165361022298e-001	 4.643068405201682e+000	-7.092829094999904e-002
1	 8.729940319637027e-001	 4.652119147953820e+000	-4.799702121115853e-002
1	 8.261289947556902e-001	 4.660669736692415e+000	-1.729203937412340e-002
1	 7.793286506718555e-001	 4.668723442970103e+000	 2.051988786092219e-002
1	 7.326001138313993e-001	 4.676283661565610e+000	 6.475903069877373e-002
1	 6.859503841394172e-001	 4.683353906675524e+000	 1.147340093633590e-001
1	 6.393863452817451e-001	 4.689937808080498e+000	 1.697430926112789e-001
1	 5.929147628536142e-001	 4.696039107290805e+000	 2.290754796216335e-001
1	 5.465422826212100e-001	 4.701661653676148e+000	 2.920125633383168e-001
1	 5.002754289150642e-001	 4.706809400584463e+000	 3.578291734420508e-001
1	 4.541206031540580e-001	 4.711486401454395e+000	 4.257947972320051e-001
1	 9.250995067421181e-001	 4.669228264565003e+000	-6.241676764885404e-002
1	 8.779126330095246e-001	 4.678330000784435e+000	-4.323045941778549e-002
1	 8.307835499861411e-001	 4.686928765035168e+000	-1.705723982044372e-002
1	 7.837195245792673e-001	 4.695027847302340e+000	 1.547684633782983e-002
1	 7.367277109902933e-001	 4.702630661491456e+000	 5.373065626197151e-002
1	 6.898151485630014e-001	 4.709740741598712e+000	 9.704926718887269e-002
1	 6.429887597671163e-001	 4.716361737855575e+000	 1.447652831807507e-001
1	 5.962553483164127e-001	 4.722497412852645e+000	 1.962001285508914e-001
1	 5.496215974204833e-001	 4.728151637647651e+000	 2.506653258779623e-001
1	 5.030940681690768e-001	 4.733328387862385e+000	 3.074637566629339e-001
1	 4.566791980477861e-001	 4.738031739773277e+000	 3.658909027823928e-001
1	 9.302824812705675e-001	 4.695388143554560e+000	-5.536644890343311e-002
1	 8.828312377455568e-001	 4.704540873279440e+000	-3.945377261210627e-002
1	 8.354381087086966e-001	 4.713187813078358e+000	-1.739611582251810e-002
1	 7.881104017809549e-001	 4.721332271368976e+000	 1.022871889484627e-002
1	 7.408553112459415e-001	 4.728977681183592e+000	 4.282607480666394e-002
1	 6.936799158861571e-001	 4.736127596318021e+000	 7.978574060676789e-002
1	 6.465911769552424e-001	 4.742785687454572e+000	 1.204832421868242e-001
1	 5.995959362855475e-001	 4.748955738264196e+000	 1.642811243756366e-001
1	 5.527009145300994e-001	 4.754641641492657e+000	 2.105302205252826e-001
1	 5.059127095378927e-001	 4.759847395035628e+000	 2.585709079152235e-001
1	 4.592377948612595e-001	 4.764577098007342e+000	 3.077343470408253e-001
1	 9.354654506175086e-001	 4.721547996392132e+000	-4.933098070699211e-002
1	 8.877498375643833e-001	 4.730751719571418e+000	-3.628655219873669e-002
1	 8.400926627780257e-001	 4.739446834870297e+000	-1.798752329279647e-002
1	 7.925012745930328e-001	 4.747636669138935e+000	 5.043897528507226e-003
1	 7.449829073751970e-001	 4.755324674536412e+000	 3.226726657705600e-002
1	 6.975446793456980e-001	 4.762514424658146e+000	 6.312516300056587e-002
1	 6.501935905420585e-001	 4.769209610637268e+000	 9.704444244985160e-002
1	 6.029365209151658e-001	 4.775414037225054e+000	 1.334374841301186e-001
1	 5.557802285614469e-001	 4.781131618855300e+000	 1.717034290781003e-001
1	 5.087313480891073e-001	 4.786366375697530e+000	 2.112294075933574e-001
1	 4.617963891171836e-001	 4.791122429703765e+000	 2.513917538412325e-001
1	 9.406484057128736e-001	 4.747707777299493e+000	-4.387382472778792e-002
1	 8.926684238585888e-001	 4.756962493792949e+000	-3.335674952378214e-002
1	 8.447472040487972e-001	 4.765705784459295e+000	-1.851737004372789e-002
1	 7.968921353316149e-001	 4.773940994581146e+000	 1.848864869850189e-004
1	 7.491104921549106e-001	 4.781671595444320e+000	 2.227134821562384e-002
1	 7.014094321784385e-001	 4.788901180443780e+000	 4.724529225606999e-002
1	 6.537959942234994e-001	 4.795633461163435e+000	 7.459313738864166e-002
1	 6.062770963594154e-001	 4.801872263434825e+000	 1.037856336374372e-001
1	 5.588595341259153e-001	 4.807621523379716e+000	 1.342790465719740e-001
1	 5.115499788903155e-001	 4.812885283441428e+000	 1.655163342583478e-001
1	 4.643549763382629e-001	 4.817667688409712e+000	 1.969283148665403e-001
1	 9.458313374865938e-001	 4.773867440498423e+000	-3.856798899344817e-002
1	 8.975869880207580e-001	 4.783173150076617e+000	-3.030044636637946e-002
1	 8.494017243756786e-001	 4.791964615893654e+000	-1.867842205037348e-002
1	 8.012829763128150e-001	 4.800245201664534e+000	-4.091535829445677e-003
1	 7.532380583619339e-001	 4.808018397801716e+000	 1.305070665668412e-002
1	 7.052741676211933e-001	 4.815287817499627e+000	 3.232002037192529e-002
1	 6.573983816954993e-001	 4.822057192792849e+000	 5.327044996383917e-002
1	 6.096176567724443e-001	 4.828330370593107e+000	 7.543947929178650e-002
1	 5.619388258348925e-001	 4.834111308710037e+000	 9.834913929593182e-002
1	 5.143685970091130e-001	 4.839404071860662e+000	 1.215071121686823e-001
1	 4.669135520472021e-001	 4.844212827672349e+000	 1.444078298621395e-001
1	 9.510142368686004e-001	 4.800026940210696e+000	-3.299576730103792e-002
1	 9.025055214434751e-001	 4.809383642555000e+000	-2.676163286604425e-002
1	 8.540562156133398e-001	 4.818223283221690e+000	-1.817011598971846e-002
1	 8.056737898527467e-001	 4.826549244358027e+000	-7.534160213023687e-003
1	 7.573655987731195e-001	 4.834365035503001e+000	 4.813128682396227e-003
1	 7.091388789107757e-001	 4.841674289650374e+000	 1.851947951944840e-002
1	 6.610007466539928e-001	 4.848480759285287e+000	 3.321445874026786e-002
1	 6.129581963083997e-001	 4.854788312399506e+000	 4.851047751575018e-002
1	 5.650180982997681e-001	 4.860600928490404e+000	 6.400380092934078e-002
1	 5.171871975130945e-001	 4.865922694548567e+000	 7.927555727213767e-002
1	 4.694721117667061e-001	 4.870757801038844e+000	 9.389274554742884e-002
1	 9.561970947888254e-001	 4.826186230658090e+000	-2.674848702474732e-002
1	 9.074240155193247e-001	 4.835593925360678e+000	-2.239199260624093e-002
1	 8.587106696164484e-001	 4.844481740491709e+000	-1.669837782068254e-002
1	 8.100645682675248e-001	 4.852853076630551e+000	-9.897195040978414e-003
1	 7.614931061653182e-001	 4.860711462442573e+000	-2.238073695703405e-003
1	 7.130035592839998e-001	 4.868060550720722e+000	 6.010144685262781e-003
1	 6.646030827949145e-001	 4.874904114400521e+000	 1.456028117658460e-002
1	 6.162987091214293e-001	 4.881246042553617e+000	 2.310770198008622e-002
1	 5.680973461319310e-001	 4.887090336364951e+000	 3.133120687058891e-002
1	 5.200057754698557e-001	 4.892441105098486e+000	 3.889392171640761e-002
1	 4.720306510194796e-001	 4.897302562056369e+000	 4.544419327439362e-002
1	 9.613799021772006e-001	 4.852345266062382e+000	-1.942626500715560e-002
1	 9.123424616408911e-001	 4.861803952626235e+000	-1.685069458654912e-002
1	 8.633650782396735e-001	 4.870739941752015e+000	-1.397544717891058e-002
1	 8.144553038732627e-001	 4.879156652451032e+000	-1.094011952707625e-002
1	 7.656205733153824e-001	 4.887057632514837e+000	-7.903941873500596e-003
1	 7.168682019776804e-001	 4.894446554535365e+000	-5.045066975454267e-003
1	 6.682053838141991e-001	 4.901327211898328e+000	-2.559845754041298e-003
1	 6.196391893656806e-001	 4.907703514755047e+000	-6.620913303024095e-004
1	 5.711765639427697e-001	 4.913579485977811e+000	 4.176668252366654e-004
1	 5.228243259469914e-001	 4.918959257103752e+000	 4.329369339567907e-004
1	 4.745891653282275e-001	 4.923847064272092e+000	-8.779745198585517e-004
1	 9.665626499636570e-001	 4.878504000645348e+000	-1.063777123336243e-002
1	 9.172608512007585e-001	 4.888013678484246e+000	-9.804191827163345e-003
1	 8.680194333376832e-001	 4.896997841050921e+000	-9.719707370025848e-003
1	 8.188459889860744e-001	 4.905459925788397e+000	-1.042754165146657e-002
1	 7.697479930001633e-001	 4.913403499614190e+000	-1.198975315993651e-002
1	 7.207328002286312e-001	 4.920832254918998e+000	-1.448669995271900e-002
1	 6.718076434077814e-001	 4.927750005538484e+000	-1.801648751291658e-002
1	 6.229796311953014e-001	 4.934160682703395e+000	-2.269440112404645e-002
1	 5.742557463436729e-001	 4.940068330973121e+000	-2.865232428158142e-002
1	 5.256428440120972e-001	 4.945477104157705e+000	-3.603814464579960e-002
1	 4.771476502156546e-001	 4.950391261233177e+000	-4.501514902173483e-002
1	 9.717453290781267e-001	 4.904662388628768e+000	 0.000000000000000e+000
1	 9.221791755915123e-001	 4.914223057067299e+000	-9.260263603113378e-004
1	 8.726737267651468e-001	 4.923255392436735e+000	-3.655520754177259e-003
1	 8.232366159220739e-001	 4.931762850611570e+000	-8.129060595702719e-003
1	 7.738753579965130e-001	 4.939749017635035e+000	-1.430490700829997e-002
1	 7.245973472736665e-001	 4.947217605696317e+000	-2.215866724527889e-002
1	 6.754098552715956e-001	 4.954172449080763e+000	-3.168293641936315e-002
1	 6.263200287644393e-001	 4.960617500098262e+000	-4.288691980789441e-002
1	 5.773348879460301e-001	 4.966556824995019e+000	-5.579603700648606e-002
1	 5.284613247327682e-001	 4.971994599853685e+000	-7.045150920618670e-002
1	 4.797061012044656e-001	 4.976935106486796e+000	-8.690993086793437e-002
1	 4.541206031540580e-001	 4.711486401454395e+000	 4.257947972320051e-001
1	 4.080772015327535e-001	 4.715697402914556e+000	 4.967614816824439e-001
1	 3.621583901065020e-001	 4.719445912825524e+000	 5.712762050744904e-001
1	 3.163702891928216e-001	 4.722736264607185e+000	 6.482000552554983e-001
1	 2.707188886346119e-001	 4.725572876349515e+000	 7.264235906311981e-001
1	 2.252100469680961e-001	 4.727960246918567e+000	 8.048677360559776e-001
1	 1.798494907136967e-001	 4.729902952083056e+000	 8.824846055883243e-001
1	 1.346428137874782e-001	 4.731405640665301e+000	 9.582582529595419e-001
1	 8.959547703070191e-002	 4.732473030720189e+000	 1.031205350730062e+000
1	 4.471280785492766e-002	 4.733109905745613e+000	 1.100375799226999e+000
1	 0.000000000000000e+000	 4.733321110927780e+000	 1.164853266467921e+000
1	 4.566791980477861e-001	 4.738031739773277e+000	 3.658909027823928e-001
1	 4.103763798492342e-001	 4.742266466752270e+000	 4.270935957904785e-001
1	 3.641988538086733e-001	 4.746036096423838e+000	 4.920747344415479e-001
1	 3.181527747266113e-001	 4.749344986623094e+000	 5.599620933680395e-001
1	 2.722441661938198e-001	 4.752197580332298e+000	 6.299190139210353e-001
1	 2.264789197545885e-001	 4.754598401764885e+000	 7.011447199620424e-001
1	 1.808627941936057e-001	 4.756552052470236e+000	 7.728745683167986e-001
1	 1.354014149440849e-001	 4.758063207462941e+000	 8.443802355311513e-001
1	 9.010027361466855e-002	 4.759136611380218e+000	 9.149698426494353e-001
1	 4.496472763253088e-002	 4.759777074671015e+000	 9.839880198082991e-001
1	 0.000000000000000e+000	 4.759989469820151e+000	 1.050815912504503e+000
1	 4.592377948612595e-001	 4.764577098007342e+000	 3.077343470408253e-001
1	 4.126755598908816e-001	 4.768835550523108e+000	 3.595537108280025e-001
1	 3.662393190419615e-001	 4.772626299971283e+000	 4.155447578404585e-001
1	 3.199352615980161e-001	 4.775953728602224e+000	 4.750604161142845e-001
1	 2.737694448977087e-001	 4.778822304290480e+000	 5.374958664263057e-001
1	 2.277477934934141e-001	 4.781236576596879e+000	 6.022883236291856e-001
1	 1.818760984341040e-001	 4.783201172851484e+000	 6.689167581380210e-001
1	 1.361600166701588e-001	 4.784720794261157e+000	 7.369015599962528e-001
1	 9.060507057761903e-002	 4.785800212045456e+000	 8.058041479878729e-001
1	 4.521664759929012e-002	 4.786444263604397e+000	 8.752265262944782e-001
1	 0.000000000000000e+000	 4.786657848721421e+000	 9.448107912192241e-001
1	 4.617963891171836e-001	 4.791122429703765e+000	 2.513917538412325e-001
1	 4.149747376344188e-001	 4.795404607732642e+000	 2.941978987392114e-001
1	 3.682797822358820e-001	 4.799216476936393e+000	 3.417303487173203e-001
1	 3.217177466880519e-001	 4.802562443980586e+000	 3.935263349583551e-001
1	 2.752947220774362e-001	 4.805447001632021e+000	 4.491726098083451e-001
1	 2.290166659644496e-001	 4.807874724798890e+000	 5.083047388676953e-001
1	 1.828894016623032e-001	 4.809850266591902e+000	 5.706063364358127e-001
1	 1.369186176384999e-001	 4.811378354410161e+000	 6.358082475204485e-001
1	 9.110986703643656e-002	 4.812463786055542e+000	 7.036876796263986e-001
1	 4.546856731450755e-002	 4.813111425879084e+000	 7.740672875330352e-001
1	 0.000000000000000e+000	 4.813326200962828e+000	 8.468142142570840e-001
1	 4.643549763382629e-001	 4.817667688409712e+000	 1.969283148665403e-001
1	 4.172739090565695e-001	 4.821973591886457e+000	 2.310810340293713e-001
1	 3.703202398199511e-001	 4.825806580787716e+000	 2.706746497979382e-001
1	 3.235002268777343e-001	 4.829171086194195e+000	 3.153905139492288e-001
1	 2.768199950641594e-001	 4.832071625764876e+000	 3.649673429570450e-001
1	 2.302855349475718e-001	 4.834512799755250e+000	 4.192000656325962e-001
1	 1.839027021053145e-001	 4.836499287056593e+000	 4.779386150524812e-001
1	 1.376772165219087e-001	 4.838035841260179e+000	 5.410866687645595e-001
1	 9.161466210800430e-002	 4.839127286750117e+000	 6.086003412347126e-001
1	 4.572048633748523e-002	 4.839778514828407e+000	 6.804868324608009e-001
1	 0.000000000000000e+000	 4.839994479875599e+000	 7.568030366347639e-001
1	 4.669135520472021e-001	 4.844212827672349e+000	 1.444078298621395e-001
1	 4.195730701340568e-001	 4.848542456490133e+000	 1.702568276371347e-001
1	 3.723606882236846e-001	 4.852396564993791e+000	 2.024198997591538e-001
1	 3.252826990480787e-001	 4.855779608679061e+000	 2.406829887428584e-001
1	 2.783452611890358e-001	 4.858696130097008e+000	 2.848978133225987e-001
1	 2.315543982226574e-001	 4.861150754850294e+000	 3.349803160260838e-001
1	 1.849159979902495e-001	 4.863148187610658e+000	 3.909090537203178e-001
1	 1.384358119931851e-001	 4.864693208161425e+000	 4.527235358953300e-001
1	 9.211945490920545e-002	 4.865790667468827e+000	 5.205225153978896e-001
1	 4.597240422752529e-002	 4.866445483785694e+000	 5.944622362641011e-001
1	 0.000000000000000e+000	 4.866662638790971e+000	 6.747546432265469e-001
1	 4.694721117667061e-001	 4.870757801038844e+000	 9.389274554742885e-002
1	 4.218722168436042e-001	 4.875111155049245e+000	 1.117778597104200e-001
1	 3.744011238765984e-001	 4.878986383023154e+000	 1.370074590371358e-001
1	 3.270651600801012e-001	 4.882387964871204e+000	 1.694331850091876e-001
1	 2.798705177832224e-001	 4.885320468036373e+000	 2.089814278813471e-001
1	 2.328232535695833e-001	 4.887788543468358e+000	 2.556514181715573e-001
1	 1.859292875442194e-001	 4.889796921619200e+000	 3.095132575774991e-001
1	 1.391944027251293e-001	 4.891350408464122e+000	 3.707058948561550e-001
1	 9.262424455692317e-002	 4.892453881551312e+000	 4.394350521287768e-001
1	 4.622432054392983e-002	 4.893112286084270e+000	 5.159711069880744e-001
1	 0.000000000000000e+000	 4.893330631040176e+000	 6.006469356885759e-001
1	 4.720306510194796e-001	 4.897302562056369e+000	 4.544419327439363e-002
1	 4.241713451619350e-001	 4.901679641069377e+000	 5.569561132715092e-002
1	 3.764415432082083e-001	 4.905575988344355e+000	 7.447783480514089e-002
1	 3.288476068548171e-001	 4.908996108206632e+000	 1.016699362471621e-001
1	 2.813957621778767e-001	 4.911944592990930e+000	 1.372352637494911e-001
1	 2.340920987682259e-001	 4.914426118993778e+000	 1.812192199640908e-001
1	 1.869425689943359e-001	 4.916445442447325e+000	 2.337469747652695e-001
1	 1.399529873905414e-001	 4.918007395518488e+000	 2.950211178880418e-001
1	 9.312903016804063e-002	 4.919116882337212e+000	 3.653192577515768e-001
1	 4.647623484600098e-002	 4.919778875057467e+000	 4.449915725783387e-001
1	 0.000000000000000e+000	 4.919998409954449e+000	 5.344583198050089e-001
1	 4.745891653282275e-001	 4.923847064272092e+000	-8.779745198585361e-004
1	 4.264704510657725e-001	 4.928247868056106e+000	 2.060495200346945e-003
1	 3.784819426480304e-001	 4.932165334425926e+000	 1.487070515183511e-002
1	 3.306300362532424e-001	 4.935603992121360e+000	 3.742150103001073e-002
1	 2.829209917041558e-001	 4.938568458368636e+000	 6.967607845790584e-002
1	 2.353609315984621e-001	 4.941063434810887e+000	 1.116894927019829e-001
1	 1.879558405677102e-001	 4.943093703460130e+000	 1.636060941034928e-001
1	 1.407115646622218e-001	 4.944664122674740e+000	 2.256568962915084e-001
1	 9.363381085944102e-002	 4.945779623166171e+000	 2.981568841428567e-001
1	 4.672814669304079e-002	 4.946445204038611e+000	 3.815022683388591e-001
1	 0.000000000000000e+000	 4.946665928865022e+000	 4.761676932403127e-001
1	 4.771476502156546e-001	 4.950391261233177e+000	-4.501514902173481e-002
1	 4.287695305318403e-001	 4.954815789515013e+000	-4.907811459462269e-002
1	 3.805223186255805e-001	 4.958754374736414e+000	-4.177505751003253e-002
1	 3.324124451563926e-001	 4.962211570051403e+000	-2.328442029804008e-002
1	 2.844462036932172e-001	 4.965192017577452e+000	 6.320319900721617e-003
1	 2.366297498401687e-001	 4.967700444304020e+000	 4.706793460391721e-002
1	 1.889691004914538e-001	 4.969741658022721e+000	 9.908664284159890e-002
1	 1.414701332129704e-001	 4.971320543283099e+000	 1.626012334205368e-001
1	 9.413858574800750e-002	 4.972442057377831e+000	 2.379301183166854e-001
1	 4.698005564435141e-002	 4.973111226361029e+000	 3.254823247906097e-001
1	 0.000000000000000e+000	 4.973333141103128e+000	 4.257544336826615e-001
1	 4.797061012044656e-001	 4.976935106486796e+000	-8.690993086793437e-002
1	 4.310685795368616e-001	 4.981383358951680e+000	-9.767185383437994e-002
1	 3.825626675703746e-001	 4.985343062744358e+000	-9.542136377608979e-002
1	 3.341948304452835e-001	 4.988818795432772e+000	-8.042066945321319e-002
1	 2.859713954762180e-001	 4.991815224025334e+000	-5.281586403021818e-002
1	 2.378985512732225e-001	 4.994337100857515e+000	-1.263982578401882e-002
1	 1.899823469926781e-001	 4.996389259500201e+000	 4.018478448229402e-002
1	 1.422286917155876e-001	 4.997976610693785e+000	 1.058424379000245e-001
1	 9.464335395062330e-002	 4.999104138311836e+000	 1.846215723412509e-001
1	 4.723196125923496e-002	 4.999776895358052e+000	 2.769113559162199e-001
1	 0.000000000000000e+000	 5.000000000000000e+000	 3.831983873639719e-001
