label=Stress xy
num_items=4608

0:-1.3898430713557437e-002
1:-1.2345767353341427e-001
2:-5.5711948593385706e-002
3:1.0458804263448375e-001
4:2.1382670334866058e-002
5:-3.4454855356790291e-002
6:1.0338941377766375e-001
7:1.3351174722312328e-001
8:4.1064806124620046e-002
9:6.0546958802005356e-002
10:1.2227229009623615e-001
11:-5.7059722505724872e-002
12:4.8909611954285337e-003
13:-8.0249666936218170e-002
14:-5.6589373024105361e-001
15:8.5145305887864800e-002
16:4.6746778770207491e-002
17:-5.5160127479763532e-001
18:-2.1300293103701334e-001
19:-7.1787030556722953e-001
20:-1.6935432613815689e+000
21:-8.2830009286052786e-001
22:-1.0728041886951751e+000
23:-1.4519560126706224e+000
24:-9.8334688562764028e-001
25:-1.3771689370953117e+000
26:-1.5694808635604602e+000
27:-2.5323964449220728e+000
28:-3.7085951359556728e+000
29:-4.2233864323598143e+000
30:-2.0683654796997035e+000
31:-3.1369833686519342e+000
32:-3.3014896194337493e+000
33:-2.0844907403756832e+000
34:-3.0518137250176509e+000
35:-2.8723208279482417e+000
36:-4.0958749180988070e+000
37:-2.9459039999344210e+000
38:-8.2935417386207044e-001
39:-2.6871130726919925e+000
40:-6.9827338036125930e-001
41:1.7501114444351724e+000
42:-2.0443233713797588e+000
43:-1.4933015933663829e-001
44:1.6981744097299041e+000
45:3.3188336979570482e-001
46:2.3087574310583164e-001
47:-1.9632732584810975e+000
48:2.2179193527448811e+000
49:-5.6073508152476104e-004
50:-3.8938398712362940e+000
51:1.9121165658141577e+000
52:1.9436895453110344e-002
53:-3.1296994966676022e+000
54:-3.5542231782453633e+000
55:-4.2765352996713339e+000
56:-3.1402676540795635e+000
57:-5.3793995960072731e+000
58:-4.6663571553601937e+000
59:-2.6461072479074534e+000
60:-4.1950206530373864e+000
61:-3.4079227154125760e+000
62:-1.8649896111942017e+000
63:-1.9045216635988775e+000
64:-5.1507278342048934e-001
65:6.6926924188545650e-002
66:-1.4291110724144025e+000
67:-4.3253247903508923e-001
68:6.5872119455732764e-002
69:-1.0524572383375097e+000
70:-4.1295277341638753e-001
71:3.7652874297094401e-002
72:6.0705564060207141e-002
73:5.4452683110538681e-003
74:-8.1217971519392477e-003
75:1.0239123265816487e-001
76:6.2644169632749519e-002
77:4.0852220348799179e-002
78:1.2948480337046891e-001
79:1.1265956517858187e-001
80:9.0051324183466272e-002
81:2.2313977809058352e-003
82:1.6134436305822144e-002
83:1.7132956614893700e-002
84:3.9941548525063514e-002
85:4.3917967150033606e-002
86:4.3098023653575929e-002
87:7.9716049854963444e-002
88:7.2677872756188575e-002
89:6.8951489630406815e-002
90:1.2282730283057474e-002
91:6.0531538943803921e-003
92:4.6367285387531642e-003
93:3.9839641970099676e-002
94:3.4064606297761001e-002
95:3.0623250556106658e-002
96:6.6951871455367143e-002
97:6.1574721759340145e-002
98:5.6051780891629002e-002
99:5.7364076351253124e-003
100:6.8859326963084970e-003
101:6.5806680474051445e-003
102:2.9524947663216283e-002
103:2.7518954822996849e-002
104:2.5254779744641066e-002
105:5.2810491709543092e-002
106:4.7894627973261612e-002
107:4.3917189470802774e-002
108:5.8325544310712353e-003
109:4.8357083265927409e-003
110:4.3496510022096903e-003
111:2.3851628754475537e-002
112:2.1700431361885097e-002
113:1.9920867333035486e-002
114:4.1902204916747905e-002
115:3.8499478763820039e-002
116:3.5329230558278239e-002
117:4.2313367355090604e-003
118:3.9203238904526065e-003
119:3.5151643395125685e-003
120:1.8880260455546756e-002
121:1.6906192177899210e-002
122:1.5028627595998463e-002
123:3.3364194307345725e-002
124:2.9816905102274152e-002
125:2.6556769994586137e-002
126:3.2103366850568574e-003
127:2.6574584685489389e-003
128:2.1490862396747862e-003
129:1.3825012800063726e-002
130:1.1545629910662823e-002
131:9.3306278098079926e-003
132:2.4485045553035240e-002
133:2.0494746444680700e-002
134:1.6588702925774284e-002
135:1.7986035007093336e-003
136:1.0403520398968229e-003
137:2.3025808784979033e-004
138:7.7621645818456188e-003
139:4.5085496470375257e-003
140:1.1975392789076338e-003
141:1.3828779251442786e-002
142:8.1553482943586726e-003
143:2.4189689618537252e-003
144:-5.3584202972995643e-003
145:-6.7159313925688399e-003
146:-1.4390495625594474e-001
147:-2.6512515066271275e-001
148:-1.5034842244205601e-001
149:-6.7041661498061608e-002
150:-4.6991214690491884e-001
151:3.7104565439100390e-001
152:1.2848950349017076e+000
153:-7.6218324805545343e-002
154:5.6123414927569094e-002
155:-3.1522515311311783e-001
156:1.3774197428348657e-002
157:1.3109233061088360e-001
158:9.7500583813335928e-002
159:1.3624884587968378e+000
160:7.9854379962174338e-001
161:4.3646968826028110e-001
162:-6.8700446930066172e-001
163:-1.0583227975733258e+000
164:-1.1045910335023861e+000
165:-7.2525487573160102e-002
166:-2.5894302121203711e-001
167:-3.1924246587478722e-002
168:1.3628835492633518e-001
169:-3.3959001794521287e-001
170:-3.1364586663349769e-001
171:-1.5200111854383744e+000
172:-2.4464564516258869e+000
173:-2.3431632493170329e+000
174:-1.4081116249525508e-001
175:-7.6056898311097754e-001
176:-9.9562813439317854e-001
177:-1.3527163803197761e-001
178:-4.0208761237490523e-002
179:-2.0548701427233479e-001
180:-1.7609352287516296e+000
181:-6.3092185948519808e-001
182:3.3980058516601208e-001
183:-1.0857486602061046e+000
184:-1.4322477694878339e+000
185:-1.8152116378276955e+000
186:-6.4343314024414444e-001
187:-1.7593575774982431e+000
188:-2.7889206082533922e+000
189:5.6676276561854777e-001
190:-1.7509100930390098e-001
191:-1.9299728787348576e+000
192:-1.6087837141241981e+000
193:-8.7685519907215603e-001
194:-7.3975665455365214e-001
195:-2.6578775997914805e+000
196:-1.3477477765146495e+000
197:-2.1424979979638611e-001
198:-2.6340462449177555e+000
199:-2.3182316205015421e+000
200:-1.4964997286103001e+000
201:-9.0193809775294864e-001
202:-1.0843125843118468e+000
203:-1.0682382824640502e+000
204:4.7627825691030551e-002
205:-1.4228641270256767e-001
206:-4.4122034175780500e-001
207:-9.8839806581198730e-001
208:-4.4141387193008991e-001
209:2.6866876467234391e-002
210:-8.8491468097298298e-001
211:-4.0509579474442514e-001
212:6.5429945659597422e-002
213:-4.7740025473378234e-001
214:-1.9362093169285424e-001
215:1.5027554518357578e-001
216:1.4667468949415827e-001
217:1.3451306950387273e-001
218:1.1243308147181164e-001
219:1.9282657021808061e-001
220:1.6584432170327193e-001
221:1.3847067348389847e-001
222:2.4634237451629379e-001
223:1.9967028496089959e-001
224:1.6213376403815055e-001
225:1.0015694524619194e-001
226:8.9693857649007891e-002
227:8.4252457402897551e-002
228:1.2707344352175234e-001
229:1.1733391016263520e-001
230:1.1038394241585228e-001
231:1.5054851007585118e-001
232:1.4273524650412292e-001
233:1.3547942680599068e-001
234:8.1872786966339803e-002
235:7.5596595402535591e-002
236:6.8858141706657924e-002
237:1.0588786752747956e-001
238:9.6186546899786479e-002
239:8.7414885422220590e-002
240:1.2922853312188581e-001
241:1.1614195397721602e-001
242:1.0537695526488487e-001
243:6.4856861194275583e-002
244:5.8926935262922926e-002
245:5.4210955081544374e-002
246:8.2919767970969810e-002
247:7.6266267404855648e-002
248:7.0576929076292219e-002
249:1.0040408184535178e-001
250:9.3042398219059214e-002
251:8.6395093317894134e-002
252:5.1779526771108780e-002
253:4.7531509481680022e-002
254:4.3554886517887241e-002
255:6.7330346001047703e-002
256:6.1591799390260743e-002
257:5.6397538331257629e-002
258:8.2382937583892729e-002
259:7.5308858571720830e-002
260:6.9051956337483192e-002
261:4.1122969687984533e-002
262:3.6791972474778584e-002
263:3.2809274268990038e-002
264:5.3324312551584353e-002
265:4.7843520175822621e-002
266:4.2730500380041378e-002
267:6.5395227626375521e-002
268:5.8808293068745361e-002
269:5.2608604663661102e-002
270:3.0251619071257761e-002
271:2.5287431976903765e-002
272:2.0427507967691966e-002
273:3.9383308990141634e-002
274:3.2855191213930317e-002
275:2.6480217314296461e-002
276:4.8521533992199543e-002
277:4.0556478113285867e-002
278:3.2793446902385975e-002
279:1.7002533467675409e-002
280:9.9752560642957355e-003
281:2.8705135243802813e-003
282:2.1997880563934025e-002
283:1.2791866730812909e-002
284:3.4640539745513102e-003
285:2.7336997743530034e-002
286:1.6111342289834619e-002
287:4.7195541263971774e-003
288:-4.0833599655278918e-001
289:1.1125062130276981e+000
290:2.8086923671900013e+000
291:2.1129873394892091e+000
292:3.5631792271752905e+000
293:5.4364302134253375e+000
294:7.9502345816671607e+000
295:7.3358050348852828e+000
296:7.3921497406495176e+000
297:2.9417871231676904e+000
298:1.7967774042941136e+000
299:9.7242195992588154e-001
300:5.4038407692064387e+000
301:3.3882671198072014e+000
302:1.7487666047959096e+000
303:6.6203779624496226e+000
304:3.7573899338076329e+000
305:1.3258938994361817e+000
306:4.3045342527595121e-001
307:-5.1948554148585824e-001
308:-1.0121686467021698e+000
309:8.6071338059449731e-001
310:-6.5508326048228160e-001
311:-1.9551632209860696e+000
312:3.0928400491491448e-001
313:-1.0479866350035560e+000
314:-2.4310797753215456e+000
315:-8.3508364259131429e-001
316:-2.9795142302123201e-001
317:-1.7746644545051110e-001
318:-1.9564615929494085e+000
319:-9.9938661627940517e-001
320:-3.5106373537344721e-001
321:-2.4544973408482837e+000
322:-1.2648627205489757e+000
323:-2.7608504977839438e-001
324:-5.4820917998902274e-001
325:-1.6212238760355002e+000
326:-2.6127820430784690e+000
327:-3.8872653587595446e-001
328:-1.0047629059125849e+000
329:-1.6790244831734800e+000
330:-3.6765601552303101e-002
331:-2.0121976054778401e-001
332:-5.6358086299530130e-001
333:-2.5172009202894428e+000
334:-1.2764504871578870e+000
335:-7.7050352828218857e-002
336:-1.6157903272133880e+000
337:-6.8319039117995439e-001
338:2.5475503446703701e-001
339:-5.6565021380224689e-001
340:-4.9059534969837643e-002
341:5.1957242189157238e-001
342:2.6221198703603710e-001
343:1.4458812441978036e-001
344:-1.4466689809753641e-001
345:4.9229525415235581e-001
346:3.1599929830005996e-001
347:6.0376868932984162e-002
348:6.2493995132621349e-001
349:3.9318753184798305e-001
350:1.7441332524125852e-001
351:-2.2386843717246099e-001
352:-4.8703609634198348e-002
353:1.9973465027870715e-001
354:-9.6315590221114078e-003
355:8.8290010641498190e-002
356:2.3528615466850999e-001
357:1.2209918250865531e-001
358:1.6877607870291611e-001
359:2.4032869124934417e-001
360:2.6822915789260432e-001
361:2.1467654554397675e-001
362:1.7166253732364672e-001
363:2.7226182713167352e-001
364:2.2442005783510674e-001
365:1.8241144412751997e-001
366:2.5629149314881799e-001
367:2.2426564232030918e-001
368:1.9336749854146448e-001
369:1.5911991556683261e-001
370:1.5239327031891040e-001
371:1.4592162457408134e-001
372:1.6893522747460699e-001
373:1.6180218302014404e-001
374:1.5611691224671143e-001
375:1.8124997730460210e-001
376:1.7148289479763557e-001
377:1.6435636014964505e-001
378:1.3949821944118337e-001
379:1.2539467678788713e-001
380:1.1386804889535873e-001
381:1.5035133507892601e-001
382:1.3662001834428875e-001
383:1.2495114938173321e-001
384:1.5882916044318349e-001
385:1.4625627030962918e-001
386:1.3523136095948349e-001
387:1.0861075901853368e-001
388:1.0086686128306767e-001
389:9.3834815690376203e-002
390:1.1933507778505036e-001
391:1.1098818772327482e-001
392:1.0359425073749966e-001
393:1.2949080349304753e-001
394:1.2055987616045399e-001
395:1.1282300283708954e-001
396:8.9551312710991315e-002
397:8.1972905073981028e-002
398:7.5276403123802640e-002
399:9.9133285922689107e-002
400:9.1118727679502021e-002
401:8.3935624253437036e-002
402:1.0821781129017127e-001
403:9.9862359541085924e-002
404:9.2287911739422634e-002
405:7.1332265249163335e-002
406:6.4170308989165009e-002
407:5.7418589081226337e-002
408:7.9593070748042768e-002
409:7.1619557640098516e-002
410:6.4115812940865324e-002
411:8.7613672959075323e-002
412:7.8962664214962411e-002
413:7.0840955936219405e-002
414:5.2962112021775205e-002
415:4.4272440414817212e-002
416:3.5796652326889576e-002
417:5.9149541893297977e-002
418:4.9416317936841571e-002
419:3.9888849550770336e-002
420:6.5445204343672805e-002
421:5.4810363304561023e-002
422:4.4373149887197573e-002
423:2.9827298265143354e-002
424:1.7532916920395533e-002
425:5.0549984769143151e-003
426:3.3151301647467227e-002
427:1.9263965552068045e-002
428:5.1776161066697897e-003
429:3.6982086744915758e-002
430:2.1753952694891818e-002
431:6.3113290436069306e-003
432:1.2579214029443889e+001
433:1.0245810844759255e+001
434:8.5537630767110997e+000
435:1.6601595180666330e+001
436:1.2898289937185163e+001
437:9.4875273717224342e+000
438:1.4570656334962544e+001
439:1.1334191680491106e+001
440:8.0414569654200712e+000
441:7.1103013427355179e+000
442:3.7122589305073674e+000
443:7.5472529122587484e-001
444:7.3648849133549277e+000
445:3.5609447607636211e+000
446:1.7308060607509859e-001
447:6.0447533221420331e+000
448:2.7649593746622223e+000
449:-1.2319134995868644e-001
450:-3.0719610029649769e-001
451:-1.3538423573451526e+000
452:-2.5097821697535627e+000
453:-8.6869428183956965e-001
454:-1.4292518923609900e+000
455:-2.1444114625856718e+000
456:-8.5401112815880353e-001
457:-8.5916268427460252e-001
458:-1.0642246044371735e+000
459:-2.4771432946700713e+000
460:-1.2497815987530250e+000
461:-1.9482966907509017e-001
462:-2.0160172726063883e+000
463:-8.7767019885781106e-001
464:7.8130470914362829e-002
465:-8.6816704680078916e-001
466:1.5310254133861662e-002
467:7.0610451335481916e-001
468:1.3825571492051239e-001
469:1.9020583971630439e-001
470:1.1274848381943918e-002
471:4.2339958923254700e-001
472:6.3993279877775122e-001
473:6.5195115858473818e-001
474:9.5624354343227647e-001
475:1.1344319307245823e+000
476:1.1344717346706099e+000
477:-1.6853480637986029e-002
478:2.6318867397371698e-001
479:6.1873977002107072e-001
480:5.9430604889674454e-001
481:5.8686037444509542e-001
482:6.8887428289781993e-001
483:1.0061908745507282e+000
484:7.7288028083803495e-001
485:6.8297991149843340e-001
486:6.5834372157090593e-001
487:4.1864466226655161e-001
488:2.2308862644238947e-001
489:6.6334150307293294e-001
490:4.4097154406838818e-001
491:2.7753753430837980e-001
492:6.0630086744044265e-001
493:3.8771522276838027e-001
494:2.4285845310519888e-001
495:1.7638249918134480e-001
496:1.9369270611151557e-001
497:2.2766229939878702e-001
498:2.3230811850325794e-001
499:2.1041666934581044e-001
500:2.0114811494519946e-001
501:2.0745060647430974e-001
502:1.8857932125878091e-001
503:1.7829443919982149e-001
504:2.3502211884559340e-001
505:2.1524994096841196e-001
506:1.9494955759575217e-001
507:1.9959214320149168e-001
508:1.9438874781360468e-001
509:1.8767206579681148e-001
510:1.7776382945146751e-001
511:1.7907008666761870e-001
512:1.7787797612143119e-001
513:1.8508853154459964e-001
514:1.7376399997068392e-001
515:1.6541618729299901e-001
516:1.8158946586782082e-001
517:1.7027740756431040e-001
518:1.6190454294939083e-001
519:1.7381138057057313e-001
520:1.6451437777486952e-001
521:1.5811904346011407e-001
522:1.5999433382718325e-001
523:1.4863319682063575e-001
524:1.3858061445567990e-001
525:1.5716781096283483e-001
526:1.4801134354044429e-001
527:1.3985511180567908e-001
528:1.5451781959260574e-001
529:1.4711118945427437e-001
530:1.4039647604960950e-001
531:1.3305123838975777e-001
532:1.2406082090584310e-001
533:1.1631490660165723e-001
534:1.3497458435888096e-001
535:1.2647287682976208e-001
536:1.1914793970150470e-001
537:1.3608714692047988e-001
538:1.2826213703186784e-001
539:1.2154616476524660e-001
540:1.1170729624488261e-001
541:1.0330403339934977e-001
542:9.5657026048116517e-002
543:1.1470581426827461e-001
544:1.0647165087264913e-001
545:9.8959145987975339e-002
546:1.1734856964320223e-001
547:1.0936715682817169e-001
548:1.0207280554074236e-001
549:9.0885861059449596e-002
550:8.1994482478415995e-002
551:7.3638882568018343e-002
552:9.4179980966543564e-002
553:8.5124882604250385e-002
554:7.6568293154427522e-002
555:9.7342147405812471e-002
556:8.8233863689106101e-002
557:7.9586819126702013e-002
558:6.8056301819956436e-002
559:5.7005570318229178e-002
560:4.6146945742913024e-002
561:7.0774814639645398e-002
562:5.9217382092427259e-002
563:4.7841212596740700e-002
564:7.3665325665053488e-002
565:6.1775483765802601e-002
566:5.0056061043207610e-002
567:3.8452480040707414e-002
568:2.2599682302061424e-002
569:6.5215535998172820e-003
570:3.9765123777315510e-002
571:2.3111367055913368e-002
572:6.2104993707380656e-003
573:4.1724649780148011e-002
574:2.4529673595639481e-002
575:7.0658064471819009e-003
576:1.0852392155020951e+001
577:8.3494849038222707e+000
578:5.8689246425162107e+000
579:5.9236361907577129e+000
580:3.7301318593337052e+000
581:2.1779540958008319e+000
582:3.9549050793456035e+000
583:1.2047920147161852e+000
584:-2.8501490402359259e-001
585:4.3889634882812931e+000
586:1.9227586322144652e+000
587:-3.0559239609754074e-001
588:1.6434586400974347e+000
589:7.7303529000668114e-001
590:-3.6359743297220054e-001
591:-1.6014088612628841e-001
592:4.4806162805796601e-001
593:2.8599156871113529e-001
594:-8.0444108895922695e-001
595:-5.6143762705432809e-001
596:-5.0050187542241853e-001
597:-6.4716431358034066e-001
598:-3.6186776321655262e-001
599:-1.5201438766258496e-001
600:8.8792494234378683e-002
601:9.0525866172856559e-002
602:1.2344059876468196e-001
603:-2.8744030316640534e-001
604:3.8904059855751721e-001
605:8.9155968766706317e-001
606:1.8818380770419384e-002
607:3.8050834420692259e-001
608:6.4270848067640896e-001
609:1.7282986987174584e-001
610:2.7336452729473615e-001
611:3.4888134339806653e-001
612:1.0716664455731573e+000
613:1.1988617168427231e+000
614:1.1687939096801794e+000
615:7.5342156823592954e-001
616:8.6370339435210586e-001
617:8.6212873937033230e-001
618:4.0084493802618631e-001
619:4.7715631376934026e-001
620:4.8701780574870474e-001
621:1.0203292160159521e+000
622:7.3697984635332092e-001
623:6.0121844838436733e-001
624:7.4352469470657911e-001
625:4.9234043772606351e-001
626:3.6915030485002587e-001
627:4.0144141614901852e-001
628:2.1036266703645917e-001
629:1.2768419443917536e-001
630:5.1682028672736235e-001
631:3.1410246135239628e-001
632:1.8392093935171774e-001
633:3.0787915869492144e-001
634:1.7251942907219711e-001
635:9.0804814567550213e-002
636:1.0121825858598858e-001
637:4.5408248716793005e-002
638:2.4352165709469090e-002
639:1.5879639265799575e-001
640:1.5908038938629498e-001
641:1.6442211928811676e-001
642:8.5551407358290713e-002
643:1.1262779817408711e-001
644:1.3667216874980778e-001
645:3.8568372706621848e-002
646:7.8865695334059835e-002
647:1.0804124430782520e-001
648:1.6756480313773153e-001
649:1.6849157826118191e-001
650:1.6745622390957704e-001
651:1.4294599465716795e-001
652:1.4297756157533881e-001
653:1.4387485856090665e-001
654:1.1427075009693832e-001
655:1.1606612175962255e-001
656:1.2155508303215908e-001
657:1.6440523919590605e-001
658:1.5778666117372481e-001
659:1.5359133456217575e-001
660:1.4373256589775651e-001
661:1.4231463280710518e-001
662:1.4171340005633642e-001
663:1.2478146875005712e-001
664:1.2748590683573294e-001
665:1.2940049419053715e-001
666:1.5079442888869843e-001
667:1.4423336551732324e-001
668:1.3832196432593877e-001
669:1.4010626606496984e-001
670:1.3518206160950996e-001
671:1.3107063086615489e-001
672:1.2875380533474182e-001
673:1.2575665478278886e-001
674:1.2373538947506167e-001
675:1.3445271130413625e-001
676:1.2730126445888668e-001
677:1.2116169320848999e-001
678:1.2822987582818152e-001
679:1.2253578730947806e-001
680:1.1758741066729854e-001
681:1.2198084819050702e-001
682:1.1765226277235265e-001
683:1.1380322551239040e-001
684:1.1720057180441286e-001
685:1.0949717829716341e-001
686:1.0244841014776190e-001
687:1.1414413282567917e-001
688:1.0715129860021473e-001
689:1.0073622008870740e-001
690:1.1087896473053321e-001
691:1.0469257772653097e-001
692:9.9007076792593809e-002
693:9.7812757968807715e-002
694:8.8787958674716935e-002
695:8.0195959878983189e-002
696:9.6376533137433107e-002
697:8.7676989149507986e-002
698:7.9349786213727180e-002
699:9.4976740267010848e-002
700:8.6690021433995568e-002
701:7.8715184206921085e-002
702:7.4268026093357212e-002
703:6.2309855795401957e-002
704:5.0507375585510564e-002
705:7.3519490503594381e-002
706:6.1645410135490478e-002
707:4.9887247340049103e-002
708:7.3052636677789870e-002
709:6.1416009184614220e-002
710:4.9855526748696095e-002
711:4.2103482425686262e-002
712:2.4747351577418263e-002
713:7.1151472367727018e-003
714:4.1482150693238698e-002
715:2.4101366021653740e-002
716:6.4416051586817964e-003
717:4.1563997423360241e-002
718:2.4399604910967272e-002
719:6.9533335081955897e-003
720:4.2014291577147755e+000
721:1.1890370103220445e+000
722:-7.7320194368375150e-001
723:4.1553315190962614e+000
724:2.0407211285223812e+000
725:-3.6490451801673734e-001
726:2.6354570305121858e+000
727:2.4774784792795890e+000
728:6.8731622272957660e-001
729:-7.1344702490745715e-001
730:2.9367931494353483e-001
731:5.5318210933820700e-001
732:-8.9289819189385355e-001
733:-2.2084528342496143e-001
734:2.8548047661334558e-001
735:-2.5688726785947963e-001
736:-3.8926629815786506e-001
737:-1.0547607986110075e-001
738:4.3357323033492906e-001
739:2.7887260016510890e-001
740:1.7567979408744300e-001
741:3.6169500907718388e-001
742:2.3376767822336902e-001
743:1.2057535834961111e-001
744:6.1742705070541096e-002
745:6.9737013835038927e-002
746:5.5693520467497419e-002
747:1.6128743022300887e-001
748:1.7833231786449011e-001
749:1.9004717116159836e-001
750:7.7135077601721863e-002
751:2.3694239169550740e-002
752:-4.1891634522138760e-002
753:1.0410363878699504e-002
754:-1.2917464392027120e-001
755:-2.8771968789390578e-001
756:2.1572420797981845e-001
757:2.6833186445654122e-001
758:2.7855833820418902e-001
759:-5.4578998902122332e-002
760:-2.8030033208795366e-002
761:-6.5569568905191966e-003
762:-3.3863136011085382e-001
763:-3.2200121223842260e-001
764:-2.7314166038701426e-001
765:2.1279385417493923e-001
766:6.4829691078522517e-002
767:1.1218337393950523e-002
768:-3.5148464693242142e-002
769:-1.0920803159037164e-001
770:-1.1759494521559193e-001
771:-2.5811326045681310e-001
772:-2.5225327767835326e-001
773:-2.0940079776792248e-001
774:4.9007674629986632e-003
775:-8.6308427709706845e-003
776:1.8063396498211775e-003
777:-9.9190504772338609e-002
778:-6.6206480556723180e-002
779:-2.7425499326195077e-002
780:-1.6964264758934941e-001
781:-1.0773307949851621e-001
782:-5.8198390032613276e-002
783:2.2549159937919692e-002
784:6.0518826923488853e-002
785:8.7018435819275985e-002
786:-5.8921149860704097e-003
787:2.2629722312768469e-002
788:4.6574378370876940e-002
789:-3.9635352346695282e-002
790:-1.5895592485496827e-002
791:1.0159862984025105e-002
792:9.3562654143722043e-002
793:9.9267677310968486e-002
794:1.0855379972475775e-001
795:5.6729350615677021e-002
796:7.0873412761928156e-002
797:8.5384142415406622e-002
798:2.4599759010666997e-002
799:4.4833887002070631e-002
800:6.2220250761390469e-002
801:1.1327239453163329e-001
802:1.1721474020047086e-001
803:1.2011083186443684e-001
804:9.1259932367620353e-002
805:9.6497527805468705e-002
806:1.0141429259313232e-001
807:6.8780467470023907e-002
808:7.6037621178884129e-002
809:8.3699367592246859e-002
810:1.2016828150146124e-001
811:1.1870077600003250e-001
812:1.1809432285665179e-001
813:1.0312014013368680e-001
814:1.0446839280316654e-001
815:1.0611996404142963e-001
816:8.7117203274984956e-002
817:9.0775432938984338e-002
818:9.4179247382510489e-002
819:1.1696374858369218e-001
820:1.1337756299007846e-001
821:1.1017616176986898e-001
822:1.0594165928233922e-001
823:1.0369152974529644e-001
824:1.0176669334264712e-001
825:9.4847063263679893e-002
826:9.4073991239322294e-002
827:9.3566721110344503e-002
828:1.0760343900530775e-001
829:1.0199770430066767e-001
830:9.6829433410149796e-002
831:9.9900647559280575e-002
832:9.5394172014788892e-002
833:9.1184079873885840e-002
834:9.2435848264906209e-002
835:8.8985556542438018e-002
836:8.5690567813027307e-002
837:9.3037316588654703e-002
838:8.5067917032435478e-002
839:7.7371623393477931e-002
840:8.7855149764686613e-002
841:8.0563388146909096e-002
842:7.3471939561306987e-002
843:8.2837771188547141e-002
844:7.6311214322939858e-002
845:6.9912177604431150e-002
846:7.1856160329046362e-002
847:6.0456028214135073e-002
848:4.9108113600121475e-002
849:6.8285300163907242e-002
850:5.7429906240577915e-002
851:4.6584275485333344e-002
852:6.5110710975179301e-002
853:5.4906131646489269e-002
854:4.4668861153073419e-002
855:4.0950782757959658e-002
856:2.4050294182189232e-002
857:6.8677014901212911e-003
858:3.8754745827984209e-002
859:2.2507237667180924e-002
860:5.9797541021048457e-003
861:3.7251224094938321e-002
862:2.1839599391386248e-002
863:6.1501279956038676e-003
864:9.4685322451503828e-001
865:1.8342154412999305e+000
866:9.2586427301141283e-001
867:-1.2596357035146730e+000
868:5.2211945821287915e-002
869:3.4754627664922921e-001
870:-1.7229867939215902e+000
871:-8.0416734918825827e-001
872:-1.2266115639755427e-001
873:1.1600593946651223e-001
874:-2.7903812414784102e-001
875:-1.7749107971124606e-001
876:1.6144554559067220e-001
877:6.0652553998591183e-003
878:4.1748726589611013e-002
879:9.2840733452472485e-002
880:2.3120410950839415e-001
881:2.5510390027449487e-001
882:-2.6827928216479661e-002
883:5.0333060405511908e-002
884:9.8839470966095355e-002
885:1.0382114391874511e-001
886:1.4868055289681459e-001
887:1.7891970154149323e-001
888:2.1564414677751270e-001
889:1.2964894396668503e-001
890:4.3067798550483205e-002
891:4.9247332867682861e-002
892:-1.5596174280419153e-001
893:-3.6856999218037839e-001
894:9.6643396524161013e-002
895:-1.8163249861373593e-001
896:-4.2076375892755857e-001
897:-7.5236584279883417e-002
898:-3.3951758868207615e-001
899:-5.1811014973180736e-001
900:-4.3298903101133818e-001
901:-4.1216369832825483e-001
902:-3.5289292108980030e-001
903:-4.7578859217602104e-001
904:-4.3649279569803656e-001
905:-3.7469547633827144e-001
906:-5.3635370298658402e-001
907:-4.7153369975072373e-001
908:-4.0015609530666668e-001
909:-3.2331562825654253e-001
910:-2.9001375862169926e-001
911:-2.3231681261088047e-001
912:-3.4155000863335422e-001
913:-2.9765213565985249e-001
914:-2.4396996170097701e-001
915:-3.6134730865763870e-001
916:-3.0670723014951290e-001
917:-2.5689362604661858e-001
918:-1.8966032927660656e-001
919:-1.2652785122734878e-001
920:-7.8906317695148054e-002
921:-2.0999518559380581e-001
922:-1.5847803076751293e-001
923:-1.1507704914303528e-001
924:-2.3076759302781705e-001
925:-1.8814948929373207e-001
926:-1.4625278744621142e-001
927:-6.1198245770701168e-002
928:-3.5795294125513341e-002
929:-7.0482973818726024e-003
930:-9.4821459994279836e-002
931:-6.3384939970723267e-002
932:-3.1963337237875644e-002
933:-1.2331397813763695e-001
934:-8.8093819858589453e-002
935:-5.6247541259410221e-002
936:8.7334706671793935e-003
937:2.9887389979671719e-002
938:4.7672702085245766e-002
939:-1.6529850751588186e-002
940:3.8403457855493792e-003
941:2.2266494309032308e-002
942:-4.1533391437134977e-002
943:-2.0972115318200549e-002
944:-9.3032801965354140e-004
945:5.4786104328872362e-002
946:6.3871577330022494e-002
947:7.3346224625865847e-002
948:3.0918696850578953e-002
949:4.3229398253700452e-002
950:5.5150865359908818e-002
951:9.2870713498007622e-003
952:2.3938910253211924e-002
953:3.7423106268106611e-002
954:7.7574888178242513e-002
955:8.2129583896542124e-002
956:8.6295101884172123e-002
957:6.0288894501257087e-002
958:6.6085337504557473e-002
959:7.1587226322323602e-002
960:4.3278397664838583e-002
961:5.0540517348569819e-002
962:5.7602706391910494e-002
963:8.7455894579000243e-002
964:8.7648811486588818e-002
965:8.8024792419640660e-002
966:7.3668707005991541e-002
967:7.5482978949068968e-002
968:7.7255478155597121e-002
969:6.0611349314815870e-002
970:6.3845295605519797e-002
971:6.6812632397659374e-002
972:8.7317145577000516e-002
973:8.4451371865681135e-002
974:8.1678854983383134e-002
975:7.7220487513800631e-002
976:7.5368337836287339e-002
977:7.3537304272289467e-002
978:6.7406627072241904e-002
979:6.6619707485517238e-002
980:6.5781763296805115e-002
981:7.9120851174699955e-002
982:7.3095264474957886e-002
983:6.7151246260077666e-002
984:7.1518806877640700e-002
985:6.6397368312486243e-002
986:6.1272378612590592e-002
987:6.4319726607015723e-002
988:6.0109093398670453e-002
989:5.5809789435995759e-002
990:6.2605882375301153e-002
991:5.2841154062513447e-002
992:4.3020671589226095e-002
993:5.7200666975196955e-002
994:4.8275801389313623e-002
995:3.9258380182809638e-002
996:5.2235127908089048e-002
997:4.4223874385194636e-002
998:3.6083263781557552e-002
999:3.5889705015969324e-002
1000:2.1063759240841182e-002
1001:5.9637454335195452e-003
1002:3.2678746859193621e-002
1003:1.8975155098329595e-002
1004:5.0083519269986040e-003
1005:3.0105104727538554e-002
1006:1.7622426842405406e-002
1007:4.8873941685422979e-003
1008:-1.1943015291169135e+000
1009:-6.7433835376648743e-001
1010:-1.6427359414834003e-001
1011:-3.5927153767359932e-001
1012:-1.9929908921006648e-001
1013:-4.6915932067116702e-002
1014:-1.9910561065480569e-002
1015:-8.0587367598743936e-002
1016:-1.4654434104088848e-001
1017:6.9486025554359454e-002
1018:2.5257508519613592e-001
1019:2.5510788086447067e-001
1020:2.6312315515030712e-002
1021:6.4534965597086977e-002
1022:6.0175842668899087e-004
1023:-1.7973679418822883e-001
1024:-2.3977115389459308e-001
1025:-3.2356096413241808e-001
1026:1.7637598505120794e-001
1027:2.4225110878174739e-002
1028:-1.2111727758456237e-001
1029:-8.3240704807601651e-002
1030:-2.2975169677122645e-001
1031:-3.5807762941842025e-001
1032:-3.8158901229293551e-001
1033:-4.6279607698422315e-001
1034:-5.1444150875293726e-001
1035:-2.3519327000628165e-001
1036:-4.3067679478397836e-001
1037:-5.4004043964983106e-001
1038:-4.1683708241805523e-001
1039:-4.7567264945297039e-001
1040:-4.9344951696065753e-001
1041:-5.1385783959658748e-001
1042:-4.8187217591556097e-001
1043:-4.5388899309191416e-001
1044:-5.3709728670184587e-001
1045:-4.7200687427265386e-001
1046:-4.0505310695130681e-001
1047:-4.7907106457887649e-001
1048:-4.3730448651964687e-001
1049:-3.9386237027126547e-001
1050:-4.3878493799053481e-001
1051:-4.1131925085421678e-001
1052:-3.8236584223175141e-001
1053:-3.6757859632308765e-001
1054:-3.1212688157072421e-001
1055:-2.6468847973069565e-001
1056:-3.6630845127690598e-001
1057:-3.1895385712277141e-001
1058:-2.7595334448353109e-001
1059:-3.6212930394272952e-001
1060:-3.2294886115464577e-001
1061:-2.8446326848402581e-001
1062:-2.4078821815373969e-001
1063:-2.0030271596977631e-001
1064:-1.5885937405613390e-001
1065:-2.5256806425927886e-001
1066:-2.1282475935027309e-001
1067:-1.7374768619547998e-001
1068:-2.6186749190116210e-001
1069:-2.2373274705843746e-001
1070:-1.8788830545381840e-001
1071:-1.3573417634818391e-001
1072:-1.0086042349813665e-001
1073:-6.9912592582379002e-002
1074:-1.5276038169057696e-001
1075:-1.2087524317040944e-001
1076:-9.1454152805872449e-002
1077:-1.6905066702587010e-001
1078:-1.3932823742741185e-001
1079:-1.1060798220592996e-001
1080:-5.5350820472762123e-002
1081:-3.3917536396256748e-002
1082:-1.2785516697618864e-002
1083:-7.6448684583362528e-002
1084:-5.3343010968944275e-002
1085:-3.1213234446108941e-002
1086:-9.5145666533305071e-002
1087:-7.1148314328296242e-002
1088:-4.8801491928588368e-002
1089:-2.0250966010371750e-003
1090:1.3173113844060219e-002
1091:2.7066393446416492e-002
1092:-2.0265363471642286e-002
1093:-4.7873407731680506e-003
1094:9.6923707626704880e-003
1095:-3.7815511716804681e-002
1096:-2.1790177121888448e-002
1097:-6.4565340095120022e-003
1098:3.3303348697449359e-002
1099:4.1526649622591331e-002
1100:4.9503638884146384e-002
1101:1.6641298257790451e-002
1102:2.6362968037958685e-002
1103:3.5584314609418494e-002
1104:1.1945247480006258e-003
1105:1.2113245288499316e-002
1106:2.2277631075167215e-002
1107:5.2968425366310121e-002
1108:5.6840227358945686e-002
1109:6.0375990515427670e-002
1110:3.9636290811169698e-002
1111:4.4436691989907018e-002
1112:4.8887297754024311e-002
1113:2.6840882690785082e-002
1114:3.2610322270850041e-002
1115:3.8016209857815252e-002
1116:6.1316807611186339e-002
1117:6.1163801108229623e-002
1118:6.0906587188985971e-002
1119:5.0413565499590723e-002
1120:5.1295086580565995e-002
1121:5.1961778662296135e-002
1122:4.0119243737238887e-002
1123:4.1965008920126660e-002
1124:4.3485323520805072e-002
1125:5.9761397811964198e-002
1126:5.6068163456170050e-002
1127:5.2247461294734447e-002
1128:5.1328069642748275e-002
1129:4.8508916280800431e-002
1130:4.5514088989017688e-002
1131:4.3347667771549948e-002
1132:4.1419863828823386e-002
1133:3.9268179832068983e-002
1134:4.8973522506026025e-002
1135:4.1528680903283974e-002
1136:3.3933628750259841e-002
1137:4.2766360694521881e-002
1138:3.6312576241506592e-002
1139:2.9673719923903118e-002
1140:3.7054303690641208e-002
1141:3.1600568459051098e-002
1142:2.5926900048554427e-002
1143:2.8329627792386507e-002
1144:1.6606128640866014e-002
1145:4.6387722517384393e-003
1146:2.4728662383345239e-002
1147:1.4347765582905835e-002
1148:3.7413566868476763e-003
1149:2.1651618495943083e-002
1150:1.2641558013651459e-002
1151:3.4243305777246213e-003
1152:-1.8258060354727341e-002
1153:-1.1155615408818027e-001
1154:-2.0872698092308833e-001
1155:-2.6255408612505141e-002
1156:-1.0373333560552384e-001
1157:-1.8255648555205597e-001
1158:-2.5373012821230261e-002
1159:-9.1340277402565048e-002
1160:-1.5612525478945968e-001
1161:-2.6017864693486992e-001
1162:-3.3759994688263167e-001
1163:-4.1545307430085343e-001
1164:-2.2557175478746408e-001
1165:-2.9285034031500196e-001
1166:-3.5880972359823654e-001
1167:-1.9118187182088375e-001
1168:-2.4565000384435182e-001
1169:-2.9704790390875785e-001
1170:-4.5649823770397080e-001
1171:-5.0099703185785305e-001
1172:-5.1695860454135967e-001
1173:-3.8874135586060610e-001
1174:-4.1768856487048939e-001
1175:-4.3299550744143145e-001
1176:-3.1814580642997303e-001
1177:-3.4204368790577727e-001
1178:-3.6719825797407490e-001
1179:-5.0214296287599613e-001
1180:-4.6276458997860531e-001
1181:-4.3744720976698792e-001
1182:-4.3145395729615699e-001
1183:-4.2195596148403025e-001
1184:-4.1602377011515124e-001
1185:-3.7930241427718936e-001
1186:-3.9045958954713406e-001
1187:-3.9468738101780076e-001
1188:-4.2568580638414327e-001
1189:-4.0074839359786152e-001
1190:-3.7463282476456011e-001
1191:-4.0815798261570763e-001
1192:-3.8456270449739766e-001
1193:-3.6066527268294696e-001
1194:-3.8854229357376135e-001
1195:-3.6804027599400391e-001
1196:-3.4811210706897666e-001
1197:-3.5660731140922641e-001
1198:-3.2135573585635585e-001
1199:-2.8582048085692602e-001
1200:-3.4478503370111124e-001
1201:-3.1431348614345977e-001
1202:-2.8385478183802670e-001
1203:-3.3466238129582393e-001
1204:-3.0819995674471651e-001
1205:-2.8204689814460937e-001
1206:-2.6442115646137093e-001
1207:-2.2821905443916191e-001
1208:-1.9452374674117301e-001
1209:-2.6535380655621654e-001
1210:-2.3327579867150744e-001
1211:-2.0282448344187667e-001
1212:-2.6606233098724408e-001
1213:-2.3756678519935334e-001
1214:-2.0981783039739177e-001
1215:-1.7661501349821465e-001
1216:-1.4758599367258751e-001
1217:-1.1923399290064601e-001
1218:-1.8590231160988155e-001
1219:-1.5781007359864613e-001
1220:-1.3073933485879891e-001
1221:-1.9380731944054475e-001
1222:-1.6693610021672919e-001
1223:-1.4143086048200160e-001
1224:-1.0387789941786324e-001
1225:-8.0136314787197918e-002
1226:-5.8121330768092727e-002
1227:-1.1622000516938197e-001
1228:-9.3583599495617342e-002
1229:-7.2260578412026794e-002
1230:-1.2775820248397951e-001
1231:-1.0597678720313897e-001
1232:-8.5095540491083269e-002
1233:-4.7132171773995681e-002
1234:-3.0691964621130448e-002
1235:-1.4907806932186593e-002
1236:-6.1201825071231827e-002
1237:-4.4216083777854555e-002
1238:-2.8070528128321670e-002
1239:-7.3966603938801986e-002
1240:-5.6683493439925028e-002
1241:-4.0424704764815418e-002
1242:-6.9963403254638973e-003
1243:4.3103065606250584e-003
1244:1.4810811097266424e-002
1245:-1.9997735205099287e-002
1246:-8.3301885792002369e-003
1247:2.6071908714320751e-003
1248:-3.2249120483061826e-002
1249:-2.0173664077942556e-002
1250:-8.7523996739060569e-003
1251:1.9626578124921506e-002
1252:2.5939691171711455e-002
1253:3.1856073843756827e-002
1254:7.8173706824540973e-003
1255:1.4935245323272893e-002
1256:2.1556128935565678e-002
1257:-3.1649742907333095e-003
1258:4.6516569263301893e-003
1259:1.1871036461080833e-002
1260:3.4246597275973296e-002
1261:3.6565424677527790e-002
1262:3.8518809529708507e-002
1263:2.4342498803452829e-002
1264:2.7364560128622917e-002
1265:2.9994368425237523e-002
1266:1.5020799153820116e-002
1267:1.8740572857037237e-002
1268:2.2041283052515785e-002
1269:3.8653189198898985e-002
1270:3.7234440909879429e-002
1271:3.5563096333593877e-002
1272:3.0569492618911332e-002
1273:2.9973659118249882e-002
1274:2.9074752358081161e-002
1275:2.3044746144207130e-002
1276:2.3234717145434302e-002
1277:2.3071137914919781e-002
1278:3.3653077475570906e-002
1279:2.8772366512266015e-002
1280:2.3657197777295202e-002
1281:2.7659715703444970e-002
1282:2.3730435653949469e-002
1283:1.9551645504998442e-002
1284:2.2134916084809678e-002
1285:1.9138618172821684e-002
1286:1.5877757833582307e-002
1287:1.9774203861283767e-002
1288:1.1569607595406525e-002
1289:3.1679065585330820e-003
1290:1.6327566046446484e-002
1291:9.4711401331947654e-003
1292:2.4338429137776749e-003
1293:1.3293366790112084e-002
1294:7.7374898712604077e-003
1295:2.0169751110920230e-003
1296:-2.1424483663958240e-002
1297:-8.3582439139586587e-002
1298:-1.4396792730525962e-001
1299:-1.6396650060733171e-002
1300:-7.4234973865168016e-002
1301:-1.3080019145499142e-001
1302:-1.4354124474287180e-002
1303:-6.7938096550118593e-002
1304:-1.2074832350669490e-001
1305:-1.7614704328334077e-001
1306:-2.2532781942757554e-001
1307:-2.7116059895169725e-001
1308:-1.6090353800680246e-001
1309:-2.0696301869497535e-001
1310:-2.5047099653302857e-001
1311:-1.4902759741451962e-001
1312:-1.9276545660051583e-001
1313:-2.3474830670639174e-001
1314:-2.9044836750201436e-001
1315:-3.1591385152776114e-001
1316:-3.4580210439077935e-001
1317:-2.7057362616743225e-001
1318:-2.9805724188852306e-001
1319:-3.2594687981302500e-001
1320:-2.5515959406570266e-001
1321:-2.8212210389959080e-001
1322:-3.0547388930303188e-001
1323:-3.6081407825176631e-001
1324:-3.7405076560782319e-001
1325:-3.7859849547367092e-001
1326:-3.3707064287875821e-001
1327:-3.4440838782107502e-001
1328:-3.4750560317864010e-001
1329:-3.1271669370904226e-001
1330:-3.1671965572356786e-001
1331:-3.2093051605880130e-001
1332:-3.7327162072374320e-001
1333:-3.5634416550798437e-001
1334:-3.3990832732376575e-001
1335:-3.4478436784928285e-001
1336:-3.3464237040615297e-001
1337:-3.2383339935536837e-001
1338:-3.2098634805310450e-001
1339:-3.1565475945820826e-001
1340:-3.0849760661645070e-001
1341:-3.2802694326095438e-001
1342:-3.0355022311197116e-001
1343:-2.7943765091599942e-001
1344:-3.1436608388697956e-001
1345:-2.9323640563825509e-001
1346:-2.7236261053750283e-001
1347:-3.0088527050854041e-001
1348:-2.8315637758750495e-001
1349:-2.6557510300940512e-001
1350:-2.6463236191745265e-001
1351:-2.3794621327236246e-001
1352:-2.1174742228177793e-001
1353:-2.5930266671270924e-001
1354:-2.3543854968629671e-001
1355:-2.1205103879871848e-001
1356:-2.5420261391059357e-001
1357:-2.3290784503376191e-001
1358:-2.1207893078008236e-001
1359:-1.9645274305516483e-001
1360:-1.7066047021512573e-001
1361:-1.4623700572057760e-001
1362:-1.9826661389781516e-001
1363:-1.7464389151743084e-001
1364:-1.5205521860630472e-001
1365:-1.9967093675195360e-001
1366:-1.7801056511867852e-001
1367:-1.5704948407842353e-001
1368:-1.3301806475920364e-001
1369:-1.1164639975948311e-001
1370:-9.1072899360616008e-002
1371:-1.3951639942267327e-001
1372:-1.1890372150859307e-001
1373:-9.9151888430391050e-002
1374:-1.4515049861607787e-001
1375:-1.2536555792968967e-001
1376:-1.0650414231419709e-001
1377:-8.0045426984217141e-002
1378:-6.2878140914440800e-002
1379:-4.6749191707131432e-002
1380:-8.8543206038828703e-002
1381:-7.1865190434543300e-002
1382:-5.6089538076605445e-002
1383:-9.6313546367978481e-002
1384:-8.0053633379561950e-002
1385:-6.4560110021372019e-002
1386:-3.8556350002520647e-002
1387:-2.6278726114618404e-002
1388:-1.4649134082846174e-002
1389:-4.7904308365958825e-002
1390:-3.5422693822516366e-002
1391:-2.3643917022554695e-002
1392:-5.6385450920428397e-002
1393:-4.3781180829442538e-002
1394:-3.1934554369279958e-002
1395:-8.9169382078892502e-003
1396:-8.3115432608879168e-004
1397:6.6325196091589411e-003
1398:-1.7796100595427709e-002
1399:-9.4172191363069389e-003
1400:-1.6456121880292355e-003
1401:-2.5995467382169530e-002
1402:-1.7325831783162358e-002
1403:-9.2486352592916262e-003
1404:9.9587101116295415e-003
1405:1.4044124507857945e-002
1406:1.7691259905348682e-002
1407:1.9345187728537017e-003
1408:6.5497696012870059e-003
1409:1.0687518035360617e-002
1410:-5.4299134512669585e-003
1411:-3.3523156458263240e-004
1412:4.2427245321194481e-003
1413:1.8913747425580160e-002
1414:1.9510362151402214e-002
1415:1.9734820454943344e-002
1416:1.2227355518861973e-002
1417:1.3440555948127927e-002
1418:1.4268136908462995e-002
1419:6.0766825048626637e-003
1420:7.8770461173998454e-003
1421:9.2783272143707133e-003
1422:1.9060494792385117e-002
1423:1.6583224591510098e-002
1424:1.3833725008383714e-002
1425:1.4008935942782590e-002
1426:1.2356515053234533e-002
1427:1.0420569682185995e-002
1428:9.4086885184454447e-003
1429:8.5226943924529234e-003
1430:7.3418806857100246e-003
1431:1.1604853138320466e-002
1432:6.7706567979453850e-003
1433:1.7816656598602578e-003
1434:8.7582508572300027e-003
1435:5.0761017158509570e-003
1436:1.2567498493306710e-003
1437:6.2028806752079009e-003
1438:3.5826272069904206e-003
1439:8.4276308620205977e-004
1440:-1.4249716346099390e-002
1441:-6.4873853319566951e-002
1442:-1.1491457621096417e-001
1443:-1.3609858359678376e-002
1444:-5.8676143785199593e-002
1445:-1.0331372505777182e-001
1446:-1.2355624577260638e-002
1447:-5.2485878988078903e-002
1448:-9.2342139175072474e-002
1449:-1.4183118225819255e-001
1450:-1.8371402252337252e-001
1451:-2.2412246208217054e-001
1452:-1.2743090015817315e-001
1453:-1.6510511991314608e-001
1454:-2.0147275353153271e-001
1455:-1.1400343668768914e-001
1456:-1.4802783365685801e-001
1457:-1.8091345905922951e-001
1458:-2.4390064350104684e-001
1459:-2.6963302144053330e-001
1460:-2.9106102793505573e-001
1461:-2.1930293260332881e-001
1462:-2.4332761800046454e-001
1463:-2.6468096639707234e-001
1464:-1.9712029373620249e-001
1465:-2.1999417321616083e-001
1466:-2.4182975014001595e-001
1467:-2.9767570896316431e-001
1468:-3.0244891662753670e-001
1469:-3.0829332652036162e-001
1470:-2.7289030473019715e-001
1471:-2.8120765027474243e-001
1472:-2.8911450683265655e-001
1473:-2.5144307204815813e-001
1474:-2.6209242016230222e-001
1475:-2.7084958807471909e-001
1476:-3.0931089999326455e-001
1477:-3.0502739052517186e-001
1478:-2.9881587233842249e-001
1479:-2.9041846839200092e-001
1480:-2.8653373011863781e-001
1481:-2.8152752419154653e-001
1482:-2.7223714066399179e-001
1483:-2.6926639849987283e-001
1484:-2.6598072974695081e-001
1485:-2.9206654263940918e-001
1486:-2.7635879173700290e-001
1487:-2.6069786046904508e-001
1488:-2.7622649925408294e-001
1489:-2.6361619164217120e-001
1490:-2.5081457454734374e-001
1491:-2.6209188119780047e-001
1492:-2.5193963710804551e-001
1493:-2.4135795441801949e-001
1494:-2.5026253954656102e-001
1495:-2.3031715434649505e-001
1496:-2.1081297775517630e-001
1497:-2.4180911936553912e-001
1498:-2.2402412254279727e-001
1499:-2.0660639002119263e-001
1500:-2.3356452005731679e-001
1501:-2.1783066912808979e-001
1502:-2.0239013819238691e-001
1503:-1.9911163044444494e-001
1504:-1.7850214827466029e-001
1505:-1.5848557766853694e-001
1506:-1.9599671500578220e-001
1507:-1.7708015345068609e-001
1508:-1.5872569168687356e-001
1509:-1.9279984227302854e-001
1510:-1.7543700883911942e-001
1511:-1.5860546342411710e-001
1512:-1.4702614666399971e-001
1513:-1.2786436860619588e-001
1514:-1.0960826962525416e-001
1515:-1.4811873511247464e-001
1516:-1.3016421168691833e-001
1517:-1.1299135949334393e-001
1518:-1.4878247144022660e-001
1519:-1.3193896164700680e-001
1520:-1.1575311524088755e-001
1521:-9.9674929313064514e-002
1522:-8.3680110599958099e-002
1523:-6.8412695332517481e-002
1524:-1.0350763282202696e-001
1525:-8.8055997224415983e-002
1526:-7.3333762989980983e-002
1527:-1.0669295889049732e-001
1528:-9.1791249756147705e-002
1529:-7.7620939902489403e-002
1530:-6.0313943031976812e-002
1531:-4.7770586869983769e-002
1532:-3.5986428889769384e-002
1533:-6.5480950791091827e-002
1534:-5.3204366385313201e-002
1535:-4.1637516475363533e-002
1536:-7.0010299240812979e-002
1537:-5.7980792603141589e-002
1538:-4.6611556775346237e-002
1539:-3.0032255569214947e-002
1540:-2.1246639391059821e-002
1541:-1.3052432722654923e-002
1542:-3.5709783625428926e-002
1543:-2.6836942909555895e-002
1544:-1.8566809046251184e-002
1545:-4.0714496516931792e-002
1546:-3.1788668899657820e-002
1547:-2.3476845477782973e-002
1548:-9.1385419805820323e-003
1549:-3.8404376596880801e-003
1550:9.3172303286380594e-004
1551:-1.4564848140563191e-002
1552:-9.0278550657426973e-003
1553:-4.0092592483834044e-003
1554:-1.9402762378118540e-002
1555:-1.3647447977954598e-002
1556:-8.4029844643760745e-003
1557:2.9087532062977259e-003
1558:5.0086671231371642e-003
1559:6.7035161358011044e-003
1560:-1.8326624342279291e-003
1561:6.9717424604716859e-004
1562:2.8148506401312091e-003
1563:-6.0469200229338960e-003
1564:-3.1356632429529645e-003
1565:-6.4366213117029189e-004
1566:7.0343371158562177e-003
1567:6.5460772619065433e-003
1568:5.7607709627796816e-003
1569:3.4398062409294020e-003
1570:3.5464414523518101e-003
1571:3.3596727167652905e-003
1572:2.4183911160286525e-004
1573:8.7644380632701251e-004
1574:1.2212870522079412e-003
1575:4.8979156434976155e-003
1576:2.8377493124481863e-003
1577:6.6600981961694372e-004
1578:2.9146394910803111e-003
1579:1.6959000159271543e-003
1580:3.7561607655131981e-004
1581:1.1387145669354433e-003
1582:6.3807870053141124e-004
1583:4.5927067475680658e-005
1584:-1.1477588914997975e-002
1585:-4.9304264959038446e-002
1586:-8.6886607530904991e-002
1587:-1.0287214746263259e-002
1588:-4.4949458773340077e-002
1589:-7.9314588325239549e-002
1590:-9.3697719135735057e-003
1591:-4.1203988580756176e-002
1592:-7.2688309769751505e-002
1593:-1.0737905632957387e-001
1594:-1.3970748670080943e-001
1595:-1.7099939318336660e-001
1596:-9.8106031734250587e-002
1597:-1.2795874090621359e-001
1598:-1.5695848491416997e-001
1599:-8.9905190834519907e-002
1600:-1.1738029462285847e-001
1601:-1.4418599197185747e-001
1602:-1.8649180520897501e-001
1603:-2.0870907815621287e-001
1604:-2.3030754319762659e-001
1605:-1.7143534917834394e-001
1606:-1.9221279958734200e-001
1607:-2.1217999751869429e-001
1608:-1.5768724845004797e-001
1609:-1.7706401389826901e-001
1610:-1.9543908229701309e-001
1611:-2.4002916546718919e-001
1612:-2.5087864271636318e-001
1613:-2.5962157260619190e-001
1614:-2.2104122045170238e-001
1615:-2.3116969510689414e-001
1616:-2.3993664266572232e-001
1617:-2.0351478086263383e-001
1618:-2.1314042255447979e-001
1619:-2.2214955741293327e-001
1620:-2.6122028210362086e-001
1621:-2.5922782397242644e-001
1622:-2.5707541071431572e-001
1623:-2.4225530183246247e-001
1624:-2.4205516334545552e-001
1625:-2.4142108680499136e-001
1626:-2.2510605405323000e-001
1627:-2.2619788770280272e-001
1628:-2.2658180037236364e-001
1629:-2.5382489736921648e-001
1630:-2.4462475917221660e-001
1631:-2.3498241922587440e-001
1632:-2.3888249552023608e-001
1633:-2.3091278993850559e-001
1634:-2.2269515126929521e-001
1635:-2.2461127936074737e-001
1636:-2.1787800843295824e-001
1637:-2.1109107307955108e-001
1638:-2.2780309125342388e-001
1639:-2.1322217548426400e-001
1640:-1.9889378609681371e-001
1641:-2.1650790088091168e-001
1642:-2.0374339089507265e-001
1643:-1.9116516469126238e-001
1644:-2.0582325646882407e-001
1645:-1.9461951039180303e-001
1646:-1.8353580549711662e-001
1647:-1.8987344871207196e-001
1648:-1.7337035015791605e-001
1649:-1.5737822428602527e-001
1650:-1.8306437812364940e-001
1651:-1.6798872902876935e-001
1652:-1.5338505090332999e-001
1653:-1.7625171430124001e-001
1654:-1.6250569465851009e-001
1655:-1.4919264427238690e-001
1656:-1.4798989897191758e-001
1657:-1.3178586770903114e-001
1658:-1.1619620946693597e-001
1659:-1.4471781555133054e-001
1660:-1.2961254973457931e-001
1661:-1.1509689780022755e-001
1662:-1.4119553545651173e-001
1663:-1.2711171970399013e-001
1664:-1.1359275869546522e-001
1665:-1.0741952802794211e-001
1666:-9.2914265519013078e-002
1667:-7.9125734227108294e-002
1668:-1.0686417283175921e-001
1669:-9.3136360830354745e-002
1670:-8.0072875449842873e-002
1671:-1.0586767203697604e-001
1672:-9.2869818868688891e-002
1673:-8.0483887725156467e-002
1674:-7.1682441118132087e-002
1675:-5.9843704055344733e-002
1676:-4.8646634269124168e-002
1677:-7.2955636316444389e-002
1678:-6.1536823597370331e-002
1679:-5.0745210953525938e-002
1680:-7.3678301953186240e-002
1681:-6.2677417661581539e-002
1682:-5.2289266243855513e-002
1683:-4.2811054384632161e-002
1684:-3.3932949558556719e-002
1685:-2.5663587109128961e-002
1686:-4.5087495452138318e-002
1687:-3.6405537082531941e-002
1688:-2.8302941550450600e-002
1689:-4.6809402738017980e-002
1690:-3.8325544171351547e-002
1691:-3.0391668903092646e-002
1692:-2.1580027582932544e-002
1693:-1.5749421613837942e-002
1694:-1.0423994276099448e-002
1695:-2.4254413583518909e-002
1696:-1.8388679474637543e-002
1697:-1.3016177710141496e-002
1698:-2.6387110405738452e-002
1699:-2.0515009864989255e-002
1700:-1.5124195381647431e-002
1701:-7.9955642143437738e-003
1702:-4.9184337493197068e-003
1703:-2.2577470386071423e-003
1704:-1.0518341173996939e-002
1705:-7.2466640938664518e-003
1706:-4.3746722674356834e-003
1707:-1.2576756650421028e-002
1708:-9.1498284881874285e-003
1709:-6.1058270790217443e-003
1710:-1.2488955632244574e-003
1711:-3.5840288596329292e-004
1712:2.4619608465395026e-004
1713:-3.2017185883170653e-003
1714:-1.9631843552173822e-003
1715:-1.0008948631223635e-003
1716:-4.8011892969539180e-003
1717:-3.2867225083646440e-003
1718:-2.0388514951340999e-003
1719:3.3886968980472717e-004
1720:1.8120330249522923e-004
1721:-6.3346623738668082e-005
1722:-6.6946379471707711e-004
1723:-3.6675912627606049e-004
1724:-1.4504808230624922e-004
1725:-1.5255944657254078e-003
1726:-8.8605437459960367e-004
1727:-3.2161799347863801e-004
1728:-8.9004834108913685e-003
1729:-3.9092128810620318e-002
1730:-6.8952755697430659e-002
1731:-8.0639933974680986e-003
1732:-3.5350461146888029e-002
1733:-6.2423561920383182e-002
1734:-7.2816470800982358e-003
1735:-3.1862203326941042e-002
1736:-5.6347044134855646e-002
1737:-8.5275118761630977e-002
1738:-1.1134154904051960e-001
1739:-1.3682195182492290e-001
1740:-7.7244556424805849e-002
1741:-1.0092959687251701e-001
1742:-1.2413158215079081e-001
1743:-6.9790127451969608e-002
1744:-9.1318772153255165e-002
1745:-1.1246733401014677e-001
1746:-1.4971374306897731e-001
1747:-1.6828271716624407e-001
1748:-1.8587347559169146e-001
1749:-1.3592902064938508e-001
1750:-1.5312487421351717e-001
1751:-1.6961465023645977e-001
1752:-1.2324825559607980e-001
1753:-1.3911347673365326e-001
1754:-1.5454475846065718e-001
1755:-1.9364151932896528e-001
1756:-2.0311397695961109e-001
1757:-2.1217893932240281e-001
1758:-1.7704872842528097e-001
1759:-1.8628156474731497e-001
1760:-1.9508015204310422e-001
1761:-1.6162332945107194e-001
1762:-1.7050002865725108e-001
1763:-1.7891572507878384e-001
1764:-2.1528424349846709e-001
1765:-2.1669736179881435e-001
1766:-2.1740357025127102e-001
1767:-1.9809288145580575e-001
1768:-1.9965061005475990e-001
1769:-2.0077888647951905e-001
1770:-1.8180626481874634e-001
1771:-1.8352334813406534e-001
1772:-1.8508843694887045e-001
1773:-2.1572959027794533e-001
1774:-2.0972616517972933e-001
1775:-2.0372133534864792e-001
1776:-1.9960959041077317e-001
1777:-1.9472986618152879e-001
1778:-1.8983405855653335e-001
1779:-1.8436315440690096e-001
1780:-1.8038389338067590e-001
1781:-1.7637387029581489e-001
1782:-1.9890552104179127e-001
1783:-1.8844122122862220e-001
1784:-1.7810003483297202e-001
1785:-1.8564258629736707e-001
1786:-1.7627385994944125e-001
1787:-1.6710504732935924e-001
1788:-1.7271933815380192e-001
1789:-1.6436906693055678e-001
1790:-1.5629550974546635e-001
1791:-1.7125358507452615e-001
1792:-1.5825840894919466e-001
1793:-1.4568286969188310e-001
1794:-1.6097433756059651e-001
1795:-1.4921244876911036e-001
1796:-1.3786338191610353e-001
1797:-1.5082181206298548e-001
1798:-1.4016851099487029e-001
1799:-1.2992121693568165e-001
1800:-1.3807510306216514e-001
1801:-1.2459271407812375e-001
1802:-1.1166334508030379e-001
1803:-1.3092085755251651e-001
1804:-1.1849222424341121e-001
1805:-1.0660070001243674e-001
1806:-1.2358893982482286e-001
1807:-1.1214977189547543e-001
1808:-1.0123180213615579e-001
1809:-1.0424464678639771e-001
1810:-9.1704063235793346e-002
1811:-7.9754210699343228e-002
1812:-9.9731200486261024e-002
1813:-8.8037179758355455e-002
1814:-7.6913471909285727e-002
1815:-9.4881280863972989e-002
1816:-8.3994260710087934e-002
1817:-7.3657135299714141e-002
1818:-7.3163732597769968e-002
1819:-6.2470197636106069e-002
1820:-5.2374730079144657e-002
1821:-7.0749115995977108e-002
1822:-6.0683788470695076e-002
1823:-5.1180597788744231e-002
1824:-6.7902269861143283e-002
1825:-5.8447557275816318e-002
1826:-4.9519050972437556e-002
1827:-4.7030226666844040e-002
1828:-3.8717256886450405e-002
1829:-3.0937139878501892e-002
1830:-4.6121409245436035e-002
1831:-3.8200802532256856e-002
1832:-3.0783559220834332e-002
1833:-4.4742071218249330e-002
1834:-3.7220746051050323e-002
1835:-3.0173294914919300e-002
1836:-2.6993597380896572e-002
1837:-2.1179477254850636e-002
1838:-1.5832700435299777e-002
1839:-2.7004638275233282e-002
1840:-2.1389183198173515e-002
1841:-1.6205103567171850e-002
1842:-2.6566244882957352e-002
1843:-2.1167448747015125e-002
1844:-1.6164060196686435e-002
1845:-1.3286641442714076e-002
1846:-9.8205739787331926e-003
1847:-6.7237335879085768e-003
1848:-1.3710767866713958e-002
1849:-1.0263395338686674e-002
1850:-7.1549295485301093e-003
1851:-1.3737192618246418e-002
1852:-1.0344628110834147e-002
1853:-7.2606500059858026e-003
1854:-5.3723890509229742e-003
1855:-3.7529347899912546e-003
1856:-2.3905298884251526e-003
1857:-5.7711647205969689e-003
1858:-4.0565475744461345e-003
1859:-2.5758225742614541e-003
1860:-5.8713105091432799e-003
1861:-4.1176721496306032e-003
1862:-2.5747687226783202e-003
1863:-1.8067772352607827e-003
1864:-1.0443483097131966e-003
1865:-3.5496687511113944e-004
1866:-1.9248602959653263e-003
1867:-1.0639747930028850e-003
1868:-2.7496051577854160e-004
1869:-1.9030279478450985e-003
1870:-1.0471043823711999e-003
1871:-2.6187577740476210e-004
1872:-6.8437693713061538e-003
1873:-2.9897138164489259e-002
1874:-5.2891130599970436e-002
1875:-6.1019815061638680e-003
1876:-2.6582471061530371e-002
1877:-4.7010811672230465e-002
1878:-5.3843277852968401e-003
1879:-2.3443762105991656e-002
1880:-4.1458274895069522e-002
1881:-6.5530444168218419e-002
1882:-8.5808560416504392e-002
1883:-1.0577511154294154e-001
1884:-5.8229250191600024e-002
1885:-7.6271048518352064e-002
1886:-9.4133769981167251e-002
1887:-5.1322536102626902e-002
1888:-6.7205398722744378e-002
1889:-8.3041672736847372e-002
1890:-1.1595152672127723e-001
1891:-1.3095399889851089e-001
1892:-1.4564158646833958e-001
1893:-1.0322463568038757e-001
1894:-1.1660336338621846e-001
1895:-1.2980419919370617e-001
1896:-9.1086582710953462e-002
1897:-1.0290024733645921e-001
1898:-1.1467301277268800e-001
1899:-1.5240568193291706e-001
1900:-1.6090793009520138e-001
1901:-1.6901020884117424e-001
1902:-1.3586778350905399e-001
1903:-1.4351371078094413e-001
1904:-1.5099616305696911e-001
1905:-1.2005276936150519e-001
1906:-1.2684102679512996e-001
1907:-1.3370230365334046e-001
1908:-1.7182149123198573e-001
1909:-1.7361166714713908e-001
1910:-1.7536052140720138e-001
1911:-1.5365659654396424e-001
1912:-1.5546195285557268e-001
1913:-1.5732885615012177e-001
1914:-1.3618123326665460e-001
1915:-1.3789777337392359e-001
1916:-1.3977872910215347e-001
1917:-1.7480536688491599e-001
1918:-1.7118440472550092e-001
1919:-1.6757738992293750e-001
1920:-1.5692434890794091e-001
1921:-1.5374528592831105e-001
1922:-1.5074849250239972e-001
1923:-1.3947971747171872e-001
1924:-1.3669138694027053e-001
1925:-1.3425364815941154e-001
1926:-1.6420890778653385e-001
1927:-1.5643487965676436e-001
1928:-1.4897645452708311e-001
1929:-1.4785180328415745e-001
1930:-1.4101690559228683e-001
1931:-1.3455445218401080e-001
1932:-1.3178120226580883e-001
1933:-1.2577319796124733e-001
1934:-1.2019447922377491e-001
1935:-1.4386529765148412e-001
1936:-1.3382591437855265e-001
1937:-1.2420537179262683e-001
1938:-1.3003775145690963e-001
1939:-1.2104141644724617e-001
1940:-1.1251483988192662e-001
1941:-1.1622218186934748e-001
1942:-1.0820912622620008e-001
1943:-1.0071674678472867e-001
1944:-1.1823447689129028e-001
1945:-1.0739986244387145e-001
1946:-9.7082886282702327e-002
1947:-1.0718913851144402e-001
1948:-9.7447266718374406e-002
1949:-8.8226710608704129e-002
1950:-9.6002241434415214e-002
1951:-8.7296049030062120e-002
1952:-7.9114849706248880e-002
1953:-9.1060185169200863e-002
1954:-8.0693500876803007e-002
1955:-7.0865061888165784e-002
1956:-8.2815174320365573e-002
1957:-7.3437297587868128e-002
1958:-6.4578051091722974e-002
1959:-7.4289822173993242e-002
1960:-6.5873085890916436e-002
1961:-5.7955364776782474e-002
1962:-6.5381149237736927e-002
1963:-5.6343081720971973e-002
1964:-4.7810592680999624e-002
1965:-5.9619564865475823e-002
1966:-5.1408025394051565e-002
1967:-4.3667107680080745e-002
1968:-5.3511544546952089e-002
1969:-4.6117222110889144e-002
1970:-3.9158564712936356e-002
1971:-4.3236721396915367e-002
1972:-3.6015996777731901e-002
1973:-2.9246407213731507e-002
1974:-3.9510207067001459e-002
1975:-3.2921986494311717e-002
1976:-2.6736248046167133e-002
1977:-3.5417386009370312e-002
1978:-2.9466689134651884e-002
1979:-2.3869821453847608e-002
1980:-2.5774827187372441e-002
1981:-2.0561989018850528e-002
1982:-1.5719151738822035e-002
1983:-2.3557933188750522e-002
1984:-1.8767311401087540e-002
1985:-1.4295348459209796e-002
1986:-2.0991392985456762e-002
1987:-1.6640721694873732e-002
1988:-1.2557367207366043e-002
1989:-1.3363976536317101e-002
1990:-1.0058449193943279e-002
1991:-7.0379887570636958e-003
1992:-1.2117167025230649e-002
1993:-9.0495437683091162e-003
1994:-6.2164831963093916e-003
1995:-1.0568967949490802e-002
1996:-7.7654619179503481e-003
1997:-5.1460143507462801e-003
1998:-5.6738963092284609e-003
1999:-3.9463310108897318e-003
2000:-2.4103645215590337e-003
2001:-4.9384285247016258e-003
2002:-3.3242310878826005e-003
2003:-1.8590285442149073e-003
2004:-3.9710859999925662e-003
2005:-2.5027679260170130e-003
2006:-1.1408408293369680e-003
2007:-1.7551485608524281e-003
2008:-9.6093121870971336e-004
2009:-2.3663960092564794e-004
2010:-1.2657292182759142e-003
2011:-6.4007756075078442e-004
2012:-8.2884419139552806e-005
2013:-6.3164555617769766e-004
2014:-2.1829495917531706e-004
2015:1.2806433036148795e-004
2016:-4.9226049688792890e-003
2017:-2.1459410052148794e-002
2018:-3.7973888880904874e-002
2019:-4.0595631326254952e-003
2020:-1.7717378586649381e-002
2021:-3.1423288854722800e-002
2022:-3.2299677296849512e-003
2023:-1.4055981680497404e-002
2024:-2.5000511513923959e-002
2025:-4.6993329138347237e-002
2026:-6.1508844536656740e-002
2027:-7.6055888112289929e-002
2028:-3.8868871757931064e-002
2029:-5.0826712846785638e-002
2030:-6.2952041530530453e-002
2031:-3.0900492332964907e-002
2032:-4.0350569986681552e-002
2033:-5.0104094652861614e-002
2034:-8.3426729640652453e-002
2035:-9.4229726199165101e-002
2036:-1.0509555176386633e-001
2037:-6.9037065440362810e-002
2038:-7.7896980149122705e-002
2039:-8.7039192235001756e-002
2040:-5.4919125823314652e-002
2041:-6.1840429873488832e-002
2042:-6.9263499671712095e-002
2043:-1.1003539712491608e-001
2044:-1.1623714239394344e-001
2045:-1.2264398433596733e-001
2046:-9.1137447415529024e-002
2047:-9.6169345605979034e-002
2048:-1.0162372841337756e-001
2049:-7.2515675833066631e-002
2050:-7.6357829897156518e-002
2051:-8.0839856522146591e-002
2052:-1.2495005568754969e-001
2053:-1.2650712767600339e-001
2054:-1.2832989912815390e-001
2055:-1.0352819733865487e-001
2056:-1.0467557279552603e-001
2057:-1.0633384016023918e-001
2058:-8.2328984742300423e-002
2059:-8.3039349234634741e-002
2060:-8.4505798078943456e-002
2061:-1.2807692797311832e-001
2062:-1.2550208187227885e-001
2063:-1.2337459150675832e-001
2064:-1.0614604048026141e-001
2065:-1.0390738345145567e-001
2066:-1.0228028858883062e-001
2067:-8.4357304696754953e-002
2068:-8.2393265706603477e-002
2069:-8.1204995313497938e-002
2070:-1.2113370624466679e-001
2071:-1.1558614479135512e-001
2072:-1.1052580248984578e-001
2073:-1.0042350275843570e-001
2074:-9.5681325547847348e-002
2075:-9.1568614486977548e-002
2076:-7.9704258358357802e-002
2077:-7.5732640920266714e-002
2078:-7.2532736629800296e-002
2079:-1.0688954629936195e-001
2080:-9.9497150213514046e-002
2081:-9.2658938296332150e-002
2082:-8.8560626609981846e-002
2083:-8.2329279706133449e-002
2084:-7.6716349063105649e-002
2085:-7.0130646864109497e-002
2086:-6.5018298598986474e-002
2087:-6.0588598686831079e-002
2088:-8.8333042362468334e-002
2089:-8.0291368393652571e-002
2090:-7.2782220048644694e-002
2091:-7.3125415945508934e-002
2092:-6.6357027946559011e-002
2093:-6.0143373696505353e-002
2094:-5.7715216248538467e-002
2095:-5.2202328099062896e-002
2096:-4.7266381823562596e-002
2097:-6.8343515256143031e-002
2098:-6.0569459997492005e-002
2099:-5.3282025370724788e-002
2100:-5.6456639382777646e-002
2101:-4.9942062376132246e-002
2102:-4.3891127345357980e-002
2103:-4.4323823892225660e-002
2104:-3.9059726910662805e-002
2105:-3.4236293248955406e-002
2106:-4.9187432682903279e-002
2107:-4.2354723115982817e-002
2108:-3.5932552494799513e-002
2109:-4.0488017862216535e-002
2110:-3.4776746248442840e-002
2111:-2.9424624692483182e-002
2112:-3.1523250751711349e-002
2113:-2.6937548493939555e-002
2114:-2.2659607406049605e-002
2115:-3.2480199861314958e-002
2116:-2.6979925771125825e-002
2117:-2.1799619154640629e-002
2118:-2.6553009733295770e-002
2119:-2.1967849856166621e-002
2120:-1.7634944863806692e-002
2121:-2.0373540563087468e-002
2122:-1.6715894539786589e-002
2123:-1.3242790812325562e-002
2124:-1.9137683120205282e-002
2125:-1.5112368554958882e-002
2126:-1.1317322913380359e-002
2127:-1.5418400493480474e-002
2128:-1.2070937179052022e-002
2129:-8.8777701018695008e-003
2130:-1.1480278864777508e-002
2131:-8.8279610556739885e-003
2132:-6.2539667973902282e-003
2133:-9.4732549474806586e-003
2134:-6.8779305325495626e-003
2135:-4.4303869296878316e-003
2136:-7.3376944707596323e-003
2137:-5.1863263599008832e-003
2138:-3.1085754317364089e-003
2139:-5.0272346015950110e-003
2140:-3.3346635194210980e-003
2141:-1.6415459905478958e-003
2142:-3.3408055258780114e-003
2143:-1.9981230424869134e-003
2144:-7.3213095721098344e-004
2145:-2.2030194476287787e-003
2146:-1.1324360522386311e-003
2147:-7.9081177773347608e-005
2148:-9.2758831102875714e-004
2149:-1.4028743484200798e-004
2150:6.8924679761438960e-004
2151:-2.9099070449509559e-004
2152:-2.9128983374488321e-005
2153:1.7444520926452478e-004
2154:2.3350465211257286e-004
2155:2.4620494624927070e-004
2156:2.2906096744082890e-004
2157:8.8395233063843094e-004
2158:6.9535617399060139e-004
2159:5.0535899997316148e-004
2160:-2.6779264025077274e-003
2161:-1.1599999165764475e-002
2162:-2.0680810258753572e-002
2163:-1.5399396091572721e-003
2164:-6.7177126217283067e-003
2165:-1.2122027000026724e-002
2166:-3.2618611914979345e-004
2167:-1.7553783209327412e-003
2168:-3.4789149244376528e-003
2169:-2.5532404727794330e-002
2170:-3.3284870842570639e-002
2171:-4.1445206046368505e-002
2172:-1.4887559714972980e-002
2173:-1.9247894435229632e-002
2174:-2.4238984423469900e-002
2175:-4.1418805039013552e-003
2176:-5.0576442840753180e-003
2177:-6.8270495112150434e-003
2178:-4.5403723033898807e-002
2179:-5.1006323944381149e-002
2180:-5.7263929706460263e-002
2181:-2.6499408157146524e-002
2182:-2.9490154325404947e-002
2183:-3.3443041877610498e-002
2184:-7.3669674699352984e-003
2185:-7.7212779994120439e-003
2186:-9.3448664452078535e-003
2187:-5.9937139355322973e-002
2188:-6.2964153049890254e-002
2189:-6.6798235391437533e-002
2190:-3.4966603503957826e-002
2191:-3.6379882480214870e-002
2192:-3.8957410117046322e-002
2193:-9.7048203059290298e-003
2194:-9.4809729195028548e-003
2195:-1.0778554207266504e-002
2196:-6.8015027542793635e-002
2197:-6.8435601679634112e-002
2198:-6.9776584040382936e-002
2199:-3.9655552564239790e-002
2200:-3.9526027011367287e-002
2201:-4.0636414855838479e-002
2202:-1.0947236992946027e-002
2203:-1.0253855066399878e-002
2204:-1.1119891710631815e-002
2205:-6.9649471846069982e-002
2206:-6.7861687940863766e-002
2207:-6.6978848913172198e-002
2208:-4.0558949387226997e-002
2209:-3.9146680806099898e-002
2210:-3.8919063883793792e-002
2211:-1.1090184267450181e-002
2212:-1.0060697191670956e-002
2213:-1.0495568556017234e-002
2214:-6.5732144351641514e-002
2215:-6.2304107703242767e-002
2216:-5.9739829339169964e-002
2217:-3.8210099049017530e-002
2218:-3.5906587136411060e-002
2219:-3.4640898856004770e-002
2220:-1.0328529121015000e-002
2221:-9.1566597935259838e-003
2222:-9.1966794460999878e-003
2223:-5.7754760404029361e-002
2224:-5.3411330008333160e-002
2225:-4.9798371663653092e-002
2226:-3.3503365481128013e-002
2227:-3.0726158280198170e-002
2228:-2.8779536778239908e-002
2229:-8.9158298604689792e-003
2230:-7.7291658178143628e-003
2231:-7.4732011220719962e-003
2232:-4.7424319961934594e-002
2233:-4.2786170235648041e-002
2234:-3.8734883629132619e-002
2235:-2.7423861535954094e-002
2236:-2.4562066587091459e-002
2237:-2.2299020911493529e-002
2238:-7.1494449757238902e-003
2239:-6.0862239983877787e-003
2240:-5.6336384478082617e-003
2241:-3.6307123945303596e-002
2242:-3.1908443233212493e-002
2243:-2.7930875306431860e-002
2244:-2.0910412649111969e-002
2245:-1.8258318500705382e-002
2246:-1.5983130544395763e-002
2247:-5.2984292984677109e-003
2248:-4.4196645931688068e-003
2249:-3.8735994867745769e-003
2250:-2.5694512240276253e-002
2251:-2.1887963779333809e-002
2252:-1.8349354195050654e-002
2253:-1.4705107335954124e-002
2254:-1.2462876827093489e-002
2255:-1.0403125103715516e-002
2256:-3.5684596262819434e-003
2257:-2.9137827732698351e-003
2258:-2.3561246145621024e-003
2259:-1.6466889041094165e-002
2260:-1.3450165885137319e-002
2261:-1.0567752969630114e-002
2262:-9.3272553333894406e-003
2263:-7.5909781280196886e-003
2264:-5.8841017119499557e-003
2265:-2.0996694668891400e-003
2266:-1.6646557166165752e-003
2267:-1.1541333044768048e-003
2268:-9.1176659407926526e-003
2269:-6.9463695375071221e-003
2270:-4.8001693978487843e-003
2271:-5.0549953934374767e-003
2272:-3.8408452404341230e-003
2273:-2.5448489082070865e-003
2274:-9.5676697921087011e-004
2275:-7.1591975817934361e-004
2276:-2.8628391509337480e-004
2277:-3.7905453681434517e-003
2278:-2.4167689691751339e-003
2279:-9.8999094941678027e-004
2280:-1.9673047702242737e-003
2281:-1.2287085091526493e-003
2282:-3.3101248767912196e-004
2283:-1.4913733663989712e-004
2284:-5.8148128057934007e-005
2285:2.9803898054105382e-004
2286:-4.0700867834527393e-004
2287:1.9479994053675775e-004
2288:8.8860789795063044e-004
2289:-1.9091633683144703e-006
2290:2.6005321892334104e-004
2291:7.2557344621772464e-004
2292:3.7284565380121240e-004
2293:3.0595327678593573e-004
2294:5.5417725122559262e-004
2295:1.0260120646098773e-003
2296:7.6049395464339309e-004
2297:5.1896803235032844e-004
2298:7.9018397463736416e-004
2299:4.6875648572902370e-004
2300:2.3014146671699275e-004
2301:5.6633791889570419e-004
2302:2.4792079573936318e-004
2303:7.1136424683871706e-005
2304:0.0000000000000000e+000
2305:0.0000000000000000e+000
2306:0.0000000000000000e+000
2307:0.0000000000000000e+000
2308:0.0000000000000000e+000
2309:0.0000000000000000e+000
2310:0.0000000000000000e+000
2311:0.0000000000000000e+000
2312:0.0000000000000000e+000
2313:0.0000000000000000e+000
2314:0.0000000000000000e+000
2315:0.0000000000000000e+000
2316:0.0000000000000000e+000
2317:0.0000000000000000e+000
2318:0.0000000000000000e+000
2319:0.0000000000000000e+000
2320:0.0000000000000000e+000
2321:0.0000000000000000e+000
2322:0.0000000000000000e+000
2323:0.0000000000000000e+000
2324:0.0000000000000000e+000
2325:0.0000000000000000e+000
2326:0.0000000000000000e+000
2327:0.0000000000000000e+000
2328:0.0000000000000000e+000
2329:0.0000000000000000e+000
2330:0.0000000000000000e+000
2331:0.0000000000000000e+000
2332:0.0000000000000000e+000
2333:0.0000000000000000e+000
2334:0.0000000000000000e+000
2335:0.0000000000000000e+000
2336:0.0000000000000000e+000
2337:0.0000000000000000e+000
2338:0.0000000000000000e+000
2339:0.0000000000000000e+000
2340:0.0000000000000000e+000
2341:0.0000000000000000e+000
2342:0.0000000000000000e+000
2343:0.0000000000000000e+000
2344:0.0000000000000000e+000
2345:0.0000000000000000e+000
2346:0.0000000000000000e+000
2347:0.0000000000000000e+000
2348:0.0000000000000000e+000
2349:0.0000000000000000e+000
2350:0.0000000000000000e+000
2351:0.0000000000000000e+000
2352:0.0000000000000000e+000
2353:0.0000000000000000e+000
2354:0.0000000000000000e+000
2355:0.0000000000000000e+000
2356:0.0000000000000000e+000
2357:0.0000000000000000e+000
2358:0.0000000000000000e+000
2359:0.0000000000000000e+000
2360:0.0000000000000000e+000
2361:0.0000000000000000e+000
2362:0.0000000000000000e+000
2363:0.0000000000000000e+000
2364:0.0000000000000000e+000
2365:0.0000000000000000e+000
2366:0.0000000000000000e+000
2367:0.0000000000000000e+000
2368:0.0000000000000000e+000
2369:0.0000000000000000e+000
2370:0.0000000000000000e+000
2371:0.0000000000000000e+000
2372:0.0000000000000000e+000
2373:0.0000000000000000e+000
2374:0.0000000000000000e+000
2375:0.0000000000000000e+000
2376:0.0000000000000000e+000
2377:0.0000000000000000e+000
2378:0.0000000000000000e+000
2379:0.0000000000000000e+000
2380:0.0000000000000000e+000
2381:0.0000000000000000e+000
2382:0.0000000000000000e+000
2383:0.0000000000000000e+000
2384:0.0000000000000000e+000
2385:0.0000000000000000e+000
2386:0.0000000000000000e+000
2387:0.0000000000000000e+000
2388:0.0000000000000000e+000
2389:0.0000000000000000e+000
2390:0.0000000000000000e+000
2391:0.0000000000000000e+000
2392:0.0000000000000000e+000
2393:0.0000000000000000e+000
2394:0.0000000000000000e+000
2395:0.0000000000000000e+000
2396:0.0000000000000000e+000
2397:0.0000000000000000e+000
2398:0.0000000000000000e+000
2399:0.0000000000000000e+000
2400:0.0000000000000000e+000
2401:0.0000000000000000e+000
2402:0.0000000000000000e+000
2403:0.0000000000000000e+000
2404:0.0000000000000000e+000
2405:0.0000000000000000e+000
2406:0.0000000000000000e+000
2407:0.0000000000000000e+000
2408:0.0000000000000000e+000
2409:0.0000000000000000e+000
2410:0.0000000000000000e+000
2411:0.0000000000000000e+000
2412:0.0000000000000000e+000
2413:0.0000000000000000e+000
2414:0.0000000000000000e+000
2415:0.0000000000000000e+000
2416:0.0000000000000000e+000
2417:0.0000000000000000e+000
2418:0.0000000000000000e+000
2419:0.0000000000000000e+000
2420:0.0000000000000000e+000
2421:0.0000000000000000e+000
2422:0.0000000000000000e+000
2423:0.0000000000000000e+000
2424:0.0000000000000000e+000
2425:0.0000000000000000e+000
2426:0.0000000000000000e+000
2427:0.0000000000000000e+000
2428:0.0000000000000000e+000
2429:0.0000000000000000e+000
2430:0.0000000000000000e+000
2431:0.0000000000000000e+000
2432:0.0000000000000000e+000
2433:0.0000000000000000e+000
2434:0.0000000000000000e+000
2435:0.0000000000000000e+000
2436:0.0000000000000000e+000
2437:0.0000000000000000e+000
2438:0.0000000000000000e+000
2439:0.0000000000000000e+000
2440:0.0000000000000000e+000
2441:0.0000000000000000e+000
2442:0.0000000000000000e+000
2443:0.0000000000000000e+000
2444:0.0000000000000000e+000
2445:0.0000000000000000e+000
2446:0.0000000000000000e+000
2447:0.0000000000000000e+000
2448:0.0000000000000000e+000
2449:0.0000000000000000e+000
2450:0.0000000000000000e+000
2451:0.0000000000000000e+000
2452:0.0000000000000000e+000
2453:0.0000000000000000e+000
2454:0.0000000000000000e+000
2455:0.0000000000000000e+000
2456:0.0000000000000000e+000
2457:0.0000000000000000e+000
2458:0.0000000000000000e+000
2459:0.0000000000000000e+000
2460:0.0000000000000000e+000
2461:0.0000000000000000e+000
2462:0.0000000000000000e+000
2463:0.0000000000000000e+000
2464:0.0000000000000000e+000
2465:0.0000000000000000e+000
2466:0.0000000000000000e+000
2467:0.0000000000000000e+000
2468:0.0000000000000000e+000
2469:0.0000000000000000e+000
2470:0.0000000000000000e+000
2471:0.0000000000000000e+000
2472:0.0000000000000000e+000
2473:0.0000000000000000e+000
2474:0.0000000000000000e+000
2475:0.0000000000000000e+000
2476:0.0000000000000000e+000
2477:0.0000000000000000e+000
2478:0.0000000000000000e+000
2479:0.0000000000000000e+000
2480:0.0000000000000000e+000
2481:0.0000000000000000e+000
2482:0.0000000000000000e+000
2483:0.0000000000000000e+000
2484:0.0000000000000000e+000
2485:0.0000000000000000e+000
2486:0.0000000000000000e+000
2487:0.0000000000000000e+000
2488:0.0000000000000000e+000
2489:0.0000000000000000e+000
2490:0.0000000000000000e+000
2491:0.0000000000000000e+000
2492:0.0000000000000000e+000
2493:0.0000000000000000e+000
2494:0.0000000000000000e+000
2495:0.0000000000000000e+000
2496:0.0000000000000000e+000
2497:0.0000000000000000e+000
2498:0.0000000000000000e+000
2499:0.0000000000000000e+000
2500:0.0000000000000000e+000
2501:0.0000000000000000e+000
2502:0.0000000000000000e+000
2503:0.0000000000000000e+000
2504:0.0000000000000000e+000
2505:0.0000000000000000e+000
2506:0.0000000000000000e+000
2507:0.0000000000000000e+000
2508:0.0000000000000000e+000
2509:0.0000000000000000e+000
2510:0.0000000000000000e+000
2511:0.0000000000000000e+000
2512:0.0000000000000000e+000
2513:0.0000000000000000e+000
2514:0.0000000000000000e+000
2515:0.0000000000000000e+000
2516:0.0000000000000000e+000
2517:0.0000000000000000e+000
2518:0.0000000000000000e+000
2519:0.0000000000000000e+000
2520:0.0000000000000000e+000
2521:0.0000000000000000e+000
2522:0.0000000000000000e+000
2523:0.0000000000000000e+000
2524:0.0000000000000000e+000
2525:0.0000000000000000e+000
2526:0.0000000000000000e+000
2527:0.0000000000000000e+000
2528:0.0000000000000000e+000
2529:0.0000000000000000e+000
2530:0.0000000000000000e+000
2531:0.0000000000000000e+000
2532:0.0000000000000000e+000
2533:0.0000000000000000e+000
2534:0.0000000000000000e+000
2535:0.0000000000000000e+000
2536:0.0000000000000000e+000
2537:0.0000000000000000e+000
2538:0.0000000000000000e+000
2539:0.0000000000000000e+000
2540:0.0000000000000000e+000
2541:0.0000000000000000e+000
2542:0.0000000000000000e+000
2543:0.0000000000000000e+000
2544:0.0000000000000000e+000
2545:0.0000000000000000e+000
2546:0.0000000000000000e+000
2547:0.0000000000000000e+000
2548:0.0000000000000000e+000
2549:0.0000000000000000e+000
2550:0.0000000000000000e+000
2551:0.0000000000000000e+000
2552:0.0000000000000000e+000
2553:0.0000000000000000e+000
2554:0.0000000000000000e+000
2555:0.0000000000000000e+000
2556:0.0000000000000000e+000
2557:0.0000000000000000e+000
2558:0.0000000000000000e+000
2559:0.0000000000000000e+000
2560:0.0000000000000000e+000
2561:0.0000000000000000e+000
2562:0.0000000000000000e+000
2563:0.0000000000000000e+000
2564:0.0000000000000000e+000
2565:0.0000000000000000e+000
2566:0.0000000000000000e+000
2567:0.0000000000000000e+000
2568:0.0000000000000000e+000
2569:0.0000000000000000e+000
2570:0.0000000000000000e+000
2571:0.0000000000000000e+000
2572:0.0000000000000000e+000
2573:0.0000000000000000e+000
2574:0.0000000000000000e+000
2575:0.0000000000000000e+000
2576:0.0000000000000000e+000
2577:0.0000000000000000e+000
2578:0.0000000000000000e+000
2579:0.0000000000000000e+000
2580:0.0000000000000000e+000
2581:0.0000000000000000e+000
2582:0.0000000000000000e+000
2583:0.0000000000000000e+000
2584:0.0000000000000000e+000
2585:0.0000000000000000e+000
2586:0.0000000000000000e+000
2587:0.0000000000000000e+000
2588:0.0000000000000000e+000
2589:0.0000000000000000e+000
2590:0.0000000000000000e+000
2591:0.0000000000000000e+000
2592:0.0000000000000000e+000
2593:0.0000000000000000e+000
2594:0.0000000000000000e+000
2595:0.0000000000000000e+000
2596:0.0000000000000000e+000
2597:0.0000000000000000e+000
2598:0.0000000000000000e+000
2599:0.0000000000000000e+000
2600:0.0000000000000000e+000
2601:0.0000000000000000e+000
2602:0.0000000000000000e+000
2603:0.0000000000000000e+000
2604:0.0000000000000000e+000
2605:0.0000000000000000e+000
2606:0.0000000000000000e+000
2607:0.0000000000000000e+000
2608:0.0000000000000000e+000
2609:0.0000000000000000e+000
2610:0.0000000000000000e+000
2611:0.0000000000000000e+000
2612:0.0000000000000000e+000
2613:0.0000000000000000e+000
2614:0.0000000000000000e+000
2615:0.0000000000000000e+000
2616:0.0000000000000000e+000
2617:0.0000000000000000e+000
2618:0.0000000000000000e+000
2619:0.0000000000000000e+000
2620:0.0000000000000000e+000
2621:0.0000000000000000e+000
2622:0.0000000000000000e+000
2623:0.0000000000000000e+000
2624:0.0000000000000000e+000
2625:0.0000000000000000e+000
2626:0.0000000000000000e+000
2627:0.0000000000000000e+000
2628:0.0000000000000000e+000
2629:0.0000000000000000e+000
2630:0.0000000000000000e+000
2631:0.0000000000000000e+000
2632:0.0000000000000000e+000
2633:0.0000000000000000e+000
2634:0.0000000000000000e+000
2635:0.0000000000000000e+000
2636:0.0000000000000000e+000
2637:0.0000000000000000e+000
2638:0.0000000000000000e+000
2639:0.0000000000000000e+000
2640:0.0000000000000000e+000
2641:0.0000000000000000e+000
2642:0.0000000000000000e+000
2643:0.0000000000000000e+000
2644:0.0000000000000000e+000
2645:0.0000000000000000e+000
2646:0.0000000000000000e+000
2647:0.0000000000000000e+000
2648:0.0000000000000000e+000
2649:0.0000000000000000e+000
2650:0.0000000000000000e+000
2651:0.0000000000000000e+000
2652:0.0000000000000000e+000
2653:0.0000000000000000e+000
2654:0.0000000000000000e+000
2655:0.0000000000000000e+000
2656:0.0000000000000000e+000
2657:0.0000000000000000e+000
2658:0.0000000000000000e+000
2659:0.0000000000000000e+000
2660:0.0000000000000000e+000
2661:0.0000000000000000e+000
2662:0.0000000000000000e+000
2663:0.0000000000000000e+000
2664:0.0000000000000000e+000
2665:0.0000000000000000e+000
2666:0.0000000000000000e+000
2667:0.0000000000000000e+000
2668:0.0000000000000000e+000
2669:0.0000000000000000e+000
2670:0.0000000000000000e+000
2671:0.0000000000000000e+000
2672:0.0000000000000000e+000
2673:0.0000000000000000e+000
2674:0.0000000000000000e+000
2675:0.0000000000000000e+000
2676:0.0000000000000000e+000
2677:0.0000000000000000e+000
2678:0.0000000000000000e+000
2679:0.0000000000000000e+000
2680:0.0000000000000000e+000
2681:0.0000000000000000e+000
2682:0.0000000000000000e+000
2683:0.0000000000000000e+000
2684:0.0000000000000000e+000
2685:0.0000000000000000e+000
2686:0.0000000000000000e+000
2687:0.0000000000000000e+000
2688:0.0000000000000000e+000
2689:0.0000000000000000e+000
2690:0.0000000000000000e+000
2691:0.0000000000000000e+000
2692:0.0000000000000000e+000
2693:0.0000000000000000e+000
2694:0.0000000000000000e+000
2695:0.0000000000000000e+000
2696:0.0000000000000000e+000
2697:0.0000000000000000e+000
2698:0.0000000000000000e+000
2699:0.0000000000000000e+000
2700:0.0000000000000000e+000
2701:0.0000000000000000e+000
2702:0.0000000000000000e+000
2703:0.0000000000000000e+000
2704:0.0000000000000000e+000
2705:0.0000000000000000e+000
2706:0.0000000000000000e+000
2707:0.0000000000000000e+000
2708:0.0000000000000000e+000
2709:0.0000000000000000e+000
2710:0.0000000000000000e+000
2711:0.0000000000000000e+000
2712:0.0000000000000000e+000
2713:0.0000000000000000e+000
2714:0.0000000000000000e+000
2715:0.0000000000000000e+000
2716:0.0000000000000000e+000
2717:0.0000000000000000e+000
2718:0.0000000000000000e+000
2719:0.0000000000000000e+000
2720:0.0000000000000000e+000
2721:0.0000000000000000e+000
2722:0.0000000000000000e+000
2723:0.0000000000000000e+000
2724:0.0000000000000000e+000
2725:0.0000000000000000e+000
2726:0.0000000000000000e+000
2727:0.0000000000000000e+000
2728:0.0000000000000000e+000
2729:0.0000000000000000e+000
2730:0.0000000000000000e+000
2731:0.0000000000000000e+000
2732:0.0000000000000000e+000
2733:0.0000000000000000e+000
2734:0.0000000000000000e+000
2735:0.0000000000000000e+000
2736:0.0000000000000000e+000
2737:0.0000000000000000e+000
2738:0.0000000000000000e+000
2739:0.0000000000000000e+000
2740:0.0000000000000000e+000
2741:0.0000000000000000e+000
2742:0.0000000000000000e+000
2743:0.0000000000000000e+000
2744:0.0000000000000000e+000
2745:0.0000000000000000e+000
2746:0.0000000000000000e+000
2747:0.0000000000000000e+000
2748:0.0000000000000000e+000
2749:0.0000000000000000e+000
2750:0.0000000000000000e+000
2751:0.0000000000000000e+000
2752:0.0000000000000000e+000
2753:0.0000000000000000e+000
2754:0.0000000000000000e+000
2755:0.0000000000000000e+000
2756:0.0000000000000000e+000
2757:0.0000000000000000e+000
2758:0.0000000000000000e+000
2759:0.0000000000000000e+000
2760:0.0000000000000000e+000
2761:0.0000000000000000e+000
2762:0.0000000000000000e+000
2763:0.0000000000000000e+000
2764:0.0000000000000000e+000
2765:0.0000000000000000e+000
2766:0.0000000000000000e+000
2767:0.0000000000000000e+000
2768:0.0000000000000000e+000
2769:0.0000000000000000e+000
2770:0.0000000000000000e+000
2771:0.0000000000000000e+000
2772:0.0000000000000000e+000
2773:0.0000000000000000e+000
2774:0.0000000000000000e+000
2775:0.0000000000000000e+000
2776:0.0000000000000000e+000
2777:0.0000000000000000e+000
2778:0.0000000000000000e+000
2779:0.0000000000000000e+000
2780:0.0000000000000000e+000
2781:0.0000000000000000e+000
2782:0.0000000000000000e+000
2783:0.0000000000000000e+000
2784:0.0000000000000000e+000
2785:0.0000000000000000e+000
2786:0.0000000000000000e+000
2787:0.0000000000000000e+000
2788:0.0000000000000000e+000
2789:0.0000000000000000e+000
2790:0.0000000000000000e+000
2791:0.0000000000000000e+000
2792:0.0000000000000000e+000
2793:0.0000000000000000e+000
2794:0.0000000000000000e+000
2795:0.0000000000000000e+000
2796:0.0000000000000000e+000
2797:0.0000000000000000e+000
2798:0.0000000000000000e+000
2799:0.0000000000000000e+000
2800:0.0000000000000000e+000
2801:0.0000000000000000e+000
2802:0.0000000000000000e+000
2803:0.0000000000000000e+000
2804:0.0000000000000000e+000
2805:0.0000000000000000e+000
2806:0.0000000000000000e+000
2807:0.0000000000000000e+000
2808:0.0000000000000000e+000
2809:0.0000000000000000e+000
2810:0.0000000000000000e+000
2811:0.0000000000000000e+000
2812:0.0000000000000000e+000
2813:0.0000000000000000e+000
2814:0.0000000000000000e+000
2815:0.0000000000000000e+000
2816:0.0000000000000000e+000
2817:0.0000000000000000e+000
2818:0.0000000000000000e+000
2819:0.0000000000000000e+000
2820:0.0000000000000000e+000
2821:0.0000000000000000e+000
2822:0.0000000000000000e+000
2823:0.0000000000000000e+000
2824:0.0000000000000000e+000
2825:0.0000000000000000e+000
2826:0.0000000000000000e+000
2827:0.0000000000000000e+000
2828:0.0000000000000000e+000
2829:0.0000000000000000e+000
2830:0.0000000000000000e+000
2831:0.0000000000000000e+000
2832:0.0000000000000000e+000
2833:0.0000000000000000e+000
2834:0.0000000000000000e+000
2835:0.0000000000000000e+000
2836:0.0000000000000000e+000
2837:0.0000000000000000e+000
2838:0.0000000000000000e+000
2839:0.0000000000000000e+000
2840:0.0000000000000000e+000
2841:0.0000000000000000e+000
2842:0.0000000000000000e+000
2843:0.0000000000000000e+000
2844:0.0000000000000000e+000
2845:0.0000000000000000e+000
2846:0.0000000000000000e+000
2847:0.0000000000000000e+000
2848:0.0000000000000000e+000
2849:0.0000000000000000e+000
2850:0.0000000000000000e+000
2851:0.0000000000000000e+000
2852:0.0000000000000000e+000
2853:0.0000000000000000e+000
2854:0.0000000000000000e+000
2855:0.0000000000000000e+000
2856:0.0000000000000000e+000
2857:0.0000000000000000e+000
2858:0.0000000000000000e+000
2859:0.0000000000000000e+000
2860:0.0000000000000000e+000
2861:0.0000000000000000e+000
2862:0.0000000000000000e+000
2863:0.0000000000000000e+000
2864:0.0000000000000000e+000
2865:0.0000000000000000e+000
2866:0.0000000000000000e+000
2867:0.0000000000000000e+000
2868:0.0000000000000000e+000
2869:0.0000000000000000e+000
2870:0.0000000000000000e+000
2871:0.0000000000000000e+000
2872:0.0000000000000000e+000
2873:0.0000000000000000e+000
2874:0.0000000000000000e+000
2875:0.0000000000000000e+000
2876:0.0000000000000000e+000
2877:0.0000000000000000e+000
2878:0.0000000000000000e+000
2879:0.0000000000000000e+000
2880:0.0000000000000000e+000
2881:0.0000000000000000e+000
2882:0.0000000000000000e+000
2883:0.0000000000000000e+000
2884:0.0000000000000000e+000
2885:0.0000000000000000e+000
2886:0.0000000000000000e+000
2887:0.0000000000000000e+000
2888:0.0000000000000000e+000
2889:0.0000000000000000e+000
2890:0.0000000000000000e+000
2891:0.0000000000000000e+000
2892:0.0000000000000000e+000
2893:0.0000000000000000e+000
2894:0.0000000000000000e+000
2895:0.0000000000000000e+000
2896:0.0000000000000000e+000
2897:0.0000000000000000e+000
2898:0.0000000000000000e+000
2899:0.0000000000000000e+000
2900:0.0000000000000000e+000
2901:0.0000000000000000e+000
2902:0.0000000000000000e+000
2903:0.0000000000000000e+000
2904:0.0000000000000000e+000
2905:0.0000000000000000e+000
2906:0.0000000000000000e+000
2907:0.0000000000000000e+000
2908:0.0000000000000000e+000
2909:0.0000000000000000e+000
2910:0.0000000000000000e+000
2911:0.0000000000000000e+000
2912:0.0000000000000000e+000
2913:0.0000000000000000e+000
2914:0.0000000000000000e+000
2915:0.0000000000000000e+000
2916:0.0000000000000000e+000
2917:0.0000000000000000e+000
2918:0.0000000000000000e+000
2919:0.0000000000000000e+000
2920:0.0000000000000000e+000
2921:0.0000000000000000e+000
2922:0.0000000000000000e+000
2923:0.0000000000000000e+000
2924:0.0000000000000000e+000
2925:0.0000000000000000e+000
2926:0.0000000000000000e+000
2927:0.0000000000000000e+000
2928:0.0000000000000000e+000
2929:0.0000000000000000e+000
2930:0.0000000000000000e+000
2931:0.0000000000000000e+000
2932:0.0000000000000000e+000
2933:0.0000000000000000e+000
2934:0.0000000000000000e+000
2935:0.0000000000000000e+000
2936:0.0000000000000000e+000
2937:0.0000000000000000e+000
2938:0.0000000000000000e+000
2939:0.0000000000000000e+000
2940:0.0000000000000000e+000
2941:0.0000000000000000e+000
2942:0.0000000000000000e+000
2943:0.0000000000000000e+000
2944:0.0000000000000000e+000
2945:0.0000000000000000e+000
2946:0.0000000000000000e+000
2947:0.0000000000000000e+000
2948:0.0000000000000000e+000
2949:0.0000000000000000e+000
2950:0.0000000000000000e+000
2951:0.0000000000000000e+000
2952:0.0000000000000000e+000
2953:0.0000000000000000e+000
2954:0.0000000000000000e+000
2955:0.0000000000000000e+000
2956:0.0000000000000000e+000
2957:0.0000000000000000e+000
2958:0.0000000000000000e+000
2959:0.0000000000000000e+000
2960:0.0000000000000000e+000
2961:0.0000000000000000e+000
2962:0.0000000000000000e+000
2963:0.0000000000000000e+000
2964:0.0000000000000000e+000
2965:0.0000000000000000e+000
2966:0.0000000000000000e+000
2967:0.0000000000000000e+000
2968:0.0000000000000000e+000
2969:0.0000000000000000e+000
2970:0.0000000000000000e+000
2971:0.0000000000000000e+000
2972:0.0000000000000000e+000
2973:0.0000000000000000e+000
2974:0.0000000000000000e+000
2975:0.0000000000000000e+000
2976:0.0000000000000000e+000
2977:0.0000000000000000e+000
2978:0.0000000000000000e+000
2979:0.0000000000000000e+000
2980:0.0000000000000000e+000
2981:0.0000000000000000e+000
2982:0.0000000000000000e+000
2983:0.0000000000000000e+000
2984:0.0000000000000000e+000
2985:0.0000000000000000e+000
2986:0.0000000000000000e+000
2987:0.0000000000000000e+000
2988:0.0000000000000000e+000
2989:0.0000000000000000e+000
2990:0.0000000000000000e+000
2991:0.0000000000000000e+000
2992:0.0000000000000000e+000
2993:0.0000000000000000e+000
2994:0.0000000000000000e+000
2995:0.0000000000000000e+000
2996:0.0000000000000000e+000
2997:0.0000000000000000e+000
2998:0.0000000000000000e+000
2999:0.0000000000000000e+000
3000:0.0000000000000000e+000
3001:0.0000000000000000e+000
3002:0.0000000000000000e+000
3003:0.0000000000000000e+000
3004:0.0000000000000000e+000
3005:0.0000000000000000e+000
3006:0.0000000000000000e+000
3007:0.0000000000000000e+000
3008:0.0000000000000000e+000
3009:0.0000000000000000e+000
3010:0.0000000000000000e+000
3011:0.0000000000000000e+000
3012:0.0000000000000000e+000
3013:0.0000000000000000e+000
3014:0.0000000000000000e+000
3015:0.0000000000000000e+000
3016:0.0000000000000000e+000
3017:0.0000000000000000e+000
3018:0.0000000000000000e+000
3019:0.0000000000000000e+000
3020:0.0000000000000000e+000
3021:0.0000000000000000e+000
3022:0.0000000000000000e+000
3023:0.0000000000000000e+000
3024:0.0000000000000000e+000
3025:0.0000000000000000e+000
3026:0.0000000000000000e+000
3027:0.0000000000000000e+000
3028:0.0000000000000000e+000
3029:0.0000000000000000e+000
3030:0.0000000000000000e+000
3031:0.0000000000000000e+000
3032:0.0000000000000000e+000
3033:0.0000000000000000e+000
3034:0.0000000000000000e+000
3035:0.0000000000000000e+000
3036:0.0000000000000000e+000
3037:0.0000000000000000e+000
3038:0.0000000000000000e+000
3039:0.0000000000000000e+000
3040:0.0000000000000000e+000
3041:0.0000000000000000e+000
3042:0.0000000000000000e+000
3043:0.0000000000000000e+000
3044:0.0000000000000000e+000
3045:0.0000000000000000e+000
3046:0.0000000000000000e+000
3047:0.0000000000000000e+000
3048:0.0000000000000000e+000
3049:0.0000000000000000e+000
3050:0.0000000000000000e+000
3051:0.0000000000000000e+000
3052:0.0000000000000000e+000
3053:0.0000000000000000e+000
3054:0.0000000000000000e+000
3055:0.0000000000000000e+000
3056:0.0000000000000000e+000
3057:0.0000000000000000e+000
3058:0.0000000000000000e+000
3059:0.0000000000000000e+000
3060:0.0000000000000000e+000
3061:0.0000000000000000e+000
3062:0.0000000000000000e+000
3063:0.0000000000000000e+000
3064:0.0000000000000000e+000
3065:0.0000000000000000e+000
3066:0.0000000000000000e+000
3067:0.0000000000000000e+000
3068:0.0000000000000000e+000
3069:0.0000000000000000e+000
3070:0.0000000000000000e+000
3071:0.0000000000000000e+000
3072:0.0000000000000000e+000
3073:0.0000000000000000e+000
3074:0.0000000000000000e+000
3075:0.0000000000000000e+000
3076:0.0000000000000000e+000
3077:0.0000000000000000e+000
3078:0.0000000000000000e+000
3079:0.0000000000000000e+000
3080:0.0000000000000000e+000
3081:0.0000000000000000e+000
3082:0.0000000000000000e+000
3083:0.0000000000000000e+000
3084:0.0000000000000000e+000
3085:0.0000000000000000e+000
3086:0.0000000000000000e+000
3087:0.0000000000000000e+000
3088:0.0000000000000000e+000
3089:0.0000000000000000e+000
3090:0.0000000000000000e+000
3091:0.0000000000000000e+000
3092:0.0000000000000000e+000
3093:0.0000000000000000e+000
3094:0.0000000000000000e+000
3095:0.0000000000000000e+000
3096:0.0000000000000000e+000
3097:0.0000000000000000e+000
3098:0.0000000000000000e+000
3099:0.0000000000000000e+000
3100:0.0000000000000000e+000
3101:0.0000000000000000e+000
3102:0.0000000000000000e+000
3103:0.0000000000000000e+000
3104:0.0000000000000000e+000
3105:0.0000000000000000e+000
3106:0.0000000000000000e+000
3107:0.0000000000000000e+000
3108:0.0000000000000000e+000
3109:0.0000000000000000e+000
3110:0.0000000000000000e+000
3111:0.0000000000000000e+000
3112:0.0000000000000000e+000
3113:0.0000000000000000e+000
3114:0.0000000000000000e+000
3115:0.0000000000000000e+000
3116:0.0000000000000000e+000
3117:0.0000000000000000e+000
3118:0.0000000000000000e+000
3119:0.0000000000000000e+000
3120:0.0000000000000000e+000
3121:0.0000000000000000e+000
3122:0.0000000000000000e+000
3123:0.0000000000000000e+000
3124:0.0000000000000000e+000
3125:0.0000000000000000e+000
3126:0.0000000000000000e+000
3127:0.0000000000000000e+000
3128:0.0000000000000000e+000
3129:0.0000000000000000e+000
3130:0.0000000000000000e+000
3131:0.0000000000000000e+000
3132:0.0000000000000000e+000
3133:0.0000000000000000e+000
3134:0.0000000000000000e+000
3135:0.0000000000000000e+000
3136:0.0000000000000000e+000
3137:0.0000000000000000e+000
3138:0.0000000000000000e+000
3139:0.0000000000000000e+000
3140:0.0000000000000000e+000
3141:0.0000000000000000e+000
3142:0.0000000000000000e+000
3143:0.0000000000000000e+000
3144:0.0000000000000000e+000
3145:0.0000000000000000e+000
3146:0.0000000000000000e+000
3147:0.0000000000000000e+000
3148:0.0000000000000000e+000
3149:0.0000000000000000e+000
3150:0.0000000000000000e+000
3151:0.0000000000000000e+000
3152:0.0000000000000000e+000
3153:0.0000000000000000e+000
3154:0.0000000000000000e+000
3155:0.0000000000000000e+000
3156:0.0000000000000000e+000
3157:0.0000000000000000e+000
3158:0.0000000000000000e+000
3159:0.0000000000000000e+000
3160:0.0000000000000000e+000
3161:0.0000000000000000e+000
3162:0.0000000000000000e+000
3163:0.0000000000000000e+000
3164:0.0000000000000000e+000
3165:0.0000000000000000e+000
3166:0.0000000000000000e+000
3167:0.0000000000000000e+000
3168:0.0000000000000000e+000
3169:0.0000000000000000e+000
3170:0.0000000000000000e+000
3171:0.0000000000000000e+000
3172:0.0000000000000000e+000
3173:0.0000000000000000e+000
3174:0.0000000000000000e+000
3175:0.0000000000000000e+000
3176:0.0000000000000000e+000
3177:0.0000000000000000e+000
3178:0.0000000000000000e+000
3179:0.0000000000000000e+000
3180:0.0000000000000000e+000
3181:0.0000000000000000e+000
3182:0.0000000000000000e+000
3183:0.0000000000000000e+000
3184:0.0000000000000000e+000
3185:0.0000000000000000e+000
3186:0.0000000000000000e+000
3187:0.0000000000000000e+000
3188:0.0000000000000000e+000
3189:0.0000000000000000e+000
3190:0.0000000000000000e+000
3191:0.0000000000000000e+000
3192:0.0000000000000000e+000
3193:0.0000000000000000e+000
3194:0.0000000000000000e+000
3195:0.0000000000000000e+000
3196:0.0000000000000000e+000
3197:0.0000000000000000e+000
3198:0.0000000000000000e+000
3199:0.0000000000000000e+000
3200:0.0000000000000000e+000
3201:0.0000000000000000e+000
3202:0.0000000000000000e+000
3203:0.0000000000000000e+000
3204:0.0000000000000000e+000
3205:0.0000000000000000e+000
3206:0.0000000000000000e+000
3207:0.0000000000000000e+000
3208:0.0000000000000000e+000
3209:0.0000000000000000e+000
3210:0.0000000000000000e+000
3211:0.0000000000000000e+000
3212:0.0000000000000000e+000
3213:0.0000000000000000e+000
3214:0.0000000000000000e+000
3215:0.0000000000000000e+000
3216:0.0000000000000000e+000
3217:0.0000000000000000e+000
3218:0.0000000000000000e+000
3219:0.0000000000000000e+000
3220:0.0000000000000000e+000
3221:0.0000000000000000e+000
3222:0.0000000000000000e+000
3223:0.0000000000000000e+000
3224:0.0000000000000000e+000
3225:0.0000000000000000e+000
3226:0.0000000000000000e+000
3227:0.0000000000000000e+000
3228:0.0000000000000000e+000
3229:0.0000000000000000e+000
3230:0.0000000000000000e+000
3231:0.0000000000000000e+000
3232:0.0000000000000000e+000
3233:0.0000000000000000e+000
3234:0.0000000000000000e+000
3235:0.0000000000000000e+000
3236:0.0000000000000000e+000
3237:0.0000000000000000e+000
3238:0.0000000000000000e+000
3239:0.0000000000000000e+000
3240:0.0000000000000000e+000
3241:0.0000000000000000e+000
3242:0.0000000000000000e+000
3243:0.0000000000000000e+000
3244:0.0000000000000000e+000
3245:0.0000000000000000e+000
3246:0.0000000000000000e+000
3247:0.0000000000000000e+000
3248:0.0000000000000000e+000
3249:0.0000000000000000e+000
3250:0.0000000000000000e+000
3251:0.0000000000000000e+000
3252:0.0000000000000000e+000
3253:0.0000000000000000e+000
3254:0.0000000000000000e+000
3255:0.0000000000000000e+000
3256:0.0000000000000000e+000
3257:0.0000000000000000e+000
3258:0.0000000000000000e+000
3259:0.0000000000000000e+000
3260:0.0000000000000000e+000
3261:0.0000000000000000e+000
3262:0.0000000000000000e+000
3263:0.0000000000000000e+000
3264:0.0000000000000000e+000
3265:0.0000000000000000e+000
3266:0.0000000000000000e+000
3267:0.0000000000000000e+000
3268:0.0000000000000000e+000
3269:0.0000000000000000e+000
3270:0.0000000000000000e+000
3271:0.0000000000000000e+000
3272:0.0000000000000000e+000
3273:0.0000000000000000e+000
3274:0.0000000000000000e+000
3275:0.0000000000000000e+000
3276:0.0000000000000000e+000
3277:0.0000000000000000e+000
3278:0.0000000000000000e+000
3279:0.0000000000000000e+000
3280:0.0000000000000000e+000
3281:0.0000000000000000e+000
3282:0.0000000000000000e+000
3283:0.0000000000000000e+000
3284:0.0000000000000000e+000
3285:0.0000000000000000e+000
3286:0.0000000000000000e+000
3287:0.0000000000000000e+000
3288:0.0000000000000000e+000
3289:0.0000000000000000e+000
3290:0.0000000000000000e+000
3291:0.0000000000000000e+000
3292:0.0000000000000000e+000
3293:0.0000000000000000e+000
3294:0.0000000000000000e+000
3295:0.0000000000000000e+000
3296:0.0000000000000000e+000
3297:0.0000000000000000e+000
3298:0.0000000000000000e+000
3299:0.0000000000000000e+000
3300:0.0000000000000000e+000
3301:0.0000000000000000e+000
3302:0.0000000000000000e+000
3303:0.0000000000000000e+000
3304:0.0000000000000000e+000
3305:0.0000000000000000e+000
3306:0.0000000000000000e+000
3307:0.0000000000000000e+000
3308:0.0000000000000000e+000
3309:0.0000000000000000e+000
3310:0.0000000000000000e+000
3311:0.0000000000000000e+000
3312:0.0000000000000000e+000
3313:0.0000000000000000e+000
3314:0.0000000000000000e+000
3315:0.0000000000000000e+000
3316:0.0000000000000000e+000
3317:0.0000000000000000e+000
3318:0.0000000000000000e+000
3319:0.0000000000000000e+000
3320:0.0000000000000000e+000
3321:0.0000000000000000e+000
3322:0.0000000000000000e+000
3323:0.0000000000000000e+000
3324:0.0000000000000000e+000
3325:0.0000000000000000e+000
3326:0.0000000000000000e+000
3327:0.0000000000000000e+000
3328:0.0000000000000000e+000
3329:0.0000000000000000e+000
3330:0.0000000000000000e+000
3331:0.0000000000000000e+000
3332:0.0000000000000000e+000
3333:0.0000000000000000e+000
3334:0.0000000000000000e+000
3335:0.0000000000000000e+000
3336:0.0000000000000000e+000
3337:0.0000000000000000e+000
3338:0.0000000000000000e+000
3339:0.0000000000000000e+000
3340:0.0000000000000000e+000
3341:0.0000000000000000e+000
3342:0.0000000000000000e+000
3343:0.0000000000000000e+000
3344:0.0000000000000000e+000
3345:0.0000000000000000e+000
3346:0.0000000000000000e+000
3347:0.0000000000000000e+000
3348:0.0000000000000000e+000
3349:0.0000000000000000e+000
3350:0.0000000000000000e+000
3351:0.0000000000000000e+000
3352:0.0000000000000000e+000
3353:0.0000000000000000e+000
3354:0.0000000000000000e+000
3355:0.0000000000000000e+000
3356:0.0000000000000000e+000
3357:0.0000000000000000e+000
3358:0.0000000000000000e+000
3359:0.0000000000000000e+000
3360:0.0000000000000000e+000
3361:0.0000000000000000e+000
3362:0.0000000000000000e+000
3363:0.0000000000000000e+000
3364:0.0000000000000000e+000
3365:0.0000000000000000e+000
3366:0.0000000000000000e+000
3367:0.0000000000000000e+000
3368:0.0000000000000000e+000
3369:0.0000000000000000e+000
3370:0.0000000000000000e+000
3371:0.0000000000000000e+000
3372:0.0000000000000000e+000
3373:0.0000000000000000e+000
3374:0.0000000000000000e+000
3375:0.0000000000000000e+000
3376:0.0000000000000000e+000
3377:0.0000000000000000e+000
3378:0.0000000000000000e+000
3379:0.0000000000000000e+000
3380:0.0000000000000000e+000
3381:0.0000000000000000e+000
3382:0.0000000000000000e+000
3383:0.0000000000000000e+000
3384:0.0000000000000000e+000
3385:0.0000000000000000e+000
3386:0.0000000000000000e+000
3387:0.0000000000000000e+000
3388:0.0000000000000000e+000
3389:0.0000000000000000e+000
3390:0.0000000000000000e+000
3391:0.0000000000000000e+000
3392:0.0000000000000000e+000
3393:0.0000000000000000e+000
3394:0.0000000000000000e+000
3395:0.0000000000000000e+000
3396:0.0000000000000000e+000
3397:0.0000000000000000e+000
3398:0.0000000000000000e+000
3399:0.0000000000000000e+000
3400:0.0000000000000000e+000
3401:0.0000000000000000e+000
3402:0.0000000000000000e+000
3403:0.0000000000000000e+000
3404:0.0000000000000000e+000
3405:0.0000000000000000e+000
3406:0.0000000000000000e+000
3407:0.0000000000000000e+000
3408:0.0000000000000000e+000
3409:0.0000000000000000e+000
3410:0.0000000000000000e+000
3411:0.0000000000000000e+000
3412:0.0000000000000000e+000
3413:0.0000000000000000e+000
3414:0.0000000000000000e+000
3415:0.0000000000000000e+000
3416:0.0000000000000000e+000
3417:0.0000000000000000e+000
3418:0.0000000000000000e+000
3419:0.0000000000000000e+000
3420:0.0000000000000000e+000
3421:0.0000000000000000e+000
3422:0.0000000000000000e+000
3423:0.0000000000000000e+000
3424:0.0000000000000000e+000
3425:0.0000000000000000e+000
3426:0.0000000000000000e+000
3427:0.0000000000000000e+000
3428:0.0000000000000000e+000
3429:0.0000000000000000e+000
3430:0.0000000000000000e+000
3431:0.0000000000000000e+000
3432:0.0000000000000000e+000
3433:0.0000000000000000e+000
3434:0.0000000000000000e+000
3435:0.0000000000000000e+000
3436:0.0000000000000000e+000
3437:0.0000000000000000e+000
3438:0.0000000000000000e+000
3439:0.0000000000000000e+000
3440:0.0000000000000000e+000
3441:0.0000000000000000e+000
3442:0.0000000000000000e+000
3443:0.0000000000000000e+000
3444:0.0000000000000000e+000
3445:0.0000000000000000e+000
3446:0.0000000000000000e+000
3447:0.0000000000000000e+000
3448:0.0000000000000000e+000
3449:0.0000000000000000e+000
3450:0.0000000000000000e+000
3451:0.0000000000000000e+000
3452:0.0000000000000000e+000
3453:0.0000000000000000e+000
3454:0.0000000000000000e+000
3455:0.0000000000000000e+000
3456:0.0000000000000000e+000
3457:0.0000000000000000e+000
3458:0.0000000000000000e+000
3459:0.0000000000000000e+000
3460:0.0000000000000000e+000
3461:0.0000000000000000e+000
3462:0.0000000000000000e+000
3463:0.0000000000000000e+000
3464:0.0000000000000000e+000
3465:0.0000000000000000e+000
3466:0.0000000000000000e+000
3467:0.0000000000000000e+000
3468:0.0000000000000000e+000
3469:0.0000000000000000e+000
3470:0.0000000000000000e+000
3471:0.0000000000000000e+000
3472:0.0000000000000000e+000
3473:0.0000000000000000e+000
3474:0.0000000000000000e+000
3475:0.0000000000000000e+000
3476:0.0000000000000000e+000
3477:0.0000000000000000e+000
3478:0.0000000000000000e+000
3479:0.0000000000000000e+000
3480:0.0000000000000000e+000
3481:0.0000000000000000e+000
3482:0.0000000000000000e+000
3483:0.0000000000000000e+000
3484:0.0000000000000000e+000
3485:0.0000000000000000e+000
3486:0.0000000000000000e+000
3487:0.0000000000000000e+000
3488:0.0000000000000000e+000
3489:0.0000000000000000e+000
3490:0.0000000000000000e+000
3491:0.0000000000000000e+000
3492:0.0000000000000000e+000
3493:0.0000000000000000e+000
3494:0.0000000000000000e+000
3495:0.0000000000000000e+000
3496:0.0000000000000000e+000
3497:0.0000000000000000e+000
3498:0.0000000000000000e+000
3499:0.0000000000000000e+000
3500:0.0000000000000000e+000
3501:0.0000000000000000e+000
3502:0.0000000000000000e+000
3503:0.0000000000000000e+000
3504:0.0000000000000000e+000
3505:0.0000000000000000e+000
3506:0.0000000000000000e+000
3507:0.0000000000000000e+000
3508:0.0000000000000000e+000
3509:0.0000000000000000e+000
3510:0.0000000000000000e+000
3511:0.0000000000000000e+000
3512:0.0000000000000000e+000
3513:0.0000000000000000e+000
3514:0.0000000000000000e+000
3515:0.0000000000000000e+000
3516:0.0000000000000000e+000
3517:0.0000000000000000e+000
3518:0.0000000000000000e+000
3519:0.0000000000000000e+000
3520:0.0000000000000000e+000
3521:0.0000000000000000e+000
3522:0.0000000000000000e+000
3523:0.0000000000000000e+000
3524:0.0000000000000000e+000
3525:0.0000000000000000e+000
3526:0.0000000000000000e+000
3527:0.0000000000000000e+000
3528:0.0000000000000000e+000
3529:0.0000000000000000e+000
3530:0.0000000000000000e+000
3531:0.0000000000000000e+000
3532:0.0000000000000000e+000
3533:0.0000000000000000e+000
3534:0.0000000000000000e+000
3535:0.0000000000000000e+000
3536:0.0000000000000000e+000
3537:0.0000000000000000e+000
3538:0.0000000000000000e+000
3539:0.0000000000000000e+000
3540:0.0000000000000000e+000
3541:0.0000000000000000e+000
3542:0.0000000000000000e+000
3543:0.0000000000000000e+000
3544:0.0000000000000000e+000
3545:0.0000000000000000e+000
3546:0.0000000000000000e+000
3547:0.0000000000000000e+000
3548:0.0000000000000000e+000
3549:0.0000000000000000e+000
3550:0.0000000000000000e+000
3551:0.0000000000000000e+000
3552:0.0000000000000000e+000
3553:0.0000000000000000e+000
3554:0.0000000000000000e+000
3555:0.0000000000000000e+000
3556:0.0000000000000000e+000
3557:0.0000000000000000e+000
3558:0.0000000000000000e+000
3559:0.0000000000000000e+000
3560:0.0000000000000000e+000
3561:0.0000000000000000e+000
3562:0.0000000000000000e+000
3563:0.0000000000000000e+000
3564:0.0000000000000000e+000
3565:0.0000000000000000e+000
3566:0.0000000000000000e+000
3567:0.0000000000000000e+000
3568:0.0000000000000000e+000
3569:0.0000000000000000e+000
3570:0.0000000000000000e+000
3571:0.0000000000000000e+000
3572:0.0000000000000000e+000
3573:0.0000000000000000e+000
3574:0.0000000000000000e+000
3575:0.0000000000000000e+000
3576:0.0000000000000000e+000
3577:0.0000000000000000e+000
3578:0.0000000000000000e+000
3579:0.0000000000000000e+000
3580:0.0000000000000000e+000
3581:0.0000000000000000e+000
3582:0.0000000000000000e+000
3583:0.0000000000000000e+000
3584:0.0000000000000000e+000
3585:0.0000000000000000e+000
3586:0.0000000000000000e+000
3587:0.0000000000000000e+000
3588:0.0000000000000000e+000
3589:0.0000000000000000e+000
3590:0.0000000000000000e+000
3591:0.0000000000000000e+000
3592:0.0000000000000000e+000
3593:0.0000000000000000e+000
3594:0.0000000000000000e+000
3595:0.0000000000000000e+000
3596:0.0000000000000000e+000
3597:0.0000000000000000e+000
3598:0.0000000000000000e+000
3599:0.0000000000000000e+000
3600:0.0000000000000000e+000
3601:0.0000000000000000e+000
3602:0.0000000000000000e+000
3603:0.0000000000000000e+000
3604:0.0000000000000000e+000
3605:0.0000000000000000e+000
3606:0.0000000000000000e+000
3607:0.0000000000000000e+000
3608:0.0000000000000000e+000
3609:0.0000000000000000e+000
3610:0.0000000000000000e+000
3611:0.0000000000000000e+000
3612:0.0000000000000000e+000
3613:0.0000000000000000e+000
3614:0.0000000000000000e+000
3615:0.0000000000000000e+000
3616:0.0000000000000000e+000
3617:0.0000000000000000e+000
3618:0.0000000000000000e+000
3619:0.0000000000000000e+000
3620:0.0000000000000000e+000
3621:0.0000000000000000e+000
3622:0.0000000000000000e+000
3623:0.0000000000000000e+000
3624:0.0000000000000000e+000
3625:0.0000000000000000e+000
3626:0.0000000000000000e+000
3627:0.0000000000000000e+000
3628:0.0000000000000000e+000
3629:0.0000000000000000e+000
3630:0.0000000000000000e+000
3631:0.0000000000000000e+000
3632:0.0000000000000000e+000
3633:0.0000000000000000e+000
3634:0.0000000000000000e+000
3635:0.0000000000000000e+000
3636:0.0000000000000000e+000
3637:0.0000000000000000e+000
3638:0.0000000000000000e+000
3639:0.0000000000000000e+000
3640:0.0000000000000000e+000
3641:0.0000000000000000e+000
3642:0.0000000000000000e+000
3643:0.0000000000000000e+000
3644:0.0000000000000000e+000
3645:0.0000000000000000e+000
3646:0.0000000000000000e+000
3647:0.0000000000000000e+000
3648:0.0000000000000000e+000
3649:0.0000000000000000e+000
3650:0.0000000000000000e+000
3651:0.0000000000000000e+000
3652:0.0000000000000000e+000
3653:0.0000000000000000e+000
3654:0.0000000000000000e+000
3655:0.0000000000000000e+000
3656:0.0000000000000000e+000
3657:0.0000000000000000e+000
3658:0.0000000000000000e+000
3659:0.0000000000000000e+000
3660:0.0000000000000000e+000
3661:0.0000000000000000e+000
3662:0.0000000000000000e+000
3663:0.0000000000000000e+000
3664:0.0000000000000000e+000
3665:0.0000000000000000e+000
3666:0.0000000000000000e+000
3667:0.0000000000000000e+000
3668:0.0000000000000000e+000
3669:0.0000000000000000e+000
3670:0.0000000000000000e+000
3671:0.0000000000000000e+000
3672:0.0000000000000000e+000
3673:0.0000000000000000e+000
3674:0.0000000000000000e+000
3675:0.0000000000000000e+000
3676:0.0000000000000000e+000
3677:0.0000000000000000e+000
3678:0.0000000000000000e+000
3679:0.0000000000000000e+000
3680:0.0000000000000000e+000
3681:0.0000000000000000e+000
3682:0.0000000000000000e+000
3683:0.0000000000000000e+000
3684:0.0000000000000000e+000
3685:0.0000000000000000e+000
3686:0.0000000000000000e+000
3687:0.0000000000000000e+000
3688:0.0000000000000000e+000
3689:0.0000000000000000e+000
3690:0.0000000000000000e+000
3691:0.0000000000000000e+000
3692:0.0000000000000000e+000
3693:0.0000000000000000e+000
3694:0.0000000000000000e+000
3695:0.0000000000000000e+000
3696:0.0000000000000000e+000
3697:0.0000000000000000e+000
3698:0.0000000000000000e+000
3699:0.0000000000000000e+000
3700:0.0000000000000000e+000
3701:0.0000000000000000e+000
3702:0.0000000000000000e+000
3703:0.0000000000000000e+000
3704:0.0000000000000000e+000
3705:0.0000000000000000e+000
3706:0.0000000000000000e+000
3707:0.0000000000000000e+000
3708:0.0000000000000000e+000
3709:0.0000000000000000e+000
3710:0.0000000000000000e+000
3711:0.0000000000000000e+000
3712:0.0000000000000000e+000
3713:0.0000000000000000e+000
3714:0.0000000000000000e+000
3715:0.0000000000000000e+000
3716:0.0000000000000000e+000
3717:0.0000000000000000e+000
3718:0.0000000000000000e+000
3719:0.0000000000000000e+000
3720:0.0000000000000000e+000
3721:0.0000000000000000e+000
3722:0.0000000000000000e+000
3723:0.0000000000000000e+000
3724:0.0000000000000000e+000
3725:0.0000000000000000e+000
3726:0.0000000000000000e+000
3727:0.0000000000000000e+000
3728:0.0000000000000000e+000
3729:0.0000000000000000e+000
3730:0.0000000000000000e+000
3731:0.0000000000000000e+000
3732:0.0000000000000000e+000
3733:0.0000000000000000e+000
3734:0.0000000000000000e+000
3735:0.0000000000000000e+000
3736:0.0000000000000000e+000
3737:0.0000000000000000e+000
3738:0.0000000000000000e+000
3739:0.0000000000000000e+000
3740:0.0000000000000000e+000
3741:0.0000000000000000e+000
3742:0.0000000000000000e+000
3743:0.0000000000000000e+000
3744:0.0000000000000000e+000
3745:0.0000000000000000e+000
3746:0.0000000000000000e+000
3747:0.0000000000000000e+000
3748:0.0000000000000000e+000
3749:0.0000000000000000e+000
3750:0.0000000000000000e+000
3751:0.0000000000000000e+000
3752:0.0000000000000000e+000
3753:0.0000000000000000e+000
3754:0.0000000000000000e+000
3755:0.0000000000000000e+000
3756:0.0000000000000000e+000
3757:0.0000000000000000e+000
3758:0.0000000000000000e+000
3759:0.0000000000000000e+000
3760:0.0000000000000000e+000
3761:0.0000000000000000e+000
3762:0.0000000000000000e+000
3763:0.0000000000000000e+000
3764:0.0000000000000000e+000
3765:0.0000000000000000e+000
3766:0.0000000000000000e+000
3767:0.0000000000000000e+000
3768:0.0000000000000000e+000
3769:0.0000000000000000e+000
3770:0.0000000000000000e+000
3771:0.0000000000000000e+000
3772:0.0000000000000000e+000
3773:0.0000000000000000e+000
3774:0.0000000000000000e+000
3775:0.0000000000000000e+000
3776:0.0000000000000000e+000
3777:0.0000000000000000e+000
3778:0.0000000000000000e+000
3779:0.0000000000000000e+000
3780:0.0000000000000000e+000
3781:0.0000000000000000e+000
3782:0.0000000000000000e+000
3783:0.0000000000000000e+000
3784:0.0000000000000000e+000
3785:0.0000000000000000e+000
3786:0.0000000000000000e+000
3787:0.0000000000000000e+000
3788:0.0000000000000000e+000
3789:0.0000000000000000e+000
3790:0.0000000000000000e+000
3791:0.0000000000000000e+000
3792:0.0000000000000000e+000
3793:0.0000000000000000e+000
3794:0.0000000000000000e+000
3795:0.0000000000000000e+000
3796:0.0000000000000000e+000
3797:0.0000000000000000e+000
3798:0.0000000000000000e+000
3799:0.0000000000000000e+000
3800:0.0000000000000000e+000
3801:0.0000000000000000e+000
3802:0.0000000000000000e+000
3803:0.0000000000000000e+000
3804:0.0000000000000000e+000
3805:0.0000000000000000e+000
3806:0.0000000000000000e+000
3807:0.0000000000000000e+000
3808:0.0000000000000000e+000
3809:0.0000000000000000e+000
3810:0.0000000000000000e+000
3811:0.0000000000000000e+000
3812:0.0000000000000000e+000
3813:0.0000000000000000e+000
3814:0.0000000000000000e+000
3815:0.0000000000000000e+000
3816:0.0000000000000000e+000
3817:0.0000000000000000e+000
3818:0.0000000000000000e+000
3819:0.0000000000000000e+000
3820:0.0000000000000000e+000
3821:0.0000000000000000e+000
3822:0.0000000000000000e+000
3823:0.0000000000000000e+000
3824:0.0000000000000000e+000
3825:0.0000000000000000e+000
3826:0.0000000000000000e+000
3827:0.0000000000000000e+000
3828:0.0000000000000000e+000
3829:0.0000000000000000e+000
3830:0.0000000000000000e+000
3831:0.0000000000000000e+000
3832:0.0000000000000000e+000
3833:0.0000000000000000e+000
3834:0.0000000000000000e+000
3835:0.0000000000000000e+000
3836:0.0000000000000000e+000
3837:0.0000000000000000e+000
3838:0.0000000000000000e+000
3839:0.0000000000000000e+000
3840:0.0000000000000000e+000
3841:0.0000000000000000e+000
3842:0.0000000000000000e+000
3843:0.0000000000000000e+000
3844:0.0000000000000000e+000
3845:0.0000000000000000e+000
3846:0.0000000000000000e+000
3847:0.0000000000000000e+000
3848:0.0000000000000000e+000
3849:0.0000000000000000e+000
3850:0.0000000000000000e+000
3851:0.0000000000000000e+000
3852:0.0000000000000000e+000
3853:0.0000000000000000e+000
3854:0.0000000000000000e+000
3855:0.0000000000000000e+000
3856:0.0000000000000000e+000
3857:0.0000000000000000e+000
3858:0.0000000000000000e+000
3859:0.0000000000000000e+000
3860:0.0000000000000000e+000
3861:0.0000000000000000e+000
3862:0.0000000000000000e+000
3863:0.0000000000000000e+000
3864:0.0000000000000000e+000
3865:0.0000000000000000e+000
3866:0.0000000000000000e+000
3867:0.0000000000000000e+000
3868:0.0000000000000000e+000
3869:0.0000000000000000e+000
3870:0.0000000000000000e+000
3871:0.0000000000000000e+000
3872:0.0000000000000000e+000
3873:0.0000000000000000e+000
3874:0.0000000000000000e+000
3875:0.0000000000000000e+000
3876:0.0000000000000000e+000
3877:0.0000000000000000e+000
3878:0.0000000000000000e+000
3879:0.0000000000000000e+000
3880:0.0000000000000000e+000
3881:0.0000000000000000e+000
3882:0.0000000000000000e+000
3883:0.0000000000000000e+000
3884:0.0000000000000000e+000
3885:0.0000000000000000e+000
3886:0.0000000000000000e+000
3887:0.0000000000000000e+000
3888:0.0000000000000000e+000
3889:0.0000000000000000e+000
3890:0.0000000000000000e+000
3891:0.0000000000000000e+000
3892:0.0000000000000000e+000
3893:0.0000000000000000e+000
3894:0.0000000000000000e+000
3895:0.0000000000000000e+000
3896:0.0000000000000000e+000
3897:0.0000000000000000e+000
3898:0.0000000000000000e+000
3899:0.0000000000000000e+000
3900:0.0000000000000000e+000
3901:0.0000000000000000e+000
3902:0.0000000000000000e+000
3903:0.0000000000000000e+000
3904:0.0000000000000000e+000
3905:0.0000000000000000e+000
3906:0.0000000000000000e+000
3907:0.0000000000000000e+000
3908:0.0000000000000000e+000
3909:0.0000000000000000e+000
3910:0.0000000000000000e+000
3911:0.0000000000000000e+000
3912:0.0000000000000000e+000
3913:0.0000000000000000e+000
3914:0.0000000000000000e+000
3915:0.0000000000000000e+000
3916:0.0000000000000000e+000
3917:0.0000000000000000e+000
3918:0.0000000000000000e+000
3919:0.0000000000000000e+000
3920:0.0000000000000000e+000
3921:0.0000000000000000e+000
3922:0.0000000000000000e+000
3923:0.0000000000000000e+000
3924:0.0000000000000000e+000
3925:0.0000000000000000e+000
3926:0.0000000000000000e+000
3927:0.0000000000000000e+000
3928:0.0000000000000000e+000
3929:0.0000000000000000e+000
3930:0.0000000000000000e+000
3931:0.0000000000000000e+000
3932:0.0000000000000000e+000
3933:0.0000000000000000e+000
3934:0.0000000000000000e+000
3935:0.0000000000000000e+000
3936:0.0000000000000000e+000
3937:0.0000000000000000e+000
3938:0.0000000000000000e+000
3939:0.0000000000000000e+000
3940:0.0000000000000000e+000
3941:0.0000000000000000e+000
3942:0.0000000000000000e+000
3943:0.0000000000000000e+000
3944:0.0000000000000000e+000
3945:0.0000000000000000e+000
3946:0.0000000000000000e+000
3947:0.0000000000000000e+000
3948:0.0000000000000000e+000
3949:0.0000000000000000e+000
3950:0.0000000000000000e+000
3951:0.0000000000000000e+000
3952:0.0000000000000000e+000
3953:0.0000000000000000e+000
3954:0.0000000000000000e+000
3955:0.0000000000000000e+000
3956:0.0000000000000000e+000
3957:0.0000000000000000e+000
3958:0.0000000000000000e+000
3959:0.0000000000000000e+000
3960:0.0000000000000000e+000
3961:0.0000000000000000e+000
3962:0.0000000000000000e+000
3963:0.0000000000000000e+000
3964:0.0000000000000000e+000
3965:0.0000000000000000e+000
3966:0.0000000000000000e+000
3967:0.0000000000000000e+000
3968:0.0000000000000000e+000
3969:0.0000000000000000e+000
3970:0.0000000000000000e+000
3971:0.0000000000000000e+000
3972:0.0000000000000000e+000
3973:0.0000000000000000e+000
3974:0.0000000000000000e+000
3975:0.0000000000000000e+000
3976:0.0000000000000000e+000
3977:0.0000000000000000e+000
3978:0.0000000000000000e+000
3979:0.0000000000000000e+000
3980:0.0000000000000000e+000
3981:0.0000000000000000e+000
3982:0.0000000000000000e+000
3983:0.0000000000000000e+000
3984:0.0000000000000000e+000
3985:0.0000000000000000e+000
3986:0.0000000000000000e+000
3987:0.0000000000000000e+000
3988:0.0000000000000000e+000
3989:0.0000000000000000e+000
3990:0.0000000000000000e+000
3991:0.0000000000000000e+000
3992:0.0000000000000000e+000
3993:0.0000000000000000e+000
3994:0.0000000000000000e+000
3995:0.0000000000000000e+000
3996:0.0000000000000000e+000
3997:0.0000000000000000e+000
3998:0.0000000000000000e+000
3999:0.0000000000000000e+000
4000:0.0000000000000000e+000
4001:0.0000000000000000e+000
4002:0.0000000000000000e+000
4003:0.0000000000000000e+000
4004:0.0000000000000000e+000
4005:0.0000000000000000e+000
4006:0.0000000000000000e+000
4007:0.0000000000000000e+000
4008:0.0000000000000000e+000
4009:0.0000000000000000e+000
4010:0.0000000000000000e+000
4011:0.0000000000000000e+000
4012:0.0000000000000000e+000
4013:0.0000000000000000e+000
4014:0.0000000000000000e+000
4015:0.0000000000000000e+000
4016:0.0000000000000000e+000
4017:0.0000000000000000e+000
4018:0.0000000000000000e+000
4019:0.0000000000000000e+000
4020:0.0000000000000000e+000
4021:0.0000000000000000e+000
4022:0.0000000000000000e+000
4023:0.0000000000000000e+000
4024:0.0000000000000000e+000
4025:0.0000000000000000e+000
4026:0.0000000000000000e+000
4027:0.0000000000000000e+000
4028:0.0000000000000000e+000
4029:0.0000000000000000e+000
4030:0.0000000000000000e+000
4031:0.0000000000000000e+000
4032:0.0000000000000000e+000
4033:0.0000000000000000e+000
4034:0.0000000000000000e+000
4035:0.0000000000000000e+000
4036:0.0000000000000000e+000
4037:0.0000000000000000e+000
4038:0.0000000000000000e+000
4039:0.0000000000000000e+000
4040:0.0000000000000000e+000
4041:0.0000000000000000e+000
4042:0.0000000000000000e+000
4043:0.0000000000000000e+000
4044:0.0000000000000000e+000
4045:0.0000000000000000e+000
4046:0.0000000000000000e+000
4047:0.0000000000000000e+000
4048:0.0000000000000000e+000
4049:0.0000000000000000e+000
4050:0.0000000000000000e+000
4051:0.0000000000000000e+000
4052:0.0000000000000000e+000
4053:0.0000000000000000e+000
4054:0.0000000000000000e+000
4055:0.0000000000000000e+000
4056:0.0000000000000000e+000
4057:0.0000000000000000e+000
4058:0.0000000000000000e+000
4059:0.0000000000000000e+000
4060:0.0000000000000000e+000
4061:0.0000000000000000e+000
4062:0.0000000000000000e+000
4063:0.0000000000000000e+000
4064:0.0000000000000000e+000
4065:0.0000000000000000e+000
4066:0.0000000000000000e+000
4067:0.0000000000000000e+000
4068:0.0000000000000000e+000
4069:0.0000000000000000e+000
4070:0.0000000000000000e+000
4071:0.0000000000000000e+000
4072:0.0000000000000000e+000
4073:0.0000000000000000e+000
4074:0.0000000000000000e+000
4075:0.0000000000000000e+000
4076:0.0000000000000000e+000
4077:0.0000000000000000e+000
4078:0.0000000000000000e+000
4079:0.0000000000000000e+000
4080:0.0000000000000000e+000
4081:0.0000000000000000e+000
4082:0.0000000000000000e+000
4083:0.0000000000000000e+000
4084:0.0000000000000000e+000
4085:0.0000000000000000e+000
4086:0.0000000000000000e+000
4087:0.0000000000000000e+000
4088:0.0000000000000000e+000
4089:0.0000000000000000e+000
4090:0.0000000000000000e+000
4091:0.0000000000000000e+000
4092:0.0000000000000000e+000
4093:0.0000000000000000e+000
4094:0.0000000000000000e+000
4095:0.0000000000000000e+000
4096:0.0000000000000000e+000
4097:0.0000000000000000e+000
4098:0.0000000000000000e+000
4099:0.0000000000000000e+000
4100:0.0000000000000000e+000
4101:0.0000000000000000e+000
4102:0.0000000000000000e+000
4103:0.0000000000000000e+000
4104:0.0000000000000000e+000
4105:0.0000000000000000e+000
4106:0.0000000000000000e+000
4107:0.0000000000000000e+000
4108:0.0000000000000000e+000
4109:0.0000000000000000e+000
4110:0.0000000000000000e+000
4111:0.0000000000000000e+000
4112:0.0000000000000000e+000
4113:0.0000000000000000e+000
4114:0.0000000000000000e+000
4115:0.0000000000000000e+000
4116:0.0000000000000000e+000
4117:0.0000000000000000e+000
4118:0.0000000000000000e+000
4119:0.0000000000000000e+000
4120:0.0000000000000000e+000
4121:0.0000000000000000e+000
4122:0.0000000000000000e+000
4123:0.0000000000000000e+000
4124:0.0000000000000000e+000
4125:0.0000000000000000e+000
4126:0.0000000000000000e+000
4127:0.0000000000000000e+000
4128:0.0000000000000000e+000
4129:0.0000000000000000e+000
4130:0.0000000000000000e+000
4131:0.0000000000000000e+000
4132:0.0000000000000000e+000
4133:0.0000000000000000e+000
4134:0.0000000000000000e+000
4135:0.0000000000000000e+000
4136:0.0000000000000000e+000
4137:0.0000000000000000e+000
4138:0.0000000000000000e+000
4139:0.0000000000000000e+000
4140:0.0000000000000000e+000
4141:0.0000000000000000e+000
4142:0.0000000000000000e+000
4143:0.0000000000000000e+000
4144:0.0000000000000000e+000
4145:0.0000000000000000e+000
4146:0.0000000000000000e+000
4147:0.0000000000000000e+000
4148:0.0000000000000000e+000
4149:0.0000000000000000e+000
4150:0.0000000000000000e+000
4151:0.0000000000000000e+000
4152:0.0000000000000000e+000
4153:0.0000000000000000e+000
4154:0.0000000000000000e+000
4155:0.0000000000000000e+000
4156:0.0000000000000000e+000
4157:0.0000000000000000e+000
4158:0.0000000000000000e+000
4159:0.0000000000000000e+000
4160:0.0000000000000000e+000
4161:0.0000000000000000e+000
4162:0.0000000000000000e+000
4163:0.0000000000000000e+000
4164:0.0000000000000000e+000
4165:0.0000000000000000e+000
4166:0.0000000000000000e+000
4167:0.0000000000000000e+000
4168:0.0000000000000000e+000
4169:0.0000000000000000e+000
4170:0.0000000000000000e+000
4171:0.0000000000000000e+000
4172:0.0000000000000000e+000
4173:0.0000000000000000e+000
4174:0.0000000000000000e+000
4175:0.0000000000000000e+000
4176:0.0000000000000000e+000
4177:0.0000000000000000e+000
4178:0.0000000000000000e+000
4179:0.0000000000000000e+000
4180:0.0000000000000000e+000
4181:0.0000000000000000e+000
4182:0.0000000000000000e+000
4183:0.0000000000000000e+000
4184:0.0000000000000000e+000
4185:0.0000000000000000e+000
4186:0.0000000000000000e+000
4187:0.0000000000000000e+000
4188:0.0000000000000000e+000
4189:0.0000000000000000e+000
4190:0.0000000000000000e+000
4191:0.0000000000000000e+000
4192:0.0000000000000000e+000
4193:0.0000000000000000e+000
4194:0.0000000000000000e+000
4195:0.0000000000000000e+000
4196:0.0000000000000000e+000
4197:0.0000000000000000e+000
4198:0.0000000000000000e+000
4199:0.0000000000000000e+000
4200:0.0000000000000000e+000
4201:0.0000000000000000e+000
4202:0.0000000000000000e+000
4203:0.0000000000000000e+000
4204:0.0000000000000000e+000
4205:0.0000000000000000e+000
4206:0.0000000000000000e+000
4207:0.0000000000000000e+000
4208:0.0000000000000000e+000
4209:0.0000000000000000e+000
4210:0.0000000000000000e+000
4211:0.0000000000000000e+000
4212:0.0000000000000000e+000
4213:0.0000000000000000e+000
4214:0.0000000000000000e+000
4215:0.0000000000000000e+000
4216:0.0000000000000000e+000
4217:0.0000000000000000e+000
4218:0.0000000000000000e+000
4219:0.0000000000000000e+000
4220:0.0000000000000000e+000
4221:0.0000000000000000e+000
4222:0.0000000000000000e+000
4223:0.0000000000000000e+000
4224:0.0000000000000000e+000
4225:0.0000000000000000e+000
4226:0.0000000000000000e+000
4227:0.0000000000000000e+000
4228:0.0000000000000000e+000
4229:0.0000000000000000e+000
4230:0.0000000000000000e+000
4231:0.0000000000000000e+000
4232:0.0000000000000000e+000
4233:0.0000000000000000e+000
4234:0.0000000000000000e+000
4235:0.0000000000000000e+000
4236:0.0000000000000000e+000
4237:0.0000000000000000e+000
4238:0.0000000000000000e+000
4239:0.0000000000000000e+000
4240:0.0000000000000000e+000
4241:0.0000000000000000e+000
4242:0.0000000000000000e+000
4243:0.0000000000000000e+000
4244:0.0000000000000000e+000
4245:0.0000000000000000e+000
4246:0.0000000000000000e+000
4247:0.0000000000000000e+000
4248:0.0000000000000000e+000
4249:0.0000000000000000e+000
4250:0.0000000000000000e+000
4251:0.0000000000000000e+000
4252:0.0000000000000000e+000
4253:0.0000000000000000e+000
4254:0.0000000000000000e+000
4255:0.0000000000000000e+000
4256:0.0000000000000000e+000
4257:0.0000000000000000e+000
4258:0.0000000000000000e+000
4259:0.0000000000000000e+000
4260:0.0000000000000000e+000
4261:0.0000000000000000e+000
4262:0.0000000000000000e+000
4263:0.0000000000000000e+000
4264:0.0000000000000000e+000
4265:0.0000000000000000e+000
4266:0.0000000000000000e+000
4267:0.0000000000000000e+000
4268:0.0000000000000000e+000
4269:0.0000000000000000e+000
4270:0.0000000000000000e+000
4271:0.0000000000000000e+000
4272:0.0000000000000000e+000
4273:0.0000000000000000e+000
4274:0.0000000000000000e+000
4275:0.0000000000000000e+000
4276:0.0000000000000000e+000
4277:0.0000000000000000e+000
4278:0.0000000000000000e+000
4279:0.0000000000000000e+000
4280:0.0000000000000000e+000
4281:0.0000000000000000e+000
4282:0.0000000000000000e+000
4283:0.0000000000000000e+000
4284:0.0000000000000000e+000
4285:0.0000000000000000e+000
4286:0.0000000000000000e+000
4287:0.0000000000000000e+000
4288:0.0000000000000000e+000
4289:0.0000000000000000e+000
4290:0.0000000000000000e+000
4291:0.0000000000000000e+000
4292:0.0000000000000000e+000
4293:0.0000000000000000e+000
4294:0.0000000000000000e+000
4295:0.0000000000000000e+000
4296:0.0000000000000000e+000
4297:0.0000000000000000e+000
4298:0.0000000000000000e+000
4299:0.0000000000000000e+000
4300:0.0000000000000000e+000
4301:0.0000000000000000e+000
4302:0.0000000000000000e+000
4303:0.0000000000000000e+000
4304:0.0000000000000000e+000
4305:0.0000000000000000e+000
4306:0.0000000000000000e+000
4307:0.0000000000000000e+000
4308:0.0000000000000000e+000
4309:0.0000000000000000e+000
4310:0.0000000000000000e+000
4311:0.0000000000000000e+000
4312:0.0000000000000000e+000
4313:0.0000000000000000e+000
4314:0.0000000000000000e+000
4315:0.0000000000000000e+000
4316:0.0000000000000000e+000
4317:0.0000000000000000e+000
4318:0.0000000000000000e+000
4319:0.0000000000000000e+000
4320:0.0000000000000000e+000
4321:0.0000000000000000e+000
4322:0.0000000000000000e+000
4323:0.0000000000000000e+000
4324:0.0000000000000000e+000
4325:0.0000000000000000e+000
4326:0.0000000000000000e+000
4327:0.0000000000000000e+000
4328:0.0000000000000000e+000
4329:0.0000000000000000e+000
4330:0.0000000000000000e+000
4331:0.0000000000000000e+000
4332:0.0000000000000000e+000
4333:0.0000000000000000e+000
4334:0.0000000000000000e+000
4335:0.0000000000000000e+000
4336:0.0000000000000000e+000
4337:0.0000000000000000e+000
4338:0.0000000000000000e+000
4339:0.0000000000000000e+000
4340:0.0000000000000000e+000
4341:0.0000000000000000e+000
4342:0.0000000000000000e+000
4343:0.0000000000000000e+000
4344:0.0000000000000000e+000
4345:0.0000000000000000e+000
4346:0.0000000000000000e+000
4347:0.0000000000000000e+000
4348:0.0000000000000000e+000
4349:0.0000000000000000e+000
4350:0.0000000000000000e+000
4351:0.0000000000000000e+000
4352:0.0000000000000000e+000
4353:0.0000000000000000e+000
4354:0.0000000000000000e+000
4355:0.0000000000000000e+000
4356:0.0000000000000000e+000
4357:0.0000000000000000e+000
4358:0.0000000000000000e+000
4359:0.0000000000000000e+000
4360:0.0000000000000000e+000
4361:0.0000000000000000e+000
4362:0.0000000000000000e+000
4363:0.0000000000000000e+000
4364:0.0000000000000000e+000
4365:0.0000000000000000e+000
4366:0.0000000000000000e+000
4367:0.0000000000000000e+000
4368:0.0000000000000000e+000
4369:0.0000000000000000e+000
4370:0.0000000000000000e+000
4371:0.0000000000000000e+000
4372:0.0000000000000000e+000
4373:0.0000000000000000e+000
4374:0.0000000000000000e+000
4375:0.0000000000000000e+000
4376:0.0000000000000000e+000
4377:0.0000000000000000e+000
4378:0.0000000000000000e+000
4379:0.0000000000000000e+000
4380:0.0000000000000000e+000
4381:0.0000000000000000e+000
4382:0.0000000000000000e+000
4383:0.0000000000000000e+000
4384:0.0000000000000000e+000
4385:0.0000000000000000e+000
4386:0.0000000000000000e+000
4387:0.0000000000000000e+000
4388:0.0000000000000000e+000
4389:0.0000000000000000e+000
4390:0.0000000000000000e+000
4391:0.0000000000000000e+000
4392:0.0000000000000000e+000
4393:0.0000000000000000e+000
4394:0.0000000000000000e+000
4395:0.0000000000000000e+000
4396:0.0000000000000000e+000
4397:0.0000000000000000e+000
4398:0.0000000000000000e+000
4399:0.0000000000000000e+000
4400:0.0000000000000000e+000
4401:0.0000000000000000e+000
4402:0.0000000000000000e+000
4403:0.0000000000000000e+000
4404:0.0000000000000000e+000
4405:0.0000000000000000e+000
4406:0.0000000000000000e+000
4407:0.0000000000000000e+000
4408:0.0000000000000000e+000
4409:0.0000000000000000e+000
4410:0.0000000000000000e+000
4411:0.0000000000000000e+000
4412:0.0000000000000000e+000
4413:0.0000000000000000e+000
4414:0.0000000000000000e+000
4415:0.0000000000000000e+000
4416:0.0000000000000000e+000
4417:0.0000000000000000e+000
4418:0.0000000000000000e+000
4419:0.0000000000000000e+000
4420:0.0000000000000000e+000
4421:0.0000000000000000e+000
4422:0.0000000000000000e+000
4423:0.0000000000000000e+000
4424:0.0000000000000000e+000
4425:0.0000000000000000e+000
4426:0.0000000000000000e+000
4427:0.0000000000000000e+000
4428:0.0000000000000000e+000
4429:0.0000000000000000e+000
4430:0.0000000000000000e+000
4431:0.0000000000000000e+000
4432:0.0000000000000000e+000
4433:0.0000000000000000e+000
4434:0.0000000000000000e+000
4435:0.0000000000000000e+000
4436:0.0000000000000000e+000
4437:0.0000000000000000e+000
4438:0.0000000000000000e+000
4439:0.0000000000000000e+000
4440:0.0000000000000000e+000
4441:0.0000000000000000e+000
4442:0.0000000000000000e+000
4443:0.0000000000000000e+000
4444:0.0000000000000000e+000
4445:0.0000000000000000e+000
4446:0.0000000000000000e+000
4447:0.0000000000000000e+000
4448:0.0000000000000000e+000
4449:0.0000000000000000e+000
4450:0.0000000000000000e+000
4451:0.0000000000000000e+000
4452:0.0000000000000000e+000
4453:0.0000000000000000e+000
4454:0.0000000000000000e+000
4455:0.0000000000000000e+000
4456:0.0000000000000000e+000
4457:0.0000000000000000e+000
4458:0.0000000000000000e+000
4459:0.0000000000000000e+000
4460:0.0000000000000000e+000
4461:0.0000000000000000e+000
4462:0.0000000000000000e+000
4463:0.0000000000000000e+000
4464:0.0000000000000000e+000
4465:0.0000000000000000e+000
4466:0.0000000000000000e+000
4467:0.0000000000000000e+000
4468:0.0000000000000000e+000
4469:0.0000000000000000e+000
4470:0.0000000000000000e+000
4471:0.0000000000000000e+000
4472:0.0000000000000000e+000
4473:0.0000000000000000e+000
4474:0.0000000000000000e+000
4475:0.0000000000000000e+000
4476:0.0000000000000000e+000
4477:0.0000000000000000e+000
4478:0.0000000000000000e+000
4479:0.0000000000000000e+000
4480:0.0000000000000000e+000
4481:0.0000000000000000e+000
4482:0.0000000000000000e+000
4483:0.0000000000000000e+000
4484:0.0000000000000000e+000
4485:0.0000000000000000e+000
4486:0.0000000000000000e+000
4487:0.0000000000000000e+000
4488:0.0000000000000000e+000
4489:0.0000000000000000e+000
4490:0.0000000000000000e+000
4491:0.0000000000000000e+000
4492:0.0000000000000000e+000
4493:0.0000000000000000e+000
4494:0.0000000000000000e+000
4495:0.0000000000000000e+000
4496:0.0000000000000000e+000
4497:0.0000000000000000e+000
4498:0.0000000000000000e+000
4499:0.0000000000000000e+000
4500:0.0000000000000000e+000
4501:0.0000000000000000e+000
4502:0.0000000000000000e+000
4503:0.0000000000000000e+000
4504:0.0000000000000000e+000
4505:0.0000000000000000e+000
4506:0.0000000000000000e+000
4507:0.0000000000000000e+000
4508:0.0000000000000000e+000
4509:0.0000000000000000e+000
4510:0.0000000000000000e+000
4511:0.0000000000000000e+000
4512:0.0000000000000000e+000
4513:0.0000000000000000e+000
4514:0.0000000000000000e+000
4515:0.0000000000000000e+000
4516:0.0000000000000000e+000
4517:0.0000000000000000e+000
4518:0.0000000000000000e+000
4519:0.0000000000000000e+000
4520:0.0000000000000000e+000
4521:0.0000000000000000e+000
4522:0.0000000000000000e+000
4523:0.0000000000000000e+000
4524:0.0000000000000000e+000
4525:0.0000000000000000e+000
4526:0.0000000000000000e+000
4527:0.0000000000000000e+000
4528:0.0000000000000000e+000
4529:0.0000000000000000e+000
4530:0.0000000000000000e+000
4531:0.0000000000000000e+000
4532:0.0000000000000000e+000
4533:0.0000000000000000e+000
4534:0.0000000000000000e+000
4535:0.0000000000000000e+000
4536:0.0000000000000000e+000
4537:0.0000000000000000e+000
4538:0.0000000000000000e+000
4539:0.0000000000000000e+000
4540:0.0000000000000000e+000
4541:0.0000000000000000e+000
4542:0.0000000000000000e+000
4543:0.0000000000000000e+000
4544:0.0000000000000000e+000
4545:0.0000000000000000e+000
4546:0.0000000000000000e+000
4547:0.0000000000000000e+000
4548:0.0000000000000000e+000
4549:0.0000000000000000e+000
4550:0.0000000000000000e+000
4551:0.0000000000000000e+000
4552:0.0000000000000000e+000
4553:0.0000000000000000e+000
4554:0.0000000000000000e+000
4555:0.0000000000000000e+000
4556:0.0000000000000000e+000
4557:0.0000000000000000e+000
4558:0.0000000000000000e+000
4559:0.0000000000000000e+000
4560:0.0000000000000000e+000
4561:0.0000000000000000e+000
4562:0.0000000000000000e+000
4563:0.0000000000000000e+000
4564:0.0000000000000000e+000
4565:0.0000000000000000e+000
4566:0.0000000000000000e+000
4567:0.0000000000000000e+000
4568:0.0000000000000000e+000
4569:0.0000000000000000e+000
4570:0.0000000000000000e+000
4571:0.0000000000000000e+000
4572:0.0000000000000000e+000
4573:0.0000000000000000e+000
4574:0.0000000000000000e+000
4575:0.0000000000000000e+000
4576:0.0000000000000000e+000
4577:0.0000000000000000e+000
4578:0.0000000000000000e+000
4579:0.0000000000000000e+000
4580:0.0000000000000000e+000
4581:0.0000000000000000e+000
4582:0.0000000000000000e+000
4583:0.0000000000000000e+000
4584:0.0000000000000000e+000
4585:0.0000000000000000e+000
4586:0.0000000000000000e+000
4587:0.0000000000000000e+000
4588:0.0000000000000000e+000
4589:0.0000000000000000e+000
4590:0.0000000000000000e+000
4591:0.0000000000000000e+000
4592:0.0000000000000000e+000
4593:0.0000000000000000e+000
4594:0.0000000000000000e+000
4595:0.0000000000000000e+000
4596:0.0000000000000000e+000
4597:0.0000000000000000e+000
4598:0.0000000000000000e+000
4599:0.0000000000000000e+000
4600:0.0000000000000000e+000
4601:0.0000000000000000e+000
4602:0.0000000000000000e+000
4603:0.0000000000000000e+000
4604:0.0000000000000000e+000
4605:0.0000000000000000e+000
4606:0.0000000000000000e+000
4607:0.0000000000000000e+000
