label=Stress xy
num_items=1017

0:-2.5760455785992908e-02
1:4.2534117229237695e-02
2:5.5204037571344247e-02
3:-1.3740489882136492e-01
4:-5.6658020354706233e-02
5:-1.1601010369298910e-03
6:-1.3378486728917358e-01
7:-8.7224653139823735e-02
8:-3.5537704615114664e-02
9:3.5450435076341248e-02
10:5.0456792564332270e-03
11:-3.2943866384428453e-03
12:7.3967207198082615e-03
13:2.5082615077492111e-03
14:5.2199594404054453e-03
15:-1.3685230986242148e-02
16:1.9834359222216861e-03
17:1.0787727195082059e-02
18:-7.6440256668490152e-05
19:2.9451646277193840e-03
20:2.6604642760430382e-03
21:6.8172144511867844e-03
22:4.5794920052775884e-03
23:2.1727561045696191e-03
24:9.9492531632030326e-03
25:4.6105037023642702e-03
26:2.2400325679923123e-03
27:1.4175073294060009e-03
28:1.9285284068244385e-04
29:-5.9147575714829984e-05
30:1.3465787241730772e-03
31:1.2032920459248548e-03
32:1.3389088029442621e-03
33:2.2560324238222670e-03
34:2.4976887913401671e-03
35:2.3244979570646446e-03
36:9.8411119908874676e-05
37:1.9370223775922330e-04
38:1.8006501719072338e-04
39:1.2915824915045021e-03
40:8.7668819975099128e-04
41:5.5999779082710228e-04
42:1.9561515358360528e-03
43:1.3283992857188727e-03
44:1.0059831396745037e-03
45:1.5742940661692982e-04
46:1.5252778489307128e-04
47:1.3048481118668631e-04
48:4.8423754483648001e-04
49:4.7084396885878587e-04
50:4.4762200575266744e-04
51:9.3844229209298158e-04
52:8.3003757203951314e-04
53:7.1911742971196623e-04
54:1.0069536382468727e-04
55:5.3658298343779938e-05
56:4.1054306569540326e-05
57:4.0418543016246684e-04
58:3.0519118489169284e-04
59:2.3827922369605253e-04
60:6.4692994529497833e-04
61:5.3059369378241703e-04
62:4.4398893673280166e-04
63:4.7191478442691297e-05
64:4.2173471806474820e-05
65:1.1615641993136947e-05
66:2.0553127577742787e-04
67:1.3135841249453103e-04
68:4.5043360954568890e-05
69:3.8101495561185494e-04
70:2.3282894110309235e-04
71:8.5898373258907787e-05
72:-8.1604098347580395e-02
73:-6.6331528293766373e-02
74:-3.8229449562876383e-02
75:-1.1703245177095201e-02
76:-2.4951948550572062e-02
77:-2.9276317023568331e-02
78:9.5606910950929904e-03
79:-9.4261278973081179e-03
80:-2.3393785765825677e-02
81:-2.0225452363057689e-02
82:-1.0605725290048842e-03
83:8.3099729297959890e-03
84:-2.3863671091117505e-02
85:-1.0184192017157926e-02
86:-1.9032933494775200e-03
87:-2.4007685317184523e-02
88:-1.6036864400953848e-02
89:-9.0688699220276749e-03
90:7.3971808979048119e-03
91:3.3091911296594927e-03
92:2.4700801706468841e-03
93:-4.5508729027386735e-04
94:4.2000074266846282e-04
95:2.3709570260711590e-03
96:-5.7948227098874880e-03
97:-1.5724618398949637e-03
98:1.5527567217817576e-03
99:2.9035666979605732e-03
100:2.8175540813736000e-03
101:2.2394337508391433e-03
102:2.9385647683125263e-03
103:2.2024949330162222e-03
104:1.4025629141574038e-03
105:1.9697470358300525e-03
106:1.2209229698698653e-03
107:8.3648225073205604e-04
108:1.7943156172187996e-03
109:1.3578993712044293e-03
110:1.2273775772271046e-03
111:1.1590178629844298e-03
112:1.2282215025918083e-03
113:1.3981061311246891e-03
114:9.0204511553834308e-04
115:1.2091082127212137e-03
116:1.4116388357167426e-03
117:1.1864980762290578e-03
118:9.8676027285262368e-04
119:7.9891483227014111e-04
120:1.3717335870739855e-03
121:1.0811466295196936e-03
122:8.4465130332100978e-04
123:1.3543853902172587e-03
124:1.0847347090799401e-03
125:9.1137492786860666e-04
126:7.1203885155320286e-04
127:6.1014474406400384e-04
128:5.3378989965401156e-04
129:7.6112710242226794e-04
130:6.8437976162339287e-04
131:6.2111590528712520e-04
132:8.5494903457878756e-04
133:7.7316777488372701e-04
134:6.9281422103724389e-04
135:4.6047711351353141e-04
136:2.7180266518046228e-04
137:8.8387743409851086e-05
138:5.3715210308608421e-04
139:3.0680040772501405e-04
140:8.2070591238337143e-05
141:5.9857366381644607e-04
142:3.5801155196210605e-04
143:1.2343367129821414e-04
144:2.0426041462106659e-03
145:-1.0560919693243975e-02
146:-1.9887552856016160e-02
147:-7.4124579858681240e-03
148:-1.0666590070523663e-02
149:-1.2725955585999317e-02
150:-7.1854916877409610e-03
151:-6.6958322277191704e-03
152:-7.0935303060224771e-03
153:-2.0584702997405523e-02
154:-1.5543908759806364e-02
155:-1.0154336001596688e-02
156:-1.2735832040751049e-02
157:-1.1095744732412227e-02
158:-8.8578536892516234e-03
159:-7.6796829317607217e-03
160:-8.1768809068422533e-03
161:-7.8272499328856278e-03
162:-6.9423695504079357e-03
163:-2.5089151838797587e-03
164:3.9125099065047365e-04
165:-7.0488368980454229e-03
166:-4.0104772317625182e-03
167:-1.8312068962427557e-03
168:-6.9706941212070196e-03
169:-5.0427502017901553e-03
170:-3.2996967519012339e-03
171:7.9424514861449100e-04
172:5.2221426460235046e-04
173:6.4292860194727335e-04
174:-1.1671378764927934e-03
175:-4.6980251761809304e-04
176:2.8949787790783708e-04
177:-2.4136589972889866e-03
178:-1.1660242284364990e-03
179:-1.8720460764058182e-04
180:8.5011023194572289e-04
181:1.1013880733754980e-03
182:1.2187074499067532e-03
183:5.5511843611697343e-04
184:6.4934344011893590e-04
185:7.1370127030278749e-04
186:5.9842267862609054e-05
187:1.5142807121072251e-04
188:3.1723799181705567e-04
189:1.1623507557027926e-03
190:9.9516346618289315e-04
191:9.1679387863264847e-04
192:7.3415417975466492e-04
193:7.7287645950710492e-04
194:8.3253559010584648e-04
195:4.3549097043123181e-04
196:5.9784274261236213e-04
197:7.1325051452806600e-04
198:8.8114673728530212e-04
199:7.8070961314125596e-04
200:6.8186191920992191e-04
201:8.1727799669213457e-04
202:7.0083828308345291e-04
203:5.9859954273197710e-04
204:7.0507515430156338e-04
205:6.0918245177594250e-04
206:5.4010226556084977e-04
207:5.8652054918569008e-04
208:3.5890409750197411e-04
209:1.3469842944753124e-04
210:5.1521715072120992e-04
211:3.1800552104325265e-04
212:1.1499869159872198e-04
213:4.7751969746422080e-04
214:3.0454478258161070e-04
215:1.1656868452074902e-04
216:-3.5667188540318422e-03
217:-4.0337771292235274e-03
218:-5.6896741039054698e-03
219:2.7214685334847133e-04
220:-2.5663997279595533e-03
221:-5.5476984012198379e-03
222:8.2621419694396431e-04
223:-2.7700935461420703e-03
224:-5.4630667736235072e-03
225:-6.7226925214752663e-03
226:-7.3448916154693639e-03
227:-7.1855675337108302e-03
228:-6.4772503490629872e-03
229:-6.3993414287049849e-03
230:-6.0133572929100690e-03
231:-5.9061561115632899e-03
232:-5.4257032746555123e-03
233:-5.1106231826279578e-03
234:-6.5640661894916909e-03
235:-5.0813326185139909e-03
236:-3.5819537409031909e-03
237:-5.5664422579333513e-03
238:-4.5928613918797779e-03
239:-3.5842580638115172e-03
240:-4.8824393032134254e-03
241:-4.2721504410749359e-03
242:-3.6084619615401143e-03
243:-2.7214196068974391e-03
244:-1.4839270424898887e-03
245:-5.7114918913107611e-04
246:-2.9690032877237944e-03
247:-2.0059793294037822e-03
248:-1.2289882801602725e-03
249:-3.1779294117037517e-03
250:-2.4271306817514882e-03
251:-1.7236830589090718e-03
252:-3.2490856272398476e-04
253:-1.2992520954801867e-04
254:1.4554632801386767e-04
255:-9.2083717898563131e-04
256:-5.2012630754082970e-04
257:-1.2149212824430949e-04
258:-1.3592047234176465e-03
259:-8.3419647075999429e-04
260:-3.9382978678446158e-04
261:3.0129288742461035e-04
262:4.7175946617599742e-04
263:5.8439661176693739e-04
264:4.2507649614763550e-05
265:1.9113943654181995e-04
266:3.1241494193095062e-04
267:-2.3589722905840801e-04
268:-7.6882164853308576e-05
269:8.5249769436795741e-05
270:5.8515282847136109e-04
271:5.2765610631767931e-04
272:4.9372718874748380e-04
273:3.4733845882433610e-04
274:3.6361040038068395e-04
275:3.7968817864306533e-04
276:1.5738693410676427e-04
277:2.2567821837891273e-04
278:2.7001337148333253e-04
279:4.4353688305598599e-04
280:2.7977994393502180e-04
281:1.0053984502964647e-04
282:3.4464310996469973e-04
283:2.0313753434122287e-04
284:5.3698473754020788e-05
285:2.4866643191632051e-04
286:1.4618856652019388e-04
287:4.3326890963674276e-05
288:1.9210795709287198e-05
289:-2.9560945568021645e-03
290:-4.9055254045438845e-03
291:-6.9459487793577517e-04
292:-2.1960150854932001e-03
293:-3.2965397434218282e-03
294:-6.4434782850635963e-04
295:-1.2548275641770185e-03
296:-2.0893907053643351e-03
297:-5.1470328465654290e-03
298:-4.8392300506614853e-03
299:-4.7630170855565536e-03
300:-3.6412187327061673e-03
301:-3.9747245397426774e-03
302:-4.2939266816259562e-03
303:-2.6336328240472618e-03
304:-3.3567514302987288e-03
305:-3.8196728754435077e-03
306:-4.6400940400038154e-03
307:-4.1139932085546968e-03
308:-3.5407981682596948e-03
309:-4.2470174348625735e-03
310:-3.7712952012004595e-03
311:-3.2885243980461621e-03
312:-3.7891526181296231e-03
313:-3.4106046251499672e-03
314:-3.0650537020333224e-03
315:-3.1717406200513949e-03
316:-2.5121577454378929e-03
317:-1.8604542158237867e-03
318:-2.9890328873518127e-03
319:-2.4542001814918005e-03
320:-1.9302842407832766e-03
321:-2.8412327821116150e-03
322:-2.4053328485215777e-03
323:-1.9833871002376186e-03
324:-1.5018068448164261e-03
325:-9.7930250498811690e-04
326:-5.5496579091147003e-04
327:-1.6370654411086746e-03
328:-1.1863663278238869e-03
329:-7.9775214623120823e-04
330:-1.7442370126055744e-03
331:-1.3521224604430028e-03
332:-9.8601014592613690e-04
333:-3.9680729724147302e-04
334:-2.1049082581470790e-04
335:-1.8324741296520281e-05
336:-6.2463045110993786e-04
337:-3.8807024786872421e-04
338:-1.6674253456769423e-04
339:-7.9966692849238713e-04
340:-5.3206892466060244e-04
341:-3.0078551380268857e-04
342:6.7003122784979079e-05
343:1.4587708435807281e-04
344:1.9622646267568563e-04
345:-7.7367819973267108e-05
346:5.0642543620844172e-06
347:6.7034265758212050e-05
348:-2.1062162576566680e-04
349:-1.1662048750644822e-04
350:-3.5018891877319410e-05
351:1.8489344724596899e-04
352:1.1402227013229629e-04
353:4.3168870075743642e-05
354:7.6156922831662358e-05
355:5.4774051403802379e-05
356:2.7239333345551233e-05
357:-7.2888575387431339e-06
358:6.4539743703472754e-06
359:7.8753359572649558e-06
360:-4.0591828099777931e-04
361:-9.3439100030129135e-04
362:-1.8012300994347580e-03
363:-2.2362122045787070e-04
364:-9.2799482205912468e-04
365:-1.7384883379494985e-03
366:-1.8636449336164709e-04
367:-9.7843721568842391e-04
368:-1.6443833867705461e-03
369:-2.3718550531332092e-03
370:-3.0628239661336944e-03
371:-3.4676176273596660e-03
372:-2.1385306343844092e-03
373:-2.5506514758713147e-03
374:-2.8332170692391902e-03
375:-1.8746742890114639e-03
376:-2.0990054492078334e-03
377:-2.3504013649481999e-03
378:-3.4463162183477457e-03
379:-3.1737815021661438e-03
380:-2.9333704392737426e-03
381:-2.8685562993517573e-03
382:-2.7840101563386772e-03
383:-2.6885405384689926e-03
384:-2.4468142264443106e-03
385:-2.4744322073983077e-03
386:-2.4480795853482149e-03
387:-2.7503757650130705e-03
388:-2.3514000418513371e-03
389:-1.9682394406119975e-03
390:-2.5531532860896414e-03
391:-2.2027927971069697e-03
392:-1.8716051030633115e-03
393:-2.3400354253627319e-03
394:-2.0444764202510201e-03
395:-1.7714478830972275e-03
396:-1.7504799569912335e-03
397:-1.3856077093778601e-03
398:-1.0370088402585930e-03
399:-1.6805139036132712e-03
400:-1.3548569942295396e-03
401:-1.0481230139281082e-03
402:-1.6068632412966435e-03
403:-1.3136796485904876e-03
404:-1.0420685355713088e-03
405:-8.5385784410389005e-04
406:-5.8819555270298778e-04
407:-3.6225478504248485e-04
408:-8.8604854953500773e-04
409:-6.4318938865208779e-04
410:-4.3067753771795249e-04
411:-8.9798649455836695e-04
412:-6.7407397296465998e-04
413:-4.7113454752739441e-04
414:-2.7138629112929757e-04
415:-1.6672341426708648e-04
416:-7.3377877298552596e-05
417:-3.3669378905280345e-04
418:-2.1675122023695617e-04
419:-1.1246953095620302e-04
420:-3.7499568069529937e-04
421:-2.4692941248449205e-04
422:-1.3886756345801458e-04
423:-3.8685564197172800e-05
424:-1.3888939168098354e-05
425:-2.0791935109885331e-06
426:-7.3126376343824977e-05
427:-3.7973148625091574e-05
428:-1.1923849228744774e-05
429:-9.7756095121292655e-05
430:-5.4996054858469879e-05
431:-1.7456991877264832e-05
432:-1.8655124175394227e-04
433:-9.2181737641376345e-04
434:-1.4924090889559928e-03
435:-1.3710983754005186e-04
436:-6.6571354629829020e-04
437:-1.1294198611780969e-03
438:-9.7402390129981651e-05
439:-4.4927109523844837e-04
440:-8.3601943473446188e-04
441:0.0000000000000000e+00
442:0.0000000000000000e+00
443:0.0000000000000000e+00
444:0.0000000000000000e+00
445:0.0000000000000000e+00
446:0.0000000000000000e+00
447:0.0000000000000000e+00
448:0.0000000000000000e+00
449:0.0000000000000000e+00
450:0.0000000000000000e+00
451:0.0000000000000000e+00
452:0.0000000000000000e+00
453:0.0000000000000000e+00
454:0.0000000000000000e+00
455:0.0000000000000000e+00
456:0.0000000000000000e+00
457:0.0000000000000000e+00
458:0.0000000000000000e+00
459:0.0000000000000000e+00
460:0.0000000000000000e+00
461:0.0000000000000000e+00
462:0.0000000000000000e+00
463:0.0000000000000000e+00
464:0.0000000000000000e+00
465:0.0000000000000000e+00
466:0.0000000000000000e+00
467:0.0000000000000000e+00
468:0.0000000000000000e+00
469:0.0000000000000000e+00
470:0.0000000000000000e+00
471:0.0000000000000000e+00
472:0.0000000000000000e+00
473:0.0000000000000000e+00
474:0.0000000000000000e+00
475:0.0000000000000000e+00
476:0.0000000000000000e+00
477:0.0000000000000000e+00
478:0.0000000000000000e+00
479:0.0000000000000000e+00
480:0.0000000000000000e+00
481:0.0000000000000000e+00
482:0.0000000000000000e+00
483:0.0000000000000000e+00
484:0.0000000000000000e+00
485:0.0000000000000000e+00
486:0.0000000000000000e+00
487:0.0000000000000000e+00
488:0.0000000000000000e+00
489:0.0000000000000000e+00
490:0.0000000000000000e+00
491:0.0000000000000000e+00
492:0.0000000000000000e+00
493:0.0000000000000000e+00
494:0.0000000000000000e+00
495:0.0000000000000000e+00
496:0.0000000000000000e+00
497:0.0000000000000000e+00
498:0.0000000000000000e+00
499:0.0000000000000000e+00
500:0.0000000000000000e+00
501:0.0000000000000000e+00
502:0.0000000000000000e+00
503:0.0000000000000000e+00
504:0.0000000000000000e+00
505:0.0000000000000000e+00
506:0.0000000000000000e+00
507:0.0000000000000000e+00
508:0.0000000000000000e+00
509:0.0000000000000000e+00
510:0.0000000000000000e+00
511:0.0000000000000000e+00
512:0.0000000000000000e+00
513:0.0000000000000000e+00
514:0.0000000000000000e+00
515:0.0000000000000000e+00
516:0.0000000000000000e+00
517:0.0000000000000000e+00
518:0.0000000000000000e+00
519:0.0000000000000000e+00
520:0.0000000000000000e+00
521:0.0000000000000000e+00
522:0.0000000000000000e+00
523:0.0000000000000000e+00
524:0.0000000000000000e+00
525:0.0000000000000000e+00
526:0.0000000000000000e+00
527:0.0000000000000000e+00
528:0.0000000000000000e+00
529:0.0000000000000000e+00
530:0.0000000000000000e+00
531:0.0000000000000000e+00
532:0.0000000000000000e+00
533:0.0000000000000000e+00
534:0.0000000000000000e+00
535:0.0000000000000000e+00
536:0.0000000000000000e+00
537:0.0000000000000000e+00
538:0.0000000000000000e+00
539:0.0000000000000000e+00
540:0.0000000000000000e+00
541:0.0000000000000000e+00
542:0.0000000000000000e+00
543:0.0000000000000000e+00
544:0.0000000000000000e+00
545:0.0000000000000000e+00
546:0.0000000000000000e+00
547:0.0000000000000000e+00
548:0.0000000000000000e+00
549:0.0000000000000000e+00
550:0.0000000000000000e+00
551:0.0000000000000000e+00
552:0.0000000000000000e+00
553:0.0000000000000000e+00
554:0.0000000000000000e+00
555:0.0000000000000000e+00
556:0.0000000000000000e+00
557:0.0000000000000000e+00
558:0.0000000000000000e+00
559:0.0000000000000000e+00
560:0.0000000000000000e+00
561:0.0000000000000000e+00
562:0.0000000000000000e+00
563:0.0000000000000000e+00
564:0.0000000000000000e+00
565:0.0000000000000000e+00
566:0.0000000000000000e+00
567:0.0000000000000000e+00
568:0.0000000000000000e+00
569:0.0000000000000000e+00
570:0.0000000000000000e+00
571:0.0000000000000000e+00
572:0.0000000000000000e+00
573:0.0000000000000000e+00
574:0.0000000000000000e+00
575:0.0000000000000000e+00
576:0.0000000000000000e+00
577:0.0000000000000000e+00
578:0.0000000000000000e+00
579:0.0000000000000000e+00
580:0.0000000000000000e+00
581:0.0000000000000000e+00
582:0.0000000000000000e+00
583:0.0000000000000000e+00
584:0.0000000000000000e+00
585:0.0000000000000000e+00
586:0.0000000000000000e+00
587:0.0000000000000000e+00
588:0.0000000000000000e+00
589:0.0000000000000000e+00
590:0.0000000000000000e+00
591:0.0000000000000000e+00
592:0.0000000000000000e+00
593:0.0000000000000000e+00
594:0.0000000000000000e+00
595:0.0000000000000000e+00
596:0.0000000000000000e+00
597:0.0000000000000000e+00
598:0.0000000000000000e+00
599:0.0000000000000000e+00
600:0.0000000000000000e+00
601:0.0000000000000000e+00
602:0.0000000000000000e+00
603:0.0000000000000000e+00
604:0.0000000000000000e+00
605:0.0000000000000000e+00
606:0.0000000000000000e+00
607:0.0000000000000000e+00
608:0.0000000000000000e+00
609:0.0000000000000000e+00
610:0.0000000000000000e+00
611:0.0000000000000000e+00
612:0.0000000000000000e+00
613:0.0000000000000000e+00
614:0.0000000000000000e+00
615:0.0000000000000000e+00
616:0.0000000000000000e+00
617:0.0000000000000000e+00
618:0.0000000000000000e+00
619:0.0000000000000000e+00
620:0.0000000000000000e+00
621:0.0000000000000000e+00
622:0.0000000000000000e+00
623:0.0000000000000000e+00
624:0.0000000000000000e+00
625:0.0000000000000000e+00
626:0.0000000000000000e+00
627:0.0000000000000000e+00
628:0.0000000000000000e+00
629:0.0000000000000000e+00
630:0.0000000000000000e+00
631:0.0000000000000000e+00
632:0.0000000000000000e+00
633:0.0000000000000000e+00
634:0.0000000000000000e+00
635:0.0000000000000000e+00
636:0.0000000000000000e+00
637:0.0000000000000000e+00
638:0.0000000000000000e+00
639:0.0000000000000000e+00
640:0.0000000000000000e+00
641:0.0000000000000000e+00
642:0.0000000000000000e+00
643:0.0000000000000000e+00
644:0.0000000000000000e+00
645:0.0000000000000000e+00
646:0.0000000000000000e+00
647:0.0000000000000000e+00
648:0.0000000000000000e+00
649:0.0000000000000000e+00
650:0.0000000000000000e+00
651:0.0000000000000000e+00
652:0.0000000000000000e+00
653:0.0000000000000000e+00
654:0.0000000000000000e+00
655:0.0000000000000000e+00
656:0.0000000000000000e+00
657:0.0000000000000000e+00
658:0.0000000000000000e+00
659:0.0000000000000000e+00
660:0.0000000000000000e+00
661:0.0000000000000000e+00
662:0.0000000000000000e+00
663:0.0000000000000000e+00
664:0.0000000000000000e+00
665:0.0000000000000000e+00
666:0.0000000000000000e+00
667:0.0000000000000000e+00
668:0.0000000000000000e+00
669:0.0000000000000000e+00
670:0.0000000000000000e+00
671:0.0000000000000000e+00
672:0.0000000000000000e+00
673:0.0000000000000000e+00
674:0.0000000000000000e+00
675:0.0000000000000000e+00
676:0.0000000000000000e+00
677:0.0000000000000000e+00
678:0.0000000000000000e+00
679:0.0000000000000000e+00
680:0.0000000000000000e+00
681:0.0000000000000000e+00
682:0.0000000000000000e+00
683:0.0000000000000000e+00
684:0.0000000000000000e+00
685:0.0000000000000000e+00
686:0.0000000000000000e+00
687:0.0000000000000000e+00
688:0.0000000000000000e+00
689:0.0000000000000000e+00
690:0.0000000000000000e+00
691:0.0000000000000000e+00
692:0.0000000000000000e+00
693:0.0000000000000000e+00
694:0.0000000000000000e+00
695:0.0000000000000000e+00
696:0.0000000000000000e+00
697:0.0000000000000000e+00
698:0.0000000000000000e+00
699:0.0000000000000000e+00
700:0.0000000000000000e+00
701:0.0000000000000000e+00
702:0.0000000000000000e+00
703:0.0000000000000000e+00
704:0.0000000000000000e+00
705:0.0000000000000000e+00
706:0.0000000000000000e+00
707:0.0000000000000000e+00
708:0.0000000000000000e+00
709:0.0000000000000000e+00
710:0.0000000000000000e+00
711:0.0000000000000000e+00
712:0.0000000000000000e+00
713:0.0000000000000000e+00
714:0.0000000000000000e+00
715:0.0000000000000000e+00
716:0.0000000000000000e+00
717:0.0000000000000000e+00
718:0.0000000000000000e+00
719:0.0000000000000000e+00
720:0.0000000000000000e+00
721:0.0000000000000000e+00
722:0.0000000000000000e+00
723:0.0000000000000000e+00
724:0.0000000000000000e+00
725:0.0000000000000000e+00
726:0.0000000000000000e+00
727:0.0000000000000000e+00
728:0.0000000000000000e+00
729:0.0000000000000000e+00
730:0.0000000000000000e+00
731:0.0000000000000000e+00
732:0.0000000000000000e+00
733:0.0000000000000000e+00
734:0.0000000000000000e+00
735:0.0000000000000000e+00
736:0.0000000000000000e+00
737:0.0000000000000000e+00
738:0.0000000000000000e+00
739:0.0000000000000000e+00
740:0.0000000000000000e+00
741:0.0000000000000000e+00
742:0.0000000000000000e+00
743:0.0000000000000000e+00
744:0.0000000000000000e+00
745:0.0000000000000000e+00
746:0.0000000000000000e+00
747:0.0000000000000000e+00
748:0.0000000000000000e+00
749:0.0000000000000000e+00
750:0.0000000000000000e+00
751:0.0000000000000000e+00
752:0.0000000000000000e+00
753:0.0000000000000000e+00
754:0.0000000000000000e+00
755:0.0000000000000000e+00
756:0.0000000000000000e+00
757:0.0000000000000000e+00
758:0.0000000000000000e+00
759:0.0000000000000000e+00
760:0.0000000000000000e+00
761:0.0000000000000000e+00
762:0.0000000000000000e+00
763:0.0000000000000000e+00
764:0.0000000000000000e+00
765:0.0000000000000000e+00
766:0.0000000000000000e+00
767:0.0000000000000000e+00
768:0.0000000000000000e+00
769:0.0000000000000000e+00
770:0.0000000000000000e+00
771:0.0000000000000000e+00
772:0.0000000000000000e+00
773:0.0000000000000000e+00
774:0.0000000000000000e+00
775:0.0000000000000000e+00
776:0.0000000000000000e+00
777:0.0000000000000000e+00
778:0.0000000000000000e+00
779:0.0000000000000000e+00
780:0.0000000000000000e+00
781:0.0000000000000000e+00
782:0.0000000000000000e+00
783:0.0000000000000000e+00
784:0.0000000000000000e+00
785:0.0000000000000000e+00
786:0.0000000000000000e+00
787:0.0000000000000000e+00
788:0.0000000000000000e+00
789:0.0000000000000000e+00
790:0.0000000000000000e+00
791:0.0000000000000000e+00
792:0.0000000000000000e+00
793:0.0000000000000000e+00
794:0.0000000000000000e+00
795:0.0000000000000000e+00
796:0.0000000000000000e+00
797:0.0000000000000000e+00
798:0.0000000000000000e+00
799:0.0000000000000000e+00
800:0.0000000000000000e+00
801:0.0000000000000000e+00
802:0.0000000000000000e+00
803:0.0000000000000000e+00
804:0.0000000000000000e+00
805:0.0000000000000000e+00
806:0.0000000000000000e+00
807:0.0000000000000000e+00
808:0.0000000000000000e+00
809:0.0000000000000000e+00
810:0.0000000000000000e+00
811:0.0000000000000000e+00
812:0.0000000000000000e+00
813:0.0000000000000000e+00
814:0.0000000000000000e+00
815:0.0000000000000000e+00
816:0.0000000000000000e+00
817:0.0000000000000000e+00
818:0.0000000000000000e+00
819:0.0000000000000000e+00
820:0.0000000000000000e+00
821:0.0000000000000000e+00
822:0.0000000000000000e+00
823:0.0000000000000000e+00
824:0.0000000000000000e+00
825:0.0000000000000000e+00
826:0.0000000000000000e+00
827:0.0000000000000000e+00
828:0.0000000000000000e+00
829:0.0000000000000000e+00
830:0.0000000000000000e+00
831:0.0000000000000000e+00
832:0.0000000000000000e+00
833:0.0000000000000000e+00
834:0.0000000000000000e+00
835:0.0000000000000000e+00
836:0.0000000000000000e+00
837:0.0000000000000000e+00
838:0.0000000000000000e+00
839:0.0000000000000000e+00
840:0.0000000000000000e+00
841:0.0000000000000000e+00
842:0.0000000000000000e+00
843:0.0000000000000000e+00
844:0.0000000000000000e+00
845:0.0000000000000000e+00
846:0.0000000000000000e+00
847:0.0000000000000000e+00
848:0.0000000000000000e+00
849:0.0000000000000000e+00
850:0.0000000000000000e+00
851:0.0000000000000000e+00
852:0.0000000000000000e+00
853:0.0000000000000000e+00
854:0.0000000000000000e+00
855:0.0000000000000000e+00
856:0.0000000000000000e+00
857:0.0000000000000000e+00
858:0.0000000000000000e+00
859:0.0000000000000000e+00
860:0.0000000000000000e+00
861:0.0000000000000000e+00
862:0.0000000000000000e+00
863:0.0000000000000000e+00
864:0.0000000000000000e+00
865:0.0000000000000000e+00
866:0.0000000000000000e+00
867:0.0000000000000000e+00
868:0.0000000000000000e+00
869:0.0000000000000000e+00
870:0.0000000000000000e+00
871:0.0000000000000000e+00
872:0.0000000000000000e+00
873:0.0000000000000000e+00
874:0.0000000000000000e+00
875:0.0000000000000000e+00
876:0.0000000000000000e+00
877:0.0000000000000000e+00
878:0.0000000000000000e+00
879:0.0000000000000000e+00
880:0.0000000000000000e+00
881:0.0000000000000000e+00
882:0.0000000000000000e+00
883:0.0000000000000000e+00
884:0.0000000000000000e+00
885:0.0000000000000000e+00
886:0.0000000000000000e+00
887:0.0000000000000000e+00
888:0.0000000000000000e+00
889:0.0000000000000000e+00
890:0.0000000000000000e+00
891:0.0000000000000000e+00
892:0.0000000000000000e+00
893:0.0000000000000000e+00
894:0.0000000000000000e+00
895:0.0000000000000000e+00
896:0.0000000000000000e+00
897:0.0000000000000000e+00
898:0.0000000000000000e+00
899:0.0000000000000000e+00
900:0.0000000000000000e+00
901:0.0000000000000000e+00
902:0.0000000000000000e+00
903:0.0000000000000000e+00
904:0.0000000000000000e+00
905:0.0000000000000000e+00
906:0.0000000000000000e+00
907:0.0000000000000000e+00
908:0.0000000000000000e+00
909:0.0000000000000000e+00
910:0.0000000000000000e+00
911:0.0000000000000000e+00
912:0.0000000000000000e+00
913:0.0000000000000000e+00
914:0.0000000000000000e+00
915:0.0000000000000000e+00
916:0.0000000000000000e+00
917:0.0000000000000000e+00
918:0.0000000000000000e+00
919:0.0000000000000000e+00
920:0.0000000000000000e+00
921:0.0000000000000000e+00
922:0.0000000000000000e+00
923:0.0000000000000000e+00
924:0.0000000000000000e+00
925:0.0000000000000000e+00
926:0.0000000000000000e+00
927:0.0000000000000000e+00
928:0.0000000000000000e+00
929:0.0000000000000000e+00
930:0.0000000000000000e+00
931:0.0000000000000000e+00
932:0.0000000000000000e+00
933:0.0000000000000000e+00
934:0.0000000000000000e+00
935:0.0000000000000000e+00
936:0.0000000000000000e+00
937:0.0000000000000000e+00
938:0.0000000000000000e+00
939:0.0000000000000000e+00
940:0.0000000000000000e+00
941:0.0000000000000000e+00
942:0.0000000000000000e+00
943:0.0000000000000000e+00
944:0.0000000000000000e+00
945:0.0000000000000000e+00
946:0.0000000000000000e+00
947:0.0000000000000000e+00
948:0.0000000000000000e+00
949:0.0000000000000000e+00
950:0.0000000000000000e+00
951:0.0000000000000000e+00
952:0.0000000000000000e+00
953:0.0000000000000000e+00
954:0.0000000000000000e+00
955:0.0000000000000000e+00
956:0.0000000000000000e+00
957:0.0000000000000000e+00
958:0.0000000000000000e+00
959:0.0000000000000000e+00
960:0.0000000000000000e+00
961:0.0000000000000000e+00
962:0.0000000000000000e+00
963:0.0000000000000000e+00
964:0.0000000000000000e+00
965:0.0000000000000000e+00
966:0.0000000000000000e+00
967:0.0000000000000000e+00
968:0.0000000000000000e+00
969:0.0000000000000000e+00
970:0.0000000000000000e+00
971:0.0000000000000000e+00
972:0.0000000000000000e+00
973:0.0000000000000000e+00
974:0.0000000000000000e+00
975:0.0000000000000000e+00
976:0.0000000000000000e+00
977:0.0000000000000000e+00
978:0.0000000000000000e+00
979:0.0000000000000000e+00
980:0.0000000000000000e+00
981:0.0000000000000000e+00
982:0.0000000000000000e+00
983:0.0000000000000000e+00
984:0.0000000000000000e+00
985:0.0000000000000000e+00
986:0.0000000000000000e+00
987:0.0000000000000000e+00
988:0.0000000000000000e+00
989:0.0000000000000000e+00
990:0.0000000000000000e+00
991:0.0000000000000000e+00
992:0.0000000000000000e+00
993:0.0000000000000000e+00
994:0.0000000000000000e+00
995:0.0000000000000000e+00
996:0.0000000000000000e+00
997:0.0000000000000000e+00
998:0.0000000000000000e+00
999:0.0000000000000000e+00
1000:0.0000000000000000e+00
1001:0.0000000000000000e+00
1002:0.0000000000000000e+00
1003:0.0000000000000000e+00
1004:0.0000000000000000e+00
1005:0.0000000000000000e+00
1006:0.0000000000000000e+00
1007:0.0000000000000000e+00
1008:0.0000000000000000e+00
1009:0.0000000000000000e+00
1010:0.0000000000000000e+00
1011:0.0000000000000000e+00
1012:0.0000000000000000e+00
1013:0.0000000000000000e+00
1014:0.0000000000000000e+00
1015:0.0000000000000000e+00
1016:0.0000000000000000e+00
