label=Stress xy
num_items=36

0:-1.0026813597229556e-11
1:-2.5700654790239623e-11
2:-2.7014186246465690e-11
3:6.9109220253972431e-12
4:5.7777935195233407e-12
5:-6.9368185102955054e-12
6:4.7610803881220118e-11
7:5.0325854652083660e-11
8:1.5517367534258910e-11
9:-2.0326433702036527e-11
10:-6.2137386541874098e-12
11:6.4831219727888621e-12
12:-1.3736470378358591e-11
13:8.3667792875137882e-13
14:4.2907919619403633e-11
15:-1.4740751917703943e-11
16:-2.3278604667954902e-11
17:2.4595670039871872e-11
18:3.8503299768721365e-12
19:-5.6273657294687069e-11
20:-6.0698554519829145e-11
21:-5.1710507066834980e-12
22:1.2558788509577441e-12
23:5.0694969742386857e-13
24:4.1080459307497260e-11
25:9.5176491295694695e-11
26:7.9221337135658100e-11
27:-4.2907816200193111e-11
28:-4.2344804639628821e-11
29:-8.6779158644053903e-11
30:-1.3836608486628935e-11
31:-6.0945198195441402e-11
32:-1.1300777047016124e-10
33:2.4420911399379231e-11
34:-8.0076008171972212e-11
35:-1.4948509167316905e-10
