label=Stress xy
num_items=1152

0:1.7017262527141032e+01
1:4.0133340571781710e+00
2:1.4272140803635576e+00
3:2.3534788184145938e+01
4:4.7800737514399119e+00
5:2.0727133194984173e+00
6:2.2502271816525067e+01
7:4.2292707376017420e+00
8:2.1923010584828617e+00
9:2.0843434431903553e+01
10:3.0610253210515355e+00
11:3.2211723943858606e-01
12:-1.0662796339260598e+01
13:-3.7078100256316127e+00
14:-3.4444113314947820e+00
15:-4.4244661324363598e+01
16:-1.1542698179175204e+01
17:-7.6075053186787871e+00
18:-8.6080569354833486e+01
19:-1.9197282232172867e+01
20:-1.0623769210721889e+01
21:-7.5151179771910705e+01
22:-1.7149639119120614e+01
23:-1.0053688431989119e+01
24:-5.9565534993894616e+01
25:-1.2847659949756464e+01
26:-8.4921298986520544e+00
27:-5.0048793556728533e+01
28:-1.1053887788556629e+01
29:-6.1893470012465484e+00
30:-2.6298426985109117e+01
31:-5.8519161241901188e+00
32:-3.1309927476259296e+00
33:-2.1689016268835219e+00
34:-5.5158455929971850e-01
35:-9.9447283832148244e-03
36:8.4499102917809221e-01
37:2.7855719185891820e-02
38:-1.8001294272000312e-01
39:1.8910136168320149e+00
40:1.2973974953581713e-01
41:-3.1210563725924872e-01
42:2.9188401587714705e+00
43:2.2148276452429655e-01
44:-4.4628431680694280e-01
45:-6.3210645695946144e-02
46:6.9560827126414260e-02
47:7.3427981191961464e-02
48:-8.0134775211551226e-02
49:1.5228678053804931e-01
50:1.4473465536076305e-01
51:-9.6763321302447178e-02
52:2.3543752711086433e-01
53:2.1659533242715351e-01
54:2.6165746565756372e-02
55:-2.4833310319362294e-02
56:-2.6138903393625117e-02
57:5.3783792937175848e-02
58:-3.8273421275300680e-02
59:-4.0415148883336020e-02
60:8.1865898849273464e-02
61:-5.1687772023951389e-02
62:-5.5103933499244778e-02
63:-7.8008905285945089e-03
64:1.1808049994532626e-02
65:1.1838148615589556e-02
66:-9.0479936015934650e-03
67:2.2015904520802255e-02
68:2.0809175283155363e-02
69:-1.0736798352751953e-02
70:3.2120139835484174e-02
71:3.0014665205697483e-02
72:4.3111873611214420e-03
73:-3.8219761866103278e-03
74:-4.0152347277298637e-03
75:8.3856885758695869e-03
76:-4.2985256506439841e-03
77:-4.6330899237183977e-03
78:1.2734675005730592e-02
79:-4.7011372328507467e-03
80:-5.3775545712086365e-03
81:-1.0696939290728508e-03
82:2.0661672163815041e-03
83:2.0191530498501150e-03
84:-3.5539972395010538e-04
85:3.8365954624502660e-03
86:3.5806225351729332e-03
87:2.0587495817546509e-04
88:5.5637935280433608e-03
89:5.2086511827940810e-03
90:7.6773037288591106e-04
91:-5.2938862602042625e-04
92:-4.2939353965724459e-04
93:1.8250776862537850e-03
94:6.6985807440879467e-05
95:8.6902158816545827e-05
96:2.9629394994719555e-03
97:6.8204279919050143e-04
98:5.6004847408381642e-04
99:1.3382501511530309e-04
100:4.7158800031619927e-04
101:-1.1382035538941532e-04
102:6.4701022806617798e-04
103:8.0069455003510136e-04
104:1.9430366458032270e-05
105:1.1149774791526757e-03
106:1.1393064261758757e-03
107:2.1690970281756998e-04
108:8.9877586187855141e-01
109:7.3820065907708465e-01
110:6.9504350301149054e-01
111:-1.2336119800074707e+00
112:-4.6813437892457382e-01
113:2.4245604727808445e-01
114:-2.2469110669482779e+00
115:-1.0767985577121497e+00
116:-1.3387844497237417e-01
117:5.5865737196614174e-01
118:1.9033921249040936e-01
119:2.8075403615171437e-02
120:3.6258012086502883e-01
121:1.7063435662288479e-01
122:8.7766930200156093e-02
123:9.8295358633587890e-02
124:1.0770266725504760e-01
125:1.2921230091484234e-01
126:3.4805754568057165e-02
127:6.6247197225611065e-02
128:6.5242877063190513e-02
129:8.6110818428799946e-02
130:8.6688411585559719e-02
131:7.7678272341248966e-02
132:1.2755409368186663e-01
133:1.0109996799007626e-01
134:8.7916140316119162e-02
135:4.6029364079593932e-02
136:1.5103892793132295e-02
137:4.5559469102567952e-03
138:6.4996326407694524e-02
139:4.4562487057937868e-02
140:3.6442516850281617e-02
141:8.2236594960775344e-02
142:7.0080272394455717e-02
143:6.2174162708759549e-02
144:7.8146586367698074e-03
145:1.2987740553125668e-02
146:1.2862947493201760e-02
147:3.5071356429863441e-02
148:3.0117065539539037e-02
149:2.4521855737946907e-02
150:5.6433068805105277e-02
151:4.4458797314669070e-02
152:3.6500562977989010e-02
153:1.0306588479997455e-02
154:6.5426243969751502e-03
155:5.0658672474924119e-03
156:2.1586347401723972e-02
157:1.8511712754545100e-02
158:1.6992923878357841e-02
159:3.3780736952815006e-02
160:3.0332173492280345e-02
161:2.7708094640195791e-02
162:5.1065532363459660e-03
163:4.9719520717535709e-03
164:4.4116486137055246e-03
165:1.6018681423618564e-02
166:1.3341952795382495e-02
167:1.0908064414435757e-02
168:2.5643580392951427e-02
169:2.1229065759104802e-02
170:1.7725933913301819e-02
171:3.6621815644039225e-03
172:2.0253093815690792e-03
173:5.4889022714569745e-04
174:9.1869349858639902e-03
175:5.5650226062726503e-03
176:1.9672759303840611e-03
177:1.5253229177260741e-02
178:9.5982625324557633e-03
179:3.8311742666637355e-03
180:-2.0766702709406726e+00
181:-1.0839545486371147e+00
182:-3.2660408148038489e-01
183:-1.3734222529278752e+00
184:-9.3262910023556878e-01
185:-5.8298194177178853e-01
186:-9.3774077923500843e-01
187:-8.5404191418254549e-01
188:-7.1726978244030781e-01
189:-1.1318973893625174e-01
190:1.5827368963869097e-03
191:9.5903866857950576e-02
192:-4.2927453440608521e-01
193:-2.1468856594969821e-01
194:-3.5448349592459689e-02
195:-5.8676924443042566e-01
196:-3.4176589305456823e-01
197:-1.4700270000593038e-01
198:1.0915655448218543e-01
199:8.4772423841545902e-02
200:7.7728354841887337e-02
201:1.0820126829406501e-02
202:1.8862631978803349e-02
203:3.5372877152723844e-02
204:-8.7571946775989007e-02
205:-4.5933124766251179e-02
206:-4.6988843484522215e-03
207:7.6572518582867996e-02
208:6.9470698331005776e-02
209:6.3947651851057732e-02
210:4.2453068004492119e-02
211:4.5106190196384101e-02
212:4.8221364169378347e-02
213:1.0612160522142184e-02
214:2.1832766800033602e-02
215:3.2398702868217312e-02
216:5.8397123231548297e-02
217:4.6945083453267027e-02
218:4.0323975697584523e-02
219:4.7192567670410565e-02
220:4.2163628100967313e-02
221:4.0109043920370617e-02
222:3.5372213035617842e-02
223:3.6168830784708991e-02
224:3.8083227288891887e-02
225:3.8038335737579726e-02
226:3.4137499229812220e-02
227:3.0935335964150136e-02
228:3.8750594769110060e-02
229:3.4860944304646625e-02
230:3.1968978532012839e-02
231:3.7705816569119921e-02
232:3.4609941945440731e-02
233:3.2810763463314227e-02
234:2.8605002505026487e-02
235:2.4008840346835914e-02
236:2.0436443617134429e-02
237:3.0005308080262867e-02
238:2.5983721709694357e-02
239:2.2703560234949616e-02
240:3.1432568424472500e-02
241:2.7954915053642945e-02
242:2.4936346045968841e-02
243:1.7641963725539854e-02
244:1.0862997192814118e-02
245:3.9487572018729938e-03
246:1.9565135377831167e-02
247:1.1530836233557856e-02
248:3.4179898598974382e-03
249:2.1689953943917314e-02
250:1.3241900447821831e-02
251:4.7720259511645352e-03
252:-8.0116452023907003e-01
253:-7.8318433904305240e-01
254:-6.8223002407417144e-01
255:-6.1790360022994317e-01
256:-5.9694423062456514e-01
257:-5.3447590741501416e-01
258:-4.7045111424785363e-01
259:-4.5040455461007456e-01
260:-4.3031422153681403e-01
261:-5.6777097346859851e-01
262:-3.5912092839803778e-01
263:-1.9721568732380429e-01
264:-4.7057854589592069e-01
265:-3.5306382081236642e-01
266:-2.5538773744440207e-01
267:-4.0935873225780778e-01
268:-3.5290189164109725e-01
269:-2.8937753045923431e-01
270:-1.4128629060239231e-01
271:-8.3451487136347882e-02
272:-2.9698037870403343e-02
273:-2.0834367964615091e-01
274:-1.3661089131948381e-01
275:-7.2722334028287594e-02
276:-2.4580603309971555e-01
277:-1.7165172724247063e-01
278:-1.0910452925607343e-01
279:-1.0197744551041834e-02
280:5.0120269627992441e-03
281:1.9162339787606959e-02
282:-4.9198675033736261e-02
283:-2.8045901765106677e-02
284:-8.2269174332493377e-03
285:-8.4881201191445627e-02
286:-5.7730814545367590e-02
287:-3.2188547083802269e-02
288:2.4201350287405977e-02
289:2.8284125604970258e-02
290:3.2727387175988561e-02
291:4.8416720933577944e-05
292:9.2797533597893302e-03
293:1.8125723509875059e-02
294:-2.0978566887332850e-02
295:-7.6899931517839899e-03
296:4.4673613527733639e-03
297:3.3350829728963444e-02
298:3.1589850743757135e-02
299:3.1025655091953683e-02
300:2.0931724678732645e-02
301:2.2335185267343516e-02
302:2.4293068206379480e-02
303:9.0824595790243226e-03
304:1.3458286430051890e-02
305:1.7746174648531496e-02
306:3.0130614797170673e-02
307:2.7067457988774343e-02
308:2.4346620823991472e-02
309:2.4339128793932029e-02
310:2.2325858149134379e-02
311:2.0535986694188678e-02
312:1.8744895952625015e-02
313:1.8013310056800121e-02
314:1.7386202897070852e-02
315:2.1247086080223011e-02
316:1.3069330197327356e-02
317:4.8511383071969645e-03
318:1.8002639635747532e-02
319:1.0838470847530422e-02
320:3.5131695077558847e-03
321:1.5583055561770587e-02
322:9.7643012850958406e-03
323:3.6637179125494535e-03
324:-4.0259446822434614e-01
325:-3.9342072722503779e-01
326:-3.9319644051101549e-01
327:-3.0833550215434580e-01
328:-3.2650322552909666e-01
329:-3.4306037519721461e-01
330:-2.3668173281488064e-01
331:-2.7196964931115802e-01
332:-2.9508696410887036e-01
333:-3.8456884615255610e-01
334:-3.4111862424397205e-01
335:-2.8488909943729673e-01
336:-3.3748674385320088e-01
337:-2.9926418848089575e-01
338:-2.5554000006550659e-01
339:-2.9057279671292335e-01
340:-2.6094509969582880e-01
341:-2.3309343949065428e-01
342:-2.4499240950409576e-01
343:-1.7946241508418648e-01
344:-1.2492568089113147e-01
345:-2.2775788824529994e-01
346:-1.8286589701784692e-01
347:-1.4309480686472967e-01
348:-2.1659671545279643e-01
349:-1.8612602993221236e-01
350:-1.5490388633344351e-01
351:-1.0204212969830667e-01
352:-7.2075500970117709e-02
353:-4.4017306733411726e-02
354:-1.2268075810338390e-01
355:-9.0714595177049467e-02
356:-6.1414567546165734e-02
357:-1.3589215993971410e-01
358:-1.0447580489767119e-01
359:-7.6483285955050037e-02
360:-3.1727957051829257e-02
361:-1.7173260518088079e-02
362:-3.9373089969947624e-03
363:-4.8603103748375287e-02
364:-3.2941438439697490e-02
365:-1.8497096188592028e-02
366:-6.3842532322377618e-02
367:-4.6905441030026807e-02
368:-3.1084250840172474e-02
369:1.4462551302706955e-03
370:7.3315888855296496e-03
371:1.2859780494808735e-02
372:-1.2090473621691199e-02
373:-4.1457837193296498e-03
374:3.1590093877617033e-03
375:-2.3731626047715771e-02
376:-1.4160840245038433e-02
377:-5.5127058869194490e-03
378:1.4444289155682048e-02
379:1.4593054921014311e-02
380:1.4743791712060189e-02
381:5.7070718581852730e-03
382:7.4223736311642462e-03
383:8.9062999904433414e-03
384:-2.1395518704814490e-03
385:1.0997217412364118e-03
386:3.8742734998515982e-03
387:1.3425736698235848e-02
388:8.5427063539300092e-03
389:3.3474574990994621e-03
390:8.4235189658778253e-03
391:5.2388337329227095e-03
392:1.7581935632955195e-03
393:4.2334702952805704e-03
394:2.8127320010833509e-03
395:1.1123023440796486e-03
396:-2.0608110624041487e-01
397:-2.4276550113126322e-01
398:-2.6583293816879522e-01
399:-1.6438522009872603e-01
400:-1.9554498003568127e-01
401:-2.1867741922910872e-01
402:-1.3260530948407925e-01
403:-1.5854836696087682e-01
404:-1.8205374080393086e-01
405:-2.6311166080214998e-01
406:-2.4138015644035971e-01
407:-2.2258882147994194e-01
408:-2.2154703494498684e-01
409:-2.1324010728948020e-01
410:-2.0459621113038950e-01
411:-1.8927746932331882e-01
412:-1.8983700075008555e-01
413:-1.8678242576830983e-01
414:-2.1026741456733039e-01
415:-1.8353159143932973e-01
416:-1.5480215068455314e-01
417:-1.9519869501830331e-01
418:-1.7151391918600364e-01
419:-1.4743921393403348e-01
420:-1.7926401826088734e-01
421:-1.5959802203202400e-01
422:-1.4114578459059510e-01
423:-1.3707930025526990e-01
424:-1.0828030266442804e-01
425:-8.2717748012268832e-02
426:-1.3331651455114768e-01
427:-1.1029471639944856e-01
428:-8.9107685345967164e-02
429:-1.3044414969847312e-01
430:-1.1161638922096492e-01
431:-9.3221720001220976e-02
432:-7.0585028254511920e-02
433:-5.3100900519239318e-02
434:-3.6757634337114500e-02
435:-7.7920338794280841e-02
436:-6.0335068481670355e-02
437:-4.4077858058107058e-02
438:-8.2696934193910401e-02
439:-6.5621800399240690e-02
440:-5.0061924829524179e-02
441:-2.9112829054645781e-02
442:-1.9086568775180814e-02
443:-1.0049013289428364e-02
444:-3.6428979547998230e-02
445:-2.6145835116323866e-02
446:-1.6795632613411424e-02
447:-4.2569686315909190e-02
448:-3.1970668293225771e-02
449:-2.2248829334348328e-02
450:-6.3369352891293577e-03
451:-2.3411269205728725e-03
452:1.0948533495063369e-03
453:-1.2683141164873917e-02
454:-7.7203016612644934e-03
455:-3.4107756370058587e-03
456:-1.7780202646405861e-02
457:-1.2061483142442826e-02
458:-7.0895624987068551e-03
459:1.9211576581924803e-03
460:1.5097614876241955e-03
461:8.2513213530891426e-04
462:-1.9163476635883888e-03
463:-8.4111588255073619e-04
464:-3.3187371689936024e-05
465:-5.0676501808386244e-03
466:-2.7779451665319835e-03
467:-7.4961351083430042e-04
468:-1.1951839814075206e-01
469:-1.4313978689694193e-01
470:-1.6581900363879148e-01
471:-1.0112703068079200e-01
472:-1.2216397778731466e-01
473:-1.4180842899680912e-01
474:-8.4598596813101279e-02
475:-1.0363363101222194e-01
476:-1.2082584543161727e-01
477:-1.7369821505721961e-01
478:-1.7607294646350802e-01
479:-1.7437164841105901e-01
480:-1.4851133999773658e-01
481:-1.5125989770152362e-01
482:-1.5162216913590620e-01
483:-1.2654906820722964e-01
484:-1.2976457962752228e-01
485:-1.3228354796775146e-01
486:-1.6806490639623606e-01
487:-1.5162085902119982e-01
488:-1.3656590404653055e-01
489:-1.4799531039662445e-01
490:-1.3696012232788513e-01
491:-1.2631287095322521e-01
492:-1.3090389751698298e-01
493:-1.2369755734539824e-01
494:-1.1587799816161527e-01
495:-1.2734495638506702e-01
496:-1.0990703155680402e-01
497:-9.2610835211944936e-02
498:-1.1861382334389081e-01
499:-1.0290289860494052e-01
500:-8.7734112441882769e-02
501:-1.0929650390784917e-01
502:-9.5503056611530329e-02
503:-8.2652157983600802e-02
504:-8.2636254876130175e-02
505:-6.6505978064918550e-02
506:-5.1835931317812153e-02
507:-7.9118622121626486e-02
508:-6.5030071051830451e-02
509:-5.2025447893682880e-02
510:-7.5315694715884479e-02
511:-6.2803256328437140e-02
512:-5.0998443700184075e-02
513:-4.4575263523341402e-02
514:-3.3912061452115248e-02
515:-2.4117259787107874e-02
516:-4.5244260004379894e-02
517:-3.4822786594569007e-02
518:-2.5295308672242153e-02
519:-4.4610087773640089e-02
520:-3.4598191151729921e-02
521:-2.5505885098570533e-02
522:-1.9564252019274895e-02
523:-1.3638075483521164e-02
524:-8.4647219104364377e-03
525:-2.0824097405718299e-02
526:-1.4848186955287328e-02
527:-9.5523158645089302e-03
528:-2.1184971946602186e-02
529:-1.5226884678512484e-02
530:-9.8760531670774917e-03
531:-6.2346138730151853e-03
532:-3.4279059779446048e-03
533:-8.8398986416280963e-04
534:-7.1338327535655846e-03
535:-3.8562487699543178e-03
536:-8.5226087689511921e-04
537:-7.4092199526439072e-03
538:-4.0743974270510764e-03
539:-1.0239753012833226e-03
540:-7.5398119622288456e-02
541:-9.3170864903351400e-02
542:-1.0920863713487067e-01
543:-6.0647829346487089e-02
544:-7.5593204219808904e-02
545:-8.9624544316523461e-02
546:-4.8285090118336677e-02
547:-6.0224290913537329e-02
548:-7.2070395205069943e-02
549:-1.1459281146991683e-01
550:-1.1805818594634229e-01
551:-1.2133851880784582e-01
552:-9.4587525301227604e-02
553:-9.8125902551501595e-02
554:-1.0154726552325440e-01
555:-7.6443581326581203e-02
556:-7.9654367326138162e-02
557:-8.2816166383579790e-02
558:-1.2060380884194274e-01
559:-1.1446911090175002e-01
560:-1.0763884955614629e-01
561:-1.0097270182242885e-01
562:-9.5666986743687163e-02
563:-9.0383888144224392e-02
564:-8.2265003889577720e-02
565:-7.7718942442908473e-02
566:-7.3913677360194580e-02
567:-1.0173680368832969e-01
568:-8.9378228961182443e-02
569:-7.8018126627670381e-02
570:-8.5843534225939419e-02
571:-7.6019245643746167e-02
572:-6.6985200778826345e-02
573:-7.0554258478033538e-02
574:-6.2712415642425204e-02
575:-5.5452587847741687e-02
576:-7.1368125884824107e-02
577:-5.9637758331949571e-02
578:-4.8537468548426617e-02
579:-6.1372407695979292e-02
580:-5.1085630683333237e-02
581:-4.1538740571110774e-02
582:-5.0730652518323406e-02
583:-4.1936376208980219e-02
584:-3.3991795931137790e-02
585:-4.2512864789048657e-02
586:-3.3062693189722686e-02
587:-2.4479686777379606e-02
588:-3.6417584313866609e-02
589:-2.8315007433367591e-02
590:-2.0873841270686713e-02
591:-2.9759086592625980e-02
592:-2.2903644887881783e-02
593:-1.6503859431795210e-02
594:-2.0356808349026131e-02
595:-1.4567697475306148e-02
596:-9.3299024091034258e-03
597:-1.7236895396926525e-02
598:-1.2031554444324037e-02
599:-7.2580757328589143e-03
600:-1.3352696757532220e-02
601:-8.8310720115375146e-03
602:-4.6218559403105441e-03
603:-6.9546949845926053e-03
604:-3.8483385363139696e-03
605:-1.0116995069649978e-03
606:-5.1906786299387806e-03
607:-2.7153557665949408e-03
608:-4.4848807128852422e-04
609:-2.9164517057111289e-03
610:-1.1584140125044668e-03
611:4.5243076355711405e-04
612:-4.0547301082489107e-02
613:-5.0211603751722317e-02
614:-6.0237609762405768e-02
615:-2.4394992826878115e-02
616:-2.9561024482042682e-02
617:-3.5830737086389869e-02
618:-7.6492779614394484e-03
619:-8.6234784979537914e-03
620:-1.1443337591378753e-02
621:-6.3919324402268676e-02
622:-6.6496062804531145e-02
623:-6.9357916628413008e-02
624:-3.7873882176763206e-02
625:-3.8794248606883006e-02
626:-4.1079843113107070e-02
627:-1.1908393280263423e-02
628:-1.1073787367858745e-02
629:-1.2684522186043991e-02
630:-6.8892222705436365e-02
631:-6.4931933544194256e-02
632:-6.2034327750970064e-02
633:-4.0922902941220259e-02
634:-3.8153134456246310e-02
635:-3.6834031463736532e-02
636:-1.2759146230790188e-02
637:-1.1013237600062708e-02
638:-1.1105976586236832e-02
639:-5.9302564101816370e-02
640:-5.2546957734270851e-02
641:-4.6442678779149468e-02
642:-3.5185184872138092e-02
643:-3.0610232682533055e-02
644:-2.7133027969230426e-02
645:-1.0524930063844300e-02
646:-8.2453434696349512e-03
647:-7.5099244155989679e-03
648:-4.2457571246167995e-02
649:-3.4979631993250125e-02
650:-2.8327413846833457e-02
651:-2.4893252095964095e-02
652:-2.0373829637624387e-02
653:-1.6487929524604737e-02
654:-7.0303809132418182e-03
655:-5.4059700019714598e-03
656:-4.2228826748503022e-03
657:-2.4769514898888279e-02
658:-1.8891116969945373e-02
659:-1.3367600064046246e-02
660:-1.4383371283922551e-02
661:-1.0766382041256094e-02
662:-7.3637150671102937e-03
663:-3.5919975339423218e-03
664:-2.3697943226023647e-03
665:-1.2213546252501266e-03
666:-1.0683681972082594e-02
667:-6.8605290380763049e-03
668:-3.2010747936866732e-03
669:-5.8242558531152264e-03
670:-3.6511383177560020e-03
671:-1.2501324127185869e-03
672:-8.6425306222131474e-04
673:-3.3803239822455261e-04
674:8.0766369472388521e-04
675:-1.7959673861700648e-03
676:-5.5699607151561616e-04
677:6.2638802270852784e-04
678:-4.4720275871060655e-04
679:-1.0827095775471179e-04
680:4.2861358592113805e-04
681:1.0592635913454483e-03
682:6.6975606659074017e-04
683:7.3174124768669228e-04
684:-7.2185191010530048e+00
685:-4.9986783942373041e+00
686:-2.7862724081253325e+00
687:-3.1819234399895509e+00
688:-2.9446162369802749e+00
689:-2.7089455910679558e+00
690:-1.9466637650135057e+00
691:-2.2994973739330344e+00
692:-2.6481693763428202e+00
693:-1.9976101115595035e+00
694:-2.1298609282623890e+00
695:-2.2570590216668021e+00
696:-1.5564366174711148e+00
697:-1.4159024412403010e+00
698:-1.2730513898934481e+00
699:-1.0482523608721130e+00
700:-9.0852248562484683e-01
701:-7.6921158344386786e-01
702:-7.8075424797035453e-01
703:-7.4375915933785675e-01
704:-7.0774898686496768e-01
705:-5.0402168098880318e-01
706:-5.7339912980141650e-01
707:-6.4297050531866906e-01
708:-3.6839421769418212e-01
709:-4.3683271157681447e-01
710:-5.0467414270901356e-01
711:-3.3928467918802396e-01
712:-3.6629141563800366e-01
713:-3.9258616372862176e-01
714:-2.7969123202897084e-01
715:-2.6242631874844391e-01
716:-2.4484546566544046e-01
717:-2.1374102477822132e-01
718:-1.9542697804537607e-01
719:-1.7719304006687459e-01
720:-1.7892829127910284e-01
721:-1.7644425546583956e-01
722:-1.7412156645573595e-01
723:-1.3814799202252204e-01
724:-1.5212166143812592e-01
725:-1.6613980297797515e-01
726:-1.1100042572435848e-01
727:-1.2424951944284682e-01
728:-1.3742621060675211e-01
729:-1.0079674588374790e-01
730:-1.0708775204851383e-01
731:-1.1328602083375808e-01
732:-8.5009954100217083e-02
733:-8.3832505086320772e-02
734:-8.2609312915571012e-02
735:-7.0664522519791828e-02
736:-6.9187145538368439e-02
737:-6.7711019622629862e-02
738:-6.3045045232929489e-02
739:-6.4110650717211032e-02
740:-6.5189100595098526e-02
741:-5.1216065168608667e-02
742:-5.4678676679697946e-02
743:-5.8146978735989598e-02
744:-4.0843718191769955e-02
745:-4.3582337660338206e-02
746:-4.6319493825790162e-02
747:-3.3981541164432416e-02
748:-3.5112187352201708e-02
749:-3.6239758656605198e-02
750:-1.9965145028375975e-02
751:-1.9746064943106174e-02
752:-1.9525525639994309e-02
753:-6.1552931046535116e-03
754:-6.8134101616439888e-03
755:-7.4716836662843209e-03
756:-8.6553986767470388e+00
757:-8.6874608236273243e+00
758:-8.6912032155801811e+00
759:-3.5579701498081806e+00
760:-3.4297719690795754e+00
761:-3.2843082902329286e+00
762:-1.9355018872372862e+00
763:-1.8021224208071369e+00
764:-1.6625317130683650e+00
765:-2.0152344079714011e+00
766:-1.9525335763194651e+00
767:-1.8872863154218389e+00
768:-1.5897426134800443e+00
769:-1.6252083697089816e+00
770:-1.6596675360205566e+00
771:-1.0420458083017941e+00
772:-1.0985311954399677e+00
773:-1.1555498319890529e+00
774:-7.4571346637903313e-01
775:-7.7767455703788757e-01
776:-8.1037935058049648e-01
777:-4.5863505308648023e-01
778:-4.5500446062107885e-01
779:-4.5130095331820419e-01
780:-3.3373458241539605e-01
781:-3.2535262817772870e-01
782:-3.1608114138130639e-01
783:-3.1560091507505544e-01
784:-3.1790490893325041e-01
785:-3.1926371987309782e-01
786:-2.6477894132254143e-01
787:-2.7991867629502343e-01
788:-2.9473860407314278e-01
789:-2.0044670685841776e-01
790:-2.1489702722379575e-01
791:-2.2965291611853653e-01
792:-1.6486889839493560e-01
793:-1.7327297188614083e-01
794:-1.8207639969103059e-01
795:-1.2527191471517257e-01
796:-1.2642254995656083e-01
797:-1.2766945785488640e-01
798:-1.0056699909623198e-01
799:-1.0082297432503494e-01
800:-1.0087214055374950e-01
801:-9.1931024681276396e-02
802:-9.4238935616490452e-02
803:-9.6299591773347404e-02
804:-7.7873014138866076e-02
805:-8.2306703784567878e-02
806:-8.6657228728791530e-02
807:-6.4631918965026583e-02
808:-6.8533331633889513e-02
809:-7.2515669678053424e-02
810:-5.7498713737130752e-02
811:-6.0053176273394945e-02
812:-6.2712814713204668e-02
813:-4.6611214039995227e-02
814:-4.7654524203909435e-02
815:-4.8722256932973274e-02
816:-3.7136457984696752e-02
817:-3.8015772611176682e-02
818:-3.8838756464040163e-02
819:-3.0886070443997399e-02
820:-3.2114023794727331e-02
821:-3.3283436972014045e-02
822:-1.8136664307377752e-02
823:-1.9227931129321720e-02
824:-2.0333818531395889e-02
825:-5.6462285256452778e-03
826:-5.6260716423975794e-03
827:-5.6936960926927049e-03
828:-7.1490246451672249e-02
829:-3.4491502624825610e-01
830:-6.2717780470490614e-01
831:-1.1311305383710693e-01
832:-5.0312110230790841e-01
833:-8.9792574406689962e-01
834:-1.2953068615435900e-01
835:-5.6564205765721942e-01
836:-1.0025086170763915e+00
837:-8.1702059068578059e-01
838:-1.1993362994224883e+00
839:-1.6093674450347411e+00
840:-1.1312618338096387e+00
841:-1.5444694853433381e+00
842:-1.9720086493326712e+00
843:-1.2485016267135094e+00
844:-1.6571121902970736e+00
845:-2.0666703419163612e+00
846:-1.9473396168273802e+00
847:-2.7228993948620146e+00
848:-3.5635912997731811e+00
849:-2.2158389789294692e+00
850:-2.6363922078254576e+00
851:-3.0870345623654609e+00
852:-2.2642097510233485e+00
853:-2.5296847555209205e+00
854:-2.7902058844299877e+00
855:-4.2804899803525558e+00
856:-5.9103317795963797e+00
857:-7.6160220304719450e+00
858:-3.2732840980876201e+00
859:-3.4592509704945469e+00
860:-3.6699843249274497e+00
861:-2.8023740821593002e+00
862:-2.5698800021753203e+00
863:-2.3110704346115747e+00
864:-1.0998229268852093e-01
865:-4.8025777214834192e-01
866:-8.4995646797885605e-01
867:-5.7426244209736389e-02
868:-2.5071312940328228e-01
869:-4.4288732721409779e-01
870:-2.7751168882417323e-02
871:-1.2129938807439519e-01
872:-2.1319901613020711e-01
873:-1.0549435538858825e+00
874:-1.3880147048817544e+00
875:-1.7179272377740713e+00
876:-5.4516385169530590e-01
877:-7.0267214740836292e-01
878:-8.5629480623203924e-01
879:-2.6072502076326709e-01
880:-3.3023481645206521e-01
881:-3.9513195646568317e-01
882:-1.8785478979771231e+00
883:-2.0936663647219076e+00
884:-2.2948739414445298e+00
885:-9.3262316271399770e-01
886:-1.0375822923451681e+00
887:-1.1328928276695318e+00
888:-4.2926793637990168e-01
889:-4.8117942273963293e-01
890:-5.2770461050789896e-01
891:-2.3385598740682538e+00
892:-2.2734266120789899e+00
893:-2.1726131504107893e+00
894:-1.2030054093755014e+00
895:-1.3440328842212665e+00
896:-1.4682803738440753e+00
897:-5.8427218560742278e-01
898:-7.3698644151168125e-01
899:-8.9182092664895973e-01
900:-2.2073396884025539e-02
901:-9.7062977903092054e-02
902:-1.7051296916824349e-01
903:-1.7508083871599828e-02
904:-7.8048434794014659e-02
905:-1.3795968205849124e-01
906:-1.3006028318623110e-02
907:-5.8250241900442486e-02
908:-1.0377583792030556e-01
909:-2.1072010308163169e-01
910:-2.7378948823610227e-01
911:-3.3275985439238903e-01
912:-1.7417958497096508e-01
913:-2.3810657277350181e-01
914:-3.0042666852714550e-01
915:-1.3193654988179052e-01
916:-1.8357479111467334e-01
917:-2.3609826724796867e-01
918:-3.6551582047493969e-01
919:-4.1951056594034536e-01
920:-4.7002520588913332e-01
921:-3.3713808147432095e-01
922:-4.0124440132570705e-01
923:-4.6415893657419705e-01
924:-2.6697556128049527e-01
925:-3.2069804345176345e-01
926:-3.7551706193384787e-01
927:-5.0749569889763757e-01
928:-5.9205813203305668e-01
929:-6.8291592519249134e-01
930:-4.8398813222255166e-01
931:-4.9111082430202729e-01
932:-4.9997646414696761e-01
933:-3.9108854498925982e-01
934:-3.8725948568770724e-01
935:-3.8062096189304345e-01
936:-1.0895211624649546e-02
937:-4.8344176254546956e-02
938:-8.6241388614577100e-02
939:-8.4172609016143676e-03
940:-3.6548442814768510e-02
941:-6.4790817548936272e-02
942:-6.4267332360976306e-03
943:-2.7761772679838769e-02
944:-4.8870950035496075e-02
945:-1.0853057670176171e-01
946:-1.4778678127091138e-01
947:-1.8835383629915042e-01
948:-7.9713256697112364e-02
949:-1.0286155442606486e-01
950:-1.2629119998809582e-01
951:-5.9715677109220267e-02
952:-7.5537175548209712e-02
953:-9.0610519194288780e-02
954:-2.1092469203588668e-01
955:-2.4796067629029955e-01
956:-2.8636712626945315e-01
957:-1.3723764902036054e-01
958:-1.5125894496747438e-01
959:-1.6530374187567343e-01
960:-9.7318097352612973e-02
961:-1.0492392982529461e-01
962:-1.1120629849537408e-01
963:-3.0242655001098823e-01
964:-3.1601269432986945e-01
965:-3.2601888546546043e-01
966:-1.7815342257498953e-01
967:-2.0716986289156480e-01
968:-2.3451098431521336e-01
969:-1.2006359464513006e-01
970:-1.4522156510356896e-01
971:-1.7060885095939771e-01
972:-5.2737739024871673e-03
973:-2.3095510271488498e-02
974:-4.0638433123281116e-02
975:-3.4878391275163559e-03
976:-1.5768923879561365e-02
977:-2.7926282878236459e-02
978:-2.4769703338676200e-03
979:-1.1331052302825169e-02
980:-2.0216496282295830e-02
981:-5.0251313199313447e-02
982:-6.5345600706757850e-02
983:-7.9545468678075923e-02
984:-3.5449813549461709e-02
985:-4.8989614287052501e-02
986:-6.2161860542265870e-02
987:-2.5943838589054934e-02
988:-3.6822949196726927e-02
989:-4.7861370375810001e-02
990:-8.7200246499684886e-02
991:-9.8955142406820837e-02
992:-1.0927213640218236e-01
993:-7.0961466866087369e-02
994:-8.7953698331612665e-02
995:-1.0446172703989806e-01
996:-5.5355379098363529e-02
997:-7.0270280582007461e-02
998:-8.5654678462950967e-02
999:-1.1683207875157975e-01
1000:-1.3384806523678322e-01
1001:-1.5152267555291871e-01
1002:-1.1179995462407484e-01
1003:-1.2097025079213530e-01
1004:-1.3036985135769219e-01
1005:-9.2366934387230232e-02
1006:-9.9616980326005647e-02
1007:-1.0666701122885006e-01
1008:-2.4138525450586429e-03
1009:-1.0824191819788978e-02
1010:-1.9300154325196751e-02
1011:-2.4896643752401033e-03
1012:-1.0870441543008853e-02
1013:-1.9279492575478157e-02
1014:-2.2279840210236612e-03
1015:-9.7003535356888632e-03
1016:-1.7163647548996987e-02
1017:-2.4444802072386997e-02
1018:-3.3776572411631824e-02
1019:-4.3372562808463876e-02
1020:-2.3947854385815200e-02
1021:-3.1626517555237495e-02
1022:-3.9403056304036149e-02
1023:-2.1230525887366292e-02
1024:-2.7704687146084536e-02
1025:-3.4110379505974626e-02
1026:-4.9178186019192355e-02
1027:-5.9759737306003112e-02
1028:-7.0956502975863339e-02
1029:-4.3148928706512532e-02
1030:-4.8286618197196214e-02
1031:-5.3586581561073050e-02
1032:-3.7121109575972269e-02
1033:-4.0918338008271542e-02
1034:-4.4424899803908686e-02
1035:-7.6635298537690438e-02
1036:-8.4368643056440235e-02
1037:-9.1810887491303894e-02
1038:-5.7247187575741612e-02
1039:-6.4309290143025152e-02
1040:-7.1196599050756287e-02
1041:-4.7068668399986802e-02
1042:-5.2797266529503145e-02
1043:-5.8467377423865902e-02
1044:-1.8595536215712518e-03
1045:-8.1796497323876373e-03
1046:-1.4480725648432901e-02
1047:-1.2496668678234327e-03
1048:-5.6030469643451406e-03
1049:-9.9405813758510937e-03
1050:-9.1350805131497283e-04
1051:-4.1016657879026138e-03
1052:-7.2771523492231194e-03
1053:-1.8004830639160939e-02
1054:-2.3759867690940479e-02
1055:-2.9411539509862996e-02
1056:-1.2496290979988237e-02
1057:-1.6914903967929846e-02
1058:-2.1276575239777575e-02
1059:-9.1968344861793807e-03
1060:-1.2619709343430201e-02
1061:-1.6032066001324230e-02
1062:-3.2473573923575881e-02
1063:-3.7184343200312400e-02
1064:-4.1543543744874255e-02
1065:-2.4136243233877770e-02
1066:-2.9568892312642221e-02
1067:-3.4893623625005338e-02
1068:-1.8288460185075458e-02
1069:-2.2724588222884801e-02
1070:-2.7296449460082948e-02
1071:-4.4222581706338721e-02
1072:-4.9285774283109977e-02
1073:-5.4331871254127709e-02
1074:-3.7715417929176605e-02
1075:-4.2163126034447211e-02
1076:-4.6619674099444251e-02
1077:-2.9720464960055790e-02
1078:-3.3413544905564974e-02
1079:-3.7141400376257974e-02
1080:-8.2283114956031660e-04
1081:-3.6427603377457382e-03
1082:-6.4566923761082244e-03
1083:-5.7954820844102490e-04
1084:-2.5338176203685212e-03
1085:-4.5018506054442849e-03
1086:-1.9507067720607506e-04
1087:-8.9931635702268338e-04
1088:-1.6370863329225216e-03
1089:-8.1351620857716828e-03
1090:-1.1100792566456935e-02
1091:-1.4078265382558732e-02
1092:-5.6285246952889889e-03
1093:-7.5506925964566691e-03
1094:-9.5151211078340122e-03
1095:-1.9883294186846655e-03
1096:-2.4828775605402289e-03
1097:-3.0501045873989412e-03
1098:-1.5813440142889258e-02
1099:-1.8896398322093277e-02
1100:-2.2142272111991931e-02
1101:-1.0461943536017411e-02
1102:-1.1732166131482025e-02
1103:-1.3015065502063059e-02
1104:-3.4266321011434168e-03
1105:-4.0176287929237749e-03
1106:-4.4710634241897579e-03
1107:-2.3955120676502649e-02
1108:-2.6853586593307763e-02
1109:-2.9782513190452598e-02
1110:-1.3803740413462556e-02
1111:-1.5216282548162924e-02
1112:-1.6618521869490196e-02
1113:-4.7458746851767068e-03
1114:-5.2926594326570160e-03
1115:-5.7883778730380914e-03
1116:-5.7007153166082902e-03
1117:-1.2965322766722473e-04
1118:9.0920350284431906e-03
1119:-7.9999209427590902e-03
1120:-4.1226779196105443e-02
1121:-5.2352718422668448e-02
1122:-1.7554121531705061e-02
1123:-8.5264559384625738e-02
1124:-1.1242378535116179e-01
1125:-1.5322408506743683e-02
1126:-3.6063028292600878e-02
1127:5.8979296633245422e-02
1128:-7.6210503564201310e-02
1129:-1.0931225567118624e-01
1130:-6.1816495398837747e-02
1131:-1.3747434439738426e-01
1132:-1.9326347909415098e-01
1133:-2.0364053374396379e-01
1134:5.2984219674528814e-02
1135:-8.3429126780534563e-03
1136:1.3026078222967019e-01
1137:-1.1322081027535562e-01
1138:-2.0141238598587805e-01
1139:1.6136423954876908e-03
1140:-3.0118640883857112e-01
1141:-4.0843279712543479e-01
1142:-1.3317480448886887e-01
1143:-8.7715373297578506e-03
1144:-2.5395539462833788e-01
1145:2.7585717136452892e-01
1146:-1.0498530999995109e-01
1147:-9.6015457012029282e-01
1148:-1.9668917388988583e+00
1149:-1.8964499085253744e-01
1150:-1.6017991937149867e+00
1151:-4.0920856371853134e+00
