x	y	stress_yy
 1.000000000000000e+000	 0.000000000000000e+000	 3.147730481489099e+001
 9.999607948607566e-001	 8.854871081647989e-003	 3.147182249144280e+001
 9.998426119589265e-001	 1.774123199891274e-002	 3.145571252126791e+001
 9.996446072361988e-001	 2.665819249913576e-002	 3.142885431733547e+001
 9.993659466433188e-001	 3.560484091004573e-002	 3.139112993242332e+001
 9.990058067093817e-001	 4.458024417780557e-002	 3.134242420706412e+001
 9.985633751160035e-001	 5.358344792087626e-002	 3.128262491882214e+001
 9.980378512759272e-001	 6.261347650004139e-002	 3.121162293273051e+001
 9.974284469156016e-001	 7.166933310492561e-002	 3.112931235270862e+001
 9.967343866612564e-001	 8.074999985732718e-002	 3.103559067377214e+001
 9.959549086279672e-001	 8.985443793167208e-002	 3.093035893483877e+001
 1.025000000000000e+000	 0.000000000000000e+000	 2.951284816673473e+001
 1.024959814732242e+000	 9.076242858200138e-003	 2.951033835346684e+001
 1.024838677257766e+000	 1.818476279791112e-002	 2.949765357747181e+001
 1.024635722416802e+000	 2.732464731015810e-002	 2.947467140815806e+001
 1.024350095308862e+000	 3.649496193086309e-002	 2.944127184050231e+001
 1.023980951876270e+000	 4.569475027984318e-002	 2.939733744329151e+001
 1.023527459492681e+000	 5.492303411602097e-002	 2.934275350897245e+001
 1.022988797556156e+000	 6.417881340919977e-002	 2.927740820494338e+001
 1.022364158086304e+000	 7.346106642874495e-002	 2.920119272611253e+001
 1.021652746325009e+000	 8.276874984949986e-002	 2.911400144853950e+001
 1.020853781340225e+000	 9.210079887525120e-002	 2.901573208396633e+001
 1.050000000000000e+000	 0.000000000000000e+000	 2.776508431673573e+001
 1.049958834603733e+000	 9.297614634757053e-003	 2.776529358519633e+001
 1.049834742556624e+000	 1.862829359692863e-002	 2.775577367801663e+001
 1.049626837597447e+000	 2.799110212122364e-002	 2.773640026145990e+001
 1.049334243974483e+000	 3.738508295175749e-002	 2.770705121580453e+001
 1.048956097043280e+000	 4.680925638200162e-002	 2.766760678406185e+001
 1.048491543869534e+000	 5.626262031134031e-002	 2.761794972258213e+001
 1.047939743836623e+000	 6.574415031859668e-002	 2.755796545338755e+001
 1.047299869257318e+000	 7.525279975287690e-002	 2.748754221806165e+001
 1.046571105989159e+000	 8.478749984206949e-002	 2.740657123301443e+001
 1.045752654052973e+000	 9.434715981932203e-002	 2.731494684593420e+001
 1.075000000000000e+000	 0.000000000000000e+000	 2.621877045915808e+001
 1.074957854475228e+000	 9.518986411318733e-003	 2.622148519950788e+001
 1.074830807855502e+000	 1.907182439596528e-002	 2.621491018542966e+001
 1.074617952778136e+000	 2.865755693233238e-002	 2.619891910901634e+001
 1.074318392640180e+000	 3.827520397272900e-002	 2.617338766703293e+001
 1.073931242210410e+000	 4.792376248428091e-002	 2.613819371029180e+001
 1.073455628246560e+000	 5.760220650683429e-002	 2.609321739520042e+001
 1.072890690117328e+000	 6.730948722823207e-002	 2.603834133732473e+001
 1.072235580428645e+000	 7.704453307732143e-002	 2.597345076680213e+001
 1.071489465653705e+000	 8.680624983503611e-002	 2.589843368542663e+001
 1.070651526766214e+000	 9.659352076388458e-002	 2.581318102522000e+001
 1.100000000000000e+000	 0.000000000000000e+000	 2.486004949787530e+001
 1.099956874346727e+000	 9.740358187885179e-003	 2.486509306768240e+001
 1.099826873154398e+000	 1.951535519502105e-002	 2.486128042274336e+001
 1.099609067958868e+000	 2.932401174348432e-002	 2.484848319909817e+001
 1.099302541305955e+000	 3.916532499377757e-002	 2.482657482988443e+001
 1.098906387377661e+000	 4.903826858668107e-002	 2.479543069555267e+001
 1.098419712623762e+000	 5.894179270250287e-002	 2.475492827654302e+001
 1.097841636398272e+000	 6.887482413810600e-002	 2.470494730827078e+001
 1.097171291600285e+000	 7.883626640207855e-002	 2.464536993825830e+001
 1.096407825318649e+000	 8.882499982839967e-002	 2.457608088524012e+001
 1.095550399479947e+000	 9.883988170893882e-002	 2.449696760005656e+001
 1.125000000000000e+000	 0.000000000000000e+000	 2.367629607863649e+001
 1.124955894218232e+000	 9.961729964456389e-003	 2.368352626847194e+001
 1.124822938453314e+000	 1.995888599409595e-002	 2.368232834455084e+001
 1.124600183139643e+000	 2.999046655467946e-002	 2.367257179463947e+001
 1.124286689971807e+000	 4.005544601490321e-002	 2.365412769738471e+001
 1.123881532545033e+000	 5.015277468920207e-002	 2.362686887355404e+001
 1.123383797001138e+000	 6.028137889834612e-002	 2.359067004003011e+001
 1.122792582679455e+000	 7.044016104821843e-002	 2.354540796641283e+001
 1.122107002772237e+000	 8.062799972714825e-002	 2.349096163406933e+001
 1.121326184983989e+000	 9.084374982216013e-002	 2.342721239746179e+001
 1.120449272194170e+000	 1.010862426544848e-001	 2.335404414757154e+001
 1.150000000000000e+000	 0.000000000000000e+000	 2.265598270408000e+001
 1.149954914089741e+000	 1.018310174103236e-002	 2.266528947859224e+001
 1.149819003752249e+000	 2.040241679318999e-002	 2.266659120748892e+001
 1.149591298320462e+000	 3.065692136591780e-002	 2.265975512816596e+001
 1.149270838637736e+000	 4.094556703610593e-002	 2.264464986365749e+001
 1.148856677712526e+000	 5.126728079184391e-002	 2.262114557508602e+001
 1.148347881378689e+000	 6.162096509436398e-002	 2.258911411716706e+001
 1.147743528960876e+000	 7.200549795856938e-002	 2.254842919662441e+001
 1.147042713944502e+000	 8.241973305253056e-002	 2.249896653336043e+001
 1.146244544649727e+000	 9.286249981631761e-002	 2.244060402421389e+001
 1.145348144908886e+000	 1.033326036005224e-001	 2.237322190912611e+001
 1.175000000000000e+000	 0.000000000000000e+000	 2.178856294044752e+001
 1.174953933961256e+000	 1.040447351761311e-002	 2.179986641974813e+001
 1.174815069051203e+000	 2.084594759230317e-002	 2.180358326151029e+001
 1.174582413501324e+000	 3.132337617719934e-002	 2.179957834120071e+001
 1.174254987303742e+000	 4.183568805738572e-002	 2.178771771529752e+001
 1.173831822880139e+000	 5.238178689460660e-002	 2.176786877513891e+001
 1.173311965756415e+000	 6.296055129055647e-002	 2.173990040413181e+001
 1.172694475242536e+000	 7.357083486915882e-002	 2.170368313818022e+001
 1.171978425117079e+000	 8.421146637822544e-002	 2.165908932918139e+001
 1.171162904315861e+000	 9.488124981087202e-002	 2.160599331142477e+001
 1.170247017624094e+000	 1.055789645470518e-001	 2.154427157071648e+001
 1.200000000000000e+000	 0.000000000000000e+000	 2.106436922345904e+001
 1.199952953832774e+000	 1.062584529419862e-002	 2.107761787478083e+001
 1.199811134350176e+000	 2.128947839143546e-002	 2.108369397974701e+001
 1.199573528682229e+000	 3.198983098852408e-002	 2.108245993124397e+001
 1.199239135969825e+000	 4.272580907874259e-002	 2.107377909882206e+001
 1.198806968047874e+000	 5.349629299749016e-002	 2.105751598413296e+001
 1.198276050134315e+000	 6.430013748692358e-002	 2.103353638003877e+001
 1.197645421524434e+000	 7.513617177998677e-002	 2.100170753325669e+001
 1.196914136289970e+000	 8.600319970423291e-002	 2.096189831039001e+001
 1.196081263982393e+000	 9.689999980582341e-002	 2.091397936718316e+001
 1.195145890339793e+000	 1.078253254940729e-001	 2.085782332082534e+001
 1.225000000000000e+000	 0.000000000000000e+000	 2.047452317775387e+001
 1.224951973704298e+000	 1.084721707078889e-002	 2.048969219163380e+001
 1.224807199649169e+000	 2.173300919058689e-002	 2.049809875002290e+001
 1.224564643863177e+000	 3.265628579989203e-002	 2.049960263381658e+001
 1.224223284635985e+000	 4.361593010017652e-002	 2.049406439618939e+001
 1.223782113215730e+000	 5.461079910049457e-002	 2.048134551981361e+001
 1.223240134512389e+000	 6.563972368346535e-002	 2.046130857806824e+001
 1.222596367806571e+000	 7.670150869105327e-002	 2.043381740010592e+001
 1.221849847463172e+000	 8.779493303055298e-002	 2.039873723963160e+001
 1.220999623649321e+000	 9.891874980117173e-002	 2.035593494723272e+001
 1.220044763055984e+000	 1.100716864415856e-001	 2.030527914608719e+001
 1.250000000000000e+000	 0.000000000000000e+000	 2.001085669799896e+001
 1.249950993575827e+000	 1.106858884738393e-002	 2.002794652684273e+001
 1.249803264948180e+000	 2.217653998975746e-002	 2.003868028338472e+001
 1.249555759044169e+000	 3.332274061130316e-002	 2.004291499865827e+001
 1.249207433302221e+000	 4.450605112168753e-002	 2.004050827125502e+001
 1.248757258383706e+000	 5.572530520361980e-002	 2.003131842651950e+001
 1.248204218890639e+000	 6.697930988018173e-002	 2.001520468006025e+001
 1.247547314088946e+000	 7.826684560235826e-002	 1.999202730544851e+001
 1.246785558636687e+000	 8.958666635718562e-002	 1.996164780596069e+001
 1.245917983316646e+000	 1.009374997969170e-001	 1.992392909020705e+001
 1.244943635772666e+000	 1.123180473895901e-001	 1.987873565147378e+001
 9.959549086279672e-001	 8.985443793167208e-002	 3.093035893483877e+001
 9.950892650105072e-001	 9.898158769347730e-002	 3.081222201832210e+001
 9.941367226775285e-001	 1.081303688543235e-001	 3.068217100757215e+001
 9.930965637671553e-001	 1.172996806447691e-001	 3.054021741482508e+001
 9.919680862820067e-001	 1.264884020066531e-001	 3.038637898634390e+001
 9.907506046851590e-001	 1.356953918032302e-001	 3.022067980309723e+001
 9.894434504957538e-001	 1.449194890479376e-001	 3.004315037696759e+001
 9.880459728836375e-001	 1.541595131519814e-001	 2.985382774222179e+001
 9.865575392624050e-001	 1.634142641909074e-001	 2.965275554197628e+001
 9.849775358802030e-001	 1.726825231903043e-001	 2.943998410939068e+001
 9.833053684076398e-001	 1.819630524307584e-001	 2.921557054332363e+001
 1.020853781340225e+000	 9.210079887525120e-002	 2.901573208396633e+001
 1.019966496631707e+000	 1.014561273807282e-001	 2.891419398886066e+001
 1.018990140739942e+000	 1.108336280703761e-001	 2.880123084701788e+001
 1.017923977856507e+000	 1.202321726555192e-001	 2.867683864918579e+001
 1.016767288434090e+000	 1.296506120515437e-001	 2.854101917189771e+001
 1.015519369797345e+000	 1.390877765932872e-001	 2.839378008697165e+001
 1.014179536753393e+000	 1.485424762695243e-001	 2.823513506726192e+001
 1.012747122201329e+000	 1.580135009767427e-001	 2.806510388839792e+001
 1.011221477740089e+000	 1.674996207923785e-001	 2.788371252624307e+001
 1.009601974274025e+000	 1.769995862676611e-001	 2.769099324980506e+001
 1.007888002615511e+000	 1.865121287401930e-001	 2.748698470932942e+001
 1.045752654052973e+000	 9.434715981932203e-002	 2.731494684593420e+001
 1.044843728253489e+000	 1.039306670685564e-001	 2.722845266985519e+001
 1.043843558803008e+000	 1.135368872870630e-001	 2.713100934516264e+001
 1.042751391946564e+000	 1.231646646669310e-001	 2.702259775252627e+001
 1.041566490586910e+000	 1.328128220970941e-001	 2.690320412441250e+001
 1.040288134910280e+000	 1.424801613839724e-001	 2.677282016343303e+001
 1.038915623011773e+000	 1.521654634916777e-001	 2.663144315765651e+001
 1.037448271519734e+000	 1.618674888019788e-001	 2.647907609261781e+001
 1.035885416218438e+000	 1.715849773942018e-001	 2.631572775975770e+001
 1.034226412668443e+000	 1.813166493452169e-001	 2.614141286102240e+001
 1.032470636823890e+000	 1.910612050496422e-001	 2.595615210935120e+001
 1.070651526766214e+000	 9.659352076388458e-002	 2.581318102522000e+001
 1.069720959875853e+000	 1.064052067569619e-001	 2.574030624991438e+001
 1.068696976866728e+000	 1.162401465043839e-001	 2.565694587481794e+001
 1.067578806037326e+000	 1.260971566790045e-001	 2.556306603545135e+001
 1.066365692740468e+000	 1.359750321433043e-001	 2.545863779828371e+001
 1.065056900023964e+000	 1.458725461752858e-001	 2.534363728798057e+001
 1.063651709270896e+000	 1.557884507143977e-001	 2.521804581231235e+001
 1.062149420838853e+000	 1.657214766276896e-001	 2.508184998445908e+001
 1.060549354697454e+000	 1.756703339963774e-001	 2.493504184244247e+001
 1.058850851063458e+000	 1.856337124229717e-001	 2.477761896541288e+001
 1.057053271032776e+000	 1.956102813591062e-001	 2.460958458651541e+001
 1.095550399479947e+000	 9.883988170893882e-002	 2.449696760005656e+001
 1.094598191498799e+000	 1.088797464459448e-001	 2.443640700132301e+001
 1.093550394931101e+000	 1.189434057223389e-001	 2.436581272634353e+001
 1.092406220128793e+000	 1.290296486917397e-001	 2.428513648764003e+001
 1.091164894894763e+000	 1.391372421901744e-001	 2.419433451996165e+001
 1.089825665138398e+000	 1.492649309672275e-001	 2.409336771649942e+001
 1.088387795530760e+000	 1.594114379376842e-001	 2.398220176344867e+001
 1.086850570158686e+000	 1.695754644538752e-001	 2.386080727265478e+001
 1.085213293177134e+000	 1.797556905989053e-001	 2.372915991207226e+001
 1.083475289459071e+000	 1.899507755009255e-001	 2.358724053376152e+001
 1.081635905242169e+000	 2.001593576685848e-001	 2.343503529914339e+001
 1.120449272194170e+000	 1.010862426544848e-001	 2.335404414757154e+001
 1.119475423122327e+000	 1.113542861355051e-001	 2.330460193741215e+001
 1.118403812996127e+000	 1.216466649409279e-001	 2.324556700569782e+001
 1.117233634220965e+000	 1.319621407051365e-001	 2.317687692461515e+001
 1.115964097049794e+000	 1.422994522377043e-001	 2.309847339105608e+001
 1.114594430253582e+000	 1.526573157597974e-001	 2.301030237188381e+001
 1.113123881791367e+000	 1.630344251615375e-001	 2.291231424822432e+001
 1.111551719479233e+000	 1.734294522805355e-001	 2.280446395851913e+001
 1.109877231657481e+000	 1.838410472017854e-001	 2.268671114006694e+001
 1.108099727855280e+000	 1.942678385790783e-001	 2.255902026877547e+001
 1.106218539452070e+000	 2.047084339780781e-001	 2.242136079683845e+001
 1.145348144908886e+000	 1.033326036005224e-001	 2.237322190912611e+001
 1.144352654746438e+000	 1.138288258256427e-001	 2.233380294940277e+001
 1.143257231061807e+000	 1.243499241601511e-001	 2.228522185013416e+001
 1.142061048313842e+000	 1.348946327191951e-001	 2.222740228928212e+001
 1.140763299205564e+000	 1.454616622858940e-001	 2.216027168234051e+001
 1.139363195369515e+000	 1.560497005529956e-001	 2.208376133675288e+001
 1.137859968052715e+000	 1.666574123859573e-001	 2.199780660602609e+001
 1.136252868800495e+000	 1.772834401076706e-001	 2.190234704327447e+001
 1.134541170138493e+000	 1.879264038050178e-001	 2.179732655391981e+001
 1.132724166252086e+000	 1.985849016574301e-001	 2.168269354726472e+001
 1.130801173662478e+000	 2.092575102875861e-001	 2.155840108664878e+001
 1.170247017624094e+000	 1.055789645470518e-001	 2.154427157071648e+001
 1.169229886371130e+000	 1.163033655163576e-001	 2.151387352152446e+001
 1.168110649128139e+000	 1.270531833800084e-001	 2.147473408444645e+001
 1.166888462407425e+000	 1.378271247339154e-001	 2.142676325539900e+001
 1.165562501362070e+000	 1.486238723347436e-001	 2.136987439022379e+001
 1.164131960486198e+000	 1.594420853468220e-001	 2.130398436837294e+001
 1.162596054314805e+000	 1.702803996109437e-001	 2.122901375695420e+001
 1.160954018122470e+000	 1.811374279352803e-001	 2.114488697486848e+001
 1.159205108620171e+000	 1.920117604086025e-001	 2.105153245676300e+001
 1.157348604649489e+000	 2.029019647359809e-001	 2.094888281651259e+001
 1.155383807873393e+000	 2.138065865971087e-001	 2.083687500993333e+001
 1.195145890339793e+000	 1.078253254940729e-001	 2.085782332082534e+001
 1.194107117996405e+000	 1.187779052076498e-001	 2.083552960674420e+001
 1.192964067195126e+000	 1.297564426004998e-001	 2.080490592018385e+001
 1.191715876501712e+000	 1.407596167492973e-001	 2.076584875561262e+001
 1.190361703519314e+000	 1.517860823842530e-001	 2.071825759866292e+001
 1.188900725603630e+000	 1.628344701412766e-001	 2.066203509921484e+001
 1.187332140577637e+000	 1.739033868364968e-001	 2.059708724549753e+001
 1.185655167445159e+000	 1.849914157633647e-001	 2.052332353893953e+001
 1.183869047102515e+000	 1.960971170125395e-001	 2.044065716948727e+001
 1.181973043047488e+000	 2.072190278147308e-001	 2.034900519110012e+001
 1.179966442084816e+000	 2.183556629066459e-001	 2.024828869711963e+001
 1.220044763055984e+000	 1.100716864415856e-001	 2.030527914608719e+001
 1.218984349622261e+000	 1.212524448995195e-001	 2.029025264016107e+001
 1.217817485262765e+000	 1.324597018216254e-001	 2.026729869169657e+001
 1.216543290596704e+000	 1.436921087653410e-001	 2.023630044483743e+001
 1.215160905677295e+000	 1.549482924344222e-001	 2.019714367431112e+001
 1.213669490721812e+000	 1.662268549363595e-001	 2.014971696805494e+001
 1.212068226841211e+000	 1.775263740626166e-001	 2.009391191151359e+001
 1.210356316768562e+000	 1.888454035919240e-001	 2.002962327333711e+001
 1.208532985585524e+000	 2.001824736168286e-001	 1.995674919219430e+001
 1.206597481446085e+000	 2.115360908936796e-001	 1.987519136440521e+001
 1.204549076296746e+000	 2.229047392161979e-001	 1.978485523208318e+001
 1.244943635772666e+000	 1.123180473895901e-001	 1.987873565147378e+001
 1.243861581248701e+000	 1.237269845919664e-001	 1.987021299079342e+001
 1.242670903331058e+000	 1.351629610433850e-001	 1.985415694385585e+001
 1.241370704692402e+000	 1.466246007820463e-001	 1.983043742802869e+001
 1.239960107836013e+000	 1.581105024852513e-001	 1.979892663824797e+001
 1.238438255840743e+000	 1.696192397320706e-001	 1.975949923934441e+001
 1.236804313105527e+000	 1.811493612893029e-001	 1.971203256069136e+001
 1.235057466092679e+000	 1.926993914209579e-001	 1.965640679290024e+001
 1.233196924069199e+000	 2.042678302214702e-001	 1.959250518627486e+001
 1.231221919845279e+000	 2.158531539728274e-001	 1.952021425072200e+001
 1.229131710509183e+000	 2.274538155257646e-001	 1.943942395680165e+001
 9.833053684076398e-001	 1.819630524307584e-001	 2.921557054332363e+001
 9.815404625233627e-001	 1.912545957719429e-001	 2.898391335556046e+001
 9.796822644929402e-001	 2.005558789966087e-001	 2.874065746013554e+001
 9.777302417428043e-001	 2.098656101739950e-001	 2.848598071142537e+001
 9.756838834310224e-001	 2.191824800423044e-001	 2.822006974398521e+001
 9.735427010105087e-001	 2.285051624109132e-001	 2.794311994943807e+001
 9.713062287851815e-001	 2.378323145820489e-001	 2.765533544273067e+001
 9.689740244583481e-001	 2.471625777918797e-001	 2.735692901754558e+001
 9.665456696725904e-001	 2.564945776709276e-001	 2.704812209067322e+001
 9.640207705404181e-001	 2.658269247236917e-001	 2.672914463516501e+001
 9.613989581649598e-001	 2.751582148273362e-001	 2.640023510210376e+001
 1.007888002615511e+000	 1.865121287401930e-001	 2.748698470932942e+001
 1.006078974084998e+000	 1.960359606660597e-001	 2.728487308339170e+001
 1.004174321104526e+000	 2.055697759725002e-001	 2.707152584664207e+001
 1.002173497786187e+000	 2.151122504304846e-001	 2.684709130756650e+001
 1.000075980516998e+000	 2.246620420466705e-001	 2.661172603996306e+001
 9.978812685361967e-001	 2.342177914756685e-001	 2.636559488188119e+001
 9.955888845052953e-001	 2.437781224522615e-001	 2.610887092494192e+001
 9.931983750701838e-001	 2.533416422435219e-001	 2.584173549381220e+001
 9.907093114145075e-001	 2.629069421207346e-001	 2.556437811561947e+001
 9.881212898035870e-001	 2.724725978510110e-001	 2.527699647910479e+001
 9.854339321181277e-001	 2.820371702084442e-001	 2.497979638332852e+001
 1.032470636823890e+000	 1.910612050496422e-001	 2.595615210935120e+001
 1.030617485647049e+000	 2.008173255599959e-001	 2.578091151884282e+001
 1.028666377716457e+000	 2.105836729480256e-001	 2.559478591192304e+001
 1.026616753829864e+000	 2.203588906864321e-001	 2.539789499338538e+001
 1.024468077603238e+000	 2.301416040503285e-001	 2.519036623971064e+001
 1.022219836062135e+000	 2.399304205395593e-001	 2.497233491972454e+001
 1.019871540225668e+000	 2.497239303214633e-001	 2.474394410662075e+001
 1.017422725682307e+000	 2.595207066940172e-001	 2.450534468110572e+001
 1.014872953156760e+000	 2.693193065692687e-001	 2.425669532543219e+001
 1.012221809067160e+000	 2.791182709769417e-001	 2.399816250809909e+001
 1.009468906071790e+000	 2.889161255880586e-001	 2.372992045900732e+001
 1.057053271032776e+000	 1.956102813591062e-001	 2.460958458651541e+001
 1.055155997209518e+000	 2.055986904537517e-001	 2.445874701985149e+001
 1.053158434328735e+000	 2.155975699231847e-001	 2.429736310333435e+001
 1.051060009873836e+000	 2.256055309418376e-001	 2.412552479662382e+001
 1.048860174689739e+000	 2.356211660532781e-001	 2.394333135732683e+001
 1.046558403588324e+000	 2.456430496025855e-001	 2.375088938309208e+001
 1.044154195946299e+000	 2.556697381896544e-001	 2.354831284602650e+001
 1.041647076294716e+000	 2.656997711433656e-001	 2.333572311917331e+001
 1.039036594899347e+000	 2.757316710165300e-001	 2.311324899479904e+001
 1.036322328331137e+000	 2.857639441014841e-001	 2.288102669424581e+001
 1.033503880025945e+000	 2.957950809661792e-001	 2.263919986911455e+001
 1.081635905242169e+000	 2.001593576685848e-001	 2.343503529914339e+001
 1.079694508772404e+000	 2.103800553473268e-001	 2.330632119148486e+001
 1.077650490941359e+000	 2.206114668979778e-001	 2.316738798641359e+001
 1.075503265918102e+000	 2.308521711967008e-001	 2.301830068044428e+001
 1.073252271776502e+000	 2.411007280555194e-001	 2.285913111295215e+001
 1.070896971114763e+000	 2.513556786647472e-001	 2.268995802946909e+001
 1.068436851667188e+000	 2.616155460568347e-001	 2.251086713823315e+001
 1.065871426907412e+000	 2.718788355915671e-001	 2.232195115971273e+001
 1.063200236642269e+000	 2.821440354625184e-001	 2.212330986883467e+001
 1.060422847595518e+000	 2.924096172246378e-001	 2.191505012964935e+001
 1.057538853980594e+000	 3.026740363428060e-001	 2.169728592217527e+001
 1.106218539452070e+000	 2.047084339780781e-001	 2.242136079683845e+001
 1.104233020335707e+000	 2.151614202407214e-001	 2.231266296958961e+001
 1.102142547554328e+000	 2.256253638724046e-001	 2.219406234285775e+001
 1.099946521962661e+000	 2.360988114510220e-001	 2.206559766171455e+001
 1.097644368863529e+000	 2.465802900570525e-001	 2.192731407653975e+001
 1.095235538641453e+000	 2.570683077260444e-001	 2.177926322732665e+001
 1.092719507388336e+000	 2.675613539230042e-001	 2.162150332214797e+001
 1.090095777520394e+000	 2.780579000386215e-001	 2.145409920948716e+001
 1.087363878385527e+000	 2.885563999072339e-001	 2.127712244414273e+001
 1.084523366860303e+000	 2.990552903464032e-001	 2.109065134641806e+001
 1.081573827935737e+000	 3.095529917179392e-001	 2.089477105431370e+001
 1.130801173662478e+000	 2.092575102875861e-001	 2.155840108664878e+001
 1.128771531899427e+000	 2.199427851339355e-001	 2.146777043266178e+001
 1.126634604167643e+000	 2.306392608464652e-001	 2.136754273398221e+001
 1.124389778007516e+000	 2.413454517048011e-001	 2.125773113125518e+001
 1.122036465950818e+000	 2.520598520578772e-001	 2.113835474939594e+001
 1.119574106168393e+000	 2.627809367864770e-001	 2.100943880275190e+001
 1.117002163109742e+000	 2.735071617881629e-001	 2.087101469531090e+001
 1.114320128133663e+000	 2.842369644845291e-001	 2.072312011564268e+001
 1.111527520129120e+000	 2.949687643506765e-001	 2.056579912626111e+001
 1.108623886125492e+000	 3.057009634667798e-001	 2.039910224709701e+001
 1.105608801891373e+000	 3.164319470915787e-001	 2.022308653277365e+001
 1.155383807873393e+000	 2.138065865971087e-001	 2.083687500993333e+001
 1.153310043463564e+000	 2.247241500269691e-001	 2.076250770156324e+001
 1.151126660781304e+000	 2.356531578201598e-001	 2.067883892841946e+001
 1.148833034052665e+000	 2.465920919580380e-001	 2.058585681405592e+001
 1.146428563038369e+000	 2.575394140579937e-001	 2.048355506084312e+001
 1.143912673695583e+000	 2.684935658460451e-001	 2.037193307587054e+001
 1.141284818831407e+000	 2.794529696523108e-001	 2.025099609276180e+001
 1.138544478747219e+000	 2.904160289292898e-001	 2.012075528907034e+001
 1.135691161873047e+000	 3.013811287928463e-001	 1.998122789892301e+001
 1.132724405391085e+000	 3.123466365857682e-001	 1.983243732057794e+001
 1.129643775847504e+000	 3.233109024637244e-001	 1.967441321856396e+001
 1.179966442084816e+000	 2.183556629066459e-001	 2.024828869711963e+001
 1.177848555028117e+000	 2.295055149198221e-001	 2.018851472677381e+001
 1.175618717395311e+000	 2.406670547934880e-001	 2.011972502635524e+001
 1.173276290098108e+000	 2.518387322107328e-001	 2.004188323446499e+001
 1.170820660126183e+000	 2.630189760574019e-001	 1.995495817780028e+001
 1.168251241223024e+000	 2.742061949047486e-001	 1.985892401771654e+001
 1.165567474553330e+000	 2.853987775154480e-001	 1.975376039354975e+001
 1.162768829361061e+000	 2.965950933729035e-001	 1.963945256234832e+001
 1.159854803617310e+000	 3.077934932337432e-001	 1.951599153466047e+001
 1.156824924657083e+000	 3.189923097033680e-001	 1.938337420602021e+001
 1.153678749804127e+000	 3.301898578343763e-001	 1.924160348377374e+001
 1.204549076296746e+000	 2.229047392161979e-001	 1.978485523208318e+001
 1.202387066593088e+000	 2.342868798124946e-001	 1.973812812210256e+001
 1.200110774009665e+000	 2.456809517664502e-001	 1.968266146651209e+001
 1.197719546143846e+000	 2.570853724628855e-001	 1.961839489992691e+001
 1.195212757214258e+000	 2.684985380561018e-001	 1.954527286829240e+001
 1.192589808750716e+000	 2.799188239625876e-001	 1.946324479605675e+001
 1.189850130275511e+000	 2.913445853775742e-001	 1.937226525093527e+001
 1.186993179975190e+000	 3.027741578153702e-001	 1.927229410589535e+001
 1.184018445361908e+000	 3.142058576733672e-001	 1.916329669798718e+001
 1.180925443923485e+000	 3.256379828195793e-001	 1.904524398363895e+001
 1.177713723761245e+000	 3.370688132035347e-001	 1.891811269003264e+001
 1.229131710509183e+000	 2.274538155257646e-001	 1.943942395680165e+001
 1.226925578158476e+000	 2.390682447049866e-001	 1.940431149835371e+001
 1.224602830624363e+000	 2.506948487390461e-001	 1.936072639229428e+001
 1.222162802189878e+000	 2.623320127144961e-001	 1.930858470267193e+001
 1.219604854302598e+000	 2.739781000540935e-001	 1.924780694133893e+001
 1.216928376278658e+000	 2.856314530195621e-001	 1.917831825571680e+001
 1.214132785997951e+000	 2.972903932386898e-001	 1.910004861496817e+001
 1.211217530589605e+000	 3.089532222566900e-001	 1.901293299418573e+001
 1.208182087106841e+000	 3.206182221117184e-001	 1.891691155619957e+001
 1.205025963190290e+000	 3.322836559344021e-001	 1.881192983059878e+001
 1.201748697718857e+000	 3.439477685711992e-001	 1.869793888955598e+001
 9.613989581649598e-001	 2.751582148273362e-001	 2.640023510210376e+001
 9.586798891490923e-001	 2.844870297499801e-001	 2.606832458726133e+001
 9.558632460948671e-001	 2.938119376861946e-001	 2.572649713527903e+001
 9.529487380907490e-001	 3.031314938110319e-001	 2.537510789075229e+001
 9.499361011842371e-001	 3.124442408536596e-001	 2.501452180552182e+001
 9.468250988417173e-001	 3.217487096881426e-001	 2.464511343474785e+001
 9.436155223939604e-001	 3.310434199417801e-001	 2.426726671764000e+001
 9.403071914665516e-001	 3.403268806206379e-001	 2.388137474286448e+001
 9.368999543945393e-001	 3.495975907518840e-001	 2.348783949868280e+001
 9.333936886206079e-001	 3.588540400425035e-001	 2.308707160790660e+001
 9.297883010760839e-001	 3.680947095539379e-001	 2.267949004778594e+001
 9.854339321181277e-001	 2.820371702084442e-001	 2.497979638332852e+001
 9.826468863761853e-001	 2.915992055051701e-001	 2.468767380711830e+001
 9.797598272449696e-001	 3.011572361404365e-001	 2.438580939034486e+001
 9.767724565401572e-001	 3.107097811686687e-001	 2.407451674265360e+001
 9.736845037104360e-001	 3.202553468872610e-001	 2.375411882512400e+001
 9.704957263088508e-001	 3.297924274421271e-001	 2.342494778205214e+001
 9.672059104494429e-001	 3.393195054512462e-001	 2.308734475845831e+001
 9.638148712484376e-001	 3.488350526458335e-001	 2.274165970330101e+001
 9.603224532492587e-001	 3.583375305287335e-001	 2.238825115840639e+001
 9.567285308306593e-001	 3.678253910496042e-001	 2.202748603315096e+001
 9.530330085972487e-001	 3.772970772964199e-001	 2.165973936496482e+001
 1.009468906071790e+000	 2.889161255880586e-001	 2.372992045900732e+001
 1.006613883603867e+000	 2.987113812587859e-001	 2.347400978490445e+001
 1.003656408395746e+000	 3.085025345930624e-001	 2.320852293872039e+001
 1.000596174990316e+000	 3.182880685246868e-001	 2.293373344028261e+001
 9.974329062374506e-001	 3.280664529192808e-001	 2.264992372928057e+001
 9.941663537768565e-001	 3.378361451946069e-001	 2.235738503195605e+001
 9.907962985058437e-001	 3.475955909593246e-001	 2.205641721454614e+001
 9.873225510312766e-001	 3.573432246697983e-001	 2.174732862341889e+001
 9.837449521049576e-001	 3.670774703045499e-001	 2.143043591186749e+001
 9.800633730417054e-001	 3.767967420559097e-001	 2.110606385355313e+001
 9.762777161194137e-001	 3.864994450383867e-001	 2.077454514261537e+001
 1.033503880025945e+000	 2.957950809661792e-001	 2.263919986911455e+001
 1.030580880832138e+000	 3.058235570108274e-001	 2.241619070994336e+001
 1.027552989547197e+000	 3.158478330440721e-001	 2.218376180905598e+001
 1.024419893441225e+000	 3.258663558790866e-001	 2.194214792535446e+001
 1.021181308765282e+000	 3.358775589497191e-001	 2.169159232898130e+001
 1.017836981245734e+000	 3.458798629455820e-001	 2.143234670220056e+001
 1.014386686563162e+000	 3.558716764660149e-001	 2.116467102801991e+001
 1.010830230815070e+000	 3.658513966925322e-001	 2.088883346645229e+001
 1.007167450961636e+000	 3.758174100793332e-001	 2.060511021833959e+001
 1.003398215253747e+000	 3.857680930614205e-001	 2.031378537668252e+001
 9.995224236425787e-001	 3.957018127798380e-001	 2.001515076544589e+001
 1.057538853980594e+000	 3.026740363428060e-001	 2.169728592217527e+001
 1.054547878060998e+000	 3.129357327612945e-001	 2.150410998611982e+001
 1.051449570699323e+000	 3.231931314934659e-001	 2.130166165951267e+001
 1.048243611892883e+000	 3.334446432318678e-001	 2.109013816307418e+001
 1.044929711293928e+000	 3.436886649785758e-001	 2.086974484193254e+001
 1.041507608715483e+000	 3.539235806950522e-001	 2.064069510005551e+001
 1.037977074621398e+000	 3.641477619713173e-001	 2.040321032337405e+001
 1.034337910599816e+000	 3.743595687140354e-001	 2.015751979145608e+001
 1.030589949819293e+000	 3.845573498530832e-001	 1.990386057760863e+001
 1.026733057466783e+000	 3.947394440661365e-001	 1.964247743730728e+001
 1.022767131166744e+000	 4.049041805207738e-001	 1.937362268487254e+001
 1.081573827935737e+000	 3.095529917179392e-001	 2.089477105431370e+001
 1.078514875290446e+000	 3.200479085101873e-001	 2.072858120803870e+001
 1.075346151852123e+000	 3.305384299412435e-001	 2.055325737448264e+001
 1.072067330345292e+000	 3.410229305830305e-001	 2.036896036174881e+001
 1.068678113823391e+000	 3.514997710058511e-001	 2.017585873625579e+001
 1.065178236186105e+000	 3.619672984430177e-001	 1.997412879015046e+001
 1.061567462680552e+000	 3.724238474752317e-001	 1.976395449832884e+001
 1.057845590385517e+000	 3.828677407343076e-001	 1.954552746488279e+001
 1.054012448677931e+000	 3.932972896257999e-001	 1.931904685880697e+001
 1.050067899680813e+000	 4.037107950700577e-001	 1.908471933881913e+001
 1.046011838691909e+000	 4.141065482611943e-001	 1.884275896716553e+001
 1.105608801891373e+000	 3.164319470915787e-001	 2.022308653277365e+001
 1.102481872520483e+000	 3.271600842575055e-001	 2.008123814029349e+001
 1.099242733005597e+000	 3.378837283874052e-001	 1.993038532260696e+001
 1.095891048798451e+000	 3.486012179325746e-001	 1.977065351158045e+001
 1.092426516353670e+000	 3.593108770315448e-001	 1.960217555109495e+001
 1.088848863657598e+000	 3.700110161894784e-001	 1.942509169693636e+001
 1.085157850740624e+000	 3.806999329777582e-001	 1.923954960717670e+001
 1.081353270172171e+000	 3.913759127533489e-001	 1.904570432282354e+001
 1.077434947537546e+000	 4.020372293974834e-001	 1.884371823852938e+001
 1.073402741895839e+000	 4.126821460731842e-001	 1.863376106316740e+001
 1.069256546218074e+000	 4.233089160010993e-001	 1.841600977009781e+001
 1.129643775847504e+000	 3.233109024637244e-001	 1.967441321856396e+001
 1.126448869751110e+000	 3.342722600032497e-001	 1.955444746533883e+001
 1.123139314159746e+000	 3.452290268319507e-001	 1.942559809249349e+001
 1.119714767252360e+000	 3.561795052805001e-001	 1.928795610999658e+001
 1.116174918884764e+000	 3.671219830556570e-001	 1.914161961246519e+001
 1.112519491129963e+000	 3.780547339344343e-001	 1.898669381108797e+001
 1.108748238801613e+000	 3.889760184788967e-001	 1.882329105689213e+001
 1.104860949959779e+000	 3.998840847711594e-001	 1.865153085509002e+001
 1.100857446398142e+000	 4.107771691681336e-001	 1.847153987025357e+001
 1.096737584111859e+000	 4.216534970755155e-001	 1.828345192207807e+001
 1.092501253745239e+000	 4.325112837404888e-001	 1.808740797151031e+001
 1.153678749804127e+000	 3.301898578343763e-001	 1.924160348377374e+001
 1.150415866982325e+000	 3.413844357474193e-001	 1.914123243787955e+001
 1.147035895314569e+000	 3.525743252748803e-001	 1.903208988646964e+001
 1.143538485707019e+000	 3.637577926268072e-001	 1.891423329631386e+001
 1.139923321416675e+000	 3.749330890781875e-001	 1.878772690962073e+001
 1.136190118603200e+000	 3.860984516778856e-001	 1.865264180760602e+001
 1.132338626863521e+000	 3.972521039786471e-001	 1.850905596622829e+001
 1.128368629748340e+000	 4.083922567877390e-001	 1.835705430378624e+001
 1.124279945259717e+000	 4.195171089377506e-001	 1.819672872008263e+001
 1.120072426328874e+000	 4.306248480770524e-001	 1.802817812687016e+001
 1.115745961273404e+000	 4.417136514793630e-001	 1.785150846930670e+001
 1.177713723761245e+000	 3.370688132035347e-001	 1.891811269003264e+001
 1.174382864214129e+000	 3.484966114900147e-001	 1.883520588770142e+001
 1.170932476470067e+000	 3.599196237161938e-001	 1.874363104979458e+001
 1.167362204162428e+000	 3.713360799714957e-001	 1.864341290868824e+001
 1.163671723949401e+000	 3.827441950991365e-001	 1.853458268043890e+001
 1.159860746077309e+000	 3.941421694198319e-001	 1.841717815966192e+001
 1.155929014926346e+000	 4.055281894770097e-001	 1.829124380737264e+001
 1.151876309537855e+000	 4.169004288030879e-001	 1.815683083144293e+001
 1.147702444122271e+000	 4.282570487063344e-001	 1.801399725933539e+001
 1.143407268546884e+000	 4.395961990777942e-001	 1.786280800278406e+001
 1.138990668802569e+000	 4.509160192177217e-001	 1.770333491410121e+001
 1.201748697718857e+000	 3.439477685711992e-001	 1.869793888955598e+001
 1.198349861446522e+000	 3.556087872310357e-001	 1.863051126216261e+001
 1.194829057626238e+000	 3.672649221558912e-001	 1.855451045636570e+001
 1.191185922618588e+000	 3.789143673145656e-001	 1.846992921423090e+001
 1.187420126482944e+000	 3.905553011185041e-001	 1.837676648655772e+001
 1.183531373552289e+000	 4.021858871602736e-001	 1.827502755878110e+001
 1.179519402990089e+000	 4.138042749739844e-001	 1.816472417060428e+001
 1.175383989328324e+000	 4.254086008172057e-001	 1.804587462897551e+001
 1.171124942985806e+000	 4.369969884738850e-001	 1.791850391402566e+001
 1.166742110765889e+000	 4.485675500777414e-001	 1.778264377759065e+001
 1.162235376332733e+000	 4.601183869555650e-001	 1.763833283394910e+001
 9.297883010760839e-001	 3.680947095539379e-001	 2.267949004778594e+001
 9.260837285441588e-001	 3.773180723910820e-001	 2.227812520003292e+001
 9.222799380044703e-001	 3.865225944084204e-001	 2.186960736265297e+001
 9.183769269585733e-001	 3.957067349304588e-001	 2.145440203365678e+001
 9.143747237357484e-001	 4.048689474837917e-001	 2.103298318868576e+001
 9.102733877783561e-001	 4.140076805434688e-001	 2.060583292017752e+001
 9.060730099062141e-001	 4.231213782919209e-001	 2.017344106093396e+001
 9.017737125594307e-001	 4.322084813897782e-001	 1.973630479243135e+001
 8.973756500191495e-001	 4.412674277578942e-001	 1.929492823824744e+001
 8.928790086056798e-001	 4.502966533698555e-001	 1.884982204301838e+001
 8.882840068535240e-001	 4.592945930542355e-001	 1.840150293737675e+001
 9.530330085972487e-001	 3.772970772964199e-001	 2.165973936496482e+001
 9.492358217518436e-001	 3.867510242020995e-001	 2.130096889205498e+001
 9.453369364486186e-001	 3.961856592678930e-001	 2.093505649036027e+001
 9.413363501266674e-001	 4.055994033014218e-001	 2.056243076045942e+001
 9.372340918235038e-001	 4.149906711674480e-001	 2.018352858085336e+001
 9.330302224675481e-001	 4.243578725529000e-001	 1.979879478173735e+001
 9.287248351491139e-001	 4.336994127447718e-001	 1.940868180376209e+001
 9.243180553693136e-001	 4.430136934202115e-001	 1.901364934207194e+001
 9.198100412663188e-001	 4.522991134480965e-001	 1.861416397594338e+001
 9.152009838184482e-001	 4.615540697013549e-001	 1.821069878438219e+001
 9.104911070235671e-001	 4.707769578792765e-001	 1.780373294807502e+001
 9.762777161194137e-001	 3.864994450383867e-001	 2.077454514261537e+001
 9.723879149605194e-001	 3.961839760128773e-001	 2.045521678873432e+001
 9.683939348937277e-001	 4.058487241273528e-001	 2.012875215206031e+001
 9.642957732956735e-001	 4.154920716725500e-001	 1.979554431494383e+001
 9.600934599121020e-001	 4.251123948513975e-001	 1.945599445710808e+001
 9.557870571574937e-001	 4.347080645627025e-001	 1.911051156310843e+001
 9.513766603926590e-001	 4.442774471980223e-001	 1.875951211533042e+001
 9.468623981797121e-001	 4.538189054510228e-001	 1.840341977276222e+001
 9.422444325138552e-001	 4.633307991386043e-001	 1.804266503581473e+001
 9.375229590314141e-001	 4.728114860330365e-001	 1.767768489749428e+001
 9.326982071936175e-001	 4.822593227043255e-001	 1.730892248126835e+001
 9.995224236425787e-001	 3.957018127798380e-001	 2.001515076544589e+001
 9.955400081701847e-001	 4.056169278234152e-001	 1.973234304033070e+001
 9.914509333397977e-001	 4.155117889867997e-001	 1.944239904075882e+001
 9.872551964655910e-001	 4.253847400438426e-001	 1.914567760364631e+001
 9.829528280015432e-001	 4.352341185356400e-001	 1.884254550121598e+001
 9.785438918481941e-001	 4.450582565728768e-001	 1.853337718131242e+001
 9.740284856368490e-001	 4.548554816516729e-001	 1.821855449376727e+001
 9.694067409906272e-001	 4.646241174822122e-001	 1.789846640300321e+001
 9.646788237617586e-001	 4.743624848294175e-001	 1.757350868709719e+001
 9.598449342445781e-001	 4.840689023649002e-001	 1.724408362355633e+001
 9.549053073636764e-001	 4.937416875293824e-001	 1.691059966209314e+001
 1.022767131166744e+000	 4.049041805207738e-001	 1.937362268487254e+001
 1.018692101380841e+000	 4.150498796337134e-001	 1.912462432308599e+001
 1.014507931786829e+000	 4.251748538462337e-001	 1.886848383695281e+001
 1.010214619636420e+000	 4.352774084153001e-001	 1.860552699366840e+001
 1.005812196091827e+000	 4.453558422201753e-001	 1.833608735155546e+001
 1.001300726539648e+000	 4.554084485834224e-001	 1.806050603248169e+001
 9.966803108816845e-001	 4.654335161057235e-001	 1.777913148080522e+001
 9.919510838020583e-001	 4.754293295137793e-001	 1.749231920898811e+001
 9.871132150100292e-001	 4.853941705205362e-001	 1.720043153004839e+001
 9.821669094579393e-001	 4.953263186969464e-001	 1.690383727705218e+001
 9.771124075337430e-001	 5.052240523544471e-001	 1.660291150987926e+001
 1.046011838691909e+000	 4.141065482611943e-001	 1.884275896716553e+001
 1.041844194592487e+000	 4.244828314437720e-001	 1.862505066967255e+001
 1.037564930234820e+000	 4.348379187056548e-001	 1.840018832113341e+001
 1.033174042808161e+000	 4.451700767869224e-001	 1.816846570594889e+001
 1.028671564182954e+000	 4.554775659050038e-001	 1.793018427282761e+001
 1.024057561231856e+000	 4.657586405943396e-001	 1.768565293862563e+001
 1.019332136127165e+000	 4.760115505601738e-001	 1.743518787915892e+001
 1.014495426614006e+000	 4.862345415457248e-001	 1.717911230708085e+001
 1.009547606258667e+000	 4.964258562119608e-001	 1.691775623694512e+001
 1.004488884671498e+000	 5.065837350291748e-001	 1.665145623760473e+001
 9.993195077038174e-001	 5.167064171795196e-001	 1.638055517212773e+001
 1.069256546218074e+000	 4.233089160010993e-001	 1.841600977009781e+001
 1.064996287805123e+000	 4.339157832535907e-001	 1.822724793045283e+001
 1.060621928683773e+000	 4.445009835650630e-001	 1.803131381944003e+001
 1.056133465980815e+000	 4.550627451587097e-001	 1.782847024419577e+001
 1.051530932274924e+000	 4.655992895901254e-001	 1.761898756623969e+001
 1.046814395924818e+000	 4.761088326056284e-001	 1.740314353612271e+001
 1.041983961373291e+000	 4.865895850150243e-001	 1.718122311546211e+001
 1.037039769426470e+000	 4.970397535780482e-001	 1.695351828640665e+001
 1.031981997507671e+000	 5.074575419036906e-001	 1.672032784860314e+001
 1.026810859885255e+000	 5.178411513615852e-001	 1.648195720376489e+001
 1.021526607873900e+000	 5.281887820046000e-001	 1.623871812796992e+001
 1.092501253745239e+000	 4.325112837404888e-001	 1.808740797151031e+001
 1.088148381018750e+000	 4.433487350631697e-001	 1.792541013330110e+001
 1.083678927133686e+000	 4.541640484244583e-001	 1.775621529455019e+001
 1.079092889154379e+000	 4.649554135306616e-001	 1.758005621586928e+001
 1.074390300367736e+000	 4.757210132755399e-001	 1.739717311881361e+001
 1.069571230618535e+000	 4.864590246172887e-001	 1.720781355078826e+001
 1.064635786620062e+000	 4.971676194702747e-001	 1.701223223772339e+001
 1.059584112239450e+000	 5.078449656107497e-001	 1.681069092451551e+001
 1.054416388757043e+000	 5.184892275957261e-001	 1.660345820325567e+001
 1.049132835099209e+000	 5.290985676941781e-001	 1.639080932929556e+001
 1.043733708043990e+000	 5.396711468296881e-001	 1.617302602522754e+001
 1.115745961273404e+000	 4.417136514793630e-001	 1.785150846930670e+001
 1.111300474233367e+000	 4.527816868725090e-001	 1.771424029844732e+001
 1.106735925584561e+000	 4.638271132838406e-001	 1.756974367520810e+001
 1.102052312328856e+000	 4.748480819027783e-001	 1.741822217554181e+001
 1.097249668461392e+000	 4.858427369612475e-001	 1.725988675903106e+001
 1.092328065313005e+000	 4.968092166293204e-001	 1.709495566355847e+001
 1.087287611867478e+000	 5.077456539259250e-001	 1.692365428809985e+001
 1.082128455052946e+000	 5.186501776438290e-001	 1.674621506358821e+001
 1.076850780006782e+000	 5.295209132880672e-001	 1.656287731182239e+001
 1.071454810313361e+000	 5.403559840269530e-001	 1.637388709242004e+001
 1.065940808214088e+000	 5.511535116547843e-001	 1.617949703784053e+001
 1.138990668802569e+000	 4.509160192177217e-001	 1.770333491410121e+001
 1.134452567448973e+000	 4.622146386816085e-001	 1.758889850048284e+001
 1.129792924036396e+000	 4.734901781432102e-001	 1.746719524744307e+001
 1.125011735504244e+000	 4.847407502750598e-001	 1.733840034458125e+001
 1.120109036555890e+000	 4.959644606472483e-001	 1.720269630362360e+001
 1.115084900008229e+000	 5.071594086417235e-001	 1.706027288241732e+001
 1.109939437115540e+000	 5.183236883819752e-001	 1.691132699737195e+001
 1.104672797866958e+000	 5.294553896772867e-001	 1.675606262424942e+001
 1.099285171256888e+000	 5.405525989807138e-001	 1.659469068722704e+001
 1.093776785527711e+000	 5.516134003599104e-001	 1.642742893618311e+001
 1.088147908384193e+000	 5.626358764798881e-001	 1.625450181218094e+001
 1.162235376332733e+000	 4.601183869555650e-001	 1.763833283394910e+001
 1.157604660665571e+000	 4.716475904904681e-001	 1.754495616292544e+001
 1.152849922489192e+000	 4.831532430025667e-001	 1.744426711884194e+001
 1.147971158680544e+000	 4.946334186475060e-001	 1.733641324447195e+001
 1.142968404651232e+000	 5.060861843335418e-001	 1.722154935874858e+001
 1.137841734704207e+000	 5.175096006544983e-001	 1.709983750969204e+001
 1.132591262364247e+000	 5.289017228384254e-001	 1.697144691608134e+001
 1.127217140681487e+000	 5.402606017111222e-001	 1.683655389772348e+001
 1.121719562507361e+000	 5.515842846736661e-001	 1.669534179419691e+001
 1.116098760742258e+000	 5.628708166930497e-001	 1.654800087196853e+001
 1.110355008554307e+000	 5.741182413050000e-001	 1.639472821980969e+001
 8.882840068535240e-001	 4.592945930542355e-001	 1.840150293737675e+001
 8.835908956630776e-001	 4.682596813065159e-001	 1.795139248278299e+001
 8.787999584278387e-001	 4.771903531077779e-001	 1.750092289194271e+001
 8.739115111371587e-001	 4.860850447508238e-001	 1.705076575473219e+001
 8.689259024546855e-001	 4.949421946742140e-001	 1.660159634801719e+001
 8.638435137714190e-001	 5.037602443012851e-001	 1.615409298690550e+001
 8.586647592332956e-001	 5.125376388839769e-001	 1.570893636468485e+001
 8.533900857430293e-001	 5.212728283505861e-001	 1.526680888238208e+001
 8.480199729359588e-001	 5.299642681565356e-001	 1.482839396892005e+001
 8.425549331296908e-001	 5.386104201372436e-001	 1.439437539287860e+001
 8.369955112473729e-001	 5.472097533621585e-001	 1.396543656689785e+001
 9.104911070235671e-001	 4.707769578792765e-001	 1.780373294807502e+001
 9.056806680544064e-001	 4.799661733393891e-001	 1.740377693494132e+001
 9.007699573891275e-001	 4.891201119369574e-001	 1.700233106300129e+001
 8.957592989168135e-001	 4.982371708721023e-001	 1.659999722888905e+001
 8.906490500177037e-001	 5.073157495443472e-001	 1.619738163402228e+001
 8.854396016175709e-001	 5.163542504126110e-001	 1.579509421122263e+001
 8.801313782159999e-001	 5.253510798601305e-001	 1.539374803978869e+001
 8.747248378882713e-001	 5.343046490634094e-001	 1.499395874983406e+001
 8.692204722606064e-001	 5.432133748642545e-001	 1.459634391673550e+001
 8.636188064585516e-001	 5.520756806439688e-001	 1.420152244657017e+001
 8.579203990283327e-001	 5.608899971987366e-001	 1.381011395345263e+001
 9.326982071936175e-001	 4.822593227043255e-001	 1.730892248126835e+001
 9.277704404455582e-001	 4.916726653720899e-001	 1.695358967917132e+001
 9.227399563500827e-001	 5.010498707658234e-001	 1.659567862310656e+001
 9.176070866960091e-001	 5.103892969929659e-001	 1.623572428997231e+001
 9.123721975801657e-001	 5.196893044140039e-001	 1.587426657450442e+001
 9.070356894631003e-001	 5.289482565234379e-001	 1.551184978881535e+001
 9.015979971980450e-001	 5.381645208358035e-001	 1.514902215013482e+001
 8.960595900328475e-001	 5.473364697758096e-001	 1.478633525743876e+001
 8.904209715846122e-001	 5.564624815716491e-001	 1.442434355768887e+001
 8.846826797868248e-001	 5.655409411505090e-001	 1.406360380243543e+001
 8.788452868087893e-001	 5.745702410353089e-001	 1.370467449556953e+001
 9.549053073636764e-001	 4.937416875293824e-001	 1.691059966209314e+001
 9.498602128365320e-001	 5.033791574046180e-001	 1.659474920072400e+001
 9.447099553107049e-001	 5.129796295943758e-001	 1.627527079434763e+001
 9.394548744747450e-001	 5.225414231134140e-001	 1.595263507744996e+001
 9.340953451420719e-001	 5.320628592831832e-001	 1.562731821183710e+001
 9.286317773080073e-001	 5.415422626337659e-001	 1.529980145682741e+001
 9.230646161794309e-001	 5.509779618109953e-001	 1.497057072737145e+001
 9.173943421767584e-001	 5.603682904877877e-001	 1.464011614066809e+001
 9.116214709079761e-001	 5.697115882787198e-001	 1.430893155187510e+001
 9.057465531145108e-001	 5.790062016568645e-001	 1.397751407954685e+001
 8.997701745887435e-001	 5.882504848718763e-001	 1.364636362146373e+001
 9.771124075337430e-001	 5.052240523544471e-001	 1.660291150987926e+001
 9.719499852273285e-001	 5.150856494369737e-001	 1.632175763621077e+001
 9.666799542709936e-001	 5.249093884226146e-001	 1.603596151610866e+001
 9.613026622530214e-001	 5.346935492334473e-001	 1.574593184047443e+001
 9.558184927034218e-001	 5.444364141518855e-001	 1.545208343452623e+001
 9.502278651522912e-001	 5.541362687435948e-001	 1.515483689654295e+001
 9.445312351601573e-001	 5.637914027857063e-001	 1.485461822424308e+001
 9.387290943200033e-001	 5.734001111993428e-001	 1.455185842924710e+001
 9.328219702306987e-001	 5.829606949854664e-001	 1.424699314010473e+001
 9.268104264416094e-001	 5.924714621630346e-001	 1.394046219440129e+001
 9.206950623681951e-001	 6.019307287084381e-001	 1.363270922048787e+001
 9.993195077038174e-001	 5.167064171795196e-001	 1.638055517212773e+001
 9.940397576179476e-001	 5.267921414691568e-001	 1.612963592345155e+001
 9.886499532309490e-001	 5.368391472505395e-001	 1.587309247648029e+001
 9.831504500308382e-001	 5.468456753530652e-001	 1.561127381458462e+001
 9.775416402642159e-001	 5.568099690201107e-001	 1.534453566097288e+001
 9.718239529959529e-001	 5.667302748529248e-001	 1.507324018403802e+001
 9.659978541402250e-001	 5.766048437599363e-001	 1.479775569002442e+001
 9.600638464625828e-001	 5.864319319104752e-001	 1.451845630334801e+001
 9.540224695527794e-001	 5.962098016918890e-001	 1.423572163493599e+001
 9.478742997681203e-001	 6.059367226690200e-001	 1.394993643898397e+001
 9.416199501471442e-001	 6.156109725449948e-001	 1.366149025856136e+001
 1.021526607873900e+000	 5.281887820046000e-001	 1.623871812796992e+001
 1.016129530008389e+000	 5.384986335011673e-001	 1.601386741003886e+001
 1.010619952190571e+000	 5.487689060781509e-001	 1.578244009609532e+001
 1.004998237808195e+000	 5.589978014722680e-001	 1.554472754927190e+001
 9.992647878244535e-001	 5.691835238878589e-001	 1.530102847752822e+001
 9.934200408389918e-001	 5.793242809617556e-001	 1.505164870379000e+001
 9.874644731196335e-001	 5.894182847336853e-001	 1.479690092307150e+001
 9.813985986044974e-001	 5.994637526211851e-001	 1.453710444680287e+001
 9.752229688742189e-001	 6.094589083979877e-001	 1.427258493461504e+001
 9.689381730940442e-001	 6.194019831748203e-001	 1.400367411386796e+001
 9.625448379255903e-001	 6.292912163815461e-001	 1.376611426995701e+001
 1.043733708043990e+000	 5.396711468296881e-001	 1.617302602522754e+001
 1.038219302398653e+000	 5.502051255330052e-001	 1.597034866080834e+001
 1.032589951149860e+000	 5.606986649054486e-001	 1.576016927998602e+001
 1.026846025585093e+000	 5.711499275910554e-001	 1.554272357670878e+001
 1.020987935384136e+000	 5.815570787551301e-001	 1.531825519509453e+001
 1.015016128681408e+000	 5.919182870700875e-001	 1.508701556267742e+001
 1.008931092098383e+000	 6.022317257069535e-001	 1.484926371028116e+001
 1.002733350745746e+000	 6.124955733314723e-001	 1.460526607862892e+001
 9.964234681950165e-001	 6.227080151037621e-001	 1.435529631183301e+001
 9.900020464193805e-001	 6.328672436804356e-001	 1.416386571040236e+001
 9.834697257035339e-001	 6.429714602180920e-001	 1.398597858168735e+001
 1.065940808214088e+000	 5.511535116547843e-001	 1.617949703784053e+001
 1.060309074788740e+000	 5.619116175646708e-001	 1.599534641437583e+001
 1.054559950108815e+000	 5.726284237324328e-001	 1.580279295045877e+001
 1.048693813361531e+000	 5.833020537094278e-001	 1.560201849688615e+001
 1.042711082943262e+000	 5.939306336219243e-001	 1.539321346115100e+001
 1.036612216523202e+000	 6.045122931779203e-001	 1.517657670222998e+001
 1.030397711076473e+000	 6.150451666797406e-001	 1.495231541161809e+001
 1.024068102886329e+000	 6.255273940413367e-001	 1.472485474770733e+001
 1.017623967515172e+000	 6.359571218092125e-001	 1.456981434233135e+001
 1.011065919744129e+000	 6.463325041858661e-001	 1.440840859729557e+001
 1.004394613480975e+000	 6.566517040546329e-001	 1.424078449563660e+001
 1.088147908384193e+000	 5.626358764798881e-001	 1.625450181218094e+001
 1.082398847178649e+000	 5.736181095961634e-001	 1.608545981030210e+001
 1.076529949067438e+000	 5.845581825591033e-001	 1.590713653512725e+001
 1.070541601137510e+000	 5.954541798273849e-001	 1.571966170538665e+001
 1.064434230501831e+000	 6.063041884882413e-001	 1.552317420500106e+001
 1.058208304364373e+000	 6.171062992852543e-001	 1.531782203794975e+001
 1.051864330053904e+000	 6.278586076520469e-001	 1.512604515843119e+001
 1.045402855026246e+000	 6.385592147507786e-001	 1.498770485143010e+001
 1.038824466834687e+000	 6.492062285143389e-001	 1.484186850812985e+001
 1.032129793068291e+000	 6.597977646911115e-001	 1.468862944066431e+001
 1.025319501257913e+000	 6.703319478911681e-001	 1.452808378640495e+001
 1.110355008554307e+000	 5.741182413050000e-001	 1.639472821980969e+001
 1.104488619568381e+000	 5.853246016274840e-001	 1.623758714899840e+001
 1.098499948025727e+000	 5.964879413854604e-001	 1.607030671638150e+001
 1.092389388913029e+000	 6.076063059449270e-001	 1.589296611382553e+001
 1.086157378059845e+000	 6.186777433540813e-001	 1.570565430958983e+001
 1.079804392204921e+000	 6.297003053920891e-001	 1.554401239589685e+001
 1.073330949030676e+000	 6.406720486238723e-001	 1.542118889011365e+001
 1.066737607165498e+000	 6.515910354597978e-001	 1.528989131195131e+001
 1.060024966153559e+000	 6.624553352191411e-001	 1.515015991312790e+001
 1.053193666391865e+000	 6.732630251961720e-001	 1.500203821719258e+001
 1.046244389034349e+000	 6.840121917276982e-001	 1.484557300905684e+001
 8.369955112473729e-001	 5.472097533621585e-001	 1.396543656689785e+001
 8.313422847138690e-001	 5.557607449888236e-001	 1.354522250743242e+001
 8.255958633264965e-001	 5.642618811166034e-001	 1.312190677830661e+001
 8.197568890991047e-001	 5.727116576387267e-001	 1.269592085805055e+001
 8.138260360782970e-001	 5.811085810912837e-001	 1.226770085196105e+001
 8.078040101335782e-001	 5.894511694988002e-001	 1.183768708043662e+001
 8.016915487208972e-001	 5.977379532152196e-001	 1.140632365800828e+001
 7.954894206196910e-001	 6.059674757593239e-001	 1.097405806369200e+001
 7.891984256435692e-001	 6.141382946436216e-001	 1.054134070331746e+001
 7.828193943248217e-001	 6.222489821957410e-001	 1.010862446450941e+001
 7.763531875729710e-001	 6.302981263713646e-001	 9.717295826250537e+000
 8.579203990283327e-001	 5.608899971987366e-001	 1.381011395345263e+001
 8.521258418306248e-001	 5.696547636152222e-001	 1.341043440108371e+001
 8.462357599078701e-001	 5.783684281454595e-001	 1.300764635131524e+001
 8.402508113242638e-001	 5.870294490800074e-001	 1.260216959428072e+001
 8.341716869775760e-001	 5.956362956183596e-001	 1.219442855432780e+001
 8.279991103840487e-001	 6.041874487356549e-001	 1.178485188848435e+001
 8.217338374360308e-001	 6.126814020446861e-001	 1.137387207556075e+001
 8.153766561324448e-001	 6.211166626522043e-001	 1.096192499649778e+001
 8.089283862822416e-001	 6.294917520085319e-001	 1.058520590075109e+001
 8.023898791810181e-001	 6.378052067494876e-001	 1.023837972945685e+001
 7.957620172610354e-001	 6.460555795296462e-001	 9.890767538802736e+000
 8.788452868087893e-001	 5.745702410353089e-001	 1.370467449556953e+001
 8.729093989469730e-001	 5.835487822418006e-001	 1.332408804447578e+001
 8.668756564889210e-001	 5.924749751746508e-001	 1.294037428817308e+001
 8.607447335491761e-001	 6.013472405217495e-001	 1.255394205452283e+001
 8.545173378766733e-001	 6.101640101459929e-001	 1.216520482811554e+001
 8.481942106343932e-001	 6.189237279731328e-001	 1.177458035825713e+001
 8.417761261510833e-001	 6.276248508748118e-001	 1.140384190562934e+001
 8.352638916451534e-001	 6.362658495457502e-001	 1.108076075584260e+001
 8.286583469208936e-001	 6.448452093740827e-001	 1.075613730122777e+001
 8.219603640372094e-001	 6.533614313038202e-001	 1.043031018777140e+001
 8.151708469490998e-001	 6.618130326884288e-001	 1.010361819592958e+001
 8.997701745887435e-001	 5.882504848718763e-001	 1.364636362146373e+001
 8.936929560629136e-001	 5.974428008685592e-001	 1.328352716918268e+001
 8.875155530696497e-001	 6.065815222041774e-001	 1.291753280134692e+001
 8.812386557738413e-001	 6.156650319639527e-001	 1.254877906502721e+001
 8.748629887755891e-001	 6.246917246741830e-001	 1.217766920143532e+001
 8.683893108846112e-001	 6.336600072112341e-001	 1.187595004732353e+001
 8.618184148660554e-001	 6.425682997055966e-001	 1.157454663946314e+001
 8.551511271578161e-001	 6.514150364399609e-001	 1.127123849257258e+001
 8.483883075595252e-001	 6.601986667402745e-001	 1.096634759830228e+001
 8.415308488933955e-001	 6.689176558587390e-001	 1.066019617188980e+001
 8.345796766371638e-001	 6.775704858477131e-001	 1.035310636437639e+001
 9.206950623681951e-001	 6.019307287084381e-001	 1.363270922048787e+001
 9.144765131784466e-001	 6.113368194954976e-001	 1.328636906557691e+001
 9.081554496500561e-001	 6.206880692340396e-001	 1.293682872256142e+001
 9.017325779982595e-001	 6.299828234066174e-001	 1.262582579104364e+001
 8.952086396743232e-001	 6.392194392029307e-001	 1.234774093551179e+001
 8.885844111347034e-001	 6.483962864499585e-001	 1.206712032883029e+001
 8.818607035809463e-001	 6.575117485370405e-001	 1.178426935705964e+001
 8.750383626704336e-001	 6.665642233348367e-001	 1.149949395186724e+001
 8.681182681981370e-001	 6.755521241071071e-001	 1.121310031583336e+001
 8.611013337495769e-001	 6.844738804142442e-001	 1.092539464932513e+001
 8.539885063252279e-001	 6.933279390074986e-001	 1.063668287936457e+001
 9.416199501471442e-001	 6.156109725449948e-001	 1.366149025856136e+001
 9.352600702935722e-001	 6.252308381226158e-001	 1.333238854872086e+001
 9.287953462301400e-001	 6.347946162642376e-001	 1.307758891493024e+001
 9.222265002224307e-001	 6.443006148497431e-001	 1.281968984386458e+001
 9.155542905728754e-001	 6.537471537322354e-001	 1.255898049362977e+001
 9.087795113846693e-001	 6.631325656893065e-001	 1.229575082450808e+001
 9.019029922957564e-001	 6.724551973691438e-001	 1.203029133619678e+001
 8.949255981830053e-001	 6.817134102303775e-001	 1.176289280643305e+001
 8.878482288367283e-001	 6.909055814745803e-001	 1.149384603142685e+001
 8.806718186057527e-001	 7.000301049703354e-001	 1.122344156851323e+001
 8.733973360132922e-001	 7.090853921677851e-001	 1.095196948142711e+001
 9.625448379255903e-001	 6.292912163815461e-001	 1.376611426995701e+001
 9.560436274082902e-001	 6.391248567499139e-001	 1.353083805733033e+001
 9.494352428099019e-001	 6.489011632947710e-001	 1.329223640978548e+001
 9.427204224463548e-001	 6.586184062933304e-001	 1.305058381608916e+001
 9.358999414712462e-001	 6.682748682620976e-001	 1.280615551197442e+001
 9.289746116345086e-001	 6.778688449292775e-001	 1.255922722914099e+001
 9.219452810104858e-001	 6.873986462019062e-001	 1.231007494594816e+001
 9.148128336955317e-001	 6.968625971265834e-001	 1.205897464021202e+001
 9.075781894752993e-001	 7.062590388426944e-001	 1.180620204450708e+001
 9.002423034619237e-001	 7.155863295270126e-001	 1.155203240436451e+001
 8.928061657013564e-001	 7.248428453285732e-001	 1.129674023974454e+001
 9.834697257035339e-001	 6.429714602180920e-001	 1.398597858168735e+001
 9.768271845226005e-001	 6.530188753773920e-001	 1.376579846801194e+001
 9.700751393893412e-001	 6.630077103256397e-001	 1.354235946682259e+001
 9.632143446700321e-001	 6.729361977373790e-001	 1.331592282644428e+001
 9.562455923694353e-001	 6.828025827925169e-001	 1.308675021235166e+001
 9.491697118842217e-001	 6.926051241698716e-001	 1.285510346859077e+001
 9.419875697251338e-001	 7.023420950353276e-001	 1.262124438165152e+001
 9.347000692080123e-001	 7.120117840234542e-001	 1.238543444718580e+001
 9.273081501138503e-001	 7.216124962114492e-001	 1.214793463995290e+001
 9.198127883180899e-001	 7.311425540842763e-001	 1.190900518736223e+001
 9.122149953894206e-001	 7.406002984898628e-001	 1.166890534696937e+001
 1.004394613480975e+000	 6.566517040546329e-001	 1.424078449563660e+001
 9.976107416365034e-001	 6.669128940050499e-001	 1.403472213618300e+001
 9.907150359684581e-001	 6.771142573568438e-001	 1.382547256904711e+001
 9.837082668934620e-001	 6.872539891818887e-001	 1.361328413444488e+001
 9.765912432674425e-001	 6.973302973234933e-001	 1.339840524828270e+001
 9.693648121338087e-001	 7.073414034110892e-001	 1.318108417572667e+001
 9.620298584397014e-001	 7.172855438694087e-001	 1.296156880800630e+001
 9.545873047204476e-001	 7.271609709209903e-001	 1.274010644283046e+001
 9.470381107523808e-001	 7.369659535808444e-001	 1.251694356877961e+001
 9.393832731742507e-001	 7.466987786421260e-001	 1.229232565402358e+001
 9.316238250774851e-001	 7.563577516516536e-001	 1.206649693969783e+001
 1.025319501257913e+000	 6.703319478911681e-001	 1.452808378640495e+001
 1.018394298749999e+000	 6.808069126328878e-001	 1.433521721438573e+001
 1.011354932547253e+000	 6.912208043883835e-001	 1.413924090534515e+001
 1.004202189116645e+000	 7.015717806268597e-001	 1.394039059541546e+001
 9.969368941652685e-001	 7.118580118550273e-001	 1.373890174258390e+001
 9.895599123832695e-001	 7.220776826529302e-001	 1.353500931215910e+001
 9.820721471541883e-001	 7.322289927041489e-001	 1.332894756628163e+001
 9.744745402328373e-001	 7.423101578191913e-001	 1.312094985784097e+001
 9.667680713908913e-001	 7.523194109508808e-001	 1.291124842914521e+001
 9.589537580304065e-001	 7.622550032005621e-001	 1.270007421567178e+001
 9.510326547655491e-001	 7.721152048139458e-001	 1.248765665521017e+001
 1.046244389034349e+000	 6.840121917276982e-001	 1.484557300905684e+001
 1.039177855863086e+000	 6.947009312609056e-001	 1.466503207257505e+001
 1.031994829125725e+000	 7.053273514202587e-001	 1.448146529989540e+001
 1.024696111339581e+000	 7.158895720722920e-001	 1.429509610090920e+001
 1.017282545062913e+000	 7.263857263871184e-001	 1.410614724043754e+001
 1.009755012632604e+000	 7.368139618953941e-001	 1.391484063536560e+001
 1.002114435868594e+000	 7.471724415395481e-001	 1.372139715665921e+001
 9.943617757451817e-001	 7.574593447180577e-001	 1.352603643660963e+001
 9.864980320293814e-001	 7.676728683215579e-001	 1.332897668163634e+001
 9.785242428865573e-001	 7.778112277595842e-001	 1.313043449095540e+001
 9.704414844536136e-001	 7.878726579767392e-001	 1.293062468140222e+001
 7.763531875729710e-001	 6.302981263713646e-001	 9.717295826250537e+000
 7.698006963084499e-001	 6.382843315578651e-001	 9.306513221254393e+000
 7.631628410692363e-001	 6.462062193673844e-001	 8.900579550135513e+000
 7.564405715924578e-001	 6.540624294185955e-001	 8.500081713134806e+000
 7.496348663729667e-001	 6.618516201064840e-001	 8.105601812671559e+000
 7.427467321968386e-001	 6.695724693589142e-001	 7.717716587471973e+000
 7.357772036510774e-001	 6.772236753791965e-001	 7.336996854341565e+000
 7.287273426100210e-001	 6.848039573737854e-001	 6.964006958469326e+000
 7.215982376989776e-001	 6.923120562642575e-001	 6.599304233131170e+000
 7.143910037356571e-001	 6.997467353827424e-001	 6.243438469639794e+000
 7.071067811500000e-001	 7.071067811500000e-001	 5.896951398362536e+000
 7.957620172610354e-001	 6.460555795296462e-001	 9.890767538802736e+000
 7.890457137156018e-001	 6.542414398460118e-001	 9.516539816726576e+000
 7.822419120960087e-001	 6.623613748509767e-001	 9.146305615232532e+000
 7.753515858828121e-001	 6.704139901536809e-001	 8.780600929874826e+000
 7.683757380332351e-001	 6.783979106089844e-001	 8.419957440038834e+000
 7.613154005030053e-001	 6.863117810929481e-001	 8.064901997961696e+000
 7.541716337438014e-001	 6.941542672639653e-001	 7.715956125034839e+000
 7.469455261768199e-001	 7.019240563086516e-001	 7.373635516180774e+000
 7.396381936430014e-001	 7.096198576716236e-001	 7.038449553076631e+000
 7.322507788304985e-001	 7.172404037683136e-001	 6.710900826975782e+000
 7.247844506799999e-001	 7.247844506800000e-001	 6.391484671855845e+000
 8.151708469490998e-001	 6.618130326884288e-001	 1.010361819592958e+001
 8.082907311227530e-001	 6.701985481345644e-001	 9.761948116930569e+000
 8.013209831227808e-001	 6.785165303348901e-001	 9.423455789350095e+000
 7.942626001731661e-001	 6.867655508890119e-001	 9.088628053585412e+000
 7.871166096935036e-001	 6.949442011116653e-001	 8.757947885088164e+000
 7.798840688091721e-001	 7.030510928271078e-001	 8.431893936842064e+000
 7.725660638365257e-001	 7.110848591488145e-001	 8.110940088805226e+000
 7.651637097436187e-001	 7.190441552435636e-001	 7.795555005016240e+000
 7.576781495870251e-001	 7.269276590790100e-001	 7.486201699041611e+000
 7.501105539253395e-001	 7.347340721538893e-001	 7.183337108424579e+000
 7.424621202100000e-001	 7.424621202100000e-001	 6.887411678770357e+000
 8.345796766371638e-001	 6.775704858477131e-001	 1.035310636437639e+001
 8.275357485299048e-001	 6.861556564235237e-001	 1.004028013361167e+001
 8.204000541495531e-001	 6.946716858191245e-001	 9.729853495614604e+000
 8.131736144635205e-001	 7.031171116245896e-001	 9.422265741836089e+000
 8.058574813537721e-001	 7.114904916145274e-001	 9.117952720508562e+000
 7.984527371153392e-001	 7.197904045613930e-001	 8.817346431279743e+000
 7.909604939292501e-001	 7.280154510337448e-001	 8.520874626537392e+000
 7.833818933104181e-001	 7.361642541785208e-001	 8.228960420031935e+000
 7.757181055310486e-001	 7.442354604864162e-001	 7.942021903384423e+000
 7.679703290201807e-001	 7.522277405394704e-001	 7.660471771046227e+000
 7.601397897400000e-001	 7.601397897400000e-001	 7.384716954255940e+000
 8.539885063252279e-001	 6.933279390074986e-001	 1.063668287936457e+001
 8.467807659370565e-001	 7.021127647128891e-001	 1.034924468874340e+001
 8.394791251763253e-001	 7.108268413036804e-001	 1.006346372866445e+001
 8.320846287538746e-001	 7.194686723604126e-001	 9.779733216970135e+000
 8.245983530140405e-001	 7.280367821175704e-001	 9.498443321325237e+000
 8.170214054215057e-001	 7.365297162958037e-001	 9.219980804827594e+000
 8.093549240219742e-001	 7.449460429187546e-001	 8.944728678079335e+000
 8.016000768772169e-001	 7.532843531135229e-001	 8.673065858235631e+000
 7.937580614750726e-001	 7.615432618938427e-001	 8.405366835527675e+000
 7.858301041150223e-001	 7.697214089250566e-001	 8.142001347736722e+000
 7.778174592700000e-001	 7.778174592700000e-001	 7.883334063075044e+000
 8.733973360132922e-001	 7.090853921677851e-001	 1.095196948142711e+001
 8.660257833442079e-001	 7.180698730026608e-001	 1.068669888005757e+001
 8.585581962030976e-001	 7.269819967885571e-001	 1.042237732448193e+001
 8.509956430442284e-001	 7.358202330964815e-001	 1.015935331446304e+001
 8.433392246743088e-001	 7.445830726207936e-001	 9.897972664639937e+000
 8.355900737276726e-001	 7.532690280303400e-001	 9.638578200048066e+000
 8.277493541146983e-001	 7.618766348038450e-001	 9.381509457913541e+000
 8.198182604440158e-001	 7.704044520485702e-001	 9.127102396147629e+000
 8.117980174190962e-001	 7.788510633012893e-001	 8.875689108950718e+000
 8.036898792098633e-001	 7.872150773106477e-001	 8.627597549913048e+000
 7.954951288000000e-001	 7.954951288000000e-001	 8.383151262979512e+000
 8.928061657013564e-001	 7.248428453285732e-001	 1.129674023974454e+001
 8.852708007513596e-001	 7.340269812928388e-001	 1.105063196411394e+001
 8.776372672298697e-001	 7.431371522737551e-001	 1.080479728198616e+001
 8.699066573345828e-001	 7.521717938327969e-001	 1.055954122062570e+001
 8.620800963345773e-001	 7.611293631241980e-001	 1.031516645984009e+001
 8.541587420338392e-001	 7.700083397650018e-001	 1.007197307644723e+001
 8.461437842074222e-001	 7.788072266890160e-001	 9.830258294870340e+000
 8.380364440108148e-001	 7.875245509836630e-001	 9.590316244201462e+000
 8.298379733631200e-001	 7.961588647087562e-001	 9.352437722053260e+000
 8.215496543047046e-001	 8.047087456962437e-001	 9.116909965499707e+000
 8.131727983300000e-001	 8.131727983300000e-001	 8.884016429385264e+000
 9.122149953894206e-001	 7.406002984898628e-001	 1.166890534696937e+001
 9.045158181585112e-001	 7.499840895834230e-001	 1.143915129685046e+001
 8.967163382566420e-001	 7.592923077592744e-001	 1.120902683080583e+001
 8.888176716249372e-001	 7.685233545693583e-001	 1.097879464804685e+001
 8.808209679948458e-001	 7.776756536277830e-001	 1.074871541112147e+001
 8.727274103400061e-001	 7.867476514997894e-001	 1.051904753845927e+001
 8.645382143001464e-001	 7.957378185742671e-001	 1.029004700294222e+001
 8.562546275776136e-001	 8.046446499188009e-001	 1.006196713675336e+001
 8.478779293071437e-001	 8.134666661162426e-001	 9.835058442738252e+000
 8.394094293995459e-001	 8.222024140818449e-001	 9.609568412492106e+000
 8.308504678599999e-001	 8.308504678599999e-001	 9.385741351365697e+000
 9.316238250774851e-001	 7.563577516516536e-001	 1.206649693969783e+001
 9.237608355656627e-001	 7.659411978744137e-001	 1.185047003156449e+001
 9.157954092834143e-001	 7.754474632451148e-001	 1.163345899058009e+001
 9.077286859152912e-001	 7.848749153061654e-001	 1.141568523910649e+001
 8.995618396551142e-001	 7.942219441315489e-001	 1.119736844719566e+001
 8.912960786461726e-001	 8.034869632347024e-001	 1.097872637243328e+001
 8.829326443928708e-001	 8.126684104595989e-001	 1.075997470574585e+001
 8.744728111444123e-001	 8.217647488539841e-001	 1.054132692334003e+001
 8.659178852511673e-001	 8.307744675237495e-001	 1.032299414492199e+001
 8.572692044943870e-001	 8.396960824674510e-001	 1.010518499832396e+001
 8.485281373899998e-001	 8.485281373899998e-001	 9.888105490645556e+000
 9.510326547655491e-001	 7.721152048139458e-001	 1.248765665521017e+001
 9.430058529728143e-001	 7.818983061658105e-001	 1.228289632326407e+001
 9.348744803101865e-001	 7.916026187312762e-001	 1.207656740871275e+001
 9.266397002056453e-001	 8.012264760432186e-001	 1.186885102211901e+001
 9.183027113153827e-001	 8.107682346354956e-001	 1.165992678001304e+001
 9.098647469523398e-001	 8.202262749697412e-001	 1.144997269133569e+001
 9.013270744855949e-001	 8.295990023450112e-001	 1.123916504982583e+001
 8.926909947112114e-001	 8.388848477892125e-001	 1.102767833243592e+001
 8.839578411951912e-001	 8.480822689312765e-001	 1.081568510383878e+001
 8.751289795892284e-001	 8.571897508530622e-001	 1.060335592706758e+001
 8.662058069199999e-001	 8.662058069199999e-001	 1.039085928031015e+001
 9.704414844536136e-001	 7.878726579767392e-001	 1.293062468140222e+001
 9.622508703799659e-001	 7.978554144576137e-001	 1.273482382849664e+001
 9.539535513369586e-001	 8.077577742177589e-001	 1.253689829759565e+001
 9.455507144959995e-001	 8.175780367805177e-001	 1.233698977274005e+001
 9.370435829756511e-001	 8.273145251396229e-001	 1.213523867643867e+001
 9.284334152585064e-001	 8.369655867049054e-001	 1.193178410208860e+001
 9.197215045783189e-001	 8.465295942305035e-001	 1.172676375236191e+001
 9.109091782780104e-001	 8.560049467244861e-001	 1.152031388355934e+001
 9.019977971392149e-001	 8.653900703388237e-001	 1.131256925590933e+001
 8.929887546840698e-001	 8.746834192386785e-001	 1.110366308976998e+001
 8.838834764499999e-001	 8.838834764499999e-001	 1.089372702766919e+001
 7.071067811500000e-001	 7.071067811500000e-001	 5.896951398362536e+000
 6.997467353827424e-001	 7.143910037356571e-001	 5.566619286514841e+000
 6.923120562642576e-001	 7.215982376989775e-001	 5.243035977109559e+000
 6.848039573737853e-001	 7.287273426100210e-001	 4.926681656777894e+000
 6.772236753791965e-001	 7.357772036510774e-001	 4.618029971740418e+000
 6.695724693589142e-001	 7.427467321968386e-001	 4.317547605703112e+000
 6.618516201064840e-001	 7.496348663729667e-001	 4.025693868464722e+000
 6.540624294185956e-001	 7.564405715924577e-001	 3.742920295805299e+000
 6.462062193673844e-001	 7.631628410692365e-001	 3.469670261198170e+000
 6.382843315578652e-001	 7.698006963084498e-001	 3.206378599859345e+000
 6.302981263713646e-001	 7.763531875729710e-001	 2.953471245620086e+000
 7.247844506799999e-001	 7.247844506800000e-001	 6.391484671855845e+000
 7.172404037683134e-001	 7.322507788304985e-001	 6.084405277173051e+000
 7.096198576716237e-001	 7.396381936430012e-001	 5.783208933731203e+000
 7.019240563086517e-001	 7.469455261768201e-001	 5.488336491568744e+000
 6.941542672639653e-001	 7.541716337438014e-001	 5.200222856495252e+000
 6.863117810929481e-001	 7.613154005030052e-001	 4.919296611297439e+000
 6.783979106089844e-001	 7.683757380332351e-001	 4.645979646919717e+000
 6.704139901536809e-001	 7.753515858828118e-001	 4.380686804113063e+000
 6.623613748509767e-001	 7.822419120960087e-001	 4.123825526017685e+000
 6.542414398460118e-001	 7.890457137156017e-001	 3.875795522120918e+000
 6.460555795296461e-001	 7.957620172610354e-001	 3.636988444003765e+000
 7.424621202100000e-001	 7.424621202100000e-001	 6.887411678770357e+000
 7.347340721538893e-001	 7.501105539253395e-001	 6.600446892514792e+000
 7.269276590790101e-001	 7.576781495870252e-001	 6.318532647324890e+000
 7.190441552435636e-001	 7.651637097436189e-001	 6.042071672113239e+000
 7.110848591488145e-001	 7.725660638365257e-001	 5.771461319769730e+000
 7.030510928271078e-001	 7.798840688091721e-001	 5.507093230893980e+000
 6.949442011116653e-001	 7.871166096935036e-001	 5.249353006808145e+000
 6.867655508890120e-001	 7.942626001731661e-001	 4.998619892266603e+000
 6.785165303348898e-001	 8.013209831227809e-001	 4.755266468253755e+000
 6.701985481345646e-001	 8.082907311227530e-001	 4.519658355238580e+000
 6.618130326884288e-001	 8.151708469490996e-001	 4.292153927227123e+000
 7.601397897400000e-001	 7.601397897400000e-001	 7.384716954255940e+000
 7.522277405394704e-001	 7.679703290201808e-001	 7.114958404057714e+000
 7.442354604864165e-001	 7.757181055310487e-001	 6.849449277273525e+000
 7.361642541785208e-001	 7.833818933104180e-001	 6.588555280979821e+000
 7.280154510337445e-001	 7.909604939292499e-001	 6.332637287655828e+000
 7.197904045613930e-001	 7.984527371153392e-001	 6.082051040766190e+000
 7.114904916145275e-001	 8.058574813537721e-001	 5.837146868971330e+000
 7.031171116245893e-001	 8.131736144635203e-001	 5.598269409303910e+000
 6.946716858191244e-001	 8.204000541495530e-001	 5.365757339629006e+000
 6.861556564235237e-001	 8.275357485299046e-001	 5.139943120683228e+000
 6.775704858477131e-001	 8.345796766371638e-001	 4.921152747964033e+000
 7.778174592700000e-001	 7.778174592700000e-001	 7.883334063075044e+000
 7.697214089250566e-001	 7.858301041150223e-001	 7.628082853127301e+000
 7.615432618938427e-001	 7.937580614750724e-001	 7.376309688187859e+000
 7.532843531135229e-001	 8.016000768772169e-001	 7.128344246242637e+000
 7.449460429187546e-001	 8.093549240219742e-001	 6.884511886381371e+000
 7.365297162958037e-001	 8.170214054215057e-001	 6.645133395656847e+000
 7.280367821175703e-001	 8.245983530140405e-001	 6.410524743954593e+000
 7.194686723604127e-001	 8.320846287538745e-001	 6.180996847138997e+000
 7.108268413036801e-001	 8.394791251763255e-001	 5.956855338718004e+000
 7.021127647128891e-001	 8.467807659370564e-001	 5.738400350248923e+000
 6.933279390074987e-001	 8.539885063252281e-001	 5.525926300686017e+000
 7.954951288000000e-001	 7.954951288000000e-001	 8.383151262979512e+000
 7.872150773106477e-001	 8.036898792098633e-001	 8.139899965322522e+000
 7.788510633012895e-001	 8.117980174190961e-001	 7.899383593770359e+000
 7.704044520485701e-001	 8.198182604440157e-001	 7.661896691980396e+000
 7.618766348038449e-001	 8.277493541146982e-001	 7.427729975628424e+000
 7.532690280303400e-001	 8.355900737276725e-001	 7.197170120059704e+000
 7.445830726207936e-001	 8.433392246743088e-001	 6.970499555373607e+000
 7.358202330964817e-001	 8.509956430442285e-001	 6.747996269130697e+000
 7.269819967885571e-001	 8.585581962030977e-001	 6.529933616852394e+000
 7.180698730026608e-001	 8.660257833442079e-001	 6.316580140461867e+000
 7.090853921677852e-001	 8.733973360132923e-001	 6.108199394796086e+000
 8.131727983300000e-001	 8.131727983300000e-001	 8.884016429385264e+000
 8.047087456962437e-001	 8.215496543047046e-001	 8.650433032659883e+000
 7.961588647087559e-001	 8.298379733631198e-001	 8.418868377565818e+000
 7.875245509836630e-001	 8.380364440108148e-001	 8.189582677841708e+000
 7.788072266890160e-001	 8.461437842074223e-001	 7.962832786201022e+000
 7.700083397650018e-001	 8.541587420338392e-001	 7.738872022376770e+000
 7.611293631241979e-001	 8.620800963345773e-001	 7.517950008058915e+000
 7.521717938327970e-001	 8.699066573345828e-001	 7.300312508839045e+000
 7.431371522737550e-001	 8.776372672298699e-001	 7.086201283256268e+000
 7.340269812928387e-001	 8.852708007513597e-001	 6.875853939022392e+000
 7.248428453285735e-001	 8.928061657013564e-001	 6.669503796483949e+000
 8.308504678599999e-001	 8.308504678599999e-001	 9.385741351365697e+000
 8.222024140818448e-001	 8.394094293995459e-001	 9.159654917146396e+000
 8.134666661162426e-001	 8.478779293071436e-001	 8.934896787659008e+000
 8.046446499188010e-001	 8.562546275776138e-001	 8.711693567601060e+000
 7.957378185742673e-001	 8.645382143001466e-001	 8.490268944374273e+000
 7.867476514997893e-001	 8.727274103400060e-001	 8.270843556204671e+000
 7.776756536277829e-001	 8.808209679948457e-001	 8.053634866650326e+000
 7.685233545693583e-001	 8.888176716249369e-001	 7.838857045535814e+000
 7.592923077592743e-001	 8.967163382566421e-001	 7.626720856334122e+000
 7.499840895834231e-001	 9.045158181585112e-001	 7.417433549999482e+000
 7.406002984898628e-001	 9.122149953894206e-001	 7.211198765238247e+000
 8.485281373899998e-001	 8.485281373899998e-001	 9.888105490645556e+000
 8.396960824674509e-001	 8.572692044943873e-001	 9.667493303905319e+000
 8.307744675237496e-001	 8.659178852511674e-001	 9.447543669535277e+000
 8.217647488539840e-001	 8.744728111444126e-001	 9.228450226645871e+000
 8.126684104595990e-001	 8.829326443928708e-001	 9.010404118199237e+000
 8.034869632347023e-001	 8.912960786461726e-001	 8.793593898960461e+000
 7.942219441315489e-001	 8.995618396551142e-001	 8.578205449366427e+000
 7.848749153061655e-001	 9.077286859152911e-001	 8.364421895276086e+000
 7.754474632451146e-001	 9.157954092834144e-001	 8.152423533547983e+000
 7.659411978744137e-001	 9.237608355656627e-001	 7.942387763375500e+000
 7.563577516516535e-001	 9.316238250774851e-001	 7.734489023294773e+000
 8.662058069199999e-001	 8.662058069199999e-001	 1.039085928031015e+001
 8.571897508530622e-001	 8.751289795892283e-001	 1.017383531106230e+001
 8.480822689312767e-001	 8.839578411951911e-001	 9.956831874509007e+000
 8.388848477892124e-001	 8.926909947112115e-001	 9.740010215689567e+000
 8.295990023450112e-001	 9.013270744855950e-001	 9.523529482628035e+000
 8.202262749697411e-001	 9.098647469523395e-001	 9.307546673940621e+000
 8.107682346354954e-001	 9.183027113153826e-001	 9.092216591925530e+000
 8.012264760432186e-001	 9.266397002056451e-001	 8.877691801022580e+000
 7.916026187312760e-001	 9.348744803101865e-001	 8.664122591513639e+000
 7.818983061658106e-001	 9.430058529728145e-001	 8.451656948320711e+000
 7.721152048139458e-001	 9.510326547655491e-001	 8.240440524743688e+000
 8.838834764499999e-001	 8.838834764499999e-001	 1.089372702766919e+001
 8.746834192386785e-001	 8.929887546840698e-001	 1.067853154644511e+001
 8.653900703388238e-001	 9.019977971392147e-001	 1.046273745914060e+001
 8.560049467244860e-001	 9.109091782780104e-001	 1.024647412123887e+001
 8.465295942305037e-001	 9.197215045783191e-001	 1.002986916882357e+001
 8.369655867049053e-001	 9.284334152585063e-001	 9.813048505733097e+000
 8.273145251396229e-001	 9.370435829756509e-001	 9.596136295795510e+000
 8.175780367805178e-001	 9.455507144959995e-001	 9.379254959954903e+000
 8.077577742177586e-001	 9.539535513369589e-001	 9.162525178085355e+000
 7.978554144576137e-001	 9.622508703799658e-001	 8.946065895274227e+000
 7.878726579767392e-001	 9.704414844536136e-001	 8.729994332344367e+000
 6.302981263713646e-001	 7.763531875729710e-001	 2.953471245620086e+000
 6.222489821957411e-001	 7.828193943248218e-001	 2.725917931705074e+000
 6.141382946436216e-001	 7.891984256435691e-001	 2.499210672390833e+000
 6.059674757593238e-001	 7.954894206196910e-001	 2.279320112003192e+000
 5.977379532152196e-001	 8.016915487208971e-001	 2.066585560152560e+000
 5.894511694988002e-001	 8.078040101335781e-001	 1.861340690345897e+000
 5.811085810912837e-001	 8.138260360782970e-001	 1.663913187565502e+000
 5.727116576387268e-001	 8.197568890991045e-001	 1.474624404910892e+000
 5.642618811166035e-001	 8.255958633264966e-001	 1.293789029877669e+000
 5.557607449888236e-001	 8.313422847138690e-001	 1.121714760826499e+000
 5.472097533621585e-001	 8.369955112473729e-001	 9.587019941682423e-001
 6.460555795296461e-001	 7.957620172610354e-001	 3.636988444003765e+000
 6.378052067494876e-001	 8.023898791810181e-001	 3.415390217526058e+000
 6.294917520085319e-001	 8.089283862822417e-001	 3.199970907317921e+000
 6.211166626522043e-001	 8.153766561324448e-001	 2.986750488960116e+000
 6.126814020446861e-001	 8.217338374360308e-001	 2.775385229325187e+000
 6.041874487356549e-001	 8.279991103840487e-001	 2.571142645068619e+000
 5.956362956183596e-001	 8.341716869775759e-001	 2.374352172930711e+000
 5.870294490800074e-001	 8.402508113242636e-001	 2.185337051676191e+000
 5.783684281454594e-001	 8.462357599078704e-001	 2.004413983359566e+000
 5.696547636152223e-001	 8.521258418306248e-001	 1.831892804694338e+000
 5.608899971987366e-001	 8.579203990283327e-001	 1.668076169064101e+000
 6.618130326884288e-001	 8.151708469490996e-001	 4.292153927227123e+000
 6.533614313038202e-001	 8.219603640372094e-001	 4.072906855708161e+000
 6.448452093740830e-001	 8.286583469208937e-001	 3.859490679393022e+000
 6.362658495457499e-001	 8.352638916451532e-001	 3.652152678474992e+000
 6.276248508748118e-001	 8.417761261510834e-001	 3.451135114064717e+000
 6.189237279731329e-001	 8.481942106343930e-001	 3.249938712673933e+000
 6.101640101459929e-001	 8.545173378766733e-001	 3.052872003749771e+000
 6.013472405217496e-001	 8.607447335491760e-001	 2.863217012549449e+000
 5.924749751746506e-001	 8.668756564889212e-001	 2.681293078690755e+000
 5.835487822418006e-001	 8.729093989469730e-001	 2.507412797853092e+000
 5.745702410353087e-001	 8.788452868087893e-001	 2.341881697905375e+000
 6.775704858477131e-001	 8.345796766371638e-001	 4.921152747964033e+000
 6.689176558587390e-001	 8.415308488933956e-001	 4.703640131946320e+000
 6.601986667402746e-001	 8.483883075595253e-001	 4.491612058135346e+000
 6.514150364399607e-001	 8.551511271578162e-001	 4.285308154527098e+000
 6.425682997055964e-001	 8.618184148660554e-001	 4.084963133731771e+000
 6.336600072112341e-001	 8.683893108846115e-001	 3.890806654615306e+000
 6.246917246741831e-001	 8.748629887755891e-001	 3.702710756014691e+000
 6.156650319639528e-001	 8.812386557738412e-001	 3.511546907824147e+000
 6.065815222041774e-001	 8.875155530696497e-001	 3.327753106485745e+000
 5.974428008685592e-001	 8.936929560629136e-001	 3.151645311881082e+000
 5.882504848718763e-001	 8.997701745887436e-001	 2.983532528821899e+000
 6.933279390074987e-001	 8.539885063252281e-001	 5.525926300686017e+000
 6.844738804142442e-001	 8.611013337495768e-001	 5.309588035776007e+000
 6.755521241071072e-001	 8.681182681981370e-001	 5.098389657722373e+000
 6.665642233348367e-001	 8.750383626704337e-001	 4.892563079364848e+000
 6.575117485370405e-001	 8.818607035809464e-001	 4.692335398468024e+000
 6.483962864499587e-001	 8.885844111347035e-001	 4.497928772986088e+000
 6.392194392029307e-001	 8.952086396743231e-001	 4.309560303554209e+000
 6.299828234066175e-001	 9.017325779982596e-001	 4.127441923213701e+000
 6.206880692340399e-001	 9.081554496500564e-001	 3.946839981054982e+000
 6.113368194954976e-001	 9.144765131784467e-001	 3.767675505473231e+000
 6.019307287084381e-001	 9.206950623681951e-001	 3.596152693219453e+000
 7.090853921677852e-001	 8.733973360132923e-001	 6.108199394796086e+000
 7.000301049703352e-001	 8.806718186057527e-001	 5.892527774298189e+000
 6.909055814745804e-001	 8.878482288367283e-001	 5.681653126335317e+000
 6.817134102303774e-001	 8.949255981830052e-001	 5.475799552806421e+000
 6.724551973691438e-001	 9.019029922957563e-001	 5.275186437492413e+000
 6.631325656893065e-001	 9.087795113846693e-001	 5.080028335362735e+000
 6.537471537322354e-001	 9.155542905728754e-001	 4.890534868986705e+000
 6.443006148497433e-001	 9.222265002224306e-001	 4.706910632021583e+000
 6.347946162642375e-001	 9.287953462301400e-001	 4.529355099736774e+000
 6.252308381226157e-001	 9.352600702935721e-001	 4.358062546518153e+000
 6.156109725449946e-001	 9.416199501471442e-001	 4.182608518748428e+000
 7.248428453285735e-001	 8.928061657013564e-001	 6.669503796483949e+000
 7.155863295270126e-001	 9.002423034619237e-001	 6.454039770269517e+000
 7.062590388426944e-001	 9.075781894752993e-001	 6.243031598984892e+000
 6.968625971265833e-001	 9.148128336955316e-001	 6.036695446741968e+000
 6.873986462019063e-001	 9.219452810104858e-001	 5.835242853156300e+000
 6.778688449292776e-001	 9.289746116345086e-001	 5.638880637149671e+000
 6.682748682620976e-001	 9.358999414712462e-001	 5.447810807738298e+000
 6.586184062933305e-001	 9.427204224463548e-001	 5.262230481743651e+000
 6.489011632947709e-001	 9.494352428099019e-001	 5.082331808351261e+000
 6.391248567499139e-001	 9.560436274082902e-001	 4.908301900429281e+000
 6.292912163815461e-001	 9.625448379255903e-001	 4.740322772506011e+000
 7.406002984898628e-001	 9.122149953894206e-001	 7.211198765238247e+000
 7.311425540842764e-001	 9.198127883180900e-001	 6.995528596607552e+000
 7.216124962114491e-001	 9.273081501138502e-001	 6.783975028699557e+000
 7.120117840234543e-001	 9.347000692080125e-001	 6.576746131508445e+000
 7.023420950353279e-001	 9.419875697251339e-001	 6.374045440823050e+000
 6.926051241698717e-001	 9.491697118842217e-001	 6.176071877013859e+000
 6.828025827925169e-001	 9.562455923694353e-001	 5.983019670688274e+000
 6.729361977373790e-001	 9.632143446700319e-001	 5.795078295116440e+000
 6.630077103256397e-001	 9.700751393893412e-001	 5.612432405317543e+000
 6.530188753773921e-001	 9.768271845226005e-001	 5.435261783683656e+000
 6.429714602180920e-001	 9.834697257035339e-001	 5.263741292007362e+000
 7.563577516516535e-001	 9.316238250774851e-001	 7.734489023294773e+000
 7.466987786421260e-001	 9.393832731742509e-001	 7.518241294082017e+000
 7.369659535808448e-001	 9.470381107523809e-001	 7.305772851315657e+000
 7.271609709209902e-001	 9.545873047204475e-001	 7.097283486468268e+000
 7.172855438694087e-001	 9.620298584397016e-001	 6.892968543762561e+000
 7.073414034110892e-001	 9.693648121338087e-001	 6.693018854461657e+000
 6.973302973234934e-001	 9.765912432674425e-001	 6.497620677914260e+000
 6.872539891818886e-001	 9.837082668934617e-001	 6.306955649219749e+000
 6.771142573568437e-001	 9.907150359684582e-001	 6.121200733365937e+000
 6.669128940050501e-001	 9.976107416365034e-001	 5.940528185681650e+000
 6.566517040546327e-001	 1.004394613480975e+000	 5.765105518433900e+000
 7.721152048139458e-001	 9.510326547655491e-001	 8.240440524743688e+000
 7.622550032005621e-001	 9.589537580304064e-001	 8.023283446024196e+000
 7.523194109508807e-001	 9.667680713908911e-001	 7.809570364782434e+000
 7.423101578191912e-001	 9.744745402328375e-001	 7.599492582761902e+000
 7.322289927041489e-001	 9.820721471541883e-001	 7.393237038058832e+000
 7.220776826529302e-001	 9.895599123832695e-001	 7.190986255467279e+000
 7.118580118550273e-001	 9.969368941652685e-001	 6.992918303467837e+000
 7.015717806268598e-001	 1.004202189116645e+000	 6.799206757686322e+000
 6.912208043883834e-001	 1.011354932547253e+000	 6.610020670638456e+000
 6.808069126328881e-001	 1.018394298749999e+000	 6.425524547563706e+000
 6.703319478911681e-001	 1.025319501257913e+000	 6.245878328143245e+000
 7.878726579767392e-001	 9.704414844536136e-001	 8.729994332344367e+000
 7.778112277595841e-001	 9.785242428865572e-001	 8.511633324070376e+000
 7.676728683215578e-001	 9.864980320293814e-001	 8.296383142951022e+000
 7.574593447180574e-001	 9.943617757451816e-001	 8.084426364129842e+000
 7.471724415395482e-001	 1.002114435868594e+000	 7.875941279328328e+000
 7.368139618953939e-001	 1.009755012632604e+000	 7.671101863826191e+000
 7.263857263871183e-001	 1.017282545062913e+000	 7.470077749977104e+000
 7.158895720722921e-001	 1.024696111339581e+000	 7.273034207046567e+000
 7.053273514202586e-001	 1.031994829125725e+000	 7.080132127147119e+000
 6.947009312609058e-001	 1.039177855863086e+000	 6.891528017036428e+000
 6.840121917276981e-001	 1.046244389034349e+000	 6.707373995535252e+000
 5.472097533621585e-001	 8.369955112473729e-001	 9.587019941682423e-001
 5.386104201372436e-001	 8.425549331296908e-001	 8.139602094652065e-001
 5.299642681565356e-001	 8.480199729359587e-001	 6.721919603400575e-001
 5.212728283505860e-001	 8.533900857430293e-001	 5.336217430272731e-001
 5.125376388839767e-001	 8.586647592332956e-001	 3.984721912741355e-001
 5.037602443012850e-001	 8.638435137714189e-001	 2.669638212386383e-001
 4.949421946742140e-001	 8.689259024546855e-001	 1.393147810878174e-001
 4.860850447508238e-001	 8.739115111371586e-001	 1.574060572456782e-002
 4.771903531077779e-001	 8.787999584278388e-001	-1.035460229493957e-001
 4.682596813065159e-001	 8.835908956630776e-001	-2.183355098391704e-001
 4.592945930542355e-001	 8.882840068535240e-001	-3.284215741583267e-001
 5.608899971987366e-001	 8.579203990283327e-001	 1.668076169064101e+000
 5.520756806439687e-001	 8.636188064585515e-001	 1.516715715087708e+000
 5.432133748642545e-001	 8.692204722606064e-001	 1.369062736155432e+000
 5.343046490634091e-001	 8.747248378882713e-001	 1.225349618434786e+000
 5.253510798601305e-001	 8.801313782159997e-001	 1.085806009330659e+000
 5.163542504126110e-001	 8.854396016175709e-001	 9.506585600469583e-001
 5.073157495443472e-001	 8.906490500177037e-001	 8.201306740775316e-001
 4.982371708721025e-001	 8.957592989168137e-001	 6.944422620455187e-001
 4.891201119369574e-001	 9.007699573891274e-001	 5.738095032908417e-001
 4.799661733393892e-001	 9.056806680544065e-001	 4.584446145870518e-001
 4.707769578792765e-001	 9.104911070235670e-001	 3.485556263470989e-001
 5.745702410353087e-001	 8.788452868087893e-001	 2.341881697905375e+000
 5.655409411505090e-001	 8.846826797868248e-001	 2.183810717802396e+000
 5.564624815716492e-001	 8.904209715846120e-001	 2.030131746384552e+000
 5.473364697758096e-001	 8.960595900328476e-001	 1.881085481194686e+000
 5.381645208358035e-001	 9.015979971980450e-001	 1.736909033006839e+000
 5.289482565234379e-001	 9.070356894631003e-001	 1.597835665292995e+000
 5.196893044140039e-001	 9.123721975801657e-001	 1.464094540822406e+000
 5.103892969929659e-001	 9.176070866960091e-001	 1.335910475807229e+000
 5.010498707658233e-001	 9.227399563500828e-001	 1.213503701987687e+000
 4.916726653720898e-001	 9.277704404455581e-001	 1.097089637024862e+000
 4.822593227043255e-001	 9.326982071936176e-001	 9.868786635486623e-001
 5.882504848718763e-001	 8.997701745887436e-001	 2.983532528821899e+000
 5.790062016568643e-001	 9.057465531145107e-001	 2.818645156102897e+000
 5.697115882787198e-001	 9.116214709079761e-001	 2.658788130033284e+000
 5.603682904877875e-001	 9.173943421767581e-001	 2.504210879668676e+000
 5.509779618109955e-001	 9.230646161794308e-001	 2.355158425528408e+000
 5.415422626337660e-001	 9.286317773080073e-001	 2.211871115220519e+000
 5.320628592831832e-001	 9.340953451420719e-001	 2.074584367381624e+000
 5.225414231134142e-001	 9.394548744747451e-001	 1.943528424340586e+000
 5.129796295943757e-001	 9.447099553107049e-001	 1.818928113892568e+000
 5.033791574046179e-001	 9.498602128365320e-001	 1.701002620543627e+000
 4.937416875293824e-001	 9.549053073636764e-001	 1.589965266561446e+000
 6.019307287084381e-001	 9.206950623681951e-001	 3.596152693219453e+000
 5.924714621630346e-001	 9.268104264416094e-001	 3.424329761509386e+000
 5.829606949854665e-001	 9.328219702306987e-001	 3.258132234411748e+000
 5.734001111993426e-001	 9.387290943200036e-001	 3.097818692135506e+000
 5.637914027857062e-001	 9.445312351601573e-001	 2.943642508974526e+000
 5.541362687435949e-001	 9.502278651522912e-001	 2.795851584356048e+000
 5.444364141518855e-001	 9.558184927034217e-001	 2.654688083364694e+000
 5.346935492334473e-001	 9.613026622530212e-001	 2.520388187151148e+000
 5.249093884226144e-001	 9.666799542709937e-001	 2.393181853604189e+000
 5.150856494369737e-001	 9.719499852273285e-001	 2.273292588641313e+000
 5.052240523544471e-001	 9.771124075337430e-001	 2.160937228442845e+000
 6.156109725449946e-001	 9.416199501471442e-001	 4.182608518748428e+000
 6.059367226690199e-001	 9.478742997681203e-001	 4.003718192676391e+000
 5.962098016918892e-001	 9.540224695527798e-001	 3.831007703100298e+000
 5.864319319104752e-001	 9.600638464625831e-001	 3.664745201244151e+000
 5.766048437599364e-001	 9.659978541402251e-001	 3.505192857738743e+000
 5.667302748529246e-001	 9.718239529959528e-001	 3.352606588366467e+000
 5.568099690201107e-001	 9.775416402642158e-001	 3.207235790425693e+000
 5.468456753530653e-001	 9.831504500308381e-001	 3.069323090122079e+000
 5.368391472505394e-001	 9.886499532309492e-001	 2.939104101363554e+000
 5.267921414691568e-001	 9.940397576179476e-001	 2.816807196307552e+000
 5.167064171795196e-001	 9.993195077038174e-001	 2.702653287977369e+000
 6.292912163815461e-001	 9.625448379255903e-001	 4.740322772506011e+000
 6.194019831748203e-001	 9.689381730940442e-001	 4.559434978095739e+000
 6.094589083979877e-001	 9.752229688742187e-001	 4.380029378528710e+000
 5.994637526211849e-001	 9.813985986044971e-001	 4.207597984843176e+000
 5.894182847336852e-001	 9.874644731196336e-001	 4.042412205885746e+000
 5.793242809617556e-001	 9.934200408389918e-001	 3.884736436109172e+000
 5.691835238878589e-001	 9.992647878244535e-001	 3.734827787041084e+000
 5.589978014722681e-001	 1.004998237808195e+000	 3.592935830907811e+000
 5.487689060781508e-001	 1.010619952190571e+000	 3.459302356788629e+000
 5.384986335011672e-001	 1.016129530008389e+000	 3.334161139644676e+000
 5.281887820046000e-001	 1.021526607873900e+000	 3.217737722532584e+000
 6.429714602180920e-001	 9.834697257035339e-001	 5.263741292007362e+000
 6.328672436804357e-001	 9.900020464193806e-001	 5.084058958569170e+000
 6.227080151037622e-001	 9.964234681950164e-001	 4.907607642524114e+000
 6.124955733314721e-001	 1.002733350745746e+000	 4.728780246278552e+000
 6.022317257069535e-001	 1.008931092098383e+000	 4.557698791867400e+000
 5.919182870700875e-001	 1.015016128681408e+000	 4.394636613335006e+000
 5.815570787551301e-001	 1.020987935384136e+000	 4.239859015656401e+000
 5.711499275910557e-001	 1.026846025585093e+000	 4.093623013852212e+000
 5.606986649054486e-001	 1.032589951149860e+000	 3.956177085749268e+000
 5.502051255330052e-001	 1.038219302398653e+000	 3.827760938728118e+000
 5.396711468296881e-001	 1.043733708043990e+000	 3.708605290763212e+000
 6.566517040546327e-001	 1.004394613480975e+000	 5.765105518433900e+000
 6.463325041858661e-001	 1.011065919744129e+000	 5.580335394480136e+000
 6.359571218092126e-001	 1.017623967515172e+000	 5.401879047186781e+000
 6.255273940413366e-001	 1.024068102886329e+000	 5.229875381715088e+000
 6.150451666797405e-001	 1.030397711076473e+000	 5.053267660148890e+000
 6.045122931779204e-001	 1.036612216523202e+000	 4.884519118428469e+000
 5.939306336219241e-001	 1.042711082943261e+000	 4.724540453939348e+000
 5.833020537094280e-001	 1.048693813361531e+000	 4.573596618041759e+000
 5.726284237324328e-001	 1.054559950108815e+000	 4.431943286382647e+000
 5.619116175646707e-001	 1.060309074788740e+000	 4.299826622609549e+000
 5.511535116547843e-001	 1.065940808214088e+000	 4.177483057477324e+000
 6.703319478911681e-001	 1.025319501257913e+000	 6.245878328143245e+000
 6.597977646911116e-001	 1.032129793068291e+000	 6.056207865760866e+000
 6.492062285143391e-001	 1.038824466834687e+000	 5.873190691661308e+000
 6.385592147507786e-001	 1.045402855026246e+000	 5.696962906369032e+000
 6.278586076520468e-001	 1.051864330053904e+000	 5.527654889106761e+000
 6.171062992852543e-001	 1.058208304364373e+000	 5.356431185608377e+000
 6.063041884882413e-001	 1.064434230501831e+000	 5.190917886696042e+000
 5.954541798273851e-001	 1.070541601137510e+000	 5.034902836617618e+000
 5.845581825591033e-001	 1.076529949067438e+000	 4.888649414372378e+000
 5.736181095961636e-001	 1.082398847178649e+000	 4.752410759012964e+000
 5.626358764798881e-001	 1.088147908384193e+000	 4.626429546069804e+000
 6.840121917276981e-001	 1.046244389034349e+000	 6.707373995535252e+000
 6.732630251961720e-001	 1.053193666391865e+000	 6.512997110746530e+000
 6.624553352191411e-001	 1.060024966153559e+000	 6.325582104208900e+000
 6.515910354597977e-001	 1.066737607165498e+000	 6.145261920359319e+000
 6.406720486238722e-001	 1.073330949030676e+000	 5.972163282469996e+000
 6.297003053920891e-001	 1.079804392204921e+000	 5.806406737567222e+000
 6.186777433540813e-001	 1.086157378059845e+000	 5.640888425157011e+000
 6.076063059449273e-001	 1.092389388913029e+000	 5.479438655370116e+000
 5.964879413854602e-001	 1.098499948025727e+000	 5.328194037193680e+000
 5.853246016274839e-001	 1.104488619568381e+000	 5.187415200467850e+000
 5.741182413050000e-001	 1.110355008554307e+000	 5.057351592663835e+000
 4.592945930542355e-001	 8.882840068535240e-001	-3.284215741583267e-001
 4.502966533698555e-001	 8.928790086056798e-001	-4.390092036946022e-001
 4.412674277578943e-001	 8.973756500191494e-001	-5.433595959889285e-001
 4.322084813897782e-001	 9.017737125594310e-001	-6.413002756861685e-001
 4.231213782919209e-001	 9.060730099062141e-001	-7.326636853212711e-001
 4.140076805434689e-001	 9.102733877783562e-001	-8.172873436110376e-001
 4.048689474837917e-001	 9.143747237357485e-001	-8.950139950999678e-001
 3.957067349304588e-001	 9.183769269585733e-001	-9.656917509944524e-001
 3.865225944084202e-001	 9.222799380044704e-001	-1.029174221039632e+000
 3.773180723910820e-001	 9.260837285441589e-001	-1.085320636315339e+000
 3.680947095539379e-001	 9.297883010760839e-001	-1.133995962851979e+000
 4.707769578792765e-001	 9.104911070235670e-001	 3.485556263470989e-001
 4.615540697013549e-001	 9.152009838184482e-001	 2.367651863648154e-001
 4.522991134480965e-001	 9.198100412663188e-001	 1.309583532184521e-001
 4.430136934202114e-001	 9.243180553693136e-001	 3.130580900306128e-002
 4.336994127447717e-001	 9.287248351491139e-001	-6.202656263602762e-002
 4.243578725529000e-001	 9.330302224675479e-001	-1.488778359467188e-001
 4.149906711674480e-001	 9.372340918235038e-001	-2.290921939240241e-001
 4.055994033014220e-001	 9.413363501266672e-001	-3.025190704014674e-001
 3.961856592678930e-001	 9.453369364486187e-001	-3.690132832301163e-001
 3.867510242020995e-001	 9.492358217518440e-001	-4.284351584186008e-001
 3.772970772964199e-001	 9.530330085972488e-001	-4.806506451279253e-001
 4.822593227043255e-001	 9.326982071936176e-001	 9.868786635486623e-001
 4.728114860330365e-001	 9.375229590314141e-001	 8.728027072023035e-001
 4.633307991386043e-001	 9.422444325138553e-001	 7.644625071400376e-001
 4.538189054510227e-001	 9.468623981797123e-001	 6.620275906469948e-001
 4.442774471980223e-001	 9.513766603926590e-001	 5.656627951097644e-001
 4.347080645627026e-001	 9.557870571574938e-001	 4.755281068475963e-001
 4.251123948513975e-001	 9.600934599121022e-001	 3.917785085020569e-001
 4.154920716725500e-001	 9.642957732956732e-001	 3.145638351633869e-001
 4.058487241273527e-001	 9.683939348937278e-001	 2.440286393889691e-001
 3.961839760128774e-001	 9.723879149605194e-001	 1.803120652467067e-001
 3.864994450383867e-001	 9.762777161194137e-001	 1.235477314923841e-001
 4.937416875293824e-001	 9.549053073636764e-001	 1.589965266561446e+000
 4.840689023649002e-001	 9.598449342445778e-001	 1.472575088749725e+000
 4.743624848294175e-001	 9.646788237617586e-001	 1.360678230192096e+000
 4.646241174822119e-001	 9.694067409906272e-001	 1.254443683068323e+000
 4.548554816516729e-001	 9.740284856368491e-001	 1.154035847659094e+000
 4.450582565728768e-001	 9.785438918481941e-001	 1.059614368887149e+000
 4.352341185356399e-001	 9.829528280015430e-001	 9.713339814098723e-001
 4.253847400438428e-001	 9.872551964655909e-001	 8.893443634473153e-001
 4.155117889867996e-001	 9.914509333397977e-001	 8.137899995066589e-001
 4.056169278234152e-001	 9.955400081701847e-001	 7.448100521418005e-001
 3.957018127798380e-001	 9.995224236425787e-001	 6.825382428630277e-001
 5.052240523544471e-001	 9.771124075337430e-001	 2.160937228442845e+000
 4.953263186969465e-001	 9.821669094579394e-001	 2.039252655872967e+000
 4.853941705205365e-001	 9.871132150100292e-001	 1.922824050008529e+000
 4.754293295137794e-001	 9.919510838020585e-001	 1.811820471203494e+000
 4.654335161057235e-001	 9.966803108816846e-001	 1.706406475653454e+000
 4.554084485834225e-001	 1.001300726539648e+000	 1.606741949090881e+000
 4.453558422201753e-001	 1.005812196091827e+000	 1.512981949047623e+000
 4.352774084153003e-001	 1.010214619636420e+000	 1.425276555874643e+000
 4.251748538462336e-001	 1.014507931786828e+000	 1.343770732687692e+000
 4.150498796337134e-001	 1.018692101380841e+000	 1.268604194383367e+000
 4.049041805207738e-001	 1.022767131166744e+000	 1.199911285845140e+000
 5.167064171795196e-001	 9.993195077038174e-001	 2.702653287977369e+000
 5.065837350291749e-001	 1.004488884671498e+000	 2.575737817823551e+000
 4.964258562119608e-001	 1.009547606258667e+000	 2.453845750417366e+000
 4.862345415457247e-001	 1.014495426614006e+000	 2.337146803201564e+000
 4.760115505601738e-001	 1.019332136127165e+000	 2.225806267199422e+000
 4.657586405943396e-001	 1.024057561231856e+000	 2.119984837314143e+000
 4.554775659050038e-001	 1.028671564182954e+000	 2.019838451233226e+000
 4.451700767869224e-001	 1.033174042808161e+000	 1.925518137137035e+000
 4.348379187056548e-001	 1.037564930234820e+000	 1.837169870385705e+000
 4.244828314437720e-001	 1.041844194592487e+000	 1.754934439336159e+000
 4.141065482611941e-001	 1.046011838691909e+000	 1.678947320415750e+000
 5.281887820046000e-001	 1.021526607873900e+000	 3.217737722532584e+000
 5.178411513615852e-001	 1.026810859885255e+000	 3.084694189501654e+000
 5.074575419036908e-001	 1.031981997507672e+000	 2.956446017506355e+000
 4.970397535780481e-001	 1.037039769426470e+000	 2.833164157466140e+000
 4.865895850150243e-001	 1.041983961373291e+000	 2.715015201840103e+000
 4.761088326056284e-001	 1.046814395924818e+000	 2.602161210985828e+000
 4.655992895901254e-001	 1.051530932274924e+000	 2.494759548183497e+000
 4.550627451587097e-001	 1.056133465980815e+000	 2.392962723533846e+000
 4.445009835650630e-001	 1.060621928683773e+000	 2.296918246910883e+000
 4.339157832535908e-001	 1.064996287805123e+000	 2.206768490129224e+000
 4.233089160010993e-001	 1.069256546218074e+000	 2.122650558458957e+000
 5.396711468296881e-001	 1.043733708043990e+000	 3.708605290763212e+000
 5.290985676941781e-001	 1.049132835099209e+000	 3.568571995110317e+000
 5.184892275957262e-001	 1.054416388757043e+000	 3.433110301085070e+000
 5.078449656107494e-001	 1.059584112239450e+000	 3.302392958585741e+000
 4.971676194702746e-001	 1.064635786620062e+000	 3.176588417422881e+000
 4.864590246172887e-001	 1.069571230618535e+000	 3.055860649195794e+000
 4.757210132755399e-001	 1.074390300367736e+000	 2.940368977918152e+000
 4.649554135306616e-001	 1.079092889154379e+000	 2.830267919609040e+000
 4.541640484244582e-001	 1.083678927133686e+000	 2.725707031040633e+000
 4.433487350631697e-001	 1.088148381018750e+000	 2.626830767807541e+000
 4.325112837404888e-001	 1.092501253745239e+000	 2.533778351859857e+000
 5.511535116547843e-001	 1.065940808214088e+000	 4.177483057477324e+000
 5.403559840269530e-001	 1.071454810313361e+000	 4.029630296353406e+000
 5.295209132880673e-001	 1.076850780006782e+000	 3.886129443463457e+000
 5.186501776438290e-001	 1.082128455052946e+000	 3.747155603772706e+000
 5.077456539259250e-001	 1.087287611867478e+000	 3.612879631109757e+000
 4.968092166293204e-001	 1.092328065313005e+000	 3.483467945022139e+000
 4.858427369612475e-001	 1.097249668461392e+000	 3.359082356488214e+000
 4.748480819027783e-001	 1.102052312328856e+000	 3.239879902708609e+000
 4.638271132838406e-001	 1.106735925584560e+000	 3.126012691178687e+000
 4.527816868725090e-001	 1.111300474233367e+000	 3.017627753215391e+000
 4.417136514793630e-001	 1.115745961273404e+000	 2.914866907087195e+000
 5.626358764798881e-001	 1.088147908384193e+000	 4.626429546069804e+000
 5.516134003599104e-001	 1.093776785527711e+000	 4.469956498813025e+000
 5.405525989807140e-001	 1.099285171256888e+000	 4.317619537360415e+000
 5.294553896772866e-001	 1.104672797866959e+000	 4.169596669738595e+000
 5.183236883819752e-001	 1.109939437115540e+000	 4.026061692507957e+000
 5.071594086417235e-001	 1.115084900008229e+000	 3.887184002062232e+000
 4.959644606472483e-001	 1.120109036555890e+000	 3.753128414911542e+000
 4.847407502750599e-001	 1.125011735504244e+000	 3.624054997184232e+000
 4.734901781432100e-001	 1.129792924036396e+000	 3.500118903556238e+000
 4.622146386816085e-001	 1.134452567448973e+000	 3.381470225791771e+000
 4.509160192177217e-001	 1.138990668802569e+000	 3.268253851051489e+000
 5.741182413050000e-001	 1.110355008554307e+000	 5.057351592663835e+000
 5.628708166930497e-001	 1.116098760742258e+000	 4.891483517561984e+000
 5.515842846736662e-001	 1.121719562507361e+000	 4.729539400862825e+000
 5.402606017111221e-001	 1.127217140681487e+000	 4.571700694743934e+000
 5.289017228384254e-001	 1.132591262364247e+000	 4.418144670425916e+000
 5.175096006544983e-001	 1.137841734704207e+000	 4.269044223381074e+000
 5.060861843335419e-001	 1.142968404651232e+000	 4.124567687675894e+000
 4.946334186475062e-001	 1.147971158680544e+000	 3.984878659692300e+000
 4.831532430025666e-001	 1.152849922489192e+000	 3.850135831448505e+000
 4.716475904904681e-001	 1.157604660665571e+000	 3.720492833710492e+000
 4.601183869555650e-001	 1.162235376332733e+000	 3.596098089060428e+000
 3.680947095539379e-001	 9.297883010760839e-001	-1.133995962851979e+000
 3.588540400425035e-001	 9.333936886206078e-001	-1.188807063645853e+000
 3.495975907518841e-001	 9.368999543945393e-001	-1.238050928613383e+000
 3.403268806206378e-001	 9.403071914665516e-001	-1.281599424713679e+000
 3.310434199417800e-001	 9.436155223939605e-001	-1.319328582242340e+000
 3.217487096881426e-001	 9.468250988417171e-001	-1.351118702020320e+000
 3.124442408536596e-001	 9.499361011842371e-001	-1.376854455028858e+000
 3.031314938110319e-001	 9.529487380907489e-001	-1.396424974439881e+000
 2.938119376861946e-001	 9.558632460948671e-001	-1.409723940007611e+000
 2.844870297499801e-001	 9.586798891490925e-001	-1.416649654805360e+000
 2.751582148273362e-001	 9.613989581649598e-001	-1.417105114310794e+000
 3.772970772964199e-001	 9.530330085972488e-001	-4.806506451279253e-001
 3.678253910496041e-001	 9.567285308306593e-001	-5.401879867486917e-001
 3.583375305287336e-001	 9.603224532492585e-001	-5.944187553638297e-001
 3.488350526458335e-001	 9.638148712484377e-001	-6.432226428204805e-001
 3.393195054512463e-001	 9.672059104494433e-001	-6.864832725437314e-001
 3.297924274421272e-001	 9.704957263088508e-001	-7.240883030442937e-001
 3.202553468872610e-001	 9.736845037104360e-001	-7.559295241436089e-001
 3.107097811686687e-001	 9.767724565401572e-001	-7.819029458649458e-001
 3.011572361404364e-001	 9.797598272449696e-001	-8.019088799563784e-001
 2.915992055051700e-001	 9.826468863761855e-001	-8.158520140292542e-001
 2.820371702084442e-001	 9.854339321181277e-001	-8.236414783131637e-001
 3.864994450383867e-001	 9.762777161194137e-001	 1.235477314923841e-001
 3.767967420559097e-001	 9.800633730417054e-001	 5.771243612850076e-002
 3.670774703045501e-001	 9.837449521049575e-001	-3.064430308537407e-003
 3.573432246697982e-001	 9.873225510312769e-001	-5.866962779685853e-002
 3.475955909593246e-001	 9.907962985058436e-001	-1.089936348069818e-001
 3.378361451946069e-001	 9.941663537768565e-001	-1.539307486090756e-001
 3.280664529192808e-001	 9.974329062374506e-001	-1.933791785350448e-001
 3.182880685246871e-001	 1.000596174990316e+000	-2.272411321432361e-001
 3.085025345930623e-001	 1.003656408395746e+000	-2.554228942517631e-001
 2.987113812587859e-001	 1.006613883603867e+000	-2.778348988236786e-001
 2.889161255880585e-001	 1.009468906071790e+000	-2.943917937027810e-001
 3.957018127798380e-001	 9.995224236425787e-001	 6.825382428630277e-001
 3.857680930614206e-001	 1.003398215253747e+000	 6.089228715766679e-001
 3.758174100793333e-001	 1.007167450961636e+000	 5.401297029160012e-001
 3.658513966925321e-001	 1.010830230815070e+000	 4.762656330717244e-001
 3.558716764660148e-001	 1.014386686563162e+000	 4.174340347872047e-001
 3.458798629455820e-001	 1.017836981245734e+000	 3.637346597870667e-001
 3.358775589497192e-001	 1.021181308765282e+000	 3.152635480473833e-001
 3.258663558790867e-001	 1.024419893441224e+000	 2.721129439592646e-001
 3.158478330440720e-001	 1.027552989547198e+000	 2.343712194196863e-001
 3.058235570108274e-001	 1.030580880832138e+000	 2.021228038690160e-001
 2.957950809661792e-001	 1.033503880025945e+000	 1.754481212745870e-001
 4.049041805207738e-001	 1.022767131166744e+000	 1.199911285845140e+000
 3.947394440661366e-001	 1.026733057466782e+000	 1.117114668731428e+000
 3.845573498530832e-001	 1.030589949819293e+000	 1.038915408911382e+000
 3.743595687140353e-001	 1.034337910599817e+000	 9.654147540057428e-001
 3.641477619713173e-001	 1.037977074621398e+000	 8.967106057487534e-001
 3.539235806950523e-001	 1.041507608715483e+000	 8.328974247044324e-001
 3.436886649785759e-001	 1.044929711293928e+000	 7.740661416513014e-001
 3.334446432318680e-001	 1.048243611892883e+000	 7.203040756893678e-001
 3.231931314934658e-001	 1.051449570699323e+000	 6.716948591036154e-001
 3.129357327612944e-001	 1.054547878060998e+000	 6.283183690027331e-001
 3.026740363428060e-001	 1.057538853980594e+000	 5.902506657350743e-001
 4.141065482611941e-001	 1.046011838691909e+000	 1.678947320415750e+000
 4.037107950700578e-001	 1.050067899680813e+000	 1.585641561210982e+000
 3.932972896257999e-001	 1.054012448677930e+000	 1.496719215156632e+000
 3.828677407343075e-001	 1.057845590385517e+000	 1.412276550563192e+000
 3.724238474752317e-001	 1.061567462680552e+000	 1.332406650423043e+000
 3.619672984430177e-001	 1.065178236186105e+000	 1.257199318977045e+000
 3.514997710058511e-001	 1.068678113823391e+000	 1.186740994810030e+000
 3.410229305830306e-001	 1.072067330345292e+000	 1.121114670527798e+000
 3.305384299412434e-001	 1.075346151852123e+000	 1.060399819051756e+000
 3.200479085101872e-001	 1.078514875290446e+000	 1.004672326549890e+000
 3.095529917179391e-001	 1.081573827935737e+000	 9.540044320063625e-001
 4.233089160010993e-001	 1.069256546218074e+000	 2.122650558458957e+000
 4.126821460731842e-001	 1.073402741895839e+000	 2.017574190541826e+000
 4.020372293974833e-001	 1.077434947537546e+000	 1.916677763868753e+000
 3.913759127533488e-001	 1.081353270172171e+000	 1.820053213407285e+000
 3.806999329777581e-001	 1.085157850740624e+000	 1.727789432812872e+000
 3.700110161894784e-001	 1.088848863657598e+000	 1.639972182421972e+000
 3.593108770315449e-001	 1.092426516353670e+000	 1.556684003663913e+000
 3.486012179325746e-001	 1.095891048798451e+000	 1.478004139946095e+000
 3.378837283874051e-001	 1.099242733005597e+000	 1.404008464048087e+000
 3.271600842575055e-001	 1.102481872520484e+000	 1.334769412043985e+000
 3.164319470915787e-001	 1.105608801891373e+000	 1.270355923757327e+000
 4.325112837404888e-001	 1.092501253745239e+000	 2.533778351859857e+000
 4.216534970755158e-001	 1.096737584111859e+000	 2.415730222337476e+000
 4.107771691681337e-001	 1.100857446398142e+000	 2.301668650859744e+000
 3.998840847711594e-001	 1.104860949959779e+000	 2.191681864145228e+000
 3.889760184788967e-001	 1.108748238801614e+000	 2.085855175422846e+000
 3.780547339344343e-001	 1.112519491129963e+000	 1.984270893436301e+000
 3.671219830556570e-001	 1.116174918884764e+000	 1.887008237789121e+000
 3.561795052805002e-001	 1.119714767252360e+000	 1.794143260684634e+000
 3.452290268319506e-001	 1.123139314159746e+000	 1.705748775096585e+000
 3.342722600032496e-001	 1.126448869751110e+000	 1.621894289392097e+000
 3.233109024637242e-001	 1.129643775847504e+000	 1.542645948409026e+000
 4.417136514793630e-001	 1.115745961273404e+000	 2.914866907087195e+000
 4.306248480770524e-001	 1.120072426328874e+000	 2.782700697955796e+000
 4.195171089377507e-001	 1.124279945259717e+000	 2.654337409536489e+000
 4.083922567877390e-001	 1.128368629748340e+000	 2.529862166688293e+000
 3.972521039786471e-001	 1.132338626863521e+000	 2.409357292748761e+000
 3.860984516778855e-001	 1.136190118603200e+000	 2.292902219145240e+000
 3.749330890781875e-001	 1.139923321416674e+000	 2.180573401298174e+000
 3.637577926268073e-001	 1.143538485707019e+000	 2.072444240870024e+000
 3.525743252748801e-001	 1.147035895314569e+000	 1.968585014398952e+000
 3.413844357474192e-001	 1.150415866982325e+000	 1.869062808336609e+000
 3.301898578343763e-001	 1.153678749804127e+000	 1.773941460494330e+000
 4.509160192177217e-001	 1.138990668802569e+000	 3.268253851051489e+000
 4.395961990777943e-001	 1.143407268546884e+000	 3.120873159422139e+000
 4.282570487063345e-001	 1.147702444122272e+000	 2.977121190737836e+000
 4.169004288030878e-001	 1.151876309537856e+000	 2.837080557628289e+000
 4.055281894770098e-001	 1.155929014926346e+000	 2.700831167604323e+000
 3.941421694198319e-001	 1.159860746077309e+000	 2.568450132878426e+000
 3.827441950991367e-001	 1.163671723949401e+000	 2.440011686458199e+000
 3.713360799714958e-001	 1.167362204162428e+000	 2.315587104567863e+000
 3.599196237161937e-001	 1.170932476470067e+000	 2.195244635436228e+000
 3.484966114900147e-001	 1.174382864214129e+000	 2.079049434472059e+000
 3.370688132035346e-001	 1.177713723761245e+000	 1.967063505830498e+000
 4.601183869555650e-001	 1.162235376332733e+000	 3.596098089060428e+000
 4.485675500777414e-001	 1.166742110765889e+000	 3.432451999362671e+000
 4.369969884738851e-001	 1.171124942985806e+000	 3.272269600990738e+000
 4.254086008172057e-001	 1.175383989328324e+000	 3.115631568969318e+000
 4.138042749739843e-001	 1.179519402990089e+000	 2.962615954289637e+000
 4.021858871602735e-001	 1.183531373552289e+000	 2.813298093549349e+000
 3.905553011185042e-001	 1.187420126482944e+000	 2.667750524875886e+000
 3.789143673145657e-001	 1.191185922618588e+000	 2.526042910188802e+000
 3.672649221558911e-001	 1.194829057626238e+000	 2.388241963841166e+000
 3.556087872310356e-001	 1.198349861446522e+000	 2.254411387660033e+000
 3.439477685711992e-001	 1.201748697718857e+000	 2.124611812391052e+000
 2.751582148273362e-001	 9.613989581649598e-001	-1.417105114310794e+000
 2.658269247236917e-001	 9.640207705404181e-001	-1.417459901502079e+000
 2.564945776709277e-001	 9.665456696725904e-001	-1.416222790487252e+000
 2.471625777918796e-001	 9.689740244583481e-001	-1.413337544997431e+000
 2.378323145820488e-001	 9.713062287851813e-001	-1.408747799489774e+000
 2.285051624109132e-001	 9.735427010105087e-001	-1.402397155873099e+000
 2.191824800423044e-001	 9.756838834310223e-001	-1.394229277794742e+000
 2.098656101739950e-001	 9.777302417428043e-001	-1.384187982381535e+000
 2.005558789966087e-001	 9.796822644929403e-001	-1.372217329336981e+000
 1.912545957719429e-001	 9.815404625233627e-001	-1.358261707307703e+000
 1.819630524307584e-001	 9.833053684076398e-001	-1.342265917439408e+000
 2.820371702084442e-001	 9.854339321181277e-001	-8.236414783131637e-001
 2.724725978510110e-001	 9.881212898035869e-001	-8.371477779417097e-001
 2.629069421207347e-001	 9.907093114145075e-001	-8.485011184896933e-001
 2.533416422435218e-001	 9.931983750701839e-001	-8.576485363353005e-001
 2.437781224522615e-001	 9.955888845052953e-001	-8.645374325661382e-001
 2.342177914756684e-001	 9.978812685361966e-001	-8.691156574307595e-001
 2.246620420466706e-001	 1.000075980516999e+000	-8.713315919297212e-001
 2.151122504304847e-001	 1.002173497786187e+000	-8.711342264679139e-001
 2.055697759725002e-001	 1.004174321104526e+000	-8.684732365027647e-001
 1.960359606660596e-001	 1.006078974084998e+000	-8.632990551283192e-001
 1.865121287401930e-001	 1.007888002615511e+000	-8.555629425477855e-001
 2.889161255880585e-001	 1.009468906071790e+000	-2.943917937027810e-001
 2.791182709769418e-001	 1.012221809067160e+000	-3.215839075261597e-001
 2.693193065692688e-001	 1.014872953156760e+000	-3.460866158608677e-001
 2.595207066940171e-001	 1.017422725682307e+000	-3.678496966347189e-001
 2.497239303214633e-001	 1.019871540225668e+000	-3.868237823453801e-001
 2.399304205395593e-001	 1.022219836062135e+000	-4.029604327821917e-001
 2.301416040503285e-001	 1.024468077603237e+000	-4.162122044540652e-001
 2.203588906864322e-001	 1.026616753829864e+000	-4.265327166773683e-001
 2.105836729480255e-001	 1.028666377716458e+000	-4.338767142848652e-001
 2.008173255599959e-001	 1.030617485647049e+000	-4.382001269275633e-001
 1.910612050496423e-001	 1.032470636823890e+000	-4.394601249499606e-001
 2.957950809661792e-001	 1.033503880025945e+000	 1.754481212745870e-001
 2.857639441014841e-001	 1.036322328331137e+000	 1.340566607178366e-001
 2.757316710165300e-001	 1.039036594899347e+000	 9.586859882668830e-002
 2.656997711433655e-001	 1.041647076294715e+000	 6.093192321956997e-002
 2.556697381896544e-001	 1.044154195946299e+000	 2.929328014745138e-002
 2.456430496025855e-001	 1.046558403588324e+000	 9.979129934549272e-004
 2.356211660532782e-001	 1.048860174689739e+000	-2.391039549085552e-002
 2.256055309418377e-001	 1.051060009873835e+000	-4.538937719386859e-002
 2.155975699231846e-001	 1.053158434328735e+000	-6.339832888788415e-002
 2.055986904537516e-001	 1.055155997209519e+000	-7.789815870962551e-002
 1.956102813591062e-001	 1.057053271032776e+000	-8.885142888706558e-002
 3.026740363428060e-001	 1.057538853980594e+000	 5.902506657350743e-001
 2.924096172246379e-001	 1.060422847595518e+000	 5.341648272543197e-001
 2.821440354625185e-001	 1.063200236642269e+000	 4.817759055140726e-001
 2.718788355915670e-001	 1.065871426907412e+000	 4.331301392361962e-001
 2.616155460568347e-001	 1.068436851667188e+000	 3.882719410562711e-001
 2.513556786647472e-001	 1.070896971114763e+000	 3.472438467680273e-001
 2.411007280555194e-001	 1.073252271776503e+000	 3.100864687596298e-001
 2.308521711967009e-001	 1.075503265918101e+000	 2.768384536322368e-001
 2.206114668979776e-001	 1.077650490941359e+000	 2.475364439809447e-001
 2.103800553473268e-001	 1.079694508772404e+000	 2.222150443087073e-001
 2.001593576685848e-001	 1.081635905242169e+000	 2.009067910339532e-001
 3.095529917179391e-001	 1.081573827935737e+000	 9.540044320063625e-001
 2.990552903464032e-001	 1.084523366860303e+000	 8.827456698728265e-001
 2.885563999072340e-001	 1.087363878385527e+000	 8.156586828220946e-001
 2.780579000386214e-001	 1.090095777520394e+000	 7.527884268857137e-001
 2.675613539230041e-001	 1.092719507388336e+000	 6.941775484532357e-001
 2.570683077260444e-001	 1.095235538641453e+000	 6.398663438146636e-001
 2.465802900570525e-001	 1.097644368863529e+000	 5.898927233625172e-001
 2.360988114510221e-001	 1.099946521962661e+000	 5.442921804148971e-001
 2.256253638724045e-001	 1.102142547554328e+000	 5.030977646131269e-001
 2.151614202407214e-001	 1.104233020335707e+000	 4.663400598337730e-001
 2.047084339780781e-001	 1.106218539452070e+000	 4.340471665489272e-001
 3.164319470915787e-001	 1.105608801891373e+000	 1.270355923757327e+000
 3.057009634667799e-001	 1.108623886125492e+000	 1.183460380936347e+000
 2.949687643506767e-001	 1.111527520129120e+000	 1.101194482108468e+000
 2.842369644845290e-001	 1.114320128133663e+000	 1.023602349420374e+000
 2.735071617881628e-001	 1.117002163109742e+000	 9.507253121297651e-001
 2.627809367864770e-001	 1.119574106168393e+000	 8.826018760258779e-001
 2.520598520578772e-001	 1.122036465950818e+000	 8.192676979896376e-001
 2.413454517048012e-001	 1.124389778007516e+000	 7.607555656283002e-001
 2.306392608464651e-001	 1.126634604167643e+000	 7.070953819083781e-001
 2.199427851339355e-001	 1.128771531899427e+000	 6.583141546996534e-001
 2.092575102875861e-001	 1.130801173662478e+000	 6.144359911343982e-001
 3.233109024637242e-001	 1.129643775847504e+000	 1.542645948409026e+000
 3.123466365857683e-001	 1.132724405391085e+000	 1.439662850937752e+000
 3.013811287928464e-001	 1.135691161873047e+000	 1.341751817602541e+000
 2.904160289292896e-001	 1.138544478747219e+000	 1.248956569812797e+000
 2.794529696523108e-001	 1.141284818831407e+000	 1.161317552350620e+000
 2.684935658460451e-001	 1.143912673695583e+000	 1.078871912273622e+000
 2.575394140579937e-001	 1.146428563038369e+000	 1.001653483451436e+000
 2.465920919580381e-001	 1.148833034052665e+000	 9.296927766434384e-001
 2.356531578201596e-001	 1.151126660781304e+000	 8.630169750126849e-001
 2.247241500269691e-001	 1.153310043463564e+000	 8.016499349614936e-001
 2.138065865971087e-001	 1.155383807873393e+000	 7.456121921636048e-001
 3.301898578343763e-001	 1.153678749804127e+000	 1.773941460494330e+000
 3.189923097033681e-001	 1.156824924657083e+000	 1.654431679111810e+000
 3.077934932337433e-001	 1.159854803617310e+000	 1.540422357773242e+000
 2.965950933729034e-001	 1.162768829361061e+000	 1.431957236202114e+000
 2.853987775154478e-001	 1.165567474553330e+000	 1.329076292513126e+000
 2.742061949047486e-001	 1.168251241223025e+000	 1.231815731224499e+000
 2.630189760574019e-001	 1.170820660126182e+000	 1.140207977412089e+000
 2.518387322107329e-001	 1.173276290098108e+000	 1.054281676885230e+000
 2.406670547934879e-001	 1.175618717395311e+000	 9.740617022514837e-001
 2.295055149198221e-001	 1.177848555028118e+000	 8.995691647275910e-001
 2.183556629066459e-001	 1.179966442084816e+000	 8.308214315429521e-001
 3.370688132035346e-001	 1.177713723761245e+000	 1.967063505830498e+000
 3.256379828195793e-001	 1.180925443923485e+000	 1.830598264380113e+000
 3.142058576733674e-001	 1.184018445361908e+000	 1.700049174896990e+000
 3.027741578153701e-001	 1.186993179975190e+000	 1.575460401775487e+000
 2.913445853775742e-001	 1.189850130275511e+000	 1.456871860868896e+000
 2.799188239625876e-001	 1.192589808750716e+000	 1.344319216259098e+000
 2.684985380561019e-001	 1.195212757214259e+000	 1.237833883690583e+000
 2.570853724628856e-001	 1.197719546143846e+000	 1.137443040521303e+000
 2.456809517664501e-001	 1.200110774009664e+000	 1.043169642030061e+000
 2.342868798124946e-001	 1.202387066593088e+000	 9.550324439090292e-001
 2.229047392161979e-001	 1.204549076296746e+000	 8.730460307598879e-001
 3.439477685711992e-001	 1.201748697718857e+000	 2.124611812391052e+000
 3.322836559344022e-001	 1.205025963190290e+000	 1.970771525382806e+000
 3.206182221117185e-001	 1.208182087106841e+000	 1.823251604677176e+000
 3.089532222566899e-001	 1.211217530589606e+000	 1.682097034263500e+000
 2.972903932386897e-001	 1.214132785997952e+000	 1.547348060038659e+000
 2.856314530195621e-001	 1.216928376278658e+000	 1.419040195000795e+000
 2.739781000540936e-001	 1.219604854302598e+000	 1.297204231645498e+000
 2.623320127144961e-001	 1.222162802189878e+000	 1.181866261388144e+000
 2.506948487390460e-001	 1.224602830624363e+000	 1.073047700826162e+000
 2.390682447049865e-001	 1.226925578158476e+000	 9.707653246401943e-001
 2.274538155257646e-001	 1.229131710509183e+000	 8.750313049253905e-001
 1.819630524307584e-001	 9.833053684076398e-001	-1.342265917439408e+000
 1.726825231903044e-001	 9.849775358802030e-001	-1.326350092163672e+000
 1.634142641909075e-001	 9.865575392624050e-001	-1.310075922837178e+000
 1.541595131519813e-001	 9.880459728836374e-001	-1.293429317333811e+000
 1.449194890479376e-001	 9.894434504957537e-001	-1.276394549544661e+000
 1.356953918032302e-001	 9.907506046851591e-001	-1.258954339646414e+000
 1.264884020066532e-001	 9.919680862820068e-001	-1.241089933821696e+000
 1.172996806447692e-001	 9.930965637671554e-001	-1.222781183323363e+000
 1.081303688543234e-001	 9.941367226775286e-001	-1.204006622784564e+000
 9.898158769347724e-002	 9.950892650105072e-001	-1.184743547677211e+000
 8.985443793167208e-002	 9.959549086279671e-001	-1.164968090831118e+000
 1.865121287401930e-001	 1.007888002615511e+000	-8.555629425477855e-001
 1.769995862676611e-001	 1.009601974274025e+000	-8.523381178827145e-001
 1.674996207923786e-001	 1.011221477740089e+000	-8.479833112882084e-001
 1.580135009767427e-001	 1.012747122201329e+000	-8.424869823778948e-001
 1.485424762695243e-001	 1.014179536753393e+000	-8.358365998820546e-001
 1.390877765932872e-001	 1.015519369797345e+000	-8.280187056709364e-001
 1.296506120515437e-001	 1.016767288434090e+000	-8.190189777933346e-001
 1.202321726555193e-001	 1.017923977856507e+000	-8.088222924607907e-001
 1.108336280703761e-001	 1.018990140739942e+000	-7.974127849155649e-001
 1.014561273807281e-001	 1.019966496631707e+000	-7.847739091235187e-001
 9.210079887525120e-002	 1.020853781340225e+000	-7.708884962403066e-001
 1.910612050496423e-001	 1.032470636823890e+000	-4.394601249499606e-001
 1.813166493452170e-001	 1.034226412668443e+000	-4.489431167731477e-001
 1.715849773942018e-001	 1.035885416218438e+000	-4.565576482398658e-001
 1.618674888019788e-001	 1.037448271519734e+000	-4.622943534666844e-001
 1.521654634916776e-001	 1.038915623011773e+000	-4.661435091274261e-001
 1.424801613839724e-001	 1.040288134910280e+000	-4.680950827057316e-001
 1.328128220970941e-001	 1.041566490586910e+000	-4.681387793221959e-001
 1.231646646669311e-001	 1.042751391946564e+000	-4.662640871044552e-001
 1.135368872870629e-001	 1.043843558803008e+000	-4.624603210741131e-001
 1.039306670685564e-001	 1.044843728253489e+000	-4.567166655305355e-001
 9.434715981932204e-002	 1.045752654052973e+000	-4.490222149136368e-001
 1.956102813591062e-001	 1.057053271032776e+000	-8.885142888706558e-002
 1.856337124229718e-001	 1.058850851063458e+000	-1.110694536269727e-001
 1.756703339963775e-001	 1.060549354697454e+000	-1.307108459082615e-001
 1.657214766276897e-001	 1.062149420838853e+000	-1.477680580610804e-001
 1.557884507143976e-001	 1.063651709270896e+000	-1.622338101688113e-001
 1.458725461752858e-001	 1.065056900023964e+000	-1.741011229809818e-001
 1.359750321433044e-001	 1.066365692740468e+000	-1.833633489566101e-001
 1.260971566790045e-001	 1.067578806037326e+000	-1.900142014412047e-001
 1.162401465043838e-001	 1.068696976866728e+000	-1.940477819910557e-001
 1.064052067569619e-001	 1.069720959875853e+000	-1.954586058573598e-001
 9.659352076388458e-002	 1.070651526766214e+000	-1.942416256515707e-001
 2.001593576685848e-001	 1.081635905242169e+000	 2.009067910339532e-001
 1.899507755009255e-001	 1.083475289459071e+000	 1.659168260987582e-001
 1.797556905989053e-001	 1.085213293177134e+000	 1.341839684443610e-001
 1.695754644538752e-001	 1.086850570158686e+000	 1.057142848600705e-001
 1.594114379376842e-001	 1.088387795530760e+000	 8.051295612768544e-002
 1.492649309672275e-001	 1.089825665138398e+000	 5.858425905455222e-002
 1.391372421901744e-001	 1.091164894894763e+000	 3.993155082792642e-002
 1.290296486917398e-001	 1.092406220128793e+000	 2.455725564746506e-002
 1.189434057223388e-001	 1.093550394931100e+000	 1.246285358955971e-002
 1.088797464459448e-001	 1.094598191498799e+000	 3.648871651271720e-003
 9.883988170893882e-002	 1.095550399479947e+000	-1.885123080230499e-003
 2.047084339780781e-001	 1.106218539452070e+000	 4.340471665489272e-001
 1.942678385790784e-001	 1.108099727855280e+000	 3.862392941342708e-001
 1.838410472017855e-001	 1.109877231657481e+000	 3.423436986260475e-001
 1.734294522805354e-001	 1.111551719479234e+000	 3.023652860802938e-001
 1.630344251615375e-001	 1.113123881791367e+000	 2.663074640268274e-001
 1.526573157597974e-001	 1.114594430253582e+000	 2.341721380918554e-001
 1.422994522377043e-001	 1.115964097049795e+000	 2.059597113981951e-001
 1.319621407051366e-001	 1.117233634220965e+000	 1.816690866632071e-001
 1.216466649409279e-001	 1.118403812996127e+000	 1.612976709120403e-001
 1.113542861355051e-001	 1.119475423122327e+000	 1.448413827188687e-001
 1.010862426544848e-001	 1.120449272194170e+000	 1.322946618845748e-001
 2.092575102875861e-001	 1.130801173662478e+000	 6.144359911343982e-001
 1.985849016574302e-001	 1.132724166252086e+000	 5.537557462254865e-001
 1.879264038050179e-001	 1.134541170138493e+000	 4.976198413562138e-001
 1.772834401076705e-001	 1.136252868800495e+000	 4.460323263889255e-001
 1.666574123859573e-001	 1.137859968052715e+000	 3.989951447582419e-001
 1.560497005529956e-001	 1.139363195369515e+000	 3.565081443594240e-001
 1.454616622858941e-001	 1.140763299205564e+000	 3.185690916765888e-001
 1.348946327191952e-001	 1.142061048313842e+000	 2.851736890356167e-001
 1.243499241601511e-001	 1.143257231061806e+000	 2.563155948622428e-001
 1.138288258256426e-001	 1.144352654746438e+000	 2.319864468226882e-001
 1.033326036005224e-001	 1.145348144908886e+000	 2.121758877204329e-001
 2.138065865971087e-001	 1.155383807873393e+000	 7.456121921636048e-001
 2.029019647359810e-001	 1.157348604649489e+000	 6.719971144730136e-001
 1.920117604086025e-001	 1.159205108620171e+000	 6.035373593604758e-001
 1.811374279352802e-001	 1.160954018122470e+000	 5.402364108363921e-001
 1.702803996109438e-001	 1.162596054314805e+000	 4.820950421588240e-001
 1.594420853468219e-001	 1.164131960486198e+000	 4.291113406939220e-001
 1.486238723347437e-001	 1.165562501362070e+000	 3.812807364859855e-001
 1.378271247339154e-001	 1.166888462407424e+000	 3.385960343854925e-001
 1.270531833800084e-001	 1.168110649128140e+000	 3.010474495798476e-001
 1.163033655163575e-001	 1.169229886371130e+000	 2.686226463688317e-001
 1.055789645470518e-001	 1.170247017624094e+000	 2.413067800221800e-001
 2.183556629066459e-001	 1.179966442084816e+000	 8.308214315429521e-001
 2.072190278147308e-001	 1.181973043047488e+000	 7.442015156292550e-001
 1.960971170125395e-001	 1.183869047102514e+000	 6.633286953288512e-001
 1.849914157633647e-001	 1.185655167445159e+000	 5.882061662073350e-001
 1.739033868364968e-001	 1.187332140577637e+000	 5.188338113595531e-001
 1.628344701412766e-001	 1.188900725603630e+000	 4.552082399771252e-001
 1.517860823842531e-001	 1.190361703519314e+000	 3.973228301020941e-001
 1.407596167492974e-001	 1.191715876501712e+000	 3.451677753797794e-001
 1.297564426004998e-001	 1.192964067195125e+000	 2.987301356197020e-001
 1.187779052076498e-001	 1.194107117996405e+000	 2.579938909701925e-001
 1.078253254940729e-001	 1.195145890339793e+000	 2.229399995103055e-001
 2.229047392161979e-001	 1.204549076296746e+000	 8.730460307598879e-001
 2.115360908936796e-001	 1.206597481446085e+000	 7.733441302158840e-001
 2.001824736168288e-001	 1.208532985585524e+000	 6.799636208992788e-001
 1.888454035919239e-001	 1.210356316768561e+000	 5.929076755376059e-001
 1.775263740626165e-001	 1.212068226841211e+000	 5.121755543679708e-001
 1.662268549363594e-001	 1.213669490721812e+000	 4.377626571721360e-001
 1.549482924344223e-001	 1.215160905677295e+000	 3.696605799826784e-001
 1.436921087653411e-001	 1.216543290596704e+000	 3.078571762371921e-001
 1.324597018216253e-001	 1.217817485262765e+000	 2.523366221539544e-001
 1.212524448995194e-001	 1.218984349622261e+000	 2.030794860989146e-001
 1.100716864415856e-001	 1.220044763055984e+000	 1.600628017116099e-001
 2.274538155257646e-001	 1.229131710509183e+000	 8.750313049253905e-001
 2.158531539728275e-001	 1.231221919845279e+000	 7.621634961472182e-001
 2.042678302214702e-001	 1.233196924069199e+000	 6.561755037631244e-001
 1.926993914209578e-001	 1.235057466092679e+000	 5.570707324896643e-001
 1.811493612893029e-001	 1.236804313105527e+000	 4.648480753807930e-001
 1.696192397320706e-001	 1.238438255840743e+000	 3.795019791154730e-001
 1.581105024852513e-001	 1.239960107836013e+000	 3.010225144494285e-001
 1.466246007820464e-001	 1.241370704692402e+000	 2.293954515727749e-001
 1.351629610433849e-001	 1.242670903331058e+000	 1.646023401104355e-001
 1.237269845919663e-001	 1.243861581248700e+000	 1.066205935000170e-001
 1.123180473895901e-001	 1.244943635772666e+000	 5.542357747847342e-002
 8.985443793167208e-002	 9.959549086279671e-001	-1.164968090831118e+000
 8.074999985732721e-002	 9.967343866612564e-001	-1.142577274186696e+000
 7.166933310492567e-002	 9.974284469156016e-001	-1.123134052506263e+000
 6.261347650004133e-002	 9.980378512759270e-001	-1.106635794477918e+000
 5.358344792087624e-002	 9.985633751160036e-001	-1.093075575899641e+000
 4.458024417780558e-002	 9.990058067093818e-001	-1.082442307240116e+000
 3.560484091004575e-002	 9.993659466433188e-001	-1.074720862296065e+000
 2.665819249913583e-002	 9.996446072361989e-001	-1.069892207734215e+000
 1.774123199891268e-002	 9.998426119589265e-001	-1.067933533316372e+000
 8.854871081647956e-003	 9.999607948607566e-001	-1.068818382607387e+000
 0.000000000000000e+000	 1.000000000000000e+000	-1.072516783976200e+000
 9.210079887525120e-002	 1.020853781340225e+000	-7.708884962403066e-001
 8.276874984949990e-002	 1.021652746325009e+000	-7.591595723849776e-001
 7.346106642874500e-002	 1.022364158086303e+000	-7.490294759003630e-001
 6.417881340919973e-002	 1.022988797556156e+000	-7.405010705518386e-001
 5.492303411602096e-002	 1.023527459492682e+000	-7.335739245083143e-001
 4.569475027984318e-002	 1.023980951876270e+000	-7.282444093479733e-001
 3.649496193086310e-002	 1.024350095308862e+000	-7.245057997250592e-001
 2.732464731015816e-002	 1.024635722416802e+000	-7.223483735447002e-001
 1.818476279791106e-002	 1.024838677257766e+000	-7.217595124963165e-001
 9.076242858200107e-003	 1.024959814732242e+000	-7.227238028021423e-001
 0.000000000000000e+000	 1.025000000000000e+000	-7.252231360408789e-001
 9.434715981932204e-002	 1.045752654052973e+000	-4.490222149136368e-001
 8.478749984206953e-002	 1.046571105989159e+000	-4.473170051998118e-001
 7.525279975287695e-002	 1.047299869257318e+000	-4.459230943023805e-001
 6.574415031859660e-002	 1.047939743836623e+000	-4.448484272588869e-001
 5.626262031134028e-002	 1.048491543869534e+000	-4.440986273652730e-001
 4.680925638200162e-002	 1.048956097043280e+000	-4.436770673851629e-001
 3.738508295175753e-002	 1.049334243974483e+000	-4.435849409906377e-001
 2.799110212122371e-002	 1.049626837597447e+000	-4.438213343334552e-001
 1.862829359692857e-002	 1.049834742556624e+000	-4.443832976538069e-001
 9.297614634757019e-003	 1.049958834603733e+000	-4.452659168356746e-001
 0.000000000000000e+000	 1.050000000000000e+000	-4.464623848190080e-001
 9.659352076388458e-002	 1.070651526766214e+000	-1.942416256515707e-001
 8.680624983503614e-002	 1.071489465653705e+000	-2.019724973658003e-001
 7.704453307732150e-002	 1.072235580428645e+000	-2.087835444695129e-001
 6.730948722823200e-002	 1.072890690117329e+000	-2.146874098333256e-001
 5.760220650683426e-002	 1.073455628246560e+000	-2.196953672444089e-001
 4.792376248428092e-002	 1.073931242210410e+000	-2.238173655105981e-001
 3.827520397272902e-002	 1.074318392640181e+000	-2.270620723651755e-001
 2.865755693233245e-002	 1.074617952778136e+000	-2.294369181302065e-001
 1.907182439596521e-002	 1.074830807855502e+000	-2.309481390947009e-001
 9.518986411318698e-003	 1.074957854475228e+000	-2.316008205704503e-001
 0.000000000000000e+000	 1.075000000000000e+000	-2.313989395875956e-001
 9.883988170893882e-002	 1.095550399479947e+000	-1.885123080230499e-003
 8.882499982839968e-002	 1.096407825318649e+000	-1.851047544097935e-002
 7.883626640207862e-002	 1.097171291600285e+000	-3.303687504855117e-002
 6.887482413810593e-002	 1.097841636398273e+000	-4.548130685407891e-002
 5.894179270250285e-002	 1.098419712623762e+000	-5.586032024132667e-002
 4.903826858668107e-002	 1.098906387377661e+000	-6.419004665000018e-002
 3.916532499377761e-002	 1.099302541305955e+000	-7.048621657387524e-002
 2.932401174348439e-002	 1.099609067958868e+000	-7.476417594370882e-002
 1.951535519502098e-002	 1.099826873154398e+000	-7.703890190446708e-002
 9.740358187885141e-003	 1.099956874346727e+000	-7.732501800003844e-002
 0.000000000000000e+000	 1.100000000000000e+000	-7.563680877937282e-002
 1.010862426544848e-001	 1.120449272194170e+000	 1.322946618845748e-001
 9.084374982216018e-002	 1.121326184983990e+000	 1.072744101731235e-001
 8.062799972714832e-002	 1.122107002772237e+000	 8.548427696689162e-002
 7.044016104821836e-002	 1.122792582679455e+000	 6.690326568122705e-002
 6.028137889834608e-002	 1.123383797001138e+000	 5.150989904033333e-002
 5.015277468920207e-002	 1.123881532545033e+000	 3.928222736688834e-002
 4.005544601490324e-002	 1.124286689971807e+000	 3.019783792241477e-002
 2.999046655467953e-002	 1.124600183139644e+000	 2.423386523617787e-002
 1.995888599409588e-002	 1.124822938453314e+000	 2.136700236030231e-002
 9.961729964456352e-003	 1.124955894218232e+000	 2.157351298727290e-002
 0.000000000000000e+000	 1.125000000000000e+000	 2.482924436761080e-002
 1.033326036005224e-001	 1.145348144908886e+000	 2.121758877204329e-001
 9.286249981631764e-002	 1.146244544649727e+000	 1.792218747793032e-001
 8.241973305253061e-002	 1.147042713944502e+000	 1.505848806214725e-001
 7.200549795856930e-002	 1.147743528960876e+000	 1.262402042934152e-001
 6.162096509436395e-002	 1.148347881378689e+000	 1.061617634133461e-001
 5.126728079184391e-002	 1.148856677712526e+000	 9.032212786072152e-002
 4.094556703610597e-002	 1.149270838637736e+000	 7.869255494138840e-002
 3.065692136591787e-002	 1.149591298320462e+000	 7.124302591443232e-002
 2.040241679318992e-002	 1.149819003752249e+000	 6.794228376639100e-002
 1.018310174103233e-002	 1.149954914089742e+000	 6.875787211878960e-002
 0.000000000000000e+000	 1.150000000000000e+000	 7.365617515849963e-002
 1.055789645470518e-001	 1.170247017624094e+000	 2.413067800221800e-001
 9.488124981087207e-002	 1.171162904315862e+000	 2.008448966499252e-001
 8.421146637822551e-002	 1.171978425117080e+000	 1.657460635469975e-001
 7.357083486915875e-002	 1.172694475242536e+000	 1.359821613702698e-001
 6.296055129055644e-002	 1.173311965756415e+000	 1.115228025304229e-001
 5.238178689460660e-002	 1.173831822880139e+000	 9.233538981839297e-002
 4.183568805738575e-002	 1.174254987303742e+000	 7.838517693259926e-002
 3.132337617719941e-002	 1.174582413501324e+000	 6.963533074020532e-002
 2.084594759230309e-002	 1.174815069051203e+000	 6.604699510796905e-002
 1.040447351761307e-002	 1.174953933961256e+000	 6.757935613987817e-002
 0.000000000000000e+000	 1.175000000000000e+000	 7.418970866026046e-002
 1.078253254940729e-001	 1.195145890339793e+000	 2.229399995103055e-001
 9.689999980582342e-002	 1.196081263982393e+000	 1.753637521338813e-001
 8.600319970423299e-002	 1.196914136289970e+000	 1.341588454429489e-001
 7.513617177998672e-002	 1.197645421524434e+000	 9.929400809707652e-002
 6.430013748692355e-002	 1.198276050134314e+000	 7.073482612961678e-002
 5.349629299749016e-002	 1.198806968047874e+000	 4.844382609418894e-002
 4.272580907874261e-002	 1.199239135969825e+000	 3.238056053651283e-002
 3.198983098852416e-002	 1.199573528682229e+000	 2.250169557468921e-002
 2.128947839143539e-002	 1.199811134350176e+000	 1.876110037211937e-002
 1.062584529419858e-002	 1.199952953832775e+000	 2.110993829112038e-002
 0.000000000000000e+000	 1.200000000000000e+000	 2.949675951816241e-002
 1.100716864415856e-001	 1.220044763055984e+000	 1.600628017116099e-001
 9.891874980117174e-002	 1.220999623649321e+000	 1.057358831997289e-001
 8.779493303055304e-002	 1.221849847463172e+000	 5.875374092622113e-002
 7.670150869105320e-002	 1.222596367806571e+000	 1.908219988507974e-002
 6.563972368346532e-002	 1.223240134512389e+000	-1.331692087198853e-002
 5.461079910049455e-002	 1.223782113215730e+000	-3.848570094404660e-002
 4.361593010017655e-002	 1.224223284635984e+000	-5.647000853719746e-002
 3.265628579989210e-002	 1.224564643863177e+000	-6.731938793826617e-002
 2.173300919058682e-002	 1.224807199649169e+000	-7.108694477049778e-002
 1.084721707078885e-002	 1.224951973704298e+000	-6.782922929314475e-002
 0.000000000000000e+000	 1.225000000000000e+000	-5.760611800131391e-002
 1.123180473895901e-001	 1.244943635772666e+000	 5.542357747847342e-002
 1.009374997969171e-001	 1.245917983316647e+000	-5.317819126512156e-003
 8.958666635718569e-002	 1.246785558636688e+000	-5.777318996077348e-002
 7.826684560235818e-002	 1.247547314088946e+000	-1.019793820511667e-001
 6.697930988018169e-002	 1.248204218890639e+000	-1.379781018968936e-001
 5.572530520361981e-002	 1.248757258383706e+000	-1.658157843665473e-001
 4.450605112168756e-002	 1.249207433302222e+000	-1.855434584167128e-001
 3.332274061130324e-002	 1.249555759044168e+000	-1.972166099509041e-001
 2.217653998975738e-002	 1.249803264948180e+000	-2.008950421342881e-001
 1.106858884738389e-002	 1.249950993575827e+000	-1.966427334744611e-001
 0.000000000000000e+000	 1.250000000000000e+000	-1.845276939726135e-001
 1.250000000000000e+000	 0.000000000000000e+000	 2.001085669799896e+001
 1.249950993575827e+000	 1.106858884738393e-002	 2.002794652684273e+001
 1.249803264948180e+000	 2.217653998975746e-002	 2.003868028338472e+001
 1.249555759044169e+000	 3.332274061130316e-002	 2.004291499865827e+001
 1.249207433302221e+000	 4.450605112168753e-002	 2.004050827125502e+001
 1.248757258383706e+000	 5.572530520361980e-002	 2.003131842651950e+001
 1.248204218890639e+000	 6.697930988018173e-002	 2.001520468006025e+001
 1.247547314088946e+000	 7.826684560235826e-002	 1.999202730544851e+001
 1.246785558636687e+000	 8.958666635718562e-002	 1.996164780596069e+001
 1.245917983316646e+000	 1.009374997969170e-001	 1.992392909020705e+001
 1.244943635772666e+000	 1.123180473895901e-001	 1.987873565147378e+001
 1.275000000000000e+000	 0.000000000000000e+000	 1.933316321229379e+001
 1.274950013447356e+000	 1.128996062397897e-002	 1.935214027029271e+001
 1.274799330247192e+000	 2.262007078892803e-002	 1.936513654968211e+001
 1.274546874225160e+000	 3.398919542271432e-002	 1.937203335119532e+001
 1.274191581968459e+000	 4.539617214319854e-002	 1.937271137711265e+001
 1.273732403551682e+000	 5.683981130674506e-002	 1.936705076407829e+001
 1.273168303268888e+000	 6.831889607689813e-002	 1.935493111793728e+001
 1.272498260371322e+000	 7.983218251366328e-002	 1.933623155068760e+001
 1.271721269810203e+000	 9.137839968381828e-002	 1.931083071964319e+001
 1.270836342983972e+000	 1.029562497926623e-001	 1.927860686890446e+001
 1.269842508489349e+000	 1.145644083375946e-001	 1.923943787323364e+001
 1.300000000000000e+000	 0.000000000000000e+000	 1.871595684522669e+001
 1.299949033318879e+000	 1.151133240056925e-002	 1.873619533617635e+001
 1.299795395546183e+000	 2.306360158807946e-002	 1.875065721180638e+001
 1.299537989406108e+000	 3.465565023408224e-002	 1.875922018717325e+001
 1.299175730634619e+000	 4.628629316463247e-002	 1.876176112993429e+001
 1.298707548719537e+000	 5.795431740974946e-002	 1.875815608903510e+001
 1.298132387646963e+000	 6.965848227343988e-002	 1.874828032562047e+001
 1.297449206653458e+000	 8.139751942472973e-002	 1.873200834627978e+001
 1.296656980983405e+000	 9.317013301013835e-002	 1.870921393873882e+001
 1.295754702650900e+000	 1.049749997880106e-001	 1.867977021011082e+001
 1.294741381205540e+000	 1.168107692851074e-001	 1.864354962782043e+001
 1.325000000000000e+000	 0.000000000000000e+000	 1.815602189314663e+001
 1.324948053190397e+000	 1.173270417715475e-002	 1.817699254055699e+001
 1.324791460845157e+000	 2.350713238721176e-002	 1.819239190082324e+001
 1.324529104587013e+000	 3.532210504540698e-002	 1.820209439182060e+001
 1.324159879300702e+000	 4.717641418598934e-002	 1.820597333564036e+001
 1.323682693887272e+000	 5.906882351263301e-002	 1.820390098281000e+001
 1.323096472024863e+000	 7.099806846980700e-002	 1.819574853893280e+001
 1.322400152935356e+000	 8.296285633555769e-002	 1.818138619387382e+001
 1.321592692156295e+000	 9.496186633614581e-002	 1.816068315362075e+001
 1.320673062317432e+000	 1.069937497829620e-001	 1.813350767494939e+001
 1.319640253921239e+000	 1.190571302321284e-001	 1.809972710302417e+001
 1.350000000000000e+000	 0.000000000000000e+000	 1.765038085267265e+001
 1.349947073061912e+000	 1.195407595373549e-002	 1.767157252229965e+001
 1.349787526144111e+000	 2.395066318632493e-002	 1.768739970010207e+001
 1.349520219767875e+000	 3.598855985668854e-002	 1.769773379308403e+001
 1.349144027966708e+000	 4.806653520726913e-002	 1.770244486437495e+001
 1.348657839054886e+000	 6.018332961539571e-002	 1.770140165263898e+001
 1.348060556402588e+000	 7.233765466599949e-002	 1.769447159409187e+001
 1.347351099217016e+000	 8.452819324614716e-002	 1.768152084726875e+001
 1.346528403328873e+000	 9.675359966184070e-002	 1.766241432068888e+001
 1.345591421983566e+000	 1.090124997775164e-001	 1.763701570356375e+001
 1.344539126636447e+000	 1.213034911786578e-001	 1.760518749969697e+001
 1.375000000000000e+000	 0.000000000000000e+000	 1.719627276612386e+001
 1.374946092933421e+000	 1.217544773031147e-002	 1.721719067041331e+001
 1.374783591443046e+000	 2.439419398541897e-002	 1.723295263495645e+001
 1.374511334948693e+000	 3.665501466792687e-002	 1.724342734055467e+001
 1.374128176632636e+000	 4.895665622847185e-002	 1.724848187608685e+001
 1.373632984222379e+000	 6.129783571803756e-002	 1.724798175275822e+001
 1.373024640780139e+000	 7.367724086201738e-002	 1.724179092113676e+001
 1.372302045498437e+000	 8.609353015649812e-002	 1.722977179113850e+001
 1.371464114501138e+000	 9.854533298722303e-002	 1.721178525512466e+001
 1.370509781649304e+000	 1.110312497716739e-001	 1.718769071427537e+001
 1.369437999351162e+000	 1.235498521246955e-001	 1.715734610840607e+001
 1.400000000000000e+000	 0.000000000000000e+000	 1.679113388708199e+001
 1.399945112804926e+000	 1.239681950688268e-002	 1.681129794993091e+001
 1.399779656741962e+000	 2.483772478449388e-002	 1.682651665997043e+001
 1.399502450129468e+000	 3.732146947912201e-002	 1.683665625532126e+001
 1.399112325298488e+000	 4.984677724959750e-002	 1.684158113393988e+001
 1.398608129389751e+000	 6.241234182055857e-002	 1.684115386235035e+001
 1.397988725157516e+000	 7.501682705786059e-002	 1.683523518733671e+001
 1.397252991779620e+000	 8.765886706661052e-002	 1.682368405077498e+001
 1.396399825673091e+000	 1.003370663122927e-001	 1.680635760778545e+001
 1.395428141314644e+000	 1.130499997654344e-001	 1.678311124838904e+001
 1.394336872065386e+000	 1.257962130702414e-001	 1.675379862285182e+001
 1.425000000000000e+000	 0.000000000000000e+000	 1.643258038115782e+001
 1.424944132676425e+000	 1.261819128344913e-002	 1.645152374611780e+001
 1.424775722040858e+000	 2.528125558354965e-002	 1.646573464765904e+001
 1.424493565310201e+000	 3.798792429027395e-002	 1.647507716404931e+001
 1.424096473964263e+000	 5.073689827064606e-002	 1.647941328473248e+001
 1.423583274557002e+000	 6.352684792295871e-002	 1.647860291318068e+001
 1.422952809534717e+000	 7.635641325352920e-002	 1.647250387287266e+001
 1.422203938060564e+000	 8.922420397648445e-002	 1.646097191659525e+001
 1.421335536844730e+000	 1.021287996370498e-001	 1.644386073926792e+001
 1.420346500979588e+000	 1.150687497587979e-001	 1.642102199449243e+001
 1.419235744779119e+000	 1.280425740152957e-001	 1.639230531503147e+001
 1.450000000000000e+000	 0.000000000000000e+000	 1.611839281633357e+001
 1.449943152547921e+000	 1.283956306001081e-002	 1.613566048341723e+001
 1.449771787339736e+000	 2.572478638258629e-002	 1.614841113692254e+001
 1.449484680490890e+000	 3.865437910138269e-002	 1.615650697781060e+001
 1.449080622629961e+000	 5.162701929161755e-002	 1.615980786892915e+001
 1.448558419724132e+000	 6.464135402523800e-002	 1.615817133161589e+001
 1.447916893911744e+000	 7.769599944902315e-002	 1.615145254558602e+001
 1.447154884341269e+000	 9.078954088611986e-002	 1.613950435232022e+001
 1.446271248016057e+000	 1.039205329614944e-001	 1.612217726217174e+001
 1.445264860644134e+000	 1.170874997517645e-001	 1.609931946541428e+001
 1.444134617492359e+000	 1.302889349598582e-001	 1.607077684745466e+001
 1.475000000000000e+000	 0.000000000000000e+000	 1.584650223055853e+001
 1.474942172419411e+000	 1.306093483656772e-002	 1.586164980857086e+001
 1.474767852638594e+000	 2.616831718160380e-002	 1.587249863250521e+001
 1.474475795671536e+000	 3.932083391244823e-002	 1.587890930865890e+001
 1.474064771295581e+000	 5.251714031251197e-002	 1.588073985509559e+001
 1.473533564891141e+000	 6.575586012739645e-002	 1.587784569162378e+001
 1.472880978288596e+000	 7.903558564434252e-002	 1.587007963321087e+001
 1.472105830621736e+000	 9.235487779551677e-002	 1.585729188706753e+001
 1.471206959187071e+000	 1.057122662856263e-001	 1.583933005364166e+001
 1.470183220308284e+000	 1.191062497443342e-001	 1.581603913176322e+001
 1.469033490205108e+000	 1.325352959039290e-001	 1.578726152818466e+001
 1.500000000000000e+000	 0.000000000000000e+000	 1.561497759258516e+001
 1.499941192290897e+000	 1.328230661311987e-002	 1.562757015542723e+001
 1.499763917937433e+000	 2.661184798060218e-002	 1.563608527450840e+001
 1.499466910852138e+000	 3.998728872347057e-002	 1.564038224454816e+001
 1.499048919961125e+000	 5.340726133332932e-002	 1.564031752089008e+001
 1.498508710058030e+000	 6.687036622943404e-002	 1.563574470247324e+001
 1.497845062665274e+000	 8.037517183948720e-002	 1.562651451838281e+001
 1.497056776901965e+000	 9.392021470467514e-002	 1.561247481823499e+001
 1.496142670357773e+000	 1.075039996094457e-001	 1.559347056665529e+001
 1.495101579972036e+000	 1.211249997365068e-001	 1.556934384211270e+001
 1.493932362917365e+000	 1.347816568475081e-001	 1.553993384037548e+001
 1.244943635772666e+000	 1.123180473895901e-001	 1.987873565147378e+001
 1.243861581248701e+000	 1.237269845919664e-001	 1.987021299079342e+001
 1.242670903331058e+000	 1.351629610433850e-001	 1.985415694385585e+001
 1.241370704692402e+000	 1.466246007820463e-001	 1.983043742802869e+001
 1.239960107836013e+000	 1.581105024852513e-001	 1.979892663824797e+001
 1.238438255840743e+000	 1.696192397320706e-001	 1.975949923934441e+001
 1.236804313105527e+000	 1.811493612893029e-001	 1.971203256069136e+001
 1.235057466092679e+000	 1.926993914209579e-001	 1.965640679290024e+001
 1.233196924069199e+000	 2.042678302214702e-001	 1.959250518627486e+001
 1.231221919845279e+000	 2.158531539728274e-001	 1.952021425072200e+001
 1.229131710509183e+000	 2.274538155257646e-001	 1.943942395680165e+001
 1.269842508489349e+000	 1.145644083375946e-001	 1.923943787323364e+001
 1.268738812875140e+000	 1.262015242844133e-001	 1.923785617262427e+001
 1.267524321399351e+000	 1.378662202651446e-001	 1.922926059842653e+001
 1.266198118788100e+000	 1.495570927987517e-001	 1.921352970370148e+001
 1.264759309994731e+000	 1.612727125360804e-001	 1.919054188027330e+001
 1.263207020959674e+000	 1.730116245277816e-001	 1.916017541306093e+001
 1.261540399369842e+000	 1.847723485159893e-001	 1.912230853725175e+001
 1.259758615416796e+000	 1.965533792499918e-001	 1.907681949840795e+001
 1.257860862552874e+000	 2.083531868261117e-001	 1.902358661559343e+001
 1.255846358244472e+000	 2.201702170519753e-001	 1.896248834760579e+001
 1.253714344721621e+000	 2.320028918353312e-001	 1.889340336239486e+001
 1.294741381205540e+000	 1.168107692851074e-001	 1.864354962782043e+001
 1.293616044500996e+000	 1.286760639762829e-001	 1.864561766844232e+001
 1.292377739466991e+000	 1.405694794862700e-001	 1.864079985458917e+001
 1.291025532883092e+000	 1.524895848147953e-001	 1.862897039576855e+001
 1.289558512152712e+000	 1.644349225862496e-001	 1.861000312364671e+001
 1.287975786077856e+000	 1.764040093228645e-001	 1.858377154448254e+001
 1.286276485633416e+000	 1.883953357421090e-001	 1.855014889468173e+001
 1.284459764740199e+000	 2.004073670785510e-001	 1.850900819957638e+001
 1.282524801035884e+000	 2.124385434304009e-001	 1.846022233553232e+001
 1.280470796643069e+000	 2.244872801309241e-001	 1.840366409548345e+001
 1.278296978933551e+000	 2.365519681448832e-001	 1.833920625798827e+001
 1.319640253921239e+000	 1.190571302321284e-001	 1.809972710302417e+001
 1.318493276126270e+000	 1.311506036675752e-001	 1.810509407276521e+001
 1.317231157533977e+000	 1.432727387067614e-001	 1.810370892279125e+001
 1.315852946977380e+000	 1.554220768301773e-001	 1.809544175168762e+001
 1.314357714309955e+000	 1.675971326357590e-001	 1.808016205887213e+001
 1.312744551195288e+000	 1.797963941173191e-001	 1.805773879474612e+001
 1.311012571896248e+000	 1.920183229676621e-001	 1.802804041424381e+001
 1.309160914062888e+000	 2.042613549066355e-001	 1.799093493390046e+001
 1.307188739518228e+000	 2.165239000343379e-001	 1.794628999255711e+001
 1.305095235041069e+000	 2.288043432096740e-001	 1.789397291581634e+001
 1.302879613144973e+000	 2.411010444544205e-001	 1.783385078435923e+001
 1.344539126636447e+000	 1.213034911786578e-001	 1.760518749969697e+001
 1.343370507750963e+000	 1.336251433582901e-001	 1.761351507304920e+001
 1.342084575600310e+000	 1.459759979266187e-001	 1.761523015130102e+001
 1.340680361070962e+000	 1.583545688448975e-001	 1.761019895216039e+001
 1.339156916466462e+000	 1.707593426846085e-001	 1.759828686788956e+001
 1.337513316311972e+000	 1.831887789111455e-001	 1.757935851278372e+001
 1.335748658158338e+000	 1.956413101926485e-001	 1.755327777432609e+001
 1.333862063384863e+000	 2.081153427342453e-001	 1.751990786815614e+001
 1.331852677999906e+000	 2.206092566379227e-001	 1.747911139698508e+001
 1.329719673438472e+000	 2.331214062882248e-001	 1.743075041358881e+001
 1.327462247355889e+000	 2.456501207639431e-001	 1.737468648800470e+001
 1.369437999351162e+000	 1.235498521246955e-001	 1.715734610840607e+001
 1.368247739375074e+000	 1.360996830484277e-001	 1.716830717237831e+001
 1.366937993665990e+000	 1.486792571458420e-001	 1.717280143021213e+001
 1.365507775163839e+000	 1.612870608589561e-001	 1.717069144670714e+001
 1.363956118622232e+000	 1.739215527327983e-001	 1.716183872976423e+001
 1.362282081427904e+000	 1.865811637043437e-001	 1.714610377479758e+001
 1.360484744419686e+000	 1.992642974170683e-001	 1.712334611310171e+001
 1.358563212706124e+000	 2.119693305613802e-001	 1.709342436432720e+001
 1.356516616480918e+000	 2.246946132411550e-001	 1.705619629321621e+001
 1.354344111835277e+000	 2.374384693665766e-001	 1.701151887074487e+001
 1.352044881566296e+000	 2.501991970734510e-001	 1.695924833981558e+001
 1.394336872065386e+000	 1.257962130702414e-001	 1.675379862285182e+001
 1.393124970998602e+000	 1.385742227379879e-001	 1.676707611664024e+001
 1.391791411731016e+000	 1.513825163644311e-001	 1.677403873235199e+001
 1.390335189256011e+000	 1.642195528723529e-001	 1.677454560823657e+001
 1.388755320777263e+000	 1.770837627803282e-001	 1.676845458880053e+001
 1.387050846543088e+000	 1.899735484969136e-001	 1.675562226575395e+001
 1.385220830680293e+000	 2.028872846409216e-001	 1.673590402319101e+001
 1.383264362026671e+000	 2.158233183880405e-001	 1.670915408717614e+001
 1.381180554961265e+000	 2.287799698440352e-001	 1.667522557990463e+001
 1.378968550231487e+000	 2.417555324447294e-001	 1.663397057860271e+001
 1.376627515776197e+000	 2.547482733829443e-001	 1.658524017932751e+001
 1.419235744779119e+000	 1.280425740152957e-001	 1.639230531503147e+001
 1.418002202621548e+000	 1.410487624269708e-001	 1.640759117147339e+001
 1.416644829795389e+000	 1.540857755823860e-001	 1.641672049198930e+001
 1.415162603347478e+000	 1.671520448850881e-001	 1.641954921345024e+001
 1.413554522931558e+000	 1.802459728271983e-001	 1.641593173653854e+001
 1.411819611657523e+000	 1.933659332888553e-001	 1.640572096282494e+001
 1.409956916940157e+000	 2.065102718642082e-001	 1.638876833635934e+001
 1.407965511346504e+000	 2.196773062142261e-001	 1.636492388996556e+001
 1.405844493440946e+000	 2.328653264465631e-001	 1.633403629642776e+001
 1.403592988627099e+000	 2.460725955226832e-001	 1.629595292475199e+001
 1.401210149985591e+000	 2.592973496924230e-001	 1.625051990168222e+001
 1.444134617492359e+000	 1.302889349598582e-001	 1.607077684745466e+001
 1.442879434243912e+000	 1.435233021153764e-001	 1.608777102573644e+001
 1.441498247859109e+000	 1.567890347997069e-001	 1.609877359953736e+001
 1.439990017438240e+000	 1.700845368971616e-001	 1.610363752872249e+001
 1.438353725085115e+000	 1.834081828734085e-001	 1.610221398871649e+001
 1.436588376771206e+000	 1.967583180801687e-001	 1.609435240330186e+001
 1.434693003199280e+000	 2.101332590869281e-001	 1.607990048221150e+001
 1.432666660665624e+000	 2.235312940399370e-001	 1.605870426372554e+001
 1.430508431919961e+000	 2.369506830487386e-001	 1.603060816247928e+001
 1.428217427022115e+000	 2.503896586004381e-001	 1.599545502268587e+001
 1.425792784194477e+000	 2.638464260018870e-001	 1.595308617697201e+001
 1.469033490205108e+000	 1.325352959039290e-001	 1.578726152818466e+001
 1.467756665865694e+000	 1.459978418032046e-001	 1.580567112852355e+001
 1.466351665922175e+000	 1.594922940163938e-001	 1.581826082052474e+001
 1.464817431528297e+000	 1.730170289085734e-001	 1.582488081097569e+001
 1.463152927237936e+000	 1.865703929189589e-001	 1.582537926796595e+001
 1.461357141884141e+000	 2.001507028708540e-001	 1.581960234899196e+001
 1.459429089457661e+000	 2.137562463090815e-001	 1.580739423413770e+001
 1.457367809984029e+000	 2.273852818651730e-001	 1.578859716456157e+001
 1.455172370398310e+000	 2.410360396505620e-001	 1.576305148651711e+001
 1.452841865416533e+000	 2.547067216779938e-001	 1.573059570113133e+001
 1.450375418402855e+000	 2.683955023113362e-001	 1.569106652015945e+001
 1.493932362917365e+000	 1.347816568475081e-001	 1.553993384037548e+001
 1.492633897486894e+000	 1.484723814904555e-001	 1.555947229247797e+001
 1.491205083984588e+000	 1.621955532324464e-001	 1.557336947266903e+001
 1.489644845617648e+000	 1.759495209193235e-001	 1.558147305846779e+001
 1.487952129390018e+000	 1.897326029638494e-001	 1.558362842823729e+001
 1.486125906996327e+000	 2.035430876609109e-001	 1.557967868417551e+001
 1.484165175715299e+000	 2.173792335306682e-001	 1.556946468066478e+001
 1.482068959301720e+000	 2.312392696899344e-001	 1.555282505823174e+001
 1.479836308875994e+000	 2.451213962520329e-001	 1.552959628336653e+001
 1.477466303810354e+000	 2.590237847553505e-001	 1.549961269444655e+001
 1.474958052610726e+000	 2.729445786207708e-001	 1.546270655400510e+001
 1.229131710509183e+000	 2.274538155257646e-001	 1.943942395680165e+001
 1.226925578158476e+000	 2.390682447049866e-001	 1.940431149835371e+001
 1.224602830624363e+000	 2.506948487390461e-001	 1.936072639229428e+001
 1.222162802189878e+000	 2.623320127144961e-001	 1.930858470267193e+001
 1.219604854302598e+000	 2.739781000540935e-001	 1.924780694133893e+001
 1.216928376278658e+000	 2.856314530195621e-001	 1.917831825571680e+001
 1.214132785997951e+000	 2.972903932386898e-001	 1.910004861496817e+001
 1.211217530589605e+000	 3.089532222566900e-001	 1.901293299418573e+001
 1.208182087106841e+000	 3.206182221117184e-001	 1.891691155619957e+001
 1.205025963190290e+000	 3.322836559344021e-001	 1.881192983059878e+001
 1.201748697718857e+000	 3.439477685711992e-001	 1.869793888955598e+001
 1.253714344721621e+000	 2.320028918353312e-001	 1.889340336239486e+001
 1.251464089723864e+000	 2.438496095974737e-001	 1.887195506310280e+001
 1.249094887239062e+000	 2.557087457116228e-001	 1.883984531838274e+001
 1.246606058235910e+000	 2.675786529660630e-001	 1.879484181949712e+001
 1.243996951390936e+000	 2.794576620520075e-001	 1.874113346425422e+001
 1.241266943806600e+000	 2.913440820764148e-001	 1.867863505295393e+001
 1.238415441720392e+000	 3.032362010996293e-001	 1.860726623919350e+001
 1.235441881204021e+000	 3.151322866977697e-001	 1.852695172785831e+001
 1.232345728851775e+000	 3.270305865497552e-001	 1.843762147092139e+001
 1.229126482457096e+000	 3.389293290488261e-001	 1.833921086062388e+001
 1.225783671676468e+000	 3.508267239383701e-001	 1.823166091960156e+001
 1.278296978933551e+000	 2.365519681448832e-001	 1.833920625798827e+001
 1.276002601288834e+000	 2.486309744901317e-001	 1.832381976458123e+001
 1.273586943853415e+000	 2.607226426845269e-001	 1.830053692872977e+001
 1.271049314281647e+000	 2.728252932180848e-001	 1.826924298547713e+001
 1.268389048479013e+000	 2.849372240504741e-001	 1.822982359231741e+001
 1.265605511334292e+000	 2.970567111338884e-001	 1.818216490461647e+001
 1.262698097442573e+000	 3.091820089612281e-001	 1.812615365453436e+001
 1.259666231818150e+000	 3.213113511395163e-001	 1.806167723351042e+001
 1.256509370596372e+000	 3.334429509884361e-001	 1.798862377836399e+001
 1.253227001723497e+000	 3.455750021638406e-001	 1.790688226105628e+001
 1.249818645633586e+000	 3.577056793060471e-001	 1.781576786896908e+001
 1.302879613144973e+000	 2.411010444544205e-001	 1.783385078435923e+001
 1.300541112853388e+000	 2.534123393829606e-001	 1.782414109121665e+001
 1.298079000467422e+000	 2.657365396577586e-001	 1.780662759304796e+001
 1.295492570327091e+000	 2.780719334705617e-001	 1.778118796733993e+001
 1.292781145566826e+000	 2.904167860494936e-001	 1.774770005809035e+001
 1.289944078861733e+000	 3.027693401919827e-001	 1.770604195301189e+001
 1.286980753164496e+000	 3.151278168234856e-001	 1.765609206470280e+001
 1.283890582431992e+000	 3.274904155819297e-001	 1.759772921585751e+001
 1.280673012340635e+000	 3.398553154277612e-001	 1.753083272858190e+001
 1.277327520989495e+000	 3.522206752794460e-001	 1.745528251786868e+001
 1.273853619590210e+000	 3.645846346742306e-001	 1.737095918927910e+001
 1.327462247355889e+000	 2.456501207639431e-001	 1.737468648800470e+001
 1.325079624417525e+000	 2.581937042759605e-001	 1.737028829393434e+001
 1.322571057081084e+000	 2.707504366313178e-001	 1.735818622840787e+001
 1.319935826372240e+000	 2.833185737234933e-001	 1.733825061025339e+001
 1.317173242654377e+000	 2.958963480490658e-001	 1.731035166089149e+001
 1.314282646388924e+000	 3.084819692506980e-001	 1.727435958295446e+001
 1.311263408886161e+000	 3.210736246864023e-001	 1.723014464334543e+001
 1.308114933045548e+000	 3.336694800250099e-001	 1.717757726082359e+001
 1.304836654084563e+000	 3.462676798677304e-001	 1.711652809819226e+001
 1.301428040255088e+000	 3.588663483956419e-001	 1.704686815915687e+001
 1.297888593546341e+000	 3.714635900429203e-001	 1.696846888990983e+001
 1.352044881566296e+000	 2.501991970734510e-001	 1.695924833981558e+001
 1.349618135981244e+000	 2.629750691691311e-001	 1.695981439183539e+001
 1.347063113694399e+000	 2.757643336052045e-001	 1.695278407394622e+001
 1.344379082417094e+000	 2.885652139768798e-001	 1.693802053878376e+001
 1.341565339741666e+000	 3.013759100491908e-001	 1.691538656937933e+001
 1.338621213915864e+000	 3.141945983100343e-001	 1.688474465882621e+001
 1.335546064607567e+000	 3.270194325499778e-001	 1.684595709486715e+001
 1.332339283658817e+000	 3.398485444687569e-001	 1.679888604950277e+001
 1.329000295828156e+000	 3.526800443083437e-001	 1.674339367371146e+001
 1.325528559520278e+000	 3.655120215124286e-001	 1.667934219735983e+001
 1.321923567501977e+000	 3.783425454121162e-001	 1.660659403437220e+001
 1.376627515776197e+000	 2.547482733829443e-001	 1.658524017932751e+001
 1.374156647544547e+000	 2.677564340624728e-001	 1.659043976432404e+001
 1.371555170307368e+000	 2.807782305794187e-001	 1.658815822389225e+001
 1.368822338461654e+000	 2.938118542307212e-001	 1.657825173116768e+001
 1.365957436828692e+000	 3.068554720498686e-001	 1.656057580891362e+001
 1.362959781442553e+000	 3.199072273699914e-001	 1.653498540986496e+001
 1.359828720328715e+000	 3.329652404142124e-001	 1.650133500248263e+001
 1.356563634271800e+000	 3.460276089131709e-001	 1.645947866223394e+001
 1.353163937571413e+000	 3.590924087496012e-001	 1.640927016850277e+001
 1.349629078785063e+000	 3.721576946298060e-001	 1.635056310722267e+001
 1.345958541457119e+000	 3.852215007818184e-001	 1.628321097931379e+001
 1.401210149985591e+000	 2.592973496924230e-001	 1.625051990168222e+001
 1.398695159107433e+000	 2.725377989559853e-001	 1.626003747037966e+001
 1.396047226919992e+000	 2.857921275539604e-001	 1.626219707887555e+001
 1.393265594505920e+000	 2.990584944850176e-001	 1.625684810232374e+001
 1.390349533915456e+000	 3.123350340510991e-001	 1.624383897588012e+001
 1.387298348968993e+000	 3.256198564305694e-001	 1.622301727535243e+001
 1.384111376049604e+000	 3.389110482791060e-001	 1.619422980375943e+001
 1.380787984884495e+000	 3.522066733582516e-001	 1.615732268393024e+001
 1.377327579314336e+000	 3.655047731915028e-001	 1.611214145726328e+001
 1.373729598049444e+000	 3.788033677477741e-001	 1.605853118875218e+001
 1.369993515411769e+000	 3.921004561520270e-001	 1.599633657837280e+001
 1.425792784194477e+000	 2.638464260018870e-001	 1.595308617697201e+001
 1.423233670669902e+000	 2.773191638496688e-001	 1.596662008652456e+001
 1.420539283532269e+000	 2.908060245288296e-001	 1.597292730227105e+001
 1.417708850549892e+000	 3.043051347397688e-001	 1.597185057827661e+001
 1.414741631001958e+000	 3.178145960528825e-001	 1.596323142984347e+001
 1.411636916495182e+000	 3.313324854917684e-001	 1.594691021409333e+001
 1.408394031770235e+000	 3.448568561446586e-001	 1.592272621696683e+001
 1.405012335496905e+000	 3.583857378039990e-001	 1.589051774678812e+001
 1.401491221056923e+000	 3.719171376340487e-001	 1.585012223452976e+001
 1.397830117313421e+000	 3.854490408663329e-001	 1.580137634090118e+001
 1.394028489365924e+000	 3.989794115227418e-001	 1.574411607036853e+001
 1.450375418402855e+000	 2.683955023113362e-001	 1.569106652015945e+001
 1.447772182231955e+000	 2.821005287435232e-001	 1.570832788330363e+001
 1.445031340144201e+000	 2.958199215040264e-001	 1.571850210301736e+001
 1.442152106593569e+000	 3.095517749949748e-001	 1.572142548504642e+001
 1.439133728088196e+000	 3.232941580552186e-001	 1.571693278819326e+001
 1.435975484021120e+000	 3.370451145535882e-001	 1.570485730445586e+001
 1.432676687490608e+000	 3.508026640108701e-001	 1.568503094610126e+001
 1.429236686109027e+000	 3.645648022504133e-001	 1.565728433983964e+001
 1.425654862799175e+000	 3.783295020772385e-001	 1.562144692825146e+001
 1.421930636576994e+000	 3.920947139854825e-001	 1.557734707860688e+001
 1.418063463319586e+000	 4.058583668939629e-001	 1.552481219920112e+001
 1.474958052610726e+000	 2.729445786207708e-001	 1.546270655400510e+001
 1.472310693793589e+000	 2.868818936375483e-001	 1.548341818411597e+001
 1.469523396755786e+000	 3.008338184795506e-001	 1.549719069015327e+001
 1.466595362636951e+000	 3.147984152506358e-001	 1.550385409864932e+001
 1.463525825174173e+000	 3.287737200581074e-001	 1.550323657132534e+001
 1.460314051546808e+000	 3.427577436160288e-001	 1.549516448440813e+001
 1.456959343210722e+000	 3.567484718777407e-001	 1.547946251540898e+001
 1.453461036720863e+000	 3.707438666974944e-001	 1.545595373754956e+001
 1.449818504541093e+000	 3.847418665210725e-001	 1.542445972200574e+001
 1.446031155840162e+000	 3.987403871052225e-001	 1.538480064812551e+001
 1.442098437272754e+000	 4.127373222656903e-001	 1.533679542176152e+001
 1.201748697718857e+000	 3.439477685711992e-001	 1.869793888955598e+001
 1.198349861446522e+000	 3.556087872310357e-001	 1.863051126216261e+001
 1.194829057626238e+000	 3.672649221558912e-001	 1.855451045636570e+001
 1.191185922618588e+000	 3.789143673145656e-001	 1.846992921423090e+001
 1.187420126482944e+000	 3.905553011185041e-001	 1.837676648655772e+001
 1.183531373552289e+000	 4.021858871602736e-001	 1.827502755878110e+001
 1.179519402990089e+000	 4.138042749739844e-001	 1.816472417060428e+001
 1.175383989328324e+000	 4.254086008172057e-001	 1.804587462897551e+001
 1.171124942985806e+000	 4.369969884738850e-001	 1.791850391402566e+001
 1.166742110765889e+000	 4.485675500777414e-001	 1.778264377759065e+001
 1.162235376332733e+000	 4.601183869555650e-001	 1.763833283394910e+001
 1.225783671676468e+000	 3.508267239383701e-001	 1.823166091960156e+001
 1.222316858678915e+000	 3.627209629714752e-001	 1.817255571602791e+001
 1.218725638782410e+000	 3.746102205949435e-001	 1.810478975091364e+001
 1.215009641074747e+000	 3.864926546569513e-001	 1.802834573200977e+001
 1.211168529016486e+000	 3.983664071371730e-001	 1.794321266018734e+001
 1.207202001027270e+000	 4.102296049000268e-001	 1.784938596921139e+001
 1.203109791053832e+000	 4.220803604703061e-001	 1.774686765929228e+001
 1.198891669118793e+000	 4.339167728307314e-001	 1.763566642399957e+001
 1.194547441849339e+000	 4.457369282409293e-001	 1.751579777012856e+001
 1.190076952984894e+000	 4.575389010772937e-001	 1.738728413011487e+001
 1.185480083862899e+000	 4.693207546931507e-001	 1.725015496659955e+001
 1.249818645633586e+000	 3.577056793060471e-001	 1.781576786896908e+001
 1.246283855910719e+000	 3.698331387123256e-001	 1.776470375164350e+001
 1.242622219937908e+000	 3.819555190343213e-001	 1.770488573730500e+001
 1.238833359530156e+000	 3.940709419995868e-001	 1.763628651657388e+001
 1.234916931549213e+000	 4.061775131560257e-001	 1.755888516488481e+001
 1.230872628501380e+000	 4.182733226399084e-001	 1.747266729633973e+001
 1.226700179116658e+000	 4.303564459667101e-001	 1.737762521137585e+001
 1.222399348908308e+000	 4.424249448443034e-001	 1.727375803780676e+001
 1.217969940711893e+000	 4.544768680079942e-001	 1.716107186479832e+001
 1.213411795202904e+000	 4.665102520768511e-001	 1.703957986934625e+001
 1.208724791392063e+000	 4.785231224307363e-001	 1.690930243482855e+001
 1.273853619590210e+000	 3.645846346742306e-001	 1.737095918927910e+001
 1.270250853141934e+000	 3.769453144535873e-001	 1.733922486717851e+001
 1.266518801092730e+000	 3.893008174740247e-001	 1.729917765501867e+001
 1.262657077984815e+000	 4.016492293424723e-001	 1.725072391783096e+001
 1.258665334081123e+000	 4.139886191750625e-001	 1.719377096770544e+001
 1.254543255974616e+000	 4.263170403799179e-001	 1.712822715293412e+001
 1.250290567178565e+000	 4.386325314631961e-001	 1.705400195104488e+001
 1.245907028696869e+000	 4.509331168579217e-001	 1.695811074464407e+001
 1.241392439573468e+000	 4.632168077750798e-001	 1.685231983037377e+001
 1.236746637419919e+000	 4.754816030764137e-001	 1.673755668443090e+001
 1.231969498920228e+000	 4.877254901683218e-001	 1.661383266620095e+001
 1.297888593546341e+000	 3.714635900429203e-001	 1.696846888990983e+001
 1.294217850372561e+000	 3.840574901952600e-001	 1.694451241117619e+001
 1.290415382246879e+000	 3.966461159140538e-001	 1.691231337661915e+001
 1.286480796438724e+000	 4.092275166856075e-001	 1.687176797884675e+001
 1.282413736612218e+000	 4.217997251942834e-001	 1.682277307334030e+001
 1.278213883446981e+000	 4.343607581200554e-001	 1.676522627349918e+001
 1.273880955239555e+000	 4.469086169597642e-001	 1.669902605019780e+001
 1.269414708484477e+000	 4.594412888715863e-001	 1.662407183586243e+001
 1.264814938434065e+000	 4.719567475421860e-001	 1.654026413306138e+001
 1.260081479635940e+000	 4.844529540759814e-001	 1.644750462758639e+001
 1.255214206447393e+000	 4.969278579059074e-001	 1.634569630598827e+001
 1.321923567501977e+000	 3.783425454121162e-001	 1.660659403437220e+001
 1.318184847602598e+000	 3.911696659373439e-001	 1.659009432948722e+001
 1.314311963400354e+000	 4.039914143544086e-001	 1.656542948405048e+001
 1.310304514891883e+000	 4.168058040289927e-001	 1.653248562367440e+001
 1.306162139142497e+000	 4.296108312136883e-001	 1.649114924250011e+001
 1.301884510918475e+000	 4.424044758603211e-001	 1.644130730390672e+001
 1.297471343299627e+000	 4.551847024564147e-001	 1.638284734637021e+001
 1.292922388271131e+000	 4.679494608852973e-001	 1.631565759448573e+001
 1.288237437293681e+000	 4.806966873093128e-001	 1.623962707515071e+001
 1.283416321850965e+000	 4.934243050755543e-001	 1.615464573889023e+001
 1.278458913973558e+000	 5.061302256434931e-001	 1.606060458628818e+001
 1.345958541457119e+000	 3.852215007818184e-001	 1.628321097931379e+001
 1.342151844832046e+000	 3.982818416798387e-001	 1.627386803138093e+001
 1.338208544553154e+000	 4.113367127950889e-001	 1.625644465014528e+001
 1.334128233344292e+000	 4.243840913726279e-001	 1.623081699034368e+001
 1.329910541671960e+000	 4.374219372332774e-001	 1.619686127038075e+001
 1.325555138389096e+000	 4.504481936007150e-001	 1.615445387846849e+001
 1.321061731358781e+000	 4.634607879531474e-001	 1.610347148456962e+001
 1.316430068056832e+000	 4.764576328990545e-001	 1.604379115816484e+001
 1.311659936152318e+000	 4.894366270764602e-001	 1.597529049184684e+001
 1.306751164064996e+000	 5.023956560751325e-001	 1.589784773072575e+001
 1.301703621498723e+000	 5.153325933810786e-001	 1.581134190761234e+001
 1.369993515411769e+000	 3.921004561520270e-001	 1.599633657837280e+001
 1.366118842060906e+000	 4.053940174227450e-001	 1.599386988866351e+001
 1.362105125705279e+000	 4.186820112360948e-001	 1.598341497738805e+001
 1.357951951795950e+000	 4.319623787165129e-001	 1.596483811590235e+001
 1.353658944200606e+000	 4.452330432530503e-001	 1.593800532350185e+001
 1.349225765858845e+000	 4.584919113412369e-001	 1.590278247876007e+001
 1.344652119417017e+000	 4.717368734499621e-001	 1.585903543734148e+001
 1.339937747841579e+000	 4.849658049128580e-001	 1.580663015631716e+001
 1.335082435009975e+000	 4.981765668436283e-001	 1.574543282499142e+001
 1.330086006278031e+000	 5.113670070747157e-001	 1.567531000222896e+001
 1.324948329022888e+000	 5.245349611186642e-001	 1.559612876025100e+001
 1.394028489365924e+000	 3.989794115227418e-001	 1.574411607036853e+001
 1.390085839289178e+000	 4.125061931660621e-001	 1.574826325614894e+001
 1.386001706856731e+000	 4.260273096774265e-001	 1.574452215053142e+001
 1.381775670246859e+000	 4.395406660606480e-001	 1.573274922098350e+001
 1.377407346728437e+000	 4.530441492730074e-001	 1.571280035597203e+001
 1.372896393327723e+000	 4.665356290818869e-001	 1.568453098127047e+001
 1.368242507474335e+000	 4.800129589468590e-001	 1.564779618342968e+001
 1.363445427625372e+000	 4.934739769267080e-001	 1.560245084044798e+001
 1.358504933866653e+000	 5.069165066108170e-001	 1.554834975965614e+001
 1.353420848490073e+000	 5.203383580743043e-001	 1.548534782281168e+001
 1.348193036546053e+000	 5.337373288562498e-001	 1.541330013837432e+001
 1.418063463319586e+000	 4.058583668939629e-001	 1.552481219920112e+001
 1.414052836516859e+000	 4.196183689097904e-001	 1.553532771038704e+001
 1.409898288007508e+000	 4.333726081190837e-001	 1.553806279403080e+001
 1.405599388697018e+000	 4.471189534050328e-001	 1.553286418577287e+001
 1.401155749255452e+000	 4.608552552931484e-001	 1.551957770376081e+001
 1.396567020795728e+000	 4.745793468226650e-001	 1.549804836969758e+001
 1.391832895530736e+000	 4.882890444438381e-001	 1.546812053775977e+001
 1.386953107408211e+000	 5.019821489406043e-001	 1.542963803143131e+001
 1.381927432722353e+000	 5.156564463780266e-001	 1.538244428827567e+001
 1.376755690701119e+000	 5.293097090738979e-001	 1.532638251264660e+001
 1.371437744068218e+000	 5.429396965938355e-001	 1.526129583631371e+001
 1.442098437272754e+000	 4.127373222656903e-001	 1.533679542176152e+001
 1.438019833743952e+000	 4.267305446539297e-001	 1.535344936451877e+001
 1.433794869157610e+000	 4.407179065610665e-001	 1.536243889373599e+001
 1.429423107146426e+000	 4.546972407496674e-001	 1.536360107837938e+001
 1.424904151781651e+000	 4.686663613134735e-001	 1.535677171954371e+001
 1.420237648262862e+000	 4.826230645635711e-001	 1.534178547601408e+001
 1.415423283586218e+000	 4.965651299408992e-001	 1.531847599842367e+001
 1.410460787190097e+000	 5.104903209545468e-001	 1.528667607206232e+001
 1.405349931577071e+000	 5.243963861452563e-001	 1.524621776836740e+001
 1.400090532911170e+000	 5.382810600734965e-001	 1.519693260510395e+001
 1.394682451589383e+000	 5.521420643314209e-001	 1.513865171521514e+001
 1.162235376332733e+000	 4.601183869555650e-001	 1.763833283394910e+001
 1.157604660665571e+000	 4.716475904904681e-001	 1.754495616292544e+001
 1.152849922489192e+000	 4.831532430025667e-001	 1.744426711884194e+001
 1.147971158680544e+000	 4.946334186475060e-001	 1.733641324447195e+001
 1.142968404651232e+000	 5.060861843335418e-001	 1.722154935874858e+001
 1.137841734704207e+000	 5.175096006544983e-001	 1.709983750969204e+001
 1.132591262364247e+000	 5.289017228384254e-001	 1.697144691608134e+001
 1.127217140681487e+000	 5.402606017111222e-001	 1.683655389772348e+001
 1.121719562507361e+000	 5.515842846736661e-001	 1.669534179419691e+001
 1.116098760742258e+000	 5.628708166930497e-001	 1.654800087196853e+001
 1.110355008554307e+000	 5.741182413050000e-001	 1.639472821980969e+001
 1.185480083862899e+000	 4.693207546931507e-001	 1.725015496659955e+001
 1.180756753882166e+000	 4.810805422992081e-001	 1.716908103908449e+001
 1.175906920941978e+000	 4.928163078619169e-001	 1.708015776960965e+001
 1.170930581856822e+000	 5.045260870200348e-001	 1.698350316640799e+001
 1.165827772746534e+000	 5.162079080199821e-001	 1.687924283127542e+001
 1.160598569400124e+000	 5.278597926674589e-001	 1.676750994808022e+001
 1.155243087612864e+000	 5.394797572950756e-001	 1.664844525994704e+001
 1.149761483495895e+000	 5.510658137451469e-001	 1.652219703490493e+001
 1.144153953757676e+000	 5.626159703667710e-001	 1.638892101981119e+001
 1.138420735956604e+000	 5.741282330262804e-001	 1.624878038238591e+001
 1.132562108724172e+000	 5.856006061301156e-001	 1.610194564121726e+001
 1.208724791392063e+000	 4.785231224307363e-001	 1.690930243482855e+001
 1.203908847097765e+000	 4.905134941079478e-001	 1.683891489865654e+001
 1.198963919393784e+000	 5.024793727212670e-001	 1.676014727925889e+001
 1.193890005032144e+000	 5.144187553925634e-001	 1.667308879205587e+001
 1.188687140840915e+000	 5.263296317064223e-001	 1.657783657091590e+001
 1.183355404095164e+000	 5.382099846804194e-001	 1.647449569177372e+001
 1.177894912860660e+000	 5.500577917517258e-001	 1.636317918483355e+001
 1.172305826309544e+000	 5.618710257791714e-001	 1.624400803508314e+001
 1.166588345007307e+000	 5.736476560598759e-001	 1.611711117086671e+001
 1.160742711170352e+000	 5.853856493595110e-001	 1.598262544028672e+001
 1.154769208893534e+000	 5.970829709552312e-001	 1.584069557522973e+001
 1.231969498920228e+000	 4.877254901683218e-001	 1.661383266620095e+001
 1.227060940312370e+000	 4.999464459166876e-001	 1.655261909202705e+001
 1.222020917844610e+000	 5.121424375806171e-001	 1.648249993162196e+001
 1.216849428206511e+000	 5.243114237650922e-001	 1.640353629621503e+001
 1.211546508934373e+000	 5.364513553928625e-001	 1.631579754810609e+001
 1.206112238789327e+000	 5.485601766933799e-001	 1.621936135896882e+001
 1.200546738107633e+000	 5.606358262083758e-001	 1.611431375663042e+001
 1.194850169122436e+000	 5.726762378131960e-001	 1.600074915998999e+001
 1.189022736256255e+000	 5.846793417529809e-001	 1.587877040175940e+001
 1.183064686383501e+000	 5.966430656927415e-001	 1.574848873873279e+001
 1.176976309062392e+000	 6.085653357803470e-001	 1.561002384931484e+001
 1.255214206447393e+000	 4.969278579059074e-001	 1.634569630598827e+001
 1.250213033525979e+000	 5.093793977254275e-001	 1.630785930833255e+001
 1.245077916294455e+000	 5.218055024399673e-001	 1.624563128992081e+001
 1.239808851379921e+000	 5.342040921376210e-001	 1.617335591280349e+001
 1.234405877026911e+000	 5.465730790793026e-001	 1.609172963803554e+001
 1.228869073482613e+000	 5.589103687063404e-001	 1.600080338779639e+001
 1.223198563353783e+000	 5.712138606650258e-001	 1.590063684951825e+001
 1.217394511934570e+000	 5.834814498472206e-001	 1.579129854479410e+001
 1.211457127504519e+000	 5.957110274460857e-001	 1.567286588585310e+001
 1.205386661596051e+000	 6.079004820259722e-001	 1.554542521924543e+001
 1.199183409230746e+000	 6.200477006054626e-001	 1.540907185640227e+001
 1.278458913973558e+000	 5.061302256434931e-001	 1.606060458628818e+001
 1.273365126738593e+000	 5.188123495341673e-001	 1.603109556895087e+001
 1.268134914743319e+000	 5.314685672993174e-001	 1.599168660023526e+001
 1.262768274552376e+000	 5.440967605101496e-001	 1.594226176099685e+001
 1.257265245118527e+000	 5.566948027657428e-001	 1.588270733731186e+001
 1.251625908175022e+000	 5.692605607193009e-001	 1.581291198474361e+001
 1.245850388599110e+000	 5.817918951216762e-001	 1.572104798157852e+001
 1.239938854745945e+000	 5.942866618812452e-001	 1.561463966415196e+001
 1.233891518752100e+000	 6.067427131391907e-001	 1.549846390466421e+001
 1.227708636808002e+000	 6.191578983592028e-001	 1.537258277649090e+001
 1.221390509398596e+000	 6.315300654305784e-001	 1.527416726325294e+001
 1.301703621498723e+000	 5.153325933810786e-001	 1.581134190761234e+001
 1.296517219950213e+000	 5.282453013429074e-001	 1.578891535852389e+001
 1.291191913191203e+000	 5.411316321586674e-001	 1.575625678182578e+001
 1.285727697723875e+000	 5.539894288826783e-001	 1.571321947266566e+001
 1.280124613209222e+000	 5.668165264521831e-001	 1.565965879981845e+001
 1.274382742866553e+000	 5.796107527322615e-001	 1.559543240199585e+001
 1.268502213843616e+000	 5.923699295783262e-001	 1.552040038877079e+001
 1.262483197556562e+000	 6.050918739152698e-001	 1.543442554587531e+001
 1.256325909998997e+000	 6.177743988322956e-001	 1.533737354460957e+001
 1.250030612019355e+000	 6.304153146924334e-001	 1.525704920796058e+001
 1.243597609565942e+000	 6.430124302556941e-001	 1.518880415682994e+001
 1.324948329022888e+000	 5.245349611186642e-001	 1.559612876025100e+001
 1.319669313160837e+000	 5.376782531516471e-001	 1.557961414068503e+001
 1.314248911638107e+000	 5.507946970180175e-001	 1.555255178554065e+001
 1.308687120894417e+000	 5.638820972552072e-001	 1.551476466072068e+001
 1.302983981298996e+000	 5.769382501386233e-001	 1.546607766073802e+001
 1.297139577557208e+000	 5.899609447452219e-001	 1.540631783660828e+001
 1.291154039087298e+000	 6.029479640349764e-001	 1.533531462917144e+001
 1.285027540366421e+000	 6.158970859492943e-001	 1.525290010756154e+001
 1.278760301245211e+000	 6.288060845254007e-001	 1.517649001711896e+001
 1.272352587230109e+000	 6.416727310256640e-001	 1.513246127879169e+001
 1.265804709732784e+000	 6.544947950808098e-001	 1.507998871798855e+001
 1.348193036546053e+000	 5.337373288562498e-001	 1.541330013837432e+001
 1.342821406370466e+000	 5.471112049603871e-001	 1.540159681620409e+001
 1.337305910084030e+000	 5.604577618773678e-001	 1.537904609775295e+001
 1.331646544064004e+000	 5.737747656277359e-001	 1.534544103971768e+001
 1.325843349387847e+000	 5.870599738250635e-001	 1.530057646872201e+001
 1.319896412246986e+000	 6.003111367581824e-001	 1.524424924036249e+001
 1.313805864330157e+000	 6.135259984916264e-001	 1.517625850451793e+001
 1.307571883175522e+000	 6.267022979833189e-001	 1.510338597808592e+001
 1.301194692490741e+000	 6.398377702185055e-001	 1.506720517060074e+001
 1.294674562440264e+000	 6.529301473588947e-001	 1.502205798763667e+001
 1.288011809899122e+000	 6.659771599059257e-001	 1.496796057388593e+001
 1.371437744068218e+000	 5.429396965938355e-001	 1.526129583631371e+001
 1.365973499579100e+000	 5.565441567691268e-001	 1.525336844865339e+001
 1.360362908528973e+000	 5.701208267367179e-001	 1.523430976729981e+001
 1.354605967232635e+000	 5.836674340002646e-001	 1.520388332566586e+001
 1.348702717475778e+000	 5.971816975115036e-001	 1.516185425449714e+001
 1.342653246935887e+000	 6.106613287711430e-001	 1.510798957166940e+001
 1.336457689572195e+000	 6.241040329482767e-001	 1.504205847910525e+001
 1.330116225983865e+000	 6.375075100173437e-001	 1.501034585140459e+001
 1.323629083735587e+000	 6.508694559116105e-001	 1.497243009085360e+001
 1.316996537649820e+000	 6.641875636921253e-001	 1.492507208107903e+001
 1.310218910064956e+000	 6.774595247310413e-001	 1.486826880577743e+001
 1.394682451589383e+000	 5.521420643314209e-001	 1.513865171521514e+001
 1.389125592786738e+000	 5.659771085778665e-001	 1.513352591750779e+001
 1.383419906972935e+000	 5.797838915960679e-001	 1.511700044194388e+001
 1.377565390400310e+000	 5.935601023727932e-001	 1.508880965257347e+001
 1.371562085562787e+000	 6.073034211979437e-001	 1.504868932402595e+001
 1.365410081623910e+000	 6.210115207841032e-001	 1.499637696168359e+001
 1.359109514813409e+000	 6.346820674049267e-001	 1.496291965786472e+001
 1.352660568791450e+000	 6.483127220513680e-001	 1.493209997647643e+001
 1.346063474979750e+000	 6.619011416047153e-001	 1.489140183023169e+001
 1.339318512858777e+000	 6.754449800253558e-001	 1.484079551307473e+001
 1.332426010230286e+000	 6.889418895561570e-001	 1.478025944298941e+001
 1.110355008554307e+000	 5.741182413050000e-001	 1.639472821980969e+001
 1.104488619568381e+000	 5.853246016274840e-001	 1.623758714899840e+001
 1.098499948025727e+000	 5.964879413854604e-001	 1.607030671638150e+001
 1.092389388913029e+000	 6.076063059449270e-001	 1.589296611382553e+001
 1.086157378059845e+000	 6.186777433540813e-001	 1.570565430958983e+001
 1.079804392204921e+000	 6.297003053920891e-001	 1.554401239589685e+001
 1.073330949030676e+000	 6.406720486238723e-001	 1.542118889011365e+001
 1.066737607165498e+000	 6.515910354597978e-001	 1.528989131195131e+001
 1.060024966153559e+000	 6.624553352191411e-001	 1.515015991312790e+001
 1.053193666391865e+000	 6.732630251961720e-001	 1.500203821719258e+001
 1.046244389034349e+000	 6.840121917276982e-001	 1.484557300905684e+001
 1.132562108724172e+000	 5.856006061301156e-001	 1.610194564121726e+001
 1.126578391957822e+000	 5.970310936587155e-001	 1.594423925897184e+001
 1.120469946983697e+000	 6.084177002116507e-001	 1.577681728868904e+001
 1.114237176688216e+000	 6.197584320622394e-001	 1.559976993706376e+001
 1.107880525617529e+000	 6.310512982196435e-001	 1.545726017914771e+001
 1.101400480045157e+000	 6.422943114986126e-001	 1.534461488945383e+001
 1.094797568007167e+000	 6.534854895953679e-001	 1.522416351468375e+001
 1.088072359304516e+000	 6.646228561684842e-001	 1.509595050932827e+001
 1.081225465472260e+000	 6.757044419236228e-001	 1.496002284555548e+001
 1.074257539715344e+000	 6.867282857009389e-001	 1.481642998861477e+001
 1.067169276810782e+000	 6.976924355639771e-001	 1.466522387408269e+001
 1.154769208893534e+000	 5.970829709552312e-001	 1.584069557522973e+001
 1.148668164346859e+000	 6.087375856899423e-001	 1.568290885656822e+001
 1.142439945941363e+000	 6.203474590378212e-001	 1.551579968818832e+001
 1.136084964463200e+000	 6.319105581795071e-001	 1.538752551232816e+001
 1.129603673175110e+000	 6.434248530851265e-001	 1.528393862683393e+001
 1.122996567885389e+000	 6.548883176050128e-001	 1.517318858599391e+001
 1.116264186983754e+000	 6.662989305666855e-001	 1.505532529864140e+001
 1.109407111443731e+000	 6.776546768769278e-001	 1.493040046257597e+001
 1.102425964791257e+000	 6.889535486277865e-001	 1.479846752380212e+001
 1.095321413039221e+000	 7.001935462053034e-001	 1.465958163865716e+001
 1.088094164587713e+000	 7.113726793997586e-001	 1.451379963897676e+001
 1.176976309062392e+000	 6.085653357803470e-001	 1.561002384931484e+001
 1.170757936735493e+000	 6.204440777211642e-001	 1.545261996599864e+001
 1.164409944898726e+000	 6.322772178639721e-001	 1.533413058968863e+001
 1.157932752237980e+000	 6.440626842967306e-001	 1.523851483106246e+001
 1.151326820732586e+000	 6.557984079505305e-001	 1.513635399239690e+001
 1.144592655725618e+000	 6.674823237112890e-001	 1.502770467140674e+001
 1.137730805960439e+000	 6.791123715378249e-001	 1.491262455310103e+001
 1.130741863583143e+000	 6.906864975851285e-001	 1.479117235086437e+001
 1.123626464110552e+000	 7.022026553316328e-001	 1.466340775140419e+001
 1.116385286363495e+000	 7.136588067092652e-001	 1.452939136376725e+001
 1.109019052365140e+000	 7.250529232350426e-001	 1.438918467261195e+001
 1.199183409230746e+000	 6.200477006054626e-001	 1.540907185640227e+001
 1.192847709123722e+000	 6.321505697523810e-001	 1.529650179350103e+001
 1.186379943855785e+000	 6.442069766901034e-001	 1.520779891987634e+001
 1.179780540012556e+000	 6.562148104139098e-001	 1.511314426346920e+001
 1.173049968289960e+000	 6.681719628158557e-001	 1.501260232845710e+001
 1.166188743565844e+000	 6.800763298174419e-001	 1.490623803336700e+001
 1.159197424937220e+000	 6.919258125087859e-001	 1.479411663205876e+001
 1.152076615722752e+000	 7.037183182930862e-001	 1.467630363947546e+001
 1.144826963430145e+000	 7.154517620351616e-001	 1.455286476242207e+001
 1.137449159688166e+000	 7.271240672128245e-001	 1.442386583561654e+001
 1.129943940143065e+000	 7.387331670698292e-001	 1.428937276323681e+001
 1.221390509398596e+000	 6.315300654305784e-001	 1.527416726325294e+001
 1.214937481511548e+000	 6.438570617835928e-001	 1.519134501750154e+001
 1.208349942812540e+000	 6.561367355162149e-001	 1.510313946487364e+001
 1.201628327786929e+000	 6.683669365310445e-001	 1.500962421633486e+001
 1.194773115847230e+000	 6.805455176811016e-001	 1.491087265475269e+001
 1.187784831406066e+000	 6.926703359234709e-001	 1.480695783389926e+001
 1.180664043914098e+000	 7.047392534795689e-001	 1.469795238303944e+001
 1.173411367862558e+000	 7.167501390008013e-001	 1.458392841742916e+001
 1.166027462750034e+000	 7.287008687383725e-001	 1.446495745502894e+001
 1.158513033013234e+000	 7.405893277159817e-001	 1.434111033971633e+001
 1.150868827921487e+000	 7.524134109041186e-001	 1.421245717125926e+001
 1.243597609565942e+000	 6.430124302556941e-001	 1.518880415682994e+001
 1.237027253898969e+000	 6.555635538147999e-001	 1.510601382323540e+001
 1.230319941768991e+000	 6.680664943423066e-001	 1.501846758133450e+001
 1.223476115561098e+000	 6.805190626481350e-001	 1.492624849310120e+001
 1.216496263404397e+000	 6.929190725462686e-001	 1.482943865750403e+001
 1.209380919246285e+000	 7.052643420293766e-001	 1.472811909202533e+001
 1.202130662891074e+000	 7.175526944501734e-001	 1.462236962088859e+001
 1.194746120002561e+000	 7.297819597082732e-001	 1.451226877036393e+001
 1.187227962070220e+000	 7.419499754412662e-001	 1.439789367150056e+001
 1.179576906338700e+000	 7.540545882187365e-001	 1.427931997061053e+001
 1.171793715700407e+000	 7.660936547379107e-001	 1.415662174780377e+001
 1.265804709732784e+000	 6.544947950808098e-001	 1.507998871798855e+001
 1.259117026285987e+000	 6.672700458460021e-001	 1.501588015942101e+001
 1.252289940725138e+000	 6.799962531683786e-001	 1.494660819064596e+001
 1.245323903335064e+000	 6.926711887651810e-001	 1.486138697836915e+001
 1.238219410961460e+000	 7.052926274113568e-001	 1.476665126252912e+001
 1.230977007086501e+000	 7.178583481351587e-001	 1.466805515244853e+001
 1.223597281868146e+000	 7.303661354205999e-001	 1.456568549906000e+001
 1.216080872142761e+000	 7.428137804155025e-001	 1.445962706153486e+001
 1.208428461390704e+000	 7.551990821438422e-001	 1.434996239610077e+001
 1.200640779664564e+000	 7.675198487210888e-001	 1.423677175389016e+001
 1.192718603479824e+000	 7.797738985712054e-001	 1.412013298815712e+001
 1.288011809899122e+000	 6.659771599059257e-001	 1.496796057388593e+001
 1.281206798672601e+000	 6.789765378771995e-001	 1.490740665226445e+001
 1.274259939680982e+000	 6.919260119944312e-001	 1.484211723756213e+001
 1.267171691108826e+000	 7.048233148821825e-001	 1.477225152267318e+001
 1.259942558518420e+000	 7.176661822763658e-001	 1.469797353463057e+001
 1.252573094926714e+000	 7.304523542408169e-001	 1.461945198420109e+001
 1.245063900845315e+000	 7.431795763908483e-001	 1.452628967008048e+001
 1.237415624283158e+000	 7.558456011224888e-001	 1.442437901132957e+001
 1.229628960711485e+000	 7.684481888461004e-001	 1.431952676008267e+001
 1.221704652990824e+000	 7.809851092230388e-001	 1.421181758317205e+001
 1.213643491259739e+000	 7.934541424040027e-001	 1.410133290727149e+001
 1.310218910064956e+000	 6.774595247310413e-001	 1.486826880577743e+001
 1.303296571058811e+000	 6.906830299083917e-001	 1.481156345152472e+001
 1.296229938636522e+000	 7.038557708204640e-001	 1.475053285530469e+001
 1.289019478882384e+000	 7.169754409991397e-001	 1.468534674847110e+001
 1.281665706075276e+000	 7.300397371412960e-001	 1.461617948186840e+001
 1.274169182766923e+000	 7.430463603463516e-001	 1.454320986116553e+001
 1.266530519822581e+000	 7.559930173609184e-001	 1.446662097282298e+001
 1.258750376423753e+000	 7.688774218292324e-001	 1.438660000088804e+001
 1.250829460032563e+000	 7.816972955480412e-001	 1.430333803483976e+001
 1.242768526317482e+000	 7.944503697245862e-001	 1.420287787535068e+001
 1.234568379040151e+000	 8.071343862363026e-001	 1.409863263979285e+001
 1.332426010230286e+000	 6.889418895561570e-001	 1.478025944298941e+001
 1.325386343444616e+000	 7.023895219395790e-001	 1.472768166074498e+001
 1.318199937591758e+000	 7.157855296464768e-001	 1.467117185450882e+001
 1.310867266655738e+000	 7.291275671160524e-001	 1.461091017253607e+001
 1.303388853632028e+000	 7.424132920061468e-001	 1.454708118153216e+001
 1.295765270607128e+000	 7.556403664517626e-001	 1.447987368789685e+001
 1.287997138799943e+000	 7.688064583308102e-001	 1.440948054961086e+001
 1.280085128564544e+000	 7.819092425357328e-001	 1.433609847898322e+001
 1.272029959353938e+000	 7.949464022496643e-001	 1.425992783650680e+001
 1.263832399644536e+000	 8.079156302257311e-001	 1.418117241609344e+001
 1.255493266821059e+000	 8.208146300681053e-001	 1.410003922198758e+001
 1.046244389034349e+000	 6.840121917276982e-001	 1.484557300905684e+001
 1.039177855863086e+000	 6.947009312609056e-001	 1.466503207257505e+001
 1.031994829125725e+000	 7.053273514202587e-001	 1.448146529989540e+001
 1.024696111339581e+000	 7.158895720722920e-001	 1.429509610090920e+001
 1.017282545062913e+000	 7.263857263871184e-001	 1.410614724043754e+001
 1.009755012632604e+000	 7.368139618953941e-001	 1.391484063536560e+001
 1.002114435868594e+000	 7.471724415395481e-001	 1.372139715665921e+001
 9.943617757451817e-001	 7.574593447180577e-001	 1.352603643660963e+001
 9.864980320293814e-001	 7.676728683215579e-001	 1.332897668163634e+001
 9.785242428865573e-001	 7.778112277595842e-001	 1.313043449095540e+001
 9.704414844536136e-001	 7.878726579767392e-001	 1.293062468140222e+001
 1.067169276810782e+000	 6.976924355639771e-001	 1.466522387408269e+001
 1.059961412976264e+000	 7.085949498887223e-001	 1.449924194565989e+001
 1.052634725704365e+000	 7.194338984519827e-001	 1.433024028380910e+001
 1.045190033562748e+000	 7.302073635176232e-001	 1.415841910134261e+001
 1.037628195960835e+000	 7.409134409191583e-001	 1.398397765787725e+001
 1.029950112882250e+000	 7.515502411378571e-001	 1.380711408055781e+001
 1.022156724583329e+000	 7.621158903749966e-001	 1.362802519048733e+001
 1.014249011257858e+000	 7.726085316170229e-001	 1.344690633517458e+001
 1.006227992668192e+000	 7.830263256923840e-001	 1.326395122729048e+001
 9.980947277430011e-001	 7.933674523188058e-001	 1.307935179000118e+001
 9.898503141419284e-001	 8.036301111397820e-001	 1.289329800912324e+001
 1.088094164587713e+000	 7.113726793997586e-001	 1.451379963897676e+001
 1.080744970090029e+000	 7.224889685159561e-001	 1.436096686389127e+001
 1.073274622283663e+000	 7.335404454830685e-001	 1.420513348340018e+001
 1.065683955786622e+000	 7.445251549622907e-001	 1.404647705805787e+001
 1.057973846859497e+000	 7.554411554505388e-001	 1.388517387041201e+001
 1.050145213132646e+000	 7.662865203796949e-001	 1.372139876883717e+001
 1.042199013298805e+000	 7.770593392098841e-001	 1.355532501793048e+001
 1.034136246771246e+000	 7.877577185155216e-001	 1.338712415574645e+001
 1.025957953307663e+000	 7.983797830628682e-001	 1.321696585812424e+001
 1.017665212600036e+000	 8.089236768778395e-001	 1.304501781033630e+001
 1.009259143830745e+000	 8.193875643028223e-001	 1.287144558626182e+001
 1.109019052365140e+000	 7.250529232350426e-001	 1.438918467261195e+001
 1.101528527204382e+000	 7.363829871426078e-001	 1.424816754493116e+001
 1.093914518863618e+000	 7.476469925135163e-001	 1.410418225387367e+001
 1.086177878011206e+000	 7.588429464062945e-001	 1.395738421382993e+001
 1.078319497758898e+000	 7.699688699812599e-001	 1.380792721914855e+001
 1.070340313383791e+000	 7.810227996209072e-001	 1.365596331063439e+001
 1.062241302015021e+000	 7.920027880442104e-001	 1.350164264949650e+001
 1.054023482285344e+000	 8.029069054135536e-001	 1.334511339898990e+001
 1.045687913947796e+000	 8.137332404330099e-001	 1.318652161396780e+001
 1.037235697457663e+000	 8.244799014366857e-001	 1.302601113853461e+001
 1.028667973520062e+000	 8.351450174658596e-001	 1.286372351196101e+001
 1.129943940143065e+000	 7.387331670698292e-001	 1.428937276323681e+001
 1.122312084319322e+000	 7.502770057686764e-001	 1.415890842144638e+001
 1.114554415444232e+000	 7.617535395433264e-001	 1.402552197079438e+001
 1.106671800236498e+000	 7.731607378496349e-001	 1.388934714961294e+001
 1.098665148659037e+000	 7.844965845113217e-001	 1.375051571639995e+001
 1.090535413635685e+000	 7.957590788614946e-001	 1.360915733856668e+001
 1.082283590731976e+000	 8.069462368779760e-001	 1.346539948955719e+001
 1.073910717800152e+000	 8.180560923111190e-001	 1.331936735454989e+001
 1.065417874588589e+000	 8.290866978028094e-001	 1.317118374492321e+001
 1.056806182315880e+000	 8.400361259953445e-001	 1.302096902163640e+001
 1.048076803209881e+000	 8.509024706288946e-001	 1.286884102764602e+001
 1.150868827921487e+000	 7.524134109041186e-001	 1.421245717125926e+001
 1.143095641434849e+000	 7.641710243941629e-001	 1.409134821247167e+001
 1.135194312025504e+000	 7.758600865724983e-001	 1.396737711914498e+001
 1.127165722462498e+000	 7.874785292923112e-001	 1.384065639016034e+001
 1.119010799559916e+000	 7.990242990407239e-001	 1.371129616648508e+001
 1.110730513888330e+000	 8.104953581014568e-001	 1.357940414178435e+001
 1.102325879449672e+000	 8.218896857111800e-001	 1.344508548236051e+001
 1.093797953315672e+000	 8.332052792082176e-001	 1.330844275659893e+001
 1.085147835230044e+000	 8.444401551722669e-001	 1.316957587406686e+001
 1.076376667174689e+000	 8.555923505538158e-001	 1.302858203437874e+001
 1.067485632900202e+000	 8.666599237919267e-001	 1.288555568590783e+001
 1.171793715700407e+000	 7.660936547379107e-001	 1.415662174780377e+001
 1.163879198550964e+000	 7.780650430190667e-001	 1.404373150498396e+001
 1.155834208607433e+000	 7.899666336010324e-001	 1.392805333712800e+001
 1.147659644689206e+000	 8.017963207343239e-001	 1.380967890904264e+001
 1.139356450461533e+000	 8.135520135694664e-001	 1.368869713072813e+001
 1.130925614141723e+000	 8.252316373407934e-001	 1.356519408949474e+001
 1.122368168168108e+000	 8.368331345438235e-001	 1.343925299239908e+001
 1.113685188831901e+000	 8.483544661048493e-001	 1.331095411914721e+001
 1.104877795872159e+000	 8.597936125413822e-001	 1.318037478557680e+001
 1.095947152034089e+000	 8.711485751120996e-001	 1.304758931779418e+001
 1.086894462591023e+000	 8.824173769549563e-001	 1.291266903700639e+001
 1.192718603479824e+000	 7.797738985712054e-001	 1.412013298815712e+001
 1.184662755667667e+000	 7.919590616433879e-001	 1.401438122162660e+001
 1.176474105190020e+000	 8.040731806289283e-001	 1.390593029746218e+001
 1.168153566916623e+000	 8.161141121756732e-001	 1.379485142261094e+001
 1.159702101363889e+000	 8.280797280975500e-001	 1.368121263298444e+001
 1.151120714395866e+000	 8.399679165795049e-001	 1.356507874674663e+001
 1.142410456887284e+000	 8.517765833759058e-001	 1.344651132894993e+001
 1.133572424348841e+000	 8.635036530010146e-001	 1.332556866763586e+001
 1.124607756514936e+000	 8.751470699101549e-001	 1.320230576147840e+001
 1.115517636894080e+000	 8.867047996701954e-001	 1.307677431900940e+001
 1.106303292282346e+000	 8.981748301179827e-001	 1.294902276942602e+001
 1.213643491259739e+000	 7.934541424040027e-001	 1.410133290727149e+001
 1.205446312784956e+000	 8.058530802671269e-001	 1.400169186763455e+001
 1.197114001773264e+000	 8.181797276561860e-001	 1.389945532509662e+001
 1.188647489144748e+000	 8.304319036163590e-001	 1.379467437768814e+001
 1.180047752266984e+000	 8.426074426249738e-001	 1.368739651631881e+001
 1.171315814650759e+000	 8.547041958175911e-001	 1.357766559892673e+001
 1.162452745607200e+000	 8.667200322074270e-001	 1.346552183704155e+001
 1.153459659866493e+000	 8.786528398967133e-001	 1.335100179484805e+001
 1.144337717158373e+000	 8.905005272785856e-001	 1.323413840079542e+001
 1.135088121754663e+000	 9.022610242281041e-001	 1.311496097175446e+001
 1.125712121974170e+000	 9.139322832810067e-001	 1.299349524968368e+001
 1.234568379040151e+000	 8.071343862363026e-001	 1.409863263979285e+001
 1.226229869902834e+000	 8.197470988902831e-001	 1.400412346451309e+001
 1.217753898357167e+000	 8.322862746828061e-001	 1.390713766397085e+001
 1.209141411373581e+000	 8.447496950563807e-001	 1.380770655068147e+001
 1.200393403170818e+000	 8.571351571517382e-001	 1.370585737358100e+001
 1.191510914906401e+000	 8.694404750550522e-001	 1.360161331274807e+001
 1.182495034327856e+000	 8.816634810383872e-001	 1.349499348764436e+001
 1.173346895384854e+000	 8.938020267919451e-001	 1.338601297893092e+001
 1.164067677802471e+000	 9.058539846466741e-001	 1.327468286387219e+001
 1.154658606615837e+000	 9.178172487858251e-001	 1.316101026529465e+001
 1.145120951666496e+000	 9.296897364440285e-001	 1.304499841402127e+001
 1.255493266821059e+000	 8.208146300681053e-001	 1.410003922198758e+001
 1.247013427021299e+000	 8.336411175128567e-001	 1.402019609034851e+001
 1.238393794941728e+000	 8.463928217087881e-001	 1.392754331709895e+001
 1.229635333603122e+000	 8.590674864957387e-001	 1.383256018678387e+001
 1.220739054075391e+000	 8.716628716778431e-001	 1.373525398492366e+001
 1.211706015162792e+000	 8.841767542918880e-001	 1.363562747113933e+001
 1.202537323049252e+000	 8.966069298687865e-001	 1.353367890884237e+001
 1.193234130903926e+000	 9.089512136867101e-001	 1.342940210961535e+001
 1.183797638447231e+000	 9.212074420144203e-001	 1.332278649226374e+001
 1.174229091477602e+000	 9.333734733433585e-001	 1.321381715646943e+001
 1.164529781359323e+000	 9.454471896070471e-001	 1.310247497092847e+001
 9.704414844536136e-001	 7.878726579767392e-001	 1.293062468140222e+001
 9.622508703799659e-001	 7.978554144576137e-001	 1.273482382849664e+001
 9.539535513369586e-001	 8.077577742177589e-001	 1.253689829759565e+001
 9.455507144959995e-001	 8.175780367805177e-001	 1.233698977274005e+001
 9.370435829756511e-001	 8.273145251396229e-001	 1.213523867643867e+001
 9.284334152585064e-001	 8.369655867049054e-001	 1.193178410208860e+001
 9.197215045783189e-001	 8.465295942305035e-001	 1.172676375236191e+001
 9.109091782780104e-001	 8.560049467244861e-001	 1.152031388355934e+001
 9.019977971392149e-001	 8.653900703388237e-001	 1.131256925590933e+001
 8.929887546840698e-001	 8.746834192386785e-001	 1.110366308976998e+001
 8.838834764499999e-001	 8.838834764499999e-001	 1.089372702766919e+001
 9.898503141419284e-001	 8.036301111397820e-001	 1.289329800912324e+001
 9.814958877873232e-001	 8.138125227497113e-001	 1.270744182720000e+001
 9.730326223639016e-001	 8.239129297045710e-001	 1.251938405132728e+001
 9.644617287864989e-001	 8.339295975181713e-001	 1.232925423214011e+001
 9.557844546360499e-001	 8.438608156441201e-001	 1.213718050569403e+001
 9.470020835647984e-001	 8.537048984404442e-001	 1.194328954204154e+001
 9.381159346711734e-001	 8.634601861163659e-001	 1.174770650026783e+001
 9.291273618449545e-001	 8.731250456601145e-001	 1.155055498995371e+001
 9.200377530834086e-001	 8.826978717467010e-001	 1.135195703900875e+001
 9.108485297791161e-001	 8.921770876245897e-001	 1.115203306779627e+001
 9.015611459802497e-001	 9.015611459802499e-001	 1.095090186944844e+001
 1.009259143830745e+000	 8.193875643028223e-001	 1.287144558626182e+001
 1.000740905195092e+000	 8.297696310419911e-001	 1.269508486817365e+001
 9.921116933911854e-001	 8.400680851917207e-001	 1.251645762972432e+001
 9.833727430772894e-001	 8.502811582562881e-001	 1.233568125457781e+001
 9.745253262967094e-001	 8.604071061491758e-001	 1.215287154190700e+001
 9.655707518713410e-001	 8.704442101766073e-001	 1.196814267134547e+001
 9.565103647642882e-001	 8.803907780028876e-001	 1.178160717492459e+001
 9.473455454121886e-001	 8.902451445964076e-001	 1.159337591592912e+001
 9.380777090279425e-001	 9.000056731552177e-001	 1.140355807458025e+001
 9.287083048745723e-001	 9.096707560110861e-001	 1.121226114042972e+001
 9.192388155110001e-001	 9.192388155110001e-001	 1.101959091132529e+001
 1.028667973520062e+000	 8.351450174658596e-001	 1.286372351196101e+001
 1.019985922603272e+000	 8.457267393344534e-001	 1.269644075259579e+001
 1.011190764418811e+000	 8.562232406792083e-001	 1.252683873915615e+001
 1.002283757368371e+000	 8.666327189948682e-001	 1.235502263458656e+001
 9.932661979576295e-001	 8.769533966547898e-001	 1.218109583022818e+001
 9.841394201781339e-001	 8.871835219133940e-001	 1.200515992738692e+001
 9.749047948576629e-001	 8.973213698900684e-001	 1.182731472644603e+001
 9.655637289797132e-001	 9.073652435333653e-001	 1.164765822342168e+001
 9.561176649728165e-001	 9.173134745643744e-001	 1.146628661383476e+001
 9.465680799704386e-001	 9.271644243981670e-001	 1.128329430374435e+001
 9.369164850422498e-001	 9.369164850422498e-001	 1.109877392776403e+001
 1.048076803209881e+000	 8.509024706288946e-001	 1.286884102764602e+001
 1.039230940011862e+000	 8.616838476270980e-001	 1.271024832779682e+001
 1.030269835446777e+000	 8.723783961670337e-001	 1.254929604920475e+001
 1.021194771659744e+000	 8.829842797339110e-001	 1.238607706118378e+001
 1.012007069618811e+000	 8.934996871609622e-001	 1.222068225678800e+001
 1.002708088485177e+000	 9.039228336508047e-001	 1.205320055125766e+001
 9.932992249512983e-001	 9.142519617779087e-001	 1.188371888860296e+001
 9.837819125475277e-001	 9.244853424709879e-001	 1.171232225618889e+001
 9.741576209180304e-001	 9.346212759741709e-001	 1.153909370715763e+001
 9.644278550667147e-001	 9.446580927858330e-001	 1.136411439049470e+001
 9.545941545740001e-001	 9.545941545740000e-001	 1.118746358852023e+001
 1.067485632900202e+000	 8.666599237919267e-001	 1.288555568590783e+001
 1.058475957420865e+000	 8.776409559199254e-001	 1.273529284670029e+001
 1.049348906475084e+000	 8.885335516551965e-001	 1.258264274146378e+001
 1.040105785951407e+000	 8.993358404734170e-001	 1.242768585473616e+001
 1.030747941280253e+000	 9.100459776676935e-001	 1.227050047224402e+001
 1.021276756792472e+000	 9.206621453888396e-001	 1.211116269650875e+001
 1.011693655045194e+000	 9.311825536664083e-001	 1.194974647121778e+001
 1.002000096115632e+000	 9.416054414092747e-001	 1.178632361418939e+001
 9.921975768635845e-001	 9.519290773846075e-001	 1.162096385872905e+001
 9.822876301634012e-001	 9.621517611740841e-001	 1.145373490314461e+001
 9.722718241062499e-001	 9.722718241062499e-001	 1.128470246815950e+001
 1.086894462591023e+000	 8.824173769549563e-001	 1.291266903700639e+001
 1.077720974830279e+000	 8.935980642129352e-001	 1.277040182446617e+001
 1.068427977503733e+000	 9.046887071436970e-001	 1.262573253525179e+001
 1.059016800243361e+000	 9.156874012133863e-001	 1.247872916058913e+001
 1.049488812941954e+000	 9.265922681749831e-001	 1.232945725209100e+001
 1.039845425100016e+000	 9.374014571274981e-001	 1.217797995482387e+001
 1.030088085139350e+000	 9.481131455555671e-001	 1.202435804980289e+001
 1.020218279684027e+000	 9.587255403482263e-001	 1.186865000570785e+001
 1.010237532809479e+000	 9.692368787956833e-001	 1.171091203957816e+001
 1.000147405260498e+000	 9.796454295629201e-001	 1.155119818621488e+001
 9.899494936390003e-001	 9.899494936390003e-001	 1.138956037598538e+001
 1.106303292282346e+000	 8.981748301179827e-001	 1.294902276942602e+001
 1.096965992240104e+000	 9.095551725061274e-001	 1.281444133127748e+001
 1.087507048532723e+000	 9.208438626325356e-001	 1.267745613167149e+001
 1.077927814535607e+000	 9.320389619538184e-001	 1.253812254336706e+001
 1.068229684603918e+000	 9.431385586828309e-001	 1.239649324009638e+001
 1.058414093407811e+000	 9.541407688667807e-001	 1.225261824741124e+001
 1.048482515233766e+000	 9.650437374453850e-001	 1.210654500365803e+001
 1.038436463252712e+000	 9.758456392878423e-001	 1.195831843083508e+001
 1.028277488755713e+000	 9.865446802073995e-001	 1.180798101505218e+001
 1.018007180358004e+000	 9.971390979523412e-001	 1.165557289627788e+001
 1.007627163172250e+000	 1.007627163172250e+000	 1.150113196702696e+001
 1.125712121974170e+000	 9.139322832810067e-001	 1.299349524968368e+001
 1.116211009650340e+000	 9.255122807995019e-001	 1.286631266863126e+001
 1.106586119562053e+000	 9.369990181217117e-001	 1.273673802552494e+001
 1.096838828828143e+000	 9.483905226947139e-001	 1.260481393358719e+001
 1.086970556266142e+000	 9.596848491912375e-001	 1.247058002862135e+001
 1.076982761715857e+000	 9.708800806066870e-001	 1.233407303797560e+001
 1.066876945328443e+000	 9.819743293358622e-001	 1.219532686037132e+001
 1.056654646821688e+000	 9.929657382281232e-001	 1.205437265631250e+001
 1.046317444702287e+000	 1.003852481619755e+000	 1.191123894875479e+001
 1.035866955455920e+000	 1.014632766342347e+000	 1.176595173367757e+001
 1.025304832706000e+000	 1.025304832706000e+000	 1.161853460016609e+001
 1.145120951666496e+000	 9.296897364440285e-001	 1.304499841402127e+001
 1.135456027060987e+000	 9.414693890930587e-001	 1.292494938363407e+001
 1.125665190591725e+000	 9.531541736112255e-001	 1.280253364144078e+001
 1.115749843120970e+000	 9.647420834360720e-001	 1.267778088478726e+001
 1.105711427928626e+000	 9.762311397002028e-001	 1.255071753585902e+001
 1.095551430024153e+000	 9.876193923472172e-001	 1.242136682911685e+001
 1.085271375423379e+000	 9.989049212269988e-001	 1.228974891037106e+001
 1.074872830390953e+000	 1.010085837169068e+000	 1.215588094717162e+001
 1.064357400649202e+000	 1.021160283032751e+000	 1.201977725015131e+001
 1.053726730554247e+000	 1.032126434732938e+000	 1.188144940492144e+001
 1.042982502240250e+000	 1.042982502240250e+000	 1.174090641408206e+001
 1.164529781359323e+000	 9.454471896070471e-001	 1.310247497092847e+001
 1.154701044472046e+000	 9.574264973867980e-001	 1.298931458186805e+001
 1.144744261621738e+000	 9.693093291010768e-001	 1.287382675638876e+001
 1.134660857414088e+000	 9.810936441778935e-001	 1.275602810494067e+001
 1.124452299591371e+000	 9.927774302097262e-001	 1.263593164534817e+001
 1.114120098332700e+000	 1.004358704088371e+000	 1.251354690908872e+001
 1.103665805518577e+000	 1.015835513118795e+000	 1.238888006002251e+001
 1.093091013960508e+000	 1.027205936110678e+000	 1.226193402521015e+001
 1.082397356596456e+000	 1.038468084446387e+000	 1.213270863741348e+001
 1.071586505652983e+000	 1.049620103124114e+000	 1.200120078883369e+001
 1.060660171775000e+000	 1.060660171775000e+000	 1.186740459560161e+001
 8.838834764499999e-001	 8.838834764499999e-001	 1.089372702766919e+001
 8.746834192386785e-001	 8.929887546840698e-001	 1.067853154644511e+001
 8.653900703388238e-001	 9.019977971392147e-001	 1.046273745914060e+001
 8.560049467244860e-001	 9.109091782780104e-001	 1.024647412123887e+001
 8.465295942305037e-001	 9.197215045783191e-001	 1.002986916882357e+001
 8.369655867049053e-001	 9.284334152585063e-001	 9.813048505733097e+000
 8.273145251396229e-001	 9.370435829756509e-001	 9.596136295795510e+000
 8.175780367805178e-001	 9.455507144959995e-001	 9.379254959954903e+000
 8.077577742177586e-001	 9.539535513369589e-001	 9.162525178085355e+000
 7.978554144576137e-001	 9.622508703799658e-001	 8.946065895274227e+000
 7.878726579767392e-001	 9.704414844536136e-001	 8.729994332344367e+000
 9.015611459802497e-001	 9.015611459802499e-001	 1.095090186944844e+001
 8.921770876245896e-001	 9.108485297791160e-001	 1.074450470125982e+001
 8.826978717467009e-001	 9.200377530834085e-001	 1.053740868946757e+001
 8.731250456601145e-001	 9.291273618449544e-001	 1.032973049876221e+001
 8.634601861163659e-001	 9.381159346711734e-001	 1.012158500099248e+001
 8.537048984404443e-001	 9.470020835647984e-001	 9.913085281700775e+000
 8.438608156441201e-001	 9.557844546360498e-001	 9.704342651976376e+000
 8.339295975181715e-001	 9.644617287864988e-001	 9.495466665392558e+000
 8.239129297045709e-001	 9.730326223639019e-001	 9.286565139778915e+000
 8.138125227497111e-001	 9.814958877873232e-001	 9.077744183564963e+000
 8.036301111397820e-001	 9.898503141419285e-001	 8.869108226419010e+000
 9.192388155110001e-001	 9.192388155110001e-001	 1.101959091132529e+001
 9.096707560110861e-001	 9.287083048745725e-001	 1.082167656350026e+001
 9.000056731552177e-001	 9.380777090279423e-001	 1.062297010934267e+001
 8.902451445964077e-001	 9.473455454121889e-001	 1.042357532869807e+001
 8.803907780028876e-001	 9.565103647642882e-001	 1.022359412438371e+001
 8.704442101766073e-001	 9.655707518713408e-001	 1.002312654861399e+001
 8.604071061491757e-001	 9.745253262967094e-001	 9.822270835000134e+000
 8.502811582562883e-001	 9.833727430772894e-001	 9.621123435844680e+000
 8.400680851917207e-001	 9.921116933911856e-001	 9.419779064435506e+000
 8.297696310419912e-001	 1.000740905195092e+000	 9.218330742028599e+000
 8.193875643028225e-001	 1.009259143830745e+000	 9.016869849196116e+000
 9.369164850422498e-001	 9.369164850422498e-001	 1.109877392776403e+001
 9.271644243981670e-001	 9.465680799704386e-001	 1.090905871812829e+001
 9.173134745643742e-001	 9.561176649728163e-001	 1.071846532690645e+001
 9.073652435333653e-001	 9.655637289797131e-001	 1.052708443285756e+001
 8.973213698900684e-001	 9.749047948576629e-001	 1.033500474254293e+001
 8.871835219133941e-001	 9.841394201781341e-001	 1.014231303717715e+001
 8.769533966547899e-001	 9.932661979576296e-001	 9.949094225328919e+000
 8.666327189948683e-001	 1.002283757368371e+000	 9.755431401146975e+000
 8.562232406792082e-001	 1.011190764418811e+000	 9.561405907766318e+000
 8.457267393344534e-001	 1.019985922603272e+000	 9.367097405536951e+000
 8.351450174658597e-001	 1.028667973520062e+000	 9.172583944701255e+000
 9.545941545740001e-001	 9.545941545740000e-001	 1.118746358852023e+001
 9.446580927858330e-001	 9.644278550667149e-001	 1.100569379858304e+001
 9.346212759741711e-001	 9.741576209180304e-001	 1.082296715835523e+001
 9.244853424709877e-001	 9.837819125475277e-001	 1.063936100796435e+001
 9.142519617779087e-001	 9.932992249512984e-001	 1.045495060894500e+001
 9.039228336508051e-001	 1.002708088485178e+000	 1.026980921207511e+001
 8.934996871609623e-001	 1.012007069618811e+000	 1.008400813136011e+001
 8.829842797339114e-001	 1.021194771659744e+000	 9.897616823789635e+000
 8.723783961670335e-001	 1.030269835446777e+000	 9.710702974473977e+000
 8.616838476270980e-001	 1.039230940011862e+000	 9.523332586751582e+000
 8.509024706288946e-001	 1.048076803209881e+000	 9.335570076843590e+000
 9.722718241062499e-001	 9.722718241062499e-001	 1.128470246815950e+001
 9.621517611740841e-001	 9.822876301634012e-001	 1.111065266419221e+001
 9.519290773846075e-001	 9.921975768635845e-001	 1.093557497266317e+001
 9.416054414092745e-001	 1.002000096115632e+000	 1.075953313702641e+001
 9.311825536664081e-001	 1.011693655045194e+000	 1.058258870427289e+001
 9.206621453888395e-001	 1.021276756792472e+000	 1.040480111433862e+001
 9.100459776676934e-001	 1.030747941280252e+000	 1.022622779597771e+001
 8.993358404734172e-001	 1.040105785951407e+000	 1.004692426867636e+001
 8.885335516551965e-001	 1.049348906475085e+000	 9.866944250162533e+000
 8.776409559199254e-001	 1.058475957420865e+000	 9.686339769052051e+000
 8.666599237919266e-001	 1.067485632900202e+000	 9.505161282154013e+000
 9.899494936390003e-001	 9.899494936390003e-001	 1.138956037598538e+001
 9.796454295629200e-001	 1.000147405260498e+000	 1.122303188000335e+001
 9.692368787956835e-001	 1.010237532809479e+000	 1.105541232079869e+001
 9.587255403482264e-001	 1.020218279684028e+000	 1.088675156734605e+001
 9.481131455555671e-001	 1.030088085139350e+000	 1.071709716256010e+001
 9.374014571274982e-001	 1.039845425100016e+000	 1.054649443488482e+001
 9.265922681749831e-001	 1.049488812941954e+000	 1.037498661668752e+001
 9.156874012133863e-001	 1.059016800243361e+000	 1.020261496897996e+001
 9.046887071436972e-001	 1.068427977503733e+000	 1.002941891197112e+001
 8.935980642129352e-001	 1.077720974830279e+000	 9.855436160936025e+000
 8.824173769549563e-001	 1.086894462591023e+000	 9.680702866872352e+000
 1.007627163172250e+000	 1.007627163172250e+000	 1.150113196702696e+001
 9.971390979523412e-001	 1.018007180358004e+000	 1.134195146189607e+001
 9.865446802073997e-001	 1.028277488755713e+000	 1.118162481449672e+001
 9.758456392878422e-001	 1.038436463252712e+000	 1.102018772242415e+001
 9.650437374453851e-001	 1.048482515233766e+000	 1.085767341563324e+001
 9.541407688667806e-001	 1.058414093407811e+000	 1.069411279084300e+001
 9.431385586828311e-001	 1.068229684603918e+000	 1.052953455310620e+001
 9.320389619538184e-001	 1.077927814535606e+000	 1.036396536401381e+001
 9.208438626325355e-001	 1.087507048532722e+000	 1.019742999598334e+001
 9.095551725061273e-001	 1.096965992240104e+000	 1.002995149206174e+001
 8.981748301179828e-001	 1.106303292282346e+000	 9.861551330657244e+000
 1.025304832706000e+000	 1.025304832706000e+000	 1.161853460016609e+001
 1.014632766342347e+000	 1.035866955455920e+000	 1.146655285495865e+001
 1.003852481619755e+000	 1.046317444702287e+000	 1.131337822446852e+001
 9.929657382281231e-001	 1.056654646821688e+000	 1.115903191952907e+001
 9.819743293358623e-001	 1.066876945328443e+000	 1.100353252950952e+001
 9.708800806066870e-001	 1.076982761715857e+000	 1.084689618019154e+001
 9.596848491912375e-001	 1.086970556266142e+000	 1.068913669919353e+001
 9.483905226947139e-001	 1.096838828828143e+000	 1.053026578835739e+001
 9.369990181217115e-001	 1.106586119562053e+000	 1.037029320249062e+001
 9.255122807995019e-001	 1.116211009650340e+000	 1.020922693383746e+001
 9.139322832810067e-001	 1.125712121974170e+000	 1.004707340163615e+001
 1.042982502240250e+000	 1.042982502240250e+000	 1.174090641408206e+001
 1.032126434732938e+000	 1.053726730554247e+000	 1.159599711745329e+001
 1.021160283032751e+000	 1.064357400649201e+000	 1.144985677201387e+001
 1.010085837169068e+000	 1.074872830390953e+000	 1.130249176852998e+001
 9.989049212269989e-001	 1.085271375423380e+000	 1.115390570997355e+001
 9.876193923472172e-001	 1.095551430024153e+000	 1.100409959355028e+001
 9.762311397002028e-001	 1.105711427928626e+000	 1.085307200068062e+001
 9.647420834360724e-001	 1.115749843120970e+000	 1.070081929429162e+001
 9.531541736112253e-001	 1.125665190591725e+000	 1.054733582275423e+001
 9.414693890930588e-001	 1.135456027060987e+000	 1.039261412978171e+001
 9.296897364440283e-001	 1.145120951666496e+000	 1.023664516958606e+001
 1.060660171775000e+000	 1.060660171775000e+000	 1.186740459560161e+001
 1.049620103124114e+000	 1.071586505652983e+000	 1.172946328638500e+001
 1.038468084446386e+000	 1.082397356596456e+000	 1.159026159147200e+001
 1.027205936110678e+000	 1.093091013960509e+000	 1.144979073084682e+001
 1.015835513118795e+000	 1.103665805518577e+000	 1.130803895759686e+001
 1.004358704088371e+000	 1.114120098332699e+000	 1.116499176479376e+001
 9.927774302097263e-001	 1.124452299591371e+000	 1.102063210075576e+001
 9.810936441778935e-001	 1.134660857414088e+000	 1.087494059199018e+001
 9.693093291010766e-001	 1.144744261621738e+000	 1.072789577309115e+001
 9.574264973867980e-001	 1.154701044472046e+000	 1.057947432284743e+001
 9.454471896070471e-001	 1.164529781359323e+000	 1.042965130579607e+001
 7.878726579767392e-001	 9.704414844536136e-001	 8.729994332344367e+000
 7.778112277595841e-001	 9.785242428865572e-001	 8.511633324070376e+000
 7.676728683215578e-001	 9.864980320293814e-001	 8.296383142951022e+000
 7.574593447180574e-001	 9.943617757451816e-001	 8.084426364129842e+000
 7.471724415395482e-001	 1.002114435868594e+000	 7.875941279328328e+000
 7.368139618953939e-001	 1.009755012632604e+000	 7.671101863826191e+000
 7.263857263871183e-001	 1.017282545062913e+000	 7.470077749977104e+000
 7.158895720722921e-001	 1.024696111339581e+000	 7.273034207046567e+000
 7.053273514202586e-001	 1.031994829125725e+000	 7.080132127147119e+000
 6.947009312609058e-001	 1.039177855863086e+000	 6.891528017036428e+000
 6.840121917276981e-001	 1.046244389034349e+000	 6.707373995535252e+000
 8.036301111397820e-001	 9.898503141419285e-001	 8.869108226419010e+000
 7.933674523188057e-001	 9.980947277430013e-001	 8.661675890016586e+000
 7.830263256923841e-001	 1.006227992668192e+000	 8.456385401592307e+000
 7.726085316170228e-001	 1.014249011257858e+000	 8.253384999342480e+000
 7.621158903749964e-001	 1.022156724583330e+000	 8.052819542283416e+000
 7.515502411378570e-001	 1.029950112882250e+000	 7.854830515778815e+000
 7.409134409191582e-001	 1.037628195960835e+000	 7.659556042237492e+000
 7.302073635176234e-001	 1.045190033562748e+000	 7.467130896699958e+000
 7.194338984519826e-001	 1.052634725704365e+000	 7.277686527027783e+000
 7.085949498887223e-001	 1.059961412976264e+000	 7.091351078399847e+000
 6.976924355639771e-001	 1.067169276810782e+000	 6.908249421816024e+000
 8.193875643028225e-001	 1.009259143830745e+000	 9.016869849196116e+000
 8.089236768778395e-001	 1.017665212600036e+000	 8.818638074574828e+000
 7.983797830628682e-001	 1.025957953307663e+000	 8.621612783163629e+000
 7.877577185155216e-001	 1.034136246771246e+000	 8.425908238008830e+000
 7.770593392098840e-001	 1.042199013298805e+000	 8.231636201412909e+000
 7.662865203796948e-001	 1.050145213132645e+000	 8.038905979180260e+000
 7.554411554505388e-001	 1.057973846859497e+000	 7.847824468699041e+000
 7.445251549622909e-001	 1.065683955786623e+000	 7.658496210511835e+000
 7.335404454830685e-001	 1.073274622283663e+000	 7.471023443021998e+000
 7.224889685159562e-001	 1.080744970090029e+000	 7.285506159980557e+000
 7.113726793997586e-001	 1.088094164587713e+000	 7.102042170396283e+000
 8.351450174658597e-001	 1.028667973520062e+000	 9.172583944701255e+000
 8.244799014366857e-001	 1.037235697457663e+000	 8.981940884094529e+000
 8.137332404330099e-001	 1.045687913947796e+000	 8.791600898191048e+000
 8.029069054135535e-001	 1.054023482285344e+000	 8.601644577201554e+000
 7.920027880442103e-001	 1.062241302015021e+000	 8.412150864440269e+000
 7.810227996209072e-001	 1.070340313383791e+000	 8.223197139514079e+000
 7.699688699812599e-001	 1.078319497758898e+000	 8.034859304044844e+000
 7.588429464062948e-001	 1.086177878011206e+000	 7.847211869507761e+000
 7.476469925135163e-001	 1.093914518863619e+000	 7.660328046768146e+000
 7.363829871426076e-001	 1.101528527204381e+000	 7.474279836897680e+000
 7.250529232350426e-001	 1.109019052365140e+000	 7.289138122855318e+000
 8.509024706288946e-001	 1.048076803209881e+000	 9.335570076843590e+000
 8.400361259953446e-001	 1.056806182315880e+000	 9.151012227206572e+000
 8.290866978028095e-001	 1.065417874588589e+000	 8.965884478400652e+000
 8.180560923111189e-001	 1.073910717800152e+000	 8.780233994109874e+000
 8.069462368779760e-001	 1.082283590731977e+000	 8.594107121497688e+000
 7.957590788614946e-001	 1.090535413635686e+000	 8.407549513616202e+000
 7.844965845113215e-001	 1.098665148659037e+000	 8.220606253074452e+000
 7.731607378496348e-001	 1.106671800236498e+000	 8.033321976477865e+000
 7.617535395433264e-001	 1.114554415444232e+000	 7.845740999154178e+000
 7.502770057686765e-001	 1.122312084319322e+000	 7.657907439683362e+000
 7.387331670698292e-001	 1.129943940143065e+000	 7.469865343756379e+000
 8.666599237919266e-001	 1.067485632900202e+000	 9.505161282154013e+000
 8.555923505538157e-001	 1.076376667174689e+000	 9.325286287343323e+000
 8.444401551722667e-001	 1.085147835230044e+000	 9.143997456609355e+000
 8.332052792082172e-001	 1.093797953315671e+000	 8.961308720574490e+000
 8.218896857111800e-001	 1.102325879449672e+000	 8.777234001271049e+000
 8.104953581014569e-001	 1.110730513888330e+000	 8.591787374097180e+000
 7.990242990407239e-001	 1.119010799559915e+000	 8.404983229784094e+000
 7.874785292923114e-001	 1.127165722462498e+000	 8.216836435816159e+000
 7.758600865724983e-001	 1.135194312025504e+000	 8.027362496749319e+000
 7.641710243941627e-001	 1.143095641434849e+000	 7.836577712881816e+000
 7.524134109041186e-001	 1.150868827921488e+000	 7.644499336738946e+000
 8.824173769549563e-001	 1.086894462591023e+000	 9.680702866872352e+000
 8.711485751120995e-001	 1.095947152034089e+000	 9.504202962488350e+000
 8.597936125413821e-001	 1.104877795872159e+000	 9.325473038056163e+000
 8.483544661048493e-001	 1.113685188831901e+000	 9.144493934636376e+000
 8.368331345438236e-001	 1.122368168168108e+000	 8.961247271128906e+000
 8.252316373407935e-001	 1.130925614141723e+000	 8.775715646148099e+000
 8.135520135694665e-001	 1.139356450461533e+000	 8.587882838688618e+000
 8.017963207343242e-001	 1.147659644689206e+000	 8.397734006949026e+000
 7.899666336010321e-001	 1.155834208607433e+000	 8.205255884689899e+000
 7.780650430190668e-001	 1.163879198550964e+000	 8.010436974512547e+000
 7.660936547379107e-001	 1.171793715700407e+000	 7.813267737458528e+000
 8.981748301179828e-001	 1.106303292282346e+000	 9.861551330657244e+000
 8.867047996701954e-001	 1.115517636894080e+000	 9.687207363900228e+000
 8.751470699101551e-001	 1.124607756514936e+000	 9.509843764224769e+000
 8.635036530010145e-001	 1.133572424348842e+000	 9.329408379291385e+000
 8.517765833759058e-001	 1.142410456887284e+000	 9.145850600395971e+000
 8.399679165795050e-001	 1.151120714395866e+000	 8.959121604682725e+000
 8.280797280975500e-001	 1.159702101363889e+000	 8.769174594951213e+000
 8.161141121756732e-001	 1.168153566916623e+000	 8.575965036349848e+000
 8.040731806289282e-001	 1.176474105190020e+000	 8.379450889260951e+000
 7.919590616433881e-001	 1.184662755667667e+000	 8.179592837695479e+000
 7.797738985712054e-001	 1.192718603479824e+000	 7.976354512532646e+000
 9.139322832810067e-001	 1.125712121974170e+000	 1.004707340163615e+001
 9.022610242281041e-001	 1.135088121754663e+000	 9.873749366692053e+000
 8.905005272785858e-001	 1.144337717158373e+000	 9.696641570063736e+000
 8.786528398967132e-001	 1.153459659866493e+000	 9.515664917235259e+000
 8.667200322074271e-001	 1.162452745607200e+000	 9.330736603287908e+000
 8.547041958175913e-001	 1.171315814650759e+000	 9.141776395912977e+000
 8.426074426249739e-001	 1.180047752266984e+000	 8.948706914844836e+000
 8.304319036163591e-001	 1.188647489144747e+000	 8.751453906931472e+000
 8.181797276561860e-001	 1.197114001773265e+000	 8.549946516073362e+000
 8.058530802671269e-001	 1.205446312784956e+000	 8.344117547280103e+000
 7.934541424040027e-001	 1.213643491259739e+000	 8.133903724113154e+000
 9.296897364440283e-001	 1.145120951666496e+000	 1.023664516958606e+001
 9.178172487858249e-001	 1.154658606615837e+000	 1.006328320611512e+001
 9.058539846466741e-001	 1.164067677802471e+000	 9.885397835388043e+000
 8.938020267919450e-001	 1.173346895384854e+000	 9.702871029194379e+000
 8.816634810383872e-001	 1.182495034327856e+000	 9.515587775785075e+000
 8.694404750550523e-001	 1.191510914906401e+000	 9.323436404188190e+000
 8.571351571517383e-001	 1.200393403170818e+000	 9.126308903793936e+000
 8.447496950563810e-001	 1.209141411373581e+000	 8.924101238348104e+000
 8.322862746828059e-001	 1.217753898357167e+000	 8.716713653510672e+000
 8.197470988902831e-001	 1.226229869902834e+000	 8.504050977156693e+000
 8.071343862363025e-001	 1.234568379040151e+000	 8.286022911620586e+000
 9.454471896070471e-001	 1.164529781359323e+000	 1.042965130579607e+001
 9.333734733433584e-001	 1.174229091477602e+000	 1.025526711421403e+001
 9.212074420144205e-001	 1.183797638447231e+000	 1.007564343113994e+001
 9.089512136867100e-001	 1.193234130903926e+000	 9.890629262423019e+000
 8.966069298687863e-001	 1.202537323049252e+000	 9.700077338818607e+000
 8.841767542918877e-001	 1.211706015162792e+000	 9.503844482150267e+000
 8.716628716778431e-001	 1.220739054075391e+000	 9.301791965611464e+000
 8.590674864957389e-001	 1.229635333603122e+000	 9.093785867266641e+000
 8.463928217087879e-001	 1.238393794941728e+000	 8.879697415831402e+000
 8.336411175128569e-001	 1.247013427021299e+000	 8.659403327836209e+000
 8.208146300681053e-001	 1.255493266821059e+000	 8.506507369915262e+000
 6.840121917276981e-001	 1.046244389034349e+000	 6.707373995535252e+000
 6.732630251961720e-001	 1.053193666391865e+000	 6.512997110746530e+000
 6.624553352191411e-001	 1.060024966153559e+000	 6.325582104208900e+000
 6.515910354597977e-001	 1.066737607165498e+000	 6.145261920359319e+000
 6.406720486238722e-001	 1.073330949030676e+000	 5.972163282469996e+000
 6.297003053920891e-001	 1.079804392204921e+000	 5.806406737567222e+000
 6.186777433540813e-001	 1.086157378059845e+000	 5.640888425157011e+000
 6.076063059449273e-001	 1.092389388913029e+000	 5.479438655370116e+000
 5.964879413854602e-001	 1.098499948025727e+000	 5.328194037193680e+000
 5.853246016274839e-001	 1.104488619568381e+000	 5.187415200467850e+000
 5.741182413050000e-001	 1.110355008554307e+000	 5.057351592663835e+000
 6.976924355639771e-001	 1.067169276810782e+000	 6.908249421816024e+000
 6.867282857009388e-001	 1.074257539715344e+000	 6.713478641880120e+000
 6.757044419236228e-001	 1.081225465472260e+000	 6.523952091585922e+000
 6.646228561684840e-001	 1.088072359304516e+000	 6.339779003543804e+000
 6.534854895953678e-001	 1.094797568007166e+000	 6.161064016539891e+000
 6.422943114986126e-001	 1.101400480045157e+000	 5.987907239289968e+000
 6.310512982196433e-001	 1.107880525617529e+000	 5.820404318048264e+000
 6.197584320622395e-001	 1.114237176688216e+000	 5.652656641075526e+000
 6.084177002116505e-001	 1.120469946983697e+000	 5.485813497134752e+000
 5.970310936587155e-001	 1.126578391957822e+000	 5.327767556723913e+000
 5.856006061301156e-001	 1.132562108724173e+000	 5.178770065458959e+000
 7.113726793997586e-001	 1.088094164587713e+000	 7.102042170396283e+000
 7.001935462053034e-001	 1.095321413039221e+000	 6.905383809441755e+000
 6.889535486277866e-001	 1.102425964791257e+000	 6.712305560907810e+000
 6.776546768769275e-001	 1.109407111443731e+000	 6.522893047188992e+000
 6.662989305666857e-001	 1.116264186983754e+000	 6.337228890463959e+000
 6.548883176050127e-001	 1.122996567885389e+000	 6.155392795818223e+000
 6.434248530851267e-001	 1.129603673175110e+000	 5.977461635896117e+000
 6.319105581795074e-001	 1.136084964463200e+000	 5.803509536712592e+000
 6.203474590378212e-001	 1.142439945941363e+000	 5.628318194030674e+000
 6.087375856899424e-001	 1.148668164346860e+000	 5.451550613988688e+000
 5.970829709552312e-001	 1.154769208893534e+000	 5.282224811747763e+000
 7.250529232350426e-001	 1.109019052365140e+000	 7.289138122855318e+000
 7.136588067092652e-001	 1.116385286363495e+000	 7.089202162598939e+000
 7.022026553316330e-001	 1.123626464110552e+000	 6.891232550056079e+000
 6.906864975851284e-001	 1.130741863583143e+000	 6.695291354679528e+000
 6.791123715378250e-001	 1.137730805960439e+000	 6.501439207873868e+000
 6.674823237112888e-001	 1.144592655725618e+000	 6.309735406048592e+000
 6.557984079505305e-001	 1.151326820732586e+000	 6.120238012903242e+000
 6.440626842967309e-001	 1.157932752237980e+000	 5.933003960556324e+000
 6.322772178639721e-001	 1.164409944898726e+000	 5.748089149143302e+000
 6.204440777211642e-001	 1.170757936735493e+000	 5.560431908421517e+000
 6.085653357803471e-001	 1.176976309062392e+000	 5.369440139898210e+000
 7.387331670698292e-001	 1.129943940143065e+000	 7.469865343756379e+000
 7.271240672128245e-001	 1.137449159688166e+000	 7.265358543132628e+000
 7.154517620351615e-001	 1.144826963430144e+000	 7.061251738766683e+000
 7.037183182930863e-001	 1.152076615722752e+000	 6.857583462428845e+000
 6.919258125087859e-001	 1.159197424937220e+000	 6.654392340693784e+000
 6.800763298174418e-001	 1.166188743565844e+000	 6.451717218512940e+000
 6.681719628158557e-001	 1.173049968289960e+000	 6.249597279747490e+000
 6.562148104139098e-001	 1.179780540012556e+000	 6.048072164252220e+000
 6.442069766901030e-001	 1.186379943855785e+000	 5.847182081121231e+000
 6.321505697523810e-001	 1.192847709123722e+000	 5.646967917724446e+000
 6.200477006054628e-001	 1.199183409230746e+000	 5.442024663770040e+000
 7.524134109041186e-001	 1.150868827921488e+000	 7.644499336738946e+000
 7.405893277159817e-001	 1.158513033013234e+000	 7.434218967926753e+000
 7.287008687383727e-001	 1.166027462750033e+000	 7.222816935734135e+000
 7.167501390008011e-001	 1.173411367862558e+000	 7.010308209603995e+000
 7.047392534795689e-001	 1.180664043914098e+000	 6.796709359295638e+000
 6.926703359234709e-001	 1.187784831406066e+000	 6.582038699593388e+000
 6.805455176811016e-001	 1.194773115847230e+000	 6.366316429724874e+000
 6.683669365310446e-001	 1.201628327786929e+000	 6.149564767059943e+000
 6.561367355162148e-001	 1.208349942812540e+000	 5.931808074682193e+000
 6.438570617835929e-001	 1.214937481511548e+000	 5.713072982451884e+000
 6.315300654305786e-001	 1.221390509398596e+000	 5.493388501202907e+000
 7.660936547379107e-001	 1.171793715700407e+000	 7.813267737458528e+000
 7.540545882187365e-001	 1.179576906338700e+000	 7.596095881191435e+000
 7.419499754412664e-001	 1.187227962070220e+000	 7.376322870669235e+000
 7.297819597082731e-001	 1.194746120002561e+000	 7.153940050379718e+000
 7.175526944501734e-001	 1.202130662891074e+000	 6.928941845137941e+000
 7.052643420293766e-001	 1.209380919246285e+000	 6.701325926571467e+000
 6.929190725462687e-001	 1.216496263404397e+000	 6.471093372087558e+000
 6.805190626481351e-001	 1.223476115561099e+000	 6.238248815866399e+000
 6.680664943423065e-001	 1.230319941768991e+000	 6.002800591456538e+000
 6.555635538148000e-001	 1.237027253898969e+000	 5.764760865575375e+000
 6.430124302556941e-001	 1.243597609565942e+000	 5.524145762750937e+000
 7.797738985712054e-001	 1.192718603479824e+000	 7.976354512532646e+000
 7.675198487210887e-001	 1.200640779664563e+000	 7.751252853820280e+000
 7.551990821438421e-001	 1.208428461390704e+000	 7.522110376665660e+000
 7.428137804155023e-001	 1.216080872142762e+000	 7.288894701745152e+000
 7.303661354205999e-001	 1.223597281868146e+000	 7.051577986284314e+000
 7.178583481351586e-001	 1.230977007086501e+000	 6.810137112988009e+000
 7.052926274113568e-001	 1.238219410961460e+000	 6.564553869240529e+000
 6.926711887651811e-001	 1.245323903335064e+000	 6.314815116095839e+000
 6.799962531683785e-001	 1.252289940725139e+000	 6.104818491908348e+000
 6.672700458460021e-001	 1.259117026285987e+000	 5.983018511785404e+000
 6.544947950808100e-001	 1.265804709732783e+000	 5.862506781183932e+000
 7.934541424040027e-001	 1.213643491259739e+000	 8.133903724113154e+000
 7.809851092230387e-001	 1.221704652990824e+000	 7.899908796607387e+000
 7.684481888461006e-001	 1.229628960711485e+000	 7.660471036460441e+000
 7.558456011224884e-001	 1.237415624283158e+000	 7.415534207054083e+000
 7.431795763908483e-001	 1.245063900845315e+000	 7.165048042351654e+000
 7.304523542408170e-001	 1.252573094926714e+000	 6.952533349866959e+000
 7.176661822763658e-001	 1.259942558518420e+000	 6.820961450580824e+000
 7.048233148821826e-001	 1.267171691108826e+000	 6.689426018131787e+000
 6.919260119944309e-001	 1.274259939680982e+000	 6.558001493414319e+000
 6.789765378771995e-001	 1.281206798672601e+000	 6.426757331984891e+000
 6.659771599059257e-001	 1.288011809899122e+000	 6.295757800521506e+000
 8.071343862363025e-001	 1.234568379040151e+000	 8.286022911620586e+000
 7.944503697245862e-001	 1.242768526317482e+000	 8.042241745001727e+000
 7.816972955480415e-001	 1.250829460032563e+000	 7.803980590755595e+000
 7.688774218292321e-001	 1.258750376423753e+000	 7.668510072618597e+000
 7.559930173609183e-001	 1.266530519822581e+000	 7.531843100545530e+000
 7.430463603463515e-001	 1.274169182766922e+000	 7.394063314210423e+000
 7.300397371412958e-001	 1.281665706075276e+000	 7.255250976544295e+000
 7.169754409991397e-001	 1.289019478882383e+000	 7.115482721209450e+000
 7.038557708204638e-001	 1.296229938636522e+000	 6.974831309941561e+000
 6.906830299083917e-001	 1.303296571058811e+000	 6.833365400378293e+000
 6.774595247310413e-001	 1.310218910064956e+000	 6.691149324955235e+000
 8.208146300681053e-001	 1.255493266821059e+000	 8.506507369915262e+000
 8.079156302257311e-001	 1.263832399644536e+000	 8.370258304271870e+000
 7.949464022496643e-001	 1.272029959353938e+000	 8.231706878365502e+000
 7.819092425357326e-001	 1.280085128564544e+000	 8.090937249776742e+000
 7.688064583308100e-001	 1.287997138799943e+000	 7.948031656279582e+000
 7.556403664517627e-001	 1.295765270607128e+000	 7.803070131779841e+000
 7.424132920061469e-001	 1.303388853632028e+000	 7.656130229762002e+000
 7.291275671160526e-001	 1.310867266655738e+000	 7.507286754988967e+000
 7.157855296464767e-001	 1.318199937591758e+000	 7.356611504164583e+000
 7.023895219395790e-001	 1.325386343444616e+000	 7.204173016233800e+000
 6.889418895561570e-001	 1.332426010230286e+000	 7.050036332956857e+000
 5.741182413050000e-001	 1.110355008554307e+000	 5.057351592663835e+000
 5.628708166930497e-001	 1.116098760742258e+000	 4.891483517561984e+000
 5.515842846736662e-001	 1.121719562507361e+000	 4.729539400862825e+000
 5.402606017111221e-001	 1.127217140681487e+000	 4.571700694743934e+000
 5.289017228384254e-001	 1.132591262364247e+000	 4.418144670425916e+000
 5.175096006544983e-001	 1.137841734704207e+000	 4.269044223381074e+000
 5.060861843335419e-001	 1.142968404651232e+000	 4.124567687675894e+000
 4.946334186475062e-001	 1.147971158680544e+000	 3.984878659692300e+000
 4.831532430025666e-001	 1.152849922489192e+000	 3.850135831448505e+000
 4.716475904904681e-001	 1.157604660665571e+000	 3.720492833710492e+000
 4.601183869555650e-001	 1.162235376332733e+000	 3.596098089060428e+000
 5.856006061301156e-001	 1.132562108724173e+000	 5.178770065458959e+000
 5.741282330262805e-001	 1.138420735956605e+000	 4.988358776445023e+000
 5.626159703667710e-001	 1.144153953757676e+000	 4.802174995979140e+000
 5.510658137451469e-001	 1.149761483495895e+000	 4.620413685663515e+000
 5.394797572950756e-001	 1.155243087612864e+000	 4.443265095952467e+000
 5.278597926674589e-001	 1.160598569400124e+000	 4.270914562526103e+000
 5.162079080199822e-001	 1.165827772746534e+000	 4.103542312699234e+000
 5.045260870200349e-001	 1.170930581856822e+000	 3.941323282113838e+000
 4.928163078619168e-001	 1.175906920941978e+000	 3.784426941936432e+000
 4.810805422992081e-001	 1.180756753882166e+000	 3.633017136750395e+000
 4.693207546931507e-001	 1.185480083862899e+000	 3.487251933306079e+000
 5.970829709552312e-001	 1.154769208893534e+000	 5.282224811747763e+000
 5.853856493595110e-001	 1.160742711170352e+000	 5.067177520927084e+000
 5.736476560598761e-001	 1.166588345007308e+000	 4.856645483309175e+000
 5.618710257791713e-001	 1.172305826309545e+000	 4.650837510110893e+000
 5.500577917517259e-001	 1.177894912860660e+000	 4.449957175742766e+000
 5.382099846804194e-001	 1.183355404095165e+000	 4.254202604833393e+000
 5.263296317064223e-001	 1.188687140840915e+000	 4.063766270196550e+000
 5.144187553925635e-001	 1.193890005032144e+000	 3.878834801993333e+000
 5.024793727212669e-001	 1.198963919393784e+000	 3.699588808312395e+000
 4.905134941079479e-001	 1.203908847097765e+000	 3.526202707358405e+000
 4.785231224307363e-001	 1.208724791392063e+000	 3.358844571408131e+000
 6.085653357803471e-001	 1.176976309062392e+000	 5.369440139898210e+000
 5.966430656927416e-001	 1.183064686383501e+000	 5.129647190495978e+000
 5.846793417529809e-001	 1.189022736256255e+000	 4.894642391182811e+000
 5.726762378131959e-001	 1.194850169122436e+000	 4.664648749759944e+000
 5.606358262083757e-001	 1.200546738107633e+000	 4.439883515397790e+000
 5.485601766933799e-001	 1.206112238789327e+000	 4.220557955794435e+000
 5.364513553928626e-001	 1.211546508934374e+000	 4.006877146191693e+000
 5.243114237650923e-001	 1.216849428206511e+000	 3.799039770505630e+000
 5.121424375806171e-001	 1.222020917844610e+000	 3.597237934797389e+000
 4.999464459166877e-001	 1.227060940312370e+000	 3.401656993274334e+000
 4.877254901683218e-001	 1.231969498920228e+000	 3.212475386980005e+000
 6.200477006054628e-001	 1.199183409230746e+000	 5.442024663770040e+000
 6.079004820259722e-001	 1.205386661596051e+000	 5.177360323508414e+000
 5.957110274460858e-001	 1.211457127504519e+000	 4.917743072484252e+000
 5.834814498472205e-001	 1.217394511934570e+000	 4.663410468832075e+000
 5.712138606650259e-001	 1.223198563353783e+000	 4.414593793407609e+000
 5.589103687063404e-001	 1.228869073482613e+000	 4.171517816562046e+000
 5.465730790793026e-001	 1.234405877026911e+000	 3.934400577696344e+000
 5.342040921376211e-001	 1.239808851379921e+000	 3.703453177858751e+000
 5.218055024399670e-001	 1.245077916294454e+000	 3.478879585613579e+000
 5.093793977254275e-001	 1.250213033525979e+000	 3.266584870992690e+000
 4.969278579059074e-001	 1.255214206447393e+000	 3.191528549268989e+000
 6.315300654305786e-001	 1.221390509398596e+000	 5.493388501202907e+000
 6.191578983592029e-001	 1.227708636808003e+000	 5.211805002747433e+000
 6.067427131391908e-001	 1.233891518752100e+000	 4.927421084238332e+000
 5.942866618812450e-001	 1.239938854745945e+000	 4.648582533864804e+000
 5.817918951216761e-001	 1.245850388599110e+000	 4.375535027252335e+000
 5.692605607193009e-001	 1.251625908175022e+000	 4.148297461085426e+000
 5.566948027657428e-001	 1.257265245118527e+000	 4.029326429572049e+000
 5.440967605101499e-001	 1.262768274552376e+000	 3.919021959858690e+000
 5.314685672993172e-001	 1.268134914743319e+000	 3.817055139486723e+000
 5.188123495341674e-001	 1.273365126738593e+000	 3.723101316031107e+000
 5.061302256434931e-001	 1.278458913973559e+000	 3.636840765065589e+000
 6.430124302556941e-001	 1.243597609565942e+000	 5.524145762750937e+000
 6.304153146924334e-001	 1.250030612019355e+000	 5.228488636325543e+000
 6.177743988322958e-001	 1.256325909998997e+000	 5.065536945523543e+000
 6.050918739152695e-001	 1.262483197556562e+000	 4.906412233692298e+000
 5.923699295783261e-001	 1.268502213843615e+000	 4.757293417084361e+000
 5.796107527322613e-001	 1.274382742866553e+000	 4.617814907953100e+000
 5.668165264521829e-001	 1.280124613209222e+000	 4.487613402851146e+000
 5.539894288826784e-001	 1.285727697723875e+000	 4.366328680027957e+000
 5.411316321586673e-001	 1.291191913191203e+000	 4.253604370726253e+000
 5.282453013429073e-001	 1.296517219950213e+000	 4.149088702968403e+000
 5.153325933810786e-001	 1.301703621498723e+000	 4.052435216535351e+000
 6.544947950808100e-001	 1.265804709732783e+000	 5.862506781183932e+000
 6.416727310256640e-001	 1.272352587230109e+000	 5.692738116146297e+000
 6.288060845254007e-001	 1.278760301245210e+000	 5.529375544412067e+000
 6.158970859492943e-001	 1.285027540366422e+000	 5.363457505112137e+000
 6.029479640349765e-001	 1.291154039087298e+000	 5.203486912813097e+000
 5.899609447452219e-001	 1.297139577557208e+000	 5.053446666877932e+000
 5.769382501386233e-001	 1.302983981298996e+000	 4.912943901536957e+000
 5.638820972552072e-001	 1.308687120894417e+000	 4.781589106997567e+000
 5.507946970180175e-001	 1.314248911638107e+000	 4.658996953098447e+000
 5.376782531516472e-001	 1.319669313160837e+000	 4.544787083704807e+000
 5.245349611186642e-001	 1.324948329022888e+000	 4.438584880464466e+000
 6.659771599059257e-001	 1.288011809899122e+000	 6.295757800521506e+000
 6.529301473588947e-001	 1.294674562440264e+000	 6.117890431338897e+000
 6.398377702185056e-001	 1.301194692490741e+000	 5.946891662393403e+000
 6.267022979833187e-001	 1.307571883175522e+000	 5.782833580670856e+000
 6.135259984916264e-001	 1.313805864330157e+000	 5.614851127585513e+000
 6.003111367581824e-001	 1.319896412246986e+000	 5.455227131017193e+000
 5.870599738250635e-001	 1.325843349387848e+000	 5.305384033714061e+000
 5.737747656277360e-001	 1.331646544064004e+000	 5.164901455554237e+000
 5.604577618773676e-001	 1.337305910084030e+000	 5.033363561659188e+000
 5.471112049603870e-001	 1.342821406370466e+000	 4.910359909306941e+000
 5.337373288562498e-001	 1.348193036546053e+000	 4.795486262272409e+000
 6.774595247310413e-001	 1.310218910064956e+000	 6.691149324955235e+000
 6.641875636921253e-001	 1.316996537649819e+000	 6.505347542191394e+000
 6.508694559116106e-001	 1.323629083735587e+000	 6.326874479898732e+000
 6.375075100173435e-001	 1.330116225983865e+000	 6.155811439712530e+000
 6.241040329482768e-001	 1.336457689572195e+000	 5.991317834434922e+000
 6.106613287711429e-001	 1.342653246935887e+000	 5.823119688247291e+000
 5.971816975115036e-001	 1.348702717475778e+000	 5.664929189813823e+000
 5.836674340002647e-001	 1.354605967232635e+000	 5.516293467957636e+000
 5.701208267367177e-001	 1.360362908528973e+000	 5.376764601691587e+000
 5.565441567691268e-001	 1.365973499579100e+000	 5.245900521604104e+000
 5.429396965938355e-001	 1.371437744068218e+000	 5.123265876636402e+000
 6.889418895561570e-001	 1.332426010230286e+000	 7.050036332956857e+000
 6.754449800253557e-001	 1.339318512858777e+000	 6.856444875040356e+000
 6.619011416047155e-001	 1.346063474979750e+000	 6.670640446626473e+000
 6.483127220513681e-001	 1.352660568791450e+000	 6.492713995202308e+000
 6.346820674049267e-001	 1.359109514813409e+000	 6.322743546551980e+000
 6.210115207841032e-001	 1.365410081623910e+000	 6.157022638270565e+000
 6.073034211979438e-001	 1.371562085562787e+000	 5.991509935752223e+000
 5.935601023727934e-001	 1.377565390400310e+000	 5.835728286651269e+000
 5.797838915960678e-001	 1.383419906972935e+000	 5.689196064520270e+000
 5.659771085778667e-001	 1.389125592786738e+000	 5.551437995624416e+000
 5.521420643314210e-001	 1.394682451589383e+000	 5.421986080053306e+000
 4.601183869555650e-001	 1.162235376332733e+000	 3.596098089060428e+000
 4.485675500777414e-001	 1.166742110765889e+000	 3.432451999362671e+000
 4.369969884738851e-001	 1.171124942985806e+000	 3.272269600990738e+000
 4.254086008172057e-001	 1.175383989328324e+000	 3.115631568969318e+000
 4.138042749739843e-001	 1.179519402990089e+000	 2.962615954289637e+000
 4.021858871602735e-001	 1.183531373552289e+000	 2.813298093549349e+000
 3.905553011185042e-001	 1.187420126482944e+000	 2.667750524875886e+000
 3.789143673145657e-001	 1.191185922618588e+000	 2.526042910188802e+000
 3.672649221558911e-001	 1.194829057626238e+000	 2.388241963841166e+000
 3.556087872310356e-001	 1.198349861446522e+000	 2.254411387660033e+000
 3.439477685711992e-001	 1.201748697718857e+000	 2.124611812391052e+000
 4.693207546931507e-001	 1.185480083862899e+000	 3.487251933306079e+000
 4.575389010772938e-001	 1.190076952984894e+000	 3.298187192299845e+000
 4.457369282409294e-001	 1.194547441849339e+000	 3.113271939260958e+000
 4.339167728307313e-001	 1.198891669118793e+000	 2.932606480670127e+000
 4.220803604703061e-001	 1.203109791053833e+000	 2.756287555338858e+000
 4.102296049000269e-001	 1.207202001027270e+000	 2.584408237833067e+000
 3.983664071371729e-001	 1.211168529016486e+000	 2.417057849583265e+000
 3.864926546569514e-001	 1.215009641074747e+000	 2.254321877720475e+000
 3.746102205949434e-001	 1.218725638782410e+000	 2.096281901657085e+000
 3.627209629714751e-001	 1.222316858678915e+000	 1.943015527411014e+000
 3.508267239383701e-001	 1.225783671676468e+000	 1.794596329653194e+000
 4.785231224307363e-001	 1.208724791392063e+000	 3.358844571408131e+000
 4.665102520768511e-001	 1.213411795202904e+000	 3.145063092770911e+000
 4.544768680079944e-001	 1.217969940711893e+000	 2.936092722070811e+000
 4.424249448443032e-001	 1.222399348908308e+000	 2.732053423509899e+000
 4.303564459667101e-001	 1.226700179116658e+000	 2.533060660533441e+000
 4.182733226399084e-001	 1.230872628501380e+000	 2.339225292758384e+000
 4.061775131560257e-001	 1.234916931549213e+000	 2.150653481990039e+000
 3.940709419995869e-001	 1.238833359530156e+000	 1.967446607349456e+000
 3.819555190343212e-001	 1.242622219937908e+000	 1.789701189511982e+000
 3.698331387123256e-001	 1.246283855910719e+000	 1.617508824032814e+000
 3.577056793060472e-001	 1.249818645633586e+000	 1.450956123715525e+000
 4.877254901683218e-001	 1.231969498920228e+000	 3.212475386980005e+000
 4.754816030764138e-001	 1.236746637419919e+000	 2.974618975485890e+000
 4.632168077750800e-001	 1.241392439573469e+000	 2.742212783809629e+000
 4.509331168579215e-001	 1.245907028696869e+000	 2.515396479035270e+000
 4.386325314631960e-001	 1.250290567178565e+000	 2.302701938601502e+000
 4.263170403799179e-001	 1.254543255974616e+000	 2.211699933502442e+000
 4.139886191750625e-001	 1.258665334081123e+000	 2.125137257531019e+000
 4.016492293424722e-001	 1.262657077984815e+000	 2.042778304760278e+000
 3.893008174740246e-001	 1.266518801092730e+000	 1.964397369286893e+000
 3.769453144535872e-001	 1.270250853141934e+000	 1.889778954774731e+000
 3.645846346742306e-001	 1.273853619590210e+000	 1.818718052612312e+000
 4.969278579059074e-001	 1.255214206447393e+000	 3.191528549268989e+000
 4.844529540759813e-001	 1.260081479635939e+000	 3.066640364556205e+000
 4.719567475421861e-001	 1.264814938434064e+000	 2.947633591826592e+000
 4.594412888715863e-001	 1.269414708484477e+000	 2.834224645600621e+000
 4.469086169597642e-001	 1.273880955239555e+000	 2.726138413578228e+000
 4.343607581200555e-001	 1.278213883446982e+000	 2.623108719566425e+000
 4.217997251942836e-001	 1.282413736612218e+000	 2.524878754358596e+000
 4.092275166856078e-001	 1.286480796438724e+000	 2.431201474214526e+000
 3.966461159140537e-001	 1.290415382246879e+000	 2.341839966692036e+000
 3.840574901952600e-001	 1.294217850372561e+000	 2.256567783682175e+000
 3.714635900429202e-001	 1.297888593546341e+000	 2.175169241597329e+000
 5.061302256434931e-001	 1.278458913973559e+000	 3.636840765065589e+000
 4.934243050755545e-001	 1.283416321850965e+000	 3.499907599703921e+000
 4.806966873093129e-001	 1.288237437293681e+000	 3.369227065672549e+000
 4.679494608852972e-001	 1.292922388271131e+000	 3.244501980617822e+000
 4.551847024564146e-001	 1.297471343299627e+000	 3.125443814795056e+000
 4.424044758603211e-001	 1.301884510918475e+000	 3.011773184370475e+000
 4.296108312136884e-001	 1.306162139142497e+000	 2.903220311205981e+000
 4.168058040289929e-001	 1.310304514891883e+000	 2.799525448740137e+000
 4.039914143544084e-001	 1.314311963400354e+000	 2.700439273687220e+000
 3.911696659373438e-001	 1.318184847602598e+000	 2.605723243382012e+000
 3.783425454121162e-001	 1.321923567501977e+000	 2.515149918700605e+000
 5.153325933810786e-001	 1.301703621498723e+000	 4.052435216535351e+000
 5.023956560751326e-001	 1.306751164064996e+000	 3.904990314013210e+000
 4.894366270764604e-001	 1.311659936152317e+000	 3.764133375578932e+000
 4.764576328990545e-001	 1.316430068056832e+000	 3.629552103465096e+000
 4.634607879531473e-001	 1.321061731358781e+000	 3.500943088262708e+000
 4.504481936007150e-001	 1.325555138389096e+000	 3.378012333913389e+000
 4.374219372332774e-001	 1.329910541671960e+000	 3.260475747596804e+000
 4.243840913726281e-001	 1.334128233344292e+000	 3.148059594092452e+000
 4.113367127950888e-001	 1.338208544553154e+000	 3.040500914308637e+000
 3.982818416798388e-001	 1.342151844832047e+000	 2.937547907780937e+000
 3.852215007818186e-001	 1.345958541457120e+000	 2.838960279053639e+000
 5.245349611186642e-001	 1.324948329022888e+000	 4.438584880464466e+000
 5.113670070747159e-001	 1.330086006278032e+000	 4.282155378424697e+000
 4.981765668436284e-001	 1.335082435009975e+000	 4.132614037143822e+000
 4.849658049128581e-001	 1.339937747841579e+000	 3.989631902905905e+000
 4.717368734499620e-001	 1.344652119417017e+000	 3.852889202537821e+000
 4.584919113412370e-001	 1.349225765858846e+000	 3.722075901437067e+000
 4.452330432530504e-001	 1.353658944200606e+000	 3.596892224789965e+000
 4.319623787165131e-001	 1.357951951795951e+000	 3.477049141523612e+000
 4.186820112360947e-001	 1.362105125705279e+000	 3.362268810653762e+000
 4.053940174227448e-001	 1.366118842060906e+000	 3.252284989808356e+000
 3.921004561520270e-001	 1.369993515411769e+000	 3.146843405822014e+000
 5.337373288562498e-001	 1.348193036546053e+000	 4.795486262272409e+000
 5.203383580743043e-001	 1.353420848490073e+000	 4.631595987843850e+000
 5.069165066108171e-001	 1.358504933866653e+000	 4.474859605310718e+000
 4.934739769267079e-001	 1.363445427625372e+000	 4.324929941776643e+000
 4.800129589468590e-001	 1.368242507474335e+000	 4.181469353676001e+000
 4.665356290818870e-001	 1.372896393327723e+000	 4.044150319215654e+000
 4.530441492730074e-001	 1.377407346728437e+000	 3.912655992181758e+000
 4.395406660606480e-001	 1.381775670246859e+000	 3.786680716618835e+000
 4.260273096774264e-001	 1.386001706856731e+000	 3.665930502013918e+000
 4.125061931660621e-001	 1.390085839289177e+000	 3.550123458742087e+000
 3.989794115227419e-001	 1.394028489365924e+000	 3.438990193650566e+000
 5.429396965938355e-001	 1.371437744068218e+000	 5.123265876636402e+000
 5.293097090738980e-001	 1.376755690701119e+000	 4.953437904872839e+000
 5.156564463780266e-001	 1.381927432722353e+000	 4.790995687983912e+000
 5.019821489406041e-001	 1.386953107408211e+000	 4.635572247319242e+000
 4.882890444438380e-001	 1.391832895530736e+000	 4.486810539172394e+000
 4.745793468226650e-001	 1.396567020795728e+000	 4.344364083044580e+000
 4.608552552931485e-001	 1.401155749255452e+000	 4.207897549328205e+000
 4.471189534050329e-001	 1.405599388697018e+000	 4.077087305878485e+000
 4.333726081190836e-001	 1.409898288007507e+000	 3.951621923078317e+000
 4.196183689097904e-001	 1.414052836516859e+000	 3.831202637127877e+000
 4.058583668939629e-001	 1.418063463319586e+000	 3.715543771419589e+000
 5.521420643314210e-001	 1.394682451589383e+000	 5.421986080053306e+000
 5.382810600734966e-001	 1.400090532911170e+000	 5.247745079169022e+000
 5.243963861452564e-001	 1.405349931577071e+000	 5.081088358281205e+000
 5.104903209545467e-001	 1.410460787190097e+000	 4.921627522480939e+000
 4.965651299408992e-001	 1.415423283586218e+000	 4.768984574508592e+000
 4.826230645635711e-001	 1.420237648262862e+000	 4.622792580280486e+000
 4.686663613134736e-001	 1.424904151781651e+000	 4.482696291764926e+000
 4.546972407496676e-001	 1.429423107146426e+000	 4.348352726641737e+000
 4.407179065610664e-001	 1.433794869157610e+000	 4.219431704317498e+000
 4.267305446539296e-001	 1.438019833743952e+000	 4.095616338007154e+000
 4.127373222656903e-001	 1.442098437272754e+000	 3.976603482725189e+000
 3.439477685711992e-001	 1.201748697718857e+000	 2.124611812391052e+000
 3.322836559344022e-001	 1.205025963190290e+000	 1.970771525382806e+000
 3.206182221117185e-001	 1.208182087106841e+000	 1.823251604677176e+000
 3.089532222566899e-001	 1.211217530589606e+000	 1.682097034263500e+000
 2.972903932386897e-001	 1.214132785997952e+000	 1.547348060038659e+000
 2.856314530195621e-001	 1.216928376278658e+000	 1.419040195000795e+000
 2.739781000540936e-001	 1.219604854302598e+000	 1.297204231645498e+000
 2.623320127144961e-001	 1.222162802189878e+000	 1.181866261388144e+000
 2.506948487390460e-001	 1.224602830624363e+000	 1.073047700826162e+000
 2.390682447049865e-001	 1.226925578158476e+000	 9.707653246401943e-001
 2.274538155257646e-001	 1.229131710509183e+000	 8.750313049253905e-001
 3.508267239383701e-001	 1.225783671676468e+000	 1.794596329653194e+000
 3.389293290488262e-001	 1.229126482457096e+000	 1.623523632323964e+000
 3.270305865497554e-001	 1.232345728851775e+000	 1.459679074667417e+000
 3.151322866977697e-001	 1.235441881204021e+000	 1.303115596554338e+000
 3.032362010996294e-001	 1.238415441720392e+000	 1.153880408155919e+000
 2.913440820764148e-001	 1.241266943806600e+000	 1.012015004965218e+000
 2.794576620520075e-001	 1.243996951390936e+000	 8.775551911438478e-001
 2.675786529660631e-001	 1.246606058235910e+000	 7.505311109769109e-001
 2.557087457116227e-001	 1.249094887239062e+000	 6.309672882042060e-001
 2.438496095974737e-001	 1.251464089723864e+000	 5.643944620303597e-001
 2.320028918353312e-001	 1.253714344721621e+000	 5.296135338944040e-001
 3.577056793060472e-001	 1.249818645633586e+000	 1.450956123715525e+000
 3.455750021638407e-001	 1.253227001723497e+000	 1.361766401620827e+000
 3.334429509884362e-001	 1.256509370596373e+000	 1.283245957687092e+000
 3.213113511395162e-001	 1.259666231818150e+000	 1.209698561354214e+000
 3.091820089612280e-001	 1.262698097442573e+000	 1.140959966713986e+000
 2.970567111338883e-001	 1.265605511334292e+000	 1.076875489578030e+000
 2.849372240504742e-001	 1.268389048479013e+000	 1.017300127846192e+000
 2.728252932180850e-001	 1.271049314281647e+000	 9.620986550185589e-001
 2.607226426845268e-001	 1.273586943853415e+000	 9.111456873575298e-001
 2.486309744901316e-001	 1.276002601288834e+000	 8.643257252683426e-001
 2.365519681448832e-001	 1.278296978933551e+000	 8.215331695219271e-001
 3.645846346742306e-001	 1.273853619590210e+000	 1.818718052612312e+000
 3.522206752794460e-001	 1.277327520989495e+000	 1.724247121249801e+000
 3.398553154277613e-001	 1.280673012340635e+000	 1.635332213189844e+000
 3.274904155819297e-001	 1.283890582431992e+000	 1.551788818602724e+000
 3.151278168234856e-001	 1.286980753164496e+000	 1.473442082934415e+000
 3.027693401919827e-001	 1.289944078861733e+000	 1.400126972007389e+000
 2.904167860494936e-001	 1.292781145566826e+000	 1.331688408445019e+000
 2.780719334705617e-001	 1.295492570327091e+000	 1.267981379869999e+000
 2.657365396577585e-001	 1.298079000467422e+000	 1.208871019392121e+000
 2.534123393829606e-001	 1.300541112853388e+000	 1.154232658967924e+000
 2.411010444544205e-001	 1.302879613144973e+000	 1.103951856271569e+000
 3.714635900429202e-001	 1.297888593546341e+000	 2.175169241597329e+000
 3.588663483956419e-001	 1.301428040255088e+000	 2.070916168135725e+000
 3.462676798677306e-001	 1.304836654084563e+000	 1.972576498350816e+000
 3.336694800250099e-001	 1.308114933045548e+000	 1.879954060269621e+000
 3.210736246864022e-001	 1.311263408886161e+000	 1.792862642593858e+000
 3.084819692506980e-001	 1.314282646388924e+000	 1.711126177295576e+000
 2.958963480490659e-001	 1.317173242654377e+000	 1.634578892056843e+000
 2.833185737234933e-001	 1.319935826372240e+000	 1.563065433010148e+000
 2.707504366313177e-001	 1.322571057081083e+000	 1.496440958308733e+000
 2.581937042759604e-001	 1.325079624417525e+000	 1.434571203123448e+000
 2.456501207639431e-001	 1.327462247355889e+000	 1.377332516725446e+000
 3.783425454121162e-001	 1.321923567501977e+000	 2.515149918700605e+000
 3.655120215124286e-001	 1.325528559520277e+000	 2.402137552774992e+000
 3.526800443083439e-001	 1.329000295828156e+000	 2.295344886701605e+000
 3.398485444687569e-001	 1.332339283658817e+000	 2.194563251624051e+000
 3.270194325499777e-001	 1.335546064607567e+000	 2.099594309154366e+000
 3.141945983100343e-001	 1.338621213915864e+000	 2.010250251550880e+000
 3.013759100491909e-001	 1.341565339741666e+000	 1.926353970153391e+000
 2.885652139768799e-001	 1.344379082417094e+000	 1.847739192542555e+000
 2.757643336052044e-001	 1.347063113694399e+000	 1.774250588967663e+000
 2.629750691691311e-001	 1.349618135981245e+000	 1.705743848656681e+000
 2.501991970734510e-001	 1.352044881566296e+000	 1.642085726691341e+000
 3.852215007818186e-001	 1.345958541457120e+000	 2.838960279053639e+000
 3.721576946298060e-001	 1.349629078785063e+000	 2.718214667501647e+000
 3.590924087496013e-001	 1.353163937571413e+000	 2.603944709149864e+000
 3.460276089131706e-001	 1.356563634271800e+000	 2.495928381090843e+000
 3.329652404142124e-001	 1.359828720328715e+000	 2.393954425360123e+000
 3.199072273699914e-001	 1.362959781442554e+000	 2.297822566805420e+000
 3.068554720498686e-001	 1.365957436828692e+000	 2.207343697518288e+000
 2.938118542307213e-001	 1.368822338461654e+000	 2.122340028308582e+000
 2.807782305794186e-001	 1.371555170307368e+000	 2.042645207781829e+000
 2.677564340624727e-001	 1.374156647544548e+000	 1.968104409655580e+000
 2.547482733829443e-001	 1.376627515776197e+000	 1.898574389021849e+000
 3.921004561520270e-001	 1.369993515411769e+000	 3.146843405822014e+000
 3.788033677477742e-001	 1.373729598049444e+000	 3.019395603869783e+000
 3.655047731915029e-001	 1.377327579314336e+000	 2.898629706840922e+000
 3.522066733582515e-001	 1.380787984884496e+000	 2.784309458219158e+000
 3.389110482791060e-001	 1.384111376049604e+000	 2.676209865931760e+000
 3.256198564305694e-001	 1.387298348968993e+000	 2.574117438039283e+000
 3.123350340510992e-001	 1.390349533915456e+000	 2.477830383184709e+000
 2.990584944850177e-001	 1.393265594505920e+000	 2.387158776296248e+000
 2.857921275539603e-001	 1.396047226919992e+000	 2.301924690124329e+000
 2.725377989559853e-001	 1.398695159107434e+000	 2.221962293271715e+000
 2.592973496924230e-001	 1.401210149985591e+000	 2.147117915452315e+000
 3.989794115227419e-001	 1.394028489365924e+000	 3.438990193650566e+000
 3.854490408663330e-001	 1.397830117313421e+000	 3.305877919962453e+000
 3.719171376340487e-001	 1.401491221056923e+000	 3.179604650964908e+000
 3.583857378039989e-001	 1.405012335496905e+000	 3.059918994620110e+000
 3.448568561446585e-001	 1.408394031770236e+000	 2.946581388258086e+000
 3.313324854917683e-001	 1.411636916495181e+000	 2.839364352236824e+000
 3.178145960528824e-001	 1.414741631001957e+000	 2.738052706448091e+000
 3.043051347397689e-001	 1.417708850549892e+000	 2.642443750179339e+000
 2.908060245288295e-001	 1.420539283532269e+000	 2.552347405935472e+000
 2.773191638496687e-001	 1.423233670669902e+000	 2.467586327904493e+000
 2.638464260018870e-001	 1.425792784194477e+000	 2.387995975835265e+000
 4.058583668939629e-001	 1.418063463319586e+000	 3.715543771419589e+000
 3.920947139854824e-001	 1.421930636576994e+000	 3.577812922889003e+000
 3.783295020772386e-001	 1.425654862799175e+000	 3.447029492752936e+000
 3.645648022504132e-001	 1.429236686109027e+000	 3.322926029215695e+000
 3.508026640108701e-001	 1.432676687490608e+000	 3.205247540644423e+000
 3.370451145535881e-001	 1.435975484021120e+000	 3.093751767369230e+000
 3.232941580552187e-001	 1.439133728088196e+000	 2.988209414301606e+000
 3.095517749949749e-001	 1.442152106593569e+000	 2.888404344903346e+000
 2.958199215040263e-001	 1.445031340144201e+000	 2.794133737131944e+000
 2.821005287435230e-001	 1.447772182231954e+000	 2.705208202078303e+000
 2.683955023113362e-001	 1.450375418402855e+000	 2.621451866096197e+000
 4.127373222656903e-001	 1.442098437272754e+000	 3.976603482725189e+000
 3.987403871052226e-001	 1.446031155840163e+000	 3.835309523032914e+000
 3.847418665210725e-001	 1.449818504541092e+000	 3.701023098473697e+000
 3.707438666974943e-001	 1.453461036720863e+000	 3.573459750962767e+000
 3.567484718777406e-001	 1.456959343210722e+000	 3.452348179736425e+000
 3.427577436160288e-001	 1.460314051546808e+000	 3.337430531478979e+000
 3.287737200581075e-001	 1.463525825174173e+000	 3.228462649128069e+000
 3.147984152506359e-001	 1.466595362636951e+000	 3.125214279912547e+000
 3.008338184795505e-001	 1.469523396755786e+000	 3.027469243275736e+000
 2.868818936375482e-001	 1.472310693793589e+000	 2.935025559432171e+000
 2.729445786207708e-001	 1.474958052610726e+000	 2.847695539394421e+000
 2.274538155257646e-001	 1.229131710509183e+000	 8.750313049253905e-001
 2.158531539728275e-001	 1.231221919845279e+000	 7.621634961472182e-001
 2.042678302214702e-001	 1.233196924069199e+000	 6.561755037631244e-001
 1.926993914209578e-001	 1.235057466092679e+000	 5.570707324896643e-001
 1.811493612893029e-001	 1.236804313105527e+000	 4.648480753807930e-001
 1.696192397320706e-001	 1.238438255840743e+000	 3.795019791154730e-001
 1.581105024852513e-001	 1.239960107836013e+000	 3.010225144494285e-001
 1.466246007820464e-001	 1.241370704692402e+000	 2.293954515727749e-001
 1.351629610433849e-001	 1.242670903331058e+000	 1.646023401104355e-001
 1.237269845919663e-001	 1.243861581248700e+000	 1.066205935000170e-001
 1.123180473895901e-001	 1.244943635772666e+000	 5.542357747847342e-002
 2.320028918353312e-001	 1.253714344721621e+000	 5.296135338944040e-001
 2.201702170519754e-001	 1.255846358244472e+000	 4.750439691876420e-001
 2.083531868261118e-001	 1.257860862552874e+000	 4.244500850474859e-001
 1.965533792499917e-001	 1.259758615416796e+000	 3.777649692620232e-001
 1.847723485159892e-001	 1.261540399369842e+000	 3.349309192901460e-001
 1.730116245277816e-001	 1.263207020959674e+000	 2.958993409467247e-001
 1.612727125360804e-001	 1.264759309994731e+000	 2.606306278944533e-001
 1.495570927987517e-001	 1.266198118788100e+000	 2.290940228119857e-001
 1.378662202651445e-001	 1.267524321399351e+000	 2.012674611290398e-001
 1.262015242844133e-001	 1.268738812875140e+000	 1.771373982402629e-001
 1.145644083375946e-001	 1.269842508489349e+000	 1.566986211243143e-001
 2.365519681448832e-001	 1.278296978933551e+000	 8.215331695219271e-001
 2.244872801309242e-001	 1.280470796643069e+000	 7.595667924385019e-001
 2.124385434304010e-001	 1.282524801035884e+000	 7.021213590155254e-001
 2.004073670785509e-001	 1.284459764740199e+000	 6.491191390794079e-001
 1.883953357421090e-001	 1.286276485633416e+000	 6.004918123148932e-001
 1.764040093228645e-001	 1.287975786077856e+000	 5.561803772009037e-001
 1.644349225862496e-001	 1.289558512152712e+000	 5.161350396528981e-001
 1.524895848147954e-001	 1.291025532883092e+000	 4.803150822658551e-001
 1.405694794862699e-001	 1.292377739466991e+000	 4.486887150759584e-001
 1.286760639762829e-001	 1.293616044500996e+000	 4.212329087809267e-001
 1.168107692851074e-001	 1.294741381205540e+000	 3.979332113765530e-001
 2.411010444544205e-001	 1.302879613144973e+000	 1.103951856271569e+000
 2.288043432096740e-001	 1.305095235041069e+000	 1.034947408450418e+000
 2.165239000343380e-001	 1.307188739518228e+000	 9.709449397984524e-001
 2.042613549066354e-001	 1.309160914062888e+000	 9.118558450728536e-001
 1.920183229676621e-001	 1.311012571896248e+000	 8.576011912397604e-001
 1.797963941173191e-001	 1.312744551195289e+000	 8.081116356671371e-001
 1.675971326357591e-001	 1.314357714309955e+000	 7.633273228507510e-001
 1.554220768301773e-001	 1.315852946977379e+000	 7.231977605965074e-001
 1.432727387067614e-001	 1.317231157533977e+000	 6.876816766064190e-001
 1.311506036675752e-001	 1.318493276126271e+000	 6.567468564428290e-001
 1.190571302321284e-001	 1.319640253921239e+000	 6.303699638604688e-001
 2.456501207639431e-001	 1.327462247355889e+000	 1.377332516725446e+000
 2.331214062882249e-001	 1.329719673438472e+000	 1.301662438787377e+000
 2.206092566379227e-001	 1.331852677999906e+000	 1.231412253279671e+000
 2.081153427342451e-001	 1.333862063384863e+000	 1.166482397017749e+000
 1.956413101926485e-001	 1.335748658158338e+000	 1.106783303758803e+000
 1.831887789111455e-001	 1.337513316311971e+000	 1.052235330676420e+000
 1.707593426846086e-001	 1.339156916466462e+000	 1.002768662121305e+000
 1.583545688448976e-001	 1.340680361070961e+000	 9.583231916220861e-001
 1.459759979266187e-001	 1.342084575600310e+000	 9.188483831100077e-001
 1.336251433582900e-001	 1.343370507750963e+000	 8.843031123761135e-001
 1.213034911786578e-001	 1.344539126636447e+000	 8.546554897917046e-001
 2.501991970734510e-001	 1.352044881566296e+000	 1.642085726691341e+000
 2.374384693665767e-001	 1.354344111835278e+000	 1.560136710815646e+000
 2.246946132411551e-001	 1.356516616480918e+000	 1.483963341228027e+000
 2.119693305613802e-001	 1.358563212706124e+000	 1.413454989270184e+000
 1.992642974170683e-001	 1.360484744419687e+000	 1.348511410625289e+000
 1.865811637043437e-001	 1.362282081427904e+000	 1.289042679115543e+000
 1.739215527327984e-001	 1.363956118622231e+000	 1.234969096463082e+000
 1.612870608589561e-001	 1.365507775163839e+000	 1.186221079003335e+000
 1.486792571458419e-001	 1.366937993665990e+000	 1.142739022373946e+000
 1.360996830484276e-001	 1.368247739375074e+000	 1.104473145227898e+000
 1.235498521246955e-001	 1.369437999351162e+000	 1.071383313043785e+000
 2.547482733829443e-001	 1.376627515776197e+000	 1.898574389021849e+000
 2.417555324447295e-001	 1.378968550231487e+000	 1.810747882185976e+000
 2.287799698440352e-001	 1.381180554961264e+000	 1.728991449164896e+000
 2.158233183880405e-001	 1.383264362026671e+000	 1.653183264643258e+000
 2.028872846409215e-001	 1.385220830680293e+000	 1.583212338057043e+000
 1.899735484969136e-001	 1.387050846543088e+000	 1.518978453770428e+000
 1.770837627803283e-001	 1.388755320777263e+000	 1.460392085814892e+000
 1.642195528723530e-001	 1.390335189256011e+000	 1.407374288221951e+000
 1.513825163644310e-001	 1.391791411731016e+000	 1.359856562012333e+000
 1.385742227379879e-001	 1.393124970998602e+000	 1.317780699937358e+000
 1.257962130702414e-001	 1.394336872065386e+000	 1.281098610089269e+000
 2.592973496924230e-001	 1.401210149985591e+000	 2.147117915452315e+000
 2.460725955226833e-001	 1.403592988627099e+000	 2.053830578527601e+000
 2.328653264465631e-001	 1.405844493440945e+000	 1.966847131298384e+000
 2.196773062142260e-001	 1.407965511346504e+000	 1.886034397875946e+000
 2.065102718642081e-001	 1.409956916940157e+000	 1.811270550941444e+000
 1.933659332888553e-001	 1.411819611657522e+000	 1.742445057369717e+000
 1.802459728271983e-001	 1.413554522931558e+000	 1.679458596937950e+000
 1.671520448850882e-001	 1.415162603347478e+000	 1.622222955192672e+000
 1.540857755823860e-001	 1.416644829795389e+000	 1.570660891586403e+000
 1.410487624269708e-001	 1.418002202621548e+000	 1.524705984025739e+000
 1.280425740152957e-001	 1.419235744779119e+000	 1.484302450999959e+000
 2.638464260018870e-001	 1.425792784194477e+000	 2.387995975835265e+000
 2.503896586004381e-001	 1.428217427022114e+000	 2.289680103105301e+000
 2.369506830487388e-001	 1.430508431919961e+000	 2.197841930808688e+000
 2.235312940399369e-001	 1.432666660665623e+000	 2.112336756674030e+000
 2.101332590869281e-001	 1.434693003199280e+000	 2.033031804674069e+000
 1.967583180801687e-001	 1.436588376771206e+000	 1.959806175176324e+000
 1.834081828734086e-001	 1.438353725085116e+000	 1.892550766620792e+000
 1.700845368971617e-001	 1.439990017438240e+000	 1.831168169846903e+000
 1.567890347997069e-001	 1.441498247859109e+000	 1.775572536229937e+000
 1.435233021153763e-001	 1.442879434243912e+000	 1.725689420822386e+000
 1.302889349598582e-001	 1.444134617492359e+000	 1.681455601722959e+000
 2.683955023113362e-001	 1.450375418402855e+000	 2.621451866096197e+000
 2.547067216779939e-001	 1.452841865416533e+000	 2.518555769223128e+000
 2.410360396505621e-001	 1.455172370398310e+000	 2.422251685867523e+000
 2.273852818651730e-001	 1.457367809984029e+000	 2.332383190441484e+000
 2.137562463090814e-001	 1.459429089457661e+000	 2.248806425624170e+000
 2.001507028708540e-001	 1.461357141884142e+000	 2.171390056128113e+000
 1.865703929189590e-001	 1.463152927237936e+000	 2.100015192355088e+000
 1.730170289085735e-001	 1.464817431528297e+000	 2.034575285114076e+000
 1.594922940163937e-001	 1.466351665922175e+000	 1.974975992617488e+000
 1.459978418032046e-001	 1.467756665865694e+000	 1.921135021006012e+000
 1.325352959039290e-001	 1.469033490205109e+000	 1.872981939684347e+000
 2.729445786207708e-001	 1.474958052610726e+000	 2.847695539394421e+000
 2.590237847553507e-001	 1.477466303810354e+000	 2.740683899387751e+000
 2.451213962520330e-001	 1.479836308875993e+000	 2.640319505055284e+000
 2.312392696899343e-001	 1.482068959301720e+000	 2.546433990139042e+000
 2.173792335306681e-001	 1.484165175715300e+000	 2.458872263553467e+000
 2.035430876609109e-001	 1.486125906996327e+000	 2.377492465865532e+000
 1.897326029638495e-001	 1.487952129390019e+000	 2.302165893943697e+000
 1.759495209193236e-001	 1.489644845617649e+000	 2.232776895005435e+000
 1.621955532324464e-001	 1.491205083984588e+000	 2.169222731336329e+000
 1.484723814904554e-001	 1.492633897486894e+000	 2.111413416992813e+000
 1.347816568475081e-001	 1.493932362917365e+000	 2.059271527832677e+000
 1.123180473895901e-001	 1.244943635772666e+000	 5.542357747847342e-002
 1.009374997969171e-001	 1.245917983316647e+000	-5.317819126512156e-003
 8.958666635718569e-002	 1.246785558636688e+000	-5.777318996077348e-002
 7.826684560235818e-002	 1.247547314088946e+000	-1.019793820511667e-001
 6.697930988018169e-002	 1.248204218890639e+000	-1.379781018968936e-001
 5.572530520361981e-002	 1.248757258383706e+000	-1.658157843665473e-001
 4.450605112168756e-002	 1.249207433302222e+000	-1.855434584167128e-001
 3.332274061130324e-002	 1.249555759044168e+000	-1.972166099509041e-001
 2.217653998975738e-002	 1.249803264948180e+000	-2.008950421342881e-001
 1.106858884738389e-002	 1.249950993575827e+000	-1.966427334744611e-001
 0.000000000000000e+000	 1.250000000000000e+000	-1.845276939726135e-001
 1.145644083375946e-001	 1.269842508489349e+000	 1.566986211243143e-001
 1.029562497926623e-001	 1.270836342983972e+000	 1.246090355442440e-001
 9.137839968381835e-002	 1.271721269810203e+000	 9.747897819650128e-002
 7.983218251366320e-002	 1.272498260371322e+000	 7.532713242434114e-002
 6.831889607689809e-002	 1.273168303268888e+000	 5.817869370945210e-002
 5.683981130674506e-002	 1.273732403551682e+000	 4.606513850379050e-002
 4.539617214319856e-002	 1.274191581968459e+000	 3.902398366902606e-002
 3.398919542271439e-002	 1.274546874225160e+000	 3.709853742425424e-002
 2.262007078892794e-002	 1.274799330247191e+000	 4.033764269382252e-002
 1.128996062397893e-002	 1.274950013447355e+000	 4.879541373623487e-002
 0.000000000000000e+000	 1.275000000000000e+000	 6.253096692234111e-002
 1.168107692851074e-001	 1.294741381205540e+000	 3.979332113765530e-001
 1.049749997880107e-001	 1.295754702650900e+000	 3.640300470088431e-001
 9.317013301013843e-002	 1.296656980983405e+000	 3.352347044007769e-001
 8.139751942472966e-002	 1.297449206653458e+000	 3.115562014841872e-001
 6.965848227343983e-002	 1.298132387646963e+000	 2.930105902253024e-001
 5.795431740974947e-002	 1.298707548719538e+000	 2.796207210424470e-001
 4.628629316463252e-002	 1.299175730634619e+000	 2.714159968786584e-001
 3.465565023408233e-002	 1.299537989406108e+000	 2.684321178787885e-001
 2.306360158807937e-002	 1.299795395546184e+000	 2.707108176154077e-001
 1.151133240056920e-002	 1.299949033318879e+000	 2.782995917939276e-001
 0.000000000000000e+000	 1.300000000000000e+000	 2.912514203572576e-001
 1.190571302321284e-001	 1.319640253921239e+000	 6.303699638604688e-001
 1.069937497829620e-001	 1.320673062317432e+000	 5.940328365677099e-001
 9.496186633614591e-002	 1.321592692156296e+000	 5.629019823162854e-001
 8.296285633555761e-002	 1.322400152935356e+000	 5.369772696027306e-001
 7.099806846980696e-002	 1.323096472024863e+000	 5.162661654484841e-001
 5.906882351263302e-002	 1.323682693887272e+000	 5.007834939890057e-001
 4.717641418598938e-002	 1.324159879300702e+000	 4.905511837330929e-001
 3.532210504540707e-002	 1.324529104587013e+000	 4.855980044978002e-001
 2.350713238721168e-002	 1.324791460845157e+000	 4.859592950156197e-001
 1.173270417715471e-002	 1.324948053190398e+000	 4.916766822004710e-001
 0.000000000000000e+000	 1.325000000000000e+000	 5.027977930458908e-001
 1.213034911786578e-001	 1.344539126636447e+000	 8.546554897917046e-001
 1.090124997775164e-001	 1.345591421983566e+000	 8.153066112098326e-001
 9.675359966184079e-002	 1.346528403328873e+000	 7.812127912948037e-001
 8.452819324614709e-002	 1.347351099217016e+000	 7.523652419713703e-001
 7.233765466599945e-002	 1.348060556402588e+000	 7.287633815051501e-001
 6.018332961539571e-002	 1.348657839054886e+000	 7.104145858472226e-001
 4.806653520726916e-002	 1.349144027966708e+000	 6.973339276343507e-001
 3.598855985668861e-002	 1.349520219767875e+000	 6.895439039060000e-001
 2.395066318632485e-002	 1.349787526144111e+000	 6.870741535940060e-001
 1.195407595373545e-002	 1.349947073061912e+000	 6.899611658288252e-001
 0.000000000000000e+000	 1.350000000000000e+000	 6.982479800937554e-001
 1.235498521246955e-001	 1.369437999351162e+000	 1.071383313043785e+000
 1.110312497716739e-001	 1.370509781649304e+000	 1.028485295520969e+000
 9.854533298722308e-002	 1.371464114501138e+000	 9.908415541372426e-001
 8.609353015649802e-002	 1.372302045498437e+000	 9.584351156757591e-001
 7.367724086201732e-002	 1.373024640780139e+000	 9.312578651479871e-001
 6.129783571803756e-002	 1.373632984222379e+000	 9.093102884775000e-001
 4.895665622847188e-002	 1.374128176632637e+000	 8.926012017908327e-001
 3.665501466792696e-002	 1.374511334948694e+000	 8.811474684384315e-001
 2.439419398541888e-002	 1.374783591443046e+000	 8.749737048625477e-001
 1.217544773031143e-002	 1.374946092933421e+000	 8.741119764175593e-001
 0.000000000000000e+000	 1.375000000000000e+000	 8.786014842351444e-001
 1.257962130702414e-001	 1.394336872065386e+000	 1.281098610089269e+000
 1.130499997654344e-001	 1.395428141314644e+000	 1.234152467612480e+000
 1.003370663122928e-001	 1.396399825673090e+000	 1.192410276071611e+000
 8.765886706661044e-002	 1.397252991779620e+000	 1.155847328633724e+000
 7.501682705786056e-002	 1.397988725157515e+000	 1.124448473414793e+000
 6.241234182055857e-002	 1.398608129389751e+000	 1.098207846082585e+000
 4.984677724959753e-002	 1.399112325298489e+000	 1.077128587984287e+000
 3.732146947912210e-002	 1.399502450129469e+000	 1.061222550987632e+000
 2.483772478449378e-002	 1.399779656741962e+000	 1.050509990216251e+000
 1.239681950688264e-002	 1.399945112804926e+000	 1.045019245850741e+000
 0.000000000000000e+000	 1.400000000000000e+000	 1.044786415152059e+000
 1.280425740152957e-001	 1.419235744779119e+000	 1.484302450999959e+000
 1.150687497587980e-001	 1.420346500979588e+000	 1.432845775478816e+000
 1.021287996370500e-001	 1.421335536844730e+000	 1.386493142785542e+000
 8.922420397648437e-002	 1.422203938060564e+000	 1.345212545487257e+000
 7.635641325352915e-002	 1.422952809534717e+000	 1.308982273428053e+000
 6.352684792295871e-002	 1.423583274557002e+000	 1.277790634826932e+000
 5.073689827064610e-002	 1.424096473964263e+000	 1.251635661783035e+000
 3.798792429027404e-002	 1.424493565310201e+000	 1.230524801445996e+000
 2.528125558354956e-002	 1.424775722040858e+000	 1.214474594100997e+000
 1.261819128344908e-002	 1.424944132676426e+000	 1.203510339408275e+000
 0.000000000000000e+000	 1.425000000000000e+000	 1.197665752022605e+000
 1.302889349598582e-001	 1.444134617492359e+000	 1.681455601722959e+000
 1.170874997517646e-001	 1.445264860644134e+000	 1.625060896490274e+000
 1.039205329614944e-001	 1.446271248016057e+000	 1.573620642800775e+000
 9.078954088611978e-002	 1.447154884341270e+000	 1.527095948402165e+000
 7.769599944902313e-002	 1.447916893911744e+000	 1.485459007042624e+000
 6.464135402523800e-002	 1.448558419724132e+000	 1.448692806632907e+000
 5.162701929161759e-002	 1.449080622629961e+000	 1.416790820663603e+000
 3.865437910138279e-002	 1.449484680490890e+000	 1.389756684205865e+000
 2.572478638258620e-002	 1.449771787339736e+000	 1.367603855819667e+000
 1.283956306001076e-002	 1.449943152547921e+000	 1.350355266680026e+000
 0.000000000000000e+000	 1.450000000000000e+000	 1.338042958219513e+000
 1.325352959039290e-001	 1.469033490205109e+000	 1.872981939684347e+000
 1.191062497443342e-001	 1.470183220308284e+000	 1.811255094225828e+000
 1.057122662856264e-001	 1.471206959187071e+000	 1.754283270622552e+000
 9.235487779551667e-002	 1.472105830621737e+000	 1.702021091515325e+000
 7.903558564434246e-002	 1.472880978288596e+000	 1.654435101461831e+000
 6.575586012739645e-002	 1.473533564891142e+000	 1.611503460727040e+000
 5.251714031251203e-002	 1.474064771295581e+000	 1.573215621137263e+000
 3.932083391244833e-002	 1.474475795671536e+000	 1.539571985405257e+000
 2.616831718160371e-002	 1.474767852638594e+000	 1.510583551323935e+000
 1.306093483656768e-002	 1.474942172419411e+000	 1.486271542217603e+000
 0.000000000000000e+000	 1.475000000000000e+000	 1.466667025022652e+000
 1.347816568475081e-001	 1.493932362917365e+000	 2.059271527832677e+000
 1.211249997365069e-001	 1.495101579972037e+000	 1.991850419622096e+000
 1.075039996094458e-001	 1.496142670357773e+000	 1.928934859574624e+000
 9.392021470467503e-002	 1.497056776901965e+000	 1.870473369936970e+000
 8.037517183948716e-002	 1.497845062665274e+000	 1.816427278791865e+000
 6.687036622943404e-002	 1.498508710058030e+000	 1.766770398030992e+000
 5.340726133332937e-002	 1.499048919961125e+000	 1.721488682163789e+000
 3.998728872347066e-002	 1.499466910852138e+000	 1.680579869448908e+000
 2.661184798060209e-002	 1.499763917937434e+000	 1.644053106826799e+000
 1.328230661311983e-002	 1.499941192290897e+000	 1.611928560120782e+000
 0.000000000000000e+000	 1.500000000000000e+000	 1.584237010959848e+000
 1.500000000000000e+000	 0.000000000000000e+000	 1.561497759258516e+001
 1.499941192290897e+000	 1.328230661311987e-002	 1.562757015542723e+001
 1.499763917937433e+000	 2.661184798060218e-002	 1.563608527450840e+001
 1.499466910852138e+000	 3.998728872347057e-002	 1.564038224454816e+001
 1.499048919961125e+000	 5.340726133332932e-002	 1.564031752089008e+001
 1.498508710058030e+000	 6.687036622943404e-002	 1.563574470247324e+001
 1.497845062665274e+000	 8.037517183948720e-002	 1.562651451838281e+001
 1.497056776901965e+000	 9.392021470467514e-002	 1.561247481823499e+001
 1.496142670357773e+000	 1.075039996094457e-001	 1.559347056665529e+001
 1.495101579972036e+000	 1.211249997365068e-001	 1.556934384211270e+001
 1.493932362917365e+000	 1.347816568475081e-001	 1.553993384037548e+001
 1.525000000000000e+000	 0.000000000000000e+000	 1.532334895044295e+001
 1.524940212162383e+000	 1.350367838967202e-002	 1.533683989116289e+001
 1.524759983236273e+000	 2.705537877960056e-002	 1.534619549682602e+001
 1.524458026032741e+000	 4.065374353449290e-002	 1.535128085377417e+001
 1.524033068626668e+000	 5.429738235414668e-002	 1.535195830321850e+001
 1.523483855224919e+000	 6.798487233147164e-002	 1.534808741787351e+001
 1.522809147041952e+000	 8.171475803463191e-002	 1.533952498192657e+001
 1.522007723182194e+000	 9.548555161383354e-002	 1.532612497460578e+001
 1.521078381528475e+000	 1.092957329332650e-001	 1.530773855761441e+001
 1.520019939635789e+000	 1.231437497286795e-001	 1.528421406670442e+001
 1.518831235629623e+000	 1.370280177910873e-001	 1.525539700766520e+001
 1.550000000000000e+000	 0.000000000000000e+000	 1.504778333699988e+001
 1.549939232033873e+000	 1.372505016622894e-002	 1.506244260772534e+001
 1.549756048535131e+000	 2.749890957861807e-002	 1.507292122503920e+001
 1.549449141213386e+000	 4.132019834555844e-002	 1.507909018734794e+001
 1.549017217292289e+000	 5.518750337504110e-002	 1.508081783319903e+001
 1.548459000391928e+000	 6.909937843363008e-002	 1.507796981115479e+001
 1.547773231418804e+000	 8.305434422995126e-002	 1.507040905275770e+001
 1.546958669462661e+000	 9.705088852323041e-002	 1.505799574885931e+001
 1.546014092699489e+000	 1.110874662573969e-001	 1.504058732959097e+001
 1.544938299299939e+000	 1.251624997212492e-001	 1.501803844825927e+001
 1.543730108342372e+000	 1.392743787351581e-001	 1.499020096945436e+001
 1.575000000000000e+000	 0.000000000000000e+000	 1.478769091060644e+001
 1.574938251905368e+000	 1.394642194279062e-002	 1.480376221451297e+001
 1.574752113834008e+000	 2.794244037765472e-002	 1.481561990880779e+001
 1.574440256394075e+000	 4.198665315666719e-002	 1.482314103355817e+001
 1.574001365957986e+000	 5.607762439601260e-002	 1.482620004546704e+001
 1.573434145559059e+000	 7.021388453590939e-002	 1.482466878055767e+001
 1.572737315795831e+000	 8.439393042544521e-002	 1.481841641970611e+001
 1.571909615743366e+000	 9.861622543286584e-002	 1.480730945730313e+001
 1.570949803870816e+000	 1.128791995818415e-001	 1.479121167333465e+001
 1.569856658964486e+000	 1.271812497142157e-001	 1.476998410917525e+001
 1.568628981055612e+000	 1.415207396797206e-001	 1.474348504739525e+001
 1.600000000000000e+000	 0.000000000000000e+000	 1.454251869471612e+001
 1.599937271776867e+000	 1.416779371935706e-002	 1.456022071742084e+001
 1.599748179132905e+000	 2.838597117671049e-002	 1.457368834688132e+001
 1.599431371574808e+000	 4.265310796781913e-002	 1.458280480333481e+001
 1.598985514623761e+000	 5.696774541706117e-002	 1.458745079155225e+001
 1.598409290726310e+000	 7.132839063830954e-002	 1.458750445589953e+001
 1.597701400173032e+000	 8.573351662111382e-002	 1.458284133800234e+001
 1.596860562024311e+000	 1.001815623427397e-001	 1.457333433730683e+001
 1.595885515042456e+000	 1.146709329065986e-001	 1.455885367483669e+001
 1.594775018629429e+000	 1.291999997075793e-001	 1.453926686045383e+001
 1.593527853769345e+000	 1.437671006247749e-001	 1.451443866393652e+001
 1.625000000000000e+000	 0.000000000000000e+000	 1.431174774210832e+001
 1.624936291648372e+000	 1.438916549592827e-002	 1.433127528834081e+001
 1.624744244431821e+000	 2.882950197578540e-002	 1.434655966024604e+001
 1.624422486755583e+000	 4.331956277901426e-002	 1.435749040543050e+001
 1.623969663289613e+000	 5.785786643818681e-002	 1.436395461550224e+001
 1.623384435893682e+000	 7.244289674083053e-002	 1.436583687306865e+001
 1.622665484550409e+000	 8.707310281695706e-002	 1.436301920109291e+001
 1.621811508305494e+000	 1.017468992528522e-001	 1.435538101491271e+001
 1.620821226214409e+000	 1.164626662316683e-001	 1.434279907723435e+001
 1.619693378294770e+000	 1.312187497013398e-001	 1.432514745642280e+001
 1.618426726483569e+000	 1.460134615703208e-001	 1.430229748841590e+001
 1.650000000000000e+000	 0.000000000000000e+000	 1.409489055690909e+001
 1.649935311519882e+000	 1.461053727250425e-002	 1.411641560107094e+001
 1.649740309730756e+000	 2.927303277487944e-002	 1.413370054044028e+001
 1.649413601936402e+000	 4.398601759025260e-002	 1.414664140567642e+001
 1.648953811955542e+000	 5.874798745938953e-002	 1.415513182263110e+001
 1.648359581061175e+000	 7.355740284347238e-002	 1.415906295083704e+001
 1.647629568927959e+000	 8.841268901297490e-002	 1.415832342410880e+001
 1.646762454586914e+000	 1.033122361632031e-001	 1.415279929357272e+001
 1.645756937386674e+000	 1.182543995570506e-001	 1.414237397345150e+001
 1.644611737960507e+000	 1.332374996954973e-001	 1.412692818993894e+001
 1.643325599198285e+000	 1.482598225163584e-001	 1.410633993350791e+001
 1.675000000000000e+000	 0.000000000000000e+000	 1.389148874747575e+001
 1.674934331391396e+000	 1.483190904908500e-002	 1.391516140580014e+001
 1.674736375029710e+000	 2.971656357399260e-002	 1.393460874428944e+001
 1.674404717117263e+000	 4.465247240153415e-002	 1.394973344063316e+001
 1.673937960621548e+000	 5.963810848066933e-002	 1.396043581076829e+001
 1.673334726228788e+000	 7.467190894623507e-002	 1.396661373840644e+001
 1.672593653305685e+000	 8.975227520916740e-002	 1.396816260642638e+001
 1.671713400868574e+000	 1.048775730737926e-001	 1.396497523046119e+001
 1.670692648559251e+000	 1.200461328827455e-001	 1.395694179502047e+001
 1.669530097626642e+000	 1.352562496900517e-001	 1.394394979249775e+001
 1.668224471913492e+000	 1.505061834628878e-001	 1.392588396542277e+001
 1.700000000000000e+000	 0.000000000000000e+000	 1.370111088637984e+001
 1.699933351262914e+000	 1.505328082567050e-002	 1.372706031760875e+001
 1.699732440328683e+000	 3.016009437312491e-002	 1.374881080969363e+001
 1.699395832298168e+000	 4.531892721285889e-002	 1.376627185944892e+001
 1.698922109287630e+000	 6.052822950202618e-002	 1.377935063698533e+001
 1.698309871396523e+000	 7.578641504911864e-002	 1.378795190581794e+001
 1.697557737683585e+000	 9.109186140553453e-002	 1.379197794459051e+001
 1.696664347150472e+000	 1.064429099846206e-001	 1.379132847075999e+001
 1.695628359732141e+000	 1.218378662087530e-001	 1.378590056659619e+001
 1.694448457293174e+000	 1.372749996850030e-001	 1.377558860786300e+001
 1.693123344629191e+000	 1.527525444099089e-001	 1.376028419555813e+001
 1.725000000000000e+000	 0.000000000000000e+000	 1.352335055647856e+001
 1.724932371134438e+000	 1.527465260226077e-002	 1.355168579727361e+001
 1.724728505627676e+000	 3.060362517227634e-002	 1.357585997004265e+001
 1.724386947479116e+000	 4.598538202422683e-002	 1.359578957077336e+001
 1.723906257953790e+000	 6.141835052346012e-002	 1.361138879591173e+001
 1.723285016564378e+000	 7.690092115212302e-002	 1.362256945258676e+001
 1.722521822061660e+000	 9.243144760207629e-002	 1.362924087020091e+001
 1.721615293432609e+000	 1.080082468956870e-001	 1.363130981374495e+001
 1.720564070905344e+000	 1.236295995350730e-001	 1.362868039920819e+001
 1.719366816960102e+000	 1.392937496803514e-001	 1.362125401146762e+001
 1.718022217345382e+000	 1.549989053574217e-001	 1.360892922505080e+001
 1.750000000000000e+000	 0.000000000000000e+000	 1.335782456446585e+001
 1.749931391005967e+000	 1.549602437885581e-002	 1.338863530514685e+001
 1.749724570926687e+000	 3.104715597144690e-002	 1.341533424739523e+001
 1.749378062660108e+000	 4.665183683563796e-002	 1.343784507422189e+001
 1.748890406620027e+000	 6.230847154497113e-002	 1.345608918848081e+001
 1.748260161732354e+000	 7.801542725524827e-002	 1.346998561273993e+001
 1.747485906439909e+000	 9.377103379879266e-002	 1.347945089026546e+001
 1.746566239714984e+000	 1.095735838069920e-001	 1.348439898749343e+001
 1.745499782078859e+000	 1.254213328617057e-001	 1.348474119837671e+001
 1.744285176627427e+000	 1.413124996760966e-001	 1.348038605100880e+001
 1.742921090062065e+000	 1.572452663054261e-001	 1.347123921693823e+001
 1.493932362917365e+000	 1.347816568475081e-001	 1.553993384037548e+001
 1.492633897486894e+000	 1.484723814904555e-001	 1.555947229247797e+001
 1.491205083984588e+000	 1.621955532324464e-001	 1.557336947266903e+001
 1.489644845617648e+000	 1.759495209193235e-001	 1.558147305846779e+001
 1.487952129390018e+000	 1.897326029638494e-001	 1.558362842823729e+001
 1.486125906996327e+000	 2.035430876609109e-001	 1.557967868417551e+001
 1.484165175715299e+000	 2.173792335306682e-001	 1.556946468066478e+001
 1.482068959301720e+000	 2.312392696899344e-001	 1.555282505823174e+001
 1.479836308875994e+000	 2.451213962520329e-001	 1.552959628336653e+001
 1.477466303810354e+000	 2.590237847553505e-001	 1.549961269444655e+001
 1.474958052610726e+000	 2.729445786207708e-001	 1.546270655400510e+001
 1.518831235629623e+000	 1.370280177910873e-001	 1.525539700766520e+001
 1.517511129108093e+000	 1.509469211777063e-001	 1.527693920079321e+001
 1.516058502047001e+000	 1.648988124484991e-001	 1.529282184703471e+001
 1.514472259707000e+000	 1.788820129300736e-001	 1.530289290872158e+001
 1.512751331542102e+000	 1.928948130087400e-001	 1.530699797766462e+001
 1.510894672108513e+000	 2.069354724509679e-001	 1.530498029378596e+001
 1.508901261972938e+000	 2.210022207522549e-001	 1.529668076918682e+001
 1.506770108619411e+000	 2.350932575146958e-001	 1.528193801791761e+001
 1.504500247353678e+000	 2.492067528535040e-001	 1.526058839171498e+001
 1.502090742204176e+000	 2.633408478327073e-001	 1.523246602196705e+001
 1.499540686818598e+000	 2.774936549302055e-001	 1.519740286816316e+001
 1.543730108342372e+000	 1.392743787351581e-001	 1.499020096945436e+001
 1.542388360729875e+000	 1.534214608655346e-001	 1.501376210115387e+001
 1.540911920110067e+000	 1.676020716651859e-001	 1.503165826340394e+001
 1.539299673797057e+000	 1.818145049414854e-001	 1.504373786414639e+001
 1.537550533694922e+000	 1.960570230542904e-001	 1.504984685878641e+001
 1.535663437221448e+000	 2.103278572416532e-001	 1.504982876401139e+001
 1.533637348231319e+000	 2.246252079744082e-001	 1.504352467712690e+001
 1.531471257937816e+000	 2.389472453399320e-001	 1.503077330119368e+001
 1.529164185832027e+000	 2.532921094553273e-001	 1.501141097624655e+001
 1.526715180598594e+000	 2.676579109102631e-001	 1.498527171687379e+001
 1.524123321026977e+000	 2.820427312396547e-001	 1.495218725643030e+001
 1.568628981055612e+000	 1.415207396797206e-001	 1.474348504739525e+001
 1.567265592352239e+000	 1.558960005539401e-001	 1.476907071349960e+001
 1.565765338173787e+000	 1.703053308825068e-001	 1.478899875126539e+001
 1.564127087887819e+000	 1.847469969535589e-001	 1.480311817877895e+001
 1.562349735848479e+000	 1.992192331005007e-001	 1.481127546893479e+001
 1.560432202335132e+000	 2.137202420329665e-001	 1.481331455798046e+001
 1.558373434490442e+000	 2.282481951971282e-001	 1.480907685966614e+001
 1.556172407256935e+000	 2.428012331656428e-001	 1.479840128529972e+001
 1.553828124311042e+000	 2.573774660575029e-001	 1.478112427000666e+001
 1.551339618993610e+000	 2.719749739880180e-001	 1.475707980549093e+001
 1.548705955235862e+000	 2.865918075491187e-001	 1.472609947958880e+001
 1.593527853769345e+000	 1.437671006247749e-001	 1.451443866393652e+001
 1.592142823975186e+000	 1.583705402429230e-001	 1.454204514416816e+001
 1.590618756238160e+000	 1.730085901004618e-001	 1.456401402878661e+001
 1.588954501979286e+000	 1.876794889662941e-001	 1.458019511433828e+001
 1.587148938002774e+000	 2.023814431473708e-001	 1.459043554888480e+001
 1.585200967449566e+000	 2.171126268249083e-001	 1.459457983480859e+001
 1.583109520750306e+000	 2.318711824204148e-001	 1.459246983731580e+001
 1.580873556576769e+000	 2.466552209918284e-001	 1.458394479895586e+001
 1.578492062790723e+000	 2.614628226600308e-001	 1.456884136047579e+001
 1.575964057389222e+000	 2.762920370659717e-001	 1.454699358832493e+001
 1.573288589445256e+000	 2.911408838585972e-001	 1.451823300912120e+001
 1.618426726483569e+000	 1.460134615703208e-001	 1.430229748841590e+001
 1.617020055598714e+000	 1.608450799324833e-001	 1.433191201001872e+001
 1.615472174303186e+000	 1.757118493190510e-001	 1.435592160368499e+001
 1.613781916071458e+000	 1.906119809796909e-001	 1.437417701655789e+001
 1.611948140157806e+000	 2.055436531949006e-001	 1.438652623335893e+001
 1.609969732564750e+000	 2.205050116174782e-001	 1.439281447298354e+001
 1.607845607010913e+000	 2.354941696442680e-001	 1.439288419089180e+001
 1.605574705897316e+000	 2.505092088184886e-001	 1.438657508763319e+001
 1.603156001271070e+000	 2.655481792629110e-001	 1.437372412384363e+001
 1.600588495785431e+000	 2.806091001441246e-001	 1.435416554205050e+001
 1.597871223655156e+000	 2.956899601680906e-001	 1.432773089561779e+001
 1.643325599198285e+000	 1.482598225163584e-001	 1.410633993350791e+001
 1.641897287222824e+000	 1.633196196226208e-001	 1.413794091490753e+001
 1.640325592368866e+000	 1.784151085382741e-001	 1.416398222856487e+001
 1.638609330164336e+000	 1.935444729937495e-001	 1.418431574821489e+001
 1.636747342313576e+000	 2.087058632430904e-001	 1.419879046057638e+001
 1.634738497680683e+000	 2.238973964106763e-001	 1.420725245526135e+001
 1.632581693272261e+000	 2.391171568686879e-001	 1.420954492058247e+001
 1.630275855218577e+000	 2.543631966456236e-001	 1.420550814561813e+001
 1.627819939752082e+000	 2.696335358661433e-001	 1.419497952889474e+001
 1.625212934182237e+000	 2.849261632224763e-001	 1.417779359404323e+001
 1.622453857865564e+000	 3.002390364775985e-001	 1.415378201278360e+001
 1.668224471913492e+000	 1.505061834628878e-001	 1.392588396542277e+001
 1.666774518847517e+000	 1.657941593133357e-001	 1.395944124170309e+001
 1.665179010435199e+000	 1.811183677581314e-001	 1.398749667368720e+001
 1.663436744257917e+000	 1.964769650084698e-001	 1.400990344158950e+001
 1.661546544470082e+000	 2.118680732919400e-001	 1.402651170333550e+001
 1.659507262797366e+000	 2.272897812045027e-001	 1.403716857730314e+001
 1.657317779534351e+000	 2.427401440936744e-001	 1.404171813107004e+001
 1.654977004540552e+000	 2.582171844732334e-001	 1.404000137654844e+001
 1.652483878233760e+000	 2.737188924697280e-001	 1.403185627188942e+001
 1.649837372579640e+000	 2.892432263010272e-001	 1.401711773053612e+001
 1.647036492076480e+000	 3.047881127871212e-001	 1.399561763780287e+001
 1.693123344629191e+000	 1.527525444099089e-001	 1.376028419555813e+001
 1.691651750472792e+000	 1.682686990046280e-001	 1.379575922735877e+001
 1.690032428502185e+000	 1.838216269786229e-001	 1.382580278449477e+001
 1.688264158352205e+000	 1.994094570238517e-001	 1.385026953747212e+001
 1.686345746627326e+000	 2.150302833414494e-001	 1.386901098852997e+001
 1.684276027914798e+000	 2.306821659989574e-001	 1.388187544672609e+001
 1.682053865797183e+000	 2.463631313192274e-001	 1.388870800914135e+001
 1.679678153863241e+000	 2.620711723013178e-001	 1.388935054860803e+001
 1.677147816716104e+000	 2.778042490736650e-001	 1.388364170836690e+001
 1.674461810977640e+000	 2.935602893797770e-001	 1.387141690405653e+001
 1.671619126287902e+000	 3.093371890966585e-001	 1.385250833343602e+001
 1.718022217345382e+000	 1.549989053574217e-001	 1.360892922505080e+001
 1.716528982098648e+000	 1.707432386964976e-001	 1.364627529232703e+001
 1.714885846569825e+000	 1.865248861997483e-001	 1.367827279500490e+001
 1.713091572447198e+000	 2.023419490398953e-001	 1.370477808164815e+001
 1.711144948785307e+000	 2.181924933916186e-001	 1.372564417583752e+001
 1.709044793032979e+000	 2.340745507940402e-001	 1.374072074310661e+001
 1.706789952060757e+000	 2.499861185453471e-001	 1.374985406411494e+001
 1.704379303186644e+000	 2.659251601298770e-001	 1.375288701448727e+001
 1.701811755199113e+000	 2.818896056779543e-001	 1.374965905174830e+001
 1.699086249376236e+000	 2.978773524587258e-001	 1.374000620978158e+001
 1.696201760499832e+000	 3.138862654062104e-001	 1.372376110123880e+001
 1.742921090062065e+000	 1.572452663054261e-001	 1.347123921693823e+001
 1.741406213725087e+000	 1.732177783889446e-001	 1.351040159888085e+001
 1.739739264638117e+000	 1.892281454215079e-001	 1.354431087148260e+001
 1.737918986542895e+000	 2.052744410566007e-001	 1.357282525311260e+001
 1.735944150944025e+000	 2.213547034424477e-001	 1.359579946966397e+001
 1.733813558151911e+000	 2.374669355897513e-001	 1.361308471284041e+001
 1.731526038325072e+000	 2.536091057720335e-001	 1.362452860480316e+001
 1.729080452510761e+000	 2.697791479589110e-001	 1.362997516963256e+001
 1.726475693682788e+000	 2.859749622825957e-001	 1.362926481205931e+001
 1.723710687775429e+000	 3.021944155378737e-001	 1.362223430392023e+001
 1.720784394712270e+000	 3.184353417157770e-001	 1.360871677879104e+001
 1.474958052610726e+000	 2.729445786207708e-001	 1.546270655400510e+001
 1.472310693793589e+000	 2.868818936375483e-001	 1.548341818411597e+001
 1.469523396755786e+000	 3.008338184795506e-001	 1.549719069015327e+001
 1.466595362636951e+000	 3.147984152506358e-001	 1.550385409864932e+001
 1.463525825174173e+000	 3.287737200581074e-001	 1.550323657132534e+001
 1.460314051546808e+000	 3.427577436160288e-001	 1.549516448440813e+001
 1.456959343210722e+000	 3.567484718777407e-001	 1.547946251540898e+001
 1.453461036720863e+000	 3.707438666974944e-001	 1.545595373754956e+001
 1.449818504541093e+000	 3.847418665210725e-001	 1.542445972200574e+001
 1.446031155840162e+000	 3.987403871052225e-001	 1.538480064812551e+001
 1.442098437272754e+000	 4.127373222656903e-001	 1.533679542176152e+001
 1.499540686818598e+000	 2.774936549302055e-001	 1.519740286816316e+001
 1.496849205355224e+000	 2.916632585315759e-001	 1.522050960193755e+001
 1.494015453367372e+000	 3.058477154550846e-001	 1.523674328496486e+001
 1.491038618680334e+000	 3.200450555063186e-001	 1.524593022770813e+001
 1.487917922260149e+000	 3.342532820610352e-001	 1.524789463816757e+001
 1.484652619072495e+000	 3.484703726785304e-001	 1.524245869902712e+001
 1.481241998930835e+000	 3.626942797446991e-001	 1.522944265267437e+001
 1.477685387332699e+000	 3.769229311446956e-001	 1.520866489429733e+001
 1.473982146283009e+000	 3.911542309650635e-001	 1.517994207324707e+001
 1.470131675103331e+000	 4.053860602251622e-001	 1.514308920284078e+001
 1.466133411225922e+000	 4.196162776376646e-001	 1.509791977876211e+001
 1.524123321026977e+000	 2.820427312396547e-001	 1.495218725643030e+001
 1.521387716917276e+000	 2.964446234254375e-001	 1.497761086797154e+001
 1.518507509979304e+000	 3.108616124303102e-001	 1.499623803625902e+001
 1.515481874724011e+000	 3.252916957615901e-001	 1.500789145786693e+001
 1.512310019346388e+000	 3.397328440634879e-001	 1.501239147727145e+001
 1.508991186598434e+000	 3.541830017405329e-001	 1.500955616146432e+001
 1.505524654651208e+000	 3.686400876111746e-001	 1.499920138286393e+001
 1.501909737944822e+000	 3.831019955914700e-001	 1.498114091074743e+001
 1.498145788025261e+000	 3.975665954087249e-001	 1.495518651141196e+001
 1.494232194366904e+000	 4.120317333449101e-001	 1.492114805725845e+001
 1.490168385179583e+000	 4.264952330096262e-001	 1.487883364497319e+001
 1.548705955235862e+000	 2.865918075491187e-001	 1.472609947958880e+001
 1.545926228479745e+000	 3.012259883191330e-001	 1.475376227048398e+001
 1.542999566591581e+000	 3.158755094052278e-001	 1.477471586990290e+001
 1.539925130767982e+000	 3.305383360164504e-001	 1.478877946311272e+001
 1.536702116432889e+000	 3.452124060654656e-001	 1.479576962148778e+001
 1.533329754124622e+000	 3.598956308020363e-001	 1.479550037422287e+001
 1.529807310371839e+000	 3.745858954771669e-001	 1.478778328878145e+001
 1.526134088557231e+000	 3.892810600378177e-001	 1.477242756032304e+001
 1.522309429767849e+000	 4.039789598520567e-001	 1.474924011033905e+001
 1.518332713630881e+000	 4.186774064644661e-001	 1.471802569470960e+001
 1.514203359133739e+000	 4.333741883815753e-001	 1.467858702137618e+001
 1.573288589445256e+000	 2.911408838585972e-001	 1.451823300912120e+001
 1.570464740042631e+000	 3.060073532126624e-001	 1.454805758368699e+001
 1.567491623204205e+000	 3.208894063798373e-001	 1.457127097955185e+001
 1.564368386812248e+000	 3.357849762708993e-001	 1.458768897380749e+001
 1.561094213519653e+000	 3.506919680669683e-001	 1.459712445552052e+001
 1.557668321651062e+000	 3.656082598630407e-001	 1.459938749417313e+001
 1.554089966092728e+000	 3.805317033426761e-001	 1.459428541728966e+001
 1.550358439169927e+000	 3.954601244837385e-001	 1.458162289751559e+001
 1.546473071510771e+000	 4.103913242950586e-001	 1.456120204939939e+001
 1.542433232895262e+000	 4.253230795838303e-001	 1.453282253611101e+001
 1.538238333088388e+000	 4.402531437535119e-001	 1.449628168631195e+001
 1.597871223655156e+000	 2.956899601680906e-001	 1.432773089561779e+001
 1.595003251605933e+000	 3.107887181060257e-001	 1.435963995343509e+001
 1.591983679817174e+000	 3.259033033541385e-001	 1.438504672912708e+001
 1.588811642856809e+000	 3.410316165249370e-001	 1.440376369542860e+001
 1.585486310606679e+000	 3.561715300679960e-001	 1.441560015039969e+001
 1.582006889177752e+000	 3.713208889235460e-001	 1.442036228221656e+001
 1.578372621813876e+000	 3.864775112077023e-001	 1.441785324361339e+001
 1.574582789782909e+000	 4.016391889292326e-001	 1.440787323626425e+001
 1.570636713254029e+000	 4.168036887377308e-001	 1.439021960537865e+001
 1.566533752160047e+000	 4.319687527030027e-001	 1.436468694476628e+001
 1.562273307043531e+000	 4.471320991254358e-001	 1.433106721260724e+001
 1.622453857865564e+000	 3.002390364775985e-001	 1.415378201278360e+001
 1.619541763169654e+000	 3.155700829992230e-001	 1.418769815694924e+001
 1.616475736430489e+000	 3.309172003281314e-001	 1.421523192779553e+001
 1.613254898901664e+000	 3.462782567785635e-001	 1.423619259833271e+001
 1.609878407693968e+000	 3.616510920685486e-001	 1.425038596754746e+001
 1.606345456704692e+000	 3.770335179835523e-001	 1.425761442116228e+001
 1.602655277535283e+000	 3.924233190722453e-001	 1.425767700252427e+001
 1.598807140396178e+000	 4.078182533743000e-001	 1.425036949393716e+001
 1.594800354997622e+000	 4.232160531800731e-001	 1.423548450873361e+001
 1.590634271425236e+000	 4.386144258219835e-001	 1.421281159436687e+001
 1.586308280999167e+000	 4.540110544973471e-001	 1.418213734678026e+001
 1.647036492076480e+000	 3.047881127871212e-001	 1.399561763780287e+001
 1.644080274733790e+000	 3.203514478922541e-001	 1.403146319749086e+001
 1.640967793044150e+000	 3.359310973018163e-001	 1.406105743853356e+001
 1.637698154946812e+000	 3.515248970317786e-001	 1.408420653977968e+001
 1.634270504781519e+000	 3.671306540686263e-001	 1.410071289382357e+001
 1.630684024231883e+000	 3.827461470430594e-001	 1.411037516334582e+001
 1.626937933256947e+000	 3.983691269363053e-001	 1.411298834807606e+001
 1.623031491009734e+000	 4.139973178189407e-001	 1.410834386271732e+001
 1.618963996741549e+000	 4.296284176220855e-001	 1.409622962615403e+001
 1.614734790690830e+000	 4.452600989407723e-001	 1.407643016224688e+001
 1.610343254955297e+000	 4.608900098692461e-001	 1.404872671249660e+001
 1.671619126287902e+000	 3.093371890966585e-001	 1.385250833343602e+001
 1.668618786298344e+000	 3.251328127851191e-001	 1.389020519950589e+001
 1.665459849658157e+000	 3.409449942751929e-001	 1.392179308593505e+001
 1.662141410992255e+000	 3.567715372845824e-001	 1.394707518401320e+001
 1.658662601869333e+000	 3.726102160682289e-001	 1.396585057347841e+001
 1.655022591759324e+000	 3.884587761020676e-001	 1.397791427404635e+001
 1.651220588978870e+000	 4.043149347998821e-001	 1.398305730806920e+001
 1.647255841623576e+000	 4.201763822631545e-001	 1.398106677468984e+001
 1.643127638485812e+000	 4.360407820637685e-001	 1.397172593583976e+001
 1.638835309956827e+000	 4.519057720593693e-001	 1.395481431440927e+001
 1.634378228911922e+000	 4.677689652411324e-001	 1.393010780489679e+001
 1.696201760499832e+000	 3.138862654062104e-001	 1.372376110123880e+001
 1.693157297863315e+000	 3.299141776778182e-001	 1.376323057375632e+001
 1.689951906272511e+000	 3.459588912482614e-001	 1.379674483290570e+001
 1.686584667037993e+000	 3.620181775369750e-001	 1.382410419016049e+001
 1.683054698957409e+000	 3.780897780673563e-001	 1.384510450689278e+001
 1.679361159287015e+000	 3.941714051605766e-001	 1.385953724069361e+001
 1.675503244701052e+000	 4.102607426629759e-001	 1.386718950334454e+001
 1.671480192237705e+000	 4.263554467069415e-001	 1.386784413083447e+001
 1.667291280230411e+000	 4.424531465051215e-001	 1.386127976579704e+001
 1.662935829223229e+000	 4.585514451777745e-001	 1.384727095272390e+001
 1.658413202869040e+000	 4.746479206130062e-001	 1.382558824628645e+001
 1.720784394712270e+000	 3.184353417157770e-001	 1.360871677879104e+001
 1.717695809428702e+000	 3.346955425703510e-001	 1.364987942544035e+001
 1.714443962887209e+000	 3.509727882210215e-001	 1.368525219935503e+001
 1.711027923084025e+000	 3.672648177889562e-001	 1.371463264116909e+001
 1.707446796045747e+000	 3.835693400660090e-001	 1.373781348942577e+001
 1.703699726814957e+000	 3.998840342185866e-001	 1.375458272128577e+001
 1.699785900423492e+000	 4.162065505255865e-001	 1.376472360542333e+001
 1.695704542852120e+000	 4.325345111503018e-001	 1.376801476753321e+001
 1.691454921975343e+000	 4.488655109461448e-001	 1.376423026885242e+001
 1.687036348490034e+000	 4.651971182959880e-001	 1.375313969807983e+001
 1.682448176826651e+000	 4.815268759848673e-001	 1.373450827705321e+001
 1.442098437272754e+000	 4.127373222656903e-001	 1.533679542176152e+001
 1.438019833743952e+000	 4.267305446539297e-001	 1.535344936451877e+001
 1.433794869157610e+000	 4.407179065610665e-001	 1.536243889373599e+001
 1.429423107146426e+000	 4.546972407496674e-001	 1.536360107837938e+001
 1.424904151781651e+000	 4.686663613134735e-001	 1.535677171954371e+001
 1.420237648262862e+000	 4.826230645635711e-001	 1.534178547601408e+001
 1.415423283586218e+000	 4.965651299408992e-001	 1.531847599842367e+001
 1.410460787190097e+000	 5.104903209545468e-001	 1.528667607206232e+001
 1.405349931577071e+000	 5.243963861452563e-001	 1.524621776836740e+001
 1.400090532911170e+000	 5.382810600734965e-001	 1.519693260510395e+001
 1.394682451589383e+000	 5.521420643314209e-001	 1.513865171521514e+001
 1.466133411225922e+000	 4.196162776376646e-001	 1.509791977876211e+001
 1.461986830971045e+000	 4.338427203983612e-001	 1.511869017931170e+001
 1.457691450307712e+000	 4.480632050033768e-001	 1.513174866459697e+001
 1.453246825595835e+000	 4.622755280946553e-001	 1.513691909563253e+001
 1.448652554307850e+000	 4.764774673341675e-001	 1.513402378102622e+001
 1.443908275729996e+000	 4.906667823048521e-001	 1.512288361160091e+001
 1.439013671641701e+000	 5.048412154383311e-001	 1.510331820434404e+001
 1.433968466971982e+000	 5.189984929688458e-001	 1.507514605574349e+001
 1.428772430431791e+000	 5.331363259128183e-001	 1.503818470454171e+001
 1.423425375121222e+000	 5.472524110733928e-001	 1.499225090391506e+001
 1.417927159110548e+000	 5.613444320692591e-001	 1.493716080305657e+001
 1.490168385179583e+000	 4.264952330096262e-001	 1.487883364497319e+001
 1.485953828198727e+000	 4.409548961429656e-001	 1.490336766255460e+001
 1.481588031458489e+000	 4.554085034460164e-001	 1.492015444263500e+001
 1.477070544045993e+000	 4.698538154400996e-001	 1.492900478202158e+001
 1.472400956834864e+000	 4.842885733554153e-001	 1.492972762684648e+001
 1.467578903198001e+000	 4.987105000467546e-001	 1.492213021592997e+001
 1.462604059698101e+000	 5.131173009364222e-001	 1.490601823422345e+001
 1.457476146754822e+000	 5.275066649838112e-001	 1.488119597639440e+001
 1.452194929287489e+000	 5.418762656810237e-001	 1.484746652058778e+001
 1.446760217332268e+000	 5.562237620738787e-001	 1.480463191237092e+001
 1.441171866632713e+000	 5.705467998076025e-001	 1.475249335883841e+001
 1.514203359133739e+000	 4.333741883815753e-001	 1.467858702137618e+001
 1.509920825426997e+000	 4.480670718877428e-001	 1.470655168009880e+001
 1.505484612609940e+000	 4.627538018889853e-001	 1.472674600697920e+001
 1.500894262496902e+000	 4.774321027860001e-001	 1.473896786844746e+001
 1.496149359362695e+000	 4.920996793772168e-001	 1.474301296799156e+001
 1.491249530666879e+000	 5.067542177892784e-001	 1.473867499794830e+001
 1.486194447755420e+000	 5.213933864351719e-001	 1.472574580214619e+001
 1.480983826538614e+000	 5.360148369994428e-001	 1.470401554946713e+001
 1.475617428144168e+000	 5.506162054498723e-001	 1.467327291836521e+001
 1.470095059544309e+000	 5.651951130749543e-001	 1.463330529235010e+001
 1.464416574155878e+000	 5.797491675464509e-001	 1.458389896641155e+001
 1.538238333088388e+000	 4.402531437535119e-001	 1.449628168631195e+001
 1.533887822655857e+000	 4.551792476326931e-001	 1.452736258276704e+001
 1.529381193762066e+000	 4.700991003322836e-001	 1.455066234089756e+001
 1.524717980948561e+000	 4.850103901323571e-001	 1.456596602131839e+001
 1.519897761891341e+000	 4.999107853995722e-001	 1.457305619517092e+001
 1.514920158136628e+000	 5.147979355324236e-001	 1.457171310403193e+001
 1.509784835813656e+000	 5.296694719345808e-001	 1.456171483146732e+001
 1.504491506323362e+000	 5.445230090157410e-001	 1.454283748630362e+001
 1.499039927001826e+000	 5.593561452193643e-001	 1.451485539765953e+001
 1.493429901757345e+000	 5.741664640766193e-001	 1.447754132174733e+001
 1.487661281680043e+000	 5.889515352858046e-001	 1.443066666042073e+001
 1.562273307043531e+000	 4.471320991254358e-001	 1.433106721260724e+001
 1.557854819885305e+000	 4.622914233778162e-001	 1.436496732289412e+001
 1.553277774914866e+000	 4.774443987759112e-001	 1.439108784686311e+001
 1.548541699400969e+000	 4.925886774791703e-001	 1.440920115520327e+001
 1.543646164420804e+000	 5.077218914224814e-001	 1.441907678806865e+001
 1.538590785607250e+000	 5.228416532761903e-001	 1.442048162279902e+001
 1.533375223872810e+000	 5.379455574346489e-001	 1.441318005409954e+001
 1.527999186109062e+000	 5.530311810327057e-001	 1.439693418675950e+001
 1.522462425860463e+000	 5.680960849894998e-001	 1.437150404095724e+001
 1.516764743971375e+000	 5.831378150788741e-001	 1.433664777016461e+001
 1.510905989205208e+000	 5.981539030256633e-001	 1.429212189162813e+001
 1.586308280999167e+000	 4.540110544973471e-001	 1.418213734678026e+001
 1.581821817115343e+000	 4.694035991231121e-001	 1.421857592390950e+001
 1.577174356068340e+000	 4.847896972198681e-001	 1.424724890570523e+001
 1.572365417854129e+000	 5.001669648264399e-001	 1.426791608069828e+001
 1.567394566951083e+000	 5.155329974459444e-001	 1.428033405102714e+001
 1.562261413078743e+000	 5.308853710205784e-001	 1.428425640766732e+001
 1.556965611932882e+000	 5.462216429353760e-001	 1.427943391895582e+001
 1.551506865895716e+000	 5.615393530503365e-001	 1.426561473249847e+001
 1.545884924720079e+000	 5.768360247602785e-001	 1.424254459051379e+001
 1.540099586186401e+000	 5.921091660817186e-001	 1.420996705863025e+001
 1.534150696731373e+000	 6.073562707660271e-001	 1.416762376811660e+001
 1.610343254955297e+000	 4.608900098692461e-001	 1.404872671249660e+001
 1.605788814345970e+000	 4.765157748685813e-001	 1.408743826607645e+001
 1.601070937222489e+000	 4.921349956641541e-001	 1.411841074389641e+001
 1.596189136308037e+000	 5.077452521741657e-001	 1.414139145248462e+001
 1.591142969482178e+000	 5.233441034699612e-001	 1.415612414105769e+001
 1.585932040551108e+000	 5.389290887655879e-001	 1.416234918395865e+001
 1.580555999993871e+000	 5.544977284367622e-001	 1.415980377724779e+001
 1.575014545683324e+000	 5.700475250686340e-001	 1.414822214954400e+001
 1.569307423580675e+000	 5.855759645317006e-001	 1.412733578717685e+001
 1.563434428402421e+000	 6.010805170851528e-001	 1.409687367367157e+001
 1.557395404258538e+000	 6.165586385068962e-001	 1.405656254354918e+001
 1.634378228911922e+000	 4.677689652411324e-001	 1.393010780489679e+001
 1.629755811577185e+000	 4.836279506142233e-001	 1.397084115584262e+001
 1.624967518377312e+000	 4.994802941087698e-001	 1.400387457725515e+001
 1.620012854762696e+000	 5.153235395223481e-001	 1.402894298667518e+001
 1.614891372014088e+000	 5.311552094945315e-001	 1.404577735808551e+001
 1.609602668024345e+000	 5.469728065112188e-001	 1.405410491125892e+001
 1.604146388055779e+000	 5.627738139388071e-001	 1.405364931614033e+001
 1.598522225471886e+000	 5.785556970875978e-001	 1.404413091237043e+001
 1.592729922442250e+000	 5.943159043037660e-001	 1.402526694401920e+001
 1.586769270619437e+000	 6.100518680891768e-001	 1.399677180955756e+001
 1.580640111786703e+000	 6.257610062482703e-001	 1.395857496760683e+001
 1.658413202869040e+000	 4.746479206130062e-001	 1.382558824628645e+001
 1.653722808808989e+000	 4.907401263600381e-001	 1.386810565002959e+001
 1.648864099532809e+000	 5.068255925537145e-001	 1.390297500302220e+001
 1.643836573218106e+000	 5.229018268709867e-001	 1.392991892013116e+001
 1.638639774546815e+000	 5.389663155196558e-001	 1.394865567082547e+001
 1.633273295498454e+000	 5.550165242574712e-001	 1.395889937513814e+001
 1.627736776118604e+000	 5.710498994415113e-001	 1.396036021556657e+001
 1.622029905261401e+000	 5.870638691072282e-001	 1.395274466502980e+001
 1.616152421304804e+000	 6.030558440764750e-001	 1.393575573096008e+001
 1.610104112837447e+000	 6.190232190937902e-001	 1.390909321556394e+001
 1.603884819315868e+000	 6.349633739901497e-001	 1.387269877327243e+001
 1.682448176826651e+000	 4.815268759848673e-001	 1.373450827705321e+001
 1.677689806041381e+000	 4.978523021060258e-001	 1.377858460937762e+001
 1.672760680688981e+000	 5.141708909989885e-001	 1.381507761547338e+001
 1.667660291674265e+000	 5.304801142200816e-001	 1.384369768755147e+001
 1.662388177080357e+000	 5.467774215453338e-001	 1.386415045472577e+001
 1.656943922973434e+000	 5.630602420043449e-001	 1.387613698529439e+001
 1.651327164182347e+000	 5.793259849448744e-001	 1.387935400588721e+001
 1.645537585051869e+000	 5.955720411275246e-001	 1.387349413761050e+001
 1.639574920168338e+000	 6.117957838498270e-001	 1.385824614927612e+001
 1.633438955056451e+000	 6.279945700989932e-001	 1.383259287165812e+001
 1.627129526846032e+000	 6.441657417325339e-001	 1.379394739953016e+001
 1.394682451589383e+000	 5.521420643314209e-001	 1.513865171521514e+001
 1.389125592786738e+000	 5.659771085778665e-001	 1.513352591750779e+001
 1.383419906972935e+000	 5.797838915960679e-001	 1.511700044194388e+001
 1.377565390400310e+000	 5.935601023727932e-001	 1.508880965257347e+001
 1.371562085562787e+000	 6.073034211979437e-001	 1.504868932402595e+001
 1.365410081623910e+000	 6.210115207841032e-001	 1.499637696168359e+001
 1.359109514813409e+000	 6.346820674049267e-001	 1.496291965786472e+001
 1.352660568791450e+000	 6.483127220513680e-001	 1.493209997647643e+001
 1.346063474979750e+000	 6.619011416047153e-001	 1.489140183023169e+001
 1.339318512858777e+000	 6.754449800253558e-001	 1.484079551307473e+001
 1.332426010230286e+000	 6.889418895561570e-001	 1.478025944298941e+001
 1.417927159110548e+000	 5.613444320692591e-001	 1.493716080305657e+001
 1.412277685994379e+000	 5.754100603868140e-001	 1.493161931759326e+001
 1.406476905416908e+000	 5.894469564555901e-001	 1.491515301530958e+001
 1.400524813568007e+000	 6.034527707454684e-001	 1.488750265481455e+001
 1.394421453649835e+000	 6.174251448845148e-001	 1.484840988372356e+001
 1.388166916311995e+000	 6.313617127971891e-001	 1.481524817806748e+001
 1.381761340054712e+000	 6.452601018617064e-001	 1.479303810224912e+001
 1.375204911599155e+000	 6.591179340855367e-001	 1.476146823779978e+001
 1.368497866224071e+000	 6.729328272979888e-001	 1.472051534184584e+001
 1.361640488067934e+000	 6.867023963587896e-001	 1.467016403303125e+001
 1.354633110395864e+000	 7.004242543815206e-001	 1.461040687666429e+001
 1.441171866632713e+000	 5.705467998076025e-001	 1.475249335883841e+001
 1.435429779203020e+000	 5.848430121961762e-001	 1.474733677063062e+001
 1.429533903861879e+000	 5.991100213154565e-001	 1.473172372868313e+001
 1.423484236736704e+000	 6.133454391184368e-001	 1.470540080760898e+001
 1.417280821737884e+000	 6.275468685713480e-001	 1.467405695239045e+001
 1.410923751001080e+000	 6.417119048105253e-001	 1.466008196900659e+001
 1.404413165297016e+000	 6.558381363187456e-001	 1.463722633622740e+001
 1.397749254407861e+000	 6.699231461199932e-001	 1.460547336366207e+001
 1.390932257469392e+000	 6.839645129915990e-001	 1.456481399535358e+001
 1.383962463278092e+000	 6.979598126926295e-001	 1.451524688954589e+001
 1.376840210562442e+000	 7.119066192073804e-001	 1.445677848732825e+001
 1.464416574155878e+000	 5.797491675464509e-001	 1.458389896641155e+001
 1.458581872412662e+000	 5.942759640059531e-001	 1.457989883384948e+001
 1.452590902307852e+000	 6.087730861756671e-001	 1.456590497746462e+001
 1.446443659906401e+000	 6.232381074916983e-001	 1.454166922431509e+001
 1.440140189826932e+000	 6.376685922584428e-001	 1.453223505742628e+001
 1.433680585691165e+000	 6.520620968241120e-001	 1.451774276445550e+001
 1.427064990540319e+000	 6.664161707760433e-001	 1.449480035449123e+001
 1.420293597217567e+000	 6.807283581547378e-001	 1.446340516032444e+001
 1.413366648715714e+000	 6.949961986855464e-001	 1.442356203084198e+001
 1.406284438489250e+000	 7.092172290268760e-001	 1.437528339481231e+001
 1.399047310730021e+000	 7.233889840337363e-001	 1.431858931337501e+001
 1.487661281680043e+000	 5.889515352858046e-001	 1.443066666042073e+001
 1.481733965623303e+000	 6.037089158161452e-001	 1.442856742353461e+001
 1.475647900754824e+000	 6.184361510362219e-001	 1.441693238438663e+001
 1.469403083077098e+000	 6.331307758652531e-001	 1.440849930444738e+001
 1.462999557916980e+000	 6.477903159457994e-001	 1.440208080151367e+001
 1.456437420382251e+000	 6.624122888379495e-001	 1.438762193505079e+001
 1.449716815784622e+000	 6.769942052336005e-001	 1.436512643084819e+001
 1.442837940028272e+000	 6.915335701897700e-001	 1.433460536555270e+001
 1.435801039963035e+000	 7.060278843798309e-001	 1.429607722604341e+001
 1.428606413701408e+000	 7.204746453615288e-001	 1.424956795758441e+001
 1.421254410898599e+000	 7.348713488605884e-001	 1.419511100049267e+001
 1.510905989205208e+000	 5.981539030256633e-001	 1.429212189162813e+001
 1.504886058834944e+000	 6.131418676267519e-001	 1.429264263356014e+001
 1.498704899202796e+000	 6.280992158971205e-001	 1.428787087339618e+001
 1.492362506248795e+000	 6.430234442391006e-001	 1.428929618202680e+001
 1.485858926008029e+000	 6.579120396334177e-001	 1.428305443408478e+001
 1.479194255074336e+000	 6.727624808520369e-001	 1.426915569586932e+001
 1.472368641029925e+000	 6.875722396914169e-001	 1.424761725059747e+001
 1.465382282839978e+000	 7.023387822250905e-001	 1.421846365388640e+001
 1.458235431211356e+000	 7.170595700744521e-001	 1.418172677805523e+001
 1.450928388914565e+000	 7.317320616965878e-001	 1.413744584497959e+001
 1.443461511068178e+000	 7.463537136879365e-001	 1.408566744725622e+001
 1.534150696731373e+000	 6.073562707660271e-001	 1.416762376811660e+001
 1.528038152047586e+000	 6.225748194377736e-001	 1.417145984314795e+001
 1.521761897651768e+000	 6.377622807583635e-001	 1.417843335932813e+001
 1.515321929421492e+000	 6.529161126132413e-001	 1.418020118658556e+001
 1.508718294100077e+000	 6.680337633212981e-001	 1.417465616563430e+001
 1.501951089767421e+000	 6.831126728663752e-001	 1.416182170912222e+001
 1.495020466276229e+000	 6.981502741494924e-001	 1.414172839450778e+001
 1.487926625652684e+000	 7.131439942606987e-001	 1.411441400506489e+001
 1.480669822460677e+000	 7.280912557694104e-001	 1.407992355944852e+001
 1.473250364128723e+000	 7.429894780320531e-001	 1.403830932957231e+001
 1.465668611238756e+000	 7.578360785157806e-001	 1.398963084657576e+001
 1.557395404258538e+000	 6.165586385068962e-001	 1.405656254354918e+001
 1.551190245261227e+000	 6.320077712492102e-001	 1.406852218380491e+001
 1.544818896101740e+000	 6.474253456199506e-001	 1.407814923623958e+001
 1.538281352595190e+000	 6.628087809876754e-001	 1.408077309968120e+001
 1.531577662193125e+000	 6.781554870094403e-001	 1.407642318555054e+001
 1.524707924461506e+000	 6.934628648809639e-001	 1.406513599108508e+001
 1.517672291523532e+000	 7.087283086078271e-001	 1.404695513766289e+001
 1.510470968466389e+000	 7.239492062965950e-001	 1.402193139766929e+001
 1.503104213710998e+000	 7.391229414647057e-001	 1.399012270965061e+001
 1.495572339343881e+000	 7.542468943679248e-001	 1.395159418152430e+001
 1.487875711410334e+000	 7.693184433441207e-001	 1.390641808164161e+001
 1.580640111786703e+000	 6.257610062482703e-001	 1.395857496760683e+001
 1.574342338475868e+000	 6.414407230610618e-001	 1.397596641471638e+001
 1.567875894552713e+000	 6.570884104818822e-001	 1.398663090170014e+001
 1.561240775769887e+000	 6.727014493624023e-001	 1.399060365707900e+001
 1.554437030287174e+000	 6.882772106978443e-001	 1.398792694307923e+001
 1.547464759156591e+000	 7.038130568958031e-001	 1.397865009194622e+001
 1.540324116771835e+000	 7.193063430664207e-001	 1.396282953076205e+001
 1.533015311281095e+000	 7.347544183327792e-001	 1.394052879450169e+001
 1.525538604962319e+000	 7.501546271603378e-001	 1.391181852708810e+001
 1.517894314560039e+000	 7.655043107042028e-001	 1.387677647023255e+001
 1.510082811582912e+000	 7.808008081729571e-001	 1.383548743987430e+001
 1.603884819315868e+000	 6.349633739901497e-001	 1.387269877327243e+001
 1.597494431691509e+000	 6.508736748733279e-001	 1.389133055811313e+001
 1.590932893004685e+000	 6.667514753441572e-001	 1.390352007987408e+001
 1.584200198945584e+000	 6.825941177374224e-001	 1.390931516076583e+001
 1.577296398382222e+000	 6.983989343865102e-001	 1.390877066472505e+001
 1.570221593852676e+000	 7.141632489108927e-001	 1.390194852088547e+001
 1.562975942021138e+000	 7.298843775252738e-001	 1.388891773522032e+001
 1.555559654096801e+000	 7.455596303692514e-001	 1.386975439010544e+001
 1.547972996214641e+000	 7.611863128563071e-001	 1.384454163157820e+001
 1.540216289777197e+000	 7.767617270408870e-001	 1.381336964409491e+001
 1.532289911756491e+000	 7.922831730022893e-001	 1.377633561261814e+001
 1.627129526846032e+000	 6.441657417325339e-001	 1.379394739953016e+001
 1.620646524908150e+000	 6.603066266860092e-001	 1.381430215040401e+001
 1.613989891457657e+000	 6.764145402067768e-001	 1.382848572676363e+001
 1.607159622122281e+000	 6.924867861127355e-001	 1.383655829564862e+001
 1.600155766478270e+000	 7.085206580754376e-001	 1.383858708444745e+001
 1.592978428549761e+000	 7.245134409262326e-001	 1.383464639186045e+001
 1.585627767271441e+000	 7.404624119843859e-001	 1.382481758668882e+001
 1.578103996913506e+000	 7.563648424060113e-001	 1.380918909421216e+001
 1.570407387467962e+000	 7.722179985526131e-001	 1.378785636994369e+001
 1.562538264995355e+000	 7.880191433779775e-001	 1.376092186058144e+001
 1.554497011931069e+000	 8.037655378321177e-001	 1.372849495200373e+001
 1.332426010230286e+000	 6.889418895561570e-001	 1.478025944298941e+001
 1.325386343444616e+000	 7.023895219395790e-001	 1.472768166074498e+001
 1.318199937591758e+000	 7.157855296464768e-001	 1.467117185450882e+001
 1.310867266655738e+000	 7.291275671160524e-001	 1.461091017253607e+001
 1.303388853632028e+000	 7.424132920061468e-001	 1.454708118153216e+001
 1.295765270607128e+000	 7.556403664517626e-001	 1.447987368789685e+001
 1.287997138799943e+000	 7.688064583308102e-001	 1.440948054961086e+001
 1.280085128564544e+000	 7.819092425357328e-001	 1.433609847898322e+001
 1.272029959353938e+000	 7.949464022496643e-001	 1.425992783650680e+001
 1.263832399644536e+000	 8.079156302257311e-001	 1.418117241609344e+001
 1.255493266821059e+000	 8.208146300681053e-001	 1.410003922198758e+001
 1.354633110395864e+000	 7.004242543815206e-001	 1.461040687666429e+001
 1.347476115830716e+000	 7.140960139710572e-001	 1.456657489526801e+001
 1.340169936547323e+000	 7.277152884728084e-001	 1.451855892825175e+001
 1.332715054429446e+000	 7.412796932332970e-001	 1.446652405938711e+001
 1.325112001189150e+000	 7.547868468713277e-001	 1.441064002681843e+001
 1.317361358447709e+000	 7.682343725574868e-001	 1.435108106068110e+001
 1.309463757777677e+000	 7.816198993009831e-001	 1.428802571106929e+001
 1.301419880705692e+000	 7.949410632424675e-001	 1.422165666654331e+001
 1.293230458675645e+000	 8.081955089514599e-001	 1.415216056339363e+001
 1.284896272971888e+000	 8.213808907269713e-001	 1.407972778590534e+001
 1.276418154602220e+000	 8.344948738999106e-001	 1.400455225789422e+001
 1.376840210562442e+000	 7.119066192073804e-001	 1.445677848732825e+001
 1.369565888217805e+000	 7.258025060031214e-001	 1.442078697251465e+001
 1.362139935503848e+000	 7.396450472997969e-001	 1.438036358376865e+001
 1.354562842204066e+000	 7.534318193512493e-001	 1.433565885905414e+001
 1.346835148747114e+000	 7.671604017372470e-001	 1.428682823106353e+001
 1.338957446289043e+000	 7.808283786639605e-001	 1.423403188074818e+001
 1.330930376756053e+000	 7.944333402718963e-001	 1.417743458089168e+001
 1.322754632847352e+000	 8.079728839499136e-001	 1.411720552988714e+001
 1.314430957997716e+000	 8.214446156539170e-001	 1.405351817590722e+001
 1.305960146299434e+000	 8.348461512288039e-001	 1.398655003168326e+001
 1.297343042383386e+000	 8.481751177322187e-001	 1.391648248013707e+001
 1.399047310730021e+000	 7.233889840337363e-001	 1.431858931337501e+001
 1.391655660605885e+000	 7.375089980357721e-001	 1.428957578212890e+001
 1.384109934461334e+000	 7.515748061274421e-001	 1.425588610751817e+001
 1.376410629979597e+000	 7.655839454699087e-001	 1.421765677986031e+001
 1.368558296305920e+000	 7.795339566039048e-001	 1.417502942921017e+001
 1.360553534131128e+000	 7.934223847711835e-001	 1.412815069435959e+001
 1.352396995735073e+000	 8.072467812435503e-001	 1.407717208155899e+001
 1.344089384989528e+000	 8.210047046580712e-001	 1.402224981309375e+001
 1.335631457320152e+000	 8.346937223570364e-001	 1.396354466587611e+001
 1.327024019627176e+000	 8.483114117312290e-001	 1.390122180024193e+001
 1.318267930164557e+000	 8.618553615650291e-001	 1.383545057916986e+001
 1.421254410898599e+000	 7.348713488605884e-001	 1.419511100049267e+001
 1.413745432994954e+000	 7.492154900690090e-001	 1.417225312920882e+001
 1.406079933419780e+000	 7.635045649557442e-001	 1.414447803076687e+001
 1.398258417756039e+000	 7.777360715892759e-001	 1.411190862682591e+001
 1.390281443865568e+000	 7.919075114713012e-001	 1.407467322865905e+001
 1.382149621973968e+000	 8.060163908791563e-001	 1.403290542119727e+001
 1.373863614714737e+000	 8.200602222159444e-001	 1.398674393645968e+001
 1.365424137132218e+000	 8.340365253669401e-001	 1.393633251647548e+001
 1.356831956642953e+000	 8.479428290608180e-001	 1.388181976583059e+001
 1.348087892955113e+000	 8.617766722342464e-001	 1.382335899400243e+001
 1.339192817945733e+000	 8.755356053983423e-001	 1.376110804767430e+001
 1.443461511068178e+000	 7.463537136879365e-001	 1.408566744725622e+001
 1.435835205385014e+000	 7.609219821028320e-001	 1.406818058696408e+001
 1.428049932379187e+000	 7.754343237847031e-001	 1.404553818768107e+001
 1.420106205533392e+000	 7.898881977093510e-001	 1.401785006346093e+001
 1.412004591426058e+000	 8.042810663394361e-001	 1.398523167292592e+001
 1.403745709817559e+000	 8.186103969878783e-001	 1.394780401794672e+001
 1.395330233695044e+000	 8.328736631890795e-001	 1.390569353135847e+001
 1.386758889275422e+000	 8.470683460765203e-001	 1.385903195379073e+001
 1.378032455966119e+000	 8.611919357652613e-001	 1.380795619971807e+001
 1.369151766283244e+000	 8.752419327378566e-001	 1.375260821286873e+001
 1.360117705726915e+000	 8.892158492321584e-001	 1.369313481115785e+001
 1.465668611238756e+000	 7.578360785157806e-001	 1.398963084657576e+001
 1.457924977776064e+000	 7.726284741372415e-001	 1.397676572640437e+001
 1.450019931339554e+000	 7.873640826143186e-001	 1.395850913177387e+001
 1.441953993311656e+000	 8.020403238301334e-001	 1.393495821339466e+001
 1.433727738987390e+000	 8.166546212083096e-001	 1.390621602678437e+001
 1.425341797661905e+000	 8.312044030973501e-001	 1.387239144519073e+001
 1.416796852675995e+000	 8.456871041629548e-001	 1.383359906118601e+001
 1.408093641419141e+000	 8.601001667868119e-001	 1.378995907698291e+001
 1.399232955289649e+000	 8.744410424703668e-001	 1.374159718355320e+001
 1.390215639611571e+000	 8.887071932420589e-001	 1.368864442866081e+001
 1.381042593508102e+000	 9.028960930664768e-001	 1.363123707395188e+001
 1.487875711410334e+000	 7.693184433441207e-001	 1.390641808164161e+001
 1.480014750168104e+000	 7.843349661722373e-001	 1.389745868366798e+001
 1.471989930300882e+000	 7.992938414445910e-001	 1.388287387326730e+001
 1.463801781090832e+000	 8.141924499516234e-001	 1.386274856633703e+001
 1.455450886549564e+000	 8.290281760779216e-001	 1.383717384930632e+001
 1.446937885507002e+000	 8.437984092075713e-001	 1.380624690592443e+001
 1.438263471657589e+000	 8.585005451375706e-001	 1.377007093233993e+001
 1.429428393563373e+000	 8.731319874978146e-001	 1.372875504049511e+001
 1.420433454613544e+000	 8.876901491761344e-001	 1.368241414989061e+001
 1.411279512940094e+000	 9.021724537468541e-001	 1.363116886780743e+001
 1.401967481289294e+000	 9.165763369012980e-001	 1.357514535810534e+001
 1.510082811582912e+000	 7.808008081729571e-001	 1.383548743987430e+001
 1.502104522561134e+000	 7.960414582078191e-001	 1.382974903023275e+001
 1.493959929263171e+000	 8.112236002755202e-001	 1.381815290433438e+001
 1.485649568870919e+000	 8.263445760738210e-001	 1.380077215704316e+001
 1.477174034112580e+000	 8.414017309482721e-001	 1.377768632516374e+001
 1.468533973352852e+000	 8.563924153185419e-001	 1.374898132773097e+001
 1.459730090639828e+000	 8.713139861129269e-001	 1.371474939419466e+001
 1.450763145708120e+000	 8.861638082095288e-001	 1.367508898049796e+001
 1.441633953937804e+000	 9.009392558825639e-001	 1.363010467307923e+001
 1.432343386268811e+000	 9.156377142522415e-001	 1.357990708086033e+001
 1.422892369070492e+000	 9.302565807366219e-001	 1.352461271531729e+001
 1.532289911756491e+000	 7.922831730022893e-001	 1.377633561261814e+001
 1.524194294955155e+000	 8.077479502439875e-001	 1.377316291528300e+001
 1.515929928226421e+000	 8.231533591071066e-001	 1.376390148301576e+001
 1.507497356651917e+000	 8.384967021967261e-001	 1.374861298958560e+001
 1.498897181676438e+000	 8.537752858193610e-001	 1.372736582799084e+001
 1.490130061199455e+000	 8.689864214302620e-001	 1.370023506389829e+001
 1.481196709622709e+000	 8.841274270890236e-001	 1.366730237656688e+001
 1.472097897853381e+000	 8.991956289219540e-001	 1.362865598722829e+001
 1.462834453262429e+000	 9.141883625896555e-001	 1.358439057492941e+001
 1.453407259597724e+000	 9.291029747582215e-001	 1.353460717987647e+001
 1.443817256851695e+000	 9.439368245724484e-001	 1.347941309435369e+001
 1.554497011931069e+000	 8.037655378321177e-001	 1.372849495200373e+001
 1.546284067350165e+000	 8.194544422807419e-001	 1.372726045301609e+001
 1.537899927190630e+000	 8.350831179393493e-001	 1.371970714994341e+001
 1.529345144433827e+000	 8.506488283203390e-001	 1.370588568240304e+001
 1.520620329241138e+000	 8.661488406911884e-001	 1.368585369260116e+001
 1.511726149046811e+000	 8.815804275427317e-001	 1.365967579158307e+001
 1.502663328606235e+000	 8.969408680658606e-001	 1.362742351254114e+001
 1.493432649999157e+000	 9.122274496350907e-001	 1.358917525112726e+001
 1.484034952587419e+000	 9.274374692974090e-001	 1.354501619275142e+001
 1.474471132926831e+000	 9.425682352647938e-001	 1.349503822688208e+001
 1.464742144632903e+000	 9.576170684087775e-001	 1.343933984839961e+001
 1.255493266821059e+000	 8.208146300681053e-001	 1.410003922198758e+001
 1.247013427021299e+000	 8.336411175128567e-001	 1.402019609034851e+001
 1.238393794941728e+000	 8.463928217087881e-001	 1.392754331709895e+001
 1.229635333603122e+000	 8.590674864957387e-001	 1.383256018678387e+001
 1.220739054075391e+000	 8.716628716778431e-001	 1.373525398492366e+001
 1.211706015162792e+000	 8.841767542918880e-001	 1.363562747113933e+001
 1.202537323049252e+000	 8.966069298687865e-001	 1.353367890884237e+001
 1.193234130903926e+000	 9.089512136867101e-001	 1.342940210961535e+001
 1.183797638447231e+000	 9.212074420144203e-001	 1.332278649226374e+001
 1.174229091477602e+000	 9.333734733433585e-001	 1.321381715646943e+001
 1.164529781359323e+000	 9.454471896070471e-001	 1.310247497092847e+001
 1.276418154602220e+000	 8.344948738999106e-001	 1.400455225789422e+001
 1.267796984139968e+000	 8.475351361353408e-001	 1.393343011422785e+001
 1.259033691526449e+000	 8.604993687346023e-001	 1.385924206993866e+001
 1.250129255832787e+000	 8.733852779348663e-001	 1.378214905926775e+001
 1.241084704980055e+000	 8.861905862036694e-001	 1.368720148848627e+001
 1.231901115419247e+000	 8.989130335284119e-001	 1.358986257302008e+001
 1.222579611770688e+000	 9.115503786988560e-001	 1.349035276681751e+001
 1.213121366423021e+000	 9.241004005811426e-001	 1.338866309018009e+001
 1.203527599092000e+000	 9.365608993818464e-001	 1.328477975293311e+001
 1.193799576339370e+000	 9.489296979005988e-001	 1.317868423324452e+001
 1.183938611052150e+000	 9.612046427698152e-001	 1.307035337190886e+001
 1.297343042383386e+000	 8.481751177322187e-001	 1.391648248013707e+001
 1.288580541258456e+000	 8.614291547582270e-001	 1.384864645645201e+001
 1.279673588110835e+000	 8.746059157607186e-001	 1.377769939834912e+001
 1.270623178061991e+000	 8.877030693741960e-001	 1.370380871135506e+001
 1.261430355884161e+000	 9.007183007295984e-001	 1.362714513949904e+001
 1.252096215675079e+000	 9.136493127649382e-001	 1.354788255733082e+001
 1.242621900491466e+000	 9.264938275288278e-001	 1.345436633475954e+001
 1.233008601941450e+000	 9.392495874753767e-001	 1.335540942856920e+001
 1.223257559736129e+000	 9.519143567489735e-001	 1.325441891494506e+001
 1.213370061200551e+000	 9.644859224574407e-001	 1.315137233874165e+001
 1.203347440744476e+000	 9.769620959320846e-001	 1.304624217901743e+001
 1.318267930164557e+000	 8.618553615650291e-001	 1.383545057916986e+001
 1.309364098376765e+000	 8.753231733815162e-001	 1.377097365840819e+001
 1.300313484694886e+000	 8.887124627871380e-001	 1.370333968179027e+001
 1.291117100290733e+000	 9.020208608137287e-001	 1.363272260832093e+001
 1.281776006787710e+000	 9.152460152556287e-001	 1.355929989930497e+001
 1.272291315930287e+000	 9.283855920014663e-001	 1.348325230168041e+001
 1.262664189211584e+000	 9.414372763587010e-001	 1.340476362352109e+001
 1.252895837459215e+000	 9.543987743694128e-001	 1.332402050209890e+001
 1.242987520379617e+000	 9.672678141158025e-001	 1.323053656245972e+001
 1.232940546061146e+000	 9.800421470138834e-001	 1.313071112820533e+001
 1.222756270436300e+000	 9.927195490938553e-001	 1.302896846498228e+001
 1.339192817945733e+000	 8.755356053983423e-001	 1.376110804767430e+001
 1.330147655494894e+000	 8.892171920052078e-001	 1.370005712528103e+001
 1.320953381278601e+000	 9.028190098138600e-001	 1.363580207667932e+001
 1.311611022519015e+000	 9.163386522534630e-001	 1.356852350096393e+001
 1.302121657690702e+000	 9.297737297817619e-001	 1.349840566761724e+001
 1.292486416184872e+000	 9.431218712379964e-001	 1.342563629100865e+001
 1.282706477931043e+000	 9.563807251884761e-001	 1.335040629666622e+001
 1.272783072976315e+000	 9.695479612632503e-001	 1.327290957972542e+001
 1.262717481022464e+000	 9.826212714823327e-001	 1.319334275598686e+001
 1.252511030921155e+000	 9.955983715699281e-001	 1.311190490603715e+001
 1.242165100127623e+000	 1.008477002255128e+000	 1.301739345548501e+001
 1.360117705726915e+000	 8.892158492321584e-001	 1.369313481115785e+001
 1.350931212612843e+000	 9.031112106293023e-001	 1.363557098894223e+001
 1.341593277861981e+000	 9.169255568408841e-001	 1.357475476377319e+001
 1.332104944746835e+000	 9.306564436934002e-001	 1.351087346573584e+001
 1.322467308593137e+000	 9.443014443079969e-001	 1.344411826784968e+001
 1.312681516438834e+000	 9.578581504745287e-001	 1.337468395158145e+001
 1.302748766649842e+000	 9.713241740181526e-001	 1.330276866372127e+001
 1.292670308492750e+000	 9.846971481568895e-001	 1.322857366504417e+001
 1.282447441664671e+000	 9.979747288485644e-001	 1.315230307120544e+001
 1.272081515780578e+000	 1.011154596125574e+000	 1.307416358634342e+001
 1.261573929818444e+000	 1.024234455415901e+000	 1.299436422988761e+001
 1.381042593508102e+000	 9.028960930664768e-001	 1.363123707395188e+001
 1.371714769730612e+000	 9.170052292537990e-001	 1.357721593168655e+001
 1.362233174445025e+000	 9.310321038682110e-001	 1.351989274935495e+001
 1.352598866974193e+000	 9.449742351335395e-001	 1.345946168310104e+001
 1.342812959495014e+000	 9.588291588343345e-001	 1.339612090917569e+001
 1.332876616692172e+000	 9.725944297110627e-001	 1.333007238030529e+001
 1.322791055367983e+000	 9.862676228477315e-001	 1.326152157300402e+001
 1.312557544008519e+000	 9.998463350503301e-001	 1.319067722626863e+001
 1.302177402306237e+000	 1.013328186214498e+000	 1.311775107212201e+001
 1.291652000639415e+000	 1.026710820680821e+000	 1.304295755849805e+001
 1.280982759508765e+000	 1.039991908576176e+000	 1.296651356498636e+001
 1.401967481289294e+000	 9.165763369012980e-001	 1.357514535810534e+001
 1.392498326848202e+000	 9.308992478786984e-001	 1.352471720485681e+001
 1.382873071027734e+000	 9.451386508958402e-001	 1.347093586332881e+001
 1.373092789201091e+000	 9.592920265738815e-001	 1.341400241484915e+001
 1.363158610396335e+000	 9.733568733607741e-001	 1.335412214281470e+001
 1.353071716944887e+000	 9.873307089475989e-001	 1.329150427975399e+001
 1.342833344085464e+000	 1.001211071677212e+000	 1.322636174490232e+001
 1.332444779523623e+000	 1.014995521943573e+000	 1.315891087274583e+001
 1.321907362947162e+000	 1.028681643580133e+000	 1.308937113301819e+001
 1.311222485497665e+000	 1.042267045235670e+000	 1.301796484266274e+001
 1.300391589198583e+000	 1.055749361735952e+000	 1.294491687029854e+001
 1.422892369070492e+000	 9.302565807366219e-001	 1.352461271531729e+001
 1.413281883965611e+000	 9.447932665040006e-001	 1.347782282229638e+001
 1.403512967610108e+000	 9.592451979237719e-001	 1.342762693395396e+001
 1.393586711427527e+000	 9.736098180144256e-001	 1.337423315987988e+001
 1.383504261297097e+000	 9.878845878873159e-001	 1.331785399864648e+001
 1.373266817196979e+000	 1.002066988184137e+000	 1.325870607539897e+001
 1.362875632802286e+000	 1.016154520506594e+000	 1.319700986951613e+001
 1.352332015038063e+000	 1.030144708836617e+000	 1.313298943281420e+001
 1.341637323587446e+000	 1.044035100945469e+000	 1.306687209879717e+001
 1.330792970355329e+000	 1.057823269790120e+000	 1.299888818348561e+001
 1.319800418887901e+000	 1.071506814895229e+000	 1.292927067838364e+001
 1.443817256851695e+000	 9.439368245724484e-001	 1.347941309435369e+001
 1.434065441082840e+000	 9.586872851297054e-001	 1.343630191089244e+001
 1.424152864192146e+000	 9.733517449520065e-001	 1.338973012129697e+001
 1.414080633653502e+000	 9.879276094551719e-001	 1.333991297035446e+001
 1.403849912197303e+000	 1.002412302413960e+000	 1.328707028385885e+001
 1.393461917448448e+000	 1.016803267420677e+000	 1.323142619655886e+001
 1.382917921518449e+000	 1.031097969335878e+000	 1.317320886972182e+001
 1.372219250551837e+000	 1.045293895729462e+000	 1.311265019880412e+001
 1.361367284227090e+000	 1.059388558310507e+000	 1.304998551175008e+001
 1.350363455212408e+000	 1.073379494344171e+000	 1.298545325847168e+001
 1.339209248576718e+000	 1.087264268054008e+000	 1.291929469209072e+001
 1.464742144632903e+000	 9.576170684087775e-001	 1.343933984839961e+001
 1.454848998199890e+000	 9.725813037558125e-001	 1.339994320250163e+001
 1.444792760773848e+000	 9.874582919805434e-001	 1.335702939353143e+001
 1.434574555879015e+000	 1.002245400896121e+000	 1.331082091217701e+001
 1.424195563096951e+000	 1.016940016940706e+000	 1.326154502742584e+001
 1.413657017699293e+000	 1.031539546657219e+000	 1.320943350469593e+001
 1.402960210233953e+000	 1.046041418165064e+000	 1.315472231311663e+001
 1.392106486064946e+000	 1.060443082622109e+000	 1.309765132246710e+001
 1.381097244866092e+000	 1.074742015675246e+000	 1.303846399031411e+001
 1.369933940068900e+000	 1.088935718897824e+000	 1.297740703992183e+001
 1.358618078265032e+000	 1.103021721212288e+000	 1.291473012953766e+001
 1.164529781359323e+000	 9.454471896070471e-001	 1.310247497092847e+001
 1.154701044472046e+000	 9.574264973867980e-001	 1.298931458186805e+001
 1.144744261621738e+000	 9.693093291010768e-001	 1.287382675638876e+001
 1.134660857414088e+000	 9.810936441778935e-001	 1.275602810494067e+001
 1.124452299591371e+000	 9.927774302097262e-001	 1.263593164534817e+001
 1.114120098332700e+000	 1.004358704088371e+000	 1.251354690908872e+001
 1.103665805518577e+000	 1.015835513118795e+000	 1.238888006002251e+001
 1.093091013960508e+000	 1.027205936110678e+000	 1.226193402521015e+001
 1.082397356596456e+000	 1.038468084446387e+000	 1.213270863741348e+001
 1.071586505652983e+000	 1.049620103124114e+000	 1.200120078883369e+001
 1.060660171775000e+000	 1.060660171775000e+000	 1.186740459560161e+001
 1.183938611052150e+000	 9.612046427698152e-001	 1.307035337190886e+001
 1.173946061883105e+000	 9.733836056803343e-001	 1.296222404232190e+001
 1.163823332651751e+000	 9.854644845907676e-001	 1.285187578783082e+001
 1.153571871707206e+000	 9.974452049195915e-001	 1.273929785007627e+001
 1.143193171254116e+000	 1.009323720719159e+000	 1.262447548222598e+001
 1.132688766641246e+000	 1.021098015829463e+000	 1.250739008965469e+001
 1.122060235613774e+000	 1.032766105010551e+000	 1.238801938402302e+001
 1.111309197530064e+000	 1.044326035052265e+000	 1.226633755032595e+001
 1.100437312543711e+000	 1.055775885860012e+000	 1.214231542643674e+001
 1.089446280751720e+000	 1.067113771515287e+000	 1.201592069462833e+001
 1.078337841309750e+000	 1.078337841309750e+000	 1.188711808451252e+001
 1.203347440744476e+000	 9.769620959320846e-001	 1.304624217901743e+001
 1.193191079293752e+000	 9.893407139732818e-001	 1.294221799604981e+001
 1.182902403681423e+000	 1.001619640079799e+000	 1.283609681211678e+001
 1.172482886000033e+000	 1.013796765660581e+000	 1.272784064611991e+001
 1.161934042916601e+000	 1.025870011227853e+000	 1.261740711331925e+001
 1.151257434949542e+000	 1.037837327569805e+000	 1.250474960051121e+001
 1.140454665708711e+000	 1.049696696901566e+000	 1.238981745559174e+001
 1.129527381099329e+000	 1.061446133993143e+000	 1.227255619100803e+001
 1.118477268490625e+000	 1.073083687272977e+000	 1.215290770055478e+001
 1.107306055850046e+000	 1.084607439905871e+000	 1.203081048892407e+001
 1.096015510844000e+000	 1.096015510844000e+000	 1.190619991337450e+001
 1.222756270436300e+000	 9.927195490938553e-001	 1.302896846498228e+001
 1.212436096703989e+000	 1.005297822265641e+000	 1.292817504746804e+001
 1.201981474710754e+000	 1.017774795568173e+000	 1.282542031055246e+001
 1.191393900292569e+000	 1.030148326400862e+000	 1.272063916686755e+001
 1.180674914578825e+000	 1.042416301735808e+000	 1.261376169047265e+001
 1.169826103257588e+000	 1.054576639309397e+000	 1.250471332665782e+001
 1.158849095803388e+000	 1.066627288791843e+000	 1.239341511715684e+001
 1.147745564668305e+000	 1.078566232933311e+000	 1.227978394020622e+001
 1.136517224437199e+000	 1.090391488685283e+000	 1.216373276483505e+001
 1.125165830947962e+000	 1.102101108295864e+000	 1.204517091872207e+001
 1.113693180377750e+000	 1.113693180377750e+000	 1.192400436890843e+001
 1.242165100127623e+000	 1.008477002255128e+000	 1.301739345548501e+001
 1.231681114113813e+000	 1.021254930557411e+000	 1.291900494598287e+001
 1.221060545739743e+000	 1.033929951055887e+000	 1.281880490372204e+001
 1.210304914584814e+000	 1.046499887140433e+000	 1.271670122338288e+001
 1.199415786240788e+000	 1.058962592243023e+000	 1.261259650593967e+001
 1.188394771565383e+000	 1.071315951048240e+000	 1.250638830324486e+001
 1.177243525897804e+000	 1.083557880681380e+000	 1.239796937908753e+001
 1.165963748236990e+000	 1.095686331872769e+000	 1.228722798609365e+001
 1.154557180383433e+000	 1.107699290096929e+000	 1.217404815778236e+001
 1.143025606045469e+000	 1.119594776685267e+000	 1.205831001503947e+001
 1.131370849911000e+000	 1.131370849911000e+000	 1.193989008622070e+001
 1.261573929818444e+000	 1.024234455415901e+000	 1.299436422988761e+001
 1.250926131523227e+000	 1.037212038848592e+000	 1.291235654881347e+001
 1.240139616768392e+000	 1.050085106542942e+000	 1.281523518692811e+001
 1.229215928876769e+000	 1.062851447879295e+000	 1.271505783036155e+001
 1.218156657902490e+000	 1.075508882749499e+000	 1.261298928927432e+001
 1.206963439872927e+000	 1.088055262786334e+000	 1.250889924248497e+001
 1.195637955991960e+000	 1.100488472570177e+000	 1.240265217600615e+001
 1.184181931805385e+000	 1.112806430811517e+000	 1.229410769704967e+001
 1.172597136329328e+000	 1.125007091507914e+000	 1.218312086415106e+001
 1.160885381142565e+000	 1.137088445074080e+000	 1.206954253260026e+001
 1.149048519443750e+000	 1.149048519443750e+000	 1.195321971431230e+001
 1.280982759508765e+000	 1.039991908576176e+000	 1.296651356498636e+001
 1.270171148932229e+000	 1.053169147139185e+000	 1.288462470335273e+001
 1.259218687796699e+000	 1.066240262029339e+000	 1.280150119828900e+001
 1.248126943168432e+000	 1.079203008617448e+000	 1.271476144828013e+001
 1.236897529563932e+000	 1.092055173255236e+000	 1.261403665905076e+001
 1.225532108180221e+000	 1.104794574523678e+000	 1.251138719448162e+001
 1.214032386085855e+000	 1.117419064458234e+000	 1.240664923616300e+001
 1.202400115373489e+000	 1.129926529749554e+000	 1.229965369891679e+001
 1.190637092274881e+000	 1.142314892918240e+000	 1.219022659932040e+001
 1.178745156239252e+000	 1.154582113462304e+000	 1.207818944046387e+001
 1.166726188976000e+000	 1.166726188976000e+000	 1.196335961199565e+001
 1.300391589198583e+000	 1.055749361735952e+000	 1.294491687029854e+001
 1.289416166340821e+000	 1.069126255429189e+000	 1.286229555688472e+001
 1.278297758824666e+000	 1.082395417515077e+000	 1.277844437453290e+001
 1.267037957459805e+000	 1.095554569354892e+000	 1.269349715231235e+001
 1.255638401225113e+000	 1.108601463760233e+000	 1.260758902086111e+001
 1.244100776487265e+000	 1.121533886260272e+000	 1.251300832798368e+001
 1.232426816179491e+000	 1.134349656345552e+000	 1.240915905206113e+001
 1.220618298941304e+000	 1.147046628686883e+000	 1.230310703489166e+001
 1.208677048220095e+000	 1.159622694327906e+000	 1.219464915775510e+001
 1.196604931335528e+000	 1.172075781849937e+000	 1.208357745826857e+001
 1.184403858507750e+000	 1.184403858507750e+000	 1.196967957104314e+001
 1.319800418887901e+000	 1.071506814895229e+000	 1.292927067838364e+001
 1.308661183749000e+000	 1.085083363718604e+000	 1.284509865262744e+001
 1.297376829852291e+000	 1.098550573000156e+000	 1.275970102527612e+001
 1.285948971750886e+000	 1.111906130091627e+000	 1.267320119176813e+001
 1.274379272886033e+000	 1.125147754264492e+000	 1.258572390502279e+001
 1.262669444794058e+000	 1.138273197996117e+000	 1.249739506362418e+001
 1.250821246272865e+000	 1.151280248232129e+000	 1.240834149619274e+001
 1.238836482508829e+000	 1.164166727623501e+000	 1.230371839954308e+001
 1.226717004164970e+000	 1.176930495736912e+000	 1.219567981895516e+001
 1.214464706431394e+000	 1.189569450236981e+000	 1.208503863339490e+001
 1.202081528039000e+000	 1.202081528039000e+000	 1.197155256376367e+001
 1.339209248576718e+000	 1.087264268054008e+000	 1.291929469209072e+001
 1.327906201156769e+000	 1.101040472007430e+000	 1.283278466340451e+001
 1.316455900879575e+000	 1.114705728484576e+000	 1.274505269703147e+001
 1.304859986041677e+000	 1.128257690827653e+000	 1.265621229603244e+001
 1.293120144546692e+000	 1.141694044768010e+000	 1.256637838036316e+001
 1.281238113100600e+000	 1.155012509731212e+000	 1.247566708207112e+001
 1.269215676365980e+000	 1.168210840117968e+000	 1.238419553651512e+001
 1.257054666076063e+000	 1.181286826559410e+000	 1.229208167009647e+001
 1.244756960109503e+000	 1.194238297145258e+000	 1.219261680506194e+001
 1.232324481526850e+000	 1.207063118623434e+000	 1.208190995489735e+001
 1.219759197569750e+000	 1.219759197569750e+000	 1.196835451252889e+001
 1.358618078265032e+000	 1.103021721212288e+000	 1.291473012953766e+001
 1.347151218564126e+000	 1.116997580295668e+000	 1.282512388238774e+001
 1.335534971906517e+000	 1.130860883968336e+000	 1.273429866315754e+001
 1.323771000332176e+000	 1.144609251562969e+000	 1.264235861210193e+001
 1.311861016207091e+000	 1.158240335270790e+000	 1.254940934936638e+001
 1.299806781406893e+000	 1.171751821465558e+000	 1.245555777658599e+001
 1.287610106458834e+000	 1.185141432003066e+000	 1.236091187433358e+001
 1.275272849643007e+000	 1.198406925494609e+000	 1.226558049590116e+001
 1.262796916053697e+000	 1.211546098552944e+000	 1.216967315791368e+001
 1.250184256621897e+000	 1.224556787009298e+000	 1.207329982828564e+001
 1.237436867100000e+000	 1.237436867100000e+000	 1.195946407905447e+001
 1.060660171775000e+000	 1.060660171775000e+000	 1.186740459560161e+001
 1.049620103124114e+000	 1.071586505652983e+000	 1.172946328638500e+001
 1.038468084446386e+000	 1.082397356596456e+000	 1.159026159147200e+001
 1.027205936110678e+000	 1.093091013960509e+000	 1.144979073084682e+001
 1.015835513118795e+000	 1.103665805518577e+000	 1.130803895759686e+001
 1.004358704088371e+000	 1.114120098332699e+000	 1.116499176479376e+001
 9.927774302097263e-001	 1.124452299591371e+000	 1.102063210075576e+001
 9.810936441778935e-001	 1.134660857414088e+000	 1.087494059199018e+001
 9.693093291010766e-001	 1.144744261621738e+000	 1.072789577309115e+001
 9.574264973867980e-001	 1.154701044472046e+000	 1.057947432284743e+001
 9.454471896070471e-001	 1.164529781359323e+000	 1.042965130579607e+001
 1.078337841309750e+000	 1.078337841309750e+000	 1.188711808451252e+001
 1.067113771515287e+000	 1.089446280751720e+000	 1.175368019532505e+001
 1.055775885860012e+000	 1.100437312543710e+000	 1.161824854393986e+001
 1.044326035052265e+000	 1.111309197530064e+000	 1.148077207146706e+001
 1.032766105010551e+000	 1.122060235613774e+000	 1.134119727721421e+001
 1.021098015829463e+000	 1.132688766641246e+000	 1.119946847872362e+001
 1.009323720719159e+000	 1.143193171254116e+000	 1.105552807961625e+001
 9.974452049195917e-001	 1.153571871707205e+000	 1.090931684443770e+001
 9.854644845907675e-001	 1.163823332651751e+000	 1.076077417967870e+001
 9.733836056803344e-001	 1.173946061883105e+000	 1.060983842012341e+001
 9.612046427698152e-001	 1.183938611052150e+000	 1.045644711966188e+001
 1.096015510844000e+000	 1.096015510844000e+000	 1.190619991337450e+001
 1.084607439905871e+000	 1.107306055850046e+000	 1.177581596384531e+001
 1.073083687272977e+000	 1.118477268490624e+000	 1.164273668712213e+001
 1.061446133993143e+000	 1.129527381099330e+000	 1.150686901354833e+001
 1.049696696901566e+000	 1.140454665708711e+000	 1.136811792824435e+001
 1.037837327569805e+000	 1.151257434949542e+000	 1.122638678448888e+001
 1.025870011227853e+000	 1.161934042916601e+000	 1.108157762437583e+001
 1.013796765660581e+000	 1.172482886000033e+000	 1.093359150583751e+001
 1.001619640079799e+000	 1.182902403681423e+000	 1.078232883510246e+001
 9.893407139732818e-001	 1.193191079293752e+000	 1.062768970363889e+001
 9.769620959320847e-001	 1.203347440744476e+000	 1.046957422861940e+001
 1.113693180377750e+000	 1.113693180377750e+000	 1.192400436890843e+001
 1.102101108295864e+000	 1.125165830947962e+000	 1.179531000659906e+001
 1.090391488685283e+000	 1.136517224437199e+000	 1.166324974965249e+001
 1.078566232933311e+000	 1.147745564668305e+000	 1.152768873858613e+001
 1.066627288791843e+000	 1.158849095803387e+000	 1.138849063720944e+001
 1.054576639309397e+000	 1.169826103257588e+000	 1.124551799958467e+001
 1.042416301735808e+000	 1.180674914578825e+000	 1.109863264377527e+001
 1.030148326400862e+000	 1.191393900292569e+000	 1.094769603136637e+001
 1.017774795568173e+000	 1.201981474710754e+000	 1.079256965172053e+001
 1.005297822265641e+000	 1.212436096703989e+000	 1.063311540991621e+001
 9.927195490938553e-001	 1.222756270436300e+000	 1.046919601730221e+001
 1.131370849911000e+000	 1.131370849911000e+000	 1.193989008622070e+001
 1.119594776685267e+000	 1.143025606045469e+000	 1.181160119603647e+001
 1.107699290096929e+000	 1.154557180383433e+000	 1.167930609693094e+001
 1.095686331872768e+000	 1.165963748236990e+000	 1.154282831567841e+001
 1.083557880681380e+000	 1.177243525897804e+000	 1.140199034319861e+001
 1.071315951048240e+000	 1.188394771565383e+000	 1.125661405537807e+001
 1.058962592243023e+000	 1.199415786240788e+000	 1.110652114023356e+001
 1.046499887140433e+000	 1.210304914584814e+000	 1.095153353029461e+001
 1.033929951055887e+000	 1.221060545739743e+000	 1.079147383906203e+001
 1.021254930557411e+000	 1.231681114113813e+000	 1.062616580038445e+001
 1.008477002255128e+000	 1.242165100127623e+000	 1.045543470958234e+001
 1.149048519443750e+000	 1.149048519443750e+000	 1.195321971431230e+001
 1.137088445074080e+000	 1.160885381142565e+000	 1.182412790411269e+001
 1.125007091507914e+000	 1.172597136329327e+000	 1.169041914368016e+001
 1.112806430811516e+000	 1.184181931805385e+000	 1.155187547940226e+001
 1.100488472570177e+000	 1.195637955991960e+000	 1.140827833536271e+001
 1.088055262786333e+000	 1.206963439872927e+000	 1.125940898834855e+001
 1.075508882749499e+000	 1.218156657902490e+000	 1.110504904879559e+001
 1.062851447879295e+000	 1.229215928876769e+000	 1.094498094644060e+001
 1.050085106542942e+000	 1.240139616768392e+000	 1.077898841942962e+001
 1.037212038848592e+000	 1.250926131523227e+000	 1.061396755735199e+001
 1.024234455415901e+000	 1.261573929818444e+000	 1.051985633249303e+001
 1.166726188976000e+000	 1.166726188976000e+000	 1.196335961199565e+001
 1.154582113462304e+000	 1.178745156239252e+000	 1.183232804020406e+001
 1.142314892918240e+000	 1.190637092274882e+000	 1.169609772899699e+001
 1.129926529749554e+000	 1.202400115373490e+000	 1.155440933697459e+001
 1.117419064458234e+000	 1.214032386085856e+000	 1.140700328700052e+001
 1.104794574523678e+000	 1.225532108180221e+000	 1.125362029576143e+001
 1.092055173255236e+000	 1.236897529563932e+000	 1.109400190890319e+001
 1.079203008617448e+000	 1.248126943168432e+000	 1.092789104040196e+001
 1.066240262029339e+000	 1.259218687796699e+000	 1.082123239242233e+001
 1.053169147139185e+000	 1.270171148932229e+000	 1.072400865604459e+001
 1.039991908576176e+000	 1.280982759508765e+000	 1.062328062343052e+001
 1.184403858507750e+000	 1.184403858507750e+000	 1.196967957104314e+001
 1.172075781849937e+000	 1.196604931335528e+000	 1.183563908562900e+001
 1.159622694327906e+000	 1.208677048220096e+000	 1.169584645781678e+001
 1.147046628686883e+000	 1.220618298941304e+000	 1.155000101208502e+001
 1.134349656345552e+000	 1.232426816179491e+000	 1.139780219704037e+001
 1.121533886260272e+000	 1.244100776487265e+000	 1.123895016993747e+001
 1.108601463760233e+000	 1.255638401225113e+000	 1.111033721770338e+001
 1.095554569354892e+000	 1.267037957459804e+000	 1.101507509306687e+001
 1.082395417515077e+000	 1.278297758824666e+000	 1.091521754549351e+001
 1.069126255429189e+000	 1.289416166340821e+000	 1.081092240992855e+001
 1.055749361735952e+000	 1.300391589198583e+000	 1.070235114001950e+001
 1.202081528039000e+000	 1.202081528039000e+000	 1.197155256376367e+001
 1.189569450236981e+000	 1.214464706431394e+000	 1.183349812512275e+001
 1.176930495736912e+000	 1.226717004164969e+000	 1.168916601224909e+001
 1.164166727623501e+000	 1.238836482508828e+000	 1.153821423191990e+001
 1.151280248232129e+000	 1.250821246272865e+000	 1.138535427526201e+001
 1.138273197996117e+000	 1.262669444794058e+000	 1.129439800667019e+001
 1.125147754264492e+000	 1.274379272886033e+000	 1.119782427031312e+001
 1.111906130091627e+000	 1.285948971750886e+000	 1.109577195513911e+001
 1.098550573000156e+000	 1.297376829852291e+000	 1.098838543145527e+001
 1.085083363718604e+000	 1.308661183749000e+000	 1.087581409192368e+001
 1.071506814895229e+000	 1.319800418887901e+000	 1.075821188114799e+001
 1.219759197569750e+000	 1.219759197569750e+000	 1.196835451252889e+001
 1.207063118623434e+000	 1.232324481526850e+000	 1.182534187557543e+001
 1.194238297145258e+000	 1.244756960109503e+000	 1.167555343584021e+001
 1.181286826559410e+000	 1.257054666076063e+000	 1.156034746084053e+001
 1.168210840117968e+000	 1.269215676365980e+000	 1.146927708304284e+001
 1.155012509731212e+000	 1.281238113100600e+000	 1.137175889102388e+001
 1.141694044768010e+000	 1.293120144546692e+000	 1.126791565869784e+001
 1.128257690827653e+000	 1.304859986041677e+000	 1.115787703673448e+001
 1.114705728484575e+000	 1.316455900879575e+000	 1.104177910156579e+001
 1.101040472007430e+000	 1.327906201156769e+000	 1.091976389004366e+001
 1.087264268054008e+000	 1.339209248576718e+000	 1.079197892112725e+001
 1.237436867100000e+000	 1.237436867100000e+000	 1.195946407905447e+001
 1.224556787009298e+000	 1.250184256621897e+000	 1.181166105513654e+001
 1.211546098552944e+000	 1.262796916053697e+000	 1.172811517269165e+001
 1.198406925494609e+000	 1.275272849643007e+000	 1.163723125612292e+001
 1.185141432003067e+000	 1.287610106458834e+000	 1.153910601105985e+001
 1.171751821465558e+000	 1.299806781406892e+000	 1.143384483231126e+001
 1.158240335270790e+000	 1.311861016207091e+000	 1.132156138267093e+001
 1.144609251562970e+000	 1.323771000332176e+000	 1.120237715306194e+001
 1.130860883968336e+000	 1.335534971906517e+000	 1.107642100534614e+001
 1.116997580295668e+000	 1.347151218564126e+000	 1.094382869917517e+001
 1.103021721212288e+000	 1.358618078265032e+000	 1.080474240430431e+001
 9.454471896070471e-001	 1.164529781359323e+000	 1.042965130579607e+001
 9.333734733433584e-001	 1.174229091477602e+000	 1.025526711421403e+001
 9.212074420144205e-001	 1.183797638447231e+000	 1.007564343113994e+001
 9.089512136867100e-001	 1.193234130903926e+000	 9.890629262423019e+000
 8.966069298687863e-001	 1.202537323049252e+000	 9.700077338818607e+000
 8.841767542918877e-001	 1.211706015162792e+000	 9.503844482150267e+000
 8.716628716778431e-001	 1.220739054075391e+000	 9.301791965611464e+000
 8.590674864957389e-001	 1.229635333603122e+000	 9.093785867266641e+000
 8.463928217087879e-001	 1.238393794941728e+000	 8.879697415831402e+000
 8.336411175128569e-001	 1.247013427021299e+000	 8.659403327836209e+000
 8.208146300681053e-001	 1.255493266821059e+000	 8.506507369915262e+000
 9.612046427698152e-001	 1.183938611052150e+000	 1.045644711966188e+001
 9.489296979005989e-001	 1.193799576339370e+000	 1.027170551797218e+001
 9.365608993818463e-001	 1.203527599092000e+000	 1.008159725673163e+001
 9.241004005811425e-001	 1.213121366423021e+000	 9.885971574439660e+000
 9.115503786988560e-001	 1.222579611770688e+000	 9.684681381915134e+000
 8.989130335284119e-001	 1.231901115419247e+000	 9.477583640237784e+000
 8.861905862036693e-001	 1.241084704980054e+000	 9.264539732915068e+000
 8.733852779348664e-001	 1.250129255832787e+000	 9.046926386832450e+000
 8.604993687346021e-001	 1.259033691526450e+000	 8.929226667981734e+000
 8.475351361353408e-001	 1.267796984139968e+000	 8.810757999342505e+000
 8.344948738999105e-001	 1.276418154602220e+000	 8.691641347696139e+000
 9.769620959320847e-001	 1.203347440744476e+000	 1.046957422861940e+001
 9.644859224574407e-001	 1.213370061200551e+000	 1.027530427641391e+001
 9.519143567489734e-001	 1.223257559736129e+000	 1.007554083957305e+001
 9.392495874753767e-001	 1.233008601941451e+000	 9.870132526641454e+000
 9.264938275288278e-001	 1.242621900491465e+000	 9.658931565216998e+000
 9.136493127649381e-001	 1.252096215675078e+000	 9.463805473179686e+000
 9.007183007295984e-001	 1.261430355884161e+000	 9.342658907584699e+000
 8.877030693741963e-001	 1.270623178061991e+000	 9.220668602790735e+000
 8.746059157607187e-001	 1.279673588110835e+000	 9.097982787723929e+000
 8.614291547582271e-001	 1.288580541258457e+000	 8.974746997765204e+000
 8.481751177322187e-001	 1.297343042383386e+000	 8.851103694665891e+000
 9.927195490938553e-001	 1.222756270436300e+000	 1.046919601730221e+001
 9.800421470138834e-001	 1.232940546061146e+000	 1.026620876436091e+001
 9.672678141158025e-001	 1.242987520379617e+000	 1.005760185146420e+001
 9.543987743694127e-001	 1.252895837459215e+000	 9.870539945312913e+000
 9.414372763587008e-001	 1.262664189211584e+000	 9.746349092995883e+000
 9.283855920014663e-001	 1.272291315930287e+000	 9.621138165868263e+000
 9.152460152556287e-001	 1.281776006787710e+000	 9.495082379452889e+000
 9.020208608137285e-001	 1.291117100290733e+000	 9.368354852729848e+000
 8.887124627871379e-001	 1.300313484694886e+000	 9.241126181758428e+000
 8.753231733815161e-001	 1.309364098376765e+000	 9.113564018626605e+000
 8.618553615650291e-001	 1.318267930164557e+000	 8.985832656854687e+000
 1.008477002255128e+000	 1.242165100127623e+000	 1.045543470958234e+001
 9.955983715699281e-001	 1.252511030921155e+000	 1.026584545710671e+001
 9.826212714823328e-001	 1.262717481022464e+000	 1.013928553974719e+001
 9.695479612632501e-001	 1.272783072976315e+000	 1.001142673276043e+001
 9.563807251884761e-001	 1.282706477931043e+000	 9.882470497985898e+000
 9.431218712379964e-001	 1.292486416184872e+000	 9.752616963866377e+000
 9.297737297817619e-001	 1.302121657690702e+000	 9.622064454940910e+000
 9.163386522534633e-001	 1.311611022519015e+000	 9.491009024621311e+000
 9.028190098138598e-001	 1.320953381278601e+000	 9.359643992499647e+000
 8.892171920052078e-001	 1.330147655494894e+000	 9.228159487413963e+000
 8.755356053983423e-001	 1.339192817945733e+000	 9.096741997478285e+000
 1.024234455415901e+000	 1.261573929818444e+000	 1.051985633249303e+001
 1.011154596125574e+000	 1.272081515780578e+000	 1.039020269003107e+001
 9.979747288485645e-001	 1.282447441664671e+000	 1.025909556530883e+001
 9.846971481568890e-001	 1.292670308492749e+000	 1.012676104346682e+001
 9.713241740181527e-001	 1.302748766649842e+000	 9.993424292901061e+000
 9.578581504745288e-001	 1.312681516438834e+000	 9.859309054752211e+000
 9.443014443079969e-001	 1.322467308593137e+000	 9.724637134592156e+000
 9.306564436934003e-001	 1.332104944746835e+000	 9.589627897654601e+000
 9.169255568408840e-001	 1.341593277861981e+000	 9.454497768939586e+000
 9.031112106293021e-001	 1.350931212612843e+000	 9.319459739504946e+000
 8.892158492321584e-001	 1.360117705726915e+000	 9.184722880231211e+000
 1.039991908576176e+000	 1.280982759508765e+000	 1.062328062343052e+001
 1.026710820680821e+000	 1.291652000639415e+000	 1.048939779291267e+001
 1.013328186214498e+000	 1.302177402306237e+000	 1.035410400363056e+001
 9.998463350503299e-001	 1.312557544008519e+000	 1.021764947836574e+001
 9.862676228477315e-001	 1.322791055367983e+000	 1.008028347538462e+001
 9.725944297110627e-001	 1.332876616692172e+000	 9.942253739051990e+000
 9.588291588343344e-001	 1.342812959495014e+000	 9.803805952806860e+000
 9.449742351335397e-001	 1.352598866974193e+000	 9.665183195932965e+000
 9.310321038682108e-001	 1.362233174445026e+000	 9.526625405543385e+000
 9.170052292537991e-001	 1.371714769730612e+000	 9.388368845175913e+000
 9.028960930664768e-001	 1.381042593508102e+000	 9.250645581371956e+000
 1.055749361735952e+000	 1.300391589198583e+000	 1.070235114001950e+001
 1.042267045235670e+000	 1.311222485497665e+000	 1.056457304846285e+001
 1.028681643580133e+000	 1.321907362947162e+000	 1.042542114120254e+001
 1.014995521943572e+000	 1.332444779523623e+000	 1.028517017780299e+001
 1.001211071677212e+000	 1.342833344085464e+000	 1.014409391376996e+001
 9.873307089475989e-001	 1.353071716944887e+000	 1.000246451136358e+001
 9.733568733607741e-001	 1.363158610396335e+000	 9.860551952927210e+000
 9.592920265738814e-001	 1.373092789201091e+000	 9.718623458255916e+000
 9.451386508958403e-001	 1.382873071027735e+000	 9.576942907512505e+000
 9.308992478786984e-001	 1.392498326848202e+000	 9.435770271176745e+000
 9.165763369012980e-001	 1.401967481289294e+000	 9.295361048486708e+000
 1.071506814895229e+000	 1.319800418887901e+000	 1.075821188114799e+001
 1.057823269790120e+000	 1.330792970355330e+000	 1.061684188507276e+001
 1.044035100945469e+000	 1.341637323587446e+000	 1.047412965648598e+001
 1.030144708836616e+000	 1.352332015038063e+000	 1.033037491422669e+001
 1.016154520506594e+000	 1.362875632802286e+000	 1.018587634188310e+001
 1.002066988184137e+000	 1.373266817196979e+000	 1.004093095785096e+001
 9.878845878873158e-001	 1.383504261297097e+000	 9.895833488050588e+000
 9.736098180144256e-001	 1.393586711427527e+000	 9.750875742920890e+000
 9.592451979237719e-001	 1.403512967610108e+000	 9.606346000289481e+000
 9.447932665040006e-001	 1.413281883965611e+000	 9.462528395695898e+000
 9.302565807366219e-001	 1.422892369070492e+000	 9.319702321715214e+000
 1.087264268054008e+000	 1.339209248576718e+000	 1.079197892112725e+001
 1.073379494344171e+000	 1.350363455212408e+000	 1.064729096770599e+001
 1.059388558310507e+000	 1.361367284227090e+000	 1.050128662049511e+001
 1.045293895729462e+000	 1.372219250551837e+000	 1.035429100290459e+001
 1.031097969335878e+000	 1.382917921518449e+000	 1.020662818038360e+001
 1.016803267420677e+000	 1.393461917448448e+000	 1.005862048873962e+001
 1.002412302413960e+000	 1.403849912197303e+000	 9.910587865250305e+000
 9.879276094551723e-001	 1.414080633653502e+000	 9.762847184281561e+000
 9.733517449520063e-001	 1.424152864192145e+000	 9.615711599105691e+000
 9.586872851297054e-001	 1.434065441082840e+000	 9.469489891589550e+000
 9.439368245724484e-001	 1.443817256851695e+000	 9.324485831391954e+000
 1.103021721212288e+000	 1.358618078265032e+000	 1.080474240430431e+001
 1.088935718897824e+000	 1.369933940068900e+000	 1.065698210957225e+001
 1.074742015675246e+000	 1.381097244866093e+000	 1.050792532590030e+001
 1.060443082622109e+000	 1.392106486064946e+000	 1.035792304886557e+001
 1.046041418165064e+000	 1.402960210233953e+000	 1.020732520199085e+001
 1.031539546657219e+000	 1.413657017699293e+000	 1.005647992231204e+001
 1.016940016940706e+000	 1.424195563096952e+000	 9.905732848862769e+000
 1.002245400896121e+000	 1.434574555879015e+000	 9.755426415886484e+000
 9.874582919805433e-001	 1.444792760773848e+000	 9.605899152567735e+000
 9.725813037558126e-001	 1.454848998199890e+000	 9.457484991048155e+000
 9.576170684087774e-001	 1.464742144632903e+000	 9.310512584460756e+000
 8.208146300681053e-001	 1.255493266821059e+000	 8.506507369915262e+000
 8.079156302257311e-001	 1.263832399644536e+000	 8.370258304271870e+000
 7.949464022496643e-001	 1.272029959353938e+000	 8.231706878365502e+000
 7.819092425357326e-001	 1.280085128564544e+000	 8.090937249776742e+000
 7.688064583308100e-001	 1.287997138799943e+000	 7.948031656279582e+000
 7.556403664517627e-001	 1.295765270607128e+000	 7.803070131779841e+000
 7.424132920061469e-001	 1.303388853632028e+000	 7.656130229762002e+000
 7.291275671160526e-001	 1.310867266655738e+000	 7.507286754988967e+000
 7.157855296464767e-001	 1.318199937591758e+000	 7.356611504164583e+000
 7.023895219395790e-001	 1.325386343444616e+000	 7.204173016233800e+000
 6.889418895561570e-001	 1.332426010230286e+000	 7.050036332956857e+000
 8.344948738999105e-001	 1.276418154602220e+000	 8.691641347696139e+000
 8.213808907269712e-001	 1.284896272971888e+000	 8.549904800826962e+000
 8.081955089514598e-001	 1.293230458675645e+000	 8.406423246815615e+000
 7.949410632424674e-001	 1.301419880705692e+000	 8.261300821241964e+000
 7.816198993009829e-001	 1.309463757777676e+000	 8.114639084750280e+000
 7.682343725574868e-001	 1.317361358447709e+000	 7.966536711940852e+000
 7.547868468713275e-001	 1.325112001189150e+000	 7.817089188967500e+000
 7.412796932332971e-001	 1.332715054429446e+000	 7.666388520634593e+000
 7.277152884728083e-001	 1.340169936547323e+000	 7.514522947750288e+000
 7.140960139710570e-001	 1.347476115830716e+000	 7.361576675453347e+000
 7.004242543815207e-001	 1.354633110395864e+000	 7.207629613188542e+000
 8.481751177322187e-001	 1.297343042383386e+000	 8.851103694665891e+000
 8.348461512288039e-001	 1.305960146299434e+000	 8.704413005040818e+000
 8.214446156539169e-001	 1.314430957997715e+000	 8.556524215371066e+000
 8.079728839499134e-001	 1.322754632847353e+000	 8.407561760215787e+000
 7.944333402718964e-001	 1.330930376756053e+000	 8.257646849426438e+000
 7.808283786639605e-001	 1.338957446289043e+000	 8.106897129168054e+000
 7.671604017372471e-001	 1.346835148747114e+000	 7.955426352847390e+000
 7.534318193512494e-001	 1.354562842204066e+000	 7.803344062793784e+000
 7.396450472997966e-001	 1.362139935503848e+000	 7.650755283498148e+000
 7.258025060031215e-001	 1.369565888217805e+000	 7.497760227171121e+000
 7.119066192073804e-001	 1.376840210562442e+000	 7.344454012337127e+000
 8.618553615650291e-001	 1.318267930164557e+000	 8.985832656854687e+000
 8.483114117312290e-001	 1.327024019627176e+000	 8.834680200925076e+000
 8.346937223570364e-001	 1.335631457320152e+000	 8.682866648891505e+000
 8.210047046580711e-001	 1.344089384989528e+000	 8.530537081218101e+000
 8.072467812435503e-001	 1.352396995735073e+000	 8.377832708758357e+000
 7.934223847711834e-001	 1.360553534131128e+000	 8.224890505054082e+000
 7.795339566039047e-001	 1.368558296305920e+000	 8.071842849748435e+000
 7.655839454699089e-001	 1.376410629979596e+000	 7.918817184011855e+000
 7.515748061274420e-001	 1.384109934461334e+000	 7.765935678836936e+000
 7.375089980357721e-001	 1.391655660605885e+000	 7.613314917009965e+000
 7.233889840337364e-001	 1.399047310730021e+000	 7.461065589517892e+000
 8.755356053983423e-001	 1.339192817945733e+000	 9.096741997478285e+000
 8.617766722342464e-001	 1.348087892955113e+000	 8.941580963724892e+000
 8.479428290608178e-001	 1.356831956642953e+000	 8.786286435967924e+000
 8.340365253669401e-001	 1.365424137132218e+000	 8.631024512772644e+000
 8.200602222159444e-001	 1.373863614714737e+000	 8.475956782601299e+000
 8.060163908791562e-001	 1.382149621973968e+000	 8.321239926511725e+000
 7.919075114713012e-001	 1.390281443865568e+000	 8.167025333182840e+000
 7.777360715892763e-001	 1.398258417756038e+000	 8.013458727222123e+000
 7.635045649557438e-001	 1.406079933419780e+000	 7.860679811662674e+000
 7.492154900690090e-001	 1.413745432994954e+000	 7.708821925506309e+000
 7.348713488605884e-001	 1.421254410898599e+000	 7.558011717116342e+000
 8.892158492321584e-001	 1.360117705726915e+000	 9.184722880231211e+000
 8.752419327378564e-001	 1.369151766283244e+000	 9.025968906746879e+000
 8.611919357652612e-001	 1.378032455966118e+000	 8.867600102481818e+000
 8.470683460765199e-001	 1.386758889275422e+000	 8.709803980945159e+000
 8.328736631890795e-001	 1.395330233695044e+000	 8.552762909030619e+000
 8.186103969878784e-001	 1.403745709817559e+000	 8.396653679210678e+000
 8.042810663394361e-001	 1.412004591426058e+000	 8.241647095276697e+000
 7.898881977093509e-001	 1.420106205533392e+000	 8.087907572639038e+000
 7.754343237847030e-001	 1.428049932379187e+000	 7.935592754148745e+000
 7.609219821028321e-001	 1.435835205385014e+000	 7.784853142347889e+000
 7.463537136879365e-001	 1.443461511068178e+000	 7.635831748998363e+000
 9.028960930664768e-001	 1.381042593508102e+000	 9.250645581371956e+000
 8.887071932420589e-001	 1.390215639611572e+000	 9.088678269384833e+000
 8.744410424703669e-001	 1.399232955289649e+000	 8.927606278477304e+000
 8.601001667868115e-001	 1.408093641419141e+000	 8.767638958014370e+000
 8.456871041629548e-001	 1.416796852675995e+000	 8.608979877809730e+000
 8.312044030973500e-001	 1.425341797661905e+000	 8.451826368883962e+000
 8.166546212083097e-001	 1.433727738987390e+000	 8.296369078996474e+000
 8.020403238301335e-001	 1.441953993311656e+000	 8.142791544024810e+000
 7.873640826143185e-001	 1.450019931339554e+000	 7.991269776209848e+000
 7.726284741372415e-001	 1.457924977776064e+000	 7.841971870225798e+000
 7.578360785157806e-001	 1.465668611238756e+000	 7.695057627973522e+000
 9.165763369012980e-001	 1.401967481289294e+000	 9.295361048486708e+000
 9.021724537468538e-001	 1.411279512940094e+000	 9.130525362934209e+000
 8.876901491761343e-001	 1.420433454613544e+000	 8.967087033671096e+000
 8.731319874978143e-001	 1.429428393563374e+000	 8.805277690366681e+000
 8.585005451375706e-001	 1.438263471657590e+000	 8.645322553398662e+000
 8.437984092075714e-001	 1.446937885507002e+000	 8.487439942218744e+000
 8.290281760779216e-001	 1.455450886549564e+000	 8.331840799727944e+000
 8.141924499516234e-001	 1.463801781090832e+000	 8.178728233797859e+000
 7.992938414445910e-001	 1.471989930300882e+000	 8.028297077013789e+000
 7.843349661722372e-001	 1.480014750168104e+000	 7.880733465655022e+000
 7.693184433441208e-001	 1.487875711410334e+000	 7.736214438859270e+000
 9.302565807366219e-001	 1.422892369070492e+000	 9.319702321715214e+000
 9.156377142522415e-001	 1.432343386268811e+000	 9.152309888834475e+000
 9.009392558825640e-001	 1.441633953937804e+000	 8.986809095123830e+000
 8.861638082095283e-001	 1.450763145708120e+000	 8.823454318047014e+000
 8.713139861129269e-001	 1.459730090639828e+000	 8.662492898873298e+000
 8.563924153185422e-001	 1.468533973352852e+000	 8.504164617668328e+000
 8.414017309482721e-001	 1.477174034112580e+000	 8.348701185539619e+000
 8.263445760738212e-001	 1.485649568870919e+000	 8.196325755337320e+000
 8.112236002755201e-001	 1.493959929263171e+000	 8.047252451948209e+000
 7.960414582078192e-001	 1.502104522561134e+000	 7.901685923252366e+000
 7.808008081729572e-001	 1.510082811582913e+000	 7.759820912744905e+000
 9.439368245724484e-001	 1.443817256851695e+000	 9.324485831391954e+000
 9.291029747582215e-001	 1.453407259597724e+000	 9.154816142282089e+000
 9.141883625896556e-001	 1.462834453262429e+000	 8.987524959026750e+000
 8.991956289219539e-001	 1.472097897853381e+000	 8.822889896957456e+000
 8.841274270890236e-001	 1.481196709622710e+000	 8.661180910808380e+000
 8.689864214302620e-001	 1.490130061199455e+000	 8.502659735324505e+000
 8.537752858193610e-001	 1.498897181676438e+000	 8.347579344379442e+000
 8.384967021967261e-001	 1.507497356651917e+000	 8.196183429870215e+000
 8.231533591071064e-001	 1.515929928226421e+000	 8.048705901590004e+000
 8.077479502439875e-001	 1.524194294955155e+000	 7.905370409207099e+000
 7.922831730022893e-001	 1.532289911756491e+000	 7.766389887406705e+000
 9.576170684087774e-001	 1.464742144632903e+000	 9.310512584460756e+000
 9.425682352647938e-001	 1.474471132926832e+000	 9.138814112676156e+000
 9.274374692974090e-001	 1.484034952587418e+000	 8.969973907192228e+000
 9.122274496350906e-001	 1.493432649999157e+000	 8.804293333438892e+000
 8.969408680658606e-001	 1.502663328606234e+000	 8.642065474027461e+000
 8.815804275427316e-001	 1.511726149046811e+000	 8.483574533943079e+000
 8.661488406911885e-001	 1.520620329241137e+000	 8.329095265512203e+000
 8.506488283203392e-001	 1.529345144433827e+000	 8.178892414482164e+000
 8.350831179393492e-001	 1.537899927190630e+000	 8.033220188477770e+000
 8.194544422807419e-001	 1.546284067350165e+000	 7.892321749025830e+000
 8.037655378321177e-001	 1.554497011931069e+000	 7.756428728258856e+000
 6.889418895561570e-001	 1.332426010230286e+000	 7.050036332956857e+000
 6.754449800253557e-001	 1.339318512858777e+000	 6.856444875040356e+000
 6.619011416047155e-001	 1.346063474979750e+000	 6.670640446626473e+000
 6.483127220513681e-001	 1.352660568791450e+000	 6.492713995202308e+000
 6.346820674049267e-001	 1.359109514813409e+000	 6.322743546551980e+000
 6.210115207841032e-001	 1.365410081623910e+000	 6.157022638270565e+000
 6.073034211979438e-001	 1.371562085562787e+000	 5.991509935752223e+000
 5.935601023727934e-001	 1.377565390400310e+000	 5.835728286651269e+000
 5.797838915960678e-001	 1.383419906972935e+000	 5.689196064520270e+000
 5.659771085778667e-001	 1.389125592786738e+000	 5.551437995624416e+000
 5.521420643314210e-001	 1.394682451589383e+000	 5.421986080053306e+000
 7.004242543815207e-001	 1.354633110395864e+000	 7.207629613188542e+000
 6.867023963587897e-001	 1.361640488067934e+000	 7.018596298838938e+000
 6.729328272979888e-001	 1.368497866224071e+000	 6.836615098119899e+000
 6.591179340855365e-001	 1.375204911599156e+000	 6.661784368075199e+000
 6.452601018617065e-001	 1.381761340054712e+000	 6.494190010814271e+000
 6.313617127971891e-001	 1.388166916311995e+000	 6.333905333899799e+000
 6.174251448845149e-001	 1.394421453649835e+000	 6.174332758145818e+000
 6.034527707454686e-001	 1.400524813568007e+000	 6.017499066928362e+000
 5.894469564555900e-001	 1.406476905416907e+000	 5.868847555338920e+000
 5.754100603868140e-001	 1.412277685994379e+000	 5.727872374922320e+000
 5.613444320692591e-001	 1.417927159110548e+000	 5.594076644757193e+000
 7.119066192073804e-001	 1.376840210562442e+000	 7.344454012337127e+000
 6.979598126926294e-001	 1.383962463278092e+000	 7.159685487665694e+000
 6.839645129915994e-001	 1.390932257469392e+000	 6.981275034809274e+000
 6.699231461199932e-001	 1.397749254407861e+000	 6.809328840170017e+000
 6.558381363187454e-001	 1.404413165297016e+000	 6.643941069060377e+000
 6.417119048105254e-001	 1.410923751001080e+000	 6.485193701567398e+000
 6.275468685713479e-001	 1.417280821737884e+000	 6.333156391683050e+000
 6.133454391184368e-001	 1.423484236736704e+000	 6.178341643840010e+000
 5.991100213154564e-001	 1.429533903861880e+000	 6.028514194093063e+000
 5.848430121961761e-001	 1.435429779203020e+000	 5.885285278477118e+000
 5.705467998076025e-001	 1.441171866632713e+000	 5.748127316281749e+000
 7.233889840337364e-001	 1.399047310730021e+000	 7.461065589517892e+000
 7.092172290268761e-001	 1.406284438489250e+000	 7.280269173019973e+000
 6.949961986855466e-001	 1.413366648715713e+000	 7.105176153727910e+000
 6.807283581547375e-001	 1.420293597217567e+000	 6.935900983279951e+000
 6.664161707760433e-001	 1.427064990540319e+000	 6.772546493879789e+000
 6.520620968241121e-001	 1.433680585691165e+000	 6.615203709166215e+000
 6.376685922584428e-001	 1.440140189826932e+000	 6.463951678426978e+000
 6.232381074916984e-001	 1.446443659906401e+000	 6.317518193396471e+000
 6.087730861756668e-001	 1.452590902307852e+000	 6.167496737626551e+000
 5.942759640059532e-001	 1.458581872412662e+000	 6.023014235922998e+000
 5.797491675464509e-001	 1.464416574155878e+000	 5.883510562417806e+000
 7.348713488605884e-001	 1.421254410898599e+000	 7.558011717116342e+000
 7.204746453615288e-001	 1.428606413701408e+000	 7.380894537620827e+000
 7.060278843798309e-001	 1.435801039963035e+000	 7.208864036927852e+000
 6.915335701897699e-001	 1.442837940028273e+000	 7.042043383746277e+000
 6.769942052336005e-001	 1.449716815784622e+000	 6.880544497492966e+000
 6.624122888379495e-001	 1.456437420382251e+000	 6.724467833667379e+000
 6.477903159457994e-001	 1.462999557916980e+000	 6.573902192701723e+000
 6.331307758652531e-001	 1.469403083077098e+000	 6.428924552570653e+000
 6.184361510362216e-001	 1.475647900754824e+000	 6.285083032724098e+000
 6.037089158161451e-001	 1.481733965623303e+000	 6.140383765030151e+000
 5.889515352858046e-001	 1.487661281680043e+000	 5.999585830591898e+000
 7.463537136879365e-001	 1.443461511068178e+000	 7.635831748998363e+000
 7.317320616965880e-001	 1.450928388914566e+000	 7.462099949928855e+000
 7.170595700744522e-001	 1.458235431211356e+000	 7.292874744939941e+000
 7.023387822250904e-001	 1.465382282839978e+000	 7.128288487493346e+000
 6.875722396914169e-001	 1.472368641029925e+000	 6.968462621010484e+000
 6.727624808520369e-001	 1.479194255074336e+000	 6.813507438224970e+000
 6.579120396334177e-001	 1.485858926008029e+000	 6.663521864194426e+000
 6.430234442391007e-001	 1.492362506248796e+000	 6.518593263311578e+000
 6.280992158971204e-001	 1.498704899202796e+000	 6.378797270581058e+000
 6.131418676267521e-001	 1.504886058834944e+000	 6.236706372616947e+000
 5.981539030256632e-001	 1.510905989205208e+000	 6.095700549432783e+000
 7.578360785157806e-001	 1.465668611238756e+000	 7.695057627973522e+000
 7.429894780320530e-001	 1.473250364128723e+000	 7.524415631892816e+000
 7.280912557694106e-001	 1.480669822460677e+000	 7.357735538101442e+000
 7.131439942606986e-001	 1.487926625652684e+000	 7.195159368241879e+000
 6.981502741494924e-001	 1.495020466276229e+000	 7.036818542850333e+000
 6.831126728663752e-001	 1.501951089767421e+000	 6.882833614132060e+000
 6.680337633212981e-001	 1.508718294100077e+000	 6.733314022633531e+000
 6.529161126132416e-001	 1.515321929421493e+000	 6.588357878206264e+000
 6.377622807583634e-001	 1.521761897651768e+000	 6.448051765582809e+000
 6.225748194377736e-001	 1.528038152047585e+000	 6.311283464470775e+000
 6.073562707660272e-001	 1.534150696731373e+000	 6.171191039286284e+000
 7.693184433441208e-001	 1.487875711410334e+000	 7.736214438859270e+000
 7.542468943679248e-001	 1.495572339343881e+000	 7.568364266898547e+000
 7.391229414647058e-001	 1.503104213710998e+000	 7.403965533286536e+000
 7.239492062965948e-001	 1.510470968466389e+000	 7.243170426927207e+000
 7.087283086078270e-001	 1.517672291523532e+000	 7.086120814759854e+000
 6.934628648809639e-001	 1.524707924461506e+000	 6.932947947377391e+000
 6.781554870094402e-001	 1.531577662193125e+000	 6.783772188830597e+000
 6.628087809876755e-001	 1.538281352595190e+000	 6.638702771069776e+000
 6.474253456199506e-001	 1.544818896101741e+000	 6.497837573398051e+000
 6.320077712492103e-001	 1.551190245261227e+000	 6.361262927235896e+000
 6.165586385068961e-001	 1.557395404258538e+000	 6.225383341191735e+000
 7.808008081729572e-001	 1.510082811582913e+000	 7.759820912744905e+000
 7.655043107042029e-001	 1.517894314560039e+000	 7.594461554074604e+000
 7.501546271603380e-001	 1.525538604962319e+000	 7.432076302690635e+000
 7.347544183327789e-001	 1.533015311281095e+000	 7.272828029404109e+000
 7.193063430664208e-001	 1.540324116771835e+000	 7.116869532894508e+000
 7.038130568958031e-001	 1.547464759156591e+000	 6.964343217564834e+000
 6.882772106978443e-001	 1.554437030287174e+000	 6.815380795924259e+000
 6.727014493624025e-001	 1.561240775769887e+000	 6.670103016006118e+000
 6.570884104818818e-001	 1.567875894552713e+000	 6.528619414251849e+000
 6.414407230610617e-001	 1.574342338475868e+000	 6.391028094211023e+000
 6.257610062482705e-001	 1.580640111786703e+000	 6.257415531328903e+000
 7.922831730022893e-001	 1.532289911756491e+000	 7.766389887406705e+000
 7.767617270408872e-001	 1.540216289777197e+000	 7.603216714398404e+000
 7.611863128563070e-001	 1.547972996214641e+000	 7.442572420546330e+000
 7.455596303692513e-001	 1.555559654096801e+000	 7.284631088699046e+000
 7.298843775252739e-001	 1.562975942021138e+000	 7.129556950541784e+000
 7.141632489108927e-001	 1.570221593852676e+000	 6.977504036057282e+000
 6.983989343865100e-001	 1.577296398382222e+000	 6.828615847907057e+000
 6.825941177374223e-001	 1.584200198945584e+000	 6.683025061300307e+000
 6.667514753441572e-001	 1.590932893004685e+000	 6.540853249835399e+000
 6.508736748733278e-001	 1.597494431691509e+000	 6.402210637717425e+000
 6.349633739901497e-001	 1.603884819315868e+000	 6.267195878671645e+000
 8.037655378321177e-001	 1.554497011931069e+000	 7.756428728258856e+000
 7.880191433779774e-001	 1.562538264995355e+000	 7.595132953420997e+000
 7.722179985526132e-001	 1.570407387467961e+000	 7.435951962977448e+000
 7.563648424060112e-001	 1.578103996913506e+000	 7.279071597354703e+000
 7.404624119843859e-001	 1.585627767271441e+000	 7.124668038326223e+000
 7.245134409262326e-001	 1.592978428549761e+000	 6.972907429422368e+000
 7.085206580754377e-001	 1.600155766478270e+000	 6.823945521707484e+000
 6.924867861127356e-001	 1.607159622122281e+000	 6.677927345548127e+000
 6.764145402067767e-001	 1.613989891457657e+000	 6.534986908915463e+000
 6.603066266860092e-001	 1.620646524908150e+000	 6.395246922676819e+000
 6.441657417325339e-001	 1.627129526846032e+000	 6.258818553247123e+000
 5.521420643314210e-001	 1.394682451589383e+000	 5.421986080053306e+000
 5.382810600734966e-001	 1.400090532911170e+000	 5.247745079169022e+000
 5.243963861452564e-001	 1.405349931577071e+000	 5.081088358281205e+000
 5.104903209545467e-001	 1.410460787190097e+000	 4.921627522480939e+000
 4.965651299408992e-001	 1.415423283586218e+000	 4.768984574508592e+000
 4.826230645635711e-001	 1.420237648262862e+000	 4.622792580280486e+000
 4.686663613134736e-001	 1.424904151781651e+000	 4.482696291764926e+000
 4.546972407496676e-001	 1.429423107146426e+000	 4.348352726641737e+000
 4.407179065610664e-001	 1.433794869157610e+000	 4.219431704317498e+000
 4.267305446539296e-001	 1.438019833743952e+000	 4.095616338007154e+000
 4.127373222656903e-001	 1.442098437272754e+000	 3.976603482725189e+000
 5.613444320692591e-001	 1.417927159110548e+000	 5.594076644757193e+000
 5.472524110733930e-001	 1.423425375121222e+000	 5.417494903962450e+000
 5.331363259128185e-001	 1.428772430431791e+000	 5.248619557294343e+000
 5.189984929688456e-001	 1.433968466971982e+000	 5.087027059293630e+000
 5.048412154383311e-001	 1.439013671641701e+000	 4.932305028663886e+000
 4.906667823048521e-001	 1.443908275729996e+000	 4.784052960703010e+000
 4.764774673341676e-001	 1.448652554307849e+000	 4.641882894428768e+000
 4.622755280946555e-001	 1.453246825595835e+000	 4.505420033790973e+000
 4.480632050033767e-001	 1.457691450307712e+000	 4.374303322510137e+000
 4.338427203983611e-001	 1.461986830971045e+000	 4.248185972228580e+000
 4.196162776376646e-001	 1.466133411225922e+000	 4.126735943800949e+000
 5.705467998076025e-001	 1.441171866632713e+000	 5.748127316281749e+000
 5.562237620738787e-001	 1.446760217332268e+000	 5.570062249315672e+000
 5.418762656810238e-001	 1.452194929287489e+000	 5.399798419465188e+000
 5.275066649838111e-001	 1.457476146754822e+000	 5.236875737446195e+000
 5.131173009364219e-001	 1.462604059698101e+000	 5.080846096441500e+000
 4.987105000467546e-001	 1.467578903198001e+000	 4.931274132794411e+000
 4.842885733554154e-001	 1.472400956834864e+000	 4.787737938623089e+000
 4.698538154400997e-001	 1.477070544045993e+000	 4.649829725708222e+000
 4.554085034460164e-001	 1.481588031458489e+000	 4.517156440161415e+000
 4.409548961429655e-001	 1.485953828198727e+000	 4.389340327534219e+000
 4.264952330096262e-001	 1.490168385179584e+000	 4.266019448180691e+000
 5.797491675464509e-001	 1.464416574155878e+000	 5.883510562417806e+000
 5.651951130749543e-001	 1.470095059544309e+000	 5.704859355894401e+000
 5.506162054498724e-001	 1.475617428144168e+000	 5.534077071375621e+000
 5.360148369994428e-001	 1.480983826538614e+000	 5.370665644349298e+000
 5.213933864351719e-001	 1.486194447755420e+000	 5.214139863537221e+000
 5.067542177892783e-001	 1.491249530666879e+000	 5.064028181242754e+000
 4.920996793772169e-001	 1.496149359362695e+000	 4.919873472730536e+000
 4.774321027860003e-001	 1.500894262496901e+000	 4.781233743946305e+000
 4.627538018889852e-001	 1.505484612609940e+000	 4.647682787051748e+000
 4.480670718877427e-001	 1.509920825426997e+000	 4.518810783410537e+000
 4.333741883815754e-001	 1.514203359133739e+000	 4.394224853822343e+000
 5.889515352858046e-001	 1.487661281680043e+000	 5.999585830591898e+000
 5.741664640766192e-001	 1.493429901757344e+000	 5.821285109849333e+000
 5.593561452193646e-001	 1.499039927001826e+000	 5.650893918327448e+000
 5.445230090157408e-001	 1.504491506323362e+000	 5.487874747126602e+000
 5.296694719345807e-001	 1.509784835813656e+000	 5.331703864496185e+000
 5.147979355324236e-001	 1.514920158136628e+000	 5.181872177268459e+000
 4.999107853995723e-001	 1.519897761891342e+000	 5.037886038313031e+000
 4.850103901323571e-001	 1.524717980948561e+000	 4.899267999278852e+000
 4.700991003322835e-001	 1.529381193762065e+000	 4.765557508063715e+000
 4.551792476326930e-001	 1.533887822655857e+000	 4.636311550625403e+000
 4.402531437535119e-001	 1.538238333088388e+000	 4.511105236913289e+000
 5.981539030256632e-001	 1.510905989205208e+000	 6.095700549432783e+000
 5.831378150788742e-001	 1.516764743971375e+000	 5.918726070086195e+000
 5.680960849894999e-001	 1.522462425860463e+000	 5.749674699825746e+000
 5.530311810327054e-001	 1.527999186109062e+000	 5.587967978790078e+000
 5.379455574346488e-001	 1.533375223872810e+000	 5.433042202032385e+000
 5.228416532761903e-001	 1.538590785607250e+000	 5.284349333506898e+000
 5.077218914224815e-001	 1.543646164420804e+000	 5.141357862944308e+000
 4.925886774791704e-001	 1.548541699400969e+000	 5.003553604837079e+000
 4.774443987759110e-001	 1.553277774914866e+000	 4.870440438943456e+000
 4.622914233778161e-001	 1.557854819885305e+000	 4.741540991898751e+000
 4.471320991254359e-001	 1.562273307043531e+000	 4.616397259698729e+000
 6.073562707660272e-001	 1.534150696731373e+000	 6.171191039286284e+000
 5.921091660817187e-001	 1.540099586186401e+000	 5.996557402148203e+000
 5.768360247602784e-001	 1.545884924720079e+000	 5.829833449108726e+000
 5.615393530503365e-001	 1.551506865895716e+000	 5.670398225673250e+000
 5.462216429353760e-001	 1.556965611932881e+000	 5.517646564591178e+000
 5.308853710205784e-001	 1.562261413078743e+000	 5.370990053900759e+000
 5.155329974459445e-001	 1.567394566951083e+000	 5.229857944602551e+000
 5.001669648264401e-001	 1.572365417854128e+000	 5.093697997143330e+000
 4.847896972198679e-001	 1.577174356068340e+000	 4.961977266083540e+000
 4.694035991231121e-001	 1.581821817115343e+000	 4.834182822512298e+000
 4.540110544973472e-001	 1.586308280999167e+000	 4.709822413962170e+000
 6.165586385068961e-001	 1.557395404258538e+000	 6.225383341191735e+000
 6.010805170851529e-001	 1.563434428402422e+000	 6.054143728466761e+000
 5.855759645317007e-001	 1.569307423580675e+000	 5.890773366750057e+000
 5.700475250686339e-001	 1.575014545683324e+000	 5.734607226436384e+000
 5.544977284367619e-001	 1.580555999993871e+000	 5.584997152787689e+000
 5.389290887655879e-001	 1.585932040551108e+000	 5.441312889572945e+000
 5.233441034699612e-001	 1.591142969482178e+000	 5.302943038953977e+000
 5.077452521741660e-001	 1.596189136308038e+000	 5.169295956753649e+000
 4.921349956641541e-001	 1.601070937222489e+000	 5.039800582444904e+000
 4.765157748685812e-001	 1.605788814345970e+000	 4.913907203401729e+000
 4.608900098692462e-001	 1.610343254955298e+000	 4.791088153149502e+000
 6.257610062482705e-001	 1.580640111786703e+000	 6.257415531328903e+000
 6.100518680891768e-001	 1.586769270619437e+000	 6.090839903590408e+000
 5.943159043037662e-001	 1.592729922442250e+000	 5.931887617177664e+000
 5.785556970875977e-001	 1.598522225471885e+000	 5.780026391749062e+000
 5.627738139388071e-001	 1.604146388055779e+000	 5.634563524100006e+000
 5.469728065112188e-001	 1.609602668024345e+000	 5.494825410357084e+000
 5.311552094945315e-001	 1.614891372014088e+000	 5.360158559522566e+000
 5.153235395223481e-001	 1.620012854762696e+000	 5.229930538843205e+000
 4.994802941087695e-001	 1.624967518377312e+000	 5.103530850309284e+000
 4.836279506142232e-001	 1.629755811577185e+000	 4.980371737800033e+000
 4.677689652411324e-001	 1.634378228911922e+000	 4.859888924599541e+000
 6.349633739901497e-001	 1.603884819315868e+000	 6.267195878671645e+000
 6.190232190937902e-001	 1.610104112837447e+000	 6.105991722002381e+000
 6.030558440764752e-001	 1.616152421304804e+000	 5.952560055931295e+000
 5.870638691072279e-001	 1.622029905261401e+000	 5.806077552694799e+000
 5.710498994415113e-001	 1.627736776118604e+000	 5.665805364110781e+000
 5.550165242574712e-001	 1.633273295498454e+000	 5.531025000543435e+000
 5.389663155196559e-001	 1.638639774546815e+000	 5.401039399584727e+000
 5.229018268709867e-001	 1.643836573218105e+000	 5.275173922871899e+000
 5.068255925537144e-001	 1.648864099532809e+000	 5.152777280313792e+000
 4.907401263600380e-001	 1.653722808808989e+000	 5.033222381215729e+000
 4.746479206130062e-001	 1.658413202869040e+000	 4.915907112015499e+000
 6.441657417325339e-001	 1.627129526846032e+000	 6.258818553247123e+000
 6.279945700989932e-001	 1.633438955056451e+000	 6.099132008245235e+000
 6.117957838498271e-001	 1.639574920168338e+000	 5.952165894582770e+000
 5.955720411275246e-001	 1.645537585051869e+000	 5.812173645027190e+000
 5.793259849448744e-001	 1.651327164182347e+000	 5.678173191642879e+000
 5.630602420043449e-001	 1.656943922973434e+000	 5.549399586417600e+000
 5.467774215453342e-001	 1.662388177080358e+000	 5.425110683615039e+000
 5.304801142200817e-001	 1.667660291674265e+000	 5.304588189420813e+000
 5.141708909989884e-001	 1.672760680688981e+000	 5.187138635139792e+000
 4.978523021060256e-001	 1.677689806041381e+000	 5.072094273413234e+000
 4.815268759848673e-001	 1.682448176826651e+000	 4.958813897153507e+000
 4.127373222656903e-001	 1.442098437272754e+000	 3.976603482725189e+000
 3.987403871052226e-001	 1.446031155840163e+000	 3.835309523032914e+000
 3.847418665210725e-001	 1.449818504541092e+000	 3.701023098473697e+000
 3.707438666974943e-001	 1.453461036720863e+000	 3.573459750962767e+000
 3.567484718777406e-001	 1.456959343210722e+000	 3.452348179736425e+000
 3.427577436160288e-001	 1.460314051546808e+000	 3.337430531478979e+000
 3.287737200581075e-001	 1.463525825174173e+000	 3.228462649128069e+000
 3.147984152506359e-001	 1.466595362636951e+000	 3.125214279912547e+000
 3.008338184795505e-001	 1.469523396755786e+000	 3.027469243275736e+000
 2.868818936375482e-001	 1.472310693793589e+000	 2.935025559432171e+000
 2.729445786207708e-001	 1.474958052610726e+000	 2.847695539394421e+000
 4.196162776376646e-001	 1.466133411225922e+000	 4.126735943800949e+000
 4.053860602251623e-001	 1.470131675103331e+000	 3.983160768739114e+000
 3.911542309650638e-001	 1.473982146283010e+000	 3.847080438011552e+000
 3.769229311446954e-001	 1.477685387332699e+000	 3.718188025812522e+000
 3.626942797446991e-001	 1.481241998930835e+000	 3.596190192618669e+000
 3.484703726785304e-001	 1.484652619072495e+000	 3.480807504214040e+000
 3.342532820610353e-001	 1.487917922260149e+000	 3.371774707334854e+000
 3.200450555063187e-001	 1.491038618680334e+000	 3.268840962491709e+000
 3.058477154550844e-001	 1.494015453367372e+000	 3.171770034631557e+000
 2.916632585315760e-001	 1.496849205355224e+000	 3.080340442402463e+000
 2.774936549302054e-001	 1.499540686818598e+000	 2.994345566876891e+000
 4.264952330096262e-001	 1.490168385179584e+000	 4.266019448180691e+000
 4.120317333449102e-001	 1.494232194366904e+000	 4.121213739255715e+000
 3.975665954087251e-001	 1.498145788025262e+000	 3.984328341535766e+000
 3.831019955914699e-001	 1.501909737944822e+000	 3.855032997112470e+000
 3.686400876111745e-001	 1.505524654651208e+000	 3.733011537510149e+000
 3.541830017405329e-001	 1.508991186598434e+000	 3.617962231619532e+000
 3.397328440634880e-001	 1.512310019346387e+000	 3.509598088072279e+000
 3.252916957615902e-001	 1.515481874724011e+000	 3.407647112621201e+000
 3.108616124303101e-001	 1.518507509979303e+000	 3.311852521199802e+000
 2.964446234254375e-001	 1.521387716917276e+000	 3.221972909441980e+000
 2.820427312396547e-001	 1.524123321026976e+000	 3.137782379542129e+000
 4.333741883815754e-001	 1.514203359133739e+000	 4.394224853822343e+000
 4.186774064644662e-001	 1.518332713630881e+000	 4.249253700995551e+000
 4.039789598520567e-001	 1.522309429767849e+000	 4.112567350299295e+000
 3.892810600378176e-001	 1.526134088557231e+000	 3.983811319088482e+000
 3.745858954771669e-001	 1.529807310371839e+000	 3.862645791775881e+000
 3.598956308020363e-001	 1.533329754124623e+000	 3.748745996711545e+000
 3.452124060654657e-001	 1.536702116432889e+000	 3.641802535203314e+000
 3.305383360164506e-001	 1.539925130767982e+000	 3.541521663251760e+000
 3.158755094052277e-001	 1.542999566591581e+000	 3.447625526688150e+000
 3.012259883191330e-001	 1.545926228479745e+000	 3.359852350518009e+000
 2.865918075491187e-001	 1.548705955235862e+000	 3.277956583376504e+000
 4.402531437535119e-001	 1.538238333088388e+000	 4.511105236913289e+000
 4.253230795838304e-001	 1.542433232895262e+000	 4.367049050985003e+000
 4.103913242950587e-001	 1.546473071510771e+000	 4.231581951526845e+000
 3.954601244837385e-001	 1.550358439169927e+000	 4.104324310668118e+000
 3.805317033426760e-001	 1.554089966092728e+000	 3.984911820033795e+000
 3.656082598630407e-001	 1.557668321651062e+000	 3.872995896632809e+000
 3.506919680669683e-001	 1.561094213519653e+000	 3.768244038464286e+000
 3.357849762708995e-001	 1.564368386812248e+000	 3.670340130426245e+000
 3.208894063798372e-001	 1.567491623204204e+000	 3.578984701234312e+000
 3.060073532126624e-001	 1.570464740042631e+000	 3.493895132176930e+000
 2.911408838585973e-001	 1.573288589445256e+000	 3.414805818643203e+000
 4.471320991254359e-001	 1.562273307043531e+000	 4.616397259698729e+000
 4.319687527030028e-001	 1.566533752160047e+000	 4.474352614509345e+000
 4.168036887377308e-001	 1.570636713254029e+000	 4.341141813340314e+000
 4.016391889292326e-001	 1.574582789782909e+000	 4.216359135118765e+000
 3.864775112077022e-001	 1.578372621813877e+000	 4.099614905904343e+000
 3.713208889235461e-001	 1.582006889177752e+000	 3.990535933873555e+000
 3.561715300679961e-001	 1.585486310606679e+000	 3.888765891474388e+000
 3.410316165249372e-001	 1.588811642856808e+000	 3.793965645349377e+000
 3.259033033541383e-001	 1.591983679817173e+000	 3.705813534757259e+000
 3.107887181060257e-001	 1.595003251605934e+000	 3.624005599345688e+000
 2.956899601680905e-001	 1.597871223655156e+000	 3.548255757245650e+000
 4.540110544973472e-001	 1.586308280999167e+000	 4.709822413962170e+000
 4.386144258219834e-001	 1.590634271425237e+000	 4.570902824789869e+000
 4.232160531800732e-001	 1.594800354997621e+000	 4.441002907417970e+000
 4.078182533742999e-001	 1.598807140396178e+000	 4.319689872446395e+000
 3.924233190722452e-001	 1.602655277535282e+000	 4.206547780874193e+000
 3.770335179835524e-001	 1.606345456704692e+000	 4.101178008290775e+000
 3.616510920685486e-001	 1.609878407693968e+000	 4.003199653562819e+000
 3.462782567785636e-001	 1.613254898901663e+000	 3.912249892633284e+000
 3.309172003281313e-001	 1.616475736430489e+000	 3.827984278186157e+000
 3.155700829992229e-001	 1.619541763169653e+000	 3.750076986060575e+000
 3.002390364775985e-001	 1.622453857865564e+000	 3.678221009421402e+000
 4.608900098692462e-001	 1.610343254955298e+000	 4.791088153149502e+000
 4.452600989407723e-001	 1.614734790690830e+000	 4.656424797018632e+000
 4.296284176220858e-001	 1.618963996741549e+000	 4.530908531117053e+000
 4.139973178189405e-001	 1.623031491009734e+000	 4.414078495758147e+000
 3.983691269363052e-001	 1.626937933256947e+000	 4.305491561022591e+000
 3.827461470430595e-001	 1.630684024231883e+000	 4.204722820289774e+000
 3.671306540686263e-001	 1.634270504781519e+000	 4.111366025462175e+000
 3.515248970317787e-001	 1.637698154946812e+000	 4.025033964520659e+000
 3.359310973018162e-001	 1.640967793044150e+000	 3.945358782190875e+000
 3.203514478922541e-001	 1.644080274733791e+000	 3.871992244638407e+000
 3.047881127871212e-001	 1.647036492076480e+000	 3.804605949239518e+000
 4.677689652411324e-001	 1.634378228911922e+000	 4.859888924599541e+000
 4.519057720593694e-001	 1.638835309956827e+000	 4.730631307625272e+000
 4.360407820637686e-001	 1.643127638485812e+000	 4.610590239409305e+000
 4.201763822631544e-001	 1.647255841623576e+000	 4.499275761475468e+000
 4.043149347998820e-001	 1.651220588978870e+000	 4.396216601095323e+000
 3.884587761020676e-001	 1.655022591759324e+000	 4.300960694313195e+000
 3.726102160682288e-001	 1.658662601869332e+000	 4.213075647734528e+000
 3.567715372845826e-001	 1.662141410992255e+000	 4.132149139735547e+000
 3.409449942751927e-001	 1.665459849658157e+000	 4.057789261907058e+000
 3.251328127851191e-001	 1.668618786298344e+000	 3.989624801685042e+000
 3.093371890966585e-001	 1.671619126287902e+000	 3.927305467260203e+000
 4.746479206130062e-001	 1.658413202869040e+000	 4.915907112015499e+000
 4.585514451777746e-001	 1.662935829223229e+000	 4.793223688390177e+000
 4.424531465051217e-001	 1.667291280230410e+000	 4.679768695778249e+000
 4.263554467069414e-001	 1.671480192237705e+000	 4.575022022137799e+000
 4.102607426629757e-001	 1.675503244701052e+000	 4.478483274311548e+000
 3.941714051605766e-001	 1.679361159287015e+000	 4.389672330722464e+000
 3.780897780673564e-001	 1.683054698957408e+000	 4.308129829769270e+000
 3.620181775369751e-001	 1.686584667037993e+000	 4.233417594607933e+000
 3.459588912482612e-001	 1.689951906272510e+000	 4.165118995163062e+000
 3.299141776778181e-001	 1.693157297863315e+000	 4.102839248364393e+000
 3.138862654062104e-001	 1.696201760499832e+000	 4.046205657745505e+000
 4.815268759848673e-001	 1.682448176826651e+000	 4.958813897153507e+000
 4.651971182959880e-001	 1.687036348490034e+000	 4.843892643919371e+000
 4.488655109461449e-001	 1.691454921975343e+000	 4.738154450182809e+000
 4.325345111503017e-001	 1.695704542852121e+000	 4.641047969536392e+000
 4.162065505255864e-001	 1.699785900423492e+000	 4.552042685330084e+000
 3.998840342185866e-001	 1.703699726814957e+000	 4.470629493232236e+000
 3.835693400660090e-001	 1.707446796045747e+000	 4.396321216295821e+000
 3.672648177889564e-001	 1.711027923084024e+000	 4.328653053244643e+000
 3.509727882210215e-001	 1.714443962887209e+000	 4.267182960859251e+000
 3.346955425703510e-001	 1.717695809428702e+000	 4.211491971501626e+000
 3.184353417157770e-001	 1.720784394712270e+000	 4.161184446966324e+000
 2.729445786207708e-001	 1.474958052610726e+000	 2.847695539394421e+000
 2.590237847553507e-001	 1.477466303810354e+000	 2.740683899387751e+000
 2.451213962520330e-001	 1.479836308875993e+000	 2.640319505055284e+000
 2.312392696899343e-001	 1.482068959301720e+000	 2.546433990139042e+000
 2.173792335306681e-001	 1.484165175715300e+000	 2.458872263553467e+000
 2.035430876609109e-001	 1.486125906996327e+000	 2.377492465865532e+000
 1.897326029638495e-001	 1.487952129390019e+000	 2.302165893943697e+000
 1.759495209193236e-001	 1.489644845617649e+000	 2.232776895005435e+000
 1.621955532324464e-001	 1.491205083984588e+000	 2.169222731336329e+000
 1.484723814904554e-001	 1.492633897486894e+000	 2.111413416992813e+000
 1.347816568475081e-001	 1.493932362917365e+000	 2.059271527832677e+000
 2.774936549302054e-001	 1.499540686818598e+000	 2.994345566876891e+000
 2.633408478327074e-001	 1.502090742204176e+000	 2.888760467714108e+000
 2.492067528535041e-001	 1.504500247353678e+000	 2.790543560777246e+000
 2.350932575146957e-001	 1.506770108619411e+000	 2.699509593302620e+000
 2.210022207522548e-001	 1.508901261972938e+000	 2.615486816880293e+000
 2.069354724509679e-001	 1.510894672108512e+000	 2.538316961260669e+000
 1.928948130087401e-001	 1.512751331542102e+000	 2.467855174815527e+000
 1.788820129300737e-001	 1.514472259707000e+000	 2.403969932911186e+000
 1.648988124484991e-001	 1.516058502047001e+000	 2.346542915497941e+000
 1.509469211777063e-001	 1.517511129108093e+000	 2.295468855263219e+000
 1.370280177910873e-001	 1.518831235629623e+000	 2.250655357729078e+000
 2.820427312396547e-001	 1.524123321026976e+000	 3.137782379542129e+000
 2.676579109102633e-001	 1.526715180598594e+000	 3.034303782980447e+000
 2.532921094553274e-001	 1.529164185832027e+000	 2.938832331663168e+000
 2.389472453399318e-001	 1.531471257937816e+000	 2.851165775424125e+000
 2.246252079744082e-001	 1.533637348231319e+000	 2.771115674976032e+000
 2.103278572416531e-001	 1.535663437221448e+000	 2.698507391833251e+000
 1.960570230542905e-001	 1.537550533694922e+000	 2.633180043283636e+000
 1.818145049414855e-001	 1.539299673797057e+000	 2.574986423700673e+000
 1.676020716651859e-001	 1.540911920110067e+000	 2.523792893538026e+000
 1.534214608655345e-001	 1.542388360729875e+000	 2.479479237390148e+000
 1.392743787351581e-001	 1.543730108342372e+000	 2.441938492545052e+000
 2.865918075491187e-001	 1.548705955235862e+000	 3.277956583376504e+000
 2.719749739880180e-001	 1.551339618993610e+000	 3.177273066626499e+000
 2.573774660575030e-001	 1.553828124311042e+000	 3.085154960063202e+000
 2.428012331656426e-001	 1.556172407256935e+000	 3.001382879665595e+000
 2.282481951971282e-001	 1.558373434490442e+000	 2.925751636263640e+000
 2.137202420329666e-001	 1.560432202335132e+000	 2.858070240385606e+000
 1.992192331005008e-001	 1.562349735848480e+000	 2.798161870459442e+000
 1.847469969535590e-001	 1.564127087887819e+000	 2.745863805696339e+000
 1.703053308825067e-001	 1.565765338173787e+000	 2.701027325040191e+000
 1.558960005539401e-001	 1.567265592352239e+000	 2.663517573611221e+000
 1.415207396797206e-001	 1.568628981055612e+000	 2.633213398114849e+000
 2.911408838585973e-001	 1.573288589445256e+000	 3.414805818643203e+000
 2.762920370659718e-001	 1.575964057389222e+000	 3.317615366960021e+000
 2.614628226600309e-001	 1.578492062790723e+000	 3.229469072823609e+000
 2.466552209918282e-001	 1.580873556576769e+000	 3.150130257288076e+000
 2.318711824204148e-001	 1.583109520750306e+000	 3.079376897842692e+000
 2.171126268249082e-001	 1.585200967449566e+000	 3.017001647011627e+000
 2.023814431473708e-001	 1.587148938002775e+000	 2.962811812519908e+000
 1.876794889662942e-001	 1.588954501979286e+000	 2.916629300397557e+000
 1.730085901004617e-001	 1.590618756238160e+000	 2.878290522449589e+000
 1.583705402429229e-001	 1.592142823975185e+000	 2.847646269570446e+000
 1.437671006247749e-001	 1.593527853769345e+000	 2.824561552424979e+000
 2.956899601680905e-001	 1.597871223655156e+000	 3.548255757245650e+000
 2.806091001441247e-001	 1.600588495785431e+000	 3.455266495551674e+000
 2.655481792629111e-001	 1.603156001271070e+000	 3.371721667095222e+000
 2.505092088184885e-001	 1.605574705897316e+000	 3.297367113182538e+000
 2.354941696442679e-001	 1.607845607010913e+000	 3.231963870975928e+000
 2.205050116174781e-001	 1.609969732564750e+000	 3.175288204689447e+000
 2.055436531949007e-001	 1.611948140157806e+000	 3.127131596471184e+000
 1.906119809796910e-001	 1.613781916071458e+000	 3.087300698390068e+000
 1.757118493190508e-001	 1.615472174303186e+000	 3.055617247006133e+000
 1.608450799324832e-001	 1.617020055598714e+000	 3.031917942056255e+000
 1.460134615703208e-001	 1.618426726483569e+000	 3.016054290833277e+000
 3.002390364775985e-001	 1.622453857865564e+000	 3.678221009421402e+000
 2.849261632224765e-001	 1.625212934182237e+000	 3.590151878503112e+000
 2.696335358661434e-001	 1.627819939752082e+000	 3.511849915613000e+000
 2.543631966456235e-001	 1.630275855218577e+000	 3.443043274534043e+000
 2.391171568686878e-001	 1.632581693272261e+000	 3.383475922440337e+000
 2.238973964106763e-001	 1.634738497680683e+000	 3.332907682548356e+000
 2.087058632430904e-001	 1.636747342313575e+000	 3.291114234480230e+000
 1.935444729937496e-001	 1.638609330164335e+000	 3.257887073809281e+000
 1.784151085382740e-001	 1.640325592368866e+000	 3.233033432321053e+000
 1.633196196226208e-001	 1.641897287222824e+000	 3.216376160581459e+000
 1.482598225163585e-001	 1.643325599198285e+000	 3.207753574449898e+000
 3.047881127871212e-001	 1.647036492076480e+000	 3.804605949239518e+000
 2.892432263010272e-001	 1.649837372579640e+000	 3.722187331481861e+000
 2.737188924697281e-001	 1.652483878233760e+000	 3.649781899861724e+000
 2.582171844732333e-001	 1.654977004540552e+000	 3.587099890650732e+000
 2.427401440936743e-001	 1.657317779534351e+000	 3.533868049488872e+000
 2.272897812045027e-001	 1.659507262797366e+000	 3.489829684364429e+000
 2.118680732919400e-001	 1.661546544470082e+000	 3.454744674235667e+000
 1.964769650084698e-001	 1.663436744257918e+000	 3.428389434821492e+000
 1.811183677581314e-001	 1.665179010435199e+000	 3.410556843155044e+000
 1.657941593133357e-001	 1.666774518847517e+000	 3.401056122553147e+000
 1.505061834628878e-001	 1.668224471913492e+000	 3.399712689707882e+000
 3.093371890966585e-001	 1.671619126287902e+000	 3.927305467260203e+000
 2.935602893797771e-001	 1.674461810977640e+000	 3.851279766370888e+000
 2.778042490736651e-001	 1.677147816716104e+000	 3.785437278550176e+000
 2.620711723013177e-001	 1.679678153863241e+000	 3.729470071042943e+000
 2.463631313192274e-001	 1.682053865797183e+000	 3.683087495256709e+000
 2.306821659989573e-001	 1.684276027914798e+000	 3.646016248954563e+000
 2.150302833414495e-001	 1.686345746627326e+000	 3.618000391924055e+000
 1.994094570238518e-001	 1.688264158352205e+000	 3.598801316709920e+000
 1.838216269786228e-001	 1.690032428502185e+000	 3.588197676068849e+000
 1.682686990046280e-001	 1.691651750472792e+000	 3.585985268868557e+000
 1.527525444099089e-001	 1.693123344629191e+000	 3.591976886207224e+000
 3.138862654062104e-001	 1.696201760499832e+000	 4.046205657745505e+000
 2.978773524587259e-001	 1.699086249376236e+000	 3.977327836470554e+000
 2.818896056779544e-001	 1.701811755199113e+000	 3.918727897957189e+000
 2.659251601298770e-001	 1.704379303186644e+000	 3.870079468017388e+000
 2.499861185453471e-001	 1.706789952060757e+000	 3.831074310653655e+000
 2.340745507940402e-001	 1.709044793032979e+000	 3.801422398361484e+000
 2.181924933916187e-001	 1.711144948785307e+000	 3.780851933643327e+000
 2.023419490398955e-001	 1.713091572447198e+000	 3.769109323387904e+000
 1.865248861997483e-001	 1.714885846569825e+000	 3.765959107843748e+000
 1.707432386964976e-001	 1.716528982098648e+000	 3.771183845980995e+000
 1.549989053574216e-001	 1.718022217345382e+000	 3.784583959093957e+000
 3.184353417157770e-001	 1.720784394712270e+000	 4.161184446966324e+000
 3.021944155378737e-001	 1.723710687775430e+000	 4.100222526397132e+000
 2.859749622825958e-001	 1.726475693682788e+000	 4.049558349962381e+000
 2.697791479589108e-001	 1.729080452510761e+000	 4.008846809334274e+000
 2.536091057720334e-001	 1.731526038325072e+000	 3.977761868094602e+000
 2.374669355897513e-001	 1.733813558151911e+000	 3.955996639052388e+000
 2.213547034424477e-001	 1.735944150944025e+000	 3.943263410408919e+000
 2.052744410566008e-001	 1.737918986542895e+000	 3.939293622496827e+000
 1.892281454215078e-001	 1.739739264638117e+000	 3.943837796894354e+000
 1.732177783889445e-001	 1.741406213725087e+000	 3.956665419788892e+000
 1.572452663054261e-001	 1.742921090062064e+000	 3.977564781521164e+000
 1.347816568475081e-001	 1.493932362917365e+000	 2.059271527832677e+000
 1.211249997365069e-001	 1.495101579972037e+000	 1.991850419622096e+000
 1.075039996094458e-001	 1.496142670357773e+000	 1.928934859574624e+000
 9.392021470467503e-002	 1.497056776901965e+000	 1.870473369936970e+000
 8.037517183948716e-002	 1.497845062665274e+000	 1.816427278791865e+000
 6.687036622943404e-002	 1.498508710058030e+000	 1.766770398030992e+000
 5.340726133332937e-002	 1.499048919961125e+000	 1.721488682163789e+000
 3.998728872347066e-002	 1.499466910852138e+000	 1.680579869448908e+000
 2.661184798060209e-002	 1.499763917937434e+000	 1.644053106826799e+000
 1.328230661311983e-002	 1.499941192290897e+000	 1.611928560120782e+000
 0.000000000000000e+000	 1.500000000000000e+000	 1.584237010959848e+000
 1.370280177910873e-001	 1.518831235629623e+000	 2.250655357729078e+000
 1.231437497286795e-001	 1.520019939635790e+000	 2.189699843951925e+000
 1.092957329332651e-001	 1.521078381528475e+000	 2.133850430086748e+000
 9.548555161383344e-002	 1.522007723182194e+000	 2.083047862003310e+000
 8.171475803463187e-002	 1.522809147041951e+000	 2.037245885129049e+000
 6.798487233147164e-002	 1.523483855224919e+000	 1.996410923713293e+000
 5.429738235414672e-002	 1.524033068626668e+000	 1.960521740039949e+000
 4.065374353449300e-002	 1.524458026032741e+000	 1.929569075120780e+000
 2.705537877960047e-002	 1.524759983236272e+000	 1.903555272394119e+000
 1.350367838967197e-002	 1.524940212162383e+000	 1.882493885944033e+000
 0.000000000000000e+000	 1.525000000000000e+000	 1.866409274737716e+000
 1.392743787351581e-001	 1.543730108342372e+000	 2.441938492545052e+000
 1.251624997212492e-001	 1.544938299299939e+000	 2.387753214298607e+000
 1.110874662573970e-001	 1.546014092699489e+000	 2.339192374938810e+000
 9.705088852323032e-002	 1.546958669462661e+000	 2.296189396513704e+000
 8.305434422995120e-002	 1.547773231418804e+000	 2.258690959794892e+000
 6.909937843363008e-002	 1.548459000391928e+000	 2.226656682974628e+000
 5.518750337504116e-002	 1.549017217292289e+000	 2.200058779377208e+000
 4.132019834555854e-002	 1.549449141213387e+000	 2.178881695766488e+000
 2.749890957861798e-002	 1.549756048535131e+000	 2.163121732826754e+000
 1.372505016622889e-002	 1.549939232033873e+000	 2.152786649380743e+000
 0.000000000000000e+000	 1.550000000000000e+000	 2.147895251896343e+000
 1.415207396797206e-001	 1.568628981055612e+000	 2.633213398114849e+000
 1.271812497142158e-001	 1.569856658964486e+000	 2.586102551870770e+000
 1.128791995818416e-001	 1.570949803870817e+000	 2.545053443044872e+000
 9.861622543286573e-002	 1.571909615743366e+000	 2.509992605612174e+000
 8.439393042544517e-002	 1.572737315795831e+000	 2.480860156964138e+000
 7.021388453590939e-002	 1.573434145559059e+000	 2.457609474188577e+000
 5.607762439601265e-002	 1.574001365957986e+000	 2.440206848382153e+000
 4.198665315666728e-002	 1.574440256394075e+000	 2.428631118632254e+000
 2.794244037765462e-002	 1.574752113834009e+000	 2.422873287300733e+000
 1.394642194279057e-002	 1.574938251905368e+000	 2.422936118229288e+000
 0.000000000000000e+000	 1.575000000000000e+000	 2.428833719473758e+000
 1.437671006247749e-001	 1.593527853769345e+000	 2.824561552424979e+000
 1.291999997075793e-001	 1.594775018629429e+000	 2.784829693673577e+000
 1.146709329065987e-001	 1.595885515042456e+000	 2.751516872561032e+000
 1.001815623427396e-001	 1.596860562024310e+000	 2.724543154980240e+000
 8.573351662111377e-002	 1.597701400173032e+000	 2.703842580597447e+000
 7.132839063830955e-002	 1.598409290726310e+000	 2.689362834871488e+000
 5.696774541706121e-002	 1.598985514623761e+000	 2.681064898076064e+000
 4.265310796781922e-002	 1.599431371574808e+000	 2.678922673020287e+000
 2.838597117671039e-002	 1.599748179132905e+000	 2.682922593160765e+000
 1.416779371935701e-002	 1.599937271776868e+000	 2.693063212786679e+000
 0.000000000000000e+000	 1.600000000000000e+000	 2.709354780943228e+000
 1.460134615703208e-001	 1.618426726483569e+000	 3.016054290833277e+000
 1.312187497013398e-001	 1.619693378294770e+000	 2.984007075909096e+000
 1.164626662316684e-001	 1.620821226214409e+000	 2.958657122482313e+000
 1.017468992528521e-001	 1.621811508305493e+000	 2.939918433564849e+000
 8.707310281695702e-002	 1.622665484550409e+000	 2.927719442150023e+000
 7.244289674083054e-002	 1.623384435893682e+000	 2.922002677133299e+000
 5.785786643818686e-002	 1.623969663289613e+000	 2.922724405155571e+000
 4.331956277901437e-002	 1.624422486755583e+000	 2.929854250130678e+000
 2.882950197578529e-002	 1.624744244431821e+000	 2.943374792214785e+000
 1.438916549592822e-002	 1.624936291648372e+000	 2.963281147963861e+000
 0.000000000000000e+000	 1.625000000000000e+000	 2.989580533410361e+000
 1.482598225163585e-001	 1.643325599198285e+000	 3.207753574449898e+000
 1.332374996954973e-001	 1.644611737960508e+000	 3.183698446158017e+000
 1.182543995570507e-001	 1.645756937386673e+000	 3.166540537730514e+000
 1.033122361632030e-001	 1.646762454586915e+000	 3.156188180603615e+000
 8.841268901297489e-002	 1.647629568927960e+000	 3.152564658489003e+000
 7.355740284347240e-002	 1.648359581061175e+000	 3.155607865359714e+000
 5.874798745938958e-002	 1.648953811955542e+000	 3.165269938228872e+000
 4.398601759025272e-002	 1.649413601936402e+000	 3.181516866554065e+000
 2.927303277487933e-002	 1.649740309730756e+000	 3.204328080092952e+000
 1.461053727250419e-002	 1.649935311519882e+000	 3.233696017027294e+000
 0.000000000000000e+000	 1.650000000000000e+000	 3.269625674156256e+000
 1.505061834628878e-001	 1.668224471913492e+000	 3.399712689707882e+000
 1.352562496900517e-001	 1.669530097626642e+000	 3.383959511784749e+000
 1.200461328827456e-001	 1.670692648559252e+000	 3.375225954681968e+000
 1.048775730737925e-001	 1.671713400868574e+000	 3.373415056498651e+000
 8.975227520916734e-002	 1.672593653305685e+000	 3.378445396265514e+000
 7.467190894623507e-002	 1.673334726228788e+000	 3.390250742161692e+000
 5.963810848066937e-002	 1.673937960621547e+000	 3.408779673345106e+000
 4.465247240153425e-002	 1.674404717117263e+000	 3.433995177302128e+000
 2.971656357399250e-002	 1.674736375029710e+000	 3.465874224618954e+000
 1.483190904908494e-002	 1.674934331391396e+000	 3.504407323064811e+000
 0.000000000000000e+000	 1.675000000000000e+000	 3.549598052863117e+000
 1.527525444099089e-001	 1.693123344629191e+000	 3.591976886207224e+000
 1.372749996850031e-001	 1.694448457293173e+000	 3.584838531129130e+000
 1.218378662087531e-001	 1.695628359732141e+000	 3.584765253266633e+000
 1.064429099846205e-001	 1.696664347150472e+000	 3.591655163319292e+000
 9.109186140553449e-002	 1.697557737683585e+000	 3.605422568253990e+000
 7.578641504911862e-002	 1.698309871396523e+000	 3.625997607917987e+000
 6.052822950202623e-002	 1.698922109287630e+000	 3.653325864035383e+000
 4.531892721285900e-002	 1.699395832298168e+000	 3.687367943570750e+000
 3.016009437312479e-002	 1.699732440328683e+000	 3.728099038442928e+000
 1.505328082567045e-002	 1.699933351262915e+000	 3.775508463557574e+000
 0.000000000000000e+000	 1.700000000000000e+000	 3.829599175114225e+000
 1.549989053574216e-001	 1.718022217345382e+000	 3.784583959093957e+000
 1.392937496803514e-001	 1.719366816960102e+000	 3.786376853291515e+000
 1.236295995350731e-001	 1.720564070905344e+000	 3.795203861058259e+000
 1.080082468956869e-001	 1.721615293432609e+000	 3.810958520043553e+000
 9.243144760207625e-002	 1.722521822061660e+000	 3.833551286531752e+000
 7.690092115212303e-002	 1.723285016564378e+000	 3.862909158617695e+000
 6.141835052346017e-002	 1.723906257953791e+000	 3.898975270480594e+000
 4.598538202422694e-002	 1.724386947479117e+000	 3.941708459828142e+000
 3.060362517227623e-002	 1.724728505627676e+000	 3.991082810575814e+000
 1.527465260226072e-002	 1.724932371134438e+000	 4.047087172815343e+000
 0.000000000000000e+000	 1.725000000000000e+000	 4.109724662111172e+000
 1.572452663054261e-001	 1.742921090062064e+000	 3.977564781521164e+000
 1.413124996760967e-001	 1.744285176627427e+000	 3.988609411649142e+000
 1.254213328617058e-001	 1.745499782078859e+000	 4.006581214157132e+000
 1.095735838069919e-001	 1.746566239714984e+000	 4.031369497064395e+000
 9.377103379879261e-002	 1.747485906439909e+000	 4.062881276814582e+000
 7.801542725524828e-002	 1.748260161732354e+000	 4.101040886174012e+000
 6.230847154497118e-002	 1.748890406620027e+000	 4.145789551893679e+000
 4.665183683563808e-002	 1.749378062660108e+000	 4.197084944295267e+000
 3.104715597144679e-002	 1.749724570926687e+000	 4.254900700934882e+000
 1.549602437885576e-002	 1.749931391005967e+000	 4.319225926488793e+000
 0.000000000000000e+000	 1.750000000000000e+000	 4.390064670986978e+000
 1.750000000000000e+000	 0.000000000000000e+000	 1.335782456446585e+001
 1.749931391005967e+000	 1.549602437885581e-002	 1.338863530514685e+001
 1.749724570926687e+000	 3.104715597144690e-002	 1.341533424739523e+001
 1.749378062660108e+000	 4.665183683563796e-002	 1.343784507422189e+001
 1.748890406620027e+000	 6.230847154497113e-002	 1.345608918848081e+001
 1.748260161732354e+000	 7.801542725524827e-002	 1.346998561273993e+001
 1.747485906439909e+000	 9.377103379879266e-002	 1.347945089026546e+001
 1.746566239714984e+000	 1.095735838069920e-001	 1.348439898749343e+001
 1.745499782078859e+000	 1.254213328617057e-001	 1.348474119837671e+001
 1.744285176627427e+000	 1.413124996760966e-001	 1.348038605100880e+001
 1.742921090062065e+000	 1.572452663054261e-001	 1.347123921693823e+001
 1.775000000000000e+000	 0.000000000000000e+000	 1.328684815735795e+001
 1.774930410877498e+000	 1.571739615545324e-002	 1.331350402429980e+001
 1.774720636225708e+000	 3.149068677062703e-002	 1.333618874152910e+001
 1.774369177841122e+000	 4.731829164707072e-002	 1.335482600227034e+001
 1.773874555286303e+000	 6.319859256652068e-002	 1.336933698636013e+001
 1.773235306900391e+000	 7.912993335843395e-002	 1.337964025063338e+001
 1.772449990818246e+000	 9.511061999559638e-002	 1.338565162049752e+001
 1.771517185997479e+000	 1.111389207184163e-001	 1.338728408309314e+001
 1.770435493252530e+000	 1.272130661884946e-001	 1.338444768245373e+001
 1.769203536294951e+000	 1.433312496720404e-001	 1.337704941709186e+001
 1.767819962778993e+000	 1.594916272536765e-001	 1.336499314045188e+001
 1.800000000000000e+000	 0.000000000000000e+000	 1.322767208166684e+001
 1.799929430749029e+000	 1.593876793205066e-002	 1.324970073383977e+001
 1.799716701524729e+000	 3.193421756980716e-002	 1.326790511748159e+001
 1.799360293022134e+000	 4.798474645850345e-002	 1.328220928438586e+001
 1.798858703952579e+000	 6.408871358807022e-002	 1.329253453723097e+001
 1.798210452068427e+000	 8.024443946161963e-002	 1.329879930998977e+001
 1.797414075196582e+000	 9.645020619240008e-002	 1.330091904959389e+001
 1.796468132279973e+000	 1.127042576298405e-001	 1.329880609927611e+001
 1.795371204426202e+000	 1.290047995152836e-001	 1.329236958402927e+001
 1.794121895962475e+000	 1.453499996679842e-001	 1.328151529863530e+001
 1.792718835495921e+000	 1.617379882019268e-001	 1.326614559873182e+001
 1.825000000000000e+000	 0.000000000000000e+000	 1.317996247530902e+001
 1.824928450620559e+000	 1.616013970864808e-002	 1.319689583646773e+001
 1.824712766823750e+000	 3.237774836898728e-002	 1.321015819175419e+001
 1.824351408203147e+000	 4.865120126993620e-002	 1.321967430132103e+001
 1.823842852618854e+000	 6.497883460961976e-002	 1.322536593785729e+001
 1.823185597236464e+000	 8.135894556480529e-002	 1.322715175652337e+001
 1.822378159574919e+000	 9.778979238920375e-002	 1.322494716619977e+001
 1.821419078562467e+000	 1.142695945412647e-001	 1.321866420249787e+001
 1.820306915599873e+000	 1.307965328420725e-001	 1.320821140299819e+001
 1.819040255629999e+000	 1.473687496639279e-001	 1.319349368519679e+001
 1.817617708212850e+000	 1.639843491501772e-001	 1.317441222765547e+001
 1.850000000000000e+000	 0.000000000000000e+000	 1.314340352280005e+001
 1.849927470492090e+000	 1.638151148524551e-002	 1.315477719708161e+001
 1.849708832122770e+000	 3.282127916816741e-002	 1.316263965752926e+001
 1.849342523384160e+000	 4.931765608136893e-002	 1.316691672408789e+001
 1.848827001285130e+000	 6.586895563116930e-002	 1.316753098814814e+001
 1.848160742404501e+000	 8.247345166799097e-002	 1.316440167150300e+001
 1.847342243953256e+000	 9.912937858600747e-002	 1.315744448666853e+001
 1.846370024844962e+000	 1.158349314526890e-001	 1.314657149904387e+001
 1.845242626773545e+000	 1.325882661688614e-001	 1.313169099140283e+001
 1.843958615297522e+000	 1.493874996598717e-001	 1.311270733122620e+001
 1.842516580929779e+000	 1.662307100984275e-001	 1.308952084139909e+001
 1.875000000000000e+000	 0.000000000000000e+000	 1.311769625214798e+001
 1.874926490363621e+000	 1.660288326184293e-002	 1.312304897862985e+001
 1.874704897421792e+000	 3.326480996734755e-002	 1.312505695955802e+001
 1.874333638565173e+000	 4.998411089280167e-002	 1.312364742794053e+001
 1.873811149951405e+000	 6.675907665271885e-002	 1.311874414428142e+001
 1.873135887572538e+000	 8.358795777117666e-002	 1.311026724404848e+001
 1.872306328331592e+000	 1.004689647828112e-001	 1.309813308654782e+001
 1.871320971127457e+000	 1.174002683641133e-001	 1.308225410570737e+001
 1.870178337947217e+000	 1.343799994956504e-001	 1.306253866328981e+001
 1.868876974965046e+000	 1.514062496558155e-001	 1.303889090507279e+001
 1.867415453646707e+000	 1.684770710466778e-001	 1.301121062055113e+001
 1.900000000000000e+000	 0.000000000000000e+000	 1.292723155895009e+001
 1.899925510235152e+000	 1.682425503844034e-002	 1.293887030387223e+001
 1.899700962720813e+000	 3.370834076652769e-002	 1.294783330521783e+001
 1.899324753746186e+000	 5.065056570423442e-002	 1.295384720374289e+001
 1.898795298617681e+000	 6.764919767426841e-002	 1.295664476039162e+001
 1.898111032740575e+000	 8.470246387436235e-002	 1.295596528636522e+001
 1.897270412709929e+000	 1.018085509796149e-001	 1.295155506931756e+001
 1.896271917409951e+000	 1.189656052755375e-001	 1.294316779469340e+001
 1.895114049120888e+000	 1.361717328224394e-001	 1.293056496120713e+001
 1.893795334632570e+000	 1.534249996517592e-001	 1.291351628944635e+001
 1.892314326363635e+000	 1.707234319949282e-001	 1.289180012257201e+001
 1.925000000000000e+000	 0.000000000000000e+000	 1.274777540355160e+001
 1.924924530106683e+000	 1.704562681503777e-002	 1.276512576042097e+001
 1.924697028019834e+000	 3.415187156570781e-002	 1.277962717507347e+001
 1.924315868927199e+000	 5.131702051566717e-002	 1.279099699387581e+001
 1.923779447283957e+000	 6.853931869581796e-002	 1.279895899162473e+001
 1.923086177908611e+000	 8.581696997754799e-002	 1.280324381810843e+001
 1.922234497088266e+000	 1.031481371764186e-001	 1.280358944054320e+001
 1.921222863692445e+000	 1.205309421869617e-001	 1.279974158085988e+001
 1.920049760294560e+000	 1.379634661492283e-001	 1.279145414679670e+001
 1.918713694300094e+000	 1.554437496477030e-001	 1.277848965574104e+001
 1.917213199080564e+000	 1.729697929431785e-001	 1.276061965024960e+001
 1.950000000000000e+000	 0.000000000000000e+000	 1.257907303333134e+001
 1.949923549978213e+000	 1.726699859163519e-002	 1.260204484804656e+001
 1.949693093318855e+000	 3.459540236488794e-002	 1.262198211073775e+001
 1.949306984108212e+000	 5.198347532709990e-002	 1.263859287996280e+001
 1.948763595950232e+000	 6.942943971736749e-002	 1.265159196735345e+001
 1.948061323076648e+000	 8.693147608073369e-002	 1.266070140103515e+001
 1.947198581466602e+000	 1.044877233732223e-001	 1.266565088465263e+001
 1.946173809974940e+000	 1.220962790983860e-001	 1.266617825093364e+001
 1.944985471468231e+000	 1.397551994760172e-001	 1.266202990870479e+001
 1.943632053967617e+000	 1.574624996436468e-001	 1.265296128225872e+001
 1.942112071797492e+000	 1.752161538914288e-001	 1.263873724195890e+001
 1.975000000000000e+000	 0.000000000000000e+000	 1.242088259453498e+001
 1.974922569849744e+000	 1.748837036823261e-002	 1.244938855524489e+001
 1.974689158617876e+000	 3.503893316406807e-002	 1.247466169505021e+001
 1.974298099289225e+000	 5.264993013853264e-002	 1.249640078894091e+001
 1.973747744616508e+000	 7.031956073891704e-002	 1.251431170624735e+001
 1.973036468244684e+000	 8.804598218391936e-002	 1.252810789129105e+001
 1.972162665844939e+000	 1.058273095700260e-001	 1.253751083935393e+001
 1.971124756257434e+000	 1.236616160098102e-001	 1.254225056685467e+001
 1.969921182641903e+000	 1.415469328028062e-001	 1.254206607460251e+001
 1.968550413635141e+000	 1.594812496395905e-001	 1.253670580298311e+001
 1.967010944514421e+000	 1.774625148396792e-001	 1.252592807791818e+001
 2.000000000000000e+000	 0.000000000000000e+000	 1.227297432609594e+001
 1.999921589721275e+000	 1.770974214483003e-002	 1.230692957160264e+001
 1.999685223916896e+000	 3.548246396324820e-002	 1.233744081959787e+001
 1.999289214470237e+000	 5.331638494996539e-002	 1.236419756354464e+001
 1.998731893282784e+000	 7.120968176046658e-002	 1.238689674935912e+001
 1.998011613412721e+000	 8.916048828710503e-002	 1.240524327367154e+001
 1.997126750223276e+000	 1.071668957668297e-001	 1.241895047710005e+001
 1.996075702539929e+000	 1.252269529212345e-001	 1.242774063138157e+001
 1.994856893815574e+000	 1.433386661295951e-001	 1.243134541918463e+001
 1.993468773302665e+000	 1.614999996355343e-001	 1.242950640541291e+001
 1.991909817231349e+000	 1.797088757879295e-001	 1.242197549879541e+001
 1.742921090062065e+000	 1.572452663054261e-001	 1.347123921693823e+001
 1.741406213725087e+000	 1.732177783889446e-001	 1.351040159888085e+001
 1.739739264638117e+000	 1.892281454215079e-001	 1.354431087148260e+001
 1.737918986542895e+000	 2.052744410566007e-001	 1.357282525311260e+001
 1.735944150944025e+000	 2.213547034424477e-001	 1.359579946966397e+001
 1.733813558151911e+000	 2.374669355897513e-001	 1.361308471284041e+001
 1.731526038325072e+000	 2.536091057720335e-001	 1.362452860480316e+001
 1.729080452510761e+000	 2.697791479589110e-001	 1.362997516963256e+001
 1.726475693682788e+000	 2.859749622825957e-001	 1.362926481205931e+001
 1.723710687775429e+000	 3.021944155378737e-001	 1.362223430392023e+001
 1.720784394712270e+000	 3.184353417157770e-001	 1.360871677879104e+001
 1.767819962778993e+000	 1.594916272536765e-001	 1.336499314045188e+001
 1.766283445351817e+000	 1.756923180816826e-001	 1.340006960480122e+001
 1.764592682706737e+000	 1.919314046435942e-001	 1.343025363258029e+001
 1.762746400638945e+000	 2.082069330736586e-001	 1.345540878463838e+001
 1.760743353103111e+000	 2.245169134936453e-001	 1.347539476124928e+001
 1.758582323271217e+000	 2.408593203858371e-001	 1.349006734416216e+001
 1.756262124589759e+000	 2.572320929990908e-001	 1.349927834521522e+001
 1.753781601835235e+000	 2.736331357883018e-001	 1.350287556200520e+001
 1.751139632166796e+000	 2.900603188875701e-001	 1.350070274110792e+001
 1.748335126174922e+000	 3.065114786173200e-001	 1.349259954934538e+001
 1.745367028924961e+000	 3.229844180255974e-001	 1.347840155359296e+001
 1.792718835495921e+000	 1.617379882019268e-001	 1.326614559873182e+001
 1.791160676978547e+000	 1.781668577744254e-001	 1.329707383460629e+001
 1.789446100775357e+000	 1.946346638656997e-001	 1.332347444055910e+001
 1.787573814734996e+000	 2.111394250907598e-001	 1.334521643682163e+001
 1.785542555262198e+000	 2.276791235449204e-001	 1.336216460764728e+001
 1.783351088390523e+000	 2.442517051820443e-001	 1.337417942674543e+001
 1.780998210854445e+000	 2.608550802263231e-001	 1.338111698948405e+001
 1.778482751159709e+000	 2.774871236179320e-001	 1.338282895239444e+001
 1.775803570650804e+000	 2.941456754928579e-001	 1.337916248051418e+001
 1.772959564574414e+000	 3.108285416971641e-001	 1.336996020310543e+001
 1.769949663137651e+000	 3.275334943359103e-001	 1.335506017828425e+001
 1.817617708212850e+000	 1.639843491501772e-001	 1.317441222765547e+001
 1.816037908605277e+000	 1.806413974671730e-001	 1.320112206573574e+001
 1.814299518843977e+000	 1.973379230878244e-001	 1.322367359373800e+001
 1.812401228831046e+000	 2.140719171079046e-001	 1.324194141563646e+001
 1.810341757421285e+000	 2.308413335962729e-001	 1.325579551652257e+001
 1.808119853509829e+000	 2.476440899783728e-001	 1.326510117102877e+001
 1.805734297119132e+000	 2.644780674537310e-001	 1.326971885873078e+001
 1.803183900484183e+000	 2.813411114478014e-001	 1.326950418710309e+001
 1.800467509134813e+000	 2.982310320984592e-001	 1.326430782260590e+001
 1.797584002973906e+000	 3.151456047774062e-001	 1.325397543048276e+001
 1.794532297350343e+000	 3.320825706467159e-001	 1.323834762384848e+001
 1.842516580929779e+000	 1.662307100984275e-001	 1.308952084139909e+001
 1.840915140232007e+000	 1.831159371599254e-001	 1.311193440670376e+001
 1.839152936912596e+000	 2.000411823099683e-001	 1.313056386341091e+001
 1.837228642927095e+000	 2.170044091250926e-001	 1.314528953089373e+001
 1.835140959580371e+000	 2.340035436477027e-001	 1.315598671903985e+001
 1.832888618629136e+000	 2.510364747748227e-001	 1.316252561925995e+001
 1.830470383383819e+000	 2.681010546813139e-001	 1.316477120268899e+001
 1.827885049808657e+000	 2.851950992779101e-001	 1.316258312619657e+001
 1.825131447618820e+000	 3.023163887043739e-001	 1.315581564682766e+001
 1.822208441373398e+000	 3.194626678580461e-001	 1.314431754529687e+001
 1.819114931563034e+000	 3.366316469580142e-001	 1.312793205915986e+001
 1.867415453646707e+000	 1.684770710466778e-001	 1.301121062055113e+001
 1.865792371858737e+000	 1.855904768526825e-001	 1.302924247502738e+001
 1.864006354981215e+000	 2.027444415321315e-001	 1.304386966231502e+001
 1.862056057023146e+000	 2.199369011423241e-001	 1.305497835598527e+001
 1.859940161739458e+000	 2.371657536992100e-001	 1.306244932163054e+001
 1.857657383748442e+000	 2.544288595713938e-001	 1.306615779004197e+001
 1.855206469648505e+000	 2.717240419090722e-001	 1.306597333779726e+001
 1.852586199133131e+000	 2.890490871082580e-001	 1.306175977591864e+001
 1.849795386102828e+000	 3.064017453106019e-001	 1.305337504726636e+001
 1.846832879772890e+000	 3.237797309390840e-001	 1.304067113333528e+001
 1.843697565775724e+000	 3.411807232698052e-001	 1.302349397112385e+001
 1.892314326363635e+000	 1.707234319949282e-001	 1.289180012257201e+001
 1.890669603485467e+000	 1.880650165454445e-001	 1.291527784808535e+001
 1.888859773049835e+000	 2.054477007543139e-001	 1.293472067257957e+001
 1.886883471119196e+000	 2.228693931595989e-001	 1.294994259824008e+001
 1.884739363898545e+000	 2.403279637507947e-001	 1.296076717075026e+001
 1.882426148867748e+000	 2.578212443680862e-001	 1.296702780392557e+001
 1.879942555913192e+000	 2.753470291370056e-001	 1.296856809033986e+001
 1.877287348457605e+000	 2.929030749388451e-001	 1.296524209695174e+001
 1.874459324586836e+000	 3.104871019171435e-001	 1.295668652905637e+001
 1.871457318172382e+000	 3.280967940205197e-001	 1.294273224498721e+001
 1.868280199988416e+000	 3.457297995820888e-001	 1.292472535428036e+001
 1.917213199080564e+000	 1.729697929431785e-001	 1.276061965024960e+001
 1.915546835112197e+000	 1.905395562382112e-001	 1.278819483319182e+001
 1.913713191118454e+000	 2.081509599765155e-001	 1.281168694293155e+001
 1.911710885215246e+000	 2.258018851769172e-001	 1.283091155415424e+001
 1.909538566057632e+000	 2.434901738024567e-001	 1.284569419750260e+001
 1.907194913987054e+000	 2.612136291649000e-001	 1.285587068846579e+001
 1.904678642177879e+000	 2.789700163651143e-001	 1.286128744146144e+001
 1.901988497782079e+000	 2.967570627696715e-001	 1.286180176808590e+001
 1.899123263070844e+000	 3.145724585239985e-001	 1.285728215852316e+001
 1.896081756571874e+000	 3.324138571023532e-001	 1.284760854512130e+001
 1.892862834201107e+000	 3.502788758948651e-001	 1.283267254716850e+001
 1.942112071797492e+000	 1.752161538914288e-001	 1.263873724195890e+001
 1.940424066738927e+000	 1.930140959309828e-001	 1.267045856579486e+001
 1.938566609187074e+000	 2.108542191987363e-001	 1.269803283619954e+001
 1.936538299311297e+000	 2.287343771942789e-001	 1.272127724112818e+001
 1.934337768216718e+000	 2.466523838541962e-001	 1.274001935636034e+001
 1.931963679106360e+000	 2.646060139618350e-001	 1.275409747889657e+001
 1.929414728442565e+000	 2.825930035933981e-001	 1.276336094472092e+001
 1.926689647106553e+000	 3.006110506007372e-001	 1.276767042987111e+001
 1.923787201554853e+000	 3.186578151311669e-001	 1.276689823377485e+001
 1.920706194971366e+000	 3.367309201845847e-001	 1.276092854383050e+001
 1.917445468413798e+000	 3.548279522081341e-001	 1.274965768023489e+001
 1.967010944514421e+000	 1.774625148396792e-001	 1.252592807791818e+001
 1.965301298365657e+000	 1.954886356237591e-001	 1.256183461518506e+001
 1.963420027255694e+000	 2.135574784209764e-001	 1.259351421118117e+001
 1.961365713407346e+000	 2.316668692116840e-001	 1.262078571351164e+001
 1.959136970375805e+000	 2.498145939060130e-001	 1.264347880914711e+001
 1.956732444225666e+000	 2.679983987588914e-001	 1.266143436257992e+001
 1.954150814707252e+000	 2.862159908218573e-001	 1.267450473749086e+001
 1.951390796431027e+000	 3.044650384320420e-001	 1.268255410083387e+001
 1.948451140038860e+000	 3.227431717386488e-001	 1.268545870826349e+001
 1.945330633370858e+000	 3.410479832672140e-001	 1.268310716985207e+001
 1.942028102626488e+000	 3.593770285218957e-001	 1.267540069506883e+001
 1.991909817231349e+000	 1.797088757879295e-001	 1.242197549879541e+001
 1.990178529992387e+000	 1.979631753165402e-001	 1.246209681347481e+001
 1.988273445324313e+000	 2.162607376432357e-001	 1.249789528458074e+001
 1.986193127503396e+000	 2.345993612291324e-001	 1.252919147124906e+001
 1.983936172534892e+000	 2.529768039579072e-001	 1.255581724346542e+001
 1.981501209344972e+000	 2.713907835560691e-001	 1.257761612523262e+001
 1.978886900971938e+000	 2.898389780504918e-001	 1.259444362036468e+001
 1.976091945755501e+000	 3.083190262635862e-001	 1.260616751977899e+001
 1.973115078522868e+000	 3.268285283464439e-001	 1.261266818917733e+001
 1.969955071770350e+000	 3.453650463502412e-001	 1.261383883602935e+001
 1.966610736839180e+000	 3.639261048361500e-001	 1.260958575479966e+001
 1.720784394712270e+000	 3.184353417157770e-001	 1.360871677879104e+001
 1.717695809428702e+000	 3.346955425703510e-001	 1.364987942544035e+001
 1.714443962887209e+000	 3.509727882210215e-001	 1.368525219935503e+001
 1.711027923084025e+000	 3.672648177889562e-001	 1.371463264116909e+001
 1.707446796045747e+000	 3.835693400660090e-001	 1.373781348942577e+001
 1.703699726814957e+000	 3.998840342185866e-001	 1.375458272128577e+001
 1.699785900423492e+000	 4.162065505255865e-001	 1.376472360542333e+001
 1.695704542852120e+000	 4.325345111503018e-001	 1.376801476753321e+001
 1.691454921975343e+000	 4.488655109461448e-001	 1.376423026885242e+001
 1.687036348490034e+000	 4.651971182959880e-001	 1.375313969807983e+001
 1.682448176826651e+000	 4.815268759848673e-001	 1.373450827705321e+001
 1.745367028924961e+000	 3.229844180255974e-001	 1.347840155359296e+001
 1.742234320994296e+000	 3.394769074630900e-001	 1.351798777338932e+001
 1.738936019502071e+000	 3.559866851939452e-001	 1.355196821975266e+001
 1.735471179130182e+000	 3.725114580410630e-001	 1.358014200121380e+001
 1.731838893134178e+000	 3.890489020647538e-001	 1.360230309682533e+001
 1.728038294342964e+000	 4.055966632766609e-001	 1.361824038733854e+001
 1.724068556145973e+000	 4.221523583882385e-001	 1.362773769900795e+001
 1.719928893466559e+000	 4.387135755936855e-001	 1.363057386047968e+001
 1.715618563720287e+000	 4.552778753871785e-001	 1.362652277320089e+001
 1.711136867756843e+000	 4.718427914142040e-001	 1.361535349576584e+001
 1.706483150784262e+000	 4.884058313567285e-001	 1.359683034259057e+001
 1.769949663137651e+000	 3.275334943359103e-001	 1.335506017828425e+001
 1.766772832559885e+000	 3.442582723564071e-001	 1.339317757357316e+001
 1.763428076116914e+000	 3.610005821675034e-001	 1.342588437328354e+001
 1.759914435176295e+000	 3.777580982938316e-001	 1.345298127979759e+001
 1.756230990222532e+000	 3.945284640641585e-001	 1.347426352418998e+001
 1.752376861870848e+000	 4.113092923353629e-001	 1.348952088751972e+001
 1.748351211868279e+000	 4.280981662514561e-001	 1.349853773520650e+001
 1.744153244080758e+000	 4.448926400375424e-001	 1.350109306498225e+001
 1.739782205464916e+000	 4.616902398285626e-001	 1.349696056888919e+001
 1.735237387023252e+000	 4.784884645326170e-001	 1.348590870977409e+001
 1.730518124741380e+000	 4.952847867286022e-001	 1.346770081270383e+001
 1.794532297350343e+000	 3.320825706467159e-001	 1.323834762384848e+001
 1.791311344125469e+000	 3.490396372503026e-001	 1.327509493400751e+001
 1.787920132731737e+000	 3.660144791416965e-001	 1.330663809582467e+001
 1.784357691222366e+000	 3.830047385472624e-001	 1.333277943648905e+001
 1.780623087310808e+000	 4.000080260642229e-001	 1.335331545544615e+001
 1.776715429398611e+000	 4.170219213946925e-001	 1.336803683544320e+001
 1.772633867590407e+000	 4.340439741152393e-001	 1.337672846713252e+001
 1.768377594694717e+000	 4.510717044818725e-001	 1.337916948775992e+001
 1.763945847209231e+000	 4.681026042702974e-001	 1.337513333444489e+001
 1.759337906289263e+000	 4.851341376512272e-001	 1.336438781253704e+001
 1.754553098698004e+000	 5.021637421004885e-001	 1.334669517950876e+001
 1.819114931563034e+000	 3.366316469580142e-001	 1.312793205915986e+001
 1.815849855691049e+000	 3.538210021447762e-001	 1.316339947380886e+001
 1.812412189346542e+000	 3.710283761165244e-001	 1.319388064890634e+001
 1.808800947268392e+000	 3.882513788013551e-001	 1.321917957228420e+001
 1.805015184399005e+000	 4.054875880649471e-001	 1.323909403282138e+001
 1.801053996926252e+000	 4.227345504546500e-001	 1.325341562087232e+001
 1.796916523312362e+000	 4.399897819795882e-001	 1.326192974274488e+001
 1.792601945308435e+000	 4.572507689266762e-001	 1.326441564979156e+001
 1.788109488953231e+000	 4.745149687123825e-001	 1.326064648265744e+001
 1.783438425554874e+000	 4.917798107700342e-001	 1.325038933120558e+001
 1.778588072654134e+000	 5.090426974723874e-001	 1.323340531061543e+001
 1.843697565775724e+000	 3.411807232698052e-001	 1.302349397112385e+001
 1.840388367256623e+000	 3.586023670398280e-001	 1.305776342245461e+001
 1.836904245961327e+000	 3.760422730919869e-001	 1.308727619800185e+001
 1.833244203314375e+000	 3.934980190561098e-001	 1.311183798684479e+001
 1.829407281487125e+000	 4.109671500663311e-001	 1.313124789295763e+001
 1.825392564453771e+000	 4.284471795152351e-001	 1.314529842464314e+001
 1.821199179034139e+000	 4.459355898445028e-001	 1.315377549852477e+001
 1.816826295921914e+000	 4.634298333719529e-001	 1.315645845869864e+001
 1.812273130696917e+000	 4.809273331548182e-001	 1.315312011162751e+001
 1.807538944820087e+000	 4.984254838890382e-001	 1.314352677733442e+001
 1.802623046609771e+000	 5.159216528442988e-001	 1.312743835742854e+001
 1.868280199988416e+000	 3.457297995820888e-001	 1.292472535428036e+001
 1.864926878822192e+000	 3.633837319354581e-001	 1.295787079015399e+001
 1.861396302576093e+000	 3.810561700680843e-001	 1.298650096358395e+001
 1.857687459360314e+000	 3.987446593115266e-001	 1.301042331016497e+001
 1.853799378575168e+000	 4.164467120683748e-001	 1.302943827912078e+001
 1.849731131981168e+000	 4.341598085764479e-001	 1.304333931135712e+001
 1.845481834755741e+000	 4.518813977099830e-001	 1.305191283259922e+001
 1.841050646535152e+000	 4.696088978177032e-001	 1.305493826225553e+001
 1.836436772440289e+000	 4.873396975976045e-001	 1.305218803862798e+001
 1.831639464084901e+000	 5.050711570082392e-001	 1.304342766106601e+001
 1.826658020564913e+000	 5.228006082162227e-001	 1.302841574963456e+001
 1.892862834201107e+000	 3.502788758948651e-001	 1.283267254716850e+001
 1.889465390387757e+000	 3.681650968316664e-001	 1.286712469493316e+001
 1.885888359190838e+000	 3.860700670448166e-001	 1.289581538476009e+001
 1.882130715406210e+000	 4.039912995676054e-001	 1.291865203151841e+001
 1.878191475663132e+000	 4.219262740710784e-001	 1.293555452962752e+001
 1.874069699508443e+000	 4.398724376382885e-001	 1.294720439277285e+001
 1.869764490477167e+000	 4.578272055760289e-001	 1.295600115008879e+001
 1.865274997148151e+000	 4.757879622639268e-001	 1.295950797565229e+001
 1.860600414183345e+000	 4.937520620407412e-001	 1.295749690924854e+001
 1.855739983349315e+000	 5.117168301276374e-001	 1.294973258213134e+001
 1.850692994519563e+000	 5.296795635881593e-001	 1.293597226804064e+001
 1.917445468413798e+000	 3.548279522081341e-001	 1.274965768023489e+001
 1.914003901953317e+000	 3.729464617284529e-001	 1.278722287786959e+001
 1.910380415805565e+000	 3.910839640221834e-001	 1.281882520913358e+001
 1.906573971452062e+000	 4.092379398243463e-001	 1.284437871327414e+001
 1.902583572751019e+000	 4.274058360744416e-001	 1.286381051178170e+001
 1.898408267035597e+000	 4.455850667007569e-001	 1.287706096055760e+001
 1.894047146198417e+000	 4.637730134426403e-001	 1.288408377718093e+001
 1.889499347760909e+000	 4.819670267106236e-001	 1.288484614252768e+001
 1.884764055926089e+000	 5.001644264842287e-001	 1.287932877605010e+001
 1.879840502613331e+000	 5.183625032472324e-001	 1.286752598408224e+001
 1.874727968473718e+000	 5.365585189601085e-001	 1.284975518873341e+001
 1.942028102626488e+000	 3.593770285218957e-001	 1.267540069506883e+001
 1.938542413518873e+000	 3.777278266258178e-001	 1.271605715417528e+001
 1.934872472420273e+000	 3.960978610001851e-001	 1.275053944150044e+001
 1.931017227497870e+000	 4.144845800817491e-001	 1.277876847043266e+001
 1.926975669838828e+000	 4.328853980784645e-001	 1.280067885735781e+001
 1.922746834562629e+000	 4.512976957638528e-001	 1.281621907112736e+001
 1.918329801919492e+000	 4.697188213098174e-001	 1.282535155634705e+001
 1.913723698373428e+000	 4.881460911577938e-001	 1.282805282971730e+001
 1.908927697668517e+000	 5.065767909280664e-001	 1.282431354871428e+001
 1.903941021876948e+000	 5.250081763670245e-001	 1.281413855196107e+001
 1.898762942427380e+000	 5.434374743320701e-001	 1.279754687070429e+001
 1.966610736839180e+000	 3.639261048361500e-001	 1.260958575479966e+001
 1.963080925084422e+000	 3.825091915237607e-001	 1.265329787495095e+001
 1.959364529034961e+000	 4.011117579788214e-001	 1.269061440714228e+001
 1.955460483543635e+000	 4.197312203398140e-001	 1.272146339682258e+001
 1.951367766926559e+000	 4.383649600831472e-001	 1.274578723159984e+001
 1.947085402089539e+000	 4.570103248275765e-001	 1.276354278788441e+001
 1.942612457640390e+000	 4.756646291775601e-001	 1.277470155003806e+001
 1.937948048985706e+000	 4.943251556054372e-001	 1.277924970123709e+001
 1.933091339410632e+000	 5.129891553722545e-001	 1.277718818531888e+001
 1.928041541140166e+000	 5.316538494870133e-001	 1.276853273894498e+001
 1.922797916380548e+000	 5.503164297040443e-001	 1.275331389348267e+001
 1.682448176826651e+000	 4.815268759848673e-001	 1.373450827705321e+001
 1.677689806041381e+000	 4.978523021060258e-001	 1.377858460937762e+001
 1.672760680688981e+000	 5.141708909989885e-001	 1.381507761547338e+001
 1.667660291674265e+000	 5.304801142200816e-001	 1.384369768755147e+001
 1.662388177080357e+000	 5.467774215453338e-001	 1.386415045472577e+001
 1.656943922973434e+000	 5.630602420043449e-001	 1.387613698529439e+001
 1.651327164182347e+000	 5.793259849448744e-001	 1.387935400588721e+001
 1.645537585051869e+000	 5.955720411275246e-001	 1.387349413761050e+001
 1.639574920168338e+000	 6.117957838498270e-001	 1.385824614927612e+001
 1.633438955056451e+000	 6.279945700989932e-001	 1.383259287165812e+001
 1.627129526846032e+000	 6.441657417325339e-001	 1.379394739953016e+001
 1.706483150784262e+000	 4.884058313567285e-001	 1.359683034259057e+001
 1.701656803273777e+000	 5.049644778520136e-001	 1.363985031188584e+001
 1.696657261845163e+000	 5.215161894442626e-001	 1.367582677745942e+001
 1.691484010130446e+000	 5.380584015691765e-001	 1.370447799414433e+001
 1.686136579613939e+000	 5.545885275710122e-001	 1.372551686107327e+001
 1.680614550448477e+000	 5.711039597512186e-001	 1.373865110723702e+001
 1.674917552246178e+000	 5.876020704482375e-001	 1.374358349468585e+001
 1.669045264842459e+000	 6.040802131478213e-001	 1.374001203955100e+001
 1.662997419032029e+000	 6.205357236231791e-001	 1.372763025101952e+001
 1.656773797275656e+000	 6.369659211041964e-001	 1.370049257612445e+001
 1.650374234376445e+000	 6.533681094749184e-001	 1.366178012450675e+001
 1.730518124741380e+000	 4.952847867286022e-001	 1.346770081270383e+001
 1.725623800505588e+000	 5.120766535978284e-001	 1.351026119701391e+001
 1.720553843000689e+000	 5.288614878892073e-001	 1.354631957295131e+001
 1.715307728585921e+000	 5.456366889178151e-001	 1.357560169786092e+001
 1.709884982146783e+000	 5.623996335961364e-001	 1.359782736667783e+001
 1.704285177922769e+000	 5.791476774974711e-001	 1.361271058086293e+001
 1.698507940309269e+000	 5.958781559509419e-001	 1.361995973578612e+001
 1.692552944632335e+000	 6.125883851674518e-001	 1.361927782678125e+001
 1.686419917895057e+000	 6.292756633958879e-001	 1.360744174913391e+001
 1.680108639494266e+000	 6.459372721088098e-001	 1.357828243829838e+001
 1.673618941906352e+000	 6.625704772167977e-001	 1.353998175838336e+001
 1.754553098698004e+000	 5.021637421004885e-001	 1.334669517950876e+001
 1.749590797736816e+000	 5.191888293434703e-001	 1.338937042943712e+001
 1.744450424155561e+000	 5.362067863338228e-001	 1.342608744057452e+001
 1.739131447040690e+000	 5.532149762659974e-001	 1.345657912504509e+001
 1.733633384678889e+000	 5.702107396207068e-001	 1.348057181138772e+001
 1.727955805396312e+000	 5.871913952431019e-001	 1.349778539695332e+001
 1.722098328371618e+000	 6.041542414529869e-001	 1.350793351958263e+001
 1.716060624421499e+000	 6.210965571864153e-001	 1.351072374883654e+001
 1.709842416757420e+000	 6.380156031679536e-001	 1.349422842985874e+001
 1.703443481712282e+000	 6.549086231128335e-001	 1.346559554004818e+001
 1.696863649435754e+000	 6.717728449581719e-001	 1.342816867627802e+001
 1.778588072654134e+000	 5.090426974723874e-001	 1.323340531061543e+001
 1.773557794967459e+000	 5.263010050889394e-001	 1.327674871224918e+001
 1.768347005309778e+000	 5.435520847781091e-001	 1.331468050040006e+001
 1.762955165494752e+000	 5.607932636137233e-001	 1.334694040596982e+001
 1.757381787210257e+000	 5.780218456447235e-001	 1.337326094027866e+001
 1.751626432869105e+000	 5.952351129881115e-001	 1.339336753099400e+001
 1.745688716433225e+000	 6.124303269543728e-001	 1.340697867820101e+001
 1.739568304209950e+000	 6.296047292047129e-001	 1.340893875667204e+001
 1.733264915619120e+000	 6.467555429393755e-001	 1.338973611875757e+001
 1.726778323929701e+000	 6.638799741162677e-001	 1.336209103515848e+001
 1.720108356964651e+000	 6.809752126990409e-001	 1.332598428629962e+001
 1.802623046609771e+000	 5.159216528442988e-001	 1.312743835742854e+001
 1.797524792197518e+000	 5.334131808342354e-001	 1.317198311773424e+001
 1.792243586463340e+000	 5.508973832220659e-001	 1.321166630851478e+001
 1.786778883948108e+000	 5.683715509609929e-001	 1.324623415457518e+001
 1.781130189740887e+000	 5.858329516681863e-001	 1.327542500997198e+001
 1.775297060341149e+000	 6.032788307324996e-001	 1.329896947752844e+001
 1.769279104494092e+000	 6.207064124550999e-001	 1.331659054938252e+001
 1.763075983997688e+000	 6.381129012223440e-001	 1.331173832793164e+001
 1.756687414480155e+000	 6.554954827101543e-001	 1.329366344856063e+001
 1.750113166146527e+000	 6.728513251191122e-001	 1.326745241120270e+001
 1.743353064493043e+000	 6.901775804394048e-001	 1.323309722734853e+001
 1.826658020564913e+000	 5.228006082162227e-001	 1.302841574963456e+001
 1.821491789426993e+000	 5.405253565793585e-001	 1.307467601044653e+001
 1.816140167616247e+000	 5.582426816656935e-001	 1.311662870991502e+001
 1.810602602400759e+000	 5.759498383078062e-001	 1.315402625243770e+001
 1.804878592270780e+000	 5.936440576910959e-001	 1.318661250498022e+001
 1.798967687812444e+000	 6.113225484762662e-001	 1.321412290021970e+001
 1.792869492554218e+000	 6.289824979551683e-001	 1.323089434099360e+001
 1.786583663784714e+000	 6.466210732393084e-001	 1.322223182677326e+001
 1.780109913340527e+000	 6.642354224802897e-001	 1.320573092518439e+001
 1.773448008362758e+000	 6.818226761213670e-001	 1.318138588863579e+001
 1.766597772020930e+000	 6.993799481792635e-001	 1.314919970919607e+001
 1.850692994519563e+000	 5.296795635881593e-001	 1.293597226804064e+001
 1.845458786655884e+000	 5.476375323243089e-001	 1.298444405420571e+001
 1.840036748768498e+000	 5.655879801089916e-001	 1.302916678078522e+001
 1.834426320852702e+000	 5.835281256541628e-001	 1.306989872749514e+001
 1.828626994799934e+000	 6.014551637134510e-001	 1.310638895407788e+001
 1.822638315282989e+000	 6.193662662194115e-001	 1.313837738710247e+001
 1.816459880613602e+000	 6.372585834545771e-001	 1.314709730629477e+001
 1.810091343571026e+000	 6.551292452556065e-001	 1.314017393993995e+001
 1.803532412200234e+000	 6.729753622497818e-001	 1.312567950739487e+001
 1.796782850578393e+000	 6.907940271230321e-001	 1.310361894463315e+001
 1.789842479548311e+000	 7.085823159186171e-001	 1.307400598190855e+001
 1.874727968473718e+000	 5.365585189601085e-001	 1.284975518873341e+001
 1.869425783884192e+000	 5.547497080690862e-001	 1.290091729547731e+001
 1.863933329920095e+000	 5.729332785519605e-001	 1.294889385213970e+001
 1.858250039303940e+000	 5.911064130000635e-001	 1.299344871902339e+001
 1.852375397328351e+000	 6.092662697352526e-001	 1.303433583772054e+001
 1.846308942752784e+000	 6.274099839619353e-001	 1.306751607360506e+001
 1.840050268672245e+000	 6.455346689533268e-001	 1.307008886436840e+001
 1.833599023356627e+000	 6.636374172712384e-001	 1.306533772506464e+001
 1.826954911059277e+000	 6.817153020186303e-001	 1.305326929572752e+001
 1.820117692793435e+000	 6.997653781241078e-001	 1.303389895048033e+001
 1.813087187075188e+000	 7.177846836574655e-001	 1.300725092300782e+001
 1.898762942427380e+000	 5.434374743320701e-001	 1.279754687070429e+001
 1.893392781111915e+000	 5.618618838136904e-001	 1.284534236869800e+001
 1.887829911071037e+000	 5.802785769946003e-001	 1.289014925595304e+001
 1.882073757754471e+000	 5.986847003455079e-001	 1.293206836766660e+001
 1.876123799856030e+000	 6.170773757565005e-001	 1.297121187146946e+001
 1.869979570221829e+000	 6.354537017038378e-001	 1.299473637927299e+001
 1.863640656730146e+000	 6.538107544514179e-001	 1.299967171930603e+001
 1.857106703141514e+000	 6.721455892862038e-001	 1.299751344795552e+001
 1.850377409917658e+000	 6.904552417868358e-001	 1.298827832098277e+001
 1.843452535007881e+000	 7.087367291245936e-001	 1.297199191245213e+001
 1.836331894601559e+000	 7.269870513958089e-001	 1.294868873193617e+001
 1.922797916380548e+000	 5.503164297040443e-001	 1.275331389348267e+001
 1.917359778339054e+000	 5.689740595581219e-001	 1.280391194371765e+001
 1.911726492221324e+000	 5.876238754369104e-001	 1.285168621897640e+001
 1.905897476204296e+000	 6.062629876904956e-001	 1.289675897362148e+001
 1.899872202382971e+000	 6.248884817771944e-001	 1.293926417334315e+001
 1.893650197690125e+000	 6.434974194451185e-001	 1.294595992010730e+001
 1.887231044787306e+000	 6.620868399488497e-001	 1.294650506992630e+001
 1.880614382925689e+000	 6.806537613005026e-001	 1.294106376933905e+001
 1.873799908775373e+000	 6.991951815543976e-001	 1.293050142358457e+001
 1.866787377221732e+000	 7.177080801244898e-001	 1.291768130712581e+001
 1.859576602127425e+000	 7.361894191336469e-001	 1.289809172243622e+001
 1.627129526846032e+000	 6.441657417325339e-001	 1.379394739953016e+001
 1.620646524908150e+000	 6.603066266860092e-001	 1.381430215040401e+001
 1.613989891457657e+000	 6.764145402067768e-001	 1.382848572676363e+001
 1.607159622122281e+000	 6.924867861127355e-001	 1.383655829564862e+001
 1.600155766478270e+000	 7.085206580754376e-001	 1.383858708444745e+001
 1.592978428549761e+000	 7.245134409262326e-001	 1.383464639186045e+001
 1.585627767271441e+000	 7.404624119843859e-001	 1.382481758668882e+001
 1.578103996913506e+000	 7.563648424060113e-001	 1.380918909421216e+001
 1.570407387467962e+000	 7.722179985526131e-001	 1.378785636994369e+001
 1.562538264995355e+000	 7.880191433779775e-001	 1.376092186058144e+001
 1.554497011931069e+000	 8.037655378321177e-001	 1.372849495200373e+001
 1.650374234376445e+000	 6.533681094749184e-001	 1.366178012450675e+001
 1.643798618125084e+000	 6.697395784986904e-001	 1.368611105400136e+001
 1.637046889910957e+000	 6.860776050693965e-001	 1.370424005302931e+001
 1.630119045299332e+000	 7.023794544880486e-001	 1.371621643433274e+001
 1.623015134574688e+000	 7.186423817643655e-001	 1.372209663467392e+001
 1.615735263247221e+000	 7.348636329415729e-001	 1.372194423789109e+001
 1.608279592522115e+000	 7.510404464434979e-001	 1.371582998569340e+001
 1.600648339730568e+000	 7.671700544427713e-001	 1.370383177593261e+001
 1.592841778721614e+000	 7.832496842489193e-001	 1.368603464811818e+001
 1.584860240213809e+000	 7.992765597150682e-001	 1.366253075597016e+001
 1.576704112105899e+000	 8.152479026619461e-001	 1.363341932683501e+001
 1.673618941906352e+000	 6.625704772167977e-001	 1.353998175838336e+001
 1.666950711341602e+000	 6.791725303109569e-001	 1.356775955091600e+001
 1.660103888363913e+000	 6.957406699316719e-001	 1.358929845019869e+001
 1.653078468476089e+000	 7.122721228630686e-001	 1.360463716699006e+001
 1.645874502670843e+000	 7.287641054530314e-001	 1.361382161018106e+001
 1.638492097944430e+000	 7.452138249566624e-001	 1.361690492184483e+001
 1.630931417772530e+000	 7.616184809023511e-001	 1.361394749991921e+001
 1.623192682547341e+000	 7.779752664792435e-001	 1.360501700823622e+001
 1.615276169974930e+000	 7.942813699448884e-001	 1.359018837364133e+001
 1.607182215431857e+000	 8.105339760517526e-001	 1.356954376997316e+001
 1.598911212280233e+000	 8.267302674912782e-001	 1.354317258870598e+001
 1.696863649435754e+000	 6.717728449581719e-001	 1.342816867627802e+001
 1.690102804557706e+000	 6.886054821228079e-001	 1.345888843306891e+001
 1.683160886816524e+000	 7.054037347936031e-001	 1.348332607747468e+001
 1.676037891652553e+000	 7.221647912377959e-001	 1.350150995989040e+001
 1.668733870766737e+000	 7.388858291414352e-001	 1.351347571339840e+001
 1.661248932641389e+000	 7.555640169715016e-001	 1.351926630072225e+001
 1.653583243022685e+000	 7.721965153609446e-001	 1.351893204868848e+001
 1.645737025363827e+000	 7.887804785154277e-001	 1.351253066988666e+001
 1.637710561227908e+000	 8.053130556405206e-001	 1.350012727124643e+001
 1.629504190649500e+000	 8.217913923880303e-001	 1.348179434927893e+001
 1.621118312454071e+000	 8.382126323201146e-001	 1.345761177176139e+001
 1.720108356964651e+000	 6.809752126990409e-001	 1.332598428629962e+001
 1.713254897773396e+000	 6.980384339342446e-001	 1.335916425724841e+001
 1.706217885268792e+000	 7.150667996551905e-001	 1.338601258714766e+001
 1.698997314828725e+000	 7.320574596122298e-001	 1.340654749750980e+001
 1.691593238862369e+000	 7.490075528295773e-001	 1.342079458754095e+001
 1.684005767338098e+000	 7.659142089860902e-001	 1.342878689291801e+001
 1.676235068272581e+000	 7.827745498192793e-001	 1.343056493193026e+001
 1.668281368180025e+000	 7.995856905513239e-001	 1.342617673865177e+001
 1.660144952480551e+000	 8.163447413358161e-001	 1.341567788283898e+001
 1.651826165866736e+000	 8.330488087239021e-001	 1.339913147627750e+001
 1.643325412627414e+000	 8.496949971484549e-001	 1.337660816533349e+001
 1.743353064493043e+000	 6.901775804394048e-001	 1.323309722734853e+001
 1.736406990988670e+000	 7.074713857452664e-001	 1.326827762745242e+001
 1.729274883720716e+000	 7.247298645164334e-001	 1.329707049172301e+001
 1.721956738004603e+000	 7.419501279863703e-001	 1.331948413465008e+001
 1.714452606957739e+000	 7.591292765174578e-001	 1.333553435389016e+001
 1.706762602034556e+000	 7.762644010004286e-001	 1.334524450079457e+001
 1.698886893522218e+000	 7.933525842773548e-001	 1.334864553813994e+001
 1.690825710995935e+000	 8.103909025869324e-001	 1.334577608470335e+001
 1.682579343732855e+000	 8.273764270307743e-001	 1.333668244635189e+001
 1.674148141083565e+000	 8.443062250593675e-001	 1.332141863334713e+001
 1.665532512800260e+000	 8.611773619762990e-001	 1.330004636359613e+001
 1.766597772020930e+000	 6.993799481792635e-001	 1.314919970919607e+001
 1.759559084203529e+000	 7.169043375558731e-001	 1.318594161283515e+001
 1.752331882172295e+000	 7.343929293773324e-001	 1.321623365995957e+001
 1.744916161180188e+000	 7.518427963602180e-001	 1.324007447075945e+001
 1.737311975052847e+000	 7.692510002050763e-001	 1.325747026455276e+001
 1.729519436730763e+000	 7.866145930145163e-001	 1.326843494200014e+001
 1.721538718771596e+000	 8.039306187351714e-001	 1.327299015434200e+001
 1.713370053811557e+000	 8.211961146222525e-001	 1.327116535927476e+001
 1.705013734984823e+000	 8.384081127253954e-001	 1.326299786311214e+001
 1.696470116299988e+000	 8.555636413944264e-001	 1.324853284890764e+001
 1.687739612972610e+000	 8.726597268036471e-001	 1.322782339024636e+001
 1.789842479548311e+000	 7.085823159186171e-001	 1.307400598190855e+001
 1.782711177417973e+000	 7.263372893660650e-001	 1.311189028893077e+001
 1.775388880623530e+000	 7.440559942378869e-001	 1.314325593009998e+001
 1.767875584355480e+000	 7.617354647337727e-001	 1.316809203534518e+001
 1.760171343147694e+000	 7.793727238924330e-001	 1.318639546019930e+001
 1.752276271426720e+000	 7.969647850283536e-001	 1.319817087964490e+001
 1.744190544020715e+000	 8.145086531927284e-001	 1.320343086878292e+001
 1.735914396626891e+000	 8.320013266572851e-001	 1.320219596991666e+001
 1.727448126236454e+000	 8.494397984196800e-001	 1.319449474567226e+001
 1.718792091516004e+000	 8.668210577290790e-001	 1.318036381780732e+001
 1.709946713144463e+000	 8.841420916304991e-001	 1.315984789139244e+001
 1.813087187075188e+000	 7.177846836574655e-001	 1.300725092300782e+001
 1.805863270632003e+000	 7.357702411758422e-001	 1.304587739109059e+001
 1.798445879074421e+000	 7.537190590980976e-001	 1.307790982977557e+001
 1.790835007530479e+000	 7.716281331070343e-001	 1.310332807450820e+001
 1.783030711242278e+000	 7.894944475795277e-001	 1.312211982336143e+001
 1.775033106122427e+000	 8.073149770419402e-001	 1.313428074246368e+001
 1.766842369269574e+000	 8.250866876500262e-001	 1.313981455803228e+001
 1.758458739441937e+000	 8.428065386920296e-001	 1.313873313457923e+001
 1.749882517487748e+000	 8.604714841136272e-001	 1.313105653888566e+001
 1.741114066731615e+000	 8.780784740633254e-001	 1.311681308937238e+001
 1.732153813315821e+000	 8.956244564568551e-001	 1.309603939052745e+001
 1.836331894601559e+000	 7.269870513958089e-001	 1.294868873193617e+001
 1.829015363845618e+000	 7.452031929852042e-001	 1.298767507019079e+001
 1.821502877524968e+000	 7.633821239579639e-001	 1.301998539313360e+001
 1.813794430705185e+000	 7.815208014800026e-001	 1.304559042963974e+001
 1.805890079336601e+000	 7.996161712663606e-001	 1.306446891882037e+001
 1.797789940817883e+000	 8.176651690552764e-001	 1.307660772699165e+001
 1.789494194518175e+000	 8.356647221070653e-001	 1.308200195101307e+001
 1.781003082256695e+000	 8.536117507264862e-001	 1.308065500753627e+001
 1.772316908738705e+000	 8.715031698072376e-001	 1.307257870773563e+001
 1.763436041946819e+000	 8.893358903971655e-001	 1.305779331712357e+001
 1.754360913486683e+000	 9.071068212827148e-001	 1.303632760008728e+001
 1.859576602127425e+000	 7.361894191336469e-001	 1.289809172243622e+001
 1.852167457058817e+000	 7.546361447941515e-001	 1.293707274166223e+001
 1.844559875975171e+000	 7.730451888174859e-001	 1.296928906668010e+001
 1.836753853879596e+000	 7.914134698526777e-001	 1.299470250021571e+001
 1.828749447430661e+000	 8.097378949529318e-001	 1.301328301346635e+001
 1.820546775513088e+000	 8.280153610683620e-001	 1.302500887457676e+001
 1.812146019766516e+000	 8.462427565638450e-001	 1.302986676322948e+001
 1.803547425071165e+000	 8.644169627606547e-001	 1.302785187086494e+001
 1.794751299989325e+000	 8.825348555005110e-001	 1.301896798607729e+001
 1.785758017161617e+000	 9.005933067305992e-001	 1.300322756476393e+001
 1.776568013657048e+000	 9.185891861080785e-001	 1.298065178464161e+001
 1.554497011931069e+000	 8.037655378321177e-001	 1.372849495200373e+001
 1.546284067350165e+000	 8.194544422807419e-001	 1.372726045301609e+001
 1.537899927190630e+000	 8.350831179393493e-001	 1.371970714994341e+001
 1.529345144433827e+000	 8.506488283203390e-001	 1.370588568240304e+001
 1.520620329241138e+000	 8.661488406911884e-001	 1.368585369260116e+001
 1.511726149046811e+000	 8.815804275427317e-001	 1.365967579158307e+001
 1.502663328606235e+000	 8.969408680658606e-001	 1.362742351254114e+001
 1.493432649999157e+000	 9.122274496350907e-001	 1.358917525112726e+001
 1.484034952587419e+000	 9.274374692974090e-001	 1.354501619275142e+001
 1.474471132926831e+000	 9.425682352647938e-001	 1.349503822688208e+001
 1.464742144632903e+000	 9.576170684087775e-001	 1.343933984839961e+001
 1.576704112105899e+000	 8.152479026619461e-001	 1.363341932683501e+001
 1.568373839745379e+000	 8.311609343174989e-001	 1.363271183704648e+001
 1.559869926154992e+000	 8.470128767716022e-001	 1.362576505512760e+001
 1.551192932215838e+000	 8.628009544439740e-001	 1.361263995548107e+001
 1.542343476805889e+000	 8.785223955630552e-001	 1.359340466102625e+001
 1.533322236894168e+000	 8.941744336552632e-001	 1.356813439847221e+001
 1.524129947589711e+000	 9.097543090427868e-001	 1.353691144017771e+001
 1.514767402144833e+000	 9.252592703483490e-001	 1.349982503255989e+001
 1.505235451912260e+000	 9.406865760053215e-001	 1.345697131104838e+001
 1.495535006255741e+000	 9.560334957715677e-001	 1.340845320161751e+001
 1.485667032413862e+000	 9.712973122453554e-001	 1.335438030896662e+001
 1.598911212280233e+000	 8.267302674912782e-001	 1.354317258870598e+001
 1.590463612140005e+000	 8.428674263536746e-001	 1.354329562088849e+001
 1.581839925118697e+000	 8.589426356032174e-001	 1.353725107951502e+001
 1.573040719997142e+000	 8.749530805669458e-001	 1.352511019372472e+001
 1.564066624369902e+000	 8.908959504342628e-001	 1.350695149588678e+001
 1.554918324740777e+000	 9.067684397671688e-001	 1.348286076598618e+001
 1.545596566572447e+000	 9.225677500191508e-001	 1.345293096211113e+001
 1.536102154289799e+000	 9.382910910611387e-001	 1.341726213701717e+001
 1.526435951236438e+000	 9.539356827128893e-001	 1.337596134078016e+001
 1.516598879584058e+000	 9.694987562781512e-001	 1.332914250958789e+001
 1.506591920194319e+000	 9.849775560819279e-001	 1.327692634075818e+001
 1.621118312454071e+000	 8.382126323201146e-001	 1.345761177176139e+001
 1.612553384534045e+000	 8.545739183892687e-001	 1.345885602170075e+001
 1.603809924081746e+000	 8.708723944341963e-001	 1.345399665557101e+001
 1.594888507777738e+000	 8.871052066892542e-001	 1.344311508461819e+001
 1.585789771933177e+000	 9.032695053048107e-001	 1.342630018690479e+001
 1.576514412586634e+000	 9.193624458784484e-001	 1.340364824089209e+001
 1.567063185554443e+000	 9.353811909949529e-001	 1.337526284462325e+001
 1.557436906434053e+000	 9.513229117734602e-001	 1.334125482049521e+001
 1.547636450559955e+000	 9.671847894201127e-001	 1.330174210564683e+001
 1.537662752911782e+000	 9.829640167845446e-001	 1.325684962802968e+001
 1.527516807974274e+000	 9.986577999184951e-001	 1.320670916826752e+001
 1.643325412627414e+000	 8.496949971484549e-001	 1.337660816533349e+001
 1.634643156927498e+000	 8.662804104242817e-001	 1.337925219284526e+001
 1.625779923044137e+000	 8.828021532645378e-001	 1.337584882500032e+001
 1.616736295557627e+000	 8.992573328108996e-001	 1.336648958959155e+001
 1.607512919495713e+000	 9.156430601746993e-001	 1.335127365377810e+001
 1.598110500431744e+000	 9.319564519891023e-001	 1.333030774694219e+001
 1.588529804535698e+000	 9.481946319701923e-001	 1.330370606862953e+001
 1.578771658577596e+000	 9.643547324853129e-001	 1.327159018157477e+001
 1.568836949882811e+000	 9.804338961269921e-001	 1.323408888985417e+001
 1.558726626238913e+000	 9.964292772907482e-001	 1.319133810224841e+001
 1.548441695753725e+000	 1.012338043755057e+000	 1.314348068093946e+001
 1.665532512800260e+000	 8.611773619762990e-001	 1.330004636359613e+001
 1.656732929320366e+000	 8.779869024587131e-001	 1.330435722814042e+001
 1.647749922005872e+000	 8.947319120942419e-001	 1.330266919813118e+001
 1.638584083336808e+000	 9.114094589318817e-001	 1.329508385909108e+001
 1.629236067057511e+000	 9.280166150439282e-001	 1.328171061751529e+001
 1.619706588276103e+000	 9.445504580991300e-001	 1.326266661307487e+001
 1.609996423516213e+000	 9.610080729448697e-001	 1.323807661537009e+001
 1.600106410720428e+000	 9.773865531966974e-001	 1.320807290524888e+001
 1.590037449205004e+000	 9.936830028335265e-001	 1.317279514074671e+001
 1.579790499565453e+000	 1.009894537796761e+000	 1.313239020774746e+001
 1.569366583532674e+000	 1.026018287591614e+000	 1.308701205550700e+001
 1.687739612972610e+000	 8.726597268036471e-001	 1.322782339024636e+001
 1.678822701712647e+000	 8.896933944925635e-001	 1.323405724472570e+001
 1.669719920966950e+000	 9.066616709233090e-001	 1.323433299545322e+001
 1.660431871115281e+000	 9.235615850522007e-001	 1.322876223330186e+001
 1.650959214618570e+000	 9.403901699124976e-001	 1.321746456087578e+001
 1.641302676119713e+000	 9.571444642085322e-001	 1.320056749412612e+001
 1.631463042495988e+000	 9.738215139189845e-001	 1.317820634796739e+001
 1.621441162862548e+000	 9.904183739076136e-001	 1.315052410592207e+001
 1.611237948526535e+000	 1.006932109539717e+000	 1.311767127386430e+001
 1.600854372891399e+000	 1.023359798302585e+000	 1.307980571797821e+001
 1.590291471311120e+000	 1.039698531428165e+000	 1.303709248709071e+001
 1.709946713144463e+000	 8.841420916304991e-001	 1.315984789139244e+001
 1.700912474104342e+000	 9.013998865258321e-001	 1.316825053739160e+001
 1.691689919927371e+000	 9.185914297517391e-001	 1.317072816384069e+001
 1.682279658893047e+000	 9.357137111718564e-001	 1.316740232073621e+001
 1.672682362178891e+000	 9.527637247804074e-001	 1.315840276981456e+001
 1.662898763962574e+000	 9.697384703173081e-001	 1.314386737564133e+001
 1.652929661475022e+000	 9.866349548925372e-001	 1.312394198013510e+001
 1.642775915003957e+000	 1.003450194618061e+000	 1.309878026056551e+001
 1.632438447847403e+000	 1.020181216245563e+000	 1.306854357111137e+001
 1.621918246216753e+000	 1.036825058808218e+000	 1.303340076810971e+001
 1.611216359089064e+000	 1.053378775264711e+000	 1.299352801917367e+001
 1.732153813315821e+000	 8.956244564568551e-001	 1.309603939052745e+001
 1.723002246495451e+000	 9.131063785585198e-001	 1.310684679796079e+001
 1.713659918887135e+000	 9.305211885795319e-001	 1.311175456075865e+001
 1.704127446670105e+000	 9.478658372908487e-001	 1.311089414769985e+001
 1.694405509738473e+000	 9.651372796476579e-001	 1.310440544866200e+001
 1.684494851804685e+000	 9.823324764254584e-001	 1.309243665524018e+001
 1.674396280453315e+000	 9.994483958655278e-001	 1.307514412421715e+001
 1.664110667144655e+000	 1.016482015328040e+000	 1.305269222393702e+001
 1.653638947167610e+000	 1.033430322951064e+000	 1.302525316368219e+001
 1.642982119541515e+000	 1.050290319313661e+000	 1.299300680620056e+001
 1.632141246866505e+000	 1.067059019101252e+000	 1.295614046357819e+001
 1.754360913486683e+000	 9.071068212827148e-001	 1.303632760008728e+001
 1.745092018885974e+000	 9.248128705906259e-001	 1.304976639395706e+001
 1.735629917846243e+000	 9.424509474066879e-001	 1.305732320042806e+001
 1.725975234446456e+000	 9.600179634091781e-001	 1.305913937235562e+001
 1.716128657297317e+000	 9.775108345142488e-001	 1.305536490250509e+001
 1.706090939646046e+000	 9.949264825329823e-001	 1.304615829375104e+001
 1.695862899430868e+000	 1.012261836837956e+000	 1.303168641152763e+001
 1.685445419284641e+000	 1.029513836037550e+000	 1.301212431859467e+001
 1.674839446487155e+000	 1.046679429656221e+000	 1.298765509223248e+001
 1.664045992865684e+000	 1.063755579818914e+000	 1.295846962402874e+001
 1.653066134643443e+000	 1.080739262937787e+000	 1.292476640246970e+001
 1.776568013657048e+000	 9.185891861080785e-001	 1.298065178464161e+001
 1.767181791275910e+000	 9.365193626221506e-001	 1.299693970137400e+001
 1.757599916804693e+000	 9.543807062332065e-001	 1.300735555652854e+001
 1.747823022222099e+000	 9.721700895268440e-001	 1.301205055773238e+001
 1.737851804855421e+000	 9.898843893801800e-001	 1.301118478089024e+001
 1.727687027486658e+000	 1.007520488639881e+000	 1.300492703001050e+001
 1.717329518407680e+000	 1.025075277809822e+000	 1.299345467866511e+001
 1.706780171423915e+000	 1.042545656746593e+000	 1.297695349315923e+001
 1.696039945806038e+000	 1.059928536361033e+000	 1.295561743753804e+001
 1.685109866189261e+000	 1.077220840323977e+000	 1.292964846060916e+001
 1.673991022419878e+000	 1.094419506774317e+000	 1.289925626521029e+001
 1.464742144632903e+000	 9.576170684087775e-001	 1.343933984839961e+001
 1.454848998199890e+000	 9.725813037558125e-001	 1.339994320250163e+001
 1.444792760773848e+000	 9.874582919805434e-001	 1.335702939353143e+001
 1.434574555879015e+000	 1.002245400896121e+000	 1.331082091217701e+001
 1.424195563096951e+000	 1.016940016940706e+000	 1.326154502742584e+001
 1.413657017699293e+000	 1.031539546657219e+000	 1.320943350469593e+001
 1.402960210233953e+000	 1.046041418165064e+000	 1.315472231311663e+001
 1.392106486064946e+000	 1.060443082622109e+000	 1.309765132246710e+001
 1.381097244866092e+000	 1.074742015675246e+000	 1.303846399031411e+001
 1.369933940068900e+000	 1.088935718897824e+000	 1.297740703992183e+001
 1.358618078265032e+000	 1.103021721212288e+000	 1.291473012953766e+001
 1.485667032413862e+000	 9.712973122453554e-001	 1.335438030896662e+001
 1.475632555316646e+000	 9.864753223822117e-001	 1.332073132865199e+001
 1.465432657355221e+000	 1.001564839009399e+000	 1.328347125347064e+001
 1.455068478104174e+000	 1.016563192337401e+000	 1.324280551394816e+001
 1.444541213996230e+000	 1.031467731467781e+000	 1.319894444666569e+001
 1.433852117949764e+000	 1.046275825894074e+000	 1.315210302791331e+001
 1.423002498949086e+000	 1.060984866994530e+000	 1.310250059625280e+001
 1.411993721577700e+000	 1.075592269514990e+000	 1.305036056447354e+001
 1.400827205504765e+000	 1.090095473040156e+000	 1.299591012146163e+001
 1.389504424925096e+000	 1.104491943451570e+000	 1.293937992453254e+001
 1.378026907953097e+000	 1.118779174370570e+000	 1.288100378281043e+001
 1.506591920194319e+000	 9.849775560819279e-001	 1.327692634075818e+001
 1.496416112432994e+000	 1.000369341008790e+000	 1.324800522266141e+001
 1.486072553936271e+000	 1.015671386038590e+000	 1.321537733733516e+001
 1.475562400329086e+000	 1.030880983779144e+000	 1.317923167259625e+001
 1.464886864895328e+000	 1.045995445995415e+000	 1.313976225725755e+001
 1.454047218200109e+000	 1.061012105131552e+000	 1.309716790968556e+001
 1.443044787664139e+000	 1.075928315824656e+000	 1.305165197500914e+001
 1.431880957090408e+000	 1.090741456408535e+000	 1.300342205144227e+001
 1.420557166143417e+000	 1.105448930405707e+000	 1.295268970621804e+001
 1.409074909781287e+000	 1.120048168005903e+000	 1.289967018166462e+001
 1.397435737641161e+000	 1.134536627529352e+000	 1.284458209198601e+001
 1.527516807974274e+000	 9.986577999184951e-001	 1.320670916826752e+001
 1.517199669548935e+000	 1.014263359635549e+000	 1.318153503392845e+001
 1.506712450517001e+000	 1.029777933068117e+000	 1.315255656394421e+001
 1.496056322553752e+000	 1.045198775221347e+000	 1.311994690388760e+001
 1.485232515794244e+000	 1.060523160523605e+000	 1.308388438253878e+001
 1.474242318450327e+000	 1.075748384369653e+000	 1.304455227474248e+001
 1.463087076379111e+000	 1.090871764655441e+000	 1.300213855264146e+001
 1.451768192603071e+000	 1.105890643302746e+000	 1.295683562572847e+001
 1.440287126782049e+000	 1.120802387771899e+000	 1.290884007019301e+001
 1.428645394637474e+000	 1.135604392560822e+000	 1.285835234807438e+001
 1.416844567329225e+000	 1.150294080688636e+000	 1.280557651676488e+001
 1.548441695753725e+000	 1.012338043755057e+000	 1.314348068093946e+001
 1.537983226664468e+000	 1.028157378262487e+000	 1.312110940182181e+001
 1.527352347097408e+000	 1.043884480097980e+000	 1.309483417012321e+001
 1.516550244778170e+000	 1.059516566664012e+000	 1.306481287369084e+001
 1.505578166692977e+000	 1.075050875052352e+000	 1.303120873314974e+001
 1.494437418700419e+000	 1.090484663608378e+000	 1.299419007846807e+001
 1.483129365094002e+000	 1.105815213486885e+000	 1.295393011360734e+001
 1.471655428115688e+000	 1.121039830197622e+000	 1.291060666967868e+001
 1.460017087420660e+000	 1.136155845138731e+000	 1.286440194706286e+001
 1.448215879493655e+000	 1.151160617116327e+000	 1.281550224698673e+001
 1.436253397017289e+000	 1.166051533848422e+000	 1.276409769308238e+001
 1.569366583532674e+000	 1.026018287591614e+000	 1.308701205550700e+001
 1.558766783779593e+000	 1.042051396889605e+000	 1.306653422301575e+001
 1.547992243677491e+000	 1.057991027128178e+000	 1.304205062283682e+001
 1.537044167002341e+000	 1.073834358107138e+000	 1.301370445463681e+001
 1.525923817591530e+000	 1.089578589581657e+000	 1.298164440788012e+001
 1.514632518950385e+000	 1.105220942847726e+000	 1.294602445152350e+001
 1.503171653808812e+000	 1.120758662318988e+000	 1.290700361148611e+001
 1.491542663628261e+000	 1.136189017093163e+000	 1.286474573629815e+001
 1.479747048059252e+000	 1.151509302506205e+000	 1.281941925136604e+001
 1.467786364349831e+000	 1.166716841672418e+000	 1.277119690233048e+001
 1.455662226705354e+000	 1.181808987008709e+000	 1.272025548802646e+001
 1.590291471311120e+000	 1.039698531428165e+000	 1.303709248709071e+001
 1.579550340894311e+000	 1.055945415516904e+000	 1.301763151614106e+001
 1.568632140257253e+000	 1.072097574158711e+000	 1.299406061720601e+001
 1.557538089226265e+000	 1.088152149550725e+000	 1.296650885725245e+001
 1.546269468489901e+000	 1.104106304111520e+000	 1.293511095760672e+001
 1.534827619200224e+000	 1.119957222087697e+000	 1.290000709621045e+001
 1.523213942523541e+000	 1.135702111151751e+000	 1.286134269732605e+001
 1.511429899140787e+000	 1.151338203989368e+000	 1.281926820907579e+001
 1.499477008697823e+000	 1.166862759874319e+000	 1.277393886923591e+001
 1.487356849206002e+000	 1.182273066229095e+000	 1.272551445974480e+001
 1.475071056393418e+000	 1.197566440169497e+000	 1.267415905041977e+001
 1.611216359089064e+000	 1.053378775264711e+000	 1.299352801917367e+001
 1.600333898008621e+000	 1.069839434144381e+000	 1.297423837490477e+001
 1.589272036836692e+000	 1.086204121189579e+000	 1.295073215260190e+001
 1.578032011449942e+000	 1.102469940994773e+000	 1.292312482879893e+001
 1.566615119388090e+000	 1.118634018641939e+000	 1.289153770658628e+001
 1.555022719449937e+000	 1.134693501328291e+000	 1.285609772987111e+001
 1.543256231238189e+000	 1.150645559985172e+000	 1.281693728474375e+001
 1.531317134653268e+000	 1.166487390886239e+000	 1.277419398831649e+001
 1.519206969336373e+000	 1.182216217243073e+000	 1.272801046543999e+001
 1.506927334062168e+000	 1.197829290786359e+000	 1.267853411374080e+001
 1.494479886081482e+000	 1.213323893330786e+000	 1.262591685746023e+001
 1.632141246866505e+000	 1.067059019101252e+000	 1.295614046357819e+001
 1.621117455122524e+000	 1.083733452772039e+000	 1.293620600173914e+001
 1.609911933415809e+000	 1.100310668220784e+000	 1.291194567980912e+001
 1.598525933673372e+000	 1.116787732439283e+000	 1.288346191373726e+001
 1.586960770286098e+000	 1.133161733172916e+000	 1.285086312595690e+001
 1.575217819699524e+000	 1.149429780569508e+000	 1.281426357110352e+001
 1.563298519952757e+000	 1.165589008819253e+000	 1.277378314847753e+001
 1.551204370165703e+000	 1.181636577783775e+000	 1.272954720160162e+001
 1.538936929974904e+000	 1.197569674612469e+000	 1.268168630526250e+001
 1.526497818918329e+000	 1.213385515344209e+000	 1.263033604046620e+001
 1.513888715769546e+000	 1.229081346492577e+000	 1.257563675777393e+001
 1.653066134643443e+000	 1.080739262937787e+000	 1.292476640246970e+001
 1.641901012236020e+000	 1.097627471399877e+000	 1.290339881484424e+001
 1.630551829994604e+000	 1.114417215252323e+000	 1.287759331296176e+001
 1.619019855896556e+000	 1.131105523884254e+000	 1.284743977036128e+001
 1.607306421183923e+000	 1.147689447704449e+000	 1.281303425482146e+001
 1.595412919948984e+000	 1.164166059811349e+000	 1.277447886499858e+001
 1.583340808667244e+000	 1.180532457653993e+000	 1.273188155343033e+001
 1.571091605678093e+000	 1.196785764681977e+000	 1.268535593623982e+001
 1.558666890613415e+000	 1.212923131982505e+000	 1.263502108991452e+001
 1.546068303774484e+000	 1.228941739902645e+000	 1.258100133557638e+001
 1.533297545457611e+000	 1.244838799654869e+000	 1.252342601119809e+001
 1.673991022419878e+000	 1.094419506774317e+000	 1.289925626521029e+001
 1.662684569349107e+000	 1.111521490027895e+000	 1.287569362220270e+001
 1.651191726573076e+000	 1.128523762284198e+000	 1.284757810058399e+001
 1.639513778119492e+000	 1.145423315329686e+000	 1.281498753868310e+001
 1.627652072081567e+000	 1.162217162236540e+000	 1.277800616474984e+001
 1.615608020198319e+000	 1.178902339053813e+000	 1.273672444398415e+001
 1.603383097381649e+000	 1.195475906489392e+000	 1.269123891153444e+001
 1.590978841190437e+000	 1.211934951580843e+000	 1.264165199178416e+001
 1.578396851251905e+000	 1.228276589353182e+000	 1.258807180428864e+001
 1.565638788630636e+000	 1.244497964461667e+000	 1.253061195676519e+001
 1.552706375145675e+000	 1.260596252817663e+000	 1.252196255961619e+001
 1.358618078265032e+000	 1.103021721212288e+000	 1.291473012953766e+001
 1.347151218564126e+000	 1.116997580295668e+000	 1.282512388238774e+001
 1.335534971906517e+000	 1.130860883968336e+000	 1.273429866315754e+001
 1.323771000332176e+000	 1.144609251562969e+000	 1.264235861210193e+001
 1.311861016207091e+000	 1.158240335270790e+000	 1.254940934936638e+001
 1.299806781406893e+000	 1.171751821465558e+000	 1.245555777658599e+001
 1.287610106458834e+000	 1.185141432003066e+000	 1.236091187433358e+001
 1.275272849643007e+000	 1.198406925494609e+000	 1.226558049590116e+001
 1.262796916053697e+000	 1.211546098552944e+000	 1.216967315791368e+001
 1.250184256621897e+000	 1.224556787009298e+000	 1.207329982828564e+001
 1.237436867100000e+000	 1.237436867100000e+000	 1.195946407905447e+001
 1.378026907953097e+000	 1.118779174370570e+000	 1.288100378281043e+001
 1.366396235971277e+000	 1.132954688583815e+000	 1.278882051582639e+001
 1.354614042933289e+000	 1.147016039451929e+000	 1.269503704836974e+001
 1.342682014622530e+000	 1.160960812298055e+000	 1.259975925819265e+001
 1.330601887867360e+000	 1.174786625773290e+000	 1.250309492664193e+001
 1.318375449713059e+000	 1.188491133199592e+000	 1.240515353520747e+001
 1.306004536551559e+000	 1.202072023887835e+000	 1.230604605725034e+001
 1.293491033209806e+000	 1.215527024429475e+000	 1.220588474540960e+001
 1.280836871997721e+000	 1.228853899960310e+000	 1.210478291520244e+001
 1.268044031716738e+000	 1.242050455394869e+000	 1.200285472534570e+001
 1.255114536630000e+000	 1.255114536630000e+000	 1.192917325938717e+001
 1.397435737641161e+000	 1.134536627529352e+000	 1.284458209198601e+001
 1.385641253378430e+000	 1.148911796872367e+000	 1.274959075068450e+001
 1.373693113960062e+000	 1.163171194935842e+000	 1.265262652490070e+001
 1.361593028912884e+000	 1.177312373033386e+000	 1.255379731870567e+001
 1.349342759527628e+000	 1.191332916275971e+000	 1.245321336085426e+001
 1.336944118019226e+000	 1.205230444933752e+000	 1.235098699587380e+001
 1.324398966644283e+000	 1.219002615772685e+000	 1.224723246966235e+001
 1.311709216776605e+000	 1.232647123364387e+000	 1.214206571011070e+001
 1.298876827941744e+000	 1.246161701367696e+000	 1.203560410328030e+001
 1.285903806811579e+000	 1.259544123780445e+000	 1.198163727442870e+001
 1.272792206160000e+000	 1.272792206160000e+000	 1.194746165207336e+001
 1.416844567329225e+000	 1.150294080688636e+000	 1.280557651676488e+001
 1.404886270785581e+000	 1.164868905161327e+000	 1.270755070764567e+001
 1.392772184986834e+000	 1.179326350420076e+000	 1.260718739576394e+001
 1.380504043203239e+000	 1.193663933768963e+000	 1.250459680005985e+001
 1.368083631187897e+000	 1.207879206778833e+000	 1.239989188297417e+001
 1.355512786325393e+000	 1.221969756668037e+000	 1.229318813566638e+001
 1.342793396737007e+000	 1.235933207657614e+000	 1.218460335707127e+001
 1.329927400343404e+000	 1.249767222299344e+000	 1.207425742732426e+001
 1.316916783885768e+000	 1.263469502775102e+000	 1.203739629637494e+001
 1.303763581906420e+000	 1.277037792166026e+000	 1.199973163770147e+001
 1.290469875690000e+000	 1.290469875690000e+000	 1.195995922180797e+001
 1.436253397017289e+000	 1.166051533848422e+000	 1.276409769308238e+001
 1.424131288192732e+000	 1.180826013450692e+000	 1.266281531324365e+001
 1.411851256013606e+000	 1.195481505904632e+000	 1.255883842144840e+001
 1.399415057493593e+000	 1.210015494504787e+000	 1.245227983998295e+001
 1.386824502848165e+000	 1.224425497281876e+000	 1.234325555150673e+001
 1.374081454631560e+000	 1.238709068402448e+000	 1.223188447798786e+001
 1.361187826829731e+000	 1.252863799542624e+000	 1.213406524425063e+001
 1.348145583910203e+000	 1.266887321234346e+000	 1.209586427700315e+001
 1.334956739829792e+000	 1.280777304182529e+000	 1.205525821364478e+001
 1.321623357001262e+000	 1.294531460551612e+000	 1.201223622981044e+001
 1.308147545220000e+000	 1.308147545220000e+000	 1.196678861517127e+001
 1.455662226705354e+000	 1.181808987008709e+000	 1.272025548802646e+001
 1.443376305599884e+000	 1.196783121740464e+000	 1.261549837947227e+001
 1.430930327040378e+000	 1.211636661389509e+000	 1.250769692275366e+001
 1.418326071783947e+000	 1.226367055240856e+000	 1.239696683209122e+001
 1.405565374508434e+000	 1.240971787785099e+000	 1.228342739732241e+001
 1.392650122937726e+000	 1.255448380136984e+000	 1.219684685095754e+001
 1.379582256922456e+000	 1.269794391427715e+000	 1.215650816772833e+001
 1.366363767477001e+000	 1.284007420169394e+000	 1.211347460386624e+001
 1.352996695773816e+000	 1.298085105589976e+000	 1.206773191277777e+001
 1.339483132096103e+000	 1.312025128937203e+000	 1.201926724672344e+001
 1.325825214750000e+000	 1.325825214750000e+000	 1.196806919678511e+001
 1.475071056393418e+000	 1.197566440169497e+000	 1.267415905041977e+001
 1.462621323007036e+000	 1.212740230030642e+000	 1.256571267711039e+001
 1.450009398067151e+000	 1.227791816874707e+000	 1.245387887550610e+001
 1.437237086074301e+000	 1.242718615977171e+000	 1.233877654063343e+001
 1.424306246168702e+000	 1.257518078288504e+000	 1.226085829445564e+001
 1.411218791243893e+000	 1.272187691871646e+000	 1.221884633746365e+001
 1.397976687015180e+000	 1.286724983312886e+000	 1.217386572429649e+001
 1.384581951043800e+000	 1.301127519104486e+000	 1.212589821781053e+001
 1.371036651717839e+000	 1.315392906997442e+000	 1.207492724897192e+001
 1.357342907190944e+000	 1.329518797322799e+000	 1.202093796342471e+001
 1.343502884280000e+000	 1.343502884280000e+000	 1.196391726523117e+001
 1.494479886081482e+000	 1.213323893330786e+000	 1.262591685746023e+001
 1.481866340414187e+000	 1.228697338321226e+000	 1.251357000333331e+001
 1.469088469093923e+000	 1.243946972360227e+000	 1.239749899789496e+001
 1.456148100364656e+000	 1.259070176713732e+000	 1.232570157842862e+001
 1.443047117828970e+000	 1.274064368792089e+000	 1.228244714218497e+001
 1.429787459550060e+000	 1.288927003606433e+000	 1.223596671811967e+001
 1.416371117107903e+000	 1.303655575198137e+000	 1.218623753861208e+001
 1.402800134610599e+000	 1.318247618039624e+000	 1.213323875682459e+001
 1.389076607661863e+000	 1.332700708404929e+000	 1.207695150066321e+001
 1.375202682285786e+000	 1.347012465708400e+000	 1.201735892358909e+001
 1.361180553810000e+000	 1.361180553810000e+000	 1.195444625214447e+001
 1.513888715769546e+000	 1.229081346492577e+000	 1.257563675777393e+001
 1.501111357821339e+000	 1.244654446612217e+000	 1.245918124412329e+001
 1.488167540120696e+000	 1.260102127846067e+000	 1.239102716399029e+001
 1.475059114655010e+000	 1.275421737450539e+000	 1.234692762988930e+001
 1.461787989489239e+000	 1.290610659295855e+000	 1.229936163205608e+001
 1.448356127856227e+000	 1.305666315341346e+000	 1.224830136166950e+001
 1.434765547200628e+000	 1.320586167083469e+000	 1.219372116581405e+001
 1.421018318177398e+000	 1.335367716974808e+000	 1.213559760957619e+001
 1.407116563605887e+000	 1.350008509812436e+000	 1.207390953470265e+001
 1.393062457380627e+000	 1.364506134094006e+000	 1.200863811466607e+001
 1.378858223340000e+000	 1.378858223340000e+000	 1.193976690599204e+001
 1.533297545457611e+000	 1.244838799654869e+000	 1.252342601119809e+001
 1.520356375228491e+000	 1.260611554903613e+000	 1.245653281732587e+001
 1.507246611147468e+000	 1.276257283332229e+000	 1.241195236613284e+001
 1.493970128945364e+000	 1.291773298187593e+000	 1.236368221844274e+001
 1.480528861149507e+000	 1.307156949799801e+000	 1.231168904349170e+001
 1.466924796162393e+000	 1.322405627076385e+000	 1.225594188308213e+001
 1.453159977293352e+000	 1.337516758968881e+000	 1.219641222250551e+001
 1.439236501744197e+000	 1.352487815910036e+000	 1.213307405777451e+001
 1.425156519549911e+000	 1.367316311219963e+000	 1.206590395898826e+001
 1.410922232475468e+000	 1.381999802479618e+000	 1.199488112966611e+001
 1.396535892870000e+000	 1.396535892870000e+000	 1.191998746189372e+001
 1.552706375145675e+000	 1.260596252817663e+000	 1.252196255961619e+001
 1.539601392635642e+000	 1.276568663195416e+000	 1.247723236666540e+001
 1.526325682174240e+000	 1.292412438818711e+000	 1.242860684927461e+001
 1.512881143235718e+000	 1.308124858924892e+000	 1.237604670471900e+001
 1.499269732809776e+000	 1.323703240303929e+000	 1.231951520018617e+001
 1.485493464468560e+000	 1.339144938811550e+000	 1.225897825316240e+001
 1.471554407386076e+000	 1.354447350854373e+000	 1.219440450791229e+001
 1.457454685310996e+000	 1.369607914845310e+000	 1.212576540785498e+001
 1.443196475493934e+000	 1.384624112627510e+000	 1.205303526364952e+001
 1.428782007570309e+000	 1.399493470865234e+000	 1.197619131681313e+001
 1.414213562400000e+000	 1.414213562400000e+000	 1.189521379870620e+001
 1.237436867100000e+000	 1.237436867100000e+000	 1.195946407905447e+001
 1.224556787009298e+000	 1.250184256621897e+000	 1.181166105513654e+001
 1.211546098552944e+000	 1.262796916053697e+000	 1.172811517269165e+001
 1.198406925494609e+000	 1.275272849643007e+000	 1.163723125612292e+001
 1.185141432003067e+000	 1.287610106458834e+000	 1.153910601105985e+001
 1.171751821465558e+000	 1.299806781406892e+000	 1.143384483231126e+001
 1.158240335270790e+000	 1.311861016207091e+000	 1.132156138267093e+001
 1.144609251562970e+000	 1.323771000332176e+000	 1.120237715306194e+001
 1.130860883968336e+000	 1.335534971906517e+000	 1.107642100534614e+001
 1.116997580295668e+000	 1.347151218564126e+000	 1.094382869917517e+001
 1.103021721212288e+000	 1.358618078265032e+000	 1.080474240430431e+001
 1.255114536630000e+000	 1.255114536630000e+000	 1.192917325938717e+001
 1.242050455394869e+000	 1.268044031716738e+000	 1.185270080212217e+001
 1.228853899960310e+000	 1.280836871997720e+000	 1.176308150148773e+001
 1.215527024429475e+000	 1.293491033209806e+000	 1.166675226959572e+001
 1.202072023887835e+000	 1.306004536551558e+000	 1.156385047890483e+001
 1.188491133199592e+000	 1.318375449713059e+000	 1.145452183255864e+001
 1.174786625773290e+000	 1.330601887867360e+000	 1.133891988742249e+001
 1.160960812298055e+000	 1.342682014622530e+000	 1.121720555867495e+001
 1.147016039451929e+000	 1.354614042933290e+000	 1.108954660739832e+001
 1.132954688583815e+000	 1.366396235971277e+000	 1.095611711266120e+001
 1.118779174370570e+000	 1.378026907953097e+000	 1.081709692963079e+001
 1.272792206160000e+000	 1.272792206160000e+000	 1.194746165207336e+001
 1.259544123780445e+000	 1.285903806811580e+000	 1.187292256870088e+001
 1.246161701367696e+000	 1.298876827941744e+000	 1.178992915151929e+001
 1.232647123364387e+000	 1.311709216776605e+000	 1.168923950171832e+001
 1.219002615772685e+000	 1.324398966644282e+000	 1.158261555121579e+001
 1.205230444933752e+000	 1.336944118019226e+000	 1.147024333829022e+001
 1.191332916275971e+000	 1.349342759527628e+000	 1.135231637125703e+001
 1.177312373033386e+000	 1.361593028912884e+000	 1.122903507691972e+001
 1.163171194935842e+000	 1.373693113960062e+000	 1.110060623230487e+001
 1.148911796872367e+000	 1.385641253378430e+000	 1.096724238129361e+001
 1.134536627529353e+000	 1.397435737641161e+000	 1.082916123780612e+001
 1.290469875690000e+000	 1.290469875690000e+000	 1.195995922180797e+001
 1.277037792166026e+000	 1.303763581906420e+000	 1.187792430284743e+001
 1.263469502775103e+000	 1.316916783885768e+000	 1.179316064246547e+001
 1.249767222299344e+000	 1.329927400343403e+000	 1.170533543912924e+001
 1.235933207657614e+000	 1.342793396737007e+000	 1.159598709285808e+001
 1.221969756668037e+000	 1.355512786325393e+000	 1.148153910988145e+001
 1.207879206778833e+000	 1.368083631187897e+000	 1.136222504145317e+001
 1.193663933768963e+000	 1.380504043203239e+000	 1.123828494723176e+001
 1.179326350420076e+000	 1.392772184986834e+000	 1.110996477048693e+001
 1.164868905161327e+000	 1.404886270785581e+000	 1.097751569856114e+001
 1.150294080688636e+000	 1.416844567329225e+000	 1.084119351036265e+001
 1.308147545220000e+000	 1.308147545220000e+000	 1.196678861517127e+001
 1.294531460551612e+000	 1.321623357001262e+000	 1.187838694470993e+001
 1.280777304182529e+000	 1.334956739829792e+000	 1.178794030008762e+001
 1.266887321234346e+000	 1.348145583910202e+000	 1.169544235483065e+001
 1.252863799542624e+000	 1.361187826829731e+000	 1.160088794034252e+001
 1.238709068402448e+000	 1.374081454631560e+000	 1.148894867760790e+001
 1.224425497281876e+000	 1.386824502848165e+000	 1.136913239171812e+001
 1.210015494504787e+000	 1.399415057493593e+000	 1.124538916229130e+001
 1.195481505904632e+000	 1.411851256013606e+000	 1.111800428157899e+001
 1.180826013450691e+000	 1.424131288192732e+000	 1.098726779118557e+001
 1.166051533848422e+000	 1.436253397017289e+000	 1.085347377307147e+001
 1.325825214750000e+000	 1.325825214750000e+000	 1.196806919678511e+001
 1.312025128937203e+000	 1.339483132096103e+000	 1.187438473151361e+001
 1.298085105589976e+000	 1.352996695773815e+000	 1.177932259432486e+001
 1.284007420169393e+000	 1.366363767477001e+000	 1.168290167538431e+001
 1.269794391427715e+000	 1.379582256922455e+000	 1.158514138073788e+001
 1.255448380136984e+000	 1.392650122937726e+000	 1.148606163646235e+001
 1.240971787785100e+000	 1.405565374508434e+000	 1.137353638309225e+001
 1.226367055240856e+000	 1.418326071783947e+000	 1.125079548447374e+001
 1.211636661389509e+000	 1.430930327040379e+000	 1.112512284981465e+001
 1.196783121740463e+000	 1.443376305599884e+000	 1.099684761690635e+001
 1.181808987008709e+000	 1.455662226705354e+000	 1.086630243966016e+001
 1.343502884280000e+000	 1.343502884280000e+000	 1.196391726523117e+001
 1.329518797322799e+000	 1.357342907190944e+000	 1.186599122956006e+001
 1.315392906997442e+000	 1.371036651717839e+000	 1.176733900938765e+001
 1.301127519104486e+000	 1.384581951043800e+000	 1.166800419369247e+001
 1.286724983312886e+000	 1.397976687015179e+000	 1.156803025725306e+001
 1.272187691871646e+000	 1.411218791243893e+000	 1.146746054048477e+001
 1.257518078288504e+000	 1.424306246168702e+000	 1.136633822860072e+001
 1.242718615977171e+000	 1.437237086074301e+000	 1.125496453994863e+001
 1.227791816874707e+000	 1.450009398067151e+000	 1.113173352977652e+001
 1.212740230030642e+000	 1.462621323007036e+000	 1.100662116507133e+001
 1.197566440169497e+000	 1.475071056393418e+000	 1.087999897049951e+001
 1.361180553810000e+000	 1.361180553810000e+000	 1.195444625214447e+001
 1.347012465708400e+000	 1.375202682285786e+000	 1.185327937779376e+001
 1.332700708404929e+000	 1.389076607661863e+000	 1.175202260621191e+001
 1.318247618039624e+000	 1.402800134610599e+000	 1.165074372609346e+001
 1.303655575198137e+000	 1.416371117107904e+000	 1.154950979336757e+001
 1.288927003606433e+000	 1.429787459550060e+000	 1.144838708716916e+001
 1.274064368792089e+000	 1.443047117828970e+000	 1.134744106597064e+001
 1.259070176713732e+000	 1.456148100364655e+000	 1.124673632391548e+001
 1.243946972360226e+000	 1.469088469093923e+000	 1.113826337429587e+001
 1.228697338321226e+000	 1.481866340414187e+000	 1.101697035068835e+001
 1.213323893330786e+000	 1.494479886081482e+000	 1.089490063580875e+001
 1.378858223340000e+000	 1.378858223340000e+000	 1.193976690599204e+001
 1.364506134094007e+000	 1.393062457380627e+000	 1.183632152801721e+001
 1.350008509812436e+000	 1.407116563605887e+000	 1.173340792138680e+001
 1.335367716974807e+000	 1.421018318177398e+000	 1.163111759315653e+001
 1.320586167083468e+000	 1.434765547200628e+000	 1.152954071018687e+001
 1.305666315341347e+000	 1.448356127856227e+000	 1.142876603168298e+001
 1.290610659295855e+000	 1.461787989489239e+000	 1.132888084271412e+001
 1.275421737450539e+000	 1.475059114655010e+000	 1.122997088879075e+001
 1.260102127846067e+000	 1.488167540120696e+000	 1.113212031157769e+001
 1.244654446612217e+000	 1.501111357821339e+000	 1.102829199354955e+001
 1.229081346492577e+000	 1.513888715769546e+000	 1.091136137399845e+001
 1.396535892870000e+000	 1.396535892870000e+000	 1.191998746189372e+001
 1.381999802479617e+000	 1.410922232475468e+000	 1.181518948205185e+001
 1.367316311219963e+000	 1.425156519549910e+000	 1.171153087375927e+001
 1.352487815910036e+000	 1.439236501744197e+000	 1.160912639789499e+001
 1.337516758968881e+000	 1.453159977293352e+000	 1.150808887849149e+001
 1.322405627076385e+000	 1.466924796162393e+000	 1.140852911226230e+001
 1.307156949799802e+000	 1.480528861149507e+000	 1.131055577991338e+001
 1.291773298187593e+000	 1.493970128945364e+000	 1.121427535935117e+001
 1.276257283332228e+000	 1.507246611147467e+000	 1.111979204089929e+001
 1.260611554903613e+000	 1.520356375228491e+000	 1.102720764463467e+001
 1.244838799654869e+000	 1.533297545457611e+000	 1.092975073672174e+001
 1.414213562400000e+000	 1.414213562400000e+000	 1.189521379870620e+001
 1.399493470865234e+000	 1.428782007570309e+000	 1.178995452611195e+001
 1.384624112627510e+000	 1.443196475493934e+000	 1.168642867804263e+001
 1.369607914845309e+000	 1.457454685310996e+000	 1.158477382061357e+001
 1.354447350854374e+000	 1.471554407386076e+000	 1.148512499688214e+001
 1.339144938811549e+000	 1.485493464468560e+000	 1.138761461376981e+001
 1.323703240303929e+000	 1.499269732809775e+000	 1.129237233155587e+001
 1.308124858924892e+000	 1.512881143235718e+000	 1.119952495609176e+001
 1.292412438818710e+000	 1.526325682174240e+000	 1.110919633388001e+001
 1.276568663195416e+000	 1.539601392635642e+000	 1.102150725015997e+001
 1.260596252817662e+000	 1.552706375145675e+000	 1.093657533013768e+001
 1.103021721212288e+000	 1.358618078265032e+000	 1.080474240430431e+001
 1.088935718897824e+000	 1.369933940068900e+000	 1.065698210957225e+001
 1.074742015675246e+000	 1.381097244866093e+000	 1.050792532590030e+001
 1.060443082622109e+000	 1.392106486064946e+000	 1.035792304886557e+001
 1.046041418165064e+000	 1.402960210233953e+000	 1.020732520199085e+001
 1.031539546657219e+000	 1.413657017699293e+000	 1.005647992231204e+001
 1.016940016940706e+000	 1.424195563096952e+000	 9.905732848862769e+000
 1.002245400896121e+000	 1.434574555879015e+000	 9.755426415886484e+000
 9.874582919805433e-001	 1.444792760773848e+000	 9.605899152567735e+000
 9.725813037558126e-001	 1.454848998199890e+000	 9.457484991048155e+000
 9.576170684087774e-001	 1.464742144632903e+000	 9.310512584460756e+000
 1.118779174370570e+000	 1.378026907953097e+000	 1.081709692963079e+001
 1.104491943451570e+000	 1.389504424925096e+000	 1.067801786582947e+001
 1.090095473040156e+000	 1.400827205504764e+000	 1.053737398716097e+001
 1.075592269514990e+000	 1.411993721577700e+000	 1.039551358891291e+001
 1.060984866994530e+000	 1.423002498949086e+000	 1.025278437203302e+001
 1.046275825894074e+000	 1.433852117949764e+000	 1.010953271211690e+001
 1.031467731467781e+000	 1.444541213996230e+000	 9.966102930591919e+000
 1.016563192337402e+000	 1.455068478104174e+000	 9.822836569969779e+000
 1.001564839009399e+000	 1.465432657355221e+000	 9.680071675023442e+000
 9.864753223822116e-001	 1.475632555316646e+000	 9.538142081717478e+000
 9.712973122453553e-001	 1.485667032413862e+000	 9.397376715690209e+000
 1.134536627529353e+000	 1.397435737641161e+000	 1.082916123780612e+001
 1.120048168005903e+000	 1.409074909781287e+000	 1.069774272370809e+001
 1.105448930405707e+000	 1.420557166143416e+000	 1.056449679594634e+001
 1.090741456408535e+000	 1.431880957090409e+000	 1.042977011346418e+001
 1.075928315824656e+000	 1.443044787664139e+000	 1.029390921776613e+001
 1.061012105131552e+000	 1.454047218200108e+000	 1.015725978381352e+001
 1.045995445995415e+000	 1.464886864895328e+000	 1.002016587239837e+001
 1.030880983779144e+000	 1.475562400329086e+000	 9.882969185935764e+000
 1.015671386038590e+000	 1.486072553936272e+000	 9.746008329594941e+000
 1.000369341008790e+000	 1.496416112432994e+000	 9.609618079667012e+000
 9.849775560819279e-001	 1.506591920194319e+000	 9.474128661034799e+000
 1.150294080688636e+000	 1.416844567329225e+000	 1.084119351036265e+001
 1.135604392560822e+000	 1.428645394637474e+000	 1.071643916908982e+001
 1.120802387771899e+000	 1.440287126782048e+000	 1.058959984528024e+001
 1.105890643302746e+000	 1.451768192603071e+000	 1.046102162373164e+001
 1.090871764655441e+000	 1.463087076379111e+000	 1.033105094843767e+001
 1.075748384369653e+000	 1.474242318450326e+000	 1.020003385386883e+001
 1.060523160523605e+000	 1.485232515794244e+000	 1.006831519701874e+001
 1.045198775221347e+000	 1.496056322553752e+000	 9.936237892223398e+000
 1.029777933068117e+000	 1.506712450517001e+000	 9.804142150745301e+000
 1.014263359635548e+000	 1.517199669548935e+000	 9.672364727089001e+000
 9.986577999184951e-001	 1.527516807974274e+000	 9.541238173986736e+000
 1.166051533848422e+000	 1.436253397017289e+000	 1.085347377307147e+001
 1.151160617116327e+000	 1.448215879493655e+000	 1.073440964858053e+001
 1.136155845138731e+000	 1.460017087420660e+000	 1.061300732856397e+001
 1.121039830197621e+000	 1.471655428115688e+000	 1.048961338497520e+001
 1.105815213486885e+000	 1.483129365094002e+000	 1.036457522586054e+001
 1.090484663608378e+000	 1.494437418700419e+000	 1.023824030549366e+001
 1.075050875052352e+000	 1.505578166692977e+000	 1.011095533456504e+001
 1.059516566664012e+000	 1.516550244778170e+000	 9.983065492505626e+000
 1.043884480097980e+000	 1.527352347097408e+000	 9.854913644009685e+000
 1.028157378262487e+000	 1.537983226664468e+000	 9.726839561797958e+000
 1.012338043755057e+000	 1.548441695753725e+000	 9.599179157633124e+000
 1.181808987008709e+000	 1.455662226705354e+000	 1.086630243966016e+001
 1.166716841672418e+000	 1.467786364349831e+000	 1.075197523879546e+001
 1.151509302506204e+000	 1.479747048059251e+000	 1.063506033288443e+001
 1.136189017093162e+000	 1.491542663628260e+000	 1.051590584223256e+001
 1.120758662318988e+000	 1.503171653808812e+000	 1.039486120090900e+001
 1.105220942847726e+000	 1.514632518950385e+000	 1.027227634419302e+001
 1.089578589581657e+000	 1.525923817591530e+000	 1.014850089536637e+001
 1.073834358107138e+000	 1.537044167002341e+000	 1.002388335400686e+001
 1.057991027128178e+000	 1.547992243677491e+000	 9.898770287923997e+000
 1.042051396889605e+000	 1.558766783779593e+000	 9.773505530855822e+000
 1.026018287591614e+000	 1.569366583532674e+000	 9.648429388016025e+000
 1.197566440169497e+000	 1.475071056393418e+000	 1.087999897049951e+001
 1.182273066229095e+000	 1.487356849206002e+000	 1.076947442070049e+001
 1.166862759874319e+000	 1.499477008697823e+000	 1.065611572758768e+001
 1.151338203989368e+000	 1.511429899140787e+000	 1.054027362164963e+001
 1.135702111151751e+000	 1.523213942523541e+000	 1.042230062608022e+001
 1.119957222087697e+000	 1.534827619200224e+000	 1.030255021998354e+001
 1.104106304111520e+000	 1.546269468489901e+000	 1.018137600021778e+001
 1.088152149550725e+000	 1.557538089226265e+000	 1.005913084411169e+001
 1.072097574158711e+000	 1.568632140257253e+000	 9.936166075274770e+000
 1.055945415516903e+000	 1.579550340894311e+000	 9.812830634700474e+000
 1.039698531428165e+000	 1.590291471311120e+000	 9.689470259332971e+000
 1.213323893330786e+000	 1.494479886081482e+000	 1.089490063580875e+001
 1.197829290786359e+000	 1.506927334062168e+000	 1.078726194945969e+001
 1.182216217243073e+000	 1.519206969336373e+000	 1.067654513945657e+001
 1.166487390886239e+000	 1.531317134653268e+000	 1.056310460962935e+001
 1.150645559985172e+000	 1.543256231238189e+000	 1.044729703720717e+001
 1.134693501328291e+000	 1.555022719449937e+000	 1.032948051021750e+001
 1.118634018641939e+000	 1.566615119388090e+000	 1.021001366281750e+001
 1.102469940994773e+000	 1.578032011449942e+000	 1.008925481087387e+001
 1.086204121189579e+000	 1.589272036836692e+000	 9.967561090095877e+000
 1.069839434144381e+000	 1.600333898008621e+000	 9.845287599004426e+000
 1.053378775264711e+000	 1.611216359089064e+000	 9.722786548991776e+000
 1.229081346492577e+000	 1.513888715769546e+000	 1.091136137399845e+001
 1.213385515344209e+000	 1.526497818918328e+000	 1.080570781121740e+001
 1.197569674612469e+000	 1.538936929974904e+000	 1.069673400672146e+001
 1.181636577783775e+000	 1.551204370165703e+000	 1.058479910281520e+001
 1.165589008819253e+000	 1.563298519952757e+000	 1.047026499811662e+001
 1.149429780569508e+000	 1.575217819699524e+000	 1.035349545757415e+001
 1.133161733172916e+000	 1.586960770286098e+000	 1.023485521970905e+001
 1.116787732439283e+000	 1.598525933673372e+000	 1.011470910348611e+001
 1.100310668220784e+000	 1.609911933415809e+000	 9.993421117204013e+000
 1.083733452772039e+000	 1.621117455122524e+000	 9.871353571775153e+000
 1.067059019101252e+000	 1.632141246866505e+000	 9.748866200738004e+000
 1.244838799654869e+000	 1.533297545457611e+000	 1.092975073672174e+001
 1.228941739902645e+000	 1.546068303774485e+000	 1.082519625911211e+001
 1.212923131982505e+000	 1.558666890613415e+000	 1.071708070491798e+001
 1.196785764681976e+000	 1.571091605678093e+000	 1.060576902263300e+001
 1.180532457653993e+000	 1.583340808667244e+000	 1.049162940265479e+001
 1.164166059811349e+000	 1.595412919948985e+000	 1.037503235833011e+001
 1.147689447704450e+000	 1.607306421183923e+000	 1.025634980351903e+001
 1.131105523884254e+000	 1.619019855896555e+000	 1.013595412917041e+001
 1.114417215252323e+000	 1.630551829994604e+000	 1.001421728138968e+001
 1.097627471399877e+000	 1.641901012236019e+000	 9.891509843460520e+000
 1.080739262937787e+000	 1.653066134643443e+000	 9.768200124253891e+000
 1.260596252817662e+000	 1.552706375145675e+000	 1.093657533013768e+001
 1.244497964461667e+000	 1.565638788630635e+000	 1.084612492158936e+001
 1.228276589353182e+000	 1.578396851251904e+000	 1.073799573830522e+001
 1.211934951580842e+000	 1.590978841190437e+000	 1.062643718874197e+001
 1.195475906489392e+000	 1.603383097381649e+000	 1.051182482906117e+001
 1.178902339053813e+000	 1.615608020198319e+000	 1.039453699650949e+001
 1.162217162236540e+000	 1.627652072081567e+000	 1.027495385570173e+001
 1.145423315329686e+000	 1.639513778119491e+000	 1.015345644330074e+001
 1.128523762284198e+000	 1.651191726573076e+000	 1.003042571366867e+001
 1.111521490027895e+000	 1.662684569349107e+000	 9.906241588046212e+000
 1.094419506774317e+000	 1.673991022419878e+000	 9.781282009787349e+000
 9.576170684087774e-001	 1.464742144632903e+000	 9.310512584460756e+000
 9.425682352647938e-001	 1.474471132926832e+000	 9.138814112676156e+000
 9.274374692974090e-001	 1.484034952587418e+000	 8.969973907192228e+000
 9.122274496350906e-001	 1.493432649999157e+000	 8.804293333438892e+000
 8.969408680658606e-001	 1.502663328606234e+000	 8.642065474027461e+000
 8.815804275427316e-001	 1.511726149046811e+000	 8.483574533943079e+000
 8.661488406911885e-001	 1.520620329241137e+000	 8.329095265512203e+000
 8.506488283203392e-001	 1.529345144433827e+000	 8.178892414482164e+000
 8.350831179393492e-001	 1.537899927190630e+000	 8.033220188477770e+000
 8.194544422807419e-001	 1.546284067350165e+000	 7.892321749025830e+000
 8.037655378321177e-001	 1.554497011931069e+000	 7.756428728258856e+000
 9.712973122453553e-001	 1.485667032413862e+000	 9.397376715690209e+000
 9.560334957715676e-001	 1.495535006255741e+000	 9.231386609808345e+000
 9.406865760053216e-001	 1.505235451912260e+000	 9.068005689667947e+000
 9.252592703483489e-001	 1.514767402144833e+000	 8.907543359407883e+000
 9.097543090427869e-001	 1.524129947589711e+000	 8.750300948037154e+000
 8.941744336552631e-001	 1.533322236894168e+000	 8.596571087298345e+000
 8.785223955630551e-001	 1.542343476805889e+000	 8.446637109398905e+000
 8.628009544439742e-001	 1.551192932215838e+000	 8.300772466017612e+000
 8.470128767716021e-001	 1.559869926154992e+000	 8.159240169921157e+000
 8.311609343174988e-001	 1.568373839745379e+000	 8.022292260448532e+000
 8.152479026619462e-001	 1.576704112105899e+000	 7.890169294040327e+000
 9.849775560819279e-001	 1.506591920194319e+000	 9.474128661034799e+000
 9.694987562781512e-001	 1.516598879584058e+000	 9.313238749066514e+000
 9.539356827128893e-001	 1.526435951236438e+000	 9.154724073351575e+000
 9.382910910611386e-001	 1.536102154289799e+000	 8.998902924352546e+000
 9.225677500191511e-001	 1.545596566572448e+000	 8.846085711213297e+000
 9.067684397671688e-001	 1.554918324740777e+000	 8.696574311075258e+000
 8.908959504342630e-001	 1.564066624369903e+000	 8.550661438384946e+000
 8.749530805669459e-001	 1.573040719997142e+000	 8.408630035674245e+000
 8.589426356032175e-001	 1.581839925118697e+000	 8.270752687219636e+000
 8.428674263536745e-001	 1.590463612140005e+000	 8.137291056907493e+000
 8.267302674912782e-001	 1.598911212280233e+000	 8.008495351549748e+000
 9.986577999184951e-001	 1.527516807974274e+000	 9.541238173986736e+000
 9.829640167845446e-001	 1.537662752911782e+000	 9.384844952903379e+000
 9.671847894201128e-001	 1.547636450559955e+000	 9.230607500232980e+000
 9.513229117734601e-001	 1.557436906434053e+000	 9.078853849417108e+000
 9.353811909949530e-001	 1.567063185554444e+000	 8.929904332879742e+000
 9.193624458784483e-001	 1.576514412586634e+000	 8.784070901558449e+000
 9.032695053048108e-001	 1.585789771933177e+000	 8.641656464582145e+000
 8.871052066892545e-001	 1.594888507777738e+000	 8.502954250652250e+000
 8.708723944341962e-001	 1.603809924081746e+000	 8.368247192607567e+000
 8.545739183892688e-001	 1.612553384534045e+000	 8.237807336571903e+000
 8.382126323201147e-001	 1.621118312454072e+000	 8.111895276998331e+000
 1.012338043755057e+000	 1.548441695753725e+000	 9.599179157633124e+000
 9.964292772907482e-001	 1.558726626238913e+000	 9.446682861138804e+000
 9.804338961269921e-001	 1.568836949882811e+000	 9.296136725954472e+000
 9.643547324853131e-001	 1.578771658577597e+000	 9.147879394526031e+000
 9.481946319701924e-001	 1.588529804535698e+000	 9.002241975419919e+000
 9.319564519891022e-001	 1.598110500431744e+000	 8.859547331812488e+000
 9.156430601746993e-001	 1.607512919495713e+000	 8.720109390312157e+000
 8.992573328108996e-001	 1.616736295557627e+000	 8.584232471749228e+000
 8.828021532645374e-001	 1.625779923044137e+000	 8.452210645490332e+000
 8.662804104242817e-001	 1.634643156927498e+000	 8.324327108750008e+000
 8.496949971484549e-001	 1.643325412627414e+000	 8.200853592285256e+000
 1.026018287591614e+000	 1.569366583532674e+000	 9.648429388016025e+000
 1.009894537796761e+000	 1.579790499565452e+000	 9.499233116468403e+000
 9.936830028335265e-001	 1.590037449205004e+000	 9.351794665567157e+000
 9.773865531966974e-001	 1.600106410720428e+000	 9.206464162465291e+000
 9.610080729448697e-001	 1.609996423516213e+000	 9.063584354739703e+000
 9.445504580991300e-001	 1.619706588276103e+000	 8.923489866563136e+000
 9.280166150439282e-001	 1.629236067057511e+000	 8.786506475425378e+000
 9.114094589318817e-001	 1.638584083336808e+000	 8.652950411120276e+000
 8.947319120942419e-001	 1.647749922005872e+000	 8.523127678633303e+000
 8.779869024587131e-001	 1.656732929320366e+000	 8.397333406479788e+000
 8.611773619762990e-001	 1.665532512800259e+000	 8.275851221951863e+000
 1.039698531428165e+000	 1.590291471311120e+000	 9.689470259332971e+000
 1.023359798302585e+000	 1.600854372891399e+000	 9.542979166906052e+000
 1.006932109539717e+000	 1.611237948526535e+000	 9.398066251464853e+000
 9.904183739076133e-001	 1.621441162862548e+000	 9.255094010536272e+000
 9.738215139189845e-001	 1.631463042495988e+000	 9.114417703851345e+000
 9.571444642085322e-001	 1.641302676119713e+000	 8.976384575903737e+000
 9.403901699124976e-001	 1.650959214618570e+000	 8.841333099305869e+000
 9.235615850522009e-001	 1.660431871115281e+000	 8.709592240741204e+000
 9.066616709233090e-001	 1.669719920966950e+000	 8.581480751230131e+000
 8.896933944925634e-001	 1.678822701712647e+000	 8.457306482336305e+000
 8.726597268036471e-001	 1.687739612972610e+000	 8.337365729849633e+000
 1.053378775264711e+000	 1.611216359089064e+000	 9.722786548991776e+000
 1.036825058808218e+000	 1.621918246216753e+000	 9.578407083620503e+000
 1.020181216245563e+000	 1.632438447847403e+000	 9.435438302387556e+000
 1.003450194618061e+000	 1.642775915003957e+000	 9.294255969093756e+000
 9.866349548925373e-001	 1.652929661475022e+000	 9.155228739295147e+000
 9.697384703173082e-001	 1.662898763962574e+000	 9.018717347933897e+000
 9.527637247804074e-001	 1.672682362178891e+000	 8.885073818044329e+000
 9.357137111718565e-001	 1.682279658893047e+000	 8.754640692420423e+000
 9.185914297517390e-001	 1.691689919927371e+000	 8.627750290043588e+000
 9.013998865258323e-001	 1.700912474104342e+000	 8.504723988981072e+000
 8.841420916304991e-001	 1.709946713144463e+000	 8.385871537367189e+000
 1.067059019101252e+000	 1.632141246866505e+000	 9.748866200738004e+000
 1.050290319313661e+000	 1.642982119541515e+000	 9.606005392784031e+000
 1.033430322951064e+000	 1.653638947167610e+000	 9.464399402501897e+000
 1.016482015328040e+000	 1.664110667144655e+000	 9.324438166350090e+000
 9.994483958655278e-001	 1.674396280453315e+000	 9.186504630144166e+000
 9.823324764254584e-001	 1.684494851804685e+000	 9.050973900425435e+000
 9.651372796476581e-001	 1.694405509738473e+000	 8.918212417213464e+000
 9.478658372908492e-001	 1.704127446670105e+000	 8.788577150117074e+000
 9.305211885795318e-001	 1.713659918887135e+000	 8.662414819690003e+000
 9.131063785585197e-001	 1.723002246495451e+000	 8.540061145823430e+000
 8.956244564568551e-001	 1.732153813315821e+000	 8.421840124869922e+000
 1.080739262937787e+000	 1.653066134643443e+000	 9.768200124253891e+000
 1.063755579818914e+000	 1.664045992865685e+000	 9.626264920192952e+000
 1.046679429656221e+000	 1.674839446487155e+000	 9.485439789665319e+000
 1.029513836037550e+000	 1.685445419284641e+000	 9.346129758890546e+000
 1.012261836837956e+000	 1.695862899430868e+000	 9.208732969362727e+000
 9.949264825329823e-001	 1.706090939646046e+000	 9.073639791602988e+000
 9.775108345142487e-001	 1.716128657297317e+000	 8.941231960634799e+000
 9.600179634091781e-001	 1.725975234446456e+000	 8.811881735248152e+000
 9.424509474066878e-001	 1.735629917846243e+000	 8.685951083027746e+000
 9.248128705906260e-001	 1.745092018885973e+000	 8.563790893023548e+000
 9.071068212827147e-001	 1.754360913486683e+000	 8.445740217840791e+000
 1.094419506774317e+000	 1.673991022419878e+000	 9.781282009787349e+000
 1.077220840323977e+000	 1.685109866189261e+000	 9.639678647540670e+000
 1.059928536361034e+000	 1.696039945806038e+000	 9.499051252070361e+000
 1.042545656746592e+000	 1.706780171423916e+000	 9.359820867400099e+000
 1.025075277809822e+000	 1.717329518407680e+000	 9.222401747313262e+000
 1.007520488639881e+000	 1.727687027486658e+000	 9.087200430115342e+000
 9.898843893801798e-001	 1.737851804855421e+000	 8.954614835488201e+000
 9.721700895268441e-001	 1.747823022222099e+000	 8.825033385597253e+000
 9.543807062332064e-001	 1.757599916804693e+000	 8.698834152517502e+000
 9.365193626221506e-001	 1.767181791275909e+000	 8.576384033945725e+000
 9.185891861080785e-001	 1.776568013657048e+000	 8.458037959060576e+000
 8.037655378321177e-001	 1.554497011931069e+000	 7.756428728258856e+000
 7.880191433779774e-001	 1.562538264995355e+000	 7.595132953420997e+000
 7.722179985526132e-001	 1.570407387467961e+000	 7.435951962977448e+000
 7.563648424060112e-001	 1.578103996913506e+000	 7.279071597354703e+000
 7.404624119843859e-001	 1.585627767271441e+000	 7.124668038326223e+000
 7.245134409262326e-001	 1.592978428549761e+000	 6.972907429422368e+000
 7.085206580754377e-001	 1.600155766478270e+000	 6.823945521707484e+000
 6.924867861127356e-001	 1.607159622122281e+000	 6.677927345548127e+000
 6.764145402067767e-001	 1.613989891457657e+000	 6.534986908915463e+000
 6.603066266860092e-001	 1.620646524908150e+000	 6.395246922676819e+000
 6.441657417325339e-001	 1.627129526846032e+000	 6.258818553247123e+000
 8.152479026619462e-001	 1.576704112105899e+000	 7.890169294040327e+000
 7.992765597150681e-001	 1.584860240213809e+000	 7.731207254599979e+000
 7.832496842489194e-001	 1.592841778721614e+000	 7.574733348991346e+000
 7.671700544427713e-001	 1.600648339730568e+000	 7.420941144168628e+000
 7.510404464434980e-001	 1.608279592522115e+000	 7.270014039425652e+000
 7.348636329415730e-001	 1.615735263247221e+000	 7.122124870006288e+000
 7.186423817643655e-001	 1.623015134574688e+000	 6.977435537273967e+000
 7.023794544880488e-001	 1.630119045299332e+000	 6.836096666092629e+000
 6.860776050693965e-001	 1.637046889910957e+000	 6.698247289985024e+000
 6.697395784986904e-001	 1.643798618125084e+000	 6.564014564543363e+000
 6.533681094749184e-001	 1.650374234376445e+000	 6.433513509479324e+000
 8.267302674912782e-001	 1.598911212280233e+000	 8.008495351549748e+000
 8.105339760517525e-001	 1.607182215431857e+000	 7.851541603958266e+000
 7.942813699448886e-001	 1.615276169974930e+000	 7.697457208966382e+000
 7.779752664792434e-001	 1.623192682547341e+000	 7.546444155060565e+000
 7.616184809023511e-001	 1.630931417772530e+000	 7.398693738661629e+000
 7.452138249566627e-001	 1.638492097944431e+000	 7.254386149996939e+000
 7.287641054530313e-001	 1.645874502670843e+000	 7.113690086764570e+000
 7.122721228630689e-001	 1.653078468476088e+000	 6.976762396271404e+000
 6.957406699316717e-001	 1.660103888363913e+000	 6.843747746635764e+000
 6.791725303109568e-001	 1.666950711341602e+000	 6.714778327549963e+000
 6.625704772167977e-001	 1.673618941906352e+000	 6.589973581007873e+000
 8.382126323201147e-001	 1.621118312454072e+000	 8.111895276998331e+000
 8.217913923880305e-001	 1.629504190649500e+000	 7.956619087463909e+000
 8.053130556405208e-001	 1.637710561227909e+000	 7.804601409205738e+000
 7.887804785154277e-001	 1.645737025363827e+000	 7.656053357578012e+000
 7.721965153609446e-001	 1.653583243022685e+000	 7.511174815869928e+000
 7.555640169715016e-001	 1.661248932641390e+000	 7.370154002486589e+000
 7.388858291414354e-001	 1.668733870766737e+000	 7.233167067196964e+000
 7.221647912377959e-001	 1.676037891652553e+000	 7.100377717160693e+000
 7.054037347936031e-001	 1.683160886816524e+000	 6.971936873350937e+000
 6.886054821228080e-001	 1.690102804557706e+000	 6.847982357891037e+000
 6.717728449581719e-001	 1.696863649435754e+000	 6.728638612727151e+000
 8.496949971484549e-001	 1.643325412627414e+000	 8.200853592285256e+000
 8.330488087239021e-001	 1.651826165866735e+000	 8.046918513520069e+000
 8.163447413358160e-001	 1.660144952480551e+000	 7.896639112825073e+000
 7.995856905513239e-001	 1.668281368180025e+000	 7.750236348296475e+000
 7.827745498192792e-001	 1.676235068272581e+000	 7.607919390175371e+000
 7.659142089860902e-001	 1.684005767338098e+000	 7.469885168370420e+000
 7.490075528295773e-001	 1.691593238862369e+000	 7.336317950364612e+000
 7.320574596122299e-001	 1.698997314828725e+000	 7.207388950250039e+000
 7.150667996551902e-001	 1.706217885268792e+000	 7.083255969534502e+000
 6.980384339342446e-001	 1.713254897773396e+000	 6.964063070262117e+000
 6.809752126990409e-001	 1.720108356964651e+000	 6.849940280887949e+000
 8.611773619762990e-001	 1.665532512800259e+000	 8.275851221951863e+000
 8.443062250593676e-001	 1.674148141083565e+000	 8.122914698135810e+000
 8.273764270307743e-001	 1.682579343732855e+000	 7.974039093298121e+000
 8.103909025869323e-001	 1.690825710995935e+000	 7.829455934884191e+000
 7.933525842773548e-001	 1.698886893522218e+000	 7.689384390706063e+000
 7.762644010004286e-001	 1.706762602034556e+000	 7.554030795826443e+000
 7.591292765174578e-001	 1.714452606957738e+000	 7.423588211185247e+000
 7.419501279863707e-001	 1.721956738004602e+000	 7.298236014748473e+000
 7.247298645164333e-001	 1.729274883720716e+000	 7.178139525849783e+000
 7.074713857452664e-001	 1.736406990988670e+000	 7.063449663292753e+000
 6.901775804394048e-001	 1.743353064493043e+000	 6.954302637673762e+000
 8.726597268036471e-001	 1.687739612972610e+000	 8.337365729849633e+000
 8.555636413944262e-001	 1.696470116299987e+000	 8.185078727583770e+000
 8.384081127253956e-001	 1.705013734984823e+000	 8.037266023249378e+000
 8.211961146222525e-001	 1.713370053811557e+000	 7.894170451161836e+000
 8.039306187351712e-001	 1.721538718771596e+000	 7.756021898040497e+000
 7.866145930145163e-001	 1.729519436730763e+000	 7.623036808257223e+000
 7.692510002050763e-001	 1.737311975052847e+000	 7.495417722232031e+000
 7.518427963602182e-001	 1.744916161180188e+000	 7.373352848787132e+000
 7.343929293773319e-001	 1.752331882172295e+000	 7.257015672162972e+000
 7.169043375558730e-001	 1.759559084203529e+000	 7.146564594288045e+000
 6.993799481792635e-001	 1.766597772020930e+000	 7.042142612784137e+000
 8.841420916304991e-001	 1.709946713144463e+000	 8.385871537367189e+000
 8.668210577290790e-001	 1.718792091516004e+000	 8.233878200590805e+000
 8.494397984196800e-001	 1.727448126236454e+000	 8.086780740742460e+000
 8.320013266572851e-001	 1.735914396626891e+000	 7.944834047612144e+000
 8.145086531927284e-001	 1.744190544020715e+000	 7.808279459048152e+000
 7.969647850283536e-001	 1.752276271426720e+000	 7.677344243561274e+000
 7.793727238924330e-001	 1.760171343147694e+000	 7.552241117522160e+000
 7.617354647337727e-001	 1.767875584355480e+000	 7.433167797800662e+000
 7.440559942378868e-001	 1.775388880623530e+000	 7.320306590581793e+000
 7.263372893660650e-001	 1.782711177417973e+000	 7.213824016976766e+000
 7.085823159186171e-001	 1.789842479548311e+000	 7.113870475933569e+000
 8.956244564568551e-001	 1.732153813315821e+000	 8.421840124869922e+000
 8.780784740633255e-001	 1.741114066731615e+000	 8.269777451898383e+000
 8.604714841136274e-001	 1.749882517487748e+000	 8.123040495085746e+000
 8.428065386920294e-001	 1.758458739441937e+000	 7.981896959542542e+000
 8.250866876500261e-001	 1.766842369269574e+000	 7.846600377512308e+000
 8.073149770419402e-001	 1.775033106122427e+000	 7.717389567306115e+000
 7.894944475795276e-001	 1.783030711242278e+000	 7.594488128321783e+000
 7.716281331070344e-001	 1.790835007530478e+000	 7.478103973033788e+000
 7.537190590980973e-001	 1.798445879074421e+000	 7.368428896722174e+000
 7.357702411758421e-001	 1.805863270632003e+000	 7.265638185586714e+000
 7.177846836574655e-001	 1.813087187075188e+000	 7.169890263773717e+000
 9.071068212827147e-001	 1.754360913486683e+000	 8.445740217840791e+000
 8.893358903971655e-001	 1.763436041946819e+000	 8.293237758844310e+000
 8.715031698072377e-001	 1.772316908738705e+000	 8.146499173968616e+000
 8.536117507264860e-001	 1.781003082256695e+000	 8.005805754881209e+000
 8.356647221070652e-001	 1.789494194518175e+000	 7.871423982679513e+000
 8.176651690552765e-001	 1.797789940817883e+000	 7.743604962116523e+000
 7.996161712663608e-001	 1.805890079336600e+000	 7.622583893446698e+000
 7.815208014800027e-001	 1.813794430705184e+000	 7.508579582818882e+000
 7.633821239579636e-001	 1.821502877524968e+000	 7.401793992017909e+000
 7.452031929852043e-001	 1.829015363845618e+000	 7.302411828231006e+000
 7.269870513958089e-001	 1.836331894601559e+000	 7.210600174390883e+000
 9.185891861080785e-001	 1.776568013657048e+000	 8.458037959060576e+000
 9.005933067305993e-001	 1.785758017161617e+000	 8.304717532450274e+000
 8.825348555005111e-001	 1.794751299989325e+000	 8.157607513562468e+000
 8.644169627606544e-001	 1.803547425071165e+000	 8.017003563387830e+000
 8.462427565638450e-001	 1.812146019766516e+000	 7.883185877668169e+000
 8.280153610683619e-001	 1.820546775513088e+000	 7.756418595358259e+000
 8.097378949529317e-001	 1.828749447430662e+000	 7.636949246290445e+000
 7.914134698526779e-001	 1.836753853879597e+000	 7.525008239008017e+000
 7.730451888174857e-001	 1.844559875975171e+000	 7.420808389606768e+000
 7.546361447941516e-001	 1.852167457058818e+000	 7.324544492290187e+000
 7.361894191336470e-001	 1.859576602127425e+000	 7.236392932216533e+000
 6.441657417325339e-001	 1.627129526846032e+000	 6.258818553247123e+000
 6.279945700989932e-001	 1.633438955056451e+000	 6.099132008245235e+000
 6.117957838498271e-001	 1.639574920168338e+000	 5.952165894582770e+000
 5.955720411275246e-001	 1.645537585051869e+000	 5.812173645027190e+000
 5.793259849448744e-001	 1.651327164182347e+000	 5.678173191642879e+000
 5.630602420043449e-001	 1.656943922973434e+000	 5.549399586417600e+000
 5.467774215453342e-001	 1.662388177080358e+000	 5.425110683615039e+000
 5.304801142200817e-001	 1.667660291674265e+000	 5.304588189420813e+000
 5.141708909989884e-001	 1.672760680688981e+000	 5.187138635139792e+000
 4.978523021060256e-001	 1.677689806041381e+000	 5.072094273413234e+000
 4.815268759848673e-001	 1.682448176826651e+000	 4.958813897153507e+000
 6.533681094749184e-001	 1.650374234376445e+000	 6.433513509479324e+000
 6.369659211041965e-001	 1.656773797275656e+000	 6.281123347842520e+000
 6.205357236231793e-001	 1.662997419032029e+000	 6.143292536501044e+000
 6.040802131478212e-001	 1.669045264842459e+000	 6.014777467458536e+000
 5.876020704482374e-001	 1.674917552246178e+000	 5.890441936758909e+000
 5.711039597512188e-001	 1.680614550448476e+000	 5.769484925915093e+000
 5.545885275710121e-001	 1.686136579613939e+000	 5.651130896195797e+000
 5.380584015691767e-001	 1.691484010130446e+000	 5.534630860557541e+000
 5.215161894442625e-001	 1.696657261845163e+000	 5.419263374158410e+000
 5.049644778520135e-001	 1.701656803273777e+000	 5.304335442969043e+000
 4.884058313567285e-001	 1.706483150784262e+000	 5.189183350236228e+000
 6.625704772167977e-001	 1.673618941906352e+000	 6.589973581007873e+000
 6.459372721088099e-001	 1.680108639494266e+000	 6.444753808521289e+000
 6.292756633958880e-001	 1.686419917895057e+000	 6.312852380362596e+000
 6.125883851674517e-001	 1.692552944632335e+000	 6.195350324429571e+000
 5.958781559509419e-001	 1.698507940309268e+000	 6.081928705652770e+000
 5.791476774974711e-001	 1.704285177922769e+000	 5.970046816825605e+000
 5.623996335961363e-001	 1.709884982146782e+000	 5.858893803474289e+000
 5.456366889178153e-001	 1.715307728585921e+000	 5.747688104986731e+000
 5.288614878892073e-001	 1.720553843000689e+000	 5.635678464336674e+000
 5.120766535978284e-001	 1.725623800505588e+000	 5.522144850858560e+000
 4.952847867286022e-001	 1.730518124741380e+000	 5.406399295886676e+000
 6.717728449581719e-001	 1.696863649435754e+000	 6.728638612727151e+000
 6.549086231128336e-001	 1.703443481712282e+000	 6.590455328373126e+000
 6.380156031679536e-001	 1.709842416757420e+000	 6.464808195511876e+000
 6.210965571864152e-001	 1.716060624421499e+000	 6.353318083612506e+000
 6.041542414529868e-001	 1.722098328371618e+000	 6.252092400516944e+000
 5.871913952431019e-001	 1.727955805396312e+000	 6.150575243048974e+000
 5.702107396207070e-001	 1.733633384678889e+000	 6.047918499406673e+000
 5.532149762659975e-001	 1.739131447040689e+000	 5.943306137992606e+000
 5.362067863338227e-001	 1.744450424155561e+000	 5.835955238244839e+000
 5.191888293434702e-001	 1.749590797736816e+000	 5.725116929347079e+000
 5.021637421004885e-001	 1.754553098698004e+000	 5.610077236687094e+000
 6.809752126990409e-001	 1.720108356964651e+000	 6.849940280887949e+000
 6.638799741162675e-001	 1.726778323929701e+000	 6.718651442469215e+000
 6.467555429393755e-001	 1.733264915619120e+000	 6.599164113383717e+000
 6.296047292047127e-001	 1.739568304209950e+000	 6.491559830490221e+000
 6.124303269543728e-001	 1.745688716433225e+000	 6.400383294630682e+000
 5.952351129881115e-001	 1.751626432869106e+000	 6.310551641745390e+000
 5.780218456447236e-001	 1.757381787210257e+000	 6.217715691208679e+000
 5.607932636137233e-001	 1.762955165494752e+000	 6.121023025335269e+000
 5.435520847781089e-001	 1.768347005309777e+000	 6.019657192715124e+000
 5.263010050889393e-001	 1.773557794967459e+000	 5.912838664630665e+000
 5.090426974723873e-001	 1.778588072654134e+000	 5.799825693978442e+000
 6.901775804394048e-001	 1.743353064493043e+000	 6.954302637673762e+000
 6.728513251191122e-001	 1.750113166146527e+000	 6.829757843061831e+000
 6.554954827101545e-001	 1.756687414480155e+000	 6.716326301125712e+000
 6.381129012223437e-001	 1.763075983997688e+000	 6.614103957648733e+000
 6.207064124550999e-001	 1.769279104494092e+000	 6.526243607621083e+000
 6.032788307324996e-001	 1.775297060341149e+000	 6.449449473118337e+000
 5.858329516681865e-001	 1.781130189740887e+000	 6.367788258471633e+000
 5.683715509609929e-001	 1.786778883948108e+000	 6.280369226552571e+000
 5.508973832220657e-001	 1.792243586463340e+000	 6.186340511224125e+000
 5.334131808342354e-001	 1.797524792197518e+000	 6.084890093240951e+000
 5.159216528442988e-001	 1.802623046609771e+000	 5.975246673276644e+000
 6.993799481792635e-001	 1.766597772020930e+000	 7.042142612784137e+000
 6.818226761213673e-001	 1.773448008362758e+000	 6.924182895559035e+000
 6.642354224802897e-001	 1.780109913340527e+000	 6.816693464295599e+000
 6.466210732393083e-001	 1.786583663784714e+000	 6.719784967038709e+000
 6.289824979551680e-001	 1.792869492554218e+000	 6.633547485508975e+000
 6.113225484762662e-001	 1.798967687812444e+000	 6.566734745214236e+000
 5.936440576910957e-001	 1.804878592270780e+000	 6.497631768137772e+000
 5.759498383078062e-001	 1.810602602400758e+000	 6.420868095369039e+000
 5.582426816656934e-001	 1.816140167616246e+000	 6.335554545034651e+000
 5.405253565793585e-001	 1.821491789426993e+000	 6.240844759259550e+000
 5.228006082162227e-001	 1.826658020564913e+000	 6.135936092945184e+000
 7.085823159186171e-001	 1.789842479548311e+000	 7.113870475933569e+000
 6.907940271230324e-001	 1.796782850578394e+000	 7.002328114294012e+000
 6.729753622497819e-001	 1.803532412200234e+000	 6.900657331380066e+000
 6.551292452556067e-001	 1.810091343571027e+000	 6.808983788830290e+000
 6.372585834545769e-001	 1.816459880613602e+000	 6.727412672986008e+000
 6.193662662194115e-001	 1.822638315282988e+000	 6.661866497828863e+000
 6.014551637134511e-001	 1.828626994799934e+000	 6.606734949347660e+000
 5.835281256541632e-001	 1.834426320852702e+000	 6.542036341112826e+000
 5.655879801089915e-001	 1.840036748768498e+000	 6.466842256845975e+000
 5.476375323243088e-001	 1.845458786655884e+000	 6.380270135906132e+000
 5.296795635881594e-001	 1.850692994519563e+000	 6.281484179464830e+000
 7.177846836574655e-001	 1.813087187075188e+000	 7.169890263773717e+000
 6.997653781241079e-001	 1.820117692793435e+000	 7.064588601696362e+000
 6.817153020186306e-001	 1.826954911059278e+000	 6.968603101042739e+000
 6.636374172712383e-001	 1.833599023356627e+000	 6.882074766038016e+000
 6.455346689533268e-001	 1.840050268672245e+000	 6.805124177178209e+000
 6.274099839619352e-001	 1.846308942752784e+000	 6.737851342942395e+000
 6.092662697352527e-001	 1.852375397328350e+000	 6.694580131760764e+000
 5.911064130000636e-001	 1.858250039303940e+000	 6.643384454638267e+000
 5.729332785519605e-001	 1.863933329920095e+000	 6.579740630317216e+000
 5.547497080690861e-001	 1.869425783884191e+000	 6.502728014696043e+000
 5.365585189601084e-001	 1.874727968473718e+000	 6.411475832297881e+000
 7.269870513958089e-001	 1.836331894601559e+000	 7.210600174390883e+000
 7.087367291245936e-001	 1.843452535007881e+000	 7.111353454108759e+000
 6.904552417868359e-001	 1.850377409917658e+000	 7.020909855404418e+000
 6.721455892862036e-001	 1.857106703141514e+000	 6.939426071429048e+000
 6.538107544514177e-001	 1.863640656730146e+000	 6.867038383957954e+000
 6.354537017038378e-001	 1.869979570221829e+000	 6.803862484818037e+000
 6.170773757565004e-001	 1.876123799856030e+000	 6.745805354943969e+000
 5.986847003455080e-001	 1.882073757754471e+000	 6.628823053789404e+000
 5.802785769946002e-001	 1.887829911071037e+000	 6.497963075618730e+000
 5.618618838136904e-001	 1.893392781111915e+000	 6.354454508973596e+000
 5.434374743320700e-001	 1.898762942427380e+000	 6.199446495832348e+000
 7.361894191336470e-001	 1.859576602127425e+000	 7.236392932216533e+000
 7.177080801244898e-001	 1.866787377221733e+000	 7.143006137167573e+000
 6.991951815543979e-001	 1.873799908775373e+000	 7.057950942326623e+000
 6.806537613005025e-001	 1.880614382925689e+000	 6.915497848428519e+000
 6.620868399488495e-001	 1.887231044787307e+000	 6.765110904544840e+000
 6.434974194451185e-001	 1.893650197690125e+000	 6.620528154603864e+000
 6.248884817771946e-001	 1.899872202382971e+000	 6.482053423586598e+000
 6.062629876904958e-001	 1.905897476204296e+000	 6.372680443880744e+000
 5.876238754369104e-001	 1.911726492221324e+000	 6.249653008779692e+000
 5.689740595581216e-001	 1.917359778339053e+000	 6.114285099660631e+000
 5.503164297040443e-001	 1.922797916380548e+000	 5.967807149258334e+000
 4.815268759848673e-001	 1.682448176826651e+000	 4.958813897153507e+000
 4.651971182959880e-001	 1.687036348490034e+000	 4.843892643919371e+000
 4.488655109461449e-001	 1.691454921975343e+000	 4.738154450182809e+000
 4.325345111503017e-001	 1.695704542852121e+000	 4.641047969536392e+000
 4.162065505255864e-001	 1.699785900423492e+000	 4.552042685330084e+000
 3.998840342185866e-001	 1.703699726814957e+000	 4.470629493232236e+000
 3.835693400660090e-001	 1.707446796045747e+000	 4.396321216295821e+000
 3.672648177889564e-001	 1.711027923084024e+000	 4.328653053244643e+000
 3.509727882210215e-001	 1.714443962887209e+000	 4.267182960859251e+000
 3.346955425703510e-001	 1.717695809428702e+000	 4.211491971501626e+000
 3.184353417157770e-001	 1.720784394712270e+000	 4.161184446966324e+000
 4.884058313567285e-001	 1.706483150784262e+000	 5.189183350236228e+000
 4.718427914142042e-001	 1.711136867756843e+000	 5.074859381913861e+000
 4.552778753871787e-001	 1.715618563720287e+000	 4.968591658550590e+000
 4.387135755936854e-001	 1.719928893466560e+000	 4.869801392242920e+000
 4.221523583882384e-001	 1.724068556145973e+000	 4.777932665732165e+000
 4.055966632766609e-001	 1.728038294342964e+000	 4.692453025213885e+000
 3.890489020647540e-001	 1.731838893134178e+000	 4.612854001674199e+000
 3.725114580410631e-001	 1.735471179130182e+000	 4.538651561544180e+000
 3.559866851939451e-001	 1.738936019502071e+000	 4.469386487638239e+000
 3.394769074630900e-001	 1.742234320994296e+000	 4.404624691507578e+000
 3.229844180255973e-001	 1.745367028924961e+000	 4.343957458497108e+000
 4.952847867286022e-001	 1.730518124741380e+000	 5.406399295886676e+000
 4.784884645326171e-001	 1.735237387023252e+000	 5.293654817706697e+000
 4.616902398285628e-001	 1.739782205464916e+000	 5.187812251072106e+000
 4.448926400375421e-001	 1.744153244080758e+000	 5.088264102171707e+000
 4.280981662514560e-001	 1.748351211868278e+000	 4.994427852137493e+000
 4.113092923353628e-001	 1.752376861870848e+000	 4.905746560693784e+000
 3.945284640641586e-001	 1.756230990222532e+000	 4.821689394228772e+000
 3.777580982938318e-001	 1.759914435176296e+000	 4.741752079159548e+000
 3.610005821675032e-001	 1.763428076116914e+000	 4.665457281643824e+000
 3.442582723564071e-001	 1.766772832559885e+000	 4.592354914864527e+000
 3.275334943359103e-001	 1.769949663137652e+000	 4.522022375279195e+000
 5.021637421004885e-001	 1.754553098698004e+000	 5.610077236687094e+000
 4.851341376512272e-001	 1.759337906289263e+000	 5.499925596696064e+000
 4.681026042702975e-001	 1.763945847209230e+000	 5.395492977202917e+000
 4.510717044818723e-001	 1.768377594694717e+000	 5.296141894140439e+000
 4.340439741152393e-001	 1.772633867590408e+000	 5.201262007397648e+000
 4.170219213946925e-001	 1.776715429398611e+000	 5.110270735902906e+000
 4.000080260642230e-001	 1.780623087310807e+000	 5.022613792897988e+000
 3.830047385472624e-001	 1.784357691222366e+000	 4.937765642355207e+000
 3.660144791416964e-001	 1.787920132731738e+000	 4.855229877680167e+000
 3.490396372503025e-001	 1.791311344125469e+000	 4.774539524025960e+000
 3.320825706467159e-001	 1.794532297350343e+000	 4.695257265714185e+000
 5.090426974723873e-001	 1.778588072654134e+000	 5.799825693978442e+000
 4.917798107700342e-001	 1.783438425554874e+000	 5.693311267567863e+000
 4.745149687123827e-001	 1.788109488953231e+000	 5.591303393281756e+000
 4.572507689266760e-001	 1.792601945308436e+000	 5.493133292406208e+000
 4.399897819795881e-001	 1.796916523312362e+000	 5.398161565204926e+000
 4.227345504546500e-001	 1.801053996926252e+000	 5.305778818034646e+000
 4.054875880649472e-001	 1.805015184399005e+000	 5.215406206290337e+000
 3.882513788013552e-001	 1.808800947268393e+000	 5.126495894215044e+000
 3.710283761165242e-001	 1.812412189346542e+000	 5.038531432810074e+000
 3.538210021447761e-001	 1.815849855691048e+000	 4.951028057271401e+000
 3.366316469580142e-001	 1.819114931563034e+000	 4.863532905556216e+000
 5.159216528442988e-001	 1.802623046609771e+000	 5.975246673276644e+000
 4.984254838890382e-001	 1.807538944820087e+000	 5.873444755410047e+000
 4.809273331548185e-001	 1.812273130696917e+000	 5.774906342071489e+000
 4.634298333719529e-001	 1.816826295921914e+000	 5.678930035369193e+000
 4.459355898445027e-001	 1.821199179034140e+000	 5.584846118702858e+000
 4.284471795152351e-001	 1.825392564453770e+000	 5.492017196513906e+000
 4.109671500663312e-001	 1.829407281487125e+000	 5.399838745372582e+000
 3.934980190561099e-001	 1.833244203314375e+000	 5.307739577520872e+000
 3.760422730919868e-001	 1.836904245961326e+000	 5.215182218204065e+000
 3.586023670398280e-001	 1.840388367256623e+000	 5.121663198317854e+000
 3.411807232698052e-001	 1.843697565775724e+000	 5.026713264088239e+000
 5.228006082162227e-001	 1.826658020564913e+000	 6.135936092945184e+000
 5.050711570082394e-001	 1.831639464084900e+000	 6.039952797475512e+000
 4.873396975976047e-001	 1.836436772440289e+000	 5.945958394442039e+000
 4.696088978177030e-001	 1.841050646535153e+000	 5.853217522010970e+000
 4.518813977099829e-001	 1.845481834755742e+000	 5.761028870522311e+000
 4.341598085764480e-001	 1.849731131981168e+000	 5.668725835481883e+000
 4.164467120683749e-001	 1.853799378575167e+000	 5.575677077262185e+000
 3.987446593115267e-001	 1.857687459360314e+000	 5.481286988719972e+000
 3.810561700680842e-001	 1.861396302576092e+000	 5.384996072159866e+000
 3.633837319354580e-001	 1.864926878822192e+000	 5.286281227277991e+000
 3.457297995820888e-001	 1.868280199988415e+000	 5.184655951916299e+000
 5.296795635881594e-001	 1.850692994519563e+000	 6.281484179464830e+000
 5.117168301276374e-001	 1.855739983349315e+000	 6.192456344989681e+000
 4.937520620407415e-001	 1.860600414183346e+000	 6.104110256635933e+000
 4.757879622639266e-001	 1.865274997148151e+000	 6.015675223544871e+000
 4.578272055760287e-001	 1.869764490477167e+000	 5.926417047749999e+000
 4.398724376382885e-001	 1.874069699508443e+000	 5.835638691022327e+000
 4.219262740710783e-001	 1.878191475663132e+000	 5.709760282534576e+000
 4.039912995676055e-001	 1.882130715406210e+000	 5.580247327684235e+000
 3.860700670448163e-001	 1.885888359190838e+000	 5.457729745897406e+000
 3.681650968316665e-001	 1.889465390387757e+000	 5.342363524930593e+000
 3.502788758948651e-001	 1.892862834201107e+000	 5.234217870725228e+000
 5.365585189601084e-001	 1.874727968473718e+000	 6.411475832297881e+000
 5.183625032472324e-001	 1.879840502613331e+000	 6.265290202098554e+000
 5.001644264842287e-001	 1.884764055926089e+000	 6.120659332042010e+000
 4.819670267106234e-001	 1.889499347760910e+000	 5.982056316643359e+000
 4.637730134426401e-001	 1.894047146198417e+000	 5.850131376980604e+000
 4.455850667007568e-001	 1.898408267035597e+000	 5.725441115885619e+000
 4.274058360744414e-001	 1.902583572751019e+000	 5.608448654794499e+000
 4.092379398243464e-001	 1.906573971452062e+000	 5.499523971316892e+000
 3.910839640221832e-001	 1.910380415805565e+000	 5.398944432176719e+000
 3.729464617284529e-001	 1.914003901953317e+000	 5.306895515773144e+000
 3.548279522081341e-001	 1.917445468413798e+000	 5.223471718247534e+000
 5.434374743320700e-001	 1.898762942427380e+000	 6.199446495832348e+000
 5.250081763670245e-001	 1.903941021876948e+000	 6.061838347138664e+000
 5.065767909280665e-001	 1.908927697668517e+000	 5.930680850382042e+000
 4.881460911577936e-001	 1.913723698373428e+000	 5.806774838299187e+000
 4.697188213098173e-001	 1.918329801919491e+000	 5.690823257322627e+000
 4.512976957638528e-001	 1.922746834562629e+000	 5.583431074061908e+000
 4.328853980784645e-001	 1.926975669838828e+000	 5.485105396680265e+000
 4.144845800817492e-001	 1.931017227497871e+000	 5.396255806064290e+000
 3.960978610001849e-001	 1.934872472420273e+000	 5.317194891232544e+000
 3.777278266258177e-001	 1.938542413518872e+000	 5.248138983016870e+000
 3.593770285218957e-001	 1.942028102626488e+000	 5.189209079661669e+000
 5.503164297040443e-001	 1.922797916380548e+000	 5.967807149258334e+000
 5.316538494870134e-001	 1.928041541140166e+000	 5.841406606513822e+000
 5.129891553722548e-001	 1.933091339410632e+000	 5.722706905673711e+000
 4.943251556054371e-001	 1.937948048985706e+000	 5.612568253120545e+000
 4.756646291775600e-001	 1.942612457640390e+000	 5.511748480691566e+000
 4.570103248275765e-001	 1.947085402089539e+000	 5.420902926603128e+000
 4.383649600831473e-001	 1.951367766926559e+000	 5.340584540812682e+000
 4.197312203398141e-001	 1.955460483543635e+000	 5.271244209525264e+000
 4.011117579788213e-001	 1.959364529034961e+000	 5.213231293085398e+000
 3.825091915237606e-001	 1.963080925084422e+000	 5.166794371059575e+000
 3.639261048361499e-001	 1.966610736839179e+000	 5.132082187912794e+000
 3.184353417157770e-001	 1.720784394712270e+000	 4.161184446966324e+000
 3.021944155378737e-001	 1.723710687775430e+000	 4.100222526397132e+000
 2.859749622825958e-001	 1.726475693682788e+000	 4.049558349962381e+000
 2.697791479589108e-001	 1.729080452510761e+000	 4.008846809334274e+000
 2.536091057720334e-001	 1.731526038325072e+000	 3.977761868094602e+000
 2.374669355897513e-001	 1.733813558151911e+000	 3.955996639052388e+000
 2.213547034424477e-001	 1.735944150944025e+000	 3.943263410408919e+000
 2.052744410566008e-001	 1.737918986542895e+000	 3.939293622496827e+000
 1.892281454215078e-001	 1.739739264638117e+000	 3.943837796894354e+000
 1.732177783889445e-001	 1.741406213725087e+000	 3.956665419788892e+000
 1.572452663054261e-001	 1.742921090062064e+000	 3.977564781521164e+000
 3.229844180255973e-001	 1.745367028924961e+000	 4.343957458497108e+000
 3.065114786173200e-001	 1.748335126174922e+000	 4.272426670799488e+000
 2.900603188875702e-001	 1.751139632166796e+000	 4.208678092518285e+000
 2.736331357883017e-001	 1.753781601835235e+000	 4.152367632168548e+000
 2.572320929990906e-001	 1.756262124589759e+000	 4.103173101195541e+000
 2.408593203858371e-001	 1.758582323271217e+000	 4.060794240872816e+000
 2.245169134936454e-001	 1.760743353103111e+000	 4.024952694720987e+000
 2.082069330736587e-001	 1.762746400638945e+000	 3.995391928356301e+000
 1.919314046435941e-001	 1.764592682706737e+000	 3.971877098755571e+000
 1.756923180816825e-001	 1.766283445351817e+000	 3.954194875000029e+000
 1.594916272536765e-001	 1.767819962778993e+000	 3.942153212617123e+000
 3.275334943359103e-001	 1.769949663137652e+000	 4.522022375279195e+000
 3.108285416971643e-001	 1.772959564574414e+000	 4.440381263135351e+000
 2.941456754928580e-001	 1.775803570650804e+000	 4.364003553319948e+000
 2.774871236179319e-001	 1.778482751159709e+000	 4.292545316675704e+000
 2.608550802263231e-001	 1.780998210854445e+000	 4.225687406024568e+000
 2.442517051820443e-001	 1.783351088390523e+000	 4.163135432582153e+000
 2.276791235449205e-001	 1.785542555262198e+000	 4.104619684477740e+000
 2.111394250907600e-001	 1.787573814734995e+000	 4.049894989472604e+000
 1.946346638656996e-001	 1.789446100775357e+000	 3.998740524056441e+000
 1.781668577744253e-001	 1.791160676978547e+000	 3.950959571170292e+000
 1.617379882019268e-001	 1.792718835495921e+000	 3.906379228871686e+000
 3.320825706467159e-001	 1.794532297350343e+000	 4.695257265714185e+000
 3.151456047774062e-001	 1.797584002973905e+000	 4.603992576016607e+000
 2.982310320984593e-001	 1.800467509134812e+000	 4.515466632781321e+000
 2.813411114478012e-001	 1.803183900484183e+000	 4.429334817384606e+000
 2.644780674537309e-001	 1.805734297119132e+000	 4.345280222163028e+000
 2.476440899783729e-001	 1.808119853509829e+000	 4.263013576245961e+000
 2.308413335962730e-001	 1.810341757421285e+000	 4.182273109985871e+000
 2.140719171079047e-001	 1.812401228831045e+000	 4.102824360270750e+000
 1.973379230878242e-001	 1.814299518843976e+000	 4.024459919089183e+000
 1.806413974671729e-001	 1.816037908605277e+000	 3.946999127792690e+000
 1.639843491501772e-001	 1.817617708212850e+000	 3.870287719563942e+000
 3.366316469580142e-001	 1.819114931563034e+000	 4.863532905556216e+000
 3.194626678580462e-001	 1.822208441373398e+000	 4.763159216040167e+000
 3.023163887043739e-001	 1.825131447618820e+000	 4.662991285039854e+000
 2.851950992779099e-001	 1.827885049808657e+000	 4.562682954673813e+000
 2.681010546813138e-001	 1.830470383383818e+000	 4.461918758796097e+000
 2.510364747748227e-001	 1.832888618629135e+000	 4.360413798113576e+000
 2.340035436477028e-001	 1.835140959580371e+000	 4.257913550301057e+000
 2.170044091250927e-001	 1.837228642927095e+000	 4.154193617593578e+000
 2.000411823099683e-001	 1.839152936912596e+000	 4.049059414420475e+000
 1.831159371599253e-001	 1.840915140232007e+000	 3.942345797724881e+000
 1.662307100984275e-001	 1.842516580929779e+000	 3.833916642674863e+000
 3.411807232698052e-001	 1.843697565775724e+000	 5.026713264088239e+000
 3.237797309390840e-001	 1.846832879772890e+000	 4.917772634855475e+000
 3.064017453106021e-001	 1.849795386102829e+000	 4.806494047708115e+000
 2.890490871082579e-001	 1.852586199133131e+000	 4.692528957048484e+000
 2.717240419090721e-001	 1.855206469648505e+000	 4.575562543406069e+000
 2.544288595713937e-001	 1.857657383748441e+000	 4.455313537672749e+000
 2.371657536992101e-001	 1.859940161739458e+000	 4.331533976644124e+000
 2.199369011423242e-001	 1.862056057023146e+000	 4.204008892540351e+000
 2.027444415321314e-001	 1.864006354981216e+000	 4.072555939272668e+000
 1.855904768526824e-001	 1.865792371858737e+000	 3.937024958298157e+000
 1.684770710466778e-001	 1.867415453646707e+000	 3.797297486974264e+000
 3.457297995820888e-001	 1.868280199988415e+000	 5.184655951916299e+000
 3.280967940205198e-001	 1.871457318172382e+000	 5.067717599885056e+000
 3.104871019171435e-001	 1.874459324586836e+000	 4.945884529802847e+000
 2.929030749388450e-001	 1.877287348457605e+000	 4.817148163079083e+000
 2.753470291370055e-001	 1.879942555913192e+000	 4.691336666418658e+000
 2.578212443680862e-001	 1.882426148867748e+000	 4.569414844911549e+000
 2.403279637507948e-001	 1.884739363898545e+000	 4.450983472736011e+000
 2.228693931595991e-001	 1.886883471119196e+000	 4.335571000368961e+000
 2.054477007543138e-001	 1.888859773049835e+000	 4.222635503786434e+000
 1.880650165454444e-001	 1.890669603485467e+000	 4.111566740026601e+000
 1.707234319949282e-001	 1.892314326363635e+000	 4.001688301641954e+000
 3.502788758948651e-001	 1.892862834201107e+000	 5.234217870725228e+000
 3.324138571023533e-001	 1.896081756571874e+000	 5.121332945756610e+000
 3.145724585239986e-001	 1.899123263070844e+000	 5.013407458919506e+000
 2.967570627696715e-001	 1.901988497782079e+000	 4.910288580374142e+000
 2.789700163651142e-001	 1.904678642177878e+000	 4.811742885113437e+000
 2.612136291649000e-001	 1.907194913987054e+000	 4.717457970526930e+000
 2.434901738024568e-001	 1.909538566057631e+000	 4.627044208170704e+000
 2.258018851769174e-001	 1.911710885215246e+000	 4.540036622281481e+000
 2.081509599765154e-001	 1.913713191118455e+000	 4.455896887451459e+000
 1.905395562382111e-001	 1.915546835112197e+000	 4.374015437784403e+000
 1.729697929431785e-001	 1.917213199080564e+000	 4.293713679786618e+000
 3.548279522081341e-001	 1.917445468413798e+000	 5.223471718247534e+000
 3.367309201845848e-001	 1.920706194971366e+000	 5.136587634405536e+000
 3.186578151311670e-001	 1.923787201554852e+000	 5.055110157678231e+000
 3.006110506007370e-001	 1.926689647106553e+000	 4.978905919380979e+000
 2.825930035933981e-001	 1.929414728442565e+000	 4.907757664487843e+000
 2.646060139618350e-001	 1.931963679106360e+000	 4.841365902790461e+000
 2.466523838541962e-001	 1.934337768216718e+000	 4.779350700382850e+000
 2.287343771942790e-001	 1.936538299311296e+000	 4.721253603744376e+000
 2.108542191987363e-001	 1.938566609187074e+000	 4.666539688561997e+000
 1.930140959309827e-001	 1.940424066738927e+000	 4.614599725334217e+000
 1.752161538914289e-001	 1.942112071797492e+000	 4.564752453723433e+000
 3.593770285218957e-001	 1.942028102626488e+000	 5.189209079661669e+000
 3.410479832672141e-001	 1.945330633370858e+000	 5.128044979468409e+000
 3.227431717386489e-001	 1.948451140038860e+000	 5.072858602969443e+000
 3.044650384320420e-001	 1.951390796431027e+000	 5.023536632441346e+000
 2.862159908218573e-001	 1.954150814707252e+000	 4.979878415339718e+000
 2.679983987588914e-001	 1.956732444225666e+000	 4.941597651129497e+000
 2.498145939060131e-001	 1.959136970375806e+000	 4.908324224775433e+000
 2.316668692116841e-001	 1.961365713407346e+000	 4.879606178885549e+000
 2.135574784209763e-001	 1.963420027255694e+000	 4.854911816367452e+000
 1.954886356237590e-001	 1.965301298365657e+000	 4.833631925346783e+000
 1.774625148396792e-001	 1.967010944514421e+000	 4.815082118021308e+000
 3.639261048361499e-001	 1.966610736839179e+000	 5.132082187912794e+000
 3.453650463502414e-001	 1.969955071770350e+000	 5.096316182464731e+000
 3.268285283464441e-001	 1.973115078522868e+000	 5.067223575252445e+000
 3.083190262635861e-001	 1.976091945755501e+000	 5.044711721355491e+000
 2.898389780504916e-001	 1.978886900971938e+000	 5.028597033432656e+000
 2.713907835560691e-001	 1.981501209344972e+000	 5.018606706305801e+000
 2.529768039579073e-001	 1.983936172534892e+000	 5.014380594750737e+000
 2.345993612291326e-001	 1.986193127503396e+000	 5.015473236204921e+000
 2.162607376432356e-001	 1.988273445324313e+000	 5.021356009954086e+000
 1.979631753165401e-001	 1.990178529992387e+000	 5.031419424248827e+000
 1.797088757879294e-001	 1.991909817231349e+000	 5.044975522716243e+000
 1.572452663054261e-001	 1.742921090062064e+000	 3.977564781521164e+000
 1.413124996760967e-001	 1.744285176627427e+000	 3.988609411649142e+000
 1.254213328617058e-001	 1.745499782078859e+000	 4.006581214157132e+000
 1.095735838069919e-001	 1.746566239714984e+000	 4.031369497064395e+000
 9.377103379879261e-002	 1.747485906439909e+000	 4.062881276814582e+000
 7.801542725524828e-002	 1.748260161732354e+000	 4.101040886174012e+000
 6.230847154497118e-002	 1.748890406620027e+000	 4.145789551893679e+000
 4.665183683563808e-002	 1.749378062660108e+000	 4.197084944295267e+000
 3.104715597144679e-002	 1.749724570926687e+000	 4.254900700934882e+000
 1.549602437885576e-002	 1.749931391005967e+000	 4.319225926488793e+000
 0.000000000000000e+000	 1.750000000000000e+000	 4.390064670986978e+000
 1.594916272536765e-001	 1.767819962778993e+000	 3.942153212617123e+000
 1.433312496720404e-001	 1.769203536294951e+000	 3.920378620902547e+000
 1.272130661884947e-001	 1.770435493252530e+000	 3.904505377946190e+000
 1.111389207184162e-001	 1.771517185997479e+000	 3.894429078087412e+000
 9.511061999559632e-002	 1.772449990818246e+000	 3.890064501840436e+000
 7.912993335843395e-002	 1.773235306900391e+000	 3.891345184144602e+000
 6.319859256652072e-002	 1.773874555286303e+000	 3.898222950816377e+000
 4.731829164707083e-002	 1.774369177841121e+000	 3.910667425495888e+000
 3.149068677062692e-002	 1.774720636225708e+000	 3.928665509373720e+000
 1.571739615545318e-002	 1.774930410877498e+000	 3.952220835972421e+000
 0.000000000000000e+000	 1.775000000000000e+000	 3.981353203236900e+000
 1.617379882019268e-001	 1.792718835495921e+000	 3.906379228871686e+000
 1.453499996679842e-001	 1.794121895962475e+000	 3.851842235828515e+000
 1.290047995152837e-001	 1.795371204426202e+000	 3.802134181165030e+000
 1.127042576298404e-001	 1.796468132279973e+000	 3.757157074723485e+000
 9.645020619240004e-002	 1.797414075196582e+000	 3.716833645951662e+000
 8.024443946161963e-002	 1.798210452068428e+000	 3.681106871065105e+000
 6.408871358807028e-002	 1.798858703952579e+000	 3.649939466798898e+000
 4.798474645850356e-002	 1.799360293022134e+000	 3.623313353176987e+000
 3.193421756980704e-002	 1.799716701524729e+000	 3.601229087723254e+000
 1.593876793205060e-002	 1.799929430749029e+000	 3.583705273520641e+000
 0.000000000000000e+000	 1.800000000000000e+000	 3.570777943508048e+000
 1.639843491501772e-001	 1.817617708212850e+000	 3.870287719563942e+000
 1.473687496639280e-001	 1.819040255629999e+000	 3.783061748413970e+000
 1.307965328420726e-001	 1.820306915599874e+000	 3.699544767068252e+000
 1.142695945412646e-001	 1.821419078562468e+000	 3.619645328823956e+000
 9.778979238920371e-002	 1.822378159574918e+000	 3.543294296690250e+000
 8.135894556480529e-002	 1.823185597236464e+000	 3.470444328000300e+000
 6.497883460961983e-002	 1.823842852618854e+000	 3.401069323948357e+000
 4.865120126993631e-002	 1.824351408203147e+000	 3.335163846621770e+000
 3.237774836898717e-002	 1.824712766823750e+000	 3.272742506091053e+000
 1.616013970864802e-002	 1.824928450620559e+000	 3.213839320105058e+000
 0.000000000000000e+000	 1.825000000000000e+000	 3.158507048916530e+000
 1.662307100984275e-001	 1.842516580929779e+000	 3.833916642674863e+000
 1.493874996598718e-001	 1.843958615297522e+000	 3.714091492914240e+000
 1.325882661688616e-001	 1.845242626773545e+000	 3.596806896938985e+000
 1.158349314526889e-001	 1.846370024844962e+000	 3.481978078288304e+000
 9.912937858600741e-002	 1.847342243953256e+000	 3.369544217987897e+000
 8.247345166799099e-002	 1.848160742404501e+000	 3.259467895127991e+000
 6.586895563116936e-002	 1.848827001285130e+000	 3.151734490649319e+000
 4.931765608136905e-002	 1.849342523384160e+000	 3.046351557051558e+000
 3.282127916816730e-002	 1.849708832122771e+000	 2.943348156734243e+000
 1.638151148524544e-002	 1.849927470492090e+000	 2.842774171659641e+000
 0.000000000000000e+000	 1.850000000000000e+000	 2.744699587004619e+000
 1.684770710466778e-001	 1.867415453646707e+000	 3.797297486974264e+000
 1.514062496558155e-001	 1.868876974965046e+000	 3.644979123035081e+000
 1.343799994956505e-001	 1.870178337947216e+000	 3.493983442220608e+000
 1.174002683641131e-001	 1.871320971127456e+000	 3.344232463994182e+000
 1.004689647828111e-001	 1.872306328331592e+000	 3.195673871739519e+000
 8.358795777117667e-002	 1.873135887572538e+000	 3.048280407798592e+000
 6.675907665271889e-002	 1.873811149951406e+000	 2.902049229945547e+000
 4.998411089280181e-002	 1.874333638565173e+000	 2.757001232163593e+000
 3.326480996734743e-002	 1.874704897421792e+000	 2.613180332582601e+000
 1.660288326184286e-002	 1.874926490363621e+000	 2.470652731416581e+000
 0.000000000000000e+000	 1.875000000000000e+000	 2.329506141712281e+000
 1.707234319949282e-001	 1.892314326363635e+000	 4.001688301641954e+000
 1.534249996517593e-001	 1.893795334632570e+000	 3.884933275046600e+000
 1.361717328224395e-001	 1.895114049120888e+000	 3.774678277695478e+000
 1.189656052755374e-001	 1.896271917409951e+000	 3.669993054841037e+000
 1.018085509796148e-001	 1.897270412709929e+000	 3.569886426515669e+000
 8.470246387436235e-002	 1.898111032740575e+000	 3.473308985513882e+000
 6.764919767426847e-002	 1.898795298617682e+000	 3.379155850048360e+000
 5.065056570423454e-002	 1.899324753746186e+000	 3.286269463566820e+000
 3.370834076652756e-002	 1.899700962720813e+000	 3.193442434331620e+000
 1.682425503844029e-002	 1.899925510235152e+000	 3.099420407503314e+000
 0.000000000000000e+000	 1.900000000000000e+000	 3.002904962621706e+000
 1.729697929431785e-001	 1.917213199080564e+000	 4.293713679786618e+000
 1.554437496477031e-001	 1.918713694300094e+000	 4.207626048062352e+000
 1.379634661492284e-001	 1.920049760294560e+000	 4.129573715440148e+000
 1.205309421869616e-001	 1.921222863692445e+000	 4.058598436310287e+000
 1.031481371764185e-001	 1.922234497088266e+000	 3.993677796159456e+000
 8.581696997754799e-002	 1.923086177908611e+000	 3.933728020163505e+000
 6.853931869581802e-002	 1.923779447283957e+000	 3.877606839516310e+000
 5.131702051566729e-002	 1.924315868927198e+000	 3.824116407653182e+000
 3.415187156570769e-002	 1.924697028019834e+000	 3.772006258648753e+000
 1.704562681503771e-002	 1.924924530106683e+000	 3.719976300211621e+000
 0.000000000000000e+000	 1.925000000000000e+000	 3.666679833856377e+000
 1.752161538914289e-001	 1.942112071797492e+000	 4.564752453723433e+000
 1.574624996436468e-001	 1.943632053967618e+000	 4.510069416168749e+000
 1.397551994760174e-001	 1.944985471468231e+000	 4.465050280348425e+000
 1.220962790983859e-001	 1.946173809974940e+000	 4.428708333011960e+000
 1.044877233732222e-001	 1.947198581466602e+000	 4.399989331090739e+000
 8.693147608073368e-002	 1.948061323076648e+000	 4.377774424110899e+000
 6.942943971736756e-002	 1.948763595950233e+000	 4.360883137513671e+000
 5.198347532710004e-002	 1.949306984108212e+000	 4.348076408702725e+000
 3.459540236488781e-002	 1.949693093318855e+000	 4.338059667766999e+000
 1.726699859163513e-002	 1.949923549978213e+000	 4.329485954972140e+000
 0.000000000000000e+000	 1.950000000000000e+000	 4.320959067279807e+000
 1.774625148396792e-001	 1.967010944514421e+000	 4.815082118021308e+000
 1.594812496395906e-001	 1.968550413635142e+000	 4.792516833764153e+000
 1.415469328028063e-001	 1.969921182641903e+000	 4.781339279051771e+000
 1.236616160098101e-001	 1.971124756257434e+000	 4.780533795965289e+000
 1.058273095700259e-001	 1.972162665844939e+000	 4.789013716629865e+000
 8.804598218391936e-002	 1.973036468244684e+000	 4.805624402706004e+000
 7.031956073891711e-002	 1.973747744616509e+000	 4.829146349067054e+000
 5.264993013853277e-002	 1.974298099289225e+000	 4.858298343138682e+000
 3.503893316406794e-002	 1.974689158617876e+000	 4.891740671504113e+000
 1.748837036823255e-002	 1.974922569849744e+000	 4.928078365532014e+000
 0.000000000000000e+000	 1.975000000000000e+000	 4.965864477952336e+000
 1.797088757879294e-001	 1.991909817231349e+000	 5.044975522716243e+000
 1.614999996355343e-001	 1.993468773302665e+000	 5.055216958984801e+000
 1.433386661295952e-001	 1.994856893815574e+000	 5.078667071661189e+000
 1.252269529212343e-001	 1.996075702539928e+000	 5.114280780923617e+000
 1.071668957668296e-001	 1.997126750223276e+000	 5.160938395642409e+000
 8.916048828710503e-002	 1.998011613412721e+000	 5.217448773251222e+000
 7.120968176046663e-002	 1.998731893282784e+000	 5.282552547198218e+000
 5.331638494996551e-002	 1.999289214470238e+000	 5.354925413094717e+000
 3.548246396324807e-002	 1.999685223916897e+000	 5.433181464812794e+000
 1.770974214482997e-002	 1.999921589721275e+000	 5.515876571940923e+000
 0.000000000000000e+000	 2.000000000000000e+000	 5.601511790181228e+000
 2.000000000000000e+000	 0.000000000000000e+000	 1.227297432609594e+001
 1.999921589721275e+000	 1.770974214483003e-002	 1.230692957160264e+001
 1.999685223916896e+000	 3.548246396324820e-002	 1.233744081959787e+001
 1.999289214470237e+000	 5.331638494996539e-002	 1.236419756354464e+001
 1.998731893282784e+000	 7.120968176046658e-002	 1.238689674935912e+001
 1.998011613412721e+000	 8.916048828710503e-002	 1.240524327367154e+001
 1.997126750223276e+000	 1.071668957668297e-001	 1.241895047710005e+001
 1.996075702539929e+000	 1.252269529212345e-001	 1.242774063138157e+001
 1.994856893815574e+000	 1.433386661295951e-001	 1.243134541918463e+001
 1.993468773302665e+000	 1.614999996355343e-001	 1.242950640541291e+001
 1.991909817231349e+000	 1.797088757879295e-001	 1.242197549879541e+001
 2.025000000000000e+000	 0.000000000000000e+000	 1.222649777668760e+001
 2.024920609592803e+000	 1.793111392142746e-002	 1.225613065399273e+001
 2.024681289215908e+000	 3.592599476242833e-002	 1.228242575526951e+001
 2.024280329651229e+000	 5.398283976139813e-002	 1.230508258544952e+001
 2.023716041949021e+000	 7.209980278201615e-002	 1.232380854953746e+001
 2.022986758580697e+000	 9.027499439029070e-002	 1.233831945246606e+001
 2.022090834601524e+000	 1.085064819636334e-001	 1.234833999314195e+001
 2.021026648822303e+000	 1.267922898326587e-001	 1.235360425149039e+001
 2.019792604989089e+000	 1.451303994563841e-001	 1.235385616728887e+001
 2.018387132969990e+000	 1.635187496314781e-001	 1.234885000956408e+001
 2.016808689948031e+000	 1.819552367361798e-001	 1.233835083531450e+001
 2.050000000000000e+000	 0.000000000000000e+000	 1.218033957871596e+001
 2.049919629464327e+000	 1.815248569802488e-002	 1.220630910418495e+001
 2.049677354514900e+000	 3.636952556160845e-002	 1.222902586658752e+001
 2.049271444832177e+000	 5.464929457283087e-002	 1.224819901929328e+001
 2.048700190615181e+000	 7.298992380356566e-002	 1.226354607903696e+001
 2.047961903748552e+000	 9.138950049347636e-002	 1.227479342800482e+001
 2.047054918979599e+000	 1.098460681604371e-001	 1.228167680927876e+001
 2.045977595104440e+000	 1.283576267440829e-001	 1.228394181440911e+001
 2.044728316162292e+000	 1.469221327831730e-001	 1.228134436186895e+001
 2.043305492636919e+000	 1.655374996274218e-001	 1.227365116512916e+001
 2.041707562664222e+000	 1.842015976844301e-001	 1.226064018908117e+001
 2.075000000000000e+000	 0.000000000000000e+000	 1.213464671838104e+001
 2.074918649335845e+000	 1.837385747462230e-002	 1.215758657333557e+001
 2.074673419813873e+000	 3.681305636078857e-002	 1.217733750101472e+001
 2.074262560013082e+000	 5.531574938426360e-002	 1.219361795141599e+001
 2.073684339281264e+000	 7.388004482511520e-002	 1.220615521715558e+001
 2.072937048916287e+000	 9.250400659666205e-002	 1.221468593842112e+001
 2.072019003357499e+000	 1.111856543572408e-001	 1.221895660043795e+001
 2.070928541386338e+000	 1.299229636555072e-001	 1.221872402218038e+001
 2.069664027335182e+000	 1.487138661099619e-001	 1.221375583504345e+001
 2.068223852303450e+000	 1.675562496233655e-001	 1.220383095017609e+001
 2.066606435379921e+000	 1.864479586326804e-001	 1.218874001316722e+001
 2.100000000000000e+000	 0.000000000000000e+000	 1.208955918253994e+001
 2.099917669207360e+000	 1.859522925121972e-002	 1.211007868208451e+001
 2.099669485112827e+000	 3.725658715996871e-002	 1.212745193031513e+001
 2.099253675193943e+000	 5.598220419569634e-002	 1.214140633275513e+001
 2.098668487947270e+000	 7.477016584666477e-002	 1.215167863305004e+001
 2.097912194083901e+000	 9.361851269984771e-002	 1.215801542142009e+001
 2.096983087735225e+000	 1.125252405540445e-001	 1.216017363476968e+001
 2.095879487667998e+000	 1.314883005669314e-001	 1.215792104714540e+001
 2.094599738507759e+000	 1.505055994367509e-001	 1.215103674921784e+001
 2.093142211969584e+000	 1.695749996193093e-001	 1.213931161544969e+001
 2.091505308095129e+000	 1.886943195809308e-001	 1.212254875760350e+001
 2.125000000000000e+000	 0.000000000000000e+000	 1.204521037043305e+001
 2.124916689078869e+000	 1.881660102781714e-002	 1.206389537529154e+001
 2.124665550411762e+000	 3.770011795914884e-002	 1.207945564912454e+001
 2.124244790374762e+000	 5.664865900712907e-002	 1.209162722210453e+001
 2.123652636613198e+000	 7.566028686821431e-002	 1.210015597456769e+001
 2.122887339251394e+000	 9.473301880303341e-002	 1.210479814959784e+001
 2.121947172112776e+000	 1.138648267508482e-001	 1.210532085639848e+001
 2.120830433949419e+000	 1.330536374783557e-001	 1.210150256310284e+001
 2.119535449680023e+000	 1.522973327635398e-001	 1.209313357765592e+001
 2.118060571635321e+000	 1.715937496152530e-001	 1.208001651539063e+001
 2.116404180809845e+000	 1.909406805291811e-001	 1.206196675191173e+001
 2.150000000000000e+000	 0.000000000000000e+000	 1.200172747668487e+001
 2.149915708950374e+000	 1.903797280441457e-002	 1.201914125202353e+001
 2.149661615710677e+000	 3.814364875832895e-002	 1.203343065269051e+001
 2.149235905555537e+000	 5.731511381856181e-002	 1.204434001240179e+001
 2.148636785279050e+000	 7.655040788976383e-002	 1.205162404390402e+001
 2.147862484418765e+000	 9.584752490621906e-002	 1.205504835632005e+001
 2.146911256490152e+000	 1.152044129476518e-001	 1.205438996240146e+001
 2.145781380230602e+000	 1.346189743897799e-001	 1.204943777429385e+001
 2.144471160851976e+000	 1.540890660903287e-001	 1.203999308640663e+001
 2.142978931300662e+000	 1.736124996111968e-001	 1.202587004396712e+001
 2.141303053524069e+000	 1.931870414774315e-001	 1.200689609583178e+001
 2.175000000000000e+000	 0.000000000000000e+000	 1.195923184789123e+001
 2.174914728821873e+000	 1.925934458101199e-002	 1.197591587278395e+001
 2.174657681009575e+000	 3.858717955750909e-002	 1.198945469545785e+001
 2.174227020736269e+000	 5.798156862999455e-002	 1.199960064140972e+001
 2.173620933944825e+000	 7.744052891131339e-002	 1.200611696114584e+001
 2.172837629586016e+000	 9.696203100940473e-002	 1.200877835291902e+001
 2.171875340867353e+000	 1.165439991444556e-001	 1.200737147447767e+001
 2.170732326511546e+000	 1.361843113012042e-001	 1.200169544238814e+001
 2.169406872023615e+000	 1.558807994171177e-001	 1.199156231747728e+001
 2.167897290965605e+000	 1.756312496071406e-001	 1.197679757493191e+001
 2.166201926237801e+000	 1.954334024256818e-001	 1.195724055758499e+001
 2.199999999999999e+000	 0.000000000000000e+000	 1.191783931489359e+001
 2.199913748693369e+000	 1.948071635760941e-002	 1.193431404579480e+001
 2.199653746308452e+000	 3.903071035668922e-002	 1.194760153202341e+001
 2.199218135916958e+000	 5.864802344142729e-002	 1.195746178803305e+001
 2.198605082610522e+000	 7.833064993286293e-002	 1.196366631666389e+001
 2.197812774753146e+000	 9.807653711259042e-002	 1.196599863790014e+001
 2.196839425244380e+000	 1.178835853412592e-001	 1.196425480573101e+001
 2.195683272792251e+000	 1.377496482126284e-001	 1.195824391163010e+001
 2.194342583194943e+000	 1.576725327439066e-001	 1.194778857315417e+001
 2.192815650630152e+000	 1.776499996030843e-001	 1.193272540615272e+001
 2.191100798951041e+000	 1.976797633739321e-001	 1.191290547907409e+001
 2.224999999999999e+000	 0.000000000000000e+000	 1.187766050265291e+001
 2.224912768564859e+000	 1.970208813420683e-002	 1.189442609397879e+001
 2.224649811607310e+000	 3.947424115586935e-002	 1.190794114184657e+001
 2.224209251097604e+000	 5.931447825286004e-002	 1.191797305540034e+001
 2.223589231276143e+000	 7.922077095441249e-002	 1.192430131323166e+001
 2.222787919920156e+000	 9.919104321577608e-002	 1.192671799878612e+001
 2.221803509621232e+000	 1.192231715380629e-001	 1.192502832295077e+001
 2.220634219072718e+000	 1.393149851240526e-001	 1.191905113228963e+001
 2.219278294365958e+000	 1.594642660706956e-001	 1.190861940138013e+001
 2.217734010294301e+000	 1.796687495990280e-001	 1.189358070769570e+001
 2.215999671663790e+000	 1.999261243221825e-001	 1.187379768747411e+001
 2.250000000000000e+000	 0.000000000000000e+000	 1.183880111946521e+001
 2.249911788436345e+000	 1.992345991080426e-002	 1.185633810414267e+001
 2.249645876906150e+000	 3.991777195504948e-002	 1.187053993897912e+001
 2.249200366278207e+000	 5.998093306429280e-002	 1.188118114174044e+001
 2.248573379941687e+000	 8.011089197596205e-002	 1.188804889866970e+001
 2.247763065087045e+000	 1.003055493189618e-001	 1.189094360717151e+001
 2.246767593997911e+000	 1.205627577348667e-001	 1.188967940474031e+001
 2.245585165352948e+000	 1.408803220354769e-001	 1.188408468254963e+001
 2.244214005536660e+000	 1.612559993974846e-001	 1.187400258210691e+001
 2.242652369958055e+000	 1.816874995949719e-001	 1.185929147336990e+001
 2.240898544376048e+000	 2.021724852704328e-001	 1.183982541271728e+001
 1.991909817231349e+000	 1.797088757879295e-001	 1.242197549879541e+001
 1.990178529992387e+000	 1.979631753165402e-001	 1.246209681347481e+001
 1.988273445324313e+000	 2.162607376432357e-001	 1.249789528458074e+001
 1.986193127503396e+000	 2.345993612291324e-001	 1.252919147124906e+001
 1.983936172534892e+000	 2.529768039579072e-001	 1.255581724346542e+001
 1.981501209344972e+000	 2.713907835560691e-001	 1.257761612523262e+001
 1.978886900971938e+000	 2.898389780504918e-001	 1.259444362036468e+001
 1.976091945755501e+000	 3.083190262635862e-001	 1.260616751977899e+001
 1.973115078522868e+000	 3.268285283464439e-001	 1.261266818917733e+001
 1.969955071770350e+000	 3.453650463502412e-001	 1.261383883602935e+001
 1.966610736839180e+000	 3.639261048361500e-001	 1.260958575479966e+001
 2.016808689948031e+000	 1.819552367361798e-001	 1.233835083531450e+001
 2.015055761618825e+000	 2.004377150093213e-001	 1.237681766371448e+001
 2.013126863392606e+000	 2.189639968654950e-001	 1.241100882652853e+001
 2.011020541599093e+000	 2.375318532465808e-001	 1.244075438923708e+001
 2.008735374693610e+000	 2.561390140098015e-001	 1.246589620446797e+001
 2.006269974463903e+000	 2.747831683532467e-001	 1.248628825278274e+001
 2.003622987236254e+000	 2.934619652791260e-001	 1.250179696502585e+001
 2.000793095079618e+000	 3.121730140951303e-001	 1.251230152507921e+001
 1.997779017006543e+000	 3.309138849542393e-001	 1.251769415188526e+001
 1.994579510169543e+000	 3.496821094332685e-001	 1.251788035962705e+001
 1.991193371051617e+000	 3.684751811504042e-001	 1.251277919498367e+001
 2.041707562664222e+000	 1.842015976844301e-001	 1.226064018908117e+001
 2.039932993244682e+000	 2.029122547020977e-001	 1.229772145257438e+001
 2.037980281460246e+000	 2.216672560877351e-001	 1.233055406988428e+001
 2.035847955694086e+000	 2.404643452639859e-001	 1.235897753563848e+001
 2.033534576851590e+000	 2.593012240616183e-001	 1.238284362856742e+001
 2.031038739582086e+000	 2.781755531503031e-001	 1.240201675027526e+001
 2.028359073499827e+000	 2.970849525075852e-001	 1.241637424448283e+001
 2.025494244403021e+000	 3.160270019264352e-001	 1.242580669555430e+001
 2.022442955489552e+000	 3.349992415617211e-001	 1.243021820514217e+001
 2.019203948568140e+000	 3.539991725158979e-001	 1.242952664581270e+001
 2.015776005263546e+000	 3.730242574641658e-001	 1.242366389054552e+001
 2.066606435379921e+000	 1.864479586326804e-001	 1.218874001316722e+001
 2.064810224869957e+000	 2.053867943948692e-001	 1.222468606694781e+001
 2.062833699527232e+000	 2.243705153099559e-001	 1.225639035055548e+001
 2.060675369788373e+000	 2.433968372813475e-001	 1.228370172083059e+001
 2.058333779008834e+000	 2.624634341133577e-001	 1.230648183659887e+001
 2.055807504699517e+000	 2.815679379472381e-001	 1.232460549578877e+001
 2.053095159762659e+000	 3.007079397358691e-001	 1.233796095190177e+001
 2.050195393725710e+000	 3.198809897575008e-001	 1.234645020861579e+001
 2.047106893971896e+000	 3.390845981688895e-001	 1.234998929132621e+001
 2.043828386966140e+000	 3.583162355981293e-001	 1.234850849445878e+001
 2.040358639474969e+000	 3.775733337774347e-001	 1.234195260342273e+001
 2.091505308095129e+000	 1.886943195809308e-001	 1.212254875760350e+001
 2.089687456494649e+000	 2.078613340876359e-001	 1.215759191462489e+001
 2.087687117593565e+000	 2.270737745321575e-001	 1.218838003687939e+001
 2.085502783881955e+000	 2.463293292986658e-001	 1.221477128642250e+001
 2.083132981165341e+000	 2.656256441650198e-001	 1.223663716637681e+001
 2.080576269816200e+000	 2.849603227440519e-001	 1.225386285675332e+001
 2.077831246024749e+000	 3.043309269639778e-001	 1.226634752847860e+001
 2.074896543047684e+000	 3.237349775883271e-001	 1.227400463437448e+001
 2.071770832453574e+000	 3.431699547757445e-001	 1.227676217586380e+001
 2.068452825363542e+000	 3.626332986799628e-001	 1.227456294420695e+001
 2.064941273685884e+000	 3.821224100902110e-001	 1.226736473511101e+001
 2.116404180809845e+000	 1.909406805291811e-001	 1.206196675191173e+001
 2.114564688118759e+000	 2.103358737803979e-001	 1.209632177600452e+001
 2.112540535659244e+000	 2.297770337543398e-001	 1.212638835124465e+001
 2.110330197974833e+000	 2.492618213159407e-001	 1.215203389753554e+001
 2.107932183321109e+000	 2.687878542166045e-001	 1.217313973640224e+001
 2.105345034932133e+000	 2.883527075407443e-001	 1.218960142587100e+001
 2.102567332286097e+000	 3.079539141919111e-001	 1.220132907237847e+001
 2.099597692368946e+000	 3.275889654189144e-001	 1.220824761842284e+001
 2.096434770934586e+000	 3.472553113822861e-001	 1.221029710469749e+001
 2.093077263760348e+000	 3.669503617613985e-001	 1.220743290548168e+001
 2.089523907896292e+000	 3.866714864024947e-001	 1.219962593610192e+001
 2.141303053524069e+000	 1.931870414774315e-001	 1.200689609583178e+001
 2.139441919742287e+000	 2.128104134731551e-001	 1.204076066615200e+001
 2.137393953724270e+000	 2.324802929765030e-001	 1.207028320415826e+001
 2.135157612067005e+000	 2.521943133331721e-001	 1.209534034957588e+001
 2.132731385476141e+000	 2.719500642681118e-001	 1.211582322605529e+001
 2.130113800047317e+000	 2.917450923373155e-001	 1.213163777546047e+001
 2.127303418546704e+000	 3.115769014196694e-001	 1.214270506798176e+001
 2.124298841689493e+000	 3.314429532492622e-001	 1.214896158674891e+001
 2.121098709414933e+000	 3.513406679885141e-001	 1.215035948565123e+001
 2.117701702156558e+000	 3.712674248424363e-001	 1.214686681910743e+001
 2.114106542106193e+000	 3.912205627142856e-001	 1.213846774256924e+001
 2.166201926237801e+000	 1.954334024256818e-001	 1.195724055758499e+001
 2.164319151365234e+000	 2.152849531659074e-001	 1.199079570636994e+001
 2.162247371788644e+000	 2.351835521986470e-001	 1.201993503975584e+001
 2.159985026158471e+000	 2.551268053503602e-001	 1.204454438833304e+001
 2.157530587630436e+000	 2.751122743195416e-001	 1.206452467094701e+001
 2.154882565161751e+000	 2.951374771337652e-001	 1.207979222874349e+001
 2.152039504806568e+000	 3.151998886472523e-001	 1.209027913380269e+001
 2.148999991009326e+000	 3.352969410793709e-001	 1.209593347100084e+001
 2.145762647894614e+000	 3.554260245944288e-001	 1.209671959177060e+001
 2.142326140552170e+000	 3.755844879230763e-001	 1.209261833846966e+001
 2.138689176315586e+000	 3.957696390255839e-001	 1.208362723811128e+001
 2.191100798951041e+000	 1.976797633739321e-001	 1.191290547907409e+001
 2.189196382987598e+000	 2.177594928586550e-001	 1.194631600452566e+001
 2.187100789852363e+000	 2.378868114207716e-001	 1.197521669184557e+001
 2.184812440249233e+000	 2.580592973675048e-001	 1.199950254234451e+001
 2.182329789783993e+000	 2.782744843708940e-001	 1.201908427222442e+001
 2.179651330275434e+000	 2.985298619300937e-001	 1.203388864672534e+001
 2.176775591065690e+000	 3.188228758746600e-001	 1.204385878759539e+001
 2.173701140328445e+000	 3.391509289092403e-001	 1.204895445248356e+001
 2.170426586373628e+000	 3.595113812000300e-001	 1.204915228488961e+001
 2.166950578947184e+000	 3.799015510033183e-001	 1.204444603334651e+001
 2.163271810524472e+000	 4.003187153363895e-001	 1.203484673855638e+001
 2.215999671663790e+000	 1.999261243221825e-001	 1.187379768747411e+001
 2.214073614609379e+000	 2.202340325513978e-001	 1.190721254344646e+001
 2.211954207915429e+000	 2.405900706428771e-001	 1.193600324965689e+001
 2.209639854339290e+000	 2.609917893846062e-001	 1.196007396656157e+001
 2.207128991936814e+000	 2.814366944221691e-001	 1.197934521873143e+001
 2.204420095388370e+000	 3.019222467263009e-001	 1.199375422944296e+001
 2.201511677324071e+000	 3.224458631018926e-001	 1.200325522729546e+001
 2.198402289646850e+000	 3.430049167388704e-001	 1.200781972341393e+001
 2.195090524851978e+000	 3.635967378053179e-001	 1.200743675783378e+001
 2.191575017341604e+000	 3.842186140831624e-001	 1.200211311370699e+001
 2.187854444732851e+000	 4.048677916467026e-001	 1.199187349801735e+001
 2.240898544376048e+000	 2.021724852704328e-001	 1.183982541271728e+001
 2.238950846230580e+000	 2.227085722441359e-001	 1.187337807675518e+001
 2.236807625977843e+000	 2.432933298649635e-001	 1.190217193253930e+001
 2.234467268428642e+000	 2.639242814016641e-001	 1.192612029643740e+001
 2.231928194088898e+000	 2.845989044733669e-001	 1.194515352102562e+001
 2.229188860500556e+000	 3.053146315223868e-001	 1.195921933046320e+001
 2.226247763581711e+000	 3.260688503289499e-001	 1.196828312656545e+001
 2.223103438964543e+000	 3.468589045682615e-001	 1.197232826409237e+001
 2.219754463329662e+000	 3.676820944102923e-001	 1.197135629380937e+001
 2.216199455735425e+000	 3.885356771626088e-001	 1.196538717192264e+001
 2.212437078940723e+000	 4.094168679565229e-001	 1.195445943454234e+001
 1.966610736839180e+000	 3.639261048361500e-001	 1.260958575479966e+001
 1.963080925084422e+000	 3.825091915237607e-001	 1.265329787495095e+001
 1.959364529034961e+000	 4.011117579788214e-001	 1.269061440714228e+001
 1.955460483543635e+000	 4.197312203398140e-001	 1.272146339682258e+001
 1.951367766926559e+000	 4.383649600831472e-001	 1.274578723159984e+001
 1.947085402089539e+000	 4.570103248275765e-001	 1.276354278788441e+001
 1.942612457640390e+000	 4.756646291775601e-001	 1.277470155003806e+001
 1.937948048985706e+000	 4.943251556054372e-001	 1.277924970123709e+001
 1.933091339410632e+000	 5.129891553722545e-001	 1.277718818531888e+001
 1.928041541140166e+000	 5.316538494870133e-001	 1.276853273894498e+001
 1.922797916380548e+000	 5.503164297040443e-001	 1.275331389348267e+001
 1.991193371051617e+000	 3.684751811504042e-001	 1.251277919498367e+001
 1.987619436649766e+000	 3.872905564217012e-001	 1.255563391772451e+001
 1.983856585649486e+000	 4.061256549574481e-001	 1.259240067962491e+001
 1.979903739589275e+000	 4.249778605978571e-001	 1.262302169072405e+001
 1.975759864014198e+000	 4.438445220877911e-001	 1.264745378346958e+001
 1.971423969616384e+000	 4.627229538912393e-001	 1.266566854300626e+001
 1.966895113361246e+000	 4.816104370452149e-001	 1.267765240882276e+001
 1.962172399597961e+000	 5.005042200529607e-001	 1.268340674696785e+001
 1.957254981152735e+000	 5.194015198162856e-001	 1.268294789211049e+001
 1.952142060403382e+000	 5.382995226068029e-001	 1.267630715878651e+001
 1.946832890333715e+000	 5.571953850757715e-001	 1.266353082124613e+001
 2.015776005263546e+000	 3.730242574641658e-001	 1.242366389054552e+001
 2.012157948214703e+000	 3.920719213190587e-001	 1.246568349743175e+001
 2.008348642263703e+000	 4.111395519354208e-001	 1.250189913564548e+001
 2.004346995634707e+000	 4.302245008551945e-001	 1.253226731035268e+001
 2.000151961101730e+000	 4.493240840916974e-001	 1.255675945430867e+001
 1.995762537143223e+000	 4.684355829541524e-001	 1.257536204186972e+001
 1.991177769082197e+000	 4.875562449121281e-001	 1.258807667317511e+001
 1.986396750210409e+000	 5.066832844997706e-001	 1.259492012771204e+001
 1.981418622895133e+000	 5.258138842596519e-001	 1.259592438654332e+001
 1.976242579666991e+000	 5.449451957259967e-001	 1.259113662254840e+001
 1.970867864287377e+000	 5.640743404469928e-001	 1.258061915810441e+001
 2.040358639474969e+000	 3.775733337774347e-001	 1.234195260342273e+001
 2.036696459779233e+000	 3.968532862158332e-001	 1.238314304993059e+001
 2.032840698877614e+000	 4.161534489127393e-001	 1.241879014703349e+001
 2.028790251679932e+000	 4.354711411118263e-001	 1.244886483868989e+001
 2.024544058189155e+000	 4.548036460948662e-001	 1.247335332669052e+001
 2.020101104670055e+000	 4.741482120163162e-001	 1.249225716845937e+001
 2.015460424803240e+000	 4.935020527782997e-001	 1.250559334379618e+001
 2.010621100823052e+000	 5.128623489458674e-001	 1.251339428977401e+001
 2.005582264637823e+000	 5.322262487023532e-001	 1.251570790307516e+001
 2.000343098930994e+000	 5.515908688445943e-001	 1.251259750912445e+001
 1.994902838241532e+000	 5.709532958177074e-001	 1.250414179745684e+001
 2.064941273685884e+000	 3.821224100902110e-001	 1.226736473511101e+001
 2.061234971343355e+000	 4.016346511120246e-001	 1.230771596024190e+001
 2.057332755491217e+000	 4.211673458894039e-001	 1.234276132254065e+001
 2.053233507724950e+000	 4.407177813677524e-001	 1.237248636124345e+001
 2.048936155276472e+000	 4.602832080972975e-001	 1.239689222886317e+001
 2.044439672196880e+000	 4.798608410777303e-001	 1.241599577283498e+001
 2.039743080524377e+000	 4.994478606437299e-001	 1.242982958483346e+001
 2.034845451435887e+000	 5.190414133912505e-001	 1.243844201697420e+001
 2.029745906380808e+000	 5.386386131443897e-001	 1.244189716418677e+001
 2.024443618195390e+000	 5.582365419625962e-001	 1.244027481212430e+001
 2.018937812196181e+000	 5.778322511879159e-001	 1.243367035005812e+001
 2.089523907896292e+000	 3.866714864024947e-001	 1.219962593610192e+001
 2.085773482907070e+000	 4.064160160076331e-001	 1.223911215377514e+001
 2.081824812104512e+000	 4.261812428654142e-001	 1.227350708213952e+001
 2.077676763769761e+000	 4.459644216229730e-001	 1.230281102472241e+001
 2.073328252363683e+000	 4.657627700989913e-001	 1.232704027912129e+001
 2.068778239723698e+000	 4.855734701383949e-001	 1.234622720253894e+001
 2.064025736245607e+000	 5.053936685084186e-001	 1.236042024367811e+001
 2.059069802048916e+000	 5.252204778359205e-001	 1.236968394020718e+001
 2.053909548124086e+000	 5.450509775857613e-001	 1.237409888108627e+001
 2.048544137460181e+000	 5.648822150800023e-001	 1.237376163312543e+001
 2.042972786151324e+000	 5.847112065576181e-001	 1.236878463123277e+001
 2.114106542106193e+000	 3.912205627142856e-001	 1.213846774256924e+001
 2.110311994470377e+000	 4.111973809026583e-001	 1.217704771607325e+001
 2.106316868717501e+000	 4.311951398407705e-001	 1.221072826102237e+001
 2.102120019814365e+000	 4.512110618774877e-001	 1.223952462650215e+001
 2.097720349450787e+000	 4.712423320999476e-001	 1.226346846196624e+001
 2.093116807250509e+000	 4.912860991983100e-001	 1.228260786669604e+001
 2.088308391966931e+000	 5.113394763723657e-001	 1.229700740426479e+001
 2.083294152662138e+000	 5.313995422798771e-001	 1.230674808121623e+001
 2.078073189867658e+000	 5.514633420264679e-001	 1.231192728924836e+001
 2.072644656725364e+000	 5.715278881968122e-001	 1.231265871027972e+001
 2.067007760106961e+000	 5.915901619268141e-001	 1.230907218386518e+001
 2.138689176315586e+000	 3.957696390255839e-001	 1.208362723811128e+001
 2.134850506033278e+000	 4.159787457971007e-001	 1.212124453878196e+001
 2.130808925330182e+000	 4.362090368154726e-001	 1.215413174091037e+001
 2.126563275858760e+000	 4.564577021312969e-001	 1.218231923240214e+001
 2.122112446537785e+000	 4.767218941001664e-001	 1.220585423349662e+001
 2.117455374777315e+000	 4.969987282574756e-001	 1.222480083017548e+001
 2.112591047688348e+000	 5.172852842355712e-001	 1.223923997117837e+001
 2.107518503275554e+000	 5.375786067231203e-001	 1.224926942783205e+001
 2.102236831611524e+000	 5.578757064665098e-001	 1.225500371598513e+001
 2.096745175990942e+000	 5.781735613130266e-001	 1.225657397942985e+001
 2.091042734063091e+000	 5.984691172955039e-001	 1.225412783428707e+001
 2.163271810524472e+000	 4.003187153363895e-001	 1.203484673855638e+001
 2.159389017595771e+000	 4.207601106909599e-001	 1.207142998975760e+001
 2.155300981942557e+000	 4.412229337895208e-001	 1.210343010650077e+001
 2.151006531902950e+000	 4.617043423844006e-001	 1.213089282052441e+001
 2.146504543624674e+000	 4.822014560996477e-001	 1.215388115370372e+001
 2.141793942304112e+000	 5.027113573158916e-001	 1.217247543542353e+001
 2.136873703409858e+000	 5.232310920980352e-001	 1.218677328211693e+001
 2.131742853889163e+000	 5.437576711656499e-001	 1.219688953817233e+001
 2.126400473355683e+000	 5.642880709058865e-001	 1.220295617750086e+001
 2.120845695256914e+000	 5.848192344286448e-001	 1.220512216514958e+001
 2.115077708019714e+000	 6.053480726636871e-001	 1.220355327844517e+001
 2.187854444732851e+000	 4.048677916467026e-001	 1.199187349801735e+001
 2.183927529157856e+000	 4.255414755842361e-001	 1.202733660541482e+001
 2.179793038554623e+000	 4.462368307629148e-001	 1.205834132507505e+001
 2.175449787946933e+000	 4.669509826367985e-001	 1.208494894910281e+001
 2.170896640711457e+000	 4.876810180983915e-001	 1.210723854355633e+001
 2.166132509830903e+000	 5.084239863735580e-001	 1.212530694979065e+001
 2.161156359131462e+000	 5.291768999597576e-001	 1.213926874648096e+001
 2.155967204502966e+000	 5.499367356074664e-001	 1.214925617152448e+001
 2.150564115100135e+000	 5.707004353445986e-001	 1.215541900311145e+001
 2.144946214523278e+000	 5.914649075436670e-001	 1.215792439935444e+001
 2.139112681976832e+000	 6.122270280313643e-001	 1.215695669596793e+001
 2.212437078940723e+000	 4.094168679565229e-001	 1.195445943454234e+001
 2.208466040719535e+000	 4.303228404769294e-001	 1.198870180358444e+001
 2.204285095166384e+000	 4.512507277356548e-001	 1.201858844746639e+001
 2.199893043990709e+000	 4.721976228884910e-001	 1.204419644649563e+001
 2.195288737798134e+000	 4.931605800963979e-001	 1.206562116494639e+001
 2.190471077357688e+000	 5.141366154304753e-001	 1.208297623637020e+001
 2.185439014853160e+000	 5.351227078207387e-001	 1.209639350805656e+001
 2.180191555116963e+000	 5.561158000485696e-001	 1.210602294383619e+001
 2.174727756844883e+000	 5.771127997826460e-001	 1.211203248451608e+001
 2.169046733790038e+000	 5.981105806580939e-001	 1.211460786533823e+001
 2.163147655934445e+000	 6.191059833985354e-001	 1.211395238996082e+001
 1.922797916380548e+000	 5.503164297040443e-001	 1.275331389348267e+001
 1.917359778339054e+000	 5.689740595581219e-001	 1.280391194371765e+001
 1.911726492221324e+000	 5.876238754369104e-001	 1.285168621897640e+001
 1.905897476204296e+000	 6.062629876904956e-001	 1.289675897362148e+001
 1.899872202382971e+000	 6.248884817771944e-001	 1.293926417334315e+001
 1.893650197690125e+000	 6.434974194451185e-001	 1.294595992010730e+001
 1.887231044787306e+000	 6.620868399488497e-001	 1.294650506992630e+001
 1.880614382925689e+000	 6.806537613005026e-001	 1.294106376933905e+001
 1.873799908775373e+000	 6.991951815543976e-001	 1.293050142358457e+001
 1.866787377221732e+000	 7.177080801244898e-001	 1.291768130712581e+001
 1.859576602127425e+000	 7.361894191336469e-001	 1.289809172243622e+001
 1.946832890333715e+000	 5.571953850757715e-001	 1.266353082124613e+001
 1.941326775566192e+000	 5.760862353022611e-001	 1.271831974230488e+001
 1.935623073371612e+000	 5.949691738788934e-001	 1.277040424605863e+001
 1.929721194654121e+000	 6.138412750351303e-001	 1.281991673127500e+001
 1.923620604909912e+000	 6.326995877975195e-001	 1.285309450634149e+001
 1.917320825158422e+000	 6.515411371860248e-001	 1.286143595023228e+001
 1.910821432844467e+000	 6.703629254459109e-001	 1.286407896053474e+001
 1.904122062709863e+000	 6.891619333144453e-001	 1.286099378729463e+001
 1.897222407633088e+000	 7.079351213216275e-001	 1.285215217675211e+001
 1.890122219435584e+000	 7.266794311240884e-001	 1.283752744313250e+001
 1.882821309653291e+000	 7.453917868712325e-001	 1.281709454211551e+001
 1.970867864287377e+000	 5.640743404469928e-001	 1.258061915810441e+001
 1.965293772793916e+000	 5.831984110459895e-001	 1.263922872803086e+001
 1.959519654522553e+000	 6.023144723205506e-001	 1.269523997840996e+001
 1.953544913104652e+000	 6.214195623795151e-001	 1.274879595799936e+001
 1.947369007437591e+000	 6.405106938176605e-001	 1.277072317892611e+001
 1.940991452627468e+000	 6.595848549268030e-001	 1.278077120039145e+001
 1.934411820902369e+000	 6.786390109428899e-001	 1.278537793405568e+001
 1.927629742494750e+000	 6.976701053283412e-001	 1.278451020404046e+001
 1.920644906491468e+000	 7.166750610888371e-001	 1.277813601091281e+001
 1.913457061650030e+000	 7.356507821236820e-001	 1.276622460379731e+001
 1.906066017179662e+000	 7.545941546088181e-001	 1.274874655465897e+001
 1.994902838241532e+000	 5.709532958177074e-001	 1.250414179745684e+001
 1.989260770022222e+000	 5.903105867893066e-001	 1.256619465748683e+001
 1.983416235674150e+000	 6.096597707618821e-001	 1.262574214631837e+001
 1.977368631555889e+000	 6.289978497236500e-001	 1.267540532646150e+001
 1.971117409966007e+000	 6.483217998376174e-001	 1.269218751384628e+001
 1.964662080097262e+000	 6.676285726674528e-001	 1.270381871911618e+001
 1.958002208961012e+000	 6.869150964397868e-001	 1.271026152194905e+001
 1.951137422280350e+000	 7.061782773421911e-001	 1.271147928957982e+001
 1.944067405350511e+000	 7.254150008560256e-001	 1.270743624656595e+001
 1.936791903865071e+000	 7.446221331232703e-001	 1.269809754729212e+001
 1.929310724706539e+000	 7.637965223464036e-001	 1.268342935114074e+001
 2.018937812196181e+000	 5.778322511879159e-001	 1.243367035005812e+001
 2.013227767251113e+000	 5.974227625322126e-001	 1.249878179893999e+001
 2.007312816826402e+000	 6.170050692028881e-001	 1.256146777524886e+001
 2.001192350007833e+000	 6.365761370675350e-001	 1.259934625255795e+001
 1.994865812495162e+000	 6.561329058573907e-001	 1.261734216394734e+001
 1.988332707567807e+000	 6.756722904079746e-001	 1.263043913588609e+001
 1.981592597020396e+000	 6.951911819366016e-001	 1.263859657706433e+001
 1.974645102066663e+000	 7.146864493559948e-001	 1.264177436507045e+001
 1.967489904210219e+000	 7.341549406231938e-001	 1.263993291612998e+001
 1.960126746080707e+000	 7.535934841228537e-001	 1.263303325807401e+001
 1.952555432233920e+000	 7.729988900839893e-001	 1.262103710647101e+001
 2.042972786151324e+000	 5.847112065576181e-001	 1.236878463123277e+001
 2.037194764480589e+000	 6.045349382747075e-001	 1.243656243164654e+001
 2.031209397979309e+000	 6.243503676435684e-001	 1.250198169789184e+001
 2.025016068460483e+000	 6.441544244111701e-001	 1.252694744826227e+001
 2.018614215025054e+000	 6.639440118769794e-001	 1.254604915128698e+001
 2.012003335039101e+000	 6.837160081483684e-001	 1.256050021519085e+001
 2.005182985080521e+000	 7.034672674333340e-001	 1.257025684297068e+001
 1.998152781853688e+000	 7.231946213697519e-001	 1.257527538805076e+001
 1.990912403070590e+000	 7.428948803903411e-001	 1.257551242406289e+001
 1.983461588296937e+000	 7.625648351224317e-001	 1.257092481834904e+001
 1.975800139761806e+000	 7.822012578215748e-001	 1.256146980912855e+001
 2.067007760106961e+000	 5.915901619268141e-001	 1.230907218386518e+001
 2.061161761710647e+000	 6.116471140167914e-001	 1.237911638009660e+001
 2.055105979132871e+000	 6.316956660839231e-001	 1.243360868064862e+001
 2.048839786913839e+000	 6.517327117545553e-001	 1.245807258324626e+001
 2.042362617555685e+000	 6.717551178963842e-001	 1.247817743869262e+001
 2.035673962511146e+000	 6.917597258886344e-001	 1.249387644170409e+001
 2.028773373141388e+000	 7.117433529299845e-001	 1.250512255333364e+001
 2.021660461641427e+000	 7.317027933834631e-001	 1.251186856660376e+001
 2.014334901931626e+000	 7.516348201574681e-001	 1.251406717639473e+001
 2.006796430513763e+000	 7.715361861220047e-001	 1.251167105355197e+001
 1.999044847290198e+000	 7.914036255591603e-001	 1.250463292316259e+001
 2.091042734063091e+000	 5.984691172955039e-001	 1.225412783428707e+001
 2.085128758941291e+000	 6.187592897584642e-001	 1.232603058038010e+001
 2.079002560287087e+000	 6.390409645239521e-001	 1.236746701210153e+001
 2.072663505367901e+000	 6.593109990976906e-001	 1.239259206797992e+001
 2.066111020087052e+000	 6.795662239156050e-001	 1.241360253086658e+001
 2.059344589983939e+000	 6.998034436287718e-001	 1.243044863406588e+001
 2.052363761202996e+000	 7.200194384265526e-001	 1.244308005892110e+001
 2.045168141429878e+000	 7.402109653971277e-001	 1.245144600013037e+001
 2.037757400793325e+000	 7.603747599245742e-001	 1.245549523580969e+001
 2.030131272731183e+000	 7.805075371215725e-001	 1.245517620227564e+001
 2.022289554819095e+000	 8.006059932967460e-001	 1.245043707350481e+001
 2.115077708019714e+000	 6.053480726636871e-001	 1.220355327844517e+001
 2.109095756172518e+000	 6.258714654997258e-001	 1.227516809532712e+001
 2.102899141441959e+000	 6.463862629636555e-001	 1.230468605610477e+001
 2.096487223822670e+000	 6.668892864405760e-001	 1.233038267073155e+001
 2.089859422619158e+000	 6.873773299346419e-001	 1.235220610268865e+001
 2.083015217457481e+000	 7.078471613687812e-001	 1.237010358499831e+001
 2.075954149265344e+000	 7.282955239230385e-001	 1.238402148004071e+001
 2.068675821219042e+000	 7.487191374107457e-001	 1.239390534461540e+001
 2.061179899655688e+000	 7.691146996916595e-001	 1.239970000024537e+001
 2.053466114949198e+000	 7.894788881211350e-001	 1.240134960870516e+001
 2.045534262348497e+000	 8.098083610343312e-001	 1.239879775273745e+001
 2.139112681976832e+000	 6.122270280313643e-001	 1.215695669596793e+001
 2.133062753404329e+000	 6.329836412405763e-001	 1.221538089949388e+001
 2.126795722597485e+000	 6.537315614030334e-001	 1.224514405654917e+001
 2.120310942278145e+000	 6.744675737832115e-001	 1.227132716038817e+001
 2.113607825152002e+000	 6.951884359534946e-001	 1.229387565257695e+001
 2.106685844931774e+000	 7.158908791086626e-001	 1.231273372568286e+001
 2.099544537328435e+000	 7.365716094194423e-001	 1.232784438240838e+001
 2.092183501008918e+000	 7.572273094243178e-001	 1.233914950046000e+001
 2.084602398518716e+000	 7.778546394587245e-001	 1.234658990315937e+001
 2.076800957167808e+000	 7.984502391206924e-001	 1.235010543578694e+001
 2.068778969878404e+000	 8.190107287719171e-001	 1.234963504762972e+001
 2.163147655934445e+000	 6.191059833985354e-001	 1.211395238996082e+001
 2.157029750636725e+000	 6.400958169810158e-001	 1.215879483348155e+001
 2.150692303753667e+000	 6.610768598420859e-001	 1.218872508424484e+001
 2.144134660734327e+000	 6.820458611255974e-001	 1.221531397308766e+001
 2.137356227685584e+000	 7.029995419721637e-001	 1.223850417895800e+001
 2.130356472406817e+000	 7.239345968484161e-001	 1.225823681251273e+001
 2.123134925392267e+000	 7.448476949157644e-001	 1.227445147462565e+001
 2.115691180799508e+000	 7.657354814378435e-001	 1.228708632112511e+001
 2.108024897382408e+000	 7.865945792257689e-001	 1.229607813377816e+001
 2.100135799387014e+000	 8.074215901202450e-001	 1.230136239751962e+001
 2.092023677408817e+000	 8.282130965095027e-001	 1.230287338390526e+001
 1.859576602127425e+000	 7.361894191336469e-001	 1.289809172243622e+001
 1.852167457058817e+000	 7.546361447941515e-001	 1.293707274166223e+001
 1.844559875975171e+000	 7.730451888174859e-001	 1.296928906668010e+001
 1.836753853879596e+000	 7.914134698526777e-001	 1.299470250021571e+001
 1.828749447430661e+000	 8.097378949529318e-001	 1.301328301346635e+001
 1.820546775513088e+000	 8.280153610683620e-001	 1.302500887457676e+001
 1.812146019766516e+000	 8.462427565638450e-001	 1.302986676322948e+001
 1.803547425071165e+000	 8.644169627606547e-001	 1.302785187086494e+001
 1.794751299989325e+000	 8.825348555005110e-001	 1.301896798607729e+001
 1.785758017161617e+000	 9.005933067305992e-001	 1.300322756476393e+001
 1.776568013657048e+000	 9.185891861080785e-001	 1.298065178464161e+001
 1.882821309653291e+000	 7.453917868712325e-001	 1.281709454211551e+001
 1.875319550272018e+000	 7.640690966028914e-001	 1.285207488768425e+001
 1.867616874425373e+000	 7.827082536768358e-001	 1.288465043178943e+001
 1.859713277054009e+000	 8.013061382252066e-001	 1.291047243939753e+001
 1.851608815524723e+000	 8.198596186393719e-001	 1.292933800424476e+001
 1.843303610208294e+000	 8.383655530813226e-001	 1.294123358180240e+001
 1.834797845014858e+000	 8.568207910204950e-001	 1.294615440619879e+001
 1.826091767885635e+000	 8.752221747946792e-001	 1.294410458591521e+001
 1.817185691239944e+000	 8.935665411936157e-001	 1.293509718391115e+001
 1.808079992376415e+000	 9.118507230638301e-001	 1.291915428175179e+001
 1.798775113827414e+000	 9.300715509331942e-001	 1.289630702734710e+001
 1.906066017179662e+000	 7.545941546088181e-001	 1.274874655465897e+001
 1.898471643485632e+000	 7.735020484116312e-001	 1.278334663446142e+001
 1.890673872875920e+000	 7.923713185361859e-001	 1.281174006112574e+001
 1.882672700228714e+000	 8.111988065977350e-001	 1.283381075858844e+001
 1.874468183619045e+000	 8.299813423258119e-001	 1.284967257011101e+001
 1.866060444903750e+000	 8.487157450942829e-001	 1.286205615711189e+001
 1.857449670263458e+000	 8.673988254771451e-001	 1.286735266485050e+001
 1.848636110700393e+000	 8.860273868287037e-001	 1.286557501949680e+001
 1.839620082490902e+000	 9.045982268867205e-001	 1.285674546683832e+001
 1.830401967591619e+000	 9.231081393970605e-001	 1.284089563053118e+001
 1.820982213998275e+000	 9.415539157583098e-001	 1.281806655319337e+001
 1.929310724706539e+000	 7.637965223464036e-001	 1.268342935114074e+001
 1.921623736699662e+000	 7.829350002203711e-001	 1.271795248713640e+001
 1.913730871326810e+000	 8.020343833955359e-001	 1.274626929711577e+001
 1.905632123403714e+000	 8.210914749702638e-001	 1.276826771960754e+001
 1.897327551713629e+000	 8.401030660122524e-001	 1.278383684678632e+001
 1.888817279599456e+000	 8.590659371072436e-001	 1.279286708967727e+001
 1.880101495512317e+000	 8.779768599337953e-001	 1.279525034656494e+001
 1.871180453515440e+000	 8.968325988627283e-001	 1.279218090726754e+001
 1.862054473742195e+000	 9.156299125798255e-001	 1.278382021665562e+001
 1.852723942807229e+000	 9.343655557302910e-001	 1.276834853104815e+001
 1.843189314169633e+000	 9.530362805834256e-001	 1.274581671770910e+001
 1.952555432233920e+000	 7.729988900839893e-001	 1.262103710647101e+001
 1.944775829914107e+000	 7.923679520291109e-001	 1.265577787803880e+001
 1.936787869778046e+000	 8.116974482548862e-001	 1.268431465578894e+001
 1.928591546579006e+000	 8.309841433427924e-001	 1.270653920007020e+001
 1.920186919808475e+000	 8.502247896986922e-001	 1.272234442793627e+001
 1.911574114295413e+000	 8.694161291202041e-001	 1.273162457631746e+001
 1.902753320761436e+000	 8.885548943904453e-001	 1.273427536844012e+001
 1.893724796330773e+000	 9.076378108967529e-001	 1.273019418322850e+001
 1.884488864993826e+000	 9.266615982729306e-001	 1.271928022740695e+001
 1.875045918023246e+000	 9.456229720635218e-001	 1.270143471000488e+001
 1.865396414341487e+000	 9.645186454085410e-001	 1.267945503830790e+001
 1.975800139761806e+000	 7.822012578215748e-001	 1.256146980912855e+001
 1.967927923128965e+000	 8.018009038378509e-001	 1.259671451995198e+001
 1.959844868229625e+000	 8.213605131142362e-001	 1.262575957852335e+001
 1.951550969754590e+000	 8.408768117153210e-001	 1.264850037717081e+001
 1.943046287903584e+000	 8.603465133851326e-001	 1.266483346365768e+001
 1.934330948991620e+000	 8.797663211331644e-001	 1.267465670249255e+001
 1.925405146010814e+000	 8.991329288470956e-001	 1.267786943954037e+001
 1.916269139146394e+000	 9.184430229307773e-001	 1.267437266967071e+001
 1.906923256245794e+000	 9.376932839660355e-001	 1.266406920716256e+001
 1.897367893239668e+000	 9.568803883967523e-001	 1.264686385856932e+001
 1.887603514513837e+000	 9.760010102336569e-001	 1.262266359773143e+001
 1.999044847290198e+000	 7.914036255591603e-001	 1.250463292316259e+001
 1.991080016344239e+000	 8.112338556465905e-001	 1.254066004097041e+001
 1.982901866681548e+000	 8.310235779735863e-001	 1.257049386275473e+001
 1.974510392930468e+000	 8.507694800878497e-001	 1.259403322572001e+001
 1.965905655998953e+000	 8.704682370715726e-001	 1.261117811690991e+001
 1.957087783688078e+000	 8.901165131461248e-001	 1.262182983282580e+001
 1.948056971260451e+000	 9.097109633037456e-001	 1.262589114240882e+001
 1.938813481962304e+000	 9.292482349648019e-001	 1.262326645312276e+001
 1.929357647498099e+000	 9.487249696591404e-001	 1.261386197985919e+001
 1.919689868456498e+000	 9.681378047299827e-001	 1.259758591636850e+001
 1.909810614686682e+000	 9.874833750587725e-001	 1.257434860890575e+001
 2.022289554819095e+000	 8.006059932967460e-001	 1.245043707350481e+001
 2.014232109559929e+000	 8.206668074553304e-001	 1.248751764453927e+001
 2.005958865133816e+000	 8.406866428329364e-001	 1.251841329668584e+001
 1.997469816106639e+000	 8.606621484603785e-001	 1.254302612747695e+001
 1.988765024094585e+000	 8.805899607580128e-001	 1.256125937436277e+001
 1.979844618384786e+000	 9.004667051590853e-001	 1.257301757280644e+001
 1.970708796510346e+000	 9.202889977603954e-001	 1.257820671781458e+001
 1.961357824778502e+000	 9.400534469988263e-001	 1.257673442864210e+001
 1.951792038750740e+000	 9.597566553522452e-001	 1.256851011639316e+001
 1.942011843673734e+000	 9.793952210632133e-001	 1.255344515422330e+001
 1.932017714860024e+000	 9.989657398838882e-001	 1.253145304983147e+001
 2.045534262348497e+000	 8.098083610343312e-001	 1.239879775273745e+001
 2.037384202776032e+000	 8.300997592640702e-001	 1.243719579267314e+001
 2.029015863586428e+000	 8.503497076922865e-001	 1.246941931890191e+001
 2.020429239283104e+000	 8.705548168329071e-001	 1.249537350711821e+001
 2.011624392190479e+000	 8.907116844444528e-001	 1.251496465868584e+001
 2.002601453081745e+000	 9.108168971720461e-001	 1.252810035737678e+001
 1.993360621760502e+000	 9.308670322170456e-001	 1.253468962962633e+001
 1.983902167594988e+000	 9.508586590328508e-001	 1.253464310804537e+001
 1.974226430003719e+000	 9.707883410453503e-001	 1.252787319791177e+001
 1.964333818891376e+000	 9.906526373964438e-001	 1.251429424634682e+001
 1.954224815033862e+000	 1.010448104709004e+000	 1.249382271386532e+001
 2.068778969878404e+000	 8.190107287719171e-001	 1.234963504762972e+001
 2.060536295992551e+000	 8.395327110728100e-001	 1.238960791053077e+001
 2.052072862039382e+000	 8.600127725516363e-001	 1.242341870093344e+001
 2.043388662459861e+000	 8.804474852054359e-001	 1.245097549274797e+001
 2.034483760286634e+000	 9.008334081308931e-001	 1.247218746697535e+001
 2.025358287778955e+000	 9.211670891850063e-001	 1.248696506725505e+001
 2.016012447010916e+000	 9.414450666736958e-001	 1.249522015902009e+001
 2.006446510411762e+000	 9.616638710668756e-001	 1.249686619200061e+001
 1.996660821257034e+000	 9.818200267384549e-001	 1.249181836579927e+001
 1.986655794109423e+000	 1.001910053729674e+000	 1.247999379824388e+001
 1.976431915208197e+000	 1.021930469534119e+000	 1.246131169620621e+001
 2.092023677408817e+000	 8.282130965095027e-001	 1.230287338390526e+001
 2.083688389209485e+000	 8.489656628815500e-001	 1.234467211068480e+001
 2.075129860492684e+000	 8.696758374109872e-001	 1.238032325098147e+001
 2.066348085636912e+000	 8.903401535779647e-001	 1.240973759904105e+001
 2.057343128383052e+000	 9.109551318173336e-001	 1.243282703328608e+001
 2.048115122476415e+000	 9.315172811979672e-001	 1.244950467083683e+001
 2.038664272261591e+000	 9.520231011303464e-001	 1.245968502573998e+001
 2.028990853228824e+000	 9.724690831009004e-001	 1.246328417064663e+001
 2.019095212510688e+000	 9.928517124315603e-001	 1.246021990166364e+001
 2.008977769327879e+000	 1.013167470062905e+000	 1.245041190608356e+001
 1.998639015383027e+000	 1.033412834359236e+000	 1.243378193268169e+001
 1.776568013657048e+000	 9.185891861080785e-001	 1.298065178464161e+001
 1.767181791275910e+000	 9.365193626221506e-001	 1.299693970137400e+001
 1.757599916804693e+000	 9.543807062332065e-001	 1.300735555652854e+001
 1.747823022222099e+000	 9.721700895268440e-001	 1.301205055773238e+001
 1.737851804855421e+000	 9.898843893801800e-001	 1.301118478089024e+001
 1.727687027486658e+000	 1.007520488639881e+000	 1.300492703001050e+001
 1.717329518407680e+000	 1.025075277809822e+000	 1.299345467866511e+001
 1.706780171423915e+000	 1.042545656746593e+000	 1.297695349315923e+001
 1.696039945806038e+000	 1.059928536361033e+000	 1.295561743753804e+001
 1.685109866189261e+000	 1.077220840323977e+000	 1.292964846060916e+001
 1.673991022419878e+000	 1.094419506774317e+000	 1.289925626521029e+001
 1.798775113827414e+000	 9.300715509331942e-001	 1.289630702734710e+001
 1.789271563665848e+000	 9.482258546533824e-001	 1.291622161973673e+001
 1.779569915763154e+000	 9.663104650593969e-001	 1.293023015550648e+001
 1.769670809997764e+000	 9.843222156441563e-001	 1.293847527184199e+001
 1.759574952413566e+000	 1.002257944245742e+000	 1.294110860789385e+001
 1.749283115327332e+000	 1.020114494746404e+000	 1.293829067278624e+001
 1.738796137384582e+000	 1.037888718781318e+000	 1.293019069493500e+001
 1.728114923563311e+000	 1.055577477455279e+000	 1.291698645273502e+001
 1.717240445125080e+000	 1.073177643065515e+000	 1.289886408672909e+001
 1.706173739513039e+000	 1.090686100828744e+000	 1.287601789342251e+001
 1.694915910196563e+000	 1.108099750610596e+000	 1.284865010096064e+001
 1.820982213998275e+000	 9.415539157583098e-001	 1.281806655319337e+001
 1.811361336056378e+000	 9.599323466846091e-001	 1.284109631942207e+001
 1.801539914722290e+000	 9.782402238855674e-001	 1.285817846272664e+001
 1.791518597774181e+000	 9.964743417614238e-001	 1.286944736404443e+001
 1.781298099972527e+000	 1.014631499111225e+000	 1.287504655168974e+001
 1.770879203168879e+000	 1.032708500852804e+000	 1.287512857730504e+001
 1.760262756362402e+000	 1.050702159752635e+000	 1.286985487277452e+001
 1.749449675703662e+000	 1.068609298163722e+000	 1.285939558814418e+001
 1.738440944445101e+000	 1.086426749769679e+000	 1.284392941064546e+001
 1.727237612837812e+000	 1.104151361333108e+000	 1.282364336497335e+001
 1.715840797974247e+000	 1.121779994446377e+000	 1.279873259502288e+001
 1.843189314169633e+000	 9.530362805834256e-001	 1.274581671770910e+001
 1.833451108447498e+000	 9.716388387158305e-001	 1.277146823639223e+001
 1.823509913682104e+000	 9.901699827117182e-001	 1.279112295937695e+001
 1.813366385551350e+000	 1.008626467878648e+000	 1.280490731827730e+001
 1.803021247532308e+000	 1.027005053976629e+000	 1.281295704925945e+001
 1.792475291011298e+000	 1.045302506959080e+000	 1.281541707670125e+001
 1.781729375341141e+000	 1.063515600723774e+000	 1.281244137744472e+001
 1.770784427844967e+000	 1.081641118871923e+000	 1.280419282566954e+001
 1.759641443766101e+000	 1.099675856473525e+000	 1.279084301847021e+001
 1.748301486163579e+000	 1.117616621837070e+000	 1.277257208227410e+001
 1.736765685752931e+000	 1.135460238281661e+000	 1.274956846029218e+001
 1.865396414341487e+000	 9.645186454085410e-001	 1.267945503830790e+001
 1.855540880839211e+000	 9.833453307470476e-001	 1.270725209713124e+001
 1.845479912642593e+000	 1.002099741537849e+000	 1.272899554198852e+001
 1.835214173329270e+000	 1.020778593995827e+000	 1.274480415521861e+001
 1.824744395092904e+000	 1.039378608841954e+000	 1.275480619269382e+001
 1.814071378854591e+000	 1.057896513065233e+000	 1.275913927495979e+001
 1.803195994320799e+000	 1.076329041694735e+000	 1.275795025857556e+001
 1.792119179987226e+000	 1.094672939579881e+000	 1.275139508766704e+001
 1.780841943088082e+000	 1.112924963177054e+000	 1.273963862576163e+001
 1.769365359490342e+000	 1.131081882340630e+000	 1.272285446802816e+001
 1.757690573532616e+000	 1.149140482116448e+000	 1.270122473410224e+001
 1.887603514513837e+000	 9.760010102336569e-001	 1.262266359773143e+001
 1.877630653231514e+000	 9.950518227782595e-001	 1.264915979122016e+001
 1.867449911603760e+000	 1.014029500363961e+000	 1.267173696859207e+001
 1.857061961107944e+000	 1.032930720112961e+000	 1.268909493012556e+001
 1.846467542654319e+000	 1.051752163707200e+000	 1.270056727889253e+001
 1.835667466698757e+000	 1.070490519171262e+000	 1.270628464863082e+001
 1.824662613301375e+000	 1.089142482665518e+000	 1.270638710402659e+001
 1.813453932130439e+000	 1.107704760287595e+000	 1.270102399867897e+001
 1.802042442411042e+000	 1.126174069880265e+000	 1.269035381290165e+001
 1.790429232818099e+000	 1.144547142843787e+000	 1.267454397147153e+001
 1.778615461313300e+000	 1.162820725950737e+000	 1.265377064149364e+001
 1.909810614686682e+000	 9.874833750587725e-001	 1.257434860890575e+001
 1.899720425624409e+000	 1.006758314809467e+000	 1.260209979246490e+001
 1.889419910565603e+000	 1.025959259190053e+000	 1.262367439228230e+001
 1.878909748887369e+000	 1.045082846230052e+000	 1.263898203086620e+001
 1.868190690216551e+000	 1.064125718572367e+000	 1.265022039067978e+001
 1.857263554543797e+000	 1.083084525277168e+000	 1.265684867633179e+001
 1.846129232282870e+000	 1.101955923636123e+000	 1.265776271789676e+001
 1.834788684274606e+000	 1.120736580995068e+000	 1.265310561205112e+001
 1.823242941734981e+000	 1.139423176583158e+000	 1.264302980039698e+001
 1.811493106146852e+000	 1.158012403346542e+000	 1.262769689241164e+001
 1.799540349094984e+000	 1.176500969784529e+000	 1.260727746802159e+001
 1.932017714860024e+000	 9.989657398838882e-001	 1.253145304983147e+001
 1.921810198017894e+000	 1.018464806840669e+000	 1.256007730217331e+001
 1.911389909528122e+000	 1.037889018016125e+000	 1.258257088370591e+001
 1.900757536667546e+000	 1.057234972347098e+000	 1.259882899515368e+001
 1.889913837779600e+000	 1.076499273437455e+000	 1.260874860022348e+001
 1.878859642389709e+000	 1.095678531382949e+000	 1.261222861747404e+001
 1.867595851265284e+000	 1.114769364606549e+000	 1.261209282074068e+001
 1.856123436419727e+000	 1.133768401702297e+000	 1.260767015540371e+001
 1.844443441059901e+000	 1.152672283285734e+000	 1.259771123967635e+001
 1.832556979476599e+000	 1.171477663848894e+000	 1.258237221740138e+001
 1.820465236877668e+000	 1.190181213617824e+000	 1.256181844133546e+001
 1.954224815033862e+000	 1.010448104709004e+000	 1.249382271386532e+001
 1.943899970411971e+000	 1.030171298871866e+000	 1.252295391093186e+001
 1.933359908491318e+000	 1.049818776842177e+000	 1.254599913311526e+001
 1.922605324448474e+000	 1.069387098464099e+000	 1.256283923688578e+001
 1.911636985343467e+000	 1.088872828302464e+000	 1.257335666192500e+001
 1.900455730236494e+000	 1.108272537488608e+000	 1.257743563931541e+001
 1.889062470248617e+000	 1.127582805576798e+000	 1.257496240180117e+001
 1.877458188565803e+000	 1.146800222409283e+000	 1.256582539568361e+001
 1.865643940385800e+000	 1.165921389987992e+000	 1.255444601815188e+001
 1.853620852807341e+000	 1.184942924350843e+000	 1.253863146708318e+001
 1.841390124661353e+000	 1.203861457450621e+000	 1.251746862083263e+001
 1.976431915208197e+000	 1.021930469534119e+000	 1.246131169620621e+001
 1.965989742806639e+000	 1.041877790903058e+000	 1.249059886307795e+001
 1.955329907455190e+000	 1.061748535668210e+000	 1.251384360601629e+001
 1.944453112230155e+000	 1.081539224581056e+000	 1.253091250697341e+001
 1.933360132908152e+000	 1.101246383167394e+000	 1.254167355160223e+001
 1.922051818084153e+000	 1.120866543594143e+000	 1.254599635378450e+001
 1.910529089232867e+000	 1.140396246546868e+000	 1.254375238267681e+001
 1.898792940712833e+000	 1.159832043116027e+000	 1.253481519181155e+001
 1.886844439712678e+000	 1.179170496689933e+000	 1.251906064977422e+001
 1.874684726139078e+000	 1.198408184852391e+000	 1.249653855382434e+001
 1.862315012446037e+000	 1.217541701282921e+000	 1.247430479475123e+001
 1.998639015383027e+000	 1.033412834359236e+000	 1.243378193268169e+001
 1.988079515201900e+000	 1.053584282934246e+000	 1.246288863149148e+001
 1.977299906419740e+000	 1.073678294494223e+000	 1.248599538169122e+001
 1.966300900012589e+000	 1.093691350697970e+000	 1.250295455293205e+001
 1.955083280473655e+000	 1.113619938032245e+000	 1.251361973921526e+001
 1.943647905932685e+000	 1.133460549699554e+000	 1.251784599978332e+001
 1.931995708218038e+000	 1.153209687516760e+000	 1.251549010297790e+001
 1.920127692860818e+000	 1.172863863822527e+000	 1.250641077257368e+001
 1.908044939040537e+000	 1.192419603391557e+000	 1.249046893608252e+001
 1.895748599471811e+000	 1.211873445353536e+000	 1.246752797450441e+001
 1.883239900231722e+000	 1.231221945114724e+000	 1.243745397298955e+001
 1.673991022419878e+000	 1.094419506774317e+000	 1.289925626521029e+001
 1.662684569349107e+000	 1.111521490027895e+000	 1.287569362220270e+001
 1.651191726573076e+000	 1.128523762284198e+000	 1.284757810058399e+001
 1.639513778119492e+000	 1.145423315329686e+000	 1.281498753868310e+001
 1.627652072081567e+000	 1.162217162236540e+000	 1.277800616474984e+001
 1.615608020198319e+000	 1.178902339053813e+000	 1.273672444398415e+001
 1.603383097381649e+000	 1.195475906489392e+000	 1.269123891153444e+001
 1.590978841190437e+000	 1.211934951580843e+000	 1.264165199178416e+001
 1.578396851251905e+000	 1.228276589353182e+000	 1.258807180428864e+001
 1.565638788630636e+000	 1.244497964461667e+000	 1.253061195676519e+001
 1.552706375145675e+000	 1.260596252817663e+000	 1.252196255961619e+001
 1.694915910196563e+000	 1.108099750610596e+000	 1.284865010096064e+001
 1.683468126462488e+000	 1.125415508655709e+000	 1.282217951345266e+001
 1.671831623151878e+000	 1.142630309315913e+000	 1.279082410401520e+001
 1.660007700342781e+000	 1.159741106774995e+000	 1.275466522855531e+001
 1.647997722979581e+000	 1.176744876768540e+000	 1.271379109579347e+001
 1.635803120448028e+000	 1.193638618296214e+000	 1.266829660942093e+001
 1.623425386096425e+000	 1.210419355324751e+000	 1.261828319538938e+001
 1.610866076703136e+000	 1.227084138479686e+000	 1.256385861465978e+001
 1.598126811890725e+000	 1.243630046723849e+000	 1.250513676178339e+001
 1.585209273487081e+000	 1.260054189020686e+000	 1.249084792696804e+001
 1.572115204833990e+000	 1.276353705980456e+000	 1.250417141544020e+001
 1.715840797974247e+000	 1.121779994446377e+000	 1.279873259502288e+001
 1.704251683576865e+000	 1.139309527282935e+000	 1.276923580662076e+001
 1.692471519731658e+000	 1.156736856346968e+000	 1.273452404426048e+001
 1.680501622567026e+000	 1.174058898219595e+000	 1.269468239777623e+001
 1.668343373878515e+000	 1.191272591299802e+000	 1.264980327662225e+001
 1.655998220698613e+000	 1.208374897537865e+000	 1.259998624686710e+001
 1.643467674812022e+000	 1.225362804159370e+000	 1.254533785247054e+001
 1.630753312216592e+000	 1.242233325377819e+000	 1.248597142117971e+001
 1.617856772530227e+000	 1.258983504093854e+000	 1.246420635844778e+001
 1.604779758344124e+000	 1.275610413579115e+000	 1.247546720439140e+001
 1.591524034522806e+000	 1.292111159142748e+000	 1.248372903563046e+001
 1.736765685752931e+000	 1.135460238281661e+000	 1.274956846029218e+001
 1.725035240692236e+000	 1.153203545909574e+000	 1.271692823131578e+001
 1.713111416312420e+000	 1.170843403377367e+000	 1.267874435520296e+001
 1.700995544792228e+000	 1.188376689663487e+000	 1.263510587272769e+001
 1.688689024778370e+000	 1.205800305830324e+000	 1.258610961525912e+001
 1.676193320950074e+000	 1.223111176778767e+000	 1.253186003630005e+001
 1.663509963528440e+000	 1.240306252993249e+000	 1.247246902644627e+001
 1.650640547730804e+000	 1.257382512275241e+000	 1.244163702982771e+001
 1.637586733170410e+000	 1.274336961463199e+000	 1.245112367618634e+001
 1.624350243201763e+000	 1.291166638136952e+000	 1.245747898266376e+001
 1.610932864212123e+000	 1.307868612304539e+000	 1.246065577153843e+001
 1.757690573532616e+000	 1.149140482116448e+000	 1.270122473410224e+001
 1.745818797808603e+000	 1.167097564535626e+000	 1.266532473068186e+001
 1.733751312894162e+000	 1.184949950407107e+000	 1.262355358349025e+001
 1.721489467018384e+000	 1.202694481106671e+000	 1.257600450199534e+001
 1.709034675679145e+000	 1.220328020360107e+000	 1.252277896165181e+001
 1.696388421202410e+000	 1.237847456018919e+000	 1.246398652969018e+001
 1.683552252245678e+000	 1.255249701826387e+000	 1.242278297365981e+001
 1.670527783245771e+000	 1.272531699171952e+000	 1.243075966674701e+001
 1.657316693811274e+000	 1.289690418831883e+000	 1.243548346011832e+001
 1.643920728059998e+000	 1.306722862694198e+000	 1.243690424149352e+001
 1.630341693901942e+000	 1.323626065465828e+000	 1.243497365389969e+001
 1.778615461313300e+000	 1.162820725950737e+000	 1.265377064149364e+001
 1.766602354925964e+000	 1.180991583161090e+000	 1.261449533119070e+001
 1.754391209476883e+000	 1.199056497436190e+000	 1.256902226425434e+001
 1.741983389245496e+000	 1.217012272549147e+000	 1.251744903741550e+001
 1.729380326580841e+000	 1.234855734889153e+000	 1.245988199344200e+001
 1.716583521455622e+000	 1.252583735258322e+000	 1.240732991554873e+001
 1.703594540963738e+000	 1.270193150658786e+000	 1.241403675974000e+001
 1.690415018761495e+000	 1.287680886067954e+000	 1.241738025488876e+001
 1.677046654452819e+000	 1.305043876199906e+000	 1.241730702624328e+001
 1.663491212918830e+000	 1.322279087250852e+000	 1.241376555759923e+001
 1.649750523592262e+000	 1.339383518626616e+000	 1.240670629404676e+001
 1.799540349094984e+000	 1.176500969784529e+000	 1.260727746802159e+001
 1.787385912044321e+000	 1.194885601785967e+000	 1.256451202151770e+001
 1.775031106060586e+000	 1.213163044464615e+000	 1.251522280550192e+001
 1.762477311473562e+000	 1.231330063990914e+000	 1.245951202342095e+001
 1.749725977483457e+000	 1.249383449417458e+000	 1.239749110970403e+001
 1.736778621709710e+000	 1.267320014496975e+000	 1.240065821319372e+001
 1.723636829682618e+000	 1.285136599490444e+000	 1.240284885471848e+001
 1.710302254277975e+000	 1.302830072963244e+000	 1.240152018814969e+001
 1.696776615095046e+000	 1.320397333567267e+000	 1.239661721955708e+001
 1.683061697778257e+000	 1.337835311806915e+000	 1.238808701186015e+001
 1.669159353283084e+000	 1.355140971786903e+000	 1.237587879201387e+001
 1.820465236877668e+000	 1.190181213617824e+000	 1.256181844133546e+001
 1.808169469163672e+000	 1.208779620410255e+000	 1.251544863977181e+001
 1.795671002645268e+000	 1.227269591492382e+000	 1.246222938047795e+001
 1.782971233702584e+000	 1.245647855431973e+000	 1.240226769401825e+001
 1.770071628386993e+000	 1.263911163945025e+000	 1.239036797295390e+001
 1.756973721964674e+000	 1.282056293734879e+000	 1.239160945990689e+001
 1.743679118402319e+000	 1.300080048321363e+000	 1.238924050216951e+001
 1.730189489795211e+000	 1.317979259857824e+000	 1.238320233376799e+001
 1.716506575737954e+000	 1.335750790933969e+000	 1.237343832617852e+001
 1.702632182638282e+000	 1.353391536362387e+000	 1.235989410287033e+001
 1.688568182974407e+000	 1.370898424946689e+000	 1.234251765097944e+001
 1.841390124661353e+000	 1.203861457450621e+000	 1.251746862083263e+001
 1.828953026284019e+000	 1.222673639033957e+000	 1.246738076841395e+001
 1.816310899230930e+000	 1.241376138519491e+000	 1.241011782736808e+001
 1.803465155932562e+000	 1.259965646872324e+000	 1.238294976335778e+001
 1.790417279291451e+000	 1.278438878471852e+000	 1.238342207505314e+001
 1.777168822220513e+000	 1.296792572972034e+000	 1.238020454777537e+001
 1.763721407122842e+000	 1.315023497151540e+000	 1.237323437396230e+001
 1.750076725313204e+000	 1.333128446751693e+000	 1.236245094861050e+001
 1.736236536381543e+000	 1.351104248300008e+000	 1.234779599146737e+001
 1.722202667498902e+000	 1.368947760917268e+000	 1.232921366638645e+001
 1.707977012666231e+000	 1.386655878105973e+000	 1.230665069754198e+001
 1.862315012446037e+000	 1.217541701282921e+000	 1.247430479475123e+001
 1.849736583405360e+000	 1.236567657657071e+000	 1.242038563625971e+001
 1.836950795817573e+000	 1.255482685545942e+000	 1.237822624625397e+001
 1.823959078163495e+000	 1.274283438311965e+000	 1.237808567180111e+001
 1.810762930196829e+000	 1.292966592997942e+000	 1.237418787458026e+001
 1.797363922477228e+000	 1.311528852208439e+000	 1.236646576121294e+001
 1.783763695844185e+000	 1.329966945980979e+000	 1.235485449001982e+001
 1.769963960831952e+000	 1.348277633644852e+000	 1.233929160110386e+001
 1.755966497025814e+000	 1.366457705665388e+000	 1.231971714366246e+001
 1.741773152360119e+000	 1.384503985471558e+000	 1.229607380020654e+001
 1.727385842358557e+000	 1.402413331264755e+000	 1.226830700737056e+001
 1.883239900231722e+000	 1.231221945114724e+000	 1.243745397298955e+001
 1.870520140527698e+000	 1.250461676279598e+000	 1.237605824017524e+001
 1.857590692405196e+000	 1.269589232571736e+000	 1.237543741423492e+001
 1.844453000395384e+000	 1.288601229750900e+000	 1.237100423316284e+001
 1.831108581103128e+000	 1.307494307523293e+000	 1.236268709934092e+001
 1.817559022734820e+000	 1.326265131444095e+000	 1.235041669960872e+001
 1.803805984566350e+000	 1.344910394809678e+000	 1.233412614342678e+001
 1.789851196351457e+000	 1.363426820537300e+000	 1.231375109837000e+001
 1.775696457670766e+000	 1.381811163030106e+000	 1.228922992261069e+001
 1.761343637221933e+000	 1.400060210025257e+000	 1.226050379405645e+001
 1.746794672051384e+000	 1.418170784423037e+000	 1.222751683581211e+001
 1.552706375145675e+000	 1.260596252817663e+000	 1.252196255961619e+001
 1.539601392635642e+000	 1.276568663195416e+000	 1.247723236666540e+001
 1.526325682174240e+000	 1.292412438818711e+000	 1.242860684927461e+001
 1.512881143235718e+000	 1.308124858924892e+000	 1.237604670471900e+001
 1.499269732809776e+000	 1.323703240303929e+000	 1.231951520018617e+001
 1.485493464468560e+000	 1.339144938811550e+000	 1.225897825316240e+001
 1.471554407386076e+000	 1.354447350854373e+000	 1.219440450791229e+001
 1.457454685310996e+000	 1.369607914845310e+000	 1.212576540785498e+001
 1.443196475493934e+000	 1.384624112627510e+000	 1.205303526364952e+001
 1.428782007570309e+000	 1.399493470865234e+000	 1.197619131681313e+001
 1.414213562400000e+000	 1.414213562400000e+000	 1.189521379870620e+001
 1.572115204833990e+000	 1.276353705980456e+000	 1.250417141544020e+001
 1.558846410042997e+000	 1.292525771487219e+000	 1.245466418763837e+001
 1.545404753201173e+000	 1.308567594305194e+000	 1.240189433178207e+001
 1.531792157526195e+000	 1.324476419662191e+000	 1.234584163028300e+001
 1.518010604470134e+000	 1.340249530808056e+000	 1.228648792021163e+001
 1.504062132774790e+000	 1.355884250546714e+000	 1.222381715396794e+001
 1.489948837478840e+000	 1.371377942739865e+000	 1.215781545665601e+001
 1.475672868877818e+000	 1.386728013780583e+000	 1.208847117999637e+001
 1.461236431437968e+000	 1.401931914035057e+000	 1.201577495261998e+001
 1.446641782665152e+000	 1.416987139250850e+000	 1.193971972659641e+001
 1.431891231930000e+000	 1.431891231930000e+000	 1.186030082005872e+001
 1.591524034522806e+000	 1.292111159142748e+000	 1.248372903563046e+001
 1.578091427450757e+000	 1.308482879778616e+000	 1.243015382990622e+001
 1.564483824228427e+000	 1.324722749791355e+000	 1.237393610607209e+001
 1.550703171816918e+000	 1.340827980399244e+000	 1.231507433941355e+001
 1.536751476130674e+000	 1.356795821312003e+000	 1.225356855310355e+001
 1.522630801081145e+000	 1.372623562281752e+000	 1.218942035955906e+001
 1.508343267571685e+000	 1.388308534625278e+000	 1.212263299909990e+001
 1.493891052444684e+000	 1.403848112715812e+000	 1.205321137577571e+001
 1.479276387382022e+000	 1.419239715442584e+000	 1.198116209023424e+001
 1.464501557760002e+000	 1.434480807636461e+000	 1.190649346951279e+001
 1.449568901460000e+000	 1.449568901460000e+000	 1.182921559364206e+001
 1.610932864212123e+000	 1.307868612304539e+000	 1.246065577153843e+001
 1.597336444858925e+000	 1.324439988069607e+000	 1.240369620999829e+001
 1.583562895256001e+000	 1.340877905277195e+000	 1.234470211587011e+001
 1.569614186107887e+000	 1.357179541136051e+000	 1.228369027720749e+001
 1.555492347791394e+000	 1.373342111815769e+000	 1.222067853139415e+001
 1.541199469387625e+000	 1.389362874016665e+000	 1.215568578757578e+001
 1.526737697664610e+000	 1.405239126510609e+000	 1.208873204698269e+001
 1.512109236011596e+000	 1.420968211650994e+000	 1.201983842103910e+001
 1.497316343326096e+000	 1.436547516850091e+000	 1.194902714716236e+001
 1.482361332854855e+000	 1.451974476022067e+000	 1.187632160216065e+001
 1.467246570990000e+000	 1.467246570990000e+000	 1.180174631314644e+001
 1.630341693901942e+000	 1.323626065465828e+000	 1.243497365389969e+001
 1.616581462267498e+000	 1.340397096360191e+000	 1.237528916724079e+001
 1.602641966283898e+000	 1.357033060762714e+000	 1.231416644785931e+001
 1.588525200399102e+000	 1.373531101872612e+000	 1.225164022800982e+001
 1.574233219452295e+000	 1.389888402319353e+000	 1.218774579867849e+001
 1.559768137694231e+000	 1.406102185751452e+000	 1.212251901346990e+001
 1.545132127757616e+000	 1.422169718395860e+000	 1.205599629096282e+001
 1.530327419578553e+000	 1.438088310586132e+000	 1.198821461546066e+001
 1.515356299270190e+000	 1.453855318257577e+000	 1.191921153606766e+001
 1.500221107949714e+000	 1.469468144407668e+000	 1.184902516402794e+001
 1.484924240520000e+000	 1.484924240520000e+000	 1.177769416827006e+001
 1.649750523592262e+000	 1.339383518626616e+000	 1.240670629404676e+001
 1.635826479676479e+000	 1.356354204650368e+000	 1.234493329182763e+001
 1.621721037312116e+000	 1.373188216247912e+000	 1.228230708797740e+001
 1.607436214690563e+000	 1.389882662608927e+000	 1.221888000134026e+001
 1.592974091113377e+000	 1.406434692822758e+000	 1.215470442661066e+001
 1.578336806000964e+000	 1.422841497486115e+000	 1.208983282004523e+001
 1.563526557850701e+000	 1.439100310281031e+000	 1.202431768421159e+001
 1.548545603145556e+000	 1.455208409521225e+000	 1.195821155172902e+001
 1.533396255214304e+000	 1.471163119665044e+000	 1.189156696796001e+001
 1.518080883044578e+000	 1.486961812793264e+000	 1.182443647261630e+001
 1.502601910049999e+000	 1.502601910049999e+000	 1.175687258024810e+001
 1.669159353283084e+000	 1.355140971786903e+000	 1.237587879201387e+001
 1.655071497085865e+000	 1.372311312940140e+000	 1.231263176488621e+001
 1.640800108340654e+000	 1.389343371732789e+000	 1.224910569471566e+001
 1.626347228982270e+000	 1.406234223344997e+000	 1.218537013973186e+001
 1.611714962774640e+000	 1.422980983325981e+000	 1.212149425862142e+001
 1.596905474307821e+000	 1.439580809220651e+000	 1.205754677842580e+001
 1.581920987943868e+000	 1.456030902166122e+000	 1.199359596203436e+001
 1.566763786712603e+000	 1.472328508456272e+000	 1.192970957525586e+001
 1.551436211158438e+000	 1.488470921072491e+000	 1.186595485345484e+001
 1.535940658139447e+000	 1.504455481178855e+000	 1.180239846774265e+001
 1.520279579580000e+000	 1.520279579580000e+000	 1.173910649071691e+001
 1.688568182974407e+000	 1.370898424946689e+000	 1.234251765097944e+001
 1.674316514495657e+000	 1.388268421229506e+000	 1.227839020957316e+001
 1.659879179369514e+000	 1.405498527217345e+000	 1.221454738805274e+001
 1.645258243274223e+000	 1.422585784080820e+000	 1.215107564671886e+001
 1.630455834436084e+000	 1.439527273829024e+000	 1.208806057820680e+001
 1.615474142614804e+000	 1.456320120955061e+000	 1.202558685792231e+001
 1.600315418037114e+000	 1.472961494051132e+000	 1.196373819462156e+001
 1.584981970279697e+000	 1.489448607391275e+000	 1.190259728114583e+001
 1.569476167102593e+000	 1.505778722479917e+000	 1.184224574532446e+001
 1.553800433234320e+000	 1.521949149564441e+000	 1.178276410106113e+001
 1.537957249110000e+000	 1.537957249110000e+000	 1.172423169962190e+001
 1.707977012666231e+000	 1.386655878105973e+000	 1.230665069754198e+001
 1.693561531905856e+000	 1.404225529518465e+000	 1.224221655232278e+001
 1.678958250398694e+000	 1.421653682701579e+000	 1.217862055277912e+001
 1.664169257566422e+000	 1.438937344816397e+000	 1.211596573337059e+001
 1.649196706097708e+000	 1.456073564331886e+000	 1.205435379983352e+001
 1.634042810921913e+000	 1.473059432689346e+000	 1.199388506249892e+001
 1.618709848130441e+000	 1.489892085936062e+000	 1.193465837029378e+001
 1.603200153846835e+000	 1.506568706326231e+000	 1.187677104546392e+001
 1.587516123046767e+000	 1.523086523887323e+000	 1.182031881905736e+001
 1.571660208329199e+000	 1.539442817950022e+000	 1.176539576720896e+001
 1.555634918639999e+000	 1.555634918639999e+000	 1.171209424826822e+001
 1.727385842358557e+000	 1.402413331264755e+000	 1.226830700737056e+001
 1.712806549316460e+000	 1.420182637807017e+000	 1.220412089344933e+001
 1.698037321428197e+000	 1.437808838185493e+000	 1.214131665508088e+001
 1.683080271858867e+000	 1.455288905551728e+000	 1.208001358191324e+001
 1.667937577759513e+000	 1.472619854834567e+000	 1.202032918068226e+001
 1.652611479229147e+000	 1.489798744423506e+000	 1.196237909174767e+001
 1.637104278223849e+000	 1.506822677820911e+000	 1.190627700684285e+001
 1.621418337414018e+000	 1.523688805261143e+000	 1.185213458810299e+001
 1.605556078990962e+000	 1.540394325294709e+000	 1.180006138843601e+001
 1.589519983424083e+000	 1.556936486335598e+000	 1.175016477330160e+001
 1.573312588170000e+000	 1.573312588170000e+000	 1.170254984396344e+001
 1.746794672051384e+000	 1.418170784423037e+000	 1.222751683581211e+001
 1.732051566727472e+000	 1.436139746095164e+000	 1.216411538637603e+001
 1.717116392458020e+000	 1.453963993669085e+000	 1.210263007135091e+001
 1.701991286151559e+000	 1.471640466286814e+000	 1.204319612510989e+001
 1.686678449421499e+000	 1.489166145337068e+000	 1.198594655160792e+001
 1.671180147536507e+000	 1.506538056157541e+000	 1.193101202446480e+001
 1.655498708317337e+000	 1.523753269705680e+000	 1.187852078878342e+001
 1.639636520981247e+000	 1.540808904196010e+000	 1.182859856479327e+001
 1.623596034935177e+000	 1.557702126702076e+000	 1.178136845340936e+001
 1.607379758518973e+000	 1.574430154721170e+000	 1.173695084379508e+001
 1.590990257700000e+000	 1.590990257700000e+000	 1.169546332301747e+001
 1.414213562400000e+000	 1.414213562400000e+000	 1.189521379870620e+001
 1.399493470865234e+000	 1.428782007570309e+000	 1.178995452611195e+001
 1.384624112627510e+000	 1.443196475493934e+000	 1.168642867804263e+001
 1.369607914845309e+000	 1.457454685310996e+000	 1.158477382061357e+001
 1.354447350854374e+000	 1.471554407386076e+000	 1.148512499688214e+001
 1.339144938811549e+000	 1.485493464468560e+000	 1.138761461376981e+001
 1.323703240303929e+000	 1.499269732809775e+000	 1.129237233155587e+001
 1.308124858924892e+000	 1.512881143235718e+000	 1.119952495609176e+001
 1.292412438818710e+000	 1.526325682174240e+000	 1.110919633388001e+001
 1.276568663195416e+000	 1.539601392635642e+000	 1.102150725015997e+001
 1.260596252817662e+000	 1.552706375145675e+000	 1.093657533013768e+001
 1.431891231930000e+000	 1.431891231930000e+000	 1.186030082005872e+001
 1.416987139250849e+000	 1.446641782665152e+000	 1.176196209715807e+001
 1.401931914035057e+000	 1.461236431437968e+000	 1.166476330483422e+001
 1.386728013780583e+000	 1.475672868877818e+000	 1.156882353880814e+001
 1.371377942739865e+000	 1.489948837478840e+000	 1.147426003026177e+001
 1.355884250546714e+000	 1.504062132774790e+000	 1.138118805151139e+001
 1.340249530808056e+000	 1.518010604470134e+000	 1.128972082326278e+001
 1.324476419662191e+000	 1.531792157526195e+000	 1.119996942356734e+001
 1.308567594305193e+000	 1.545404753201172e+000	 1.111204269859687e+001
 1.292525771487219e+000	 1.558846410042997e+000	 1.102604717535358e+001
 1.276353705980456e+000	 1.572115204833990e+000	 1.094208697643164e+001
 1.449568901460000e+000	 1.449568901460000e+000	 1.182921559364206e+001
 1.434480807636461e+000	 1.464501557760002e+000	 1.173707691404303e+001
 1.419239715442584e+000	 1.479276387382022e+000	 1.164550234809764e+001
 1.403848112715811e+000	 1.493891052444684e+000	 1.155459282676839e+001
 1.388308534625277e+000	 1.508343267571685e+000	 1.146444806452704e+001
 1.372623562281752e+000	 1.522630801081145e+000	 1.137516648354777e+001
 1.356795821312003e+000	 1.536751476130674e+000	 1.128684513850351e+001
 1.340827980399244e+000	 1.550703171816917e+000	 1.119957964205555e+001
 1.324722749791355e+000	 1.564483824228426e+000	 1.111346409112693e+001
 1.308482879778616e+000	 1.578091427450757e+000	 1.102859099405297e+001
 1.292111159142748e+000	 1.591524034522806e+000	 1.094505119870301e+001
 1.467246570990000e+000	 1.467246570990000e+000	 1.180174631314644e+001
 1.451974476022067e+000	 1.482361332854855e+000	 1.171511339179322e+001
 1.436547516850091e+000	 1.497316343326095e+000	 1.162848579425992e+001
 1.420968211650994e+000	 1.512109236011596e+000	 1.154194657984756e+001
 1.405239126510609e+000	 1.526737697664610e+000	 1.145557822939195e+001
 1.389362874016665e+000	 1.541199469387626e+000	 1.136946258775585e+001
 1.373342111815768e+000	 1.555492347791394e+000	 1.128368080595619e+001
 1.357179541136051e+000	 1.569614186107887e+000	 1.119831328298782e+001
 1.340877905277195e+000	 1.583562895256002e+000	 1.111343960740835e+001
 1.324439988069607e+000	 1.597336444858925e+000	 1.102913849875331e+001
 1.307868612304539e+000	 1.610932864212123e+000	 1.094548774885336e+001
 1.484924240520000e+000	 1.484924240520000e+000	 1.177769416827006e+001
 1.469468144407668e+000	 1.500221107949714e+000	 1.169589771089462e+001
 1.453855318257577e+000	 1.515356299270189e+000	 1.161356419402188e+001
 1.438088310586132e+000	 1.530327419578554e+000	 1.153075908642189e+001
 1.422169718395860e+000	 1.545132127757616e+000	 1.144754790683092e+001
 1.406102185751452e+000	 1.559768137694231e+000	 1.136399618453116e+001
 1.389888402319353e+000	 1.574233219452295e+000	 1.128016941860868e+001
 1.373531101872612e+000	 1.588525200399102e+000	 1.119613303592124e+001
 1.357033060762714e+000	 1.602641966283898e+000	 1.111195234781584e+001
 1.340397096360191e+000	 1.616581462267498e+000	 1.102769250563991e+001
 1.323626065465828e+000	 1.630341693901942e+000	 1.094341845509805e+001
 1.502601910049999e+000	 1.502601910049999e+000	 1.175687258024810e+001
 1.486961812793264e+000	 1.518080883044577e+000	 1.167926712520694e+001
 1.471163119665044e+000	 1.533396255214303e+000	 1.160059804093011e+001
 1.455208409521225e+000	 1.548545603145556e+000	 1.152091347536011e+001
 1.439100310281031e+000	 1.563526557850701e+000	 1.144026224565186e+001
 1.422841497486115e+000	 1.578336806000964e+000	 1.135869381663982e+001
 1.406434692822758e+000	 1.592974091113377e+000	 1.127625827703473e+001
 1.389882662608928e+000	 1.607436214690563e+000	 1.119300631335496e+001
 1.373188216247912e+000	 1.621721037312115e+000	 1.110898918160527e+001
 1.356354204650369e+000	 1.635826479676478e+000	 1.102425867672421e+001
 1.339383518626616e+000	 1.649750523592262e+000	 1.093886709982997e+001
 1.520279579580000e+000	 1.520279579580000e+000	 1.173910649071691e+001
 1.504455481178855e+000	 1.535940658139447e+000	 1.166506931816267e+001
 1.488470921072491e+000	 1.551436211158438e+000	 1.158945719330477e+001
 1.472328508456272e+000	 1.566763786712603e+000	 1.151230120204108e+001
 1.456030902166122e+000	 1.581920987943868e+000	 1.143363370993600e+001
 1.439580809220651e+000	 1.596905474307821e+000	 1.135348835838280e+001
 1.422980983325981e+000	 1.611714962774640e+000	 1.127190005755747e+001
 1.406234223344997e+000	 1.626347228982270e+000	 1.118890497614032e+001
 1.389343371732789e+000	 1.640800108340654e+000	 1.110454052779298e+001
 1.372311312940140e+000	 1.655071497085865e+000	 1.101884535438871e+001
 1.355140971786903e+000	 1.669159353283084e+000	 1.093185930600474e+001
 1.537957249110000e+000	 1.537957249110000e+000	 1.172423169962190e+001
 1.521949149564441e+000	 1.553800433234320e+000	 1.165316180336645e+001
 1.505778722479917e+000	 1.569476167102593e+000	 1.158002033603407e+001
 1.489448607391274e+000	 1.584981970279696e+000	 1.150482156981897e+001
 1.472961494051132e+000	 1.600315418037114e+000	 1.142758165861985e+001
 1.456320120955061e+000	 1.615474142614804e+000	 1.134831865171486e+001
 1.439527273829024e+000	 1.630455834436083e+000	 1.126705250329844e+001
 1.422585784080820e+000	 1.645258243274223e+000	 1.118380507782855e+001
 1.405498527217345e+000	 1.659879179369514e+000	 1.109860015114629e+001
 1.388268421229505e+000	 1.674316514495657e+000	 1.101146340734275e+001
 1.370898424946689e+000	 1.688568182974407e+000	 1.092242243136107e+001
 1.555634918639999e+000	 1.555634918639999e+000	 1.171209424826822e+001
 1.539442817950022e+000	 1.571660208329199e+000	 1.164341136606257e+001
 1.523086523887323e+000	 1.587516123046767e+000	 1.157217447906469e+001
 1.506568706326231e+000	 1.603200153846835e+000	 1.149838128411539e+001
 1.489892085936062e+000	 1.618709848130441e+000	 1.142203195374216e+001
 1.473059432689346e+000	 1.634042810921913e+000	 1.134312916717314e+001
 1.456073564331886e+000	 1.649196706097708e+000	 1.126167813629117e+001
 1.438937344816397e+000	 1.664169257566422e+000	 1.117768662644921e+001
 1.421653682701579e+000	 1.678958250398695e+000	 1.109116497208425e+001
 1.404225529518465e+000	 1.693561531905856e+000	 1.100212608708111e+001
 1.386655878105973e+000	 1.707977012666231e+000	 1.091058546985362e+001
 1.573312588170000e+000	 1.573312588170000e+000	 1.170254984396344e+001
 1.556936486335598e+000	 1.589519983424083e+000	 1.163569354225633e+001
 1.540394325294709e+000	 1.605556078990961e+000	 1.156581448970206e+001
 1.523688805261142e+000	 1.621418337414017e+000	 1.149289403657295e+001
 1.506822677820910e+000	 1.637104278223849e+000	 1.141691659510099e+001
 1.489798744423506e+000	 1.652611479229147e+000	 1.133786968766483e+001
 1.472619854834567e+000	 1.667937577759513e+000	 1.125574398900305e+001
 1.455288905551728e+000	 1.683080271858867e+000	 1.117053336234835e+001
 1.437808838185492e+000	 1.698037321428197e+000	 1.108223488939366e+001
 1.420182637807018e+000	 1.712806549316460e+000	 1.099084889401973e+001
 1.402413331264755e+000	 1.727385842358557e+000	 1.089637895973086e+001
 1.590990257700000e+000	 1.590990257700000e+000	 1.169546332301747e+001
 1.574430154721170e+000	 1.607379758518973e+000	 1.162989213256057e+001
 1.557702126702076e+000	 1.623596034935176e+000	 1.156084265609019e+001
 1.540808904196010e+000	 1.639636520981247e+000	 1.148828011693196e+001
 1.523753269705680e+000	 1.655498708317338e+000	 1.141217337926723e+001
 1.506538056157540e+000	 1.671180147536507e+000	 1.133249501333529e+001
 1.489166145337068e+000	 1.686678449421500e+000	 1.124922135375568e+001
 1.471640466286814e+000	 1.701991286151559e+000	 1.116233255083776e+001
 1.453963993669085e+000	 1.717116392458020e+000	 1.107181261476427e+001
 1.436139746095164e+000	 1.732051566727472e+000	 1.097764945255558e+001
 1.418170784423037e+000	 1.746794672051384e+000	 1.087983489774076e+001
 1.260596252817662e+000	 1.552706375145675e+000	 1.093657533013768e+001
 1.244497964461667e+000	 1.565638788630635e+000	 1.084612492158936e+001
 1.228276589353182e+000	 1.578396851251904e+000	 1.073799573830522e+001
 1.211934951580842e+000	 1.590978841190437e+000	 1.062643718874197e+001
 1.195475906489392e+000	 1.603383097381649e+000	 1.051182482906117e+001
 1.178902339053813e+000	 1.615608020198319e+000	 1.039453699650949e+001
 1.162217162236540e+000	 1.627652072081567e+000	 1.027495385570173e+001
 1.145423315329686e+000	 1.639513778119491e+000	 1.015345644330074e+001
 1.128523762284198e+000	 1.651191726573076e+000	 1.003042571366867e+001
 1.111521490027895e+000	 1.662684569349107e+000	 9.906241588046212e+000
 1.094419506774317e+000	 1.673991022419878e+000	 9.781282009787349e+000
 1.276353705980456e+000	 1.572115204833990e+000	 1.094208697643164e+001
 1.260054189020686e+000	 1.585209273487081e+000	 1.085386070654249e+001
 1.243630046723849e+000	 1.598126811890726e+000	 1.075503206312639e+001
 1.227084138479686e+000	 1.610866076703136e+000	 1.064048920326594e+001
 1.210419355324751e+000	 1.623425386096425e+000	 1.052391347877947e+001
 1.193638618296214e+000	 1.635803120448028e+000	 1.040572057865752e+001
 1.176744876768540e+000	 1.647997722979581e+000	 1.028632709269936e+001
 1.159741106774995e+000	 1.660007700342782e+000	 1.016614950078732e+001
 1.142630309315912e+000	 1.671831623151877e+000	 1.004560316457672e+001
 1.125415508655709e+000	 1.683468126462488e+000	 9.925101324275437e+000
 1.108099750610596e+000	 1.694915910196563e+000	 9.805054103153568e+000
 1.292111159142748e+000	 1.591524034522806e+000	 1.094505119870301e+001
 1.275610413579115e+000	 1.604779758344124e+000	 1.085243047403104e+001
 1.258983504093854e+000	 1.617856772530227e+000	 1.075866292360580e+001
 1.242233325377819e+000	 1.630753312216592e+000	 1.065343194443137e+001
 1.225362804159370e+000	 1.643467674812022e+000	 1.053522773437005e+001
 1.208374897537865e+000	 1.655998220698613e+000	 1.041643551952242e+001
 1.191272591299802e+000	 1.668343373878515e+000	 1.029750892573973e+001
 1.174058898219595e+000	 1.680501622567027e+000	 1.017890050855397e+001
 1.156736856346968e+000	 1.692471519731658e+000	 1.006106068957499e+001
 1.139309527282935e+000	 1.704251683576865e+000	 9.944436699518487e+000
 1.121779994446377e+000	 1.715840797974247e+000	 9.829471530623019e+000
 1.307868612304539e+000	 1.610932864212123e+000	 1.094548774885336e+001
 1.291166638136952e+000	 1.624350243201763e+000	 1.084915055526093e+001
 1.274336961463199e+000	 1.637586733170410e+000	 1.075263165147071e+001
 1.257382512275241e+000	 1.650640547730804e+000	 1.065592789335386e+001
 1.240306252993249e+000	 1.663509963528440e+000	 1.054624593020918e+001
 1.223111176778767e+000	 1.676193320950074e+000	 1.042712662779005e+001
 1.205800305830324e+000	 1.688689024778370e+000	 1.030891131047725e+001
 1.188376689663488e+000	 1.700995544792227e+000	 1.019208926445108e+001
 1.170843403377367e+000	 1.713111416312420e+000	 1.007714664603463e+001
 1.153203545909574e+000	 1.725035240692236e+000	 9.964565369593620e+000
 1.135460238281661e+000	 1.736765685752931e+000	 9.854822006467723e+000
 1.323626065465828e+000	 1.630341693901942e+000	 1.094341845509805e+001
 1.306722862694197e+000	 1.643920728059998e+000	 1.084401857637388e+001
 1.289690418831883e+000	 1.657316693811274e+000	 1.074538064712835e+001
 1.272531699171953e+000	 1.670527783245771e+000	 1.064751608984111e+001
 1.255249701826387e+000	 1.683552252245678e+000	 1.055043583890235e+001
 1.237847456018919e+000	 1.696388421202410e+000	 1.043824643798136e+001
 1.220328020360108e+000	 1.709034675679145e+000	 1.032095493368662e+001
 1.202694481106672e+000	 1.721489467018384e+000	 1.020610526025352e+001
 1.184949950407107e+000	 1.733751312894162e+000	 1.009422000522824e+001
 1.167097564535626e+000	 1.745818797808602e+000	 9.985816481051968e+000
 1.149140482116448e+000	 1.757690573532615e+000	 9.881405569089621e+000
 1.339383518626616e+000	 1.649750523592262e+000	 1.093886709982997e+001
 1.322279087250852e+000	 1.663491212918830e+000	 1.083703525792368e+001
 1.305043876199906e+000	 1.677046654452820e+000	 1.073688830106977e+001
 1.287680886067953e+000	 1.690415018761495e+000	 1.063845194789731e+001
 1.270193150658786e+000	 1.703594540963738e+000	 1.054175053786657e+001
 1.252583735258322e+000	 1.716583521455622e+000	 1.044680702783500e+001
 1.234855734889152e+000	 1.729380326580841e+000	 1.033406869966741e+001
 1.217012272549147e+000	 1.741983389245496e+000	 1.022134711142981e+001
 1.199056497436190e+000	 1.754391209476884e+000	 1.011264972798250e+001
 1.180991583161090e+000	 1.766602354925964e+000	 1.000852999525198e+001
 1.162820725950737e+000	 1.778615461313300e+000	 9.909533856071494e+000
 1.355140971786903e+000	 1.669159353283084e+000	 1.093185930600474e+001
 1.337835311806915e+000	 1.683061697778258e+000	 1.082820423496836e+001
 1.320397333567268e+000	 1.696776615095046e+000	 1.072713695648654e+001
 1.302830072963244e+000	 1.710302254277975e+000	 1.062869722360629e+001
 1.285136599490444e+000	 1.723636829682618e+000	 1.053292253434715e+001
 1.267320014496975e+000	 1.736778621709710e+000	 1.043984811832023e+001
 1.249383449417458e+000	 1.749725977483457e+000	 1.034868925248128e+001
 1.231330063990914e+000	 1.762477311473562e+000	 1.023822202669486e+001
 1.213163044464615e+000	 1.775031106060586e+000	 1.013281418389030e+001
 1.194885601785966e+000	 1.787385912044321e+000	 1.003305605959156e+001
 1.176500969784529e+000	 1.799540349094984e+000	 9.939529429806404e+000
 1.370898424946689e+000	 1.688568182974407e+000	 1.092242243136107e+001
 1.353391536362387e+000	 1.702632182638281e+000	 1.081753188957014e+001
 1.335750790933969e+000	 1.716506575737954e+000	 1.071611268210379e+001
 1.317979259857824e+000	 1.730189489795212e+000	 1.061821834301710e+001
 1.300080048321363e+000	 1.743679118402319e+000	 1.052389929026225e+001
 1.282056293734879e+000	 1.756973721964673e+000	 1.043320280252195e+001
 1.263911163945025e+000	 1.770071628386993e+000	 1.034617299845734e+001
 1.245647855431973e+000	 1.782971233702584e+000	 1.025714531414527e+001
 1.227269591492381e+000	 1.795671002645267e+000	 1.015510061057704e+001
 1.208779620410255e+000	 1.808169469163672e+000	 1.005975442210348e+001
 1.190181213617824e+000	 1.820465236877668e+000	 9.971725149634606e+000
 1.386655878105973e+000	 1.707977012666231e+000	 1.091058546985362e+001
 1.368947760917268e+000	 1.722202667498902e+000	 1.080502719471551e+001
 1.351104248300009e+000	 1.736236536381543e+000	 1.070380506050247e+001
 1.333128446751693e+000	 1.750076725313204e+000	 1.060698613680490e+001
 1.315023497151541e+000	 1.763721407122842e+000	 1.051463353040408e+001
 1.296792572972033e+000	 1.777168822220513e+000	 1.042680635247458e+001
 1.278438878471853e+000	 1.790417279291451e+000	 1.034355968931837e+001
 1.259965646872324e+000	 1.803465155932562e+000	 1.026494457665745e+001
 1.241376138519491e+000	 1.816310899230930e+000	 1.017990460983503e+001
 1.222673639033957e+000	 1.828953026284019e+000	 1.008899388596477e+001
 1.203861457450621e+000	 1.841390124661353e+000	 1.000646358678999e+001
 1.402413331264755e+000	 1.727385842358557e+000	 1.089637895973086e+001
 1.384503985471558e+000	 1.741773152360119e+000	 1.079070156875774e+001
 1.366457705665388e+000	 1.755966497025814e+000	 1.069020699071148e+001
 1.348277633644851e+000	 1.769963960831952e+000	 1.059497559282026e+001
 1.329966945980979e+000	 1.783763695844185e+000	 1.050508294677153e+001
 1.311528852208438e+000	 1.797363922477228e+000	 1.042059978643421e+001
 1.292966592997942e+000	 1.810762930196829e+000	 1.034159197020954e+001
 1.274283438311966e+000	 1.823959078163495e+000	 1.026812044804509e+001
 1.255482685545942e+000	 1.836950795817573e+000	 1.020024123314162e+001
 1.236567657657071e+000	 1.849736583405361e+000	 1.012115180078085e+001
 1.217541701282921e+000	 1.862315012446037e+000	 1.004409647878802e+001
 1.418170784423037e+000	 1.746794672051384e+000	 1.087983489774076e+001
 1.400060210025256e+000	 1.761343637221932e+000	 1.077456873956311e+001
 1.381811163030106e+000	 1.775696457670766e+000	 1.067531450396069e+001
 1.363426820537300e+000	 1.789851196351457e+000	 1.058216562513491e+001
 1.344910394809678e+000	 1.803805984566350e+000	 1.049520992261454e+001
 1.326265131444094e+000	 1.817559022734820e+000	 1.041452954964391e+001
 1.307494307523293e+000	 1.831108581103128e+000	 1.034020094727724e+001
 1.288601229750900e+000	 1.844453000395384e+000	 1.027229480422162e+001
 1.269589232571736e+000	 1.857590692405196e+000	 1.021087602246339e+001
 1.250461676279598e+000	 1.870520140527698e+000	 1.015600368870599e+001
 1.231221945114724e+000	 1.883239900231722e+000	 1.004203290030643e+001
 1.094419506774317e+000	 1.673991022419878e+000	 9.781282009787349e+000
 1.077220840323977e+000	 1.685109866189261e+000	 9.639678647540670e+000
 1.059928536361034e+000	 1.696039945806038e+000	 9.499051252070361e+000
 1.042545656746592e+000	 1.706780171423916e+000	 9.359820867400099e+000
 1.025075277809822e+000	 1.717329518407680e+000	 9.222401747313262e+000
 1.007520488639881e+000	 1.727687027486658e+000	 9.087200430115342e+000
 9.898843893801798e-001	 1.737851804855421e+000	 8.954614835488201e+000
 9.721700895268441e-001	 1.747823022222099e+000	 8.825033385597253e+000
 9.543807062332064e-001	 1.757599916804693e+000	 8.698834152517502e+000
 9.365193626221506e-001	 1.767181791275909e+000	 8.576384033945725e+000
 9.185891861080785e-001	 1.776568013657048e+000	 8.458037959060576e+000
 1.108099750610596e+000	 1.694915910196563e+000	 9.805054103153568e+000
 1.090686100828744e+000	 1.706173739513039e+000	 9.671271362023681e+000
 1.073177643065515e+000	 1.717240445125080e+000	 9.539052455532200e+000
 1.055577477455279e+000	 1.728114923563312e+000	 9.408837866493030e+000
 1.037888718781318e+000	 1.738796137384582e+000	 9.281060695543829e+000
 1.020114494746404e+000	 1.749283115327332e+000	 9.156145698083130e+000
 1.002257944245742e+000	 1.759574952413566e+000	 9.034508344561125e+000
 9.843222156441563e-001	 1.769670809997763e+000	 8.916553906366897e+000
 9.663104650593967e-001	 1.779569915763154e+000	 8.802676569457603e+000
 9.482258546533824e-001	 1.789271563665848e+000	 8.693258577769175e+000
 9.300715509331942e-001	 1.798775113827414e+000	 8.588669408341467e+000
 1.121779994446377e+000	 1.715840797974247e+000	 9.829471530623019e+000
 1.104151361333108e+000	 1.727237612837812e+000	 9.703172971655510e+000
 1.086426749769679e+000	 1.738440944445100e+000	 9.579019216698846e+000
 1.068609298163722e+000	 1.749449675703662e+000	 9.457471079483018e+000
 1.050702159752635e+000	 1.760262756362402e+000	 9.338981399515463e+000
 1.032708500852804e+000	 1.770879203168879e+000	 9.223994039746374e+000
 1.014631499111225e+000	 1.781298099972527e+000	 9.112942908866401e+000
 9.964743417614242e-001	 1.791518597774181e+000	 9.006251010565954e+000
 9.782402238855672e-001	 1.801539914722290e+000	 8.904329521981827e+000
 9.599323466846091e-001	 1.811361336056378e+000	 8.807576903449354e+000
 9.415539157583097e-001	 1.820982213998275e+000	 8.716378041562466e+000
 1.135460238281661e+000	 1.736765685752931e+000	 9.854822006467723e+000
 1.117616621837070e+000	 1.748301486163579e+000	 9.735659414140480e+000
 1.099675856473525e+000	 1.759641443766101e+000	 9.619215863014974e+000
 1.081641118871923e+000	 1.770784427844967e+000	 9.505973403498190e+000
 1.063515600723775e+000	 1.781729375341141e+000	 9.396405519441863e+000
 1.045302506959080e+000	 1.792475291011298e+000	 9.290976085070401e+000
 1.027005053976629e+000	 1.803021247532308e+000	 9.190138347838008e+000
 1.008626467878648e+000	 1.813366385551350e+000	 9.094333939633090e+000
 9.901699827117181e-001	 1.823509913682104e+000	 9.003991918640901e+000
 9.716388387158305e-001	 1.833451108447498e+000	 8.919527844061506e+000
 9.530362805834256e-001	 1.843189314169633e+000	 8.841342885760009e+000
 1.149140482116448e+000	 1.757690573532615e+000	 9.881405569089621e+000
 1.131081882340630e+000	 1.769365359490342e+000	 9.769018913184898e+000
 1.112924963177054e+000	 1.780841943088082e+000	 9.659918956073899e+000
 1.094672939579880e+000	 1.792119179987226e+000	 9.554609904307462e+000
 1.076329041694736e+000	 1.803195994320799e+000	 9.453586805094856e+000
 1.057896513065233e+000	 1.814071378854591e+000	 9.357334461008911e+000
 1.039378608841954e+000	 1.824744395092904e+000	 9.266326371936481e+000
 1.020778593995827e+000	 1.835214173329271e+000	 9.181023706783970e+000
 1.002099741537849e+000	 1.845479912642594e+000	 9.101874307335855e+000
 9.833453307470476e-001	 1.855540880839211e+000	 9.029311726546400e+000
 9.645186454085410e-001	 1.865396414341487e+000	 8.963754303418460e+000
 1.162820725950737e+000	 1.778615461313300e+000	 9.909533856071494e+000
 1.144547142843787e+000	 1.790429232818099e+000	 9.803551255791099e+000
 1.126174069880265e+000	 1.802042442411042e+000	 9.701416571961463e+000
 1.107704760287596e+000	 1.813453932130439e+000	 9.603657100517962e+000
 1.089142482665518e+000	 1.824662613301375e+000	 9.510790384653662e+000
 1.070490519171262e+000	 1.835667466698757e+000	 9.423323085798222e+000
 1.051752163707200e+000	 1.846467542654319e+000	 9.341749883176760e+000
 1.032930720112961e+000	 1.857061961107944e+000	 9.266552404553714e+000
 1.014029500363961e+000	 1.867449911603760e+000	 9.198198190650189e+000
 9.950518227782594e-001	 1.877630653231514e+000	 9.119609897170076e+000
 9.760010102336569e-001	 1.887603514513837e+000	 8.997434534394458e+000
 1.176500969784529e+000	 1.799540349094984e+000	 9.939529429806404e+000
 1.158012403346542e+000	 1.811493106146852e+000	 9.839567119972804e+000
 1.139423176583158e+000	 1.823242941734981e+000	 9.744007631809076e+000
 1.120736580995067e+000	 1.834788684274606e+000	 9.653402297712386e+000
 1.101955923636123e+000	 1.846129232282870e+000	 9.568292103169766e+000
 1.083084525277168e+000	 1.857263554543797e+000	 9.489206512487780e+000
 1.064125718572367e+000	 1.868190690216551e+000	 9.416662324456384e+000
 1.045082846230052e+000	 1.878909748887369e+000	 9.326978521482783e+000
 1.025959259190052e+000	 1.889419910565603e+000	 9.201738211410076e+000
 1.006758314809466e+000	 1.899720425624409e+000	 9.082249486266754e+000
 9.874833750587725e-001	 1.909810614686682e+000	 8.968674812596360e+000
 1.190181213617824e+000	 1.820465236877668e+000	 9.971725149634606e+000
 1.171477663848894e+000	 1.832556979476599e+000	 9.877387448834773e+000
 1.152672283285734e+000	 1.844443441059900e+000	 9.788001278515127e+000
 1.133768401702297e+000	 1.856123436419727e+000	 9.704142968507970e+000
 1.114769364606549e+000	 1.867595851265284e+000	 9.626377906654607e+000
 1.095678531382950e+000	 1.878859642389709e+000	 9.532885501124179e+000
 1.076499273437455e+000	 1.889913837779600e+000	 9.403034083767560e+000
 1.057234972347098e+000	 1.900757536667546e+000	 9.279110618892972e+000
 1.037889018016124e+000	 1.911389909528122e+000	 9.161293689297548e+000
 1.018464806840669e+000	 1.921810198017894e+000	 9.049754004802642e+000
 9.989657398838883e-001	 1.932017714860024e+000	 8.944654211319646e+000
 1.203861457450621e+000	 1.841390124661353e+000	 1.000646358678999e+001
 1.184942924350843e+000	 1.853620852807342e+000	 9.917342867329142e+000
 1.165921389987992e+000	 1.865643940385799e+000	 9.833716295962711e+000
 1.146800222409283e+000	 1.877458188565803e+000	 9.742665859938404e+000
 1.127582805576798e+000	 1.889062470248617e+000	 9.606739705668101e+000
 1.108272537488608e+000	 1.900455730236494e+000	 9.476879713694791e+000
 1.088872828302464e+000	 1.911636985343468e+000	 9.353282061251926e+000
 1.069387098464099e+000	 1.922605324448475e+000	 9.236134952647435e+000
 1.049818776842177e+000	 1.933359908491318e+000	 9.125618394317455e+000
 1.030171298871866e+000	 1.943899970411971e+000	 9.021903986860989e+000
 1.010448104709004e+000	 1.954224815033862e+000	 8.925154734310056e+000
 1.217541701282921e+000	 1.862315012446037e+000	 1.004409647878802e+001
 1.198408184852391e+000	 1.874684726139078e+000	 9.959773138331366e+000
 1.179170496689933e+000	 1.886844439712678e+000	 9.818077016364606e+000
 1.159832043116026e+000	 1.898792940712833e+000	 9.680871523637755e+000
 1.140396246546868e+000	 1.910529089232867e+000	 9.550041981310709e+000
 1.120866543594143e+000	 1.922051818084153e+000	 9.425795509171918e+000
 1.101246383167394e+000	 1.933360132908152e+000	 9.308330964223273e+000
 1.081539224581056e+000	 1.944453112230155e+000	 9.197838696463057e+000
 1.061748535668210e+000	 1.955329907455190e+000	 9.094500322211864e+000
 1.041877790903058e+000	 1.965989742806639e+000	 8.998488515283109e+000
 1.021930469534119e+000	 1.976431915208196e+000	 8.909966816245806e+000
 1.231221945114724e+000	 1.883239900231722e+000	 1.004203290030643e+001
 1.211873445353537e+000	 1.895748599471812e+000	 9.896181347713894e+000
 1.192419603391557e+000	 1.908044939040537e+000	 9.756771888297587e+000
 1.172863863822527e+000	 1.920127692860818e+000	 9.624031832266477e+000
 1.153209687516760e+000	 1.931995708218037e+000	 9.498180240153822e+000
 1.133460549699554e+000	 1.943647905932685e+000	 9.379427640032683e+000
 1.113619938032245e+000	 1.955083280473655e+000	 9.267975762395459e+000
 1.093691350697970e+000	 1.966300900012589e+000	 9.164017293101821e+000
 1.073678294494223e+000	 1.977299906419740e+000	 9.067735644745406e+000
 1.053584282934246e+000	 1.988079515201899e+000	 8.979304746737347e+000
 1.033412834359236e+000	 1.998639015383027e+000	 8.898888854352292e+000
 9.185891861080785e-001	 1.776568013657048e+000	 8.458037959060576e+000
 9.005933067305993e-001	 1.785758017161617e+000	 8.304717532450274e+000
 8.825348555005111e-001	 1.794751299989325e+000	 8.157607513562468e+000
 8.644169627606544e-001	 1.803547425071165e+000	 8.017003563387830e+000
 8.462427565638450e-001	 1.812146019766516e+000	 7.883185877668169e+000
 8.280153610683619e-001	 1.820546775513088e+000	 7.756418595358259e+000
 8.097378949529317e-001	 1.828749447430662e+000	 7.636949246290445e+000
 7.914134698526779e-001	 1.836753853879597e+000	 7.525008239008017e+000
 7.730451888174857e-001	 1.844559875975171e+000	 7.420808389606768e+000
 7.546361447941516e-001	 1.852167457058818e+000	 7.324544492290187e+000
 7.361894191336470e-001	 1.859576602127425e+000	 7.236392932216533e+000
 9.300715509331942e-001	 1.798775113827414e+000	 8.588669408341467e+000
 9.118507230638300e-001	 1.808079992376415e+000	 8.448969584440008e+000
 8.935665411936159e-001	 1.817185691239944e+000	 8.316034498236503e+000
 8.752221747946789e-001	 1.826091767885635e+000	 8.190169466128813e+000
 8.568207910204949e-001	 1.834797845014857e+000	 8.071663640396860e+000
 8.383655530813224e-001	 1.843303610208294e+000	 7.960789395630655e+000
 8.198596186393719e-001	 1.851608815524722e+000	 7.857801755963748e+000
 8.013061382252067e-001	 1.859713277054009e+000	 7.762937864116056e+000
 7.827082536768359e-001	 1.867616874425373e+000	 7.676416493114716e+000
 7.640690966028914e-001	 1.875319550272018e+000	 7.595225533291645e+000
 7.453917868712325e-001	 1.882821309653291e+000	 7.447900008698142e+000
 9.415539157583097e-001	 1.820982213998275e+000	 8.716378041562466e+000
 9.231081393970605e-001	 1.830401967591619e+000	 8.589799054057824e+000
 9.045982268867207e-001	 1.839620082490901e+000	 8.470546009505668e+000
 8.860273868287035e-001	 1.848636110700393e+000	 8.358934743121163e+000
 8.673988254771451e-001	 1.857449670263458e+000	 8.255264210281313e+000
 8.487157450942829e-001	 1.866060444903749e+000	 8.159815849778719e+000
 8.299813423258120e-001	 1.874468183619045e+000	 8.072852989531826e+000
 8.111988065977354e-001	 1.882672700228715e+000	 7.924128973239974e+000
 7.923713185361858e-001	 1.890673872875920e+000	 7.776471476398645e+000
 7.735020484116313e-001	 1.898471643485632e+000	 7.634691246379656e+000
 7.545941546088181e-001	 1.906066017179662e+000	 7.498864697354602e+000
 9.530362805834256e-001	 1.843189314169633e+000	 8.841342885760009e+000
 9.343655557302909e-001	 1.852723942807229e+000	 8.727380293204151e+000
 9.156299125798257e-001	 1.862054473742195e+000	 8.621311835025162e+000
 8.968325988627280e-001	 1.871180453515439e+000	 8.523464738496482e+000
 8.779768599337953e-001	 1.880101495512317e+000	 8.392671438857954e+000
 8.590659371072434e-001	 1.888817279599456e+000	 8.237625644587606e+000
 8.401030660122520e-001	 1.897327551713629e+000	 8.088509460071494e+000
 8.210914749702639e-001	 1.905632123403714e+000	 7.945413981015594e+000
 8.020343833955359e-001	 1.913730871326810e+000	 7.808423336076737e+000
 7.829350002203710e-001	 1.921623736699662e+000	 7.677614643083933e+000
 7.637965223464035e-001	 1.929310724706538e+000	 7.553057978452476e+000
 9.645186454085410e-001	 1.865396414341487e+000	 8.963754303418460e+000
 9.456229720635219e-001	 1.875045918023246e+000	 8.861566678038015e+000
 9.266615982729306e-001	 1.884488864993826e+000	 8.697814446061202e+000
 9.076378108967527e-001	 1.893724796330773e+000	 8.540017737806455e+000
 8.885548943904454e-001	 1.902753320761436e+000	 8.388283712556275e+000
 8.694161291202039e-001	 1.911574114295413e+000	 8.242712468333979e+000
 8.502247896986922e-001	 1.920186919808475e+000	 8.103396963343702e+000
 8.309841433427926e-001	 1.928591546579006e+000	 7.970422951355053e+000
 8.116974482548860e-001	 1.936787869778045e+000	 7.843868930955162e+000
 7.923679520291109e-001	 1.944775829914106e+000	 7.723806108554082e+000
 7.729988900839893e-001	 1.952555432233920e+000	 7.610298374996920e+000
 9.760010102336569e-001	 1.887603514513837e+000	 8.997434534394458e+000
 9.568803883967524e-001	 1.897367893239669e+000	 8.835712805634666e+000
 9.376932839660355e-001	 1.906923256245794e+000	 8.680180395663541e+000
 9.184430229307771e-001	 1.916269139146395e+000	 8.530947502829790e+000
 8.991329288470956e-001	 1.925405146010814e+000	 8.388117038961056e+000
 8.797663211331644e-001	 1.934330948991620e+000	 8.251784541628867e+000
 8.603465133851326e-001	 1.943046287903584e+000	 8.122038100891325e+000
 8.408768117153213e-001	 1.951550969754591e+000	 7.998958300457183e+000
 8.213605131142361e-001	 1.959844868229625e+000	 7.882618173178634e+000
 8.018009038378509e-001	 1.967927923128965e+000	 7.773083170743115e+000
 7.822012578215748e-001	 1.975800139761806e+000	 7.670411147399686e+000
 9.874833750587725e-001	 1.909810614686682e+000	 8.968674812596360e+000
 9.681378047299829e-001	 1.919689868456498e+000	 8.814580511492597e+000
 9.487249696591404e-001	 1.929357647498098e+000	 8.667027015902558e+000
 9.292482349648017e-001	 1.938813481962305e+000	 8.526120792930943e+000
 9.097109633037455e-001	 1.948056971260451e+000	 8.391960698247519e+000
 8.901165131461248e-001	 1.957087783688078e+000	 8.264637893009690e+000
 8.704682370715724e-001	 1.965905655998953e+000	 8.144235775768451e+000
 8.507694800878499e-001	 1.974510392930469e+000	 8.030829929287574e+000
 8.310235779735861e-001	 1.982901866681548e+000	 7.924488082167362e+000
 8.112338556465903e-001	 1.991080016344239e+000	 7.825270085127938e+000
 7.914036255591603e-001	 1.999044847290198e+000	 7.733227901769496e+000
 9.989657398838883e-001	 1.932017714860024e+000	 8.944654211319646e+000
 9.793952210632133e-001	 1.942011843673734e+000	 8.797948748667213e+000
 9.597566553522451e-001	 1.951792038750740e+000	 8.658139274784661e+000
 9.400534469988262e-001	 1.961357824778502e+000	 8.525328721744332e+000
 9.202889977603954e-001	 1.970708796510346e+000	 8.399612078062113e+000
 9.004667051590855e-001	 1.979844618384786e+000	 8.281076310126046e+000
 8.805899607580128e-001	 1.988765024094585e+000	 8.169800299128726e+000
 8.606621484603786e-001	 1.997469816106639e+000	 8.065854793419668e+000
 8.406866428329360e-001	 2.005958865133815e+000	 7.969302376153030e+000
 8.206668074553302e-001	 2.014232109559928e+000	 7.880197448070138e+000
 8.006059932967459e-001	 2.022289554819095e+000	 7.798586225216615e+000
 1.010448104709004e+000	 1.954224815033862e+000	 8.925154734310056e+000
 9.906526373964438e-001	 1.964333818891375e+000	 8.785605086072764e+000
 9.707883410453504e-001	 1.974226430003719e+000	 8.653310436102332e+000
 9.508586590328508e-001	 1.983902167594988e+000	 8.528370375622718e+000
 9.308670322170456e-001	 1.993360621760502e+000	 8.410876212870740e+000
 9.108168971720461e-001	 2.002601453081745e+000	 8.300910898880975e+000
 8.907116844444528e-001	 2.011624392190479e+000	 8.198548969310581e+000
 8.705548168329073e-001	 2.020429239283104e+000	 8.103856502204673e+000
 8.503497076922864e-001	 2.029015863586428e+000	 8.016891091564414e+000
 8.300997592640701e-001	 2.037384202776032e+000	 7.937701836538689e+000
 8.098083610343312e-001	 2.045534262348497e+000	 7.866329346023465e+000
 1.021930469534119e+000	 1.976431915208196e+000	 8.909966816245806e+000
 1.001910053729674e+000	 1.986655794109423e+000	 8.777345224444838e+000
 9.818200267384550e-001	 1.996660821257034e+000	 8.652341593378338e+000
 9.616638710668755e-001	 2.006446510411762e+000	 8.535052365731593e+000
 9.414450666736958e-001	 2.016012447010916e+000	 8.425565354362112e+000
 9.211670891850065e-001	 2.025358287778955e+000	 8.323959672293317e+000
 9.008334081308931e-001	 2.034483760286634e+000	 8.230305679298706e+000
 8.804474852054359e-001	 2.043388662459861e+000	 8.144664944964006e+000
 8.600127725516362e-001	 2.052072862039383e+000	 8.067090228072594e+000
 8.395327110728100e-001	 2.060536295992551e+000	 7.997625472120270e+000
 8.190107287719169e-001	 2.068778969878404e+000	 7.936305816724733e+000
 1.033412834359236e+000	 1.998639015383027e+000	 8.898888854352292e+000
 1.013167470062905e+000	 2.008977769327879e+000	 8.772972544573214e+000
 9.928517124315605e-001	 2.019095212510688e+000	 8.655041234881018e+000
 9.724690831009004e-001	 2.028990853228825e+000	 8.545188410003965e+000
 9.520231011303464e-001	 2.038664272261591e+000	 8.443498570491071e+000
 9.315172811979672e-001	 2.048115122476415e+000	 8.350047166768810e+000
 9.109551318173336e-001	 2.057343128383053e+000	 8.264900550354978e+000
 8.903401535779651e-001	 2.066348085636912e+000	 8.188115942101783e+000
 8.696758374109869e-001	 2.075129860492684e+000	 8.119741417299609e+000
 8.489656628815501e-001	 2.083688389209486e+000	 8.059815907429957e+000
 8.282130965095028e-001	 2.092023677408817e+000	 8.008369218315529e+000
 7.361894191336470e-001	 1.859576602127425e+000	 7.236392932216533e+000
 7.177080801244898e-001	 1.866787377221733e+000	 7.143006137167573e+000
 6.991951815543979e-001	 1.873799908775373e+000	 7.057950942326623e+000
 6.806537613005025e-001	 1.880614382925689e+000	 6.915497848428519e+000
 6.620868399488495e-001	 1.887231044787307e+000	 6.765110904544840e+000
 6.434974194451185e-001	 1.893650197690125e+000	 6.620528154603864e+000
 6.248884817771946e-001	 1.899872202382971e+000	 6.482053423586598e+000
 6.062629876904958e-001	 1.905897476204296e+000	 6.372680443880744e+000
 5.876238754369104e-001	 1.911726492221324e+000	 6.249653008779692e+000
 5.689740595581216e-001	 1.917359778339053e+000	 6.114285099660631e+000
 5.503164297040443e-001	 1.922797916380548e+000	 5.967807149258334e+000
 7.453917868712325e-001	 1.882821309653291e+000	 7.447900008698142e+000
 7.266794311240886e-001	 1.890122219435584e+000	 7.293838576664160e+000
 7.079351213216277e-001	 1.897222407633088e+000	 7.143948465277358e+000
 6.891619333144451e-001	 1.904122062709863e+000	 6.998340323364618e+000
 6.703629254459107e-001	 1.910821432844467e+000	 6.857118821913239e+000
 6.515411371860247e-001	 1.917320825158422e+000	 6.720382613988943e+000
 6.326995877975195e-001	 1.923620604909912e+000	 6.588224306114478e+000
 6.138412750351305e-001	 1.929721194654120e+000	 6.479638475646229e+000
 5.949691738788933e-001	 1.935623073371612e+000	 6.374110247080141e+000
 5.760862353022610e-001	 1.941326775566192e+000	 6.256005820570490e+000
 5.571953850757716e-001	 1.946832890333715e+000	 6.126624182069588e+000
 7.545941546088181e-001	 1.906066017179662e+000	 7.498864697354602e+000
 7.356507821236820e-001	 1.913457061650030e+000	 7.356893464174915e+000
 7.166750610888373e-001	 1.920644906491468e+000	 7.217855105701373e+000
 6.976701053283412e-001	 1.927629742494750e+000	 7.081847062824568e+000
 6.786390109428899e-001	 1.934411820902370e+000	 6.948962056387129e+000
 6.595848549268030e-001	 1.940991452627468e+000	 6.819288039481021e+000
 6.405106938176606e-001	 1.947369007437590e+000	 6.692908159883657e+000
 6.214195623795155e-001	 1.953544913104652e+000	 6.577331753217635e+000
 6.023144723205504e-001	 1.959519654522554e+000	 6.487182833261202e+000
 5.831984110459895e-001	 1.965293772793916e+000	 6.384332976988226e+000
 5.640743404469928e-001	 1.970867864287377e+000	 6.270152619731965e+000
 7.637965223464035e-001	 1.929310724706538e+000	 7.553057978452476e+000
 7.446221331232706e-001	 1.936791903865071e+000	 7.422250141966317e+000
 7.254150008560258e-001	 1.944067405350511e+000	 7.293179537117664e+000
 7.061782773421910e-001	 1.951137422280350e+000	 7.165930584769744e+000
 6.869150964397867e-001	 1.958002208961012e+000	 7.040584212176658e+000
 6.676285726674527e-001	 1.964662080097262e+000	 6.917217797909324e+000
 6.483217998376176e-001	 1.971117409966008e+000	 6.795905125634293e+000
 6.289978497236503e-001	 1.977368631555889e+000	 6.676716346613891e+000
 6.096597707618819e-001	 1.983416235674151e+000	 6.590202193712647e+000
 5.903105867893064e-001	 1.989260770022222e+000	 6.500557568243039e+000
 5.709532958177076e-001	 1.994902838241532e+000	 6.399642961202806e+000
 7.729988900839893e-001	 1.952555432233920e+000	 7.610298374996920e+000
 7.535934841228538e-001	 1.960126746080707e+000	 7.489760473877950e+000
 7.341549406231938e-001	 1.967489904210219e+000	 7.369805721698000e+000
 7.146864493559947e-001	 1.974645102066663e+000	 7.250505701581318e+000
 6.951911819366015e-001	 1.981592597020396e+000	 7.131929698900874e+000
 6.756722904079747e-001	 1.988332707567807e+000	 7.014144639076103e+000
 6.561329058573906e-001	 1.994865812495162e+000	 6.897215032972740e+000
 6.365761370675354e-001	 2.001192350007833e+000	 6.781202929808564e+000
 6.170050692028878e-001	 2.007312816826402e+000	 6.684495271495257e+000
 5.974227625322126e-001	 2.013227767251113e+000	 6.605964955547935e+000
 5.778322511879159e-001	 2.018937812196181e+000	 6.516338979578686e+000
 7.822012578215748e-001	 1.975800139761806e+000	 7.670411147399686e+000
 7.625648351224317e-001	 1.983461588296937e+000	 7.559281473157675e+000
 7.428948803903412e-001	 1.990912403070590e+000	 7.447621244942305e+000
 7.231946213697519e-001	 1.998152781853689e+000	 7.335489385094425e+000
 7.034672674333340e-001	 2.005182985080521e+000	 7.222943684210895e+000
 6.837160081483685e-001	 2.012003335039102e+000	 7.110040732052172e+000
 6.639440118769794e-001	 2.018614215025054e+000	 6.996835854835397e+000
 6.441544244111706e-001	 2.025016068460483e+000	 6.883383058851472e+000
 6.243503676435681e-001	 2.031209397979309e+000	 6.771384790066287e+000
 6.045349382747075e-001	 2.037194764480589e+000	 6.701835193653610e+000
 5.847112065576183e-001	 2.042972786151324e+000	 6.621478117734639e+000
 7.914036255591603e-001	 1.999044847290198e+000	 7.733227901769496e+000
 7.715361861220045e-001	 2.006796430513762e+000	 7.630675003077355e+000
 7.516348201574682e-001	 2.014334901931625e+000	 7.526517105020210e+000
 7.317027933834626e-001	 2.021660461641427e+000	 7.420800641048588e+000
 7.117433529299844e-001	 2.028773373141388e+000	 7.313572049718179e+000
 6.917597258886344e-001	 2.035673962511146e+000	 7.204877698940345e+000
 6.717551178963843e-001	 2.042362617555685e+000	 7.094763815434956e+000
 6.517327117545556e-001	 2.048839786913839e+000	 6.983276419357210e+000
 6.316956660839228e-001	 2.055105979132870e+000	 6.870461264052944e+000
 6.116471140167912e-001	 2.061161761710648e+000	 6.789443339363661e+000
 5.915901619268141e-001	 2.067007760106961e+000	 6.716291856360135e+000
 8.006059932967459e-001	 2.022289554819095e+000	 7.798586225216615e+000
 7.805075371215724e-001	 2.030131272731183e+000	 7.703807498195689e+000
 7.603747599245743e-001	 2.037757400793325e+000	 7.606387516640454e+000
 7.402109653971273e-001	 2.045168141429878e+000	 7.506360392196440e+000
 7.200194384265524e-001	 2.052363761202996e+000	 7.403761349962279e+000
 6.998034436287717e-001	 2.059344589983939e+000	 7.298626646310557e+000
 6.795662239156052e-001	 2.066111020087053e+000	 7.190993490761410e+000
 6.593109990976909e-001	 2.072663505367901e+000	 7.080899971912514e+000
 6.390409645239520e-001	 2.079002560287087e+000	 6.968384987412597e+000
 6.187592897584640e-001	 2.085128758941291e+000	 6.870059738772832e+000
 5.984691172955038e-001	 2.091042734063091e+000	 6.802006056613443e+000
 8.098083610343312e-001	 2.045534262348497e+000	 7.866329346023465e+000
 7.894788881211350e-001	 2.053466114949198e+000	 7.778549704626214e+000
 7.691146996916598e-001	 2.061179899655689e+000	 7.687129728293040e+000
 7.487191374107456e-001	 2.068675821219042e+000	 7.592091369382775e+000
 7.282955239230385e-001	 2.075954149265344e+000	 7.493458774176392e+000
 7.078471613687812e-001	 2.083015217457482e+000	 7.391258194491220e+000
 6.873773299346420e-001	 2.089859422619159e+000	 7.285517902231366e+000
 6.668892864405763e-001	 2.096487223822670e+000	 7.176268106907409e+000
 6.463862629636555e-001	 2.102899141441959e+000	 7.063540876146167e+000
 6.258714654997256e-001	 2.109095756172518e+000	 6.947370059196607e+000
 6.053480726636872e-001	 2.115077708019714e+000	 6.879841279413022e+000
 8.190107287719169e-001	 2.068778969878404e+000	 7.936305816724733e+000
 7.984502391206926e-001	 2.076800957167808e+000	 7.854776437814955e+000
 7.778546394587247e-001	 2.084602398518716e+000	 7.768643851812066e+000
 7.572273094243175e-001	 2.092183501008918e+000	 7.677918009966266e+000
 7.365716094194423e-001	 2.099544537328435e+000	 7.582612110630324e+000
 7.158908791086626e-001	 2.106685844931774e+000	 7.482742504886508e+000
 6.951884359534948e-001	 2.113607825152002e+000	 7.378328604023531e+000
 6.744675737832118e-001	 2.120310942278145e+000	 7.269392788928387e+000
 6.537315614030331e-001	 2.126795722597485e+000	 7.155960321443560e+000
 6.329836412405760e-001	 2.133062753404329e+000	 7.038059257728520e+000
 6.122270280313643e-001	 2.139112681976832e+000	 6.951013083204040e+000
 8.282130965095028e-001	 2.092023677408817e+000	 8.008369218315529e+000
 8.074215901202451e-001	 2.100135799387014e+000	 7.932366356466538e+000
 7.865945792257691e-001	 2.108024897382408e+000	 7.850832703301050e+000
 7.657354814378435e-001	 2.115691180799508e+000	 7.763766363013007e+000
 7.448476949157643e-001	 2.123134925392267e+000	 7.671169713350890e+000
 7.239345968484162e-001	 2.130356472406817e+000	 7.573049305471832e+000
 7.029995419721640e-001	 2.137356227685585e+000	 7.469415764591855e+000
 6.820458611255976e-001	 2.144134660734327e+000	 7.360283691525257e+000
 6.610768598420856e-001	 2.150692303753668e+000	 7.245671565195415e+000
 6.400958169810156e-001	 2.157029750636725e+000	 7.125601646186100e+000
 6.191059833985354e-001	 2.163147655934445e+000	 7.016732301873303e+000
 5.503164297040443e-001	 1.922797916380548e+000	 5.967807149258334e+000
 5.316538494870134e-001	 1.928041541140166e+000	 5.841406606513822e+000
 5.129891553722548e-001	 1.933091339410632e+000	 5.722706905673711e+000
 4.943251556054371e-001	 1.937948048985706e+000	 5.612568253120545e+000
 4.756646291775600e-001	 1.942612457640390e+000	 5.511748480691566e+000
 4.570103248275765e-001	 1.947085402089539e+000	 5.420902926603128e+000
 4.383649600831473e-001	 1.951367766926559e+000	 5.340584540812682e+000
 4.197312203398141e-001	 1.955460483543635e+000	 5.271244209525264e+000
 4.011117579788213e-001	 1.959364529034961e+000	 5.213231293085398e+000
 3.825091915237606e-001	 1.963080925084422e+000	 5.166794371059575e+000
 3.639261048361499e-001	 1.966610736839179e+000	 5.132082187912794e+000
 5.571953850757716e-001	 1.946832890333715e+000	 6.126624182069588e+000
 5.382995226068030e-001	 1.952142060403382e+000	 6.017624949051517e+000
 5.194015198162859e-001	 1.957254981152735e+000	 5.913911791441742e+000
 5.005042200529605e-001	 1.962172399597961e+000	 5.816418000608670e+000
 4.816104370452148e-001	 1.966895113361246e+000	 5.725972986254305e+000
 4.627229538912394e-001	 1.971423969616384e+000	 5.643302062523194e+000
 4.438445220877912e-001	 1.975759864014198e+000	 5.569026465939997e+000
 4.249778605978571e-001	 1.979903739589275e+000	 5.503663599852855e+000
 4.061256549574479e-001	 1.983856585649486e+000	 5.447627499574954e+000
 3.872905564217011e-001	 1.987619436649766e+000	 5.401229511958859e+000
 3.684751811504043e-001	 1.991193371051617e+000	 5.364679182721279e+000
 5.640743404469928e-001	 1.970867864287377e+000	 6.270152619731965e+000
 5.449451957259967e-001	 1.976242579666991e+000	 6.176505254913438e+000
 5.258138842596520e-001	 1.981418622895133e+000	 6.085906919041292e+000
 5.066832844997705e-001	 1.986396750210409e+000	 5.999366006033853e+000
 4.875562449121281e-001	 1.991177769082196e+000	 5.917785316046760e+000
 4.684355829541524e-001	 1.995762537143223e+000	 5.841961746999556e+000
 4.493240840916975e-001	 2.000151961101730e+000	 5.772586225650245e+000
 4.302245008551946e-001	 2.004346995634707e+000	 5.710243872858431e+000
 4.111395519354207e-001	 2.008348642263703e+000	 5.655414397169594e+000
 3.920719213190586e-001	 2.012157948214703e+000	 5.608472710379195e+000
 3.730242574641658e-001	 2.015776005263546e+000	 5.569689758295649e+000
 5.709532958177076e-001	 1.994902838241532e+000	 6.399642961202806e+000
 5.515908688445944e-001	 2.000343098930994e+000	 6.319267297225063e+000
 5.322262487023534e-001	 2.005582264637824e+000	 6.239879248368862e+000
 5.128623489458671e-001	 2.010621100823051e+000	 6.162564390718353e+000
 4.935020527782997e-001	 2.015460424803240e+000	 6.088300789047476e+000
 4.741482120163162e-001	 2.020101104670055e+000	 6.017958593936902e+000
 4.548036460948663e-001	 2.024544058189155e+000	 5.952299886489529e+000
 4.354711411118264e-001	 2.028790251679932e+000	 5.891978765240942e+000
 4.161534489127392e-001	 2.032840698877613e+000	 5.837541669329920e+000
 3.968532862158330e-001	 2.036696459779233e+000	 5.789427931499738e+000
 3.775733337774348e-001	 2.040358639474969e+000	 5.747970554045174e+000
 5.778322511879159e-001	 2.018937812196181e+000	 6.516338979578686e+000
 5.582365419625962e-001	 2.024443618195390e+000	 6.447122636054920e+000
 5.386386131443897e-001	 2.029745906380808e+000	 6.377006206808934e+000
 5.190414133912504e-001	 2.034845451435887e+000	 6.307154591032799e+000
 4.994478606437299e-001	 2.039743080524377e+000	 6.238623053043488e+000
 4.798608410777303e-001	 2.044439672196880e+000	 6.172356725104138e+000
 4.602832080972976e-001	 2.048936155276472e+000	 6.109190366230520e+000
 4.407177813677526e-001	 2.053233507724950e+000	 6.049848371523194e+000
 4.211673458894036e-001	 2.057332755491216e+000	 5.994945026017440e+000
 4.016346511120245e-001	 2.061234971343355e+000	 5.944984996525508e+000
 3.821224100902110e-001	 2.064941273685884e+000	 5.900364054467988e+000
 5.847112065576183e-001	 2.042972786151324e+000	 6.621478117734639e+000
 5.648822150800023e-001	 2.048544137460180e+000	 6.561275101535128e+000
 5.450509775857614e-001	 2.053909548124086e+000	 6.498456249969728e+000
 5.252204778359204e-001	 2.059069802048916e+000	 6.434267986922619e+000
 5.053936685084186e-001	 2.064025736245608e+000	 6.369844771170366e+000
 4.855734701383949e-001	 2.068778239723698e+000	 6.306208504965822e+000
 4.657627700989915e-001	 2.073328252363683e+000	 6.244268207329997e+000
 4.459644216229731e-001	 2.077676763769761e+000	 6.184819946532216e+000
 4.261812428654140e-001	 2.081824812104512e+000	 6.128547025665041e+000
 4.064160160076329e-001	 2.085773482907070e+000	 6.076020414685583e+000
 3.866714864024947e-001	 2.089523907896292e+000	 6.027699421793232e+000
 5.915901619268141e-001	 2.067007760106961e+000	 6.716291856360135e+000
 5.715278881968123e-001	 2.072644656725364e+000	 6.662921243276553e+000
 5.514633420264680e-001	 2.078073189867658e+000	 6.605389383298115e+000
 5.313995422798770e-001	 2.083294152662138e+000	 6.545026486583928e+000
 5.113394763723655e-001	 2.088308391966931e+000	 6.483048260555338e+000
 4.912860991983100e-001	 2.093116807250509e+000	 6.420555224246209e+000
 4.712423320999477e-001	 2.097720349450787e+000	 6.358532296423902e+000
 4.512110618774879e-001	 2.102120019814364e+000	 6.297848651893769e+000
 4.311951398407702e-001	 2.106316868717501e+000	 6.239257839800731e+000
 4.111973809026582e-001	 2.110311994470378e+000	 6.183398157185614e+000
 3.912205627142856e-001	 2.114106542106192e+000	 6.130793270531183e+000
 5.984691172955038e-001	 2.091042734063091e+000	 6.802006056613443e+000
 5.781735613130264e-001	 2.096745175990942e+000	 6.753250748789377e+000
 5.578757064665099e-001	 2.102236831611523e+000	 6.698957647721108e+000
 5.375786067231200e-001	 2.107518503275554e+000	 6.640543070816773e+000
 5.172852842355711e-001	 2.112591047688348e+000	 6.579306086915175e+000
 4.969987282574755e-001	 2.117455374777314e+000	 6.516427736351342e+000
 4.767218941001665e-001	 2.122112446537784e+000	 6.452970534201951e+000
 4.564577021312972e-001	 2.126563275858761e+000	 6.389878251043558e+000
 4.362090368154725e-001	 2.130808925330182e+000	 6.327975964938789e+000
 4.159787457971005e-001	 2.134850506033278e+000	 6.267970377783662e+000
 3.957696390255839e-001	 2.138689176315586e+000	 6.210450388607002e+000
 6.053480726636872e-001	 2.115077708019714e+000	 6.879841279413022e+000
 5.848192344286449e-001	 2.120845695256914e+000	 6.833446833375421e+000
 5.642880709058868e-001	 2.126400473355683e+000	 6.780305572175355e+000
 5.437576711656498e-001	 2.131742853889163e+000	 6.721922300263962e+000
 5.232310920980349e-001	 2.136873703409858e+000	 6.659681618613502e+000
 5.027113573158917e-001	 2.141793942304112e+000	 6.594847050398314e+000
 4.822014560996478e-001	 2.146504543624674e+000	 6.528560459609200e+000
 4.617043423844007e-001	 2.151006531902950e+000	 6.461841756851779e+000
 4.412229337895206e-001	 2.155300981942556e+000	 6.395588885932729e+000
 4.207601106909599e-001	 2.159389017595771e+000	 6.330578084235979e+000
 4.003187153363895e-001	 2.163271810524472e+000	 6.267464409325315e+000
 6.122270280313643e-001	 2.139112681976832e+000	 6.951013083204040e+000
 5.914649075436671e-001	 2.144946214523278e+000	 6.904686603734939e+000
 5.707004353445987e-001	 2.150564115100135e+000	 6.850570595628990e+000
 5.499367356074661e-001	 2.155967204502966e+000	 6.790260788452987e+000
 5.291768999597574e-001	 2.161156359131462e+000	 6.725229543366257e+000
 5.084239863735580e-001	 2.166132509830903e+000	 6.656824884264966e+000
 4.876810180983916e-001	 2.170896640711457e+000	 6.586269831966376e+000
 4.669509826367987e-001	 2.175449787946933e+000	 6.514662035587413e+000
 4.462368307629146e-001	 2.179793038554623e+000	 6.442973694607995e+000
 4.255414755842360e-001	 2.183927529157856e+000	 6.372051764477206e+000
 4.048677916467025e-001	 2.187854444732851e+000	 6.302618438034600e+000
 6.191059833985354e-001	 2.163147655934445e+000	 7.016732301873303e+000
 5.981105806580939e-001	 2.169046733790038e+000	 6.968141397333833e+000
 5.771127997826462e-001	 2.174727756844882e+000	 6.910883460968852e+000
 5.561158000485695e-001	 2.180191555116964e+000	 6.846647643302915e+000
 5.351227078207386e-001	 2.185439014853160e+000	 6.776996350499518e+000
 5.141366154304752e-001	 2.190471077357688e+000	 6.703364180770493e+000
 4.931605800963980e-001	 2.195288737798134e+000	 6.627057174282644e+000
 4.721976228884912e-001	 2.199893043990708e+000	 6.549252370618251e+000
 4.512507277356547e-001	 2.204285095166384e+000	 6.470997667152420e+000
 4.303228404769293e-001	 2.208466040719535e+000	 6.393211971054456e+000
 4.094168679565230e-001	 2.212437078940723e+000	 6.316685637013567e+000
 3.639261048361499e-001	 1.966610736839179e+000	 5.132082187912794e+000
 3.453650463502414e-001	 1.969955071770350e+000	 5.096316182464731e+000
 3.268285283464441e-001	 1.973115078522868e+000	 5.067223575252445e+000
 3.083190262635861e-001	 1.976091945755501e+000	 5.044711721355491e+000
 2.898389780504916e-001	 1.978886900971938e+000	 5.028597033432656e+000
 2.713907835560691e-001	 1.981501209344972e+000	 5.018606706305801e+000
 2.529768039579073e-001	 1.983936172534892e+000	 5.014380594750737e+000
 2.345993612291326e-001	 1.986193127503396e+000	 5.015473236204921e+000
 2.162607376432356e-001	 1.988273445324313e+000	 5.021356009954086e+000
 1.979631753165401e-001	 1.990178529992387e+000	 5.031419424248827e+000
 1.797088757879294e-001	 1.991909817231349e+000	 5.044975522716243e+000
 3.684751811504043e-001	 1.991193371051617e+000	 5.364679182721279e+000
 3.496821094332686e-001	 1.994579510169543e+000	 5.325663926430885e+000
 3.309138849542394e-001	 1.997779017006543e+000	 5.292346194692290e+000
 3.121730140951302e-001	 2.000793095079617e+000	 5.264682562191831e+000
 2.934619652791259e-001	 2.003622987236254e+000	 5.242535975743884e+000
 2.747831683532466e-001	 2.006269974463903e+000	 5.225677470880050e+000
 2.561390140098016e-001	 2.008735374693610e+000	 5.213788048220202e+000
 2.375318532465809e-001	 2.011020541599093e+000	 5.206460701112015e+000
 2.189639968654948e-001	 2.013126863392606e+000	 5.203202585874664e+000
 2.004377150093212e-001	 2.015055761618825e+000	 5.203437325856604e+000
 1.819552367361798e-001	 2.016808689948031e+000	 5.206507440427201e+000
 3.730242574641658e-001	 2.015776005263546e+000	 5.569689758295649e+000
 3.539991725158979e-001	 2.019203948568140e+000	 5.527319604496226e+000
 3.349992415617213e-001	 2.022442955489553e+000	 5.489840394435597e+000
 3.160270019264351e-001	 2.025494244403021e+000	 5.457258079350608e+000
 2.970849525075851e-001	 2.028359073499827e+000	 5.429482117278443e+000
 2.781755531503031e-001	 2.031038739582085e+000	 5.406327184473416e+000
 2.593012240616184e-001	 2.033534576851590e+000	 5.387515053403216e+000
 2.404643452639860e-001	 2.035847955694086e+000	 5.372676628580696e+000
 2.216672560877349e-001	 2.037980281460246e+000	 5.361354131323496e+000
 2.029122547020976e-001	 2.039932993244682e+000	 5.353003424402973e+000
 1.842015976844301e-001	 2.041707562664222e+000	 5.346996467443766e+000
 3.775733337774348e-001	 2.040358639474969e+000	 5.747970554045174e+000
 3.583162355981294e-001	 2.043828386966140e+000	 5.702087355272021e+000
 3.390845981688897e-001	 2.047106893971896e+000	 5.660457021239943e+000
 3.198809897575006e-001	 2.050195393725709e+000	 5.623135086513639e+000
 3.007079397358689e-001	 2.053095159762659e+000	 5.590077545980980e+000
 2.815679379472381e-001	 2.055807504699517e+000	 5.561142563899132e+000
 2.624634341133578e-001	 2.058333779008834e+000	 5.536092356544318e+000
 2.433968372813476e-001	 2.060675369788373e+000	 5.514595239479426e+000
 2.243705153099558e-001	 2.062833699527232e+000	 5.496227830278657e+000
 2.053867943948690e-001	 2.064810224869957e+000	 5.480477397407531e+000
 1.864479586326805e-001	 2.066606435379921e+000	 5.466744345850819e+000
 3.821224100902110e-001	 2.064941273685884e+000	 5.900364054467988e+000
 3.626332986799630e-001	 2.068452825363543e+000	 5.850757482260041e+000
 3.431699547757446e-001	 2.071770832453574e+000	 5.804933529736022e+000
 3.237349775883270e-001	 2.074896543047685e+000	 5.762997570116406e+000
 3.043309269639776e-001	 2.077831246024749e+000	 5.724952207994579e+000
 2.849603227440518e-001	 2.080576269816199e+000	 5.690698988793995e+000
 2.656256441650199e-001	 2.083132981165341e+000	 5.660040289085048e+000
 2.463293292986659e-001	 2.085502783881956e+000	 5.632681378519219e+000
 2.270737745321574e-001	 2.087687117593565e+000	 5.608232643956846e+000
 2.078613340876359e-001	 2.089687456494650e+000	 5.586211966212127e+000
 1.886943195809308e-001	 2.091505308095129e+000	 5.566047239725100e+000
 3.866714864024947e-001	 2.089523907896292e+000	 6.027699421793232e+000
 3.669503617613986e-001	 2.093077263760348e+000	 5.974107267682454e+000
 3.472553113822862e-001	 2.096434770934586e+000	 5.923994770199333e+000
 3.275889654189143e-001	 2.099597692368946e+000	 5.877517443891880e+000
 3.079539141919111e-001	 2.102567332286097e+000	 5.834724621884188e+000
 2.883527075407443e-001	 2.105345034932133e+000	 5.795561168511233e+000
 2.687878542166046e-001	 2.107932183321109e+000	 5.759869380299953e+000
 2.492618213159407e-001	 2.110330197974833e+000	 5.727391065792234e+000
 2.297770337543397e-001	 2.112540535659244e+000	 5.697769794504845e+000
 2.103358737803978e-001	 2.114564688118759e+000	 5.670553305167687e+000
 1.909406805291811e-001	 2.116404180809844e+000	 5.645196063253552e+000
 3.912205627142856e-001	 2.114106542106192e+000	 6.130793270531183e+000
 3.712674248424364e-001	 2.117701702156558e+000	 6.072901729532976e+000
 3.513406679885142e-001	 2.121098709414933e+000	 6.018353721361862e+000
 3.314429532492620e-001	 2.124298841689493e+000	 5.967355250771878e+000
 3.115769014196693e-001	 2.127303418546704e+000	 5.920002543031463e+000
 2.917450923373154e-001	 2.130113800047317e+000	 5.876283762485637e+000
 2.719500642681118e-001	 2.132731385476141e+000	 5.836080927189853e+000
 2.521943133331722e-001	 2.135157612067004e+000	 5.799172009831235e+000
 2.324802929765029e-001	 2.137393953724271e+000	 5.765233214945843e+000
 2.128104134731550e-001	 2.139441919742288e+000	 5.733841422273424e+000
 1.931870414774315e-001	 2.141303053524068e+000	 5.704476785959022e+000
 3.957696390255839e-001	 2.138689176315586e+000	 6.210450388607002e+000
 3.755844879230763e-001	 2.142326140552169e+000	 6.147894326417559e+000
 3.554260245944290e-001	 2.145762647894614e+000	 6.088712172684546e+000
 3.352969410793707e-001	 2.148999991009326e+000	 6.033160816381418e+000
 3.151998886472523e-001	 2.152039504806568e+000	 5.981383582207467e+000
 2.951374771337652e-001	 2.154882565161751e+000	 5.933411957815210e+000
 2.751122743195417e-001	 2.157530587630436e+000	 5.889167525072176e+000
 2.551268053503603e-001	 2.159985026158472e+000	 5.848464085285217e+000
 2.351835521986468e-001	 2.162247371788644e+000	 5.811009968093999e+000
 2.152849531659073e-001	 2.164319151365234e+000	 5.776410513564922e+000
 1.954334024256818e-001	 2.166201926237801e+000	 5.744170716876752e+000
 4.003187153363895e-001	 2.163271810524472e+000	 6.267464409325315e+000
 3.799015510033184e-001	 2.166950578947185e+000	 6.199827614337779e+000
 3.595113812000301e-001	 2.170426586373628e+000	 6.135761360111426e+000
 3.391509289092402e-001	 2.173701140328445e+000	 6.075573857976533e+000
 3.188228758746600e-001	 2.176775591065690e+000	 6.019455781971878e+000
 2.985298619300936e-001	 2.179651330275434e+000	 5.967482007461836e+000
 2.782744843708941e-001	 2.182329789783993e+000	 5.919613561994653e+000
 2.580592973675050e-001	 2.184812440249233e+000	 5.875699778026588e+000
 2.378868114207716e-001	 2.187100789852363e+000	 5.835480636907923e+000
 2.177594928586549e-001	 2.189196382987598e+000	 5.798589293338877e+000
 1.976797633739321e-001	 2.191100798951041e+000	 5.764554769354684e+000
 4.048677916467025e-001	 2.187854444732851e+000	 6.302618438034600e+000
 3.842186140831626e-001	 2.191575017341604e+000	 6.229433859197011e+000
 3.635967378053180e-001	 2.195090524851978e+000	 6.160182558963780e+000
 3.430049167388702e-001	 2.198402289646850e+000	 6.095224552330222e+000
 3.224458631018924e-001	 2.201511677324071e+000	 6.034798154212442e+000
 3.019222467263009e-001	 2.204420095388370e+000	 5.979021732169606e+000
 2.814366944221692e-001	 2.207128991936814e+000	 5.927895679818453e+000
 2.609917893846063e-001	 2.209639854339290e+000	 5.881304600250933e+000
 2.405900706428770e-001	 2.211954207915429e+000	 5.839019688527172e+000
 2.202340325513977e-001	 2.214073614609379e+000	 5.800701302116403e+000
 1.999261243221825e-001	 2.215999671663790e+000	 5.765901708002056e+000
 4.094168679565230e-001	 2.212437078940723e+000	 6.316685637013567e+000
 3.885356771626090e-001	 2.216199455735425e+000	 6.237435608471782e+000
 3.676820944102924e-001	 2.219754463329662e+000	 6.162647637307988e+000
 3.468589045682614e-001	 2.223103438964542e+000	 6.092734065759186e+000
 3.260688503289498e-001	 2.226247763581711e+000	 6.027981181849157e+000
 3.053146315223869e-001	 2.229188860500556e+000	 5.968550988920866e+000
 2.845989044733670e-001	 2.231928194088898e+000	 5.914483204561245e+000
 2.639242814016642e-001	 2.234467268428643e+000	 5.865697477903199e+000
 2.432933298649634e-001	 2.236807625977843e+000	 5.821995814039704e+000
 2.227085722441358e-001	 2.238950846230580e+000	 5.783065194075106e+000
 2.021724852704328e-001	 2.240898544376048e+000	 5.748480379175066e+000
 1.797088757879294e-001	 1.991909817231349e+000	 5.044975522716243e+000
 1.614999996355343e-001	 1.993468773302665e+000	 5.055216958984801e+000
 1.433386661295952e-001	 1.994856893815574e+000	 5.078667071661189e+000
 1.252269529212343e-001	 1.996075702539928e+000	 5.114280780923617e+000
 1.071668957668296e-001	 1.997126750223276e+000	 5.160938395642409e+000
 8.916048828710503e-002	 1.998011613412721e+000	 5.217448773251222e+000
 7.120968176046663e-002	 1.998731893282784e+000	 5.282552547198218e+000
 5.331638494996551e-002	 1.999289214470238e+000	 5.354925413094717e+000
 3.548246396324807e-002	 1.999685223916897e+000	 5.433181464812794e+000
 1.770974214482997e-002	 1.999921589721275e+000	 5.515876571940923e+000
 0.000000000000000e+000	 2.000000000000000e+000	 5.601511790181228e+000
 1.819552367361798e-001	 2.016808689948031e+000	 5.206507440427201e+000
 1.635187496314781e-001	 2.018387132969990e+000	 5.204621578850005e+000
 1.451303994563842e-001	 2.019792604989089e+000	 5.214494489228243e+000
 1.267922898326586e-001	 2.021026648822303e+000	 5.235117954829177e+000
 1.085064819636333e-001	 2.022090834601524e+000	 5.265407002650441e+000
 9.027499439029070e-002	 2.022986758580697e+000	 5.304203089649804e+000
 7.209980278201619e-002	 2.023716041949021e+000	 5.350277360751630e+000
 5.398283976139826e-002	 2.024280329651229e+000	 5.402333969499786e+000
 3.592599476242820e-002	 2.024681289215908e+000	 5.459013452362862e+000
 1.793111392142740e-002	 2.024920609592803e+000	 5.518896147853339e+000
 0.000000000000000e+000	 2.025000000000000e+000	 5.580505651799238e+000
 1.842015976844301e-001	 2.041707562664222e+000	 5.346996467443766e+000
 1.655374996274219e-001	 2.043305492636919e+000	 5.334812366502217e+000
 1.469221327831731e-001	 2.044728316162292e+000	 5.333120178759305e+000
 1.283576267440828e-001	 2.045977595104440e+000	 5.340946753017493e+000
 1.098460681604370e-001	 2.047054918979600e+000	 5.357239887937315e+000
 9.138950049347637e-002	 2.047961903748552e+000	 5.380871549521201e+000
 7.298992380356573e-002	 2.048700190615181e+000	 5.410641164672009e+000
 5.464929457283099e-002	 2.049271444832177e+000	 5.445278981440250e+000
 3.636952556160832e-002	 2.049677354514901e+000	 5.483449486705964e+000
 1.815248569802481e-002	 2.049919629464327e+000	 5.523754872199948e+000
 0.000000000000000e+000	 2.050000000000000e+000	 5.564738539943068e+000
 1.864479586326805e-001	 2.066606435379921e+000	 5.466744345850819e+000
 1.675562496233656e-001	 2.068223852303450e+000	 5.446023498398985e+000
 1.487138661099620e-001	 2.069664027335182e+000	 5.434709680122107e+000
 1.299229636555070e-001	 2.070928541386338e+000	 5.431863055424419e+000
 1.111856543572407e-001	 2.072019003357500e+000	 5.436462294646983e+000
 9.250400659666205e-002	 2.072937048916287e+000	 5.447407827690977e+000
 7.388004482511527e-002	 2.073684339281264e+000	 5.463525178121640e+000
 5.531574938426372e-002	 2.074262560013082e+000	 5.483568368095566e+000
 3.681305636078845e-002	 2.074673419813873e+000	 5.506223384588423e+000
 1.837385747462224e-002	 2.074918649335846e+000	 5.530111697555961e+000
 0.000000000000000e+000	 2.075000000000000e+000	 5.553793820839232e+000
 1.886943195809308e-001	 2.091505308095129e+000	 5.566047239725100e+000
 1.695749996193094e-001	 2.093142211969584e+000	 5.538485501126885e+000
 1.505055994367510e-001	 2.094599738507759e+000	 5.519426953962946e+000
 1.314883005669313e-001	 2.095879487667999e+000	 5.507963373689425e+000
 1.125252405540444e-001	 2.096983087735225e+000	 5.503102446546354e+000
 9.361851269984771e-002	 2.097912194083901e+000	 5.503771064202761e+000
 7.477016584666481e-002	 2.098668487947270e+000	 5.508818703394618e+000
 5.598220419569647e-002	 2.099253675193944e+000	 5.517020880619488e+000
 3.725658715996857e-002	 2.099669485112828e+000	 5.527082672078985e+000
 1.859522925121965e-002	 2.099917669207359e+000	 5.537642289221832e+000
 0.000000000000000e+000	 2.100000000000000e+000	 5.547274700417792e+000
 1.909406805291811e-001	 2.116404180809844e+000	 5.645196063253552e+000
 1.715937496152531e-001	 2.118060571635321e+000	 5.612425466099398e+000
 1.522973327635400e-001	 2.119535449680024e+000	 5.587434474602168e+000
 1.330536374783555e-001	 2.120830433949419e+000	 5.569344813996246e+000
 1.138648267508481e-001	 2.121947172112775e+000	 5.557191372694827e+000
 9.473301880303341e-002	 2.122887339251393e+000	 5.549925542834385e+000
 7.566028686821437e-002	 2.123652636613199e+000	 5.546418650438425e+000
 5.664865900712922e-002	 2.124244790374762e+000	 5.545465464964853e+000
 3.770011795914870e-002	 2.124665550411762e+000	 5.545787778138123e+000
 1.881660102781707e-002	 2.124916689078869e+000	 5.546038042121764e+000
 0.000000000000000e+000	 2.125000000000000e+000	 5.544803057270832e+000
 1.931870414774315e-001	 2.141303053524068e+000	 5.704476785959022e+000
 1.736124996111969e-001	 2.142978931300661e+000	 5.668067249276823e+000
 1.540890660903289e-001	 2.144471160851976e+000	 5.638893316448569e+000
 1.346189743897798e-001	 2.145781380230602e+000	 5.616105042506751e+000
 1.152044129476518e-001	 2.146911256490151e+000	 5.598762744345156e+000
 9.584752490621905e-002	 2.147862484418765e+000	 5.585840392044047e+000
 7.655040788976392e-002	 2.148636785279050e+000	 5.576229094548678e+000
 5.731511381856196e-002	 2.149235905555537e+000	 5.568740669162961e+000
 3.814364875832882e-002	 2.149661615710678e+000	 5.562111284450053e+000
 1.903797280441450e-002	 2.149915708950374e+000	 5.555005166290640e+000
 0.000000000000000e+000	 2.150000000000000e+000	 5.546018357032687e+000
 1.954334024256818e-001	 2.166201926237801e+000	 5.744170716876752e+000
 1.756312496071406e-001	 2.167897290965605e+000	 5.705631657111288e+000
 1.558807994171179e-001	 2.169406872023616e+000	 5.673963234454051e+000
 1.361843113012040e-001	 2.170732326511546e+000	 5.648342253177671e+000
 1.165439991444555e-001	 2.171875340867353e+000	 5.627852723094168e+000
 9.696203100940475e-002	 2.172837629586016e+000	 5.611489306540152e+000
 7.744052891131344e-002	 2.173620933944824e+000	 5.598160864567122e+000
 5.798156862999471e-002	 2.174227020736269e+000	 5.586694091479439e+000
 3.858717955750896e-002	 2.174657681009574e+000	 5.575837226990127e+000
 1.925934458101192e-002	 2.174914728821873e+000	 5.564263835430682e+000
 0.000000000000000e+000	 2.175000000000000e+000	 5.550576641630311e+000
 1.976797633739321e-001	 2.191100798951041e+000	 5.764554769354684e+000
 1.776499996030844e-001	 2.192815650630152e+000	 5.725336619814465e+000
 1.576725327439068e-001	 2.194342583194942e+000	 5.692802739082505e+000
 1.377496482126283e-001	 2.195683272792251e+000	 5.666155137772868e+000
 1.178835853412592e-001	 2.196839425244380e+000	 5.644499819385170e+000
 9.807653711259042e-002	 2.197812774753146e+000	 5.626850287834933e+000
 7.833064993286298e-002	 2.198605082610522e+000	 5.612131159158117e+000
 5.864802344142745e-002	 2.199218135916958e+000	 5.599181866197306e+000
 3.903071035668908e-002	 2.199653746308452e+000	 5.586760445213105e+000
 1.948071635760934e-002	 2.199913748693368e+000	 5.573547393521630e+000
 0.000000000000000e+000	 2.199999999999999e+000	 5.558149587448493e+000
 1.999261243221825e-001	 2.215999671663790e+000	 5.765901708002056e+000
 1.796687495990281e-001	 2.217734010294301e+000	 5.727397352944301e+000
 1.594642660706957e-001	 2.219278294365957e+000	 5.695569166225256e+000
 1.393149851240525e-001	 2.220634219072718e+000	 5.669642857896339e+000
 1.192231715380629e-001	 2.221803509621232e+000	 5.648744760550672e+000
 9.919104321577608e-002	 2.222787919920156e+000	 5.631905402290088e+000
 7.922077095441255e-002	 2.223589231276142e+000	 5.618063188952514e+000
 5.931447825286017e-002	 2.224209251097604e+000	 5.606068184064420e+000
 3.947424115586921e-002	 2.224649811607310e+000	 5.594685975115748e+000
 1.970208813420676e-002	 2.224912768564858e+000	 5.582601614917250e+000
 0.000000000000000e+000	 2.224999999999999e+000	 5.568423626989603e+000
 2.021724852704328e-001	 2.240898544376048e+000	 5.748480379175066e+000
 1.816874995949720e-001	 2.242652369958055e+000	 5.712026508218765e+000
 1.612559993974847e-001	 2.244214005536660e+000	 5.682418742454936e+000
 1.408803220354768e-001	 2.245585165352947e+000	 5.658905018890169e+000
 1.205627577348666e-001	 2.246767593997911e+000	 5.640630367651934e+000
 1.003055493189618e-001	 2.247763065087045e+000	 5.626640555290935e+000
 8.011089197596211e-002	 2.248573379941687e+000	 5.615885842550358e+000
 5.998093306429295e-002	 2.249200366278207e+000	 5.607224844712822e+000
 3.991777195504935e-002	 2.249645876906150e+000	 5.599428482762463e+000
 1.992345991080419e-002	 2.249911788436346e+000	 5.591184013769139e+000
 0.000000000000000e+000	 2.250000000000000e+000	 5.581099129089256e+000
 2.250000000000000e+000	 0.000000000000000e+000	 1.183880111946521e+001
 2.249911788436345e+000	 1.992345991080426e-002	 1.185633810414267e+001
 2.249645876906150e+000	 3.991777195504948e-002	 1.187053993897912e+001
 2.249200366278207e+000	 5.998093306429280e-002	 1.188118114174044e+001
 2.248573379941687e+000	 8.011089197596205e-002	 1.188804889866970e+001
 2.247763065087045e+000	 1.003055493189618e-001	 1.189094360717151e+001
 2.246767593997911e+000	 1.205627577348667e-001	 1.188967940474031e+001
 2.245585165352948e+000	 1.408803220354769e-001	 1.188408468254963e+001
 2.244214005536660e+000	 1.612559993974846e-001	 1.187400258210691e+001
 2.242652369958055e+000	 1.816874995949719e-001	 1.185929147336990e+001
 2.240898544376048e+000	 2.021724852704328e-001	 1.183982541271728e+001
 2.275000000000000e+000	 0.000000000000000e+000	 1.178054811603966e+001
 2.274910808307830e+000	 2.014483168749044e-002	 1.179789192910955e+001
 2.274641942204990e+000	 4.036130275438817e-002	 1.181190013889849e+001
 2.274191481458810e+000	 6.064738787593468e-002	 1.182235520759846e+001
 2.273557528607231e+000	 8.100101299775192e-002	 1.182905281322526e+001
 2.272738210253934e+000	 1.014200554223994e-001	 1.183180239756832e+001
 2.271731678374588e+000	 1.219023439319140e-001	 1.183042769944735e+001
 2.270536111633176e+000	 1.424456589471165e-001	 1.182476727164599e+001
 2.269149716707362e+000	 1.630477327244404e-001	 1.181467497988078e+001
 2.267570729621808e+000	 1.837062495910136e-001	 1.180002048215608e+001
 2.265797417088305e+000	 2.044188462186914e-001	 1.178068968685310e+001
 2.300000000000000e+000	 0.000000000000000e+000	 1.172328911189500e+001
 2.299909828179320e+000	 2.036620346435412e-002	 1.174087548915550e+001
 2.299638007503847e+000	 4.080483355404389e-002	 1.175510189146870e+001
 2.299182596639455e+000	 6.131384268799480e-002	 1.176575843149391e+001
 2.298541677272850e+000	 8.189113402002239e-002	 1.177264900456827e+001
 2.297713355420944e+000	 1.025345615263407e-001	 1.177559184258886e+001
 2.296695762751440e+000	 1.232419301294487e-001	 1.177442005224904e+001
 2.295487057913643e+000	 1.440109958591868e-001	 1.176898213595091e+001
 2.294085427878376e+000	 1.648394660517298e-001	 1.175914249370374e+001
 2.292489089285958e+000	 1.857249995872509e-001	 1.174478190431255e+001
 2.290696289801054e+000	 2.066652071669667e-001	 1.172579798415810e+001
 2.325000000000000e+000	 0.000000000000000e+000	 1.166713349317640e+001
 2.324908848050816e+000	 2.058757524139532e-002	 1.168538061607654e+001
 2.324634072802724e+000	 4.124836435401671e-002	 1.170021947647792e+001
 2.324173711820144e+000	 6.198029750047319e-002	 1.171144755153046e+001
 2.323525825938548e+000	 8.278125504277356e-002	 1.171887668767579e+001
 2.322688500588074e+000	 1.036490676307858e-001	 1.172233366112785e+001
 2.321659847128467e+000	 1.245815163274705e-001	 1.172166072173959e+001
 2.320438004194349e+000	 1.455763327716879e-001	 1.171671611852704e+001
 2.319021139049703e+000	 1.666311993793530e-001	 1.170737460511115e+001
 2.317407448950504e+000	 1.877437495836841e-001	 1.169352792333239e+001
 2.315595162514295e+000	 2.089115681152584e-001	 1.167508526329204e+001
 2.350000000000000e+000	 0.000000000000000e+000	 1.161218599129964e+001
 2.349907867922315e+000	 2.080894701861403e-002	 1.163149502160574e+001
 2.349630138101621e+000	 4.169189515430661e-002	 1.164732357703359e+001
 2.349164827000877e+000	 6.264675231336984e-002	 1.165947622090893e+001
 2.348509974604323e+000	 8.367137606600532e-002	 1.166777249247613e+001
 2.347663645755325e+000	 1.047635737357348e-001	 1.167204747464361e+001
 2.346623931505669e+000	 1.259211025259797e-001	 1.167215234413062e+001
 2.345388950475293e+000	 1.471416696846196e-001	 1.166795490223494e+001
 2.343956850221343e+000	 1.684229327073098e-001	 1.165934008443023e+001
 2.342325808615447e+000	 1.897624995803131e-001	 1.164621044699760e+001
 2.340494035228027e+000	 2.111579290635668e-001	 1.162848662889570e+001
 2.375000000000000e+000	 0.000000000000000e+000	 1.155854692793686e+001
 2.374906887793820e+000	 2.103031879601026e-002	 1.157930251425849e+001
 2.374626203400537e+000	 4.213542595491358e-002	 1.159648146886142e+001
 2.374155942181652e+000	 6.331320712668474e-002	 1.160989517029060e+001
 2.373494123270174e+000	 8.456149708971776e-002	 1.161937059990413e+001
 2.372638790922697e+000	 1.058780798411875e-001	 1.162475091754949e+001
 2.371588015883045e+000	 1.272606887249762e-001	 1.162589601863980e+001
 2.370339896756476e+000	 1.487070065979821e-001	 1.162268307079625e+001
 2.368892561393295e+000	 1.702146660356002e-001	 1.161500702821206e+001
 2.367244168280787e+000	 1.917812495771377e-001	 1.160278112189012e+001
 2.365392907942251e+000	 2.134042900118918e-001	 1.158593732390755e+001
 2.400000000000000e+000	 0.000000000000000e+000	 1.150631244469065e+001
 2.399905907665330e+000	 2.125169057358399e-002	 1.152888320262523e+001
 2.399622268699472e+000	 4.257895675583762e-002	 1.154775719777311e+001
 2.399147057362470e+000	 6.397966194041792e-002	 1.156275236001275e+001
 2.398478271936103e+000	 8.545161811391080e-002	 1.157370286945292e+001
 2.397613936090189e+000	 1.069925859471440e-001	 1.158045974070581e+001
 2.396552100260595e+000	 1.286002749244599e-001	 1.158289138754257e+001
 2.395290843037896e+000	 1.502723435117752e-001	 1.158088416604054e+001
 2.393828272565559e+000	 1.720063993642244e-001	 1.157434289432409e+001
 2.392162527946526e+000	 1.937999995741583e-001	 1.156319134699610e+001
 2.390291780656967e+000	 2.156506509602334e-001	 1.154737272236081e+001
 2.425000000000000e+000	 0.000000000000000e+000	 1.145557471856165e+001
 2.424904927536844e+000	 2.147306235133523e-002	 1.148031368608915e+001
 2.424618333998425e+000	 4.302248755707874e-002	 1.150121174615682e+001
 2.424138172543332e+000	 6.464611675456937e-002	 1.151809312288895e+001
 2.423462420602109e+000	 8.634173913858451e-002	 1.153079895883571e+001
 2.422589081257803e+000	 1.081070920536042e-001	 1.153918790851024e+001
 2.421516184638321e+000	 1.299398611244310e-001	 1.154313671127227e+001
 2.420241789319556e+000	 1.518376804259992e-001	 1.154254074161107e+001
 2.418763983738137e+000	 1.737981326931822e-001	 1.153731453487195e+001
 2.417080887612659e+000	 1.958187495713745e-001	 1.152739228646854e+001
 2.415190653372174e+000	 2.178970119085915e-001	 1.151272832262599e+001
 2.449999999999999e+000	 0.000000000000000e+000	 1.140642216422402e+001
 2.449903947408363e+000	 2.169443412926399e-002	 1.143366723386733e+001
 2.449614399297399e+000	 4.346601835863694e-002	 1.145690318927423e+001
 2.449129287724237e+000	 6.531257156913906e-002	 1.147596029826630e+001
 2.448446569268191e+000	 8.723186016373882e-002	 1.149068643632170e+001
 2.447564226425537e+000	 1.092215981605683e-001	 1.150094769004372e+001
 2.446480269016221e+000	 1.312794473248893e-001	 1.150662893892230e+001
 2.445192735601454e+000	 1.534030173406537e-001	 1.150763441338246e+001
 2.443699694911027e+000	 1.755898660224738e-001	 1.150388822710570e+001
 2.441999247279191e+000	 1.978374995687865e-001	 1.149533488160855e+001
 2.440089526087873e+000	 2.201433728569663e-001	 1.148193974106712e+001
 2.474999999999999e+000	 0.000000000000000e+000	 1.135893962404201e+001
 2.474902967279886e+000	 2.191580590737025e-002	 1.138901395320103e+001
 2.474610464596390e+000	 4.390954916051220e-002	 1.141488684208520e+001
 2.474120402905185e+000	 6.597902638412702e-002	 1.143639435795812e+001
 2.473430717934352e+000	 8.812198118937382e-002	 1.145339088626340e+001
 2.472539371593392e+000	 1.103361042680361e-001	 1.146574974469271e+001
 2.471444353394296e+000	 1.326190335258349e-001	 1.147336377447538e+001
 2.470143681883590e+000	 1.549683542557390e-001	 1.147614590682278e+001
 2.468635406084229e+000	 1.773815993520990e-001	 1.147402970245292e+001
 2.466917606946119e+000	 1.998562495663942e-001	 1.146696986212052e+001
 2.464988398804064e+000	 2.223897338053576e-001	 1.145494270608251e+001
 2.500000000000000e+000	 0.000000000000000e+000	 1.131320854668543e+001
 2.499901987151415e+000	 2.213717768565403e-002	 1.134642094745447e+001
 2.499606529895403e+000	 4.435307996270457e-002	 1.137521539726271e+001
 2.499111518086177e+000	 6.664548119953326e-002	 1.139943352462063e+001
 2.498414866600589e+000	 8.901210221548944e-002	 1.141893600829254e+001
 2.497514516761369e+000	 1.114506103760078e-001	 1.143360320263375e+001
 2.496408437772546e+000	 1.339586197272678e-001	 1.144333573905912e+001
 2.495094628165966e+000	 1.565336911712552e-001	 1.144805510151383e+001
 2.493571117257746e+000	 1.791733326820579e-001	 1.144770417380984e+001
 2.491835966613445e+000	 2.018749995641979e-001	 1.144224775669192e+001
 2.489887271520747e+000	 2.246360947537655e-001	 1.143167305250299e+001
 2.240898544376048e+000	 2.021724852704328e-001	 1.183982541271728e+001
 2.238950846230580e+000	 2.227085722441359e-001	 1.187337807675518e+001
 2.236807625977843e+000	 2.432933298649635e-001	 1.190217193253930e+001
 2.234467268428642e+000	 2.639242814016641e-001	 1.192612029643740e+001
 2.231928194088898e+000	 2.845989044733669e-001	 1.194515352102562e+001
 2.229188860500556e+000	 3.053146315223868e-001	 1.195921933046320e+001
 2.226247763581711e+000	 3.260688503289499e-001	 1.196828312656545e+001
 2.223103438964543e+000	 3.468589045682615e-001	 1.197232826409237e+001
 2.219754463329662e+000	 3.676820944102923e-001	 1.197135629380937e+001
 2.216199455735425e+000	 3.885356771626088e-001	 1.196538717192264e+001
 2.212437078940723e+000	 4.094168679565229e-001	 1.195445943454234e+001
 2.265797417088305e+000	 2.044188462186914e-001	 1.178068968685310e+001
 2.263828077851779e+000	 2.251831119367893e-001	 1.181420820829069e+001
 2.261661044040257e+000	 2.459965890868868e-001	 1.184307148003584e+001
 2.259294682517994e+000	 2.668567734184952e-001	 1.186720202199268e+001
 2.256727396240981e+000	 2.877611145242887e-001	 1.188653985918752e+001
 2.253957625612741e+000	 3.087070163181624e-001	 1.190104285347779e+001
 2.250983849839349e+000	 3.296918375556777e-001	 1.191068700476256e+001
 2.247804588282233e+000	 3.507128923973187e-001	 1.191546672017966e+001
 2.244418401807346e+000	 3.717674510149442e-001	 1.191539504981692e+001
 2.240823894129246e+000	 3.928527402417593e-001	 1.191050388751266e+001
 2.237019713148594e+000	 4.139659442660895e-001	 1.190084413537422e+001
 2.290696289801054e+000	 2.066652071669667e-001	 1.172579798415810e+001
 2.288705309473562e+000	 2.276576516292786e-001	 1.175928579639076e+001
 2.286514462103322e+000	 2.486998483085035e-001	 1.178819537472278e+001
 2.284122096608051e+000	 2.697892654349161e-001	 1.181245843817414e+001
 2.281526598393801e+000	 2.909233245747359e-001	 1.183202470641235e+001
 2.278726390725677e+000	 3.120994011134391e-001	 1.184686222820287e+001
 2.275719936097731e+000	 3.333148247819217e-001	 1.185695767812954e+001
 2.272505737600639e+000	 3.545668802259481e-001	 1.186231662003696e+001
 2.269082340285696e+000	 3.758528076192647e-001	 1.186296373569106e+001
 2.265448332523665e+000	 3.971698033207161e-001	 1.185894301720457e+001
 2.261602347356972e+000	 4.185150205756415e-001	 1.185031792183016e+001
 2.315595162514295e+000	 2.089115681152584e-001	 1.167508526329204e+001
 2.313582541095926e+000	 2.301321913216035e-001	 1.170853454091686e+001
 2.311367880167042e+000	 2.514031075298135e-001	 1.173745617165421e+001
 2.308949510698812e+000	 2.727217574509268e-001	 1.176179107750156e+001
 2.306325800547358e+000	 2.940855346247087e-001	 1.178149870342563e+001
 2.303495155839361e+000	 3.154917859082165e-001	 1.179655734295730e+001
 2.300456022356852e+000	 3.369378120076821e-001	 1.180696443078985e+001
 2.297206886919757e+000	 3.584208680541495e-001	 1.181273680079822e+001
 2.293746278764711e+000	 3.799381642232538e-001	 1.181391090794240e+001
 2.290072770918681e+000	 4.014868663994788e-001	 1.181054301257163e+001
 2.286184981565858e+000	 4.230640968851787e-001	 1.180270932570519e+001
 2.340494035228027e+000	 2.111579290635668e-001	 1.162848662889570e+001
 2.338459772718871e+000	 2.326067310137641e-001	 1.166187844495883e+001
 2.336221298231414e+000	 2.541063667508168e-001	 1.169076687107054e+001
 2.333776924790280e+000	 2.756542494665273e-001	 1.171510204414260e+001
 2.331125002701654e+000	 2.972477446742071e-001	 1.173485317336469e+001
 2.328263920953794e+000	 3.188841707024949e-001	 1.175000886334252e+001
 2.325192108616717e+000	 3.405607992329587e-001	 1.176057740293793e+001
 2.321908036239590e+000	 3.622748558819228e-001	 1.176658701819151e+001
 2.318410217244391e+000	 3.840235208269115e-001	 1.176808608775729e+001
 2.314697209314292e+000	 4.058039294780479e-001	 1.176514331933391e+001
 2.310767615775252e+000	 4.276131731947014e-001	 1.175784788563940e+001
 2.365392907942251e+000	 2.134042900118918e-001	 1.158593732390755e+001
 2.363337004342399e+000	 2.350812707057606e-001	 1.161924179887541e+001
 2.361074716296441e+000	 2.568096259715135e-001	 1.164804089496750e+001
 2.358604338882452e+000	 2.785867414817178e-001	 1.167229398382606e+001
 2.355924204856684e+000	 3.004099547232310e-001	 1.169198008586220e+001
 2.353032686068978e+000	 3.222765554962742e-001	 1.170709819133298e+001
 2.349928194877323e+000	 3.441837864577516e-001	 1.171766754578278e+001
 2.346609185560137e+000	 3.661288437092684e-001	 1.172372789819190e+001
 2.343074155724738e+000	 3.881088774302378e-001	 1.172533971022549e+001
 2.339321647710501e+000	 4.101209925564233e-001	 1.172258432503469e+001
 2.335350249985152e+000	 4.321622495042093e-001	 1.171556409412611e+001
 2.390291780656967e+000	 2.156506509602334e-001	 1.154737272236081e+001
 2.388214235966510e+000	 2.375558103975928e-001	 1.158054916533239e+001
 2.385928134362120e+000	 2.595128851919036e-001	 1.160919206512997e+001
 2.383431752975329e+000	 2.815192334964979e-001	 1.163327005563562e+001
 2.380723407012454e+000	 3.035721647717806e-001	 1.165277202337463e+001
 2.377801451184912e+000	 3.256689402895543e-001	 1.166770742692332e+001
 2.374664281138672e+000	 3.478067736820609e-001	 1.167810657930776e+001
 2.371310334881398e+000	 3.699828315361859e-001	 1.168402089169616e+001
 2.367738094205750e+000	 3.921942340332325e-001	 1.168552307674097e+001
 2.363946086107307e+000	 4.144380556346049e-001	 1.168270730998723e+001
 2.359932884195560e+000	 4.367113258137025e-001	 1.167568934783201e+001
 2.415190653372174e+000	 2.178970119085915e-001	 1.151272832262599e+001
 2.413091467591202e+000	 2.400303500892606e-001	 1.154572536526610e+001
 2.410781552428453e+000	 2.622161444119870e-001	 1.157413458252404e+001
 2.408259167068910e+000	 2.844517255108678e-001	 1.159793390554820e+001
 2.405522609168961e+000	 3.067343748198555e-001	 1.161712214959335e+001
 2.402570216301593e+000	 3.290613250823354e-001	 1.163171933214799e+001
 2.399400367400762e+000	 3.514297609058863e-001	 1.164176695264286e+001
 2.396011484203374e+000	 3.738368193626756e-001	 1.164732823200101e+001
 2.392402032687428e+000	 3.962795906358960e-001	 1.164848831034709e+001
 2.388570524504710e+000	 4.187551187125926e-001	 1.164535440125569e+001
 2.384515518406475e+000	 4.412604021231812e-001	 1.163805590099034e+001
 2.440089526087873e+000	 2.201433728569663e-001	 1.148193974106712e+001
 2.437968699216476e+000	 2.425048897807643e-001	 1.151469546470639e+001
 2.435634970495439e+000	 2.649194036317638e-001	 1.154278300795115e+001
 2.433086581163198e+000	 2.873842175248277e-001	 1.156618964159249e+001
 2.430321811326203e+000	 3.098965848674560e-001	 1.158492417978975e+001
 2.427338981419026e+000	 3.324537098746174e-001	 1.159901729730373e+001
 2.424136453663594e+000	 3.550527481292280e-001	 1.160852180686351e+001
 2.420712633526063e+000	 3.776908071887373e-001	 1.161351289488472e+001
 2.417065971169772e+000	 4.003649472382279e-001	 1.161408831381566e+001
 2.413194962902710e+000	 4.230721817903866e-001	 1.161036852945357e+001
 2.409098152617898e+000	 4.458094784326451e-001	 1.160249682164740e+001
 2.464988398804064e+000	 2.223897338053576e-001	 1.145494270608251e+001
 2.462845930842334e+000	 2.449794294721036e-001	 1.148738476239814e+001
 2.460488388563079e+000	 2.676226628512339e-001	 1.151505224387460e+001
 2.457913995258191e+000	 2.903167095383774e-001	 1.153794181051298e+001
 2.455121013484185e+000	 3.130587949145821e-001	 1.155607235295777e+001
 2.452107746537208e+000	 3.358460946664003e-001	 1.156948530921909e+001
 2.448872539927168e+000	 3.586757353520861e-001	 1.157824494004374e+001
 2.445413782849465e+000	 3.815447950143708e-001	 1.158243856110809e+001
 2.441729909652781e+000	 4.044503038402285e-001	 1.158217673026681e+001
 2.437819401301307e+000	 4.273892448679869e-001	 1.157759338816033e+001
 2.433680786829828e+000	 4.503585547420945e-001	 1.156884595056095e+001
 2.489887271520747e+000	 2.246360947537655e-001	 1.143167305250299e+001
 2.487723162468774e+000	 2.474539691632789e-001	 1.146371877816555e+001
 2.485341806631373e+000	 2.703259220703974e-001	 1.149085751733641e+001
 2.482741409353889e+000	 2.932492015515169e-001	 1.151309537583417e+001
 2.479920215642903e+000	 3.162210049612338e-001	 1.153046140562765e+001
 2.476876511656140e+000	 3.392384794576842e-001	 1.154300792142789e+001
 2.473608626191484e+000	 3.622987225744604e-001	 1.155081077440630e+001
 2.470114932173583e+000	 3.853987828395769e-001	 1.155396958116531e+001
 2.466393848136456e+000	 4.085356604418977e-001	 1.155260790615148e+001
 2.462443839700501e+000	 4.317063079453934e-001	 1.154687339577322e+001
 2.458263421042266e+000	 4.549076310515292e-001	 1.153693786256461e+001
 2.212437078940723e+000	 4.094168679565229e-001	 1.195445943454234e+001
 2.208466040719535e+000	 4.303228404769294e-001	 1.198870180358444e+001
 2.204285095166384e+000	 4.512507277356548e-001	 1.201858844746639e+001
 2.199893043990709e+000	 4.721976228884910e-001	 1.204419644649563e+001
 2.195288737798134e+000	 4.931605800963979e-001	 1.206562116494639e+001
 2.190471077357688e+000	 5.141366154304753e-001	 1.208297623637020e+001
 2.185439014853160e+000	 5.351227078207387e-001	 1.209639350805656e+001
 2.180191555116963e+000	 5.561158000485696e-001	 1.210602294383619e+001
 2.174727756844883e+000	 5.771127997826460e-001	 1.211203248451608e+001
 2.169046733790038e+000	 5.981105806580939e-001	 1.211460786533823e+001
 2.163147655934445e+000	 6.191059833985354e-001	 1.211395238996082e+001
 2.237019713148594e+000	 4.139659442660895e-001	 1.190084413537422e+001
 2.233004552281214e+000	 4.351042053694189e-001	 1.193603788415774e+001
 2.228777151778144e+000	 4.562646247082412e-001	 1.196694853572761e+001
 2.224336300034484e+000	 4.774442631400798e-001	 1.199367205964342e+001
 2.219680834884810e+000	 4.986401420943507e-001	 1.201632329823359e+001
 2.214809644884473e+000	 5.198492444873888e-001	 1.203503593378154e+001
 2.209721670574856e+000	 5.410685156817662e-001	 1.204996241317759e+001
 2.204415905730960e+000	 5.622948644897695e-001	 1.206127382922380e+001
 2.198891398589630e+000	 5.835251642208400e-001	 1.206915975787925e+001
 2.193147253056797e+000	 6.047562537727171e-001	 1.207382805084149e+001
 2.187182629892056e+000	 6.259849387659531e-001	 1.207356942274972e+001
 2.261602347356972e+000	 4.185150205756415e-001	 1.185031792183016e+001
 2.257543063843300e+000	 4.398855702620842e-001	 1.188646404233663e+001
 2.253269208390209e+000	 4.612785216811742e-001	 1.191837822762298e+001
 2.248779556078466e+000	 4.826909033921670e-001	 1.194617553512369e+001
 2.244072931971593e+000	 5.041197040929338e-001	 1.196999050953898e+001
 2.239148212411263e+000	 5.255618735450450e-001	 1.198997713190439e+001
 2.234004326296460e+000	 5.470143235436286e-001	 1.200630872439786e+001
 2.228640256344763e+000	 5.684739289318761e-001	 1.201917781006436e+001
 2.223055040334082e+000	 5.899375286599926e-001	 1.202879592674432e+001
 2.217247772323163e+000	 6.114019268883302e-001	 1.203539339460345e+001
 2.211217603849173e+000	 6.328638941343707e-001	 1.202392984382451e+001
 2.286184981565858e+000	 4.230640968851787e-001	 1.180270932570519e+001
 2.282081575405792e+000	 4.446669351549252e-001	 1.183979070054929e+001
 2.277761265002584e+000	 4.662924186544543e-001	 1.187266991551582e+001
 2.273222812122656e+000	 4.879375436447528e-001	 1.190148132690821e+001
 2.268465029058483e+000	 5.095992660921478e-001	 1.192637941871504e+001
 2.263486779938061e+000	 5.312745026034440e-001	 1.194753873356210e+001
 2.258286982017970e+000	 5.529601314063258e-001	 1.196515375762830e+001
 2.252864606958372e+000	 5.746529933748896e-001	 1.197943875869853e+001
 2.247218682078240e+000	 5.963498931001033e-001	 1.199062757663663e+001
 2.241348291589134e+000	 6.180476000049325e-001	 1.199897336567829e+001
 2.235252577805797e+000	 6.397428495037884e-001	 1.197657435344839e+001
 2.310767615775252e+000	 4.276131731947014e-001	 1.175784788563940e+001
 2.306620086968692e+000	 4.494483000479418e-001	 1.179582964062159e+001
 2.302253321615266e+000	 4.713063156280811e-001	 1.182961769197490e+001
 2.297666068167052e+000	 4.931841838978370e-001	 1.185936591799241e+001
 2.292857126145480e+000	 5.150788280919920e-001	 1.188524899122620e+001
 2.287825347464866e+000	 5.369871316625857e-001	 1.190746229131141e+001
 2.282569637739387e+000	 5.589059392698582e-001	 1.192622176993563e+001
 2.277088957571788e+000	 5.808320578188099e-001	 1.194176376711798e+001
 2.271382323822107e+000	 6.027622575411730e-001	 1.195434477807780e+001
 2.265448810854711e+000	 6.246932731225248e-001	 1.196424117009341e+001
 2.259287551761927e+000	 6.466218048742060e-001	 1.193142109596923e+001
 2.335350249985152e+000	 4.321622495042093e-001	 1.171556409412611e+001
 2.331158598532001e+000	 4.542296649411343e-001	 1.175439393222991e+001
 2.326745378228254e+000	 4.763202126020547e-001	 1.178901726028987e+001
 2.322109324211656e+000	 4.984308241514198e-001	 1.181960771360485e+001
 2.317249223232583e+000	 5.205583900924671e-001	 1.184636041469569e+001
 2.312163914991677e+000	 5.426997607224701e-001	 1.186949186798294e+001
 2.306852293460711e+000	 5.648517471342254e-001	 1.188923980474467e+001
 2.301313308185010e+000	 5.870111222636373e-001	 1.190586297751015e+001
 2.295545965565678e+000	 6.091746219832008e-001	 1.191964090316467e+001
 2.289549330119896e+000	 6.313389462411065e-001	 1.191928962970829e+001
 2.283322525717564e+000	 6.535007602456238e-001	 1.188839198187439e+001
 2.359932884195560e+000	 4.367113258137025e-001	 1.167568934783201e+001
 2.355697110095715e+000	 4.590110298345022e-001	 1.171529786582549e+001
 2.351237434841551e+000	 4.813341095763753e-001	 1.175066585057969e+001
 2.346552580256467e+000	 5.036774644055011e-001	 1.178198694109078e+001
 2.341641320319795e+000	 5.260379520935724e-001	 1.180947698316804e+001
 2.336502482518495e+000	 5.484123897830971e-001	 1.183337390593771e+001
 2.331134949181941e+000	 5.707975549994273e-001	 1.185393754671553e+001
 2.325537658798040e+000	 5.931901867093714e-001	 1.187144942339378e+001
 2.319709607308956e+000	 6.155869864261873e-001	 1.188621245361242e+001
 2.313649849384685e+000	 6.379846193606776e-001	 1.187564175504260e+001
 2.307357499672707e+000	 6.603797156180414e-001	 1.184741249163771e+001
 2.384515518406475e+000	 4.412604021231812e-001	 1.163805590099034e+001
 2.380235621659837e+000	 4.637923947280462e-001	 1.167835688970802e+001
 2.375729491455153e+000	 4.863480065510425e-001	 1.171436214108990e+001
 2.370995836301484e+000	 5.089241046600809e-001	 1.174628555598864e+001
 2.366033417407113e+000	 5.315175140953082e-001	 1.177436398853067e+001
 2.360841050045321e+000	 5.541250188444671e-001	 1.179885710441088e+001
 2.355417604903078e+000	 5.767433628654642e-001	 1.182004718559746e+001
 2.349762009410875e+000	 5.993692511560124e-001	 1.183823888058128e+001
 2.343873249051941e+000	 6.219993508701321e-001	 1.185375889943397e+001
 2.337750368649083e+000	 6.446302924812387e-001	 1.183380634756138e+001
 2.331392473627356e+000	 6.672586709914591e-001	 1.180841149169955e+001
 2.409098152617898e+000	 4.458094784326451e-001	 1.160249682164740e+001
 2.404774133224367e+000	 4.685737596217657e-001	 1.164338755095165e+001
 2.400221548069064e+000	 4.913619035260567e-001	 1.167990618430881e+001
 2.395439092346710e+000	 5.141707449151590e-001	 1.171228715385698e+001
 2.390425514494538e+000	 5.369970760976746e-001	 1.174078861858311e+001
 2.385179617572153e+000	 5.598376479065795e-001	 1.176569230436523e+001
 2.379700260624122e+000	 5.826891707323360e-001	 1.178730328841821e+001
 2.373986360023517e+000	 6.055483156035603e-001	 1.180594972726579e+001
 2.368036890794632e+000	 6.284117153150356e-001	 1.181634602788160e+001
 2.361850887913085e+000	 6.512759656027892e-001	 1.179371918964898e+001
 2.355427447581511e+000	 6.741376263658767e-001	 1.177132106171341e+001
 2.433680786829828e+000	 4.503585547420945e-001	 1.156884595056095e+001
 2.429312644789304e+000	 4.733551245156609e-001	 1.161020743991134e+001
 2.424713604683281e+000	 4.963758005014177e-001	 1.164709933756113e+001
 2.419882348392142e+000	 5.194173851707360e-001	 1.167977688744506e+001
 2.414817611582069e+000	 5.424766381006717e-001	 1.170851986128390e+001
 2.409518185098991e+000	 5.655502769694349e-001	 1.173363238032298e+001
 2.403982916345072e+000	 5.886349786000428e-001	 1.175544267941937e+001
 2.398210710635965e+000	 6.117273800520151e-001	 1.177430281258780e+001
 2.392200532537029e+000	 6.348240797608977e-001	 1.177526005029682e+001
 2.385951407176694e+000	 6.579216387253293e-001	 1.175531893166038e+001
 2.379462421535173e+000	 6.810165817412944e-001	 1.173607633226245e+001
 2.458263421042266e+000	 4.549076310515292e-001	 1.153693786256461e+001
 2.453851156354649e+000	 4.781364894097321e-001	 1.157863513805886e+001
 2.449205661297807e+000	 5.013896974771258e-001	 1.161574419776624e+001
 2.444325604437782e+000	 5.246640254268113e-001	 1.164854138883342e+001
 2.439209708669709e+000	 5.479562001042994e-001	 1.167732841474264e+001
 2.433856752625838e+000	 5.712629060330331e-001	 1.170243213868787e+001
 2.428265572065930e+000	 5.945807864685845e-001	 1.172420432719578e+001
 2.422435061248221e+000	 6.179064445013770e-001	 1.174302133308773e+001
 2.416364174279133e+000	 6.412364442077183e-001	 1.173564183803809e+001
 2.410051926439911e+000	 6.645673118488592e-001	 1.171854694852248e+001
 2.403497395488342e+000	 6.878955371177123e-001	 1.170261533231295e+001
 2.163147655934445e+000	 6.191059833985354e-001	 1.211395238996082e+001
 2.157029750636725e+000	 6.400958169810158e-001	 1.215879483348155e+001
 2.150692303753667e+000	 6.610768598420859e-001	 1.218872508424484e+001
 2.144134660734327e+000	 6.820458611255974e-001	 1.221531397308766e+001
 2.137356227685584e+000	 7.029995419721637e-001	 1.223850417895800e+001
 2.130356472406817e+000	 7.239345968484161e-001	 1.225823681251273e+001
 2.123134925392267e+000	 7.448476949157644e-001	 1.227445147462565e+001
 2.115691180799508e+000	 7.657354814378435e-001	 1.228708632112511e+001
 2.108024897382408e+000	 7.865945792257689e-001	 1.229607813377816e+001
 2.100135799387014e+000	 8.074215901202450e-001	 1.230136239751962e+001
 2.092023677408817e+000	 8.282130965095027e-001	 1.230287338390526e+001
 2.187182629892056e+000	 6.259849387659531e-001	 1.207356942274972e+001
 2.180996747869119e+000	 6.472079927217472e-001	 1.210863274091615e+001
 2.174588884909840e+000	 6.684221582814655e-001	 1.214013853961955e+001
 2.167958379190486e+000	 6.896241484683361e-001	 1.216802422703794e+001
 2.161104630219127e+000	 7.108106479912013e-001	 1.219222567887655e+001
 2.154027099881797e+000	 7.319783145885442e-001	 1.221267730019266e+001
 2.146725313456010e+000	 7.531237804124568e-001	 1.222931209356046e+001
 2.139198860589977e+000	 7.742436534517255e-001	 1.224206173359775e+001
 2.131447396245942e+000	 7.953345189931451e-001	 1.225085664785795e+001
 2.123470641606019e+000	 8.163929411200948e-001	 1.225562610407116e+001
 2.115268384938982e+000	 8.374154642473412e-001	 1.225629830369856e+001
 2.211217603849173e+000	 6.328638941343707e-001	 1.202392984382451e+001
 2.204963745100923e+000	 6.543201684634740e-001	 1.206074565060083e+001
 2.198485466065337e+000	 6.757674567218257e-001	 1.209374089425337e+001
 2.191782097645896e+000	 6.972024358120310e-001	 1.212284613772964e+001
 2.184853032751853e+000	 7.186217540111608e-001	 1.214799049284949e+001
 2.177697727355906e+000	 7.400220323295500e-001	 1.216910169154305e+001
 2.170315701518835e+000	 7.613998659099726e-001	 1.218610616358292e+001
 2.162706540379492e+000	 7.827518254663665e-001	 1.219892912081980e+001
 2.154869895108496e+000	 8.040744587612061e-001	 1.220749464791139e+001
 2.146805483824029e+000	 8.253642921205442e-001	 1.221172579951449e+001
 2.138513092468148e+000	 8.466178319856844e-001	 1.221154470388956e+001
 2.235252577805797e+000	 6.397428495037884e-001	 1.197657435344839e+001
 2.228930742332137e+000	 6.614323442061955e-001	 1.201505217993005e+001
 2.222382047220159e+000	 6.831127551631664e-001	 1.204945503781400e+001
 2.215605816100554e+000	 7.047807231566821e-001	 1.207970668717418e+001
 2.208601435283763e+000	 7.264328600320422e-001	 1.210572951155942e+001
 2.201368354829143e+000	 7.480657500714333e-001	 1.212744459855045e+001
 2.193906089580742e+000	 7.696759514083115e-001	 1.214477182697394e+001
 2.186214220168053e+000	 7.912599974817667e-001	 1.215762996077085e+001
 2.178292393970071e+000	 8.128143985299516e-001	 1.216593674949577e+001
 2.170140326041044e+000	 8.343356431215937e-001	 1.216960903540316e+001
 2.161757799996312e+000	 8.558201997245328e-001	 1.216856286705545e+001
 2.259287551761927e+000	 6.466218048742060e-001	 1.193142109596923e+001
 2.252897739562764e+000	 6.685445199499122e-001	 1.197147476904894e+001
 2.246278628374308e+000	 6.904580536054878e-001	 1.200720753911425e+001
 2.239429534554463e+000	 7.123590105022891e-001	 1.203853640206476e+001
 2.232349837814859e+000	 7.342439660538456e-001	 1.206537704517514e+001
 2.225038982301508e+000	 7.561094678141940e-001	 1.208764393688059e+001
 2.217496477641732e+000	 7.779520369074738e-001	 1.210525042339158e+001
 2.209721899955661e+000	 7.997681694979260e-001	 1.211810883212282e+001
 2.201714892830666e+000	 8.215543382993816e-001	 1.212613058190033e+001
 2.193475168257064e+000	 8.433069941232433e-001	 1.212922629988944e+001
 2.185002507523477e+000	 8.650225674638863e-001	 1.212730594516351e+001
 2.283322525717564e+000	 6.535007602456238e-001	 1.188839198187439e+001
 2.276864736792801e+000	 6.756566956946243e-001	 1.192993947965587e+001
 2.270175209527782e+000	 6.978033520487897e-001	 1.196692845247275e+001
 2.263253253007622e+000	 7.199372978488524e-001	 1.199926916721431e+001
 2.256098240345136e+000	 7.420550720765704e-001	 1.202687064337872e+001
 2.248709609773001e+000	 7.641531855578325e-001	 1.204964075200046e+001
 2.241086865701803e+000	 7.862281224074595e-001	 1.206748632158808e+001
 2.233229579742315e+000	 8.082763415148443e-001	 1.208031325104560e+001
 2.225137391690283e+000	 8.302942780694964e-001	 1.208802662952892e+001
 2.216810010472089e+000	 8.522783451254928e-001	 1.209053086316658e+001
 2.208247215049642e+000	 8.742249352037450e-001	 1.208772980855065e+001
 2.307357499672707e+000	 6.603797156180414e-001	 1.184741249163771e+001
 2.300831734022249e+000	 6.827688714403316e-001	 1.189037580638001e+001
 2.294071790680583e+000	 7.051486504930723e-001	 1.192855113617724e+001
 2.287076971460031e+000	 7.275155851963721e-001	 1.196184205065327e+001
 2.279846642874599e+000	 7.498661781002173e-001	 1.199015092664082e+001
 2.272380237243623e+000	 7.721969033023488e-001	 1.201337905616782e+001
 2.264677253760957e+000	 7.945042079082688e-001	 1.203142676164443e+001
 2.256737259528015e+000	 8.167845135325214e-001	 1.204419351821240e+001
 2.248559890548920e+000	 8.390342178402960e-001	 1.205157808319606e+001
 2.240144852686120e+000	 8.612496961283428e-001	 1.205347863257083e+001
 2.231491922574806e+000	 8.834273029441089e-001	 1.204979290434160e+001
 2.331392473627356e+000	 6.672586709914591e-001	 1.180841149169955e+001
 2.324798731251109e+000	 6.898810471870337e-001	 1.185271649982601e+001
 2.317968371832708e+000	 7.124939489383351e-001	 1.189201208217682e+001
 2.310900689911690e+000	 7.350938725448476e-001	 1.192619513954632e+001
 2.303595045403246e+000	 7.576772841247863e-001	 1.195516142793266e+001
 2.296050864713372e+000	 7.802406210477424e-001	 1.197880567550386e+001
 2.288267641819193e+000	 8.027802934099013e-001	 1.199702170696379e+001
 2.280244939312762e+000	 8.252926855509580e-001	 1.200970257526861e+001
 2.271982389406578e+000	 8.477741576117798e-001	 1.201674070062117e+001
 2.263479694899156e+000	 8.702210471317924e-001	 1.201802801664619e+001
 2.254736630098972e+000	 8.926296706849779e-001	 1.201345612362477e+001
 2.355427447581511e+000	 6.741376263658767e-001	 1.177132106171341e+001
 2.348765728479379e+000	 6.969932229347312e-001	 1.181689740045282e+001
 2.341864952984159e+000	 7.198392473845788e-001	 1.185725075620133e+001
 2.334724408362598e+000	 7.426721598942792e-001	 1.189227138615484e+001
 2.327343447931077e+000	 7.654883901502769e-001	 1.192184844412900e+001
 2.319721492182249e+000	 7.882843387940137e-001	 1.194587010642877e+001
 2.311858029876512e+000	 8.110563789123574e-001	 1.196422370532653e+001
 2.303752619096555e+000	 8.338008575701533e-001	 1.197679587008835e+001
 2.295404888263255e+000	 8.565140973839485e-001	 1.198347267546417e+001
 2.286814537111197e+000	 8.791923981358417e-001	 1.198413979753176e+001
 2.277981337622136e+000	 9.018320384263519e-001	 1.197868267676031e+001
 2.379462421535173e+000	 6.810165817412944e-001	 1.173607633226245e+001
 2.372732725707062e+000	 7.041053986834239e-001	 1.178285728252054e+001
 2.365761534134936e+000	 7.271845458318029e-001	 1.182420944757039e+001
 2.358548126812757e+000	 7.502504472446673e-001	 1.186001646313515e+001
 2.351091850458091e+000	 7.732994961766895e-001	 1.189016089641711e+001
 2.343392119650255e+000	 7.963280565411630e-001	 1.191452438079807e+001
 2.335448417932912e+000	 8.193324644156368e-001	 1.193298775836601e+001
 2.327260298879394e+000	 8.423090295901077e-001	 1.194543123019726e+001
 2.318827387118954e+000	 8.652540371568016e-001	 1.195173451429802e+001
 2.310149379322243e+000	 8.881637491404915e-001	 1.195177701108332e+001
 2.301226045144301e+000	 9.110344061682311e-001	 1.194543797624510e+001
 2.403497395488342e+000	 6.878955371177123e-001	 1.170261533231295e+001
 2.396699722934155e+000	 7.112175744331118e-001	 1.175053770740023e+001
 2.389658115285039e+000	 7.345298442800079e-001	 1.179283312801387e+001
 2.382371845262166e+000	 7.578287345960115e-001	 1.182937862751867e+001
 2.374840252984291e+000	 7.811106022040242e-001	 1.186005019908111e+001
 2.367062747117390e+000	 8.043717742891897e-001	 1.188472293913092e+001
 2.359038805988395e+000	 8.276085499197395e-001	 1.190327119887606e+001
 2.350767978661280e+000	 8.508172016108215e-001	 1.191556874378986e+001
 2.342249885973674e+000	 8.739939769303398e-001	 1.192148892096321e+001
 2.333484221532295e+000	 8.971351001457415e-001	 1.192090483418731e+001
 2.324470752665467e+000	 9.202367739106158e-001	 1.191368952660597e+001
 2.092023677408817e+000	 8.282130965095027e-001	 1.230287338390526e+001
 2.083688389209485e+000	 8.489656628815500e-001	 1.234467211068480e+001
 2.075129860492684e+000	 8.696758374109872e-001	 1.238032325098147e+001
 2.066348085636912e+000	 8.903401535779647e-001	 1.240973759904105e+001
 2.057343128383052e+000	 9.109551318173336e-001	 1.243282703328608e+001
 2.048115122476415e+000	 9.315172811979672e-001	 1.244950467083683e+001
 2.038664272261591e+000	 9.520231011303464e-001	 1.245968502573998e+001
 2.028990853228824e+000	 9.724690831009004e-001	 1.246328417064663e+001
 2.019095212510688e+000	 9.928517124315603e-001	 1.246021990166364e+001
 2.008977769327879e+000	 1.013167470062905e+000	 1.245041190608356e+001
 1.998639015383027e+000	 1.033412834359236e+000	 1.243378193268169e+001
 2.115268384938982e+000	 8.374154642473412e-001	 1.225629830369856e+001
 2.106840482426126e+000	 8.583986146904973e-001	 1.229712624845349e+001
 2.098186858945656e+000	 8.793389022705094e-001	 1.233201180399810e+001
 2.089307508813610e+000	 9.002328219506403e-001	 1.236086409759299e+001
 2.080202496479101e+000	 9.210768555039048e-001	 1.238359308132932e+001
 2.070871957173500e+000	 9.418674732110530e-001	 1.240010968753941e+001
 2.061316097511894e+000	 9.626011355871261e-001	 1.241032598835354e+001
 2.051535196045530e+000	 9.832742951350688e-001	 1.241415535914761e+001
 2.041529603764009e+000	 1.003883398124834e+000	 1.241151264560655e+001
 2.031299744546037e+000	 1.024424886396339e+000	 1.240231433410924e+001
 2.020846115557606e+000	 1.044895199184599e+000	 1.238647872512257e+001
 2.138513092468148e+000	 8.466178319856844e-001	 1.221154470388956e+001
 2.129992575641768e+000	 8.678315664998595e-001	 1.225143663260937e+001
 2.121243857397628e+000	 8.890019671303757e-001	 1.228558866929998e+001
 2.112266931989306e+000	 9.101254903236083e-001	 1.231390816657554e+001
 2.103061864574149e+000	 9.311985791907376e-001	 1.233630304169890e+001
 2.093628791869585e+000	 9.522176652243891e-001	 1.235268193302314e+001
 2.083967922761197e+000	 9.731791700441648e-001	 1.236295436102356e+001
 2.074079538861235e+000	 9.940795071695255e-001	 1.236703089366645e+001
 2.063963995016330e+000	 1.014915083818444e+000	 1.236482331584123e+001
 2.053621719763194e+000	 1.035682302730179e+000	 1.235624480256114e+001
 2.043053215731184e+000	 1.056377564010459e+000	 1.234121009561931e+001
 2.161757799996312e+000	 8.558201997245328e-001	 1.216856286705545e+001
 2.153144668856409e+000	 8.772645183096366e-001	 1.220755476858358e+001
 2.144300855848600e+000	 8.986650319905861e-001	 1.224100673979038e+001
 2.135226355164004e+000	 9.200181586968700e-001	 1.226882425049033e+001
 2.125921232668198e+000	 9.413203028778325e-001	 1.229091307400541e+001
 2.116385626564670e+000	 9.625678572379758e-001	 1.230717944477921e+001
 2.106619748009500e+000	 9.837572045014627e-001	 1.231753022103057e+001
 2.096623881675941e+000	 1.004884719204270e+000	 1.232187305219561e+001
 2.086398386267651e+000	 1.025946769512391e+000	 1.232011655088481e+001
 2.075943694979352e+000	 1.046939719064425e+000	 1.231217046906122e+001
 2.065260315903762e+000	 1.067859928836815e+000	 1.229794587812420e+001
 2.185002507523477e+000	 8.650225674638863e-001	 1.212730594516351e+001
 2.176296762070050e+000	 8.866974701198287e-001	 1.216543502931968e+001
 2.167357854298572e+000	 9.083280968511407e-001	 1.219822176810519e+001
 2.158185778337701e+000	 9.299108270704242e-001	 1.222556963985771e+001
 2.148780600761245e+000	 9.514420265651888e-001	 1.224738216420212e+001
 2.139142461258755e+000	 9.729180492518131e-001	 1.226356306097820e+001
 2.129271573256803e+000	 9.943352389590200e-001	 1.227401641466277e+001
 2.119168224489647e+000	 1.015689931239302e+000	 1.227864684403678e+001
 2.108832777517973e+000	 1.036978455206676e+000	 1.227735967682461e+001
 2.098265670194510e+000	 1.058197135399078e+000	 1.227006112901143e+001
 2.087467416075340e+000	 1.079342293663667e+000	 1.225665848852104e+001
 2.208247215049642e+000	 8.742249352037450e-001	 1.208772980855065e+001
 2.199448855282691e+000	 8.961304219304351e-001	 1.212503450435202e+001
 2.190414852747545e+000	 9.179911617120395e-001	 1.215719221610061e+001
 2.181145201510397e+000	 9.398034954442720e-001	 1.218410432142639e+001
 2.171639968853294e+000	 9.615637502528075e-001	 1.220567197583014e+001
 2.161899295951840e+000	 9.832682412659006e-001	 1.222179627306594e+001
 2.151923398503107e+000	 1.004913273416836e+000	 1.223237841147859e+001
 2.141712567302352e+000	 1.026495143274622e+000	 1.223731986604775e+001
 2.131267168767293e+000	 1.048010140901297e+000	 1.223652256586715e+001
 2.120587645408667e+000	 1.069454551734137e+000	 1.222988907676309e+001
 2.109674516245919e+000	 1.090824658491015e+000	 1.221732278873390e+001
 2.231491922574806e+000	 8.834273029441089e-001	 1.204979290434160e+001
 2.222600948494332e+000	 9.055633737414569e-001	 1.208631285831654e+001
 2.213471851195517e+000	 9.276542265732823e-001	 1.211787911374795e+001
 2.204104624682095e+000	 9.496961638184127e-001	 1.214439083774480e+001
 2.194499336944342e+000	 9.716854739406875e-001	 1.216574671056066e+001
 2.184656130643925e+000	 9.936184332802385e-001	 1.218184508757209e+001
 2.174575223748410e+000	 1.015491307874912e+000	 1.219258416767812e+001
 2.164256910114057e+000	 1.037300355310231e+000	 1.219786216787395e+001
 2.153701560015615e+000	 1.059041826596255e+000	 1.219757750372769e+001
 2.142909620621825e+000	 1.080711968069603e+000	 1.219162897546337e+001
 2.131881616415496e+000	 1.102307023318859e+000	 1.217991595932936e+001
 2.254736630098972e+000	 8.926296706849779e-001	 1.201345612362477e+001
 2.245753041704973e+000	 9.149963255528933e-001	 1.204923219821365e+001
 2.236528849642489e+000	 9.373172914348695e-001	 1.208024592675657e+001
 2.227064047852791e+000	 9.595888321928466e-001	 1.210639415541887e+001
 2.217358705034390e+000	 9.818071976288297e-001	 1.212757297736355e+001
 2.207412965335010e+000	 1.003968625294827e+000	 1.214367789646665e+001
 2.197227048992712e+000	 1.026069342333246e+000	 1.215460399792571e+001
 2.186801252924763e+000	 1.048105567346127e+000	 1.216024612551593e+001
 2.176135951262936e+000	 1.070073512291550e+000	 1.216049906522263e+001
 2.165231595833983e+000	 1.091969384405474e+000	 1.215525773495229e+001
 2.154088716584075e+000	 1.113789388147199e+000	 1.214441737999873e+001
 2.277981337622136e+000	 9.018320384263519e-001	 1.197868267676031e+001
 2.268905134914614e+000	 9.244292773647448e-001	 1.201375694879775e+001
 2.259585848088461e+000	 9.469803562968008e-001	 1.204425843230152e+001
 2.250023471022489e+000	 9.694815005675737e-001	 1.207008154143561e+001
 2.240218073123438e+000	 9.919289213172337e-001	 1.209111966968595e+001
 2.230169800025096e+000	 1.014318817309666e+000	 1.210726535545375e+001
 2.219878874236016e+000	 1.036647376791840e+000	 1.211841045502013e+001
 2.209345595734469e+000	 1.058910779382311e+000	 1.212444632263793e+001
 2.198570342509257e+000	 1.081105197987183e+000	 1.212526399747863e+001
 2.187553571045141e+000	 1.103226800741752e+000	 1.212075439713564e+001
 2.176295816751653e+000	 1.125271752976035e+000	 1.211080851735784e+001
 2.301226045144301e+000	 9.110344061682311e-001	 1.194543797624510e+001
 2.292057228123256e+000	 9.338622291770110e-001	 1.197985373551896e+001
 2.282642846533432e+000	 9.566434211590759e-001	 1.200988460228282e+001
 2.272982894191186e+000	 9.793741689425937e-001	 1.203542244698229e+001
 2.263077441211487e+000	 1.002050645005900e+000	 1.205635785007471e+001
 2.252926634714180e+000	 1.024669009324756e+000	 1.207258026964173e+001
 2.242530699478319e+000	 1.047225411250693e+000	 1.208397821685752e+001
 2.231889938543174e+000	 1.069715991418783e+000	 1.209043943906966e+001
 2.221004733754577e+000	 1.092136883683151e+000	 1.209185111021992e+001
 2.209875546255298e+000	 1.114484217078436e+000	 1.208810002830489e+001
 2.198502916918232e+000	 1.136754117805368e+000	 1.207907281954687e+001
 2.324470752665467e+000	 9.202367739106158e-001	 1.191368952660597e+001
 2.315209321330897e+000	 9.432951809896923e-001	 1.194749127448836e+001
 2.305699844977406e+000	 9.663064860216960e-001	 1.197709449358928e+001
 2.295942317358884e+000	 9.892668373179072e-001	 1.200238839823638e+001
 2.285936809298535e+000	 1.012172368694827e+000	 1.202326064172133e+001
 2.275683469402266e+000	 1.035019201340097e+000	 1.203959748607287e+001
 2.265182524719623e+000	 1.057803445709805e+000	 1.205128398017646e+001
 2.254434281350881e+000	 1.080521203455544e+000	 1.205820414599796e+001
 2.243439124998900e+000	 1.103168569379458e+000	 1.206024117263849e+001
 2.232197521464457e+000	 1.125741633415527e+000	 1.205727761791781e+001
 2.220710017083810e+000	 1.148236482635196e+000	 1.204919561715404e+001
 1.998639015383027e+000	 1.033412834359236e+000	 1.243378193268169e+001
 1.988079515201900e+000	 1.053584282934246e+000	 1.246288863149148e+001
 1.977299906419740e+000	 1.073678294494223e+000	 1.248599538169122e+001
 1.966300900012589e+000	 1.093691350697970e+000	 1.250295455293205e+001
 1.955083280473655e+000	 1.113619938032245e+000	 1.251361973921526e+001
 1.943647905932685e+000	 1.133460549699554e+000	 1.251784599978332e+001
 1.931995708218038e+000	 1.153209687516760e+000	 1.251549010297790e+001
 1.920127692860818e+000	 1.172863863822527e+000	 1.250641077257368e+001
 1.908044939040537e+000	 1.192419603391557e+000	 1.249046893608252e+001
 1.895748599471811e+000	 1.211873445353536e+000	 1.246752797450441e+001
 1.883239900231722e+000	 1.231221945114724e+000	 1.243745397298955e+001
 2.020846115557606e+000	 1.044895199184599e+000	 1.238647872512257e+001
 2.010169287596954e+000	 1.065290774965724e+000	 1.241387667196511e+001
 1.999269905384127e+000	 1.085608053320555e+000	 1.243527543155216e+001
 1.988148687794898e+000	 1.105843476815214e+000	 1.245052070833307e+001
 1.976806428039066e+000	 1.125993492897426e+000	 1.245945933682408e+001
 1.965243993781153e+000	 1.146054555805278e+000	 1.246193953176440e+001
 1.953462327203166e+000	 1.166023128486933e+000	 1.245781114151318e+001
 1.941462445008779e+000	 1.185895684529262e+000	 1.244692590418039e+001
 1.929245438368386e+000	 1.205668710093352e+000	 1.242913770596697e+001
 1.916812472804541e+000	 1.225338705854776e+000	 1.240430284117270e+001
 1.904164788017406e+000	 1.244902188946530e+000	 1.237228027331606e+001
 2.043053215731184e+000	 1.056377564010459e+000	 1.234121009561931e+001
 2.032259059991009e+000	 1.076997266997788e+000	 1.236685121890383e+001
 2.021239904347514e+000	 1.097537812147543e+000	 1.238649376434702e+001
 2.009996475576207e+000	 1.117995602933166e+000	 1.239997670056328e+001
 1.998529575603476e+000	 1.138367047763346e+000	 1.240714003067835e+001
 1.986840081628621e+000	 1.158648561911752e+000	 1.240782505188238e+001
 1.974928946187295e+000	 1.178836569457846e+000	 1.240187461850288e+001
 1.962797197155740e+000	 1.198927505236708e+000	 1.238913340807297e+001
 1.950445937695233e+000	 1.218917816795809e+000	 1.236944818985216e+001
 1.937876346136270e+000	 1.238803966356609e+000	 1.234266809523891e+001
 1.925089675802090e+000	 1.258582432778837e+000	 1.233376370112136e+001
 2.065260315903762e+000	 1.067859928836815e+000	 1.229794587812420e+001
 2.054348832384064e+000	 1.088703759030439e+000	 1.232178658100320e+001
 2.043209903309902e+000	 1.109467570975188e+000	 1.233962920010712e+001
 2.031844263356515e+000	 1.130147729051826e+000	 1.235130589462616e+001
 2.020252723166887e+000	 1.150740602630004e+000	 1.235664976138204e+001
 2.008436169475090e+000	 1.171242568018975e+000	 1.235549510391363e+001
 1.996395565170424e+000	 1.191650010429500e+000	 1.234767770536561e+001
 1.984131949301701e+000	 1.211959325944866e+000	 1.233303510463805e+001
 1.971646437021081e+000	 1.232166923498929e+000	 1.231140687523558e+001
 1.958940219467000e+000	 1.252269226859034e+000	 1.228874427353825e+001
 1.946014563585775e+000	 1.272262676611648e+000	 1.230901219194478e+001
 2.087467416075340e+000	 1.079342293663667e+000	 1.225665848852104e+001
 2.076438604776118e+000	 1.100410251063676e+000	 1.227865951707990e+001
 2.065179902271289e+000	 1.121397329803490e+000	 1.229466287611656e+001
 2.053692051135824e+000	 1.142299855171193e+000	 1.230449383890860e+001
 2.041975870729298e+000	 1.163114157497399e+000	 1.230797851811065e+001
 2.030032257320558e+000	 1.183836574126948e+000	 1.230494414451077e+001
 2.017862184152553e+000	 1.204463451401894e+000	 1.229521934987777e+001
 2.005466701446662e+000	 1.224991146653735e+000	 1.227863445333942e+001
 1.992846936345929e+000	 1.245416030202710e+000	 1.225502175071103e+001
 1.980004092796729e+000	 1.265734487362052e+000	 1.226465441908337e+001
 1.966939451368459e+000	 1.285942920444961e+000	 1.228247941254504e+001
 2.109674516245919e+000	 1.090824658491015e+000	 1.221732278873390e+001
 2.098528377167173e+000	 1.112116743097499e+000	 1.223744910711808e+001
 2.087149901231675e+000	 1.133327088632449e+000	 1.225157812495142e+001
 2.075539838914133e+000	 1.154451981291268e+000	 1.225952815026600e+001
 2.063699018290710e+000	 1.175487712365535e+000	 1.226111823079168e+001
 2.051628345165026e+000	 1.196430580235669e+000	 1.225616844252497e+001
 2.039328803133683e+000	 1.217276892375029e+000	 1.224450018268102e+001
 2.026801453590623e+000	 1.238022967363314e+000	 1.222593646645077e+001
 2.014047435669777e+000	 1.258665136907154e+000	 1.222056132820129e+001
 2.001067966125458e+000	 1.279199747865661e+000	 1.223888361821975e+001
 1.987864339150143e+000	 1.299623164278777e+000	 1.225415743505803e+001
 2.131881616415496e+000	 1.102307023318859e+000	 1.217991595932936e+001
 2.120618149557228e+000	 1.123823235131908e+000	 1.219813663137512e+001
 2.109119900191063e+000	 1.145256847462065e+000	 1.221036036014183e+001
 2.097387626691442e+000	 1.166604107412050e+000	 1.221639840628960e+001
 2.085422165851120e+000	 1.187861267234408e+000	 1.221606266902376e+001
 2.073224433008494e+000	 1.209024586345141e+000	 1.220916598462057e+001
 2.060795422113812e+000	 1.230090333348904e+000	 1.219552242963298e+001
 2.048136205733585e+000	 1.251054788073606e+000	 1.217717230473272e+001
 2.035247934992624e+000	 1.271914243612259e+000	 1.219579516044730e+001
 2.022131839453188e+000	 1.292665008369864e+000	 1.221142230619999e+001
 2.008789226930828e+000	 1.313303408113096e+000	 1.222403943016232e+001
 2.154088716584075e+000	 1.113789388147199e+000	 1.214441737999873e+001
 2.142707921946283e+000	 1.135529727166903e+000	 1.216070545696556e+001
 2.131089899149450e+000	 1.157186606292337e+000	 1.217099696890614e+001
 2.119235414467751e+000	 1.178756233533540e+000	 1.217509604423751e+001
 2.107145313410531e+000	 1.200234822104020e+000	 1.217280734724826e+001
 2.094820520850962e+000	 1.221618592455362e+000	 1.216393638672809e+001
 2.082262041092940e+000	 1.242903774323520e+000	 1.214828982957969e+001
 2.069470957875546e+000	 1.264086608784609e+000	 1.215364746900296e+001
 2.056448434314472e+000	 1.285163350318026e+000	 1.216943289363817e+001
 2.043195712779917e+000	 1.306130268874659e+000	 1.218226207874867e+001
 2.029714114710512e+000	 1.326983651947917e+000	 1.219211961045317e+001
 2.176295816751653e+000	 1.125271752976035e+000	 1.211080851735784e+001
 2.164797694334338e+000	 1.147236219202485e+000	 1.212514093138879e+001
 2.153059898106836e+000	 1.169116365123266e+000	 1.213347721145259e+001
 2.141083202243059e+000	 1.190908359655738e+000	 1.213561426615386e+001
 2.128868460968942e+000	 1.212608376974370e+000	 1.213134943572669e+001
 2.116416608692430e+000	 1.234212598566333e+000	 1.212048081091835e+001
 2.103728660071070e+000	 1.255717215298876e+000	 1.211287035177681e+001
 2.090805710016507e+000	 1.277118429496323e+000	 1.212861687213056e+001
 2.077648933635321e+000	 1.298412457024456e+000	 1.214146471560410e+001
 2.064259586105647e+000	 1.319595529380046e+000	 1.215139563285454e+001
 2.050639002489196e+000	 1.340663895783240e+000	 1.215839317728368e+001
 2.198502916918232e+000	 1.136754117805368e+000	 1.207907281954687e+001
 2.186887466721392e+000	 1.158942711238653e+000	 1.209143028250962e+001
 2.175029897063224e+000	 1.181046123954852e+000	 1.209779212638390e+001
 2.162930990017368e+000	 1.203060485778642e+000	 1.209794794973815e+001
 2.150591608526352e+000	 1.224981931845459e+000	 1.209168767691346e+001
 2.138012696532898e+000	 1.246806604678053e+000	 1.207880188731456e+001
 2.125195279048199e+000	 1.268530656274973e+000	 1.208939836237797e+001
 2.112140462156468e+000	 1.290150250208748e+000	 1.210206944688634e+001
 2.098849432955169e+000	 1.311661563731547e+000	 1.211188196620377e+001
 2.085323459430376e+000	 1.333060789886026e+000	 1.211881671115114e+001
 2.071563890266881e+000	 1.354344139619067e+000	 1.212285627082736e+001
 2.220710017083810e+000	 1.148236482635196e+000	 1.204919561715404e+001
 2.208977239107448e+000	 1.170649203275409e+000	 1.205956252453994e+001
 2.196999896018612e+000	 1.192975882787096e+000	 1.206393444177749e+001
 2.184778777790678e+000	 1.215212611902256e+000	 1.206209356456244e+001
 2.172314756082765e+000	 1.237355486717287e+000	 1.205382230684614e+001
 2.159608784372368e+000	 1.259400610790523e+000	 1.205219763405487e+001
 2.146661898024328e+000	 1.281344097251810e+000	 1.206449487644837e+001
 2.133475214295430e+000	 1.303182070921886e+000	 1.207399532106807e+001
 2.120049932274017e+000	 1.324910670439301e+000	 1.208067707972301e+001
 2.106387332754106e+000	 1.346526050392599e+000	 1.208452004963456e+001
 2.092488778043565e+000	 1.368024383455396e+000	 1.208550592313717e+001
 1.883239900231722e+000	 1.231221945114724e+000	 1.243745397298955e+001
 1.870520140527698e+000	 1.250461676279598e+000	 1.237605824017524e+001
 1.857590692405196e+000	 1.269589232571736e+000	 1.237543741423492e+001
 1.844453000395384e+000	 1.288601229750900e+000	 1.237100423316284e+001
 1.831108581103128e+000	 1.307494307523293e+000	 1.236268709934092e+001
 1.817559022734820e+000	 1.326265131444095e+000	 1.235041669960872e+001
 1.803805984566350e+000	 1.344910394809678e+000	 1.233412614342678e+001
 1.789851196351457e+000	 1.363426820537300e+000	 1.231375109837000e+001
 1.775696457670766e+000	 1.381811163030106e+000	 1.228922992261069e+001
 1.761343637221933e+000	 1.400060210025257e+000	 1.226050379405645e+001
 1.746794672051384e+000	 1.418170784423037e+000	 1.222751683581211e+001
 1.904164788017406e+000	 1.244902188946530e+000	 1.237228027331606e+001
 1.891303697650032e+000	 1.264355694902035e+000	 1.234831295835011e+001
 1.878230588992809e+000	 1.283695779597362e+000	 1.233467024420390e+001
 1.864946922627249e+000	 1.302919021189603e+000	 1.232419002143336e+001
 1.851454232009386e+000	 1.322022022048363e+000	 1.231295317953450e+001
 1.837754122992348e+000	 1.341001410679438e+000	 1.229843548366390e+001
 1.823848273288425e+000	 1.359853843638046e+000	 1.228058679323026e+001
 1.809738431870839e+000	 1.378576007429416e+000	 1.225935902703900e+001
 1.795426418315558e+000	 1.397164620394503e+000	 1.223470627792404e+001
 1.780914122083544e+000	 1.415616434578662e+000	 1.220658492457645e+001
 1.766203501743962e+000	 1.433928237581068e+000	 1.217495374026938e+001
 1.925089675802090e+000	 1.258582432778837e+000	 1.233376370112136e+001
 1.912087254771367e+000	 1.278249713524880e+000	 1.232245781191397e+001
 1.898870485579421e+000	 1.297802326623310e+000	 1.230649285506972e+001
 1.885440844858115e+000	 1.317236812628554e+000	 1.228585001054975e+001
 1.871799882914645e+000	 1.336549736573617e+000	 1.226343815518472e+001
 1.857949223248877e+000	 1.355737689914908e+000	 1.224721837093279e+001
 1.843890562009499e+000	 1.374797292466495e+000	 1.222834545532367e+001
 1.829625667389222e+000	 1.393725194321577e+000	 1.220678724684960e+001
 1.815156378959350e+000	 1.412518077758921e+000	 1.218251324851186e+001
 1.800484606944155e+000	 1.431172659132072e+000	 1.215549472270855e+001
 1.785612331435539e+000	 1.449685690739098e+000	 1.212570478358170e+001
 1.946014563585775e+000	 1.272262676611648e+000	 1.230901219194478e+001
 1.932870811891701e+000	 1.292143732148131e+000	 1.229539791888332e+001
 1.919510382165034e+000	 1.311908873649581e+000	 1.227766791640870e+001
 1.905934767087982e+000	 1.331554604067751e+000	 1.225582261639148e+001
 1.892145533818904e+000	 1.351077451099052e+000	 1.222986533822803e+001
 1.878144323504406e+000	 1.370473969150504e+000	 1.219980227890006e+001
 1.863932850729574e+000	 1.389740741295026e+000	 1.217731495837569e+001
 1.849512902906604e+000	 1.408874381213783e+000	 1.215593220026607e+001
 1.834886339602143e+000	 1.427871535123359e+000	 1.213253128033060e+001
 1.820055091803766e+000	 1.446728883685488e+000	 1.210709803551993e+001
 1.805021161126117e+000	 1.465443143897129e+000	 1.207961961924598e+001
 1.966939451368459e+000	 1.285942920444961e+000	 1.228247941254504e+001
 1.953654369011035e+000	 1.306037750771791e+000	 1.226710542972544e+001
 1.940150278749647e+000	 1.326015420676173e+000	 1.224814914025704e+001
 1.926428689316847e+000	 1.345872395507195e+000	 1.222562996607795e+001
 1.912491184722163e+000	 1.365605165624668e+000	 1.219956984552445e+001
 1.898339423758935e+000	 1.385210248386226e+000	 1.216999320069118e+001
 1.883975139448649e+000	 1.404684190123637e+000	 1.213692690049248e+001
 1.869400138422987e+000	 1.424023568106036e+000	 1.210669701045940e+001
 1.854616300243935e+000	 1.443224992487817e+000	 1.208464821267560e+001
 1.839625576662378e+000	 1.462285108238908e+000	 1.206126779812497e+001
 1.824429990815695e+000	 1.481200597055160e+000	 1.203655666522394e+001
 1.987864339150143e+000	 1.299623164278777e+000	 1.225415743505803e+001
 1.974437926129370e+000	 1.319931769395858e+000	 1.223755443729545e+001
 1.960790175333260e+000	 1.340121967703088e+000	 1.221789295022952e+001
 1.946922611544713e+000	 1.360190186946887e+000	 1.219521113360503e+001
 1.932836835624422e+000	 1.380132880150467e+000	 1.216954929833764e+001
 1.918534524012464e+000	 1.399946527622075e+000	 1.214094985140802e+001
 1.904017428166724e+000	 1.419627638952329e+000	 1.210945723677530e+001
 1.889287373938369e+000	 1.439172754998333e+000	 1.207511787241285e+001
 1.874346260884727e+000	 1.458578449852296e+000	 1.203875888905801e+001
 1.859196061519989e+000	 1.477841332792333e+000	 1.201788460799848e+001
 1.843838820504272e+000	 1.496958050213191e+000	 1.199638264265448e+001
 2.008789226930828e+000	 1.313303408113096e+000	 1.222403943016232e+001
 1.995221483246704e+000	 1.333825788020332e+000	 1.220672087567033e+001
 1.981430071915873e+000	 1.354228514730326e+000	 1.218685834029147e+001
 1.967416533771579e+000	 1.374507978386825e+000	 1.216450847851029e+001
 1.953182486525680e+000	 1.394660594676446e+000	 1.213972973650920e+001
 1.938729624264992e+000	 1.414682806858050e+000	 1.211258227482070e+001
 1.924059716883799e+000	 1.434571087781102e+000	 1.208312788731027e+001
 1.909174609452752e+000	 1.454321941890676e+000	 1.205142991663303e+001
 1.894076221524519e+000	 1.473931907216794e+000	 1.201755316631847e+001
 1.878766546376600e+000	 1.493397557345764e+000	 1.198156380964860e+001
 1.863247650191850e+000	 1.512715503371221e+000	 1.195897214339670e+001
 2.029714114710512e+000	 1.326983651947917e+000	 1.219211961045317e+001
 2.016005040363038e+000	 1.347719806645214e+000	 1.217458242524048e+001
 2.002069968497485e+000	 1.368335061757886e+000	 1.215500674226638e+001
 1.987910455997445e+000	 1.388825769827011e+000	 1.213346747651531e+001
 1.973528137425939e+000	 1.409188309202607e+000	 1.211004098081123e+001
 1.958924724516521e+000	 1.429419086094151e+000	 1.208480494644378e+001
 1.944102005599874e+000	 1.449514536609956e+000	 1.205783830042937e+001
 1.929061844966134e+000	 1.469471128783065e+000	 1.202922109959063e+001
 1.913806182163312e+000	 1.489285364581314e+000	 1.199903442164763e+001
 1.898337031232211e+000	 1.508953781899199e+000	 1.196736025352527e+001
 1.882656479878427e+000	 1.528472956529252e+000	 1.193428137709040e+001
 2.050639002489196e+000	 1.340663895783240e+000	 1.215839317728368e+001
 2.036788597478372e+000	 1.361613825270504e+000	 1.214111842361220e+001
 2.022709865078098e+000	 1.382441608785768e+000	 1.212230190145552e+001
 2.008404378222311e+000	 1.403143561267443e+000	 1.210203656053658e+001
 1.993873788325197e+000	 1.423716023728950e+000	 1.208041644004148e+001
 1.979119824767050e+000	 1.444155365330379e+000	 1.205753654742668e+001
 1.964144294314947e+000	 1.464457985438890e+000	 1.203349273415912e+001
 1.948949080478517e+000	 1.484620315675500e+000	 1.200838156861213e+001
 1.933536142801104e+000	 1.504638821945853e+000	 1.198230020634960e+001
 1.917907516086823e+000	 1.524510006452640e+000	 1.195534625804180e+001
 1.902065309564005e+000	 1.544230409687283e+000	 1.192761765526417e+001
 2.071563890266881e+000	 1.354344139619067e+000	 1.212285627082736e+001
 2.057572154592707e+000	 1.375507843896201e+000	 1.210630978190980e+001
 2.043349761657711e+000	 1.396548155813973e+000	 1.208870975979554e+001
 2.028898300446177e+000	 1.417461352708123e+000	 1.207016697133233e+001
 2.014219439223457e+000	 1.438243738255475e+000	 1.205079292981006e+001
 1.999314925016579e+000	 1.458891644566733e+000	 1.203069975214798e+001
 1.984186583029022e+000	 1.479401434267905e+000	 1.201000001330674e+001
 1.968836315989899e+000	 1.499769502567979e+000	 1.198880659818658e+001
 1.953266103437896e+000	 1.519992279310412e+000	 1.196723255128362e+001
 1.937478000940434e+000	 1.540066231006086e+000	 1.194539092438509e+001
 1.921474139248582e+000	 1.559987862845314e+000	 1.192339462259408e+001
 2.092488778043565e+000	 1.368024383455396e+000	 1.208550592313717e+001
 2.078355711706041e+000	 1.389401862522306e+000	 1.207013890609983e+001
 2.063989658236324e+000	 1.410654702842501e+000	 1.205419834602669e+001
 2.049392222669044e+000	 1.431779144149050e+000	 1.203781261711037e+001
 2.034565090120716e+000	 1.452771452782182e+000	 1.202111050219879e+001
 2.019510025265108e+000	 1.473627923803213e+000	 1.200422102855394e+001
 2.004228871742098e+000	 1.494344883097002e+000	 1.198727330112110e+001
 1.988723551500282e+000	 1.514918689460505e+000	 1.197039633360765e+001
 1.972996064073689e+000	 1.535345736674993e+000	 1.195371887768297e+001
 1.957048485793046e+000	 1.555622455559538e+000	 1.193736925061764e+001
 1.940882968932161e+000	 1.575745316003345e+000	 1.192147516169031e+001
 1.746794672051384e+000	 1.418170784423037e+000	 1.222751683581211e+001
 1.732051566727472e+000	 1.436139746095164e+000	 1.216411538637603e+001
 1.717116392458020e+000	 1.453963993669085e+000	 1.210263007135091e+001
 1.701991286151559e+000	 1.471640466286814e+000	 1.204319612510989e+001
 1.686678449421499e+000	 1.489166145337068e+000	 1.198594655160792e+001
 1.671180147536507e+000	 1.506538056157541e+000	 1.193101202446480e+001
 1.655498708317337e+000	 1.523753269705680e+000	 1.187852078878342e+001
 1.639636520981247e+000	 1.540808904196010e+000	 1.182859856479327e+001
 1.623596034935177e+000	 1.557702126702076e+000	 1.178136845340936e+001
 1.607379758518973e+000	 1.574430154721170e+000	 1.173695084379508e+001
 1.590990257700000e+000	 1.590990257700000e+000	 1.169546332301747e+001
 1.766203501743962e+000	 1.433928237581068e+000	 1.217495374026938e+001
 1.751296584138190e+000	 1.452096854383105e+000	 1.211851475689320e+001
 1.736195463487515e+000	 1.470119149152507e+000	 1.206335728269942e+001
 1.720902300443896e+000	 1.487992027021754e+000	 1.200959851341098e+001
 1.705419321083115e+000	 1.505712435839437e+000	 1.195735406654885e+001
 1.689748815843492e+000	 1.523277367891449e+000	 1.190673790299376e+001
 1.673893138410455e+000	 1.540683861590319e+000	 1.185786224938003e+001
 1.657854704548121e+000	 1.557929003130732e+000	 1.181083752137205e+001
 1.641635990879061e+000	 1.575009928109272e+000	 1.176577224787489e+001
 1.625239533613567e+000	 1.591923823106536e+000	 1.172277299623247e+001
 1.608667927229750e+000	 1.608667927229750e+000	 1.168194429846807e+001
 1.785612331435539e+000	 1.449685690739098e+000	 1.212570478358170e+001
 1.770541601547911e+000	 1.468053962671041e+000	 1.207564764734459e+001
 1.755274534516028e+000	 1.486274304635909e+000	 1.202625428816284e+001
 1.739813314735277e+000	 1.504343587756648e+000	 1.197762411267958e+001
 1.724160192743812e+000	 1.522258726341727e+000	 1.192985559207484e+001
 1.708317484149602e+000	 1.540016679625232e+000	 1.188304620491237e+001
 1.692287568502753e+000	 1.557614453474778e+000	 1.183729237992492e+001
 1.676072888114239e+000	 1.575049102065208e+000	 1.179268943874937e+001
 1.659675946822266e+000	 1.592317729516148e+000	 1.174933153862569e+001
 1.643099308707566e+000	 1.609417491491496e+000	 1.170731161507720e+001
 1.626345596759000e+000	 1.626345596759000e+000	 1.166672132459349e+001
 1.805021161126117e+000	 1.465443143897129e+000	 1.207961961924598e+001
 1.789786618956639e+000	 1.484011070958972e+000	 1.203538290489492e+001
 1.774353605543562e+000	 1.502429460119290e+000	 1.199120857866139e+001
 1.758724329025703e+000	 1.520695148491498e+000	 1.194717849746298e+001
 1.742901064403588e+000	 1.538805016843938e+000	 1.190337421636698e+001
 1.726886152454837e+000	 1.556755991358891e+000	 1.185987695253811e+001
 1.710681998594231e+000	 1.574545045359056e+000	 1.181676754824123e+001
 1.694291071679603e+000	 1.592169200999440e+000	 1.177412643287026e+001
 1.677715902764791e+000	 1.609625530922704e+000	 1.173203358398039e+001
 1.660959083800970e+000	 1.626911159876052e+000	 1.169056848730570e+001
 1.644023266287750e+000	 1.644023266287750e+000	 1.164981009574982e+001
 1.824429990815695e+000	 1.481200597055160e+000	 1.203655666522394e+001
 1.809031636364370e+000	 1.499968179246898e+000	 1.199759735322377e+001
 1.793432676570115e+000	 1.518584615602651e+000	 1.195811485596295e+001
 1.777635343315174e+000	 1.537046709226303e+000	 1.191817371017078e+001
 1.761641936062444e+000	 1.555351307346068e+000	 1.187783877554988e+001
 1.745454820759197e+000	 1.573495303092425e+000	 1.183717521965105e+001
 1.729076428684889e+000	 1.591475637243156e+000	 1.179624850092811e+001
 1.712509255244211e+000	 1.609289299933426e+000	 1.175512434990490e+001
 1.695755858706635e+000	 1.626933332328940e+000	 1.171386874839423e+001
 1.678818858893778e+000	 1.644404828260203e+000	 1.167254790671584e+001
 1.661700935816000e+000	 1.661700935816000e+000	 1.163122823886775e+001
 1.843838820504272e+000	 1.496958050213191e+000	 1.199638264265448e+001
 1.828276653771107e+000	 1.515925287534819e+000	 1.196217537270912e+001
 1.812511747595690e+000	 1.534739771085994e+000	 1.192687465316500e+001
 1.796546357603691e+000	 1.553398269961063e+000	 1.189052792066103e+001
 1.780382807720380e+000	 1.571897597848118e+000	 1.185318355116834e+001
 1.764023489062681e+000	 1.590234614825835e+000	 1.181489086562736e+001
 1.747470858774727e+000	 1.608406229127074e+000	 1.177570013289869e+001
 1.730727438808065e+000	 1.626409398867167e+000	 1.173566256992097e+001
 1.713795814647800e+000	 1.644241133734857e+000	 1.169483033897828e+001
 1.696678633985992e+000	 1.661898496643949e+000	 1.165325654198900e+001
 1.679378605343750e+000	 1.679378605343750e+000	 1.161099521173819e+001
 1.863247650191850e+000	 1.512715503371221e+000	 1.195897214339670e+001
 1.847521671176849e+000	 1.531882395822735e+000	 1.192900850684934e+001
 1.831590818620283e+000	 1.550894926569315e+000	 1.189739597889597e+001
 1.815457371891252e+000	 1.569749830695778e+000	 1.186416510710227e+001
 1.799123679377395e+000	 1.588443888350088e+000	 1.182934798657174e+001
 1.782592157365291e+000	 1.606973926559119e+000	 1.179297828618959e+001
 1.765865288863745e+000	 1.625336821010814e+000	 1.175509127132215e+001
 1.748945622371163e+000	 1.643529497800664e+000	 1.171572382282655e+001
 1.731835770588284e+000	 1.661548935140453e+000	 1.167491445223605e+001
 1.714538409077612e+000	 1.679392165027290e+000	 1.163270331299817e+001
 1.697056274871000e+000	 1.697056274871000e+000	 1.158913220765493e+001
 1.882656479878427e+000	 1.528472956529252e+000	 1.193428137709040e+001
 1.866766688581596e+000	 1.547839504110645e+000	 1.189799509303001e+001
 1.850669889643896e+000	 1.567050082052617e+000	 1.186959298352517e+001
 1.834368386177858e+000	 1.586101391430449e+000	 1.183901475657616e+001
 1.817864551033491e+000	 1.604990178851979e+000	 1.180627642084161e+001
 1.801160825667026e+000	 1.623713238292278e+000	 1.177139617957432e+001
 1.784259718951942e+000	 1.642267412894373e+000	 1.173439447293004e+001
 1.767163805933506e+000	 1.660649596733916e+000	 1.169529401569786e+001
 1.749875726528089e+000	 1.678856736545729e+000	 1.165411983028047e+001
 1.732398184168636e+000	 1.696885833410226e+000	 1.161089927476714e+001
 1.714733944397750e+000	 1.714733944397750e+000	 1.156566206595570e+001
 1.902065309564005e+000	 1.544230409687283e+000	 1.192761765526417e+001
 1.886011705985348e+000	 1.563796612398551e+000	 1.188416022107581e+001
 1.869748960666530e+000	 1.583205237535899e+000	 1.184338564580854e+001
 1.853279400463509e+000	 1.602452952165073e+000	 1.181501158401030e+001
 1.836605422688667e+000	 1.621536469353789e+000	 1.178391783900937e+001
 1.819729493967885e+000	 1.640452550025312e+000	 1.175010732701624e+001
 1.802654149039319e+000	 1.659198004777752e+000	 1.171358583373262e+001
 1.785381989495094e+000	 1.677769695666923e+000	 1.167436207067883e+001
 1.767915682467214e+000	 1.696164537950685e+000	 1.163244772585365e+001
 1.750257959259064e+000	 1.714379501792757e+000	 1.158785750853433e+001
 1.732411613923999e+000	 1.732411613923999e+000	 1.154060918804036e+001
 1.921474139248582e+000	 1.559987862845314e+000	 1.192339462259408e+001
 1.905256723388105e+000	 1.579753720686452e+000	 1.188359529597871e+001
 1.888828031688184e+000	 1.599360393019160e+000	 1.183843247974078e+001
 1.872190414748205e+000	 1.618804512899654e+000	 1.179209526814586e+001
 1.855346294342923e+000	 1.638082759855520e+000	 1.176222563741236e+001
 1.838298162267870e+000	 1.657191861758221e+000	 1.172907838653597e+001
 1.821048579125877e+000	 1.676128596660951e+000	 1.169264481026719e+001
 1.803600173055928e+000	 1.694889794599684e+000	 1.165291977270501e+001
 1.785955638405658e+000	 1.713472339355322e+000	 1.160990177552770e+001
 1.768117734348898e+000	 1.731873170174883e+000	 1.156359301941856e+001
 1.750089283449750e+000	 1.750089283449750e+000	 1.151399945847889e+001
 1.940882968932161e+000	 1.575745316003345e+000	 1.192147516169031e+001
 1.924501740789867e+000	 1.595710828974349e+000	 1.188487597918119e+001
 1.907907102708858e+000	 1.615515548502403e+000	 1.184237736439359e+001
 1.891101429031947e+000	 1.635156073634189e+000	 1.179399837711957e+001
 1.874087165996259e+000	 1.654629050357171e+000	 1.174115740312864e+001
 1.856866830566979e+000	 1.673931173491006e+000	 1.170827969910090e+001
 1.839443009211615e+000	 1.693059188543971e+000	 1.167155405157193e+001
 1.821818356616007e+000	 1.712009893532202e+000	 1.163096162636397e+001
 1.803995594343423e+000	 1.730780140759638e+000	 1.158648788051279e+001
 1.785977509438138e+000	 1.749366838556605e+000	 1.153812264022520e+001
 1.767766952975000e+000	 1.767766952975000e+000	 1.148586017085286e+001
 1.590990257700000e+000	 1.590990257700000e+000	 1.169546332301747e+001
 1.574430154721170e+000	 1.607379758518973e+000	 1.162989213256057e+001
 1.557702126702076e+000	 1.623596034935176e+000	 1.156084265609019e+001
 1.540808904196010e+000	 1.639636520981247e+000	 1.148828011693196e+001
 1.523753269705680e+000	 1.655498708317338e+000	 1.141217337926723e+001
 1.506538056157540e+000	 1.671180147536507e+000	 1.133249501333529e+001
 1.489166145337068e+000	 1.686678449421500e+000	 1.124922135375568e+001
 1.471640466286814e+000	 1.701991286151559e+000	 1.116233255083776e+001
 1.453963993669085e+000	 1.717116392458020e+000	 1.107181261476427e+001
 1.436139746095164e+000	 1.732051566727472e+000	 1.097764945255558e+001
 1.418170784423037e+000	 1.746794672051384e+000	 1.087983489774076e+001
 1.608667927229750e+000	 1.608667927229750e+000	 1.168194429846807e+001
 1.591923823106535e+000	 1.625239533613567e+000	 1.161244905989818e+001
 1.575009928109272e+000	 1.641635990879061e+000	 1.154073564175904e+001
 1.557929003130731e+000	 1.657854704548121e+000	 1.146679008330148e+001
 1.540683861590319e+000	 1.673893138410455e+000	 1.139060092088094e+001
 1.523277367891449e+000	 1.689748815843492e+000	 1.131215923415023e+001
 1.505712435839437e+000	 1.705419321083115e+000	 1.123145868686297e+001
 1.487992027021754e+000	 1.720902300443896e+000	 1.114849556218091e+001
 1.470119149152507e+000	 1.736195463487515e+000	 1.106326879239473e+001
 1.452096854383105e+000	 1.751296584138189e+000	 1.097577998298400e+001
 1.433928237581068e+000	 1.766203501743962e+000	 1.088603343096001e+001
 1.626345596759000e+000	 1.626345596759000e+000	 1.166672132459349e+001
 1.609417491491496e+000	 1.643099308707566e+000	 1.159406607588305e+001
 1.592317729516148e+000	 1.659675946822266e+000	 1.152042744013004e+001
 1.575049102065208e+000	 1.676072888114239e+000	 1.144581188951545e+001
 1.557614453474778e+000	 1.692287568502753e+000	 1.137022726769040e+001
 1.540016679625233e+000	 1.708317484149602e+000	 1.129368281729749e+001
 1.522258726341728e+000	 1.724160192743811e+000	 1.121618920356930e+001
 1.504343587756648e+000	 1.739813314735276e+000	 1.113775853392199e+001
 1.486274304635908e+000	 1.755274534516028e+000	 1.105840437347623e+001
 1.468053962671041e+000	 1.770541601547911e+000	 1.097814175645052e+001
 1.449685690739099e+000	 1.785612331435539e+000	 1.089698719338677e+001
 1.644023266287750e+000	 1.644023266287750e+000	 1.164981009574982e+001
 1.626911159876052e+000	 1.660959083800970e+000	 1.157473455154323e+001
 1.609625530922704e+000	 1.677715902764791e+000	 1.149988589132755e+001
 1.592169200999439e+000	 1.694291071679603e+000	 1.142529064801920e+001
 1.574545045359056e+000	 1.710681998594231e+000	 1.135097561798020e+001
 1.556755991358892e+000	 1.726886152454837e+000	 1.127696787019823e+001
 1.538805016843937e+000	 1.742901064403588e+000	 1.120329475298534e+001
 1.520695148491499e+000	 1.758724329025703e+000	 1.112998389813968e+001
 1.502429460119290e+000	 1.774353605543562e+000	 1.105706322252267e+001
 1.484011070958972e+000	 1.789786618956639e+000	 1.098456092701740e+001
 1.465443143897129e+000	 1.805021161126117e+000	 1.091250549284253e+001
 1.661700935816000e+000	 1.661700935816000e+000	 1.163122823886775e+001
 1.644404828260203e+000	 1.678818858893778e+000	 1.155444884167912e+001
 1.626933332328940e+000	 1.695755858706635e+000	 1.147908283530806e+001
 1.609289299933426e+000	 1.712509255244212e+000	 1.140517645153019e+001
 1.591475637243155e+000	 1.729076428684889e+000	 1.133277509466920e+001
 1.573495303092426e+000	 1.745454820759197e+000	 1.126192333275654e+001
 1.555351307346068e+000	 1.761641936062443e+000	 1.119266488762937e+001
 1.537046709226303e+000	 1.777635343315174e+000	 1.112504262393376e+001
 1.518584615602652e+000	 1.793432676570116e+000	 1.105909853700936e+001
 1.499968179246898e+000	 1.809031636364370e+000	 1.099487373963765e+001
 1.481200597055160e+000	 1.824429990815695e+000	 1.093240844764542e+001
 1.679378605343750e+000	 1.679378605343750e+000	 1.161099521173819e+001
 1.661898496643949e+000	 1.696678633985992e+000	 1.153320612782281e+001
 1.644241133734857e+000	 1.713795814647799e+000	 1.145799390134258e+001
 1.626409398867167e+000	 1.730727438808065e+000	 1.138542411091857e+001
 1.608406229127074e+000	 1.747470858774727e+000	 1.131556043348752e+001
 1.590234614825835e+000	 1.764023489062681e+000	 1.124846461775536e+001
 1.571897597848118e+000	 1.780382807720380e+000	 1.118419645798474e+001
 1.553398269961063e+000	 1.796546357603691e+000	 1.112281376810832e+001
 1.534739771085993e+000	 1.812511747595689e+000	 1.106437235616432e+001
 1.515925287534819e+000	 1.828276653771107e+000	 1.100892599905531e+001
 1.496958050213191e+000	 1.843838820504272e+000	 1.095652641763664e+001
 1.697056274871000e+000	 1.697056274871000e+000	 1.158913220765493e+001
 1.679392165027290e+000	 1.714538409077612e+000	 1.151100627101246e+001
 1.661548935140453e+000	 1.731835770588284e+000	 1.143659831065665e+001
 1.643529497800664e+000	 1.748945622371163e+000	 1.136599290946994e+001
 1.625336821010814e+000	 1.765865288863745e+000	 1.129927169064276e+001
 1.606973926559118e+000	 1.782592157365291e+000	 1.123651327372699e+001
 1.588443888350088e+000	 1.799123679377395e+000	 1.117779323239758e+001
 1.569749830695779e+000	 1.815457371891252e+000	 1.112318405393713e+001
 1.550894926569315e+000	 1.831590818620283e+000	 1.107275510046061e+001
 1.531882395822735e+000	 1.847521671176849e+000	 1.102657257189979e+001
 1.512715503371221e+000	 1.863247650191850e+000	 1.098469947076778e+001
 1.714733944397750e+000	 1.714733944397750e+000	 1.156566206595570e+001
 1.696885833410226e+000	 1.732398184168635e+000	 1.148785167367345e+001
 1.678856736545729e+000	 1.749875726528089e+000	 1.141487869127801e+001
 1.660649596733915e+000	 1.767163805933506e+000	 1.134684637234859e+001
 1.642267412894373e+000	 1.784259718951942e+000	 1.128385396856845e+001
 1.623713238292277e+000	 1.801160825667026e+000	 1.122599666867761e+001
 1.604990178851979e+000	 1.817864551033491e+000	 1.117336554048602e+001
 1.586101391430448e+000	 1.834368386177858e+000	 1.112604747598473e+001
 1.567050082052617e+000	 1.850669889643897e+000	 1.108412513959317e+001
 1.547839504110645e+000	 1.866766688581596e+000	 1.104767691957838e+001
 1.528472956529252e+000	 1.882656479878427e+000	 1.098047609542196e+001
 1.732411613923999e+000	 1.732411613923999e+000	 1.154060918804036e+001
 1.714379501792757e+000	 1.750257959259064e+000	 1.146374714995577e+001
 1.696164537950685e+000	 1.767915682467214e+000	 1.139282090422002e+001
 1.677769695666923e+000	 1.785381989495095e+000	 1.132795205017496e+001
 1.659198004777752e+000	 1.802654149039319e+000	 1.126925715846361e+001
 1.640452550025312e+000	 1.819729493967885e+000	 1.121684769317528e+001
 1.621536469353789e+000	 1.836605422688667e+000	 1.117082993838119e+001
 1.602452952165073e+000	 1.853279400463509e+000	 1.113130492912237e+001
 1.583205237535899e+000	 1.869748960666530e+000	 1.109836838690637e+001
 1.563796612398551e+000	 1.886011705985348e+000	 1.102073037612374e+001
 1.544230409687283e+000	 1.902065309564005e+000	 1.092532641224443e+001
 1.750089283449750e+000	 1.750089283449750e+000	 1.151399945847889e+001
 1.731873170174883e+000	 1.768117734348898e+000	 1.143869980392969e+001
 1.713472339355322e+000	 1.785955638405657e+000	 1.137041388019980e+001
 1.694889794599684e+000	 1.803600173055928e+000	 1.130928131571985e+001
 1.676128596660951e+000	 1.821048579125876e+000	 1.125543569843589e+001
 1.657191861758222e+000	 1.838298162267869e+000	 1.120900448143256e+001
 1.638082759855519e+000	 1.855346294342923e+000	 1.117010889425707e+001
 1.618804512899654e+000	 1.872190414748205e+000	 1.113886386002745e+001
 1.599360393019160e+000	 1.888828031688184e+000	 1.105195579892248e+001
 1.579753720686452e+000	 1.905256723388104e+000	 1.095977688322888e+001
 1.559987862845314e+000	 1.921474139248582e+000	 1.087529795830093e+001
 1.767766952975000e+000	 1.767766952975000e+000	 1.148586017085286e+001
 1.749366838556605e+000	 1.785977509438138e+000	 1.141271891508979e+001
 1.730780140759639e+000	 1.803995594343423e+000	 1.134764946615283e+001
 1.712009893532202e+000	 1.821818356616006e+000	 1.129080917279698e+001
 1.693059188543972e+000	 1.839443009211615e+000	 1.124234834615611e+001
 1.673931173491006e+000	 1.856866830566979e+000	 1.120241014912443e+001
 1.654629050357171e+000	 1.874087165996259e+000	 1.117113049272824e+001
 1.635156073634190e+000	 1.891101429031947e+000	 1.107613908375955e+001
 1.615515548502402e+000	 1.907907102708858e+000	 1.098548543055491e+001
 1.595710828974349e+000	 1.924501740789867e+000	 1.090346135259951e+001
 1.575745316003345e+000	 1.940882968932160e+000	 1.083028160538359e+001
 1.418170784423037e+000	 1.746794672051384e+000	 1.087983489774076e+001
 1.400060210025256e+000	 1.761343637221932e+000	 1.077456873956311e+001
 1.381811163030106e+000	 1.775696457670766e+000	 1.067531450396069e+001
 1.363426820537300e+000	 1.789851196351457e+000	 1.058216562513491e+001
 1.344910394809678e+000	 1.803805984566350e+000	 1.049520992261454e+001
 1.326265131444094e+000	 1.817559022734820e+000	 1.041452954964391e+001
 1.307494307523293e+000	 1.831108581103128e+000	 1.034020094727724e+001
 1.288601229750900e+000	 1.844453000395384e+000	 1.027229480422162e+001
 1.269589232571736e+000	 1.857590692405196e+000	 1.021087602246339e+001
 1.250461676279598e+000	 1.870520140527698e+000	 1.015600368870599e+001
 1.231221945114724e+000	 1.883239900231722e+000	 1.004203290030643e+001
 1.433928237581068e+000	 1.766203501743962e+000	 1.088603343096001e+001
 1.415616434578662e+000	 1.780914122083543e+000	 1.079293095307806e+001
 1.397164620394504e+000	 1.795426418315558e+000	 1.070527919091068e+001
 1.378576007429416e+000	 1.809738431870839e+000	 1.062316244471114e+001
 1.359853843638046e+000	 1.823848273288425e+000	 1.054666004798364e+001
 1.341001410679438e+000	 1.837754122992348e+000	 1.047584632130307e+001
 1.322022022048364e+000	 1.851454232009386e+000	 1.041079053086537e+001
 1.302919021189604e+000	 1.864946922627249e+000	 1.035155685181009e+001
 1.283695779597362e+000	 1.878230588992809e+000	 1.028157553002791e+001
 1.264355694902035e+000	 1.891303697650033e+000	 1.016659089940351e+001
 1.244902188946530e+000	 1.904164788017406e+000	 1.005174177117740e+001
 1.449685690739099e+000	 1.785612331435539e+000	 1.089698719338677e+001
 1.431172659132072e+000	 1.800484606944155e+000	 1.081573651738496e+001
 1.412518077758921e+000	 1.815156378959350e+000	 1.073939030231499e+001
 1.393725194321577e+000	 1.829625667389222e+000	 1.066802381159520e+001
 1.374797292466496e+000	 1.843890562009499e+000	 1.060170798147272e+001
 1.355737689914908e+000	 1.857949223248877e+000	 1.054050938023458e+001
 1.336549736573617e+000	 1.871799882914645e+000	 1.048449017118235e+001
 1.317236812628554e+000	 1.885440844858115e+000	 1.038046076877316e+001
 1.297802326623310e+000	 1.898870485579421e+000	 1.026602009291707e+001
 1.278249713524879e+000	 1.912087254771366e+000	 1.015754835892378e+001
 1.258582432778837e+000	 1.925089675802090e+000	 1.005516593234537e+001
 1.465443143897129e+000	 1.805021161126117e+000	 1.091250549284253e+001
 1.446728883685487e+000	 1.820055091803766e+000	 1.084280482227685e+001
 1.427871535123359e+000	 1.834886339602142e+000	 1.077747679166922e+001
 1.408874381213783e+000	 1.849512902906605e+000	 1.071658772089347e+001
 1.389740741295026e+000	 1.863932850729574e+000	 1.066020023424668e+001
 1.370473969150504e+000	 1.878144323504406e+000	 1.059256968417928e+001
 1.351077451099052e+000	 1.892145533818904e+000	 1.047459301901359e+001
 1.331554604067751e+000	 1.905934767087982e+000	 1.036175782839514e+001
 1.311908873649580e+000	 1.919510382165034e+000	 1.025419290843431e+001
 1.292143732148131e+000	 1.932870811891701e+000	 1.015202226089689e+001
 1.272262676611648e+000	 1.946014563585775e+000	 1.005536492246048e+001
 1.481200597055160e+000	 1.824429990815695e+000	 1.093240844764542e+001
 1.462285108238908e+000	 1.839625576662378e+000	 1.087396564021090e+001
 1.443224992487817e+000	 1.854616300243934e+000	 1.081937758779054e+001
 1.424023568106035e+000	 1.869400138422987e+000	 1.076870175633870e+001
 1.404684190123637e+000	 1.883975139448649e+000	 1.067739327004338e+001
 1.385210248386226e+000	 1.898339423758935e+000	 1.056272926307655e+001
 1.365605165624668e+000	 1.912491184722163e+000	 1.045252055110435e+001
 1.345872395507196e+000	 1.926428689316847e+000	 1.034689753056465e+001
 1.326015420676173e+000	 1.940150278749647e+000	 1.024598658840221e+001
 1.306037750771791e+000	 1.953654369011035e+000	 1.014990992085532e+001
 1.285942920444961e+000	 1.966939451368459e+000	 1.005878535770594e+001
 1.496958050213191e+000	 1.843838820504272e+000	 1.095652641763664e+001
 1.477841332792333e+000	 1.859196061519989e+000	 1.090905857985233e+001
 1.458578449852296e+000	 1.874346260884727e+000	 1.086494106980076e+001
 1.439172754998333e+000	 1.889287373938369e+000	 1.075409165816181e+001
 1.419627638952329e+000	 1.904017428166724e+000	 1.064370425118853e+001
 1.399946527622075e+000	 1.918534524012464e+000	 1.053710239324421e+001
 1.380132880150467e+000	 1.932836835624422e+000	 1.043441683152845e+001
 1.360190186946887e+000	 1.946922611544713e+000	 1.033577509300438e+001
 1.340121967703088e+000	 1.960790175333260e+000	 1.024130129461413e+001
 1.319931769395857e+000	 1.974437926129369e+000	 1.015111595772757e+001
 1.299623164278777e+000	 1.987864339150143e+000	 1.006533582724759e+001
 1.512715503371221e+000	 1.863247650191850e+000	 1.098469947076778e+001
 1.493397557345764e+000	 1.878766546376600e+000	 1.092980701976452e+001
 1.473931907216795e+000	 1.894076221524520e+000	 1.082161712859584e+001
 1.454321941890676e+000	 1.909174609452752e+000	 1.071642846090466e+001
 1.434571087781102e+000	 1.924059716883799e+000	 1.061437310448591e+001
 1.414682806858050e+000	 1.938729624264992e+000	 1.051558091735557e+001
 1.394660594676446e+000	 1.953182486525680e+000	 1.042017932881825e+001
 1.374507978386825e+000	 1.967416533771579e+000	 1.032829314304310e+001
 1.354228514730326e+000	 1.981430071915873e+000	 1.024004434560661e+001
 1.333825788020332e+000	 1.995221483246704e+000	 1.015555191345306e+001
 1.313303408113096e+000	 2.008789226930828e+000	 1.007493162871537e+001
 1.528472956529252e+000	 1.882656479878427e+000	 1.098047609542196e+001
 1.508953781899199e+000	 1.898337031232211e+000	 1.087899590835292e+001
 1.489285364581314e+000	 1.913806182163311e+000	 1.077988619188648e+001
 1.469471128783065e+000	 1.929061844966134e+000	 1.068327612099196e+001
 1.449514536609955e+000	 1.944102005599874e+000	 1.058929343585399e+001
 1.429419086094151e+000	 1.958924724516521e+000	 1.049806423957743e+001
 1.409188309202607e+000	 1.973528137425939e+000	 1.040971279708385e+001
 1.388825769827011e+000	 1.987910455997445e+000	 1.032436133567759e+001
 1.368335061757886e+000	 2.002069968497485e+000	 1.024212984775515e+001
 1.347719806645214e+000	 2.016005040363038e+000	 1.016313589612580e+001
 1.326983651947916e+000	 2.029714114710512e+000	 1.008749442240588e+001
 1.544230409687283e+000	 1.902065309564005e+000	 1.092532641224443e+001
 1.524510006452640e+000	 1.917907516086823e+000	 1.083313378533799e+001
 1.504638821945853e+000	 1.933536142801104e+000	 1.074282676206509e+001
 1.484620315675499e+000	 1.948949080478517e+000	 1.065452974914108e+001
 1.464457985438890e+000	 1.964144294314948e+000	 1.056836630575689e+001
 1.444155365330379e+000	 1.979119824767049e+000	 1.048445893977958e+001
 1.423716023728950e+000	 1.993873788325197e+000	 1.040292890429992e+001
 1.403143561267443e+000	 2.008404378222311e+000	 1.032389599501774e+001
 1.382441608785768e+000	 2.022709865078098e+000	 1.024747834895561e+001
 1.361613825270504e+000	 2.036788597478373e+000	 1.017379224498659e+001
 1.340663895783240e+000	 2.050639002489196e+000	 1.010295190665683e+001
 1.559987862845314e+000	 1.921474139248582e+000	 1.087529795830093e+001
 1.540066231006086e+000	 1.937478000940434e+000	 1.079211054448129e+001
 1.519992279310412e+000	 1.953266103437896e+000	 1.071033522665484e+001
 1.499769502567978e+000	 1.968836315989899e+000	 1.063009181493874e+001
 1.479401434267905e+000	 1.984186583029022e+000	 1.055149985271203e+001
 1.458891644566733e+000	 1.999314925016578e+000	 1.047467841112560e+001
 1.438243738255475e+000	 2.014219439223457e+000	 1.039974588312081e+001
 1.417461352708123e+000	 2.028898300446177e+000	 1.032681977746294e+001
 1.396548155813973e+000	 2.043349761657711e+000	 1.025601651329526e+001
 1.375507843896201e+000	 2.057572154592706e+000	 1.018745121571855e+001
 1.354344139619067e+000	 2.071563890266881e+000	 1.012123751289535e+001
 1.575745316003345e+000	 1.940882968932160e+000	 1.083028160538359e+001
 1.555622455559537e+000	 1.957048485793046e+000	 1.075582364939128e+001
 1.535345736674993e+000	 1.972996064073689e+000	 1.068231524603854e+001
 1.514918689460505e+000	 1.988723551500282e+000	 1.060987177889747e+001
 1.494344883097002e+000	 2.004228871742098e+000	 1.053860893938770e+001
 1.473627923803213e+000	 2.019510025265108e+000	 1.046864251940807e+001
 1.452771452782182e+000	 2.034565090120716e+000	 1.040008820264635e+001
 1.431779144149050e+000	 2.049392222669044e+000	 1.033306135508748e+001
 1.410654702842500e+000	 2.063989658236325e+000	 1.026767681524301e+001
 1.389401862522307e+000	 2.078355711706042e+000	 1.020404868462496e+001
 1.368024383455396e+000	 2.092488778043565e+000	 1.014229011898342e+001
 1.231221945114724e+000	 1.883239900231722e+000	 1.004203290030643e+001
 1.211873445353537e+000	 1.895748599471812e+000	 9.896181347713894e+000
 1.192419603391557e+000	 1.908044939040537e+000	 9.756771888297587e+000
 1.172863863822527e+000	 1.920127692860818e+000	 9.624031832266477e+000
 1.153209687516760e+000	 1.931995708218037e+000	 9.498180240153822e+000
 1.133460549699554e+000	 1.943647905932685e+000	 9.379427640032683e+000
 1.113619938032245e+000	 1.955083280473655e+000	 9.267975762395459e+000
 1.093691350697970e+000	 1.966300900012589e+000	 9.164017293101821e+000
 1.073678294494223e+000	 1.977299906419740e+000	 9.067735644745406e+000
 1.053584282934246e+000	 1.988079515201899e+000	 8.979304746737347e+000
 1.033412834359236e+000	 1.998639015383027e+000	 8.898888854352292e+000
 1.244902188946530e+000	 1.904164788017406e+000	 1.005174177117740e+001
 1.225338705854776e+000	 1.916812472804541e+000	 9.906782200713881e+000
 1.205668710093352e+000	 1.929245438368385e+000	 9.768692507689931e+000
 1.185895684529262e+000	 1.941462445008779e+000	 9.637698616413589e+000
 1.166023128486933e+000	 1.953462327203166e+000	 9.514017789286454e+000
 1.146054555805278e+000	 1.965243993781153e+000	 9.397858344729247e+000
 1.125993492897426e+000	 1.976806428039066e+000	 9.289419393442072e+000
 1.105843476815214e+000	 1.988148687794897e+000	 9.188890593398794e+000
 1.085608053320554e+000	 1.999269905384127e+000	 9.096451923921613e+000
 1.065290774965724e+000	 2.010169287596954e+000	 9.012273479124918e+000
 1.044895199184599e+000	 2.020846115557606e+000	 8.936515280966244e+000
 1.258582432778837e+000	 1.925089675802090e+000	 1.005516593234537e+001
 1.238803966356609e+000	 1.937876346136270e+000	 9.922347343557158e+000
 1.218917816795809e+000	 1.950445937695232e+000	 9.785228072320347e+000
 1.198927505236708e+000	 1.962797197155740e+000	 9.655632022257771e+000
 1.178836569457846e+000	 1.974928946187295e+000	 9.533774961013480e+000
 1.158648561911752e+000	 1.986840081628621e+000	 9.419863295449847e+000
 1.138367047763346e+000	 1.998529575603476e+000	 9.314093808959990e+000
 1.117995602933166e+000	 2.009996475576207e+000	 9.216653418194779e+000
 1.097537812147543e+000	 2.021239904347514e+000	 9.127718949543811e+000
 1.076997266997788e+000	 2.032259059991009e+000	 9.047456935654829e+000
 1.056377564010459e+000	 2.043053215731184e+000	 8.976023432218085e+000
 1.272262676611648e+000	 1.946014563585775e+000	 1.005536492246048e+001
 1.252269226859034e+000	 1.958940219467000e+000	 9.939745282478556e+000
 1.232166923498929e+000	 1.971646437021081e+000	 9.806199617036793e+000
 1.211959325944866e+000	 1.984131949301702e+000	 9.677659820902209e+000
 1.191650010429500e+000	 1.996395565170425e+000	 9.557286425959596e+000
 1.171242568018975e+000	 2.008436169475090e+000	 9.445284223295175e+000
 1.150740602630003e+000	 2.020252723166887e+000	 9.341847959050153e+000
 1.130147729051826e+000	 2.031844263356515e+000	 9.247162092567120e+000
 1.109467570975188e+000	 2.043209903309902e+000	 9.161400574979982e+000
 1.088703759030439e+000	 2.054348832384064e+000	 9.084726648524480e+000
 1.067859928836815e+000	 2.065260315903762e+000	 9.017292666788325e+000
 1.285942920444961e+000	 1.966939451368459e+000	 1.005878535770594e+001
 1.265734487362051e+000	 1.980004092796729e+000	 9.946263782632359e+000
 1.245416030202710e+000	 1.992846936345929e+000	 9.831434958130297e+000
 1.224991146653734e+000	 2.005466701446662e+000	 9.703616212851479e+000
 1.204463451401894e+000	 2.017862184152554e+000	 9.584392927255060e+000
 1.183836574126947e+000	 2.030032257320558e+000	 9.473968570307436e+000
 1.163114157497400e+000	 2.041975870729298e+000	 9.372536138709702e+000
 1.142299855171193e+000	 2.053692051135825e+000	 9.280277916153056e+000
 1.121397329803490e+000	 2.065179902271288e+000	 9.197365253720621e+000
 1.100410251063676e+000	 2.076438604776118e+000	 9.123958371708017e+000
 1.079342293663667e+000	 2.087467416075340e+000	 9.060206183072747e+000
 1.299623164278777e+000	 1.987864339150143e+000	 1.006533582724759e+001
 1.279199747865662e+000	 2.001067966125458e+000	 9.955656248124031e+000
 1.258665136907154e+000	 2.014047435669777e+000	 9.849603262155128e+000
 1.238022967363315e+000	 2.026801453590624e+000	 9.733341489622028e+000
 1.217276892375029e+000	 2.039328803133683e+000	 9.614940960930118e+000
 1.196430580235670e+000	 2.051628345165026e+000	 9.505769188894078e+000
 1.175487712365535e+000	 2.063699018290709e+000	 9.406017706521807e+000
 1.154451981291268e+000	 2.075539838914133e+000	 9.315866901330576e+000
 1.133327088632449e+000	 2.087149901231676e+000	 9.235485797267012e+000
 1.112116743097499e+000	 2.098528377167173e+000	 9.165031858757294e+000
 1.090824658491015e+000	 2.109674516245919e+000	 9.104650817092198e+000
 1.313303408113096e+000	 2.008789226930828e+000	 1.007493162871537e+001
 1.292665008369864e+000	 2.022131839453188e+000	 9.967843832031738e+000
 1.271914243612259e+000	 2.035247934992624e+000	 9.864656841342415e+000
 1.251054788073606e+000	 2.048136205733585e+000	 9.765407970727035e+000
 1.230090333348904e+000	 2.060795422113812e+000	 9.648782476284886e+000
 1.209024586345141e+000	 2.073224433008494e+000	 9.540544060038394e+000
 1.187861267234408e+000	 2.085422165851120e+000	 9.442156820927082e+000
 1.166604107412051e+000	 2.097387626691442e+000	 9.353799527763263e+000
 1.145256847462064e+000	 2.109119900191063e+000	 9.275639148151383e+000
 1.123823235131908e+000	 2.120618149557228e+000	 9.207830654490673e+000
 1.102307023318859e+000	 2.131881616415496e+000	 9.150516853032821e+000
 1.326983651947916e+000	 2.029714114710512e+000	 1.008749442240588e+001
 1.306130268874659e+000	 2.043195712779917e+000	 9.982753758990423e+000
 1.285163350318026e+000	 2.056448434314472e+000	 9.882185179314527e+000
 1.264086608784608e+000	 2.069470957875546e+000	 9.785820784315911e+000
 1.242903774323520e+000	 2.082262041092940e+000	 9.685774594792846e+000
 1.221618592455362e+000	 2.094820520850962e+000	 9.578156028939519e+000
 1.200234822104020e+000	 2.107145313410531e+000	 9.480822192808306e+000
 1.178756233533540e+000	 2.119235414467751e+000	 9.393950512127729e+000
 1.157186606292337e+000	 2.131089899149450e+000	 9.317706166997375e+000
 1.135529727166903e+000	 2.142707921946283e+000	 9.252241899566913e+000
 1.113789388147199e+000	 2.154088716584075e+000	 9.197697845505788e+000
 1.340663895783240e+000	 2.050639002489196e+000	 1.010295190665683e+001
 1.319595529380046e+000	 2.064259586105647e+000	 1.000031901541854e+001
 1.298412457024456e+000	 2.077648933635320e+000	 9.902126626017891e+000
 1.277118429496323e+000	 2.090805710016507e+000	 9.808401822200269e+000
 1.255717215298876e+000	 2.103728660071070e+000	 9.719168749329372e+000
 1.234212598566333e+000	 2.116416608692430e+000	 9.618472556838432e+000
 1.212608376974370e+000	 2.128868460968942e+000	 9.521886853223212e+000
 1.190908359655738e+000	 2.141083202243059e+000	 9.436198591939691e+000
 1.169116365123266e+000	 2.153059898106837e+000	 9.361571432617355e+000
 1.147236219202485e+000	 2.164797694334338e+000	 9.298156147023850e+000
 1.125271752976035e+000	 2.176295816751653e+000	 9.246090452688557e+000
 1.354344139619067e+000	 2.071563890266881e+000	 1.012123751289535e+001
 1.333060789886026e+000	 2.085323459430376e+000	 1.002047805851895e+001
 1.311661563731547e+000	 2.098849432955168e+000	 9.924424735872526e+000
 1.290150250208748e+000	 2.112140462156468e+000	 9.833099805550869e+000
 1.268530656274973e+000	 2.125195279048199e+000	 9.746522437775894e+000
 1.246806604678053e+000	 2.138012696532898e+000	 9.661365487884433e+000
 1.224981931845459e+000	 2.150591608526352e+000	 9.565227935213288e+000
 1.203060485778643e+000	 2.162930990017368e+000	 9.480426322481122e+000
 1.181046123954852e+000	 2.175029897063225e+000	 9.407123054224947e+000
 1.158942711238653e+000	 2.186887466721392e+000	 9.345467189936123e+000
 1.136754117805368e+000	 2.198502916918232e+000	 9.295594279579541e+000
 1.368024383455396e+000	 2.092488778043565e+000	 1.014229011898342e+001
 1.346526050392599e+000	 2.106387332754106e+000	 1.004317454273955e+001
 1.324910670439301e+000	 2.120049932274017e+000	 9.949028007548334e+000
 1.303182070921885e+000	 2.133475214295430e+000	 9.859868143119966e+000
 1.281344097251810e+000	 2.146661898024328e+000	 9.775709338060880e+000
 1.259400610790523e+000	 2.159608784372367e+000	 9.696562652879020e+000
 1.237355486717287e+000	 2.172314756082764e+000	 9.610726468705208e+000
 1.215212611902256e+000	 2.184778777790678e+000	 9.526519885911952e+000
 1.192975882787095e+000	 2.196999896018612e+000	 9.454252494915192e+000
 1.170649203275408e+000	 2.208977239107448e+000	 9.394071899413291e+000
 1.148236482635196e+000	 2.220710017083810e+000	 9.346111730656608e+000
 1.033412834359236e+000	 1.998639015383027e+000	 8.898888854352292e+000
 1.013167470062905e+000	 2.008977769327879e+000	 8.772972544573214e+000
 9.928517124315605e-001	 2.019095212510688e+000	 8.655041234881018e+000
 9.724690831009004e-001	 2.028990853228825e+000	 8.545188410003965e+000
 9.520231011303464e-001	 2.038664272261591e+000	 8.443498570491071e+000
 9.315172811979672e-001	 2.048115122476415e+000	 8.350047166768810e+000
 9.109551318173336e-001	 2.057343128383053e+000	 8.264900550354978e+000
 8.903401535779651e-001	 2.066348085636912e+000	 8.188115942101783e+000
 8.696758374109869e-001	 2.075129860492684e+000	 8.119741417299609e+000
 8.489656628815501e-001	 2.083688389209486e+000	 8.059815907429957e+000
 8.282130965095028e-001	 2.092023677408817e+000	 8.008369218315529e+000
 1.044895199184599e+000	 2.020846115557606e+000	 8.936515280966244e+000
 1.024424886396339e+000	 2.031299744546037e+000	 8.813221182253654e+000
 1.003883398124834e+000	 2.041529603764009e+000	 8.697330168851737e+000
 9.832742951350687e-001	 2.051535196045530e+000	 8.588933331699183e+000
 9.626011355871260e-001	 2.061316097511893e+000	 8.488113298431484e+000
 9.418674732110530e-001	 2.070871957173500e+000	 8.394944160623680e+000
 9.210768555039048e-001	 2.080202496479101e+000	 8.309491417776677e+000
 9.002328219506405e-001	 2.089307508813609e+000	 8.231811937939551e+000
 8.793389022705090e-001	 2.098186858945657e+000	 8.161953934819456e+000
 8.583986146904973e-001	 2.106840482426127e+000	 8.099956961184557e+000
 8.374154642473412e-001	 2.115268384938982e+000	 8.045851918330401e+000
 1.056377564010459e+000	 2.043053215731184e+000	 8.976023432218085e+000
 1.035682302730179e+000	 2.053621719763194e+000	 8.854937287715710e+000
 1.014915083818444e+000	 2.063963995016330e+000	 8.740697298174350e+000
 9.940795071695253e-001	 2.074079538861235e+000	 8.633392329462312e+000
 9.731791700441648e-001	 2.083967922761197e+000	 8.533103284636836e+000
 9.522176652243890e-001	 2.093628791869585e+000	 8.439903024381605e+000
 9.311985791907377e-001	 2.103061864574149e+000	 8.353856303803440e+000
 9.101254903236087e-001	 2.112266931989306e+000	 8.275019725500428e+000
 8.890019671303754e-001	 2.121243857397628e+000	 8.203441708769777e+000
 8.678315664998596e-001	 2.129992575641768e+000	 8.139162474782715e+000
 8.466178319856844e-001	 2.138513092468148e+000	 8.082214047512510e+000
 1.067859928836815e+000	 2.065260315903762e+000	 9.017292666788325e+000
 1.046939719064425e+000	 2.075943694979352e+000	 8.898010917885186e+000
 1.025946769512391e+000	 2.086398386267651e+000	 8.785042827683144e+000
 1.004884719204270e+000	 2.096623881675941e+000	 8.678475204967882e+000
 9.837572045014625e-001	 2.106619748009500e+000	 8.578387376131492e+000
 9.625678572379757e-001	 2.116385626564670e+000	 8.484851098810795e+000
 9.413203028778324e-001	 2.125921232668197e+000	 8.397930491528930e+000
 9.200181586968702e-001	 2.135226355164004e+000	 8.317681979270528e+000
 8.986650319905858e-001	 2.144300855848600e+000	 8.244154254877728e+000
 8.772645183096365e-001	 2.153144668856409e+000	 8.177388256112023e+000
 8.558201997245326e-001	 2.161757799996312e+000	 8.117417158186456e+000
 1.079342293663667e+000	 2.087467416075340e+000	 9.060206183072747e+000
 1.058197135399078e+000	 2.098265670194510e+000	 8.942335467773690e+000
 1.036978455206676e+000	 2.108832777517972e+000	 8.830269824785265e+000
 1.015689931239302e+000	 2.119168224489647e+000	 8.724094173156997e+000
 9.943352389590202e-001	 2.129271573256804e+000	 8.623886410180402e+000
 9.729180492518130e-001	 2.139142461258755e+000	 8.529717318231153e+000
 9.514420265651888e-001	 2.148780600761245e+000	 8.441650487286065e+000
 9.299108270704248e-001	 2.158185778337701e+000	 8.359742253063709e+000
 9.083280968511405e-001	 2.167357854298573e+000	 8.284041650693576e+000
 8.866974701198286e-001	 2.176296762070050e+000	 8.214590383776365e+000
 8.650225674638863e-001	 2.185002507523477e+000	 8.151422808658642e+000
 1.090824658491015e+000	 2.109674516245919e+000	 9.104650817092198e+000
 1.069454551734137e+000	 2.120587645408667e+000	 8.987807494790086e+000
 1.048010140901297e+000	 2.131267168767293e+000	 8.876284068798961e+000
 1.026495143274622e+000	 2.141712567302352e+000	 8.770163735223026e+000
 1.004913273416837e+000	 2.151923398503107e+000	 8.669523109539332e+000
 9.832682412659006e-001	 2.161899295951840e+000	 8.574432126642780e+000
 9.615637502528075e-001	 2.171639968853294e+000	 8.484953956266240e+000
 9.398034954442724e-001	 2.181145201510398e+000	 8.401144933741149e+000
 9.179911617120392e-001	 2.190414852747545e+000	 8.323054506020892e+000
 8.961304219304351e-001	 2.199448855282691e+000	 8.250725192847725e+000
 8.742249352037450e-001	 2.208247215049642e+000	 8.184192562902478e+000
 1.102307023318859e+000	 2.131881616415496e+000	 9.150516853032821e+000
 1.080711968069602e+000	 2.142909620621825e+000	 9.034326554032232e+000
 1.059041826596255e+000	 2.153701560015614e+000	 8.922993909708177e+000
 1.037300355310231e+000	 2.164256910114058e+000	 8.816600559536294e+000
 1.015491307874912e+000	 2.174575223748410e+000	 8.715221984252354e+000
 9.936184332802385e-001	 2.184656130643925e+000	 8.618927399096808e+000
 9.716854739406875e-001	 2.194499336944342e+000	 8.527779662161958e+000
 9.496961638184130e-001	 2.204104624682095e+000	 8.441835197823304e+000
 9.276542265732820e-001	 2.213471851195517e+000	 8.361143935195301e+000
 9.055633737414567e-001	 2.222600948494331e+000	 8.285749261508315e+000
 8.834273029441089e-001	 2.231491922574806e+000	 8.215687990263151e+000
 1.113789388147199e+000	 2.154088716584075e+000	 9.197697845505788e+000
 1.091969384405474e+000	 2.165231595833983e+000	 9.081795043766928e+000
 1.070073512291550e+000	 2.176135951262935e+000	 8.970310135653874e+000
 1.048105567346127e+000	 2.186801252924763e+000	 8.863323369933589e+000
 1.026069342333246e+000	 2.197227048992712e+000	 8.760909239523581e+000
 1.003968625294827e+000	 2.207412965335011e+000	 8.663136367930216e+000
 9.818071976288297e-001	 2.217358705034390e+000	 8.570067410543224e+000
 9.595888321928467e-001	 2.227064047852791e+000	 8.481758970786039e+000
 9.373172914348692e-001	 2.236528849642488e+000	 8.398261531077539e+000
 9.149963255528931e-001	 2.245753041704973e+000	 8.319619398519349e+000
 8.926296706849778e-001	 2.254736630098971e+000	 8.245870665180631e+000
 1.125271752976035e+000	 2.176295816751653e+000	 9.246090452688557e+000
 1.103226800741752e+000	 2.187553571045140e+000	 9.130118060370290e+000
 1.081105197987183e+000	 2.198570342509257e+000	 9.018145848538671e+000
 1.058910779382311e+000	 2.209345595734469e+000	 8.910252840847724e+000
 1.036647376791840e+000	 2.219878874236016e+000	 8.806512689229431e+000
 1.014318817309667e+000	 2.230169800025096e+000	 8.706993553516126e+000
 9.919289213172337e-001	 2.240218073123438e+000	 8.611757995700421e+000
 9.694815005675739e-001	 2.250023471022488e+000	 8.520862888848450e+000
 9.469803562968006e-001	 2.259585848088461e+000	 8.434359340638862e+000
 9.244292773647449e-001	 2.268905134914614e+000	 8.352292631456722e+000
 9.018320384263519e-001	 2.277981337622136e+000	 8.274702166930027e+000
 1.136754117805368e+000	 2.198502916918232e+000	 9.295594279579541e+000
 1.114484217078436e+000	 2.209875546255298e+000	 9.179203262059543e+000
 1.092136883683152e+000	 2.221004733754577e+000	 9.066416347169687e+000
 1.069715991418783e+000	 2.231889938543174e+000	 8.957311498792315e+000
 1.047225411250693e+000	 2.242530699478319e+000	 8.851961674672463e+000
 1.024669009324756e+000	 2.252926634714180e+000	 8.750434699211816e+000
 1.002050645005900e+000	 2.263077441211487e+000	 8.652793150708900e+000
 9.793741689425939e-001	 2.272982894191185e+000	 8.559094263076831e+000
 9.566434211590758e-001	 2.282642846533433e+000	 8.469389842026297e+000
 9.338622291770110e-001	 2.292057228123256e+000	 8.383726195659584e+000
 9.110344061682311e-001	 2.301226045144301e+000	 8.302144079377021e+000
 1.148236482635196e+000	 2.220710017083810e+000	 9.346111730656608e+000
 1.125741633415527e+000	 2.232197521464456e+000	 9.228960740801155e+000
 1.103168569379458e+000	 2.243439124998900e+000	 9.115039017413711e+000
 1.080521203455544e+000	 2.254434281350881e+000	 9.004423629758014e+000
 1.057803445709805e+000	 2.265182524719623e+000	 8.897186988210137e+000
 1.035019201340097e+000	 2.275683469402266e+000	 8.793396710209219e+000
 1.012172368694828e+000	 2.285936809298536e+000	 8.693115500489880e+000
 9.892668373179073e-001	 2.295942317358883e+000	 8.596401045642161e+000
 9.663064860216958e-001	 2.305699844977406e+000	 8.503305923003676e+000
 9.432951809896925e-001	 2.315209321330897e+000	 8.413877523842517e+000
 9.202367739106159e-001	 2.324470752665467e+000	 8.328157990748673e+000
 8.282130965095028e-001	 2.092023677408817e+000	 8.008369218315529e+000
 8.074215901202451e-001	 2.100135799387014e+000	 7.932366356466538e+000
 7.865945792257691e-001	 2.108024897382408e+000	 7.850832703301050e+000
 7.657354814378435e-001	 2.115691180799508e+000	 7.763766363013007e+000
 7.448476949157643e-001	 2.123134925392267e+000	 7.671169713350890e+000
 7.239345968484162e-001	 2.130356472406817e+000	 7.573049305471832e+000
 7.029995419721640e-001	 2.137356227685585e+000	 7.469415764591855e+000
 6.820458611255976e-001	 2.144134660734327e+000	 7.360283691525257e+000
 6.610768598420856e-001	 2.150692303753668e+000	 7.245671565195415e+000
 6.400958169810156e-001	 2.157029750636725e+000	 7.125601646186100e+000
 6.191059833985354e-001	 2.163147655934445e+000	 7.016732301873303e+000
 8.374154642473412e-001	 2.115268384938982e+000	 8.045851918330401e+000
 8.163929411200946e-001	 2.123470641606018e+000	 7.963481504966125e+000
 7.953345189931456e-001	 2.131447396245942e+000	 7.877130833464065e+000
 7.742436534517254e-001	 2.139198860589977e+000	 7.786791146283072e+000
 7.531237804124565e-001	 2.146725313456010e+000	 7.692456657979701e+000
 7.319783145885441e-001	 2.154027099881797e+000	 7.594124480511828e+000
 7.108106479912013e-001	 2.161104630219127e+000	 7.491794550680594e+000
 6.896241484683363e-001	 2.167958379190486e+000	 7.385469559734518e+000
 6.684221582814655e-001	 2.174588884909840e+000	 7.275154885146790e+000
 6.472079927217471e-001	 2.180996747869119e+000	 7.160858524564884e+000
 6.259849387659531e-001	 2.187182629892056e+000	 7.042591031919534e+000
 8.466178319856844e-001	 2.138513092468148e+000	 8.082214047512510e+000
 8.253642921205442e-001	 2.146805483824028e+000	 7.993556041560050e+000
 8.040744587612064e-001	 2.154869895108496e+000	 7.902447350785640e+000
 7.827518254663666e-001	 2.162706540379492e+000	 7.808872535755897e+000
 7.613998659099723e-001	 2.170315701518835e+000	 7.712817834705533e+000
 7.400220323295501e-001	 2.177697727355906e+000	 7.614271114030880e+000
 7.186217540111608e-001	 2.184853032751853e+000	 7.513221822263208e+000
 6.972024358120313e-001	 2.191782097645895e+000	 7.409660947478171e+000
 6.757674567218255e-001	 2.198485466065336e+000	 7.303580978082525e+000
 6.543201684634735e-001	 2.204963745100923e+000	 7.194975866905912e+000
 6.328638941343707e-001	 2.211217603849173e+000	 7.083840998512552e+000
 8.558201997245326e-001	 2.161757799996312e+000	 8.117417158186456e+000
 8.343356431215939e-001	 2.170140326041044e+000	 8.022549000272775e+000
 8.128143985299519e-001	 2.178292393970071e+000	 7.926739733953266e+000
 7.912599974817666e-001	 2.186214220168053e+000	 7.829967413115401e+000
 7.696759514083115e-001	 2.193906089580742e+000	 7.732210481336611e+000
 7.480657500714332e-001	 2.201368354829143e+000	 7.633447747318083e+000
 7.264328600320423e-001	 2.208601435283764e+000	 7.533658365141808e+000
 7.047807231566823e-001	 2.215605816100554e+000	 7.432821819238818e+000
 6.831127551631663e-001	 2.222382047220160e+000	 7.330917913940414e+000
 6.614323442061953e-001	 2.228930742332137e+000	 7.227926767469828e+000
 6.397428495037884e-001	 2.235252577805797e+000	 7.123828810216558e+000
 8.650225674638863e-001	 2.185002507523477e+000	 8.151422808658642e+000
 8.433069941232435e-001	 2.193475168257064e+000	 8.050419511075093e+000
 8.215543382993820e-001	 2.201714892830667e+000	 7.949965609705723e+000
 7.997681694979255e-001	 2.209721899955661e+000	 7.850032822560163e+000
 7.779520369074738e-001	 2.217496477641732e+000	 7.750591975255224e+000
 7.561094678141941e-001	 2.225038982301508e+000	 7.651613001150738e+000
 7.342439660538457e-001	 2.232349837814859e+000	 7.553064947653689e+000
 7.123590105022895e-001	 2.239429534554463e+000	 7.454915988510889e+000
 6.904580536054876e-001	 2.246278628374308e+000	 7.357133441892994e+000
 6.685445199499123e-001	 2.252897739562764e+000	 7.259683794055659e+000
 6.466218048742060e-001	 2.259287551761928e+000	 7.162532728349465e+000
 8.742249352037450e-001	 2.208247215049642e+000	 8.184192562902478e+000
 8.522783451254931e-001	 2.216810010472089e+000	 8.077126794834395e+000
 8.302942780694966e-001	 2.225137391690283e+000	 7.972082745041143e+000
 8.082763415148440e-001	 2.233229579742315e+000	 7.869025962250052e+000
 7.862281224074597e-001	 2.241086865701804e+000	 7.767919826071864e+000
 7.641531855578327e-001	 2.248709609773001e+000	 7.668725571610671e+000
 7.420550720765707e-001	 2.256098240345137e+000	 7.571402321590007e+000
 7.199372978488527e-001	 2.263253253007622e+000	 7.475907125747414e+000
 6.978033520487897e-001	 2.270175209527783e+000	 7.382195007230063e+000
 6.756566956946242e-001	 2.276864736792801e+000	 7.290219015708888e+000
 6.535007602456237e-001	 2.283322525717564e+000	 7.199930286909922e+000
 8.834273029441089e-001	 2.231491922574806e+000	 8.215687990263151e+000
 8.612496961283427e-001	 2.240144852686119e+000	 8.102630158580446e+000
 8.390342178402960e-001	 2.248559890548920e+000	 7.993049039911779e+000
 8.167845135325212e-001	 2.256737259528015e+000	 7.886904176287399e+000
 7.945042079082687e-001	 2.264677253760957e+000	 7.784151668738033e+000
 7.721969033023489e-001	 2.272380237243623e+000	 7.684744226161983e+000
 7.498661781002176e-001	 2.279846642874599e+000	 7.588631223058061e+000
 7.275155851963721e-001	 2.287076971460030e+000	 7.495758765809921e+000
 7.051486504930720e-001	 2.294071790680583e+000	 7.406069767185717e+000
 6.827688714403313e-001	 2.300831734022249e+000	 7.319504028698748e+000
 6.603797156180413e-001	 2.307357499672706e+000	 7.235998330458571e+000
 8.926296706849778e-001	 2.254736630098971e+000	 8.245870665180631e+000
 8.702210471317924e-001	 2.263479694899155e+000	 8.126888991063963e+000
 8.477741576117799e-001	 2.271982389406577e+000	 8.012822520370689e+000
 8.252926855509575e-001	 2.280244939312762e+000	 7.903624947194060e+000
 8.027802934099011e-001	 2.288267641819194e+000	 7.799245257085676e+000
 7.802406210477425e-001	 2.296050864713372e+000	 7.699627799971828e+000
 7.576772841247863e-001	 2.303595045403246e+000	 7.604712373289230e+000
 7.350938725448477e-001	 2.310900689911689e+000	 7.514434314957904e+000
 7.124939489383351e-001	 2.317968371832708e+000	 7.428724605786712e+000
 6.898810471870336e-001	 2.324798731251109e+000	 7.347509980887633e+000
 6.672586709914591e-001	 2.331392473627356e+000	 7.270713049655772e+000
 9.018320384263519e-001	 2.277981337622136e+000	 8.274702166930027e+000
 8.791923981358421e-001	 2.286814537111197e+000	 8.149862758587281e+000
 8.565140973839484e-001	 2.295404888263255e+000	 8.031361332138078e+000
 8.338008575701530e-001	 2.303752619096555e+000	 7.919145888849338e+000
 8.110563789123574e-001	 2.311858029876512e+000	 7.813158457761632e+000
 7.882843387940139e-001	 2.319721492182250e+000	 7.713335192456009e+000
 7.654883901502770e-001	 2.327343447931077e+000	 7.619606479398368e+000
 7.426721598942795e-001	 2.334724408362598e+000	 7.531897057409883e+000
 7.198392473845785e-001	 2.341864952984159e+000	 7.450126147791669e+000
 6.969932229347310e-001	 2.348765728479380e+000	 7.374207594609353e+000
 6.741376263658767e-001	 2.355427447581511e+000	 7.304050014624083e+000
 9.110344061682311e-001	 2.301226045144301e+000	 8.302144079377021e+000
 8.881637491404917e-001	 2.310149379322243e+000	 8.171511001087465e+000
 8.652540371568017e-001	 2.318827387118954e+000	 8.048623734557342e+000
 8.423090295901076e-001	 2.327260298879394e+000	 7.933424739855830e+000
 8.193324644156366e-001	 2.335448417932912e+000	 7.825849244530014e+000
 7.963280565411631e-001	 2.343392119650255e+000	 7.725825364034193e+000
 7.732994961766895e-001	 2.351091850458091e+000	 7.633274235096630e+000
 7.502504472446673e-001	 2.358548126812756e+000	 7.548110161507344e+000
 7.271845458318026e-001	 2.365761534134935e+000	 7.470240771785201e+000
 7.041053986834237e-001	 2.372732725707061e+000	 7.399567188160367e+000
 6.810165817412944e-001	 2.379462421535173e+000	 7.335984206288683e+000
 9.202367739106159e-001	 2.324470752665467e+000	 8.328157990748673e+000
 8.971351001457416e-001	 2.333484221532295e+000	 8.191793328454686e+000
 8.739939769303398e-001	 2.342249885973674e+000	 8.064568094914179e+000
 8.508172016108214e-001	 2.350767978661281e+000	 7.946419357303052e+000
 8.276085499197395e-001	 2.359038805988396e+000	 7.837275692916435e+000
 8.043717742891899e-001	 2.367062747117389e+000	 7.737057333079561e+000
 7.811106022040244e-001	 2.374840252984292e+000	 7.645676321361467e+000
 7.578287345960116e-001	 2.382371845262165e+000	 7.563036685508449e+000
 7.345298442800076e-001	 2.389658115285039e+000	 7.489034622486738e+000
 7.112175744331116e-001	 2.396699722934155e+000	 7.423558696001486e+000
 6.878955371177123e-001	 2.403497395488342e+000	 7.366490045836895e+000
 6.191059833985354e-001	 2.163147655934445e+000	 7.016732301873303e+000
 5.981105806580939e-001	 2.169046733790038e+000	 6.968141397333833e+000
 5.771127997826462e-001	 2.174727756844882e+000	 6.910883460968852e+000
 5.561158000485695e-001	 2.180191555116964e+000	 6.846647643302915e+000
 5.351227078207386e-001	 2.185439014853160e+000	 6.776996350499518e+000
 5.141366154304752e-001	 2.190471077357688e+000	 6.703364180770493e+000
 4.931605800963980e-001	 2.195288737798134e+000	 6.627057174282644e+000
 4.721976228884912e-001	 2.199893043990708e+000	 6.549252370618251e+000
 4.512507277356547e-001	 2.204285095166384e+000	 6.470997667152420e+000
 4.303228404769293e-001	 2.208466040719535e+000	 6.393211971054456e+000
 4.094168679565230e-001	 2.212437078940723e+000	 6.316685637013567e+000
 6.259849387659531e-001	 2.187182629892056e+000	 7.042591031919534e+000
 6.047562537727171e-001	 2.193147253056797e+000	 6.998696350501979e+000
 5.835251642208401e-001	 2.198891398589630e+000	 6.948585711749423e+000
 5.622948644897693e-001	 2.204415905730961e+000	 6.891259511245399e+000
 5.410685156817661e-001	 2.209721670574856e+000	 6.828370052651231e+000
 5.198492444873888e-001	 2.214809644884473e+000	 6.761437833553917e+000
 4.986401420943507e-001	 2.219680834884810e+000	 6.691850718713111e+000
 4.774442631400799e-001	 2.224336300034484e+000	 6.620863431813691e+000
 4.562646247082410e-001	 2.228777151778144e+000	 6.549597358934018e+000
 4.351042053694189e-001	 2.233004552281214e+000	 6.479040656260648e+000
 4.139659442660896e-001	 2.237019713148595e+000	 6.410048653949737e+000
 6.328638941343707e-001	 2.211217603849173e+000	 7.083840998512552e+000
 6.114019268883301e-001	 2.217247772323162e+000	 7.026100510568178e+000
 5.899375286599927e-001	 2.223055040334081e+000	 6.980988554613149e+000
 5.684739289318760e-001	 2.228640256344763e+000	 6.928580568555307e+000
 5.470143235436286e-001	 2.234004326296461e+000	 6.870621178786663e+000
 5.255618735450450e-001	 2.239148212411264e+000	 6.808718998768508e+000
 5.041197040929339e-001	 2.244072931971593e+000	 6.744345725586316e+000
 4.826909033921672e-001	 2.248779556078466e+000	 6.678835566310378e+000
 4.612785216811740e-001	 2.253269208390210e+000	 6.613384987213204e+000
 4.398855702620841e-001	 2.257543063843300e+000	 6.549052778188313e+000
 4.185150205756415e-001	 2.261602347356972e+000	 6.486760424058673e+000
 6.397428495037884e-001	 2.235252577805797e+000	 7.123828810216558e+000
 6.180476000049326e-001	 2.241348291589134e+000	 7.051435290387271e+000
 5.963498931001037e-001	 2.247218682078241e+000	 7.009127018657513e+000
 5.746529933748895e-001	 2.252864606958372e+000	 6.959599017045715e+000
 5.529601314063259e-001	 2.258286982017971e+000	 6.904690714214558e+000
 5.312745026034441e-001	 2.263486779938062e+000	 6.846101108932921e+000
 5.095992660921479e-001	 2.268465029058483e+000	 6.785387789867913e+000
 4.879375436447530e-001	 2.273222812122655e+000	 6.723966296836856e+000
 4.662924186544541e-001	 2.277761265002585e+000	 6.663109816400755e+000
 4.446669351549250e-001	 2.282081575405792e+000	 6.603949203948280e+000
 4.230640968851787e-001	 2.286184981565858e+000	 6.547473323741814e+000
 6.466218048742060e-001	 2.259287551761928e+000	 7.162532728349465e+000
 6.246932731225249e-001	 2.265448810854711e+000	 7.075780651158221e+000
 6.027622575411730e-001	 2.271382323822106e+000	 7.034034079705696e+000
 5.808320578188099e-001	 2.277088957571788e+000	 6.985300485573990e+000
 5.589059392698581e-001	 2.282569637739387e+000	 6.931516633122907e+000
 5.369871316625857e-001	 2.287825347464866e+000	 6.874474228333468e+000
 5.150788280919921e-001	 2.292857126145480e+000	 6.815818861730050e+000
 4.931841838978373e-001	 2.297666068167052e+000	 6.757049304772183e+000
 4.713063156280809e-001	 2.302253321615265e+000	 6.699517152421115e+000
 4.494483000479417e-001	 2.306620086968693e+000	 6.644426803826685e+000
 4.276131731947014e-001	 2.310767615775252e+000	 6.592835772374454e+000
 6.535007602456237e-001	 2.283322525717564e+000	 7.199930286909922e+000
 6.313389462411063e-001	 2.289549330119895e+000	 7.116458137517983e+000
 6.091746219832009e-001	 2.295545965565678e+000	 7.056740768373985e+000
 5.870111222636369e-001	 2.301313308185011e+000	 7.006668165460392e+000
 5.648517471342254e-001	 2.306852293460712e+000	 6.952034057058627e+000
 5.426997607224701e-001	 2.312163914991678e+000	 6.894725230299956e+000
 5.205583900924672e-001	 2.317249223232584e+000	 6.836477438382749e+000
 4.984308241514200e-001	 2.322109324211656e+000	 6.778874632321513e+000
 4.763202126020544e-001	 2.326745378228254e+000	 6.723348551054437e+000
 4.542296649411342e-001	 2.331158598532000e+000	 6.671178661643967e+000
 4.321622495042093e-001	 2.335350249985153e+000	 6.623492440570413e+000
 6.603797156180413e-001	 2.307357499672706e+000	 7.235998330458571e+000
 6.379846193606776e-001	 2.313649849384685e+000	 7.156285646552127e+000
 6.155869864261875e-001	 2.319709607308956e+000	 7.078276271384271e+000
 5.931901867093712e-001	 2.325537658798039e+000	 7.024682937442949e+000
 5.707975549994272e-001	 2.331134949181941e+000	 6.967175403502657e+000
 5.484123897830971e-001	 2.336502482518495e+000	 6.907737963400960e+000
 5.260379520935724e-001	 2.341641320319795e+000	 6.848198743915814e+000
 5.036774644055012e-001	 2.346552580256466e+000	 6.790228872056985e+000
 4.813341095763750e-001	 2.351237434841550e+000	 6.735342013256085e+000
 4.590110298345023e-001	 2.355697110095716e+000	 6.684894271967253e+000
 4.367113258137025e-001	 2.359932884195560e+000	 6.640084445429858e+000
 6.672586709914591e-001	 2.331392473627356e+000	 7.270713049655772e+000
 6.446302924812386e-001	 2.337750368649082e+000	 7.194417801753888e+000
 6.219993508701324e-001	 2.343873249051940e+000	 7.099668026610504e+000
 5.993692511560121e-001	 2.349762009410875e+000	 7.040323490779871e+000
 5.767433628654640e-001	 2.355417604903078e+000	 6.977870525255174e+000
 5.541250188444671e-001	 2.360841050045321e+000	 6.914393407359703e+000
 5.315175140953082e-001	 2.366033417407112e+000	 6.851814898015896e+000
 5.089241046600811e-001	 2.370995836301485e+000	 6.791895344733434e+000
 4.863480065510423e-001	 2.375729491455153e+000	 6.736232168395414e+000
 4.637923947280460e-001	 2.380235621659838e+000	 6.686259725122853e+000
 4.412604021231812e-001	 2.384515518406475e+000	 6.643249533710296e+000
 6.741376263658767e-001	 2.355427447581511e+000	 7.304050014624083e+000
 6.512759656027893e-001	 2.361850887913085e+000	 7.230843503701502e+000
 6.284117153150359e-001	 2.368036890794632e+000	 7.129616396082381e+000
 6.055483156035602e-001	 2.373986360023517e+000	 7.054566435059805e+000
 5.826891707323358e-001	 2.379700260624121e+000	 6.985046841286176e+000
 5.598376479065796e-001	 2.385179617572153e+000	 6.915569819423636e+000
 5.369970760976748e-001	 2.390425514494537e+000	 6.848155074355160e+000
 5.141707449151594e-001	 2.395439092346710e+000	 6.784654266218228e+000
 4.913619035260565e-001	 2.400221548069064e+000	 6.726750446275114e+000
 4.685737596217657e-001	 2.404774133224367e+000	 6.675957880882147e+000
 4.458094784326451e-001	 2.409098152617898e+000	 6.633622253782735e+000
 6.810165817412944e-001	 2.379462421535173e+000	 7.335984206288683e+000
 6.579216387253294e-001	 2.385951407176694e+000	 7.265550538887294e+000
 6.348240797608978e-001	 2.392200532537029e+000	 7.165121809928538e+000
 6.117273800520149e-001	 2.398210710635965e+000	 7.068386405235516e+000
 5.886349786000426e-001	 2.403982916345072e+000	 6.989629459656620e+000
 5.655502769694349e-001	 2.409518185098991e+000	 6.912142871862919e+000
 5.424766381006718e-001	 2.414817611582069e+000	 6.838045649379053e+000
 5.194173851707361e-001	 2.419882348392142e+000	 6.769282904303502e+000
 4.963758005014176e-001	 2.424713604683281e+000	 6.707625238725795e+000
 4.733551245156609e-001	 2.429312644789304e+000	 6.654668531621153e+000
 4.503585547420944e-001	 2.433680786829828e+000	 6.611834117166124e+000
 6.878955371177123e-001	 2.403497395488342e+000	 7.366490045836895e+000
 6.645673118488593e-001	 2.410051926439911e+000	 7.298525635422513e+000
 6.412364442077186e-001	 2.416364174279133e+000	 7.198645346271672e+000
 6.179064445013768e-001	 2.422435061248221e+000	 7.082756160355757e+000
 5.945807864685845e-001	 2.428265572065930e+000	 6.992541293063536e+000
 5.712629060330331e-001	 2.433856752625838e+000	 6.904985781219932e+000
 5.479562001042996e-001	 2.439209708669709e+000	 6.822310342168503e+000
 5.246640254268117e-001	 2.444325604437782e+000	 6.746555726110011e+000
 5.013896974771256e-001	 2.449205661297807e+000	 6.679582051504721e+000
 4.781364894097321e-001	 2.453851156354649e+000	 6.623068555689997e+000
 4.549076310515292e-001	 2.458263421042266e+000	 6.578513750370405e+000
 4.094168679565230e-001	 2.212437078940723e+000	 6.316685637013567e+000
 3.885356771626090e-001	 2.216199455735425e+000	 6.237435608471782e+000
 3.676820944102924e-001	 2.219754463329662e+000	 6.162647637307988e+000
 3.468589045682614e-001	 2.223103438964542e+000	 6.092734065759186e+000
 3.260688503289498e-001	 2.226247763581711e+000	 6.027981181849157e+000
 3.053146315223869e-001	 2.229188860500556e+000	 5.968550988920866e+000
 2.845989044733670e-001	 2.231928194088898e+000	 5.914483204561245e+000
 2.639242814016642e-001	 2.234467268428643e+000	 5.865697477903199e+000
 2.432933298649634e-001	 2.236807625977843e+000	 5.821995814039704e+000
 2.227085722441358e-001	 2.238950846230580e+000	 5.783065194075106e+000
 2.021724852704328e-001	 2.240898544376048e+000	 5.748480379175066e+000
 4.139659442660896e-001	 2.237019713148595e+000	 6.410048653949737e+000
 3.928527402417594e-001	 2.240823894129246e+000	 6.338721071490095e+000
 3.717674510149444e-001	 2.244418401807346e+000	 6.270910049384180e+000
 3.507128923973185e-001	 2.247804588282233e+000	 6.207083815333109e+000
 3.296918375556776e-001	 2.250983849839349e+000	 6.147581339777621e+000
 3.087070163181624e-001	 2.253957625612741e+000	 6.092614093292371e+000
 2.877611145242888e-001	 2.256727396240981e+000	 6.042268041481177e+000
 2.668567734184953e-001	 2.259294682517994e+000	 5.996505866088994e+000
 2.459965890868866e-001	 2.261661044040255e+000	 5.955169400787159e+000
 2.251831119367892e-001	 2.263828077851780e+000	 5.917982269866162e+000
 2.044188462186914e-001	 2.265797417088305e+000	 5.884552717896358e+000
 4.185150205756415e-001	 2.261602347356972e+000	 6.486760424058673e+000
 3.971698033207161e-001	 2.265448332523665e+000	 6.422299736532324e+000
 3.758528076192648e-001	 2.269082340285696e+000	 6.360612510716913e+000
 3.545668802259480e-001	 2.272505737600639e+000	 6.302223305497876e+000
 3.333148247819216e-001	 2.275719936097731e+000	 6.247524006520382e+000
 3.120994011134391e-001	 2.278726390725677e+000	 6.196775574600299e+000
 2.909233245747360e-001	 2.281526598393801e+000	 6.150110040007436e+000
 2.697892654349163e-001	 2.284122096608050e+000	 6.107532731056859e+000
 2.486998483085034e-001	 2.286514462103323e+000	 6.068924725171456e+000
 2.276576516292784e-001	 2.288705309473562e+000	 6.034045510346453e+000
 2.066652071669667e-001	 2.290696289801054e+000	 6.002535844762578e+000
 4.230640968851787e-001	 2.286184981565858e+000	 6.547473323741814e+000
 4.014868663994790e-001	 2.290072770918680e+000	 6.488788074070798e+000
 3.799381642232539e-001	 2.293746278764711e+000	 6.432334584297484e+000
 3.584208680541493e-001	 2.297206886919757e+000	 6.378694235219582e+000
 3.369378120076820e-001	 2.300456022356852e+000	 6.328312104399294e+000
 3.154917859082165e-001	 2.303495155839361e+000	 6.281498708725175e+000
 2.940855346247088e-001	 2.306325800547358e+000	 6.238432001483105e+000
 2.727217574509270e-001	 2.308949510698813e+000	 6.199159612081560e+000
 2.514031075298134e-001	 2.311367880167042e+000	 6.163601316285865e+000
 2.301321913216034e-001	 2.313582541095925e+000	 6.131551724575044e+000
 2.089115681152584e-001	 2.315595162514295e+000	 6.102683176040864e+000
 4.276131731947014e-001	 2.310767615775252e+000	 6.592835772374454e+000
 4.058039294780481e-001	 2.314697209314293e+000	 6.538798177167286e+000
 3.840235208269116e-001	 2.318410217244391e+000	 6.486651154355728e+000
 3.622748558819228e-001	 2.321908036239591e+000	 6.437033441444910e+000
 3.405607992329587e-001	 2.325192108616718e+000	 6.390443627557282e+000
 3.188841707024949e-001	 2.328263920953794e+000	 6.347241893259191e+000
 2.972477446742072e-001	 2.331125002701653e+000	 6.307652013806139e+000
 2.756542494665275e-001	 2.333776924790280e+000	 6.271763613641566e+000
 2.541063667508167e-001	 2.336221298231415e+000	 6.239534659687204e+000
 2.326067310137641e-001	 2.338459772718871e+000	 6.210794180705671e+000
 2.111579290635668e-001	 2.340494035228026e+000	 6.185245199812801e+000
 4.321622495042093e-001	 2.335350249985153e+000	 6.623492440570413e+000
 4.101209925564234e-001	 2.339321647710502e+000	 6.572937991862651e+000
 3.881088774302378e-001	 2.343074155724738e+000	 6.524132672610080e+000
 3.661288437092683e-001	 2.346609185560138e+000	 6.477773154996940e+000
 3.441837864577516e-001	 2.349928194877323e+000	 6.434411901335714e+000
 3.222765554962742e-001	 2.353032686068978e+000	 6.394458904258572e+000
 3.004099547232311e-001	 2.355924204856685e+000	 6.358183699505800e+000
 2.785867414817179e-001	 2.358604338882451e+000	 6.325717638829223e+000
 2.568096259715134e-001	 2.361074716296441e+000	 6.297056410213417e+000
 2.350812707057604e-001	 2.363337004342399e+000	 6.272062792350135e+000
 2.134042900118918e-001	 2.365392907942251e+000	 6.250469630089935e+000
 4.367113258137025e-001	 2.359932884195560e+000	 6.640084445429858e+000
 4.144380556346050e-001	 2.363946086107308e+000	 6.591811533167659e+000
 3.921942340332327e-001	 2.367738094205750e+000	 6.545345389128333e+000
 3.699828315361858e-001	 2.371310334881399e+000	 6.501441240477491e+000
 3.478067736820607e-001	 2.374664281138672e+000	 6.460705825441909e+000
 3.256689402895543e-001	 2.377801451184912e+000	 6.423599136948281e+000
 3.035721647717806e-001	 2.380723407012454e+000	 6.390436448313601e+000
 2.815192334964980e-001	 2.383431752975329e+000	 6.361390608173248e+000
 2.595128851919035e-001	 2.385928134362120e+000	 6.336494591499924e+000
 2.375558103975927e-001	 2.388214235966510e+000	 6.315644293293989e+000
 2.156506509602334e-001	 2.390291780656967e+000	 6.298601551295850e+000
 4.412604021231812e-001	 2.384515518406475e+000	 6.643249533710296e+000
 4.187551187125927e-001	 2.388570524504710e+000	 6.596019087693317e+000
 3.962795906358961e-001	 2.392402032687428e+000	 6.550851568906823e+000
 3.738368193626754e-001	 2.396011484203374e+000	 6.508561421329848e+000
 3.514297609058862e-001	 2.399400367400761e+000	 6.469810102073929e+000
 3.290613250823354e-001	 2.402570216301594e+000	 6.435107831538175e+000
 3.067343748198556e-001	 2.405522609168960e+000	 6.404815635349235e+000
 2.844517255108681e-001	 2.408259167068911e+000	 6.379147664924968e+000
 2.622161444119869e-001	 2.410781552428453e+000	 6.358173783155269e+000
 2.400303500892606e-001	 2.413091467591202e+000	 6.341822401405468e+000
 2.178970119085915e-001	 2.415190653372174e+000	 6.329883553812687e+000
 4.458094784326451e-001	 2.409098152617898e+000	 6.633622253782735e+000
 4.230721817903867e-001	 2.413194962902710e+000	 6.586157403875395e+000
 4.003649472382280e-001	 2.417065971169771e+000	 6.541209695190792e+000
 3.776908071887371e-001	 2.420712633526063e+000	 6.499653491122583e+000
 3.550527481292279e-001	 2.424136453663593e+000	 6.462205450079532e+000
 3.324537098746174e-001	 2.427338981419025e+000	 6.429426285213393e+000
 3.098965848674561e-001	 2.430321811326204e+000	 6.401722825946949e+000
 2.873842175248279e-001	 2.433086581163198e+000	 6.379350367777363e+000
 2.649194036317636e-001	 2.435634970495439e+000	 6.362415296476801e+000
 2.425048897807642e-001	 2.437968699216476e+000	 6.350877972508276e+000
 2.201433728569663e-001	 2.440089526087873e+000	 6.344555861227972e+000
 4.503585547420944e-001	 2.433680786829828e+000	 6.611834117166124e+000
 4.273892448679870e-001	 2.437819401301307e+000	 6.562819870670206e+000
 4.044503038402286e-001	 2.441729909652781e+000	 6.516974660471878e+000
 3.815447950143708e-001	 2.445413782849466e+000	 6.475233512028046e+000
 3.586757353520860e-001	 2.448872539927167e+000	 6.438368806135223e+000
 3.358460946664003e-001	 2.452107746537208e+000	 6.406992051277354e+000
 3.130587949145822e-001	 2.455121013484185e+000	 6.381555968069709e+000
 2.903167095383775e-001	 2.457913995258191e+000	 6.362356871902597e+000
 2.676226628512337e-001	 2.460488388563079e+000	 6.349537339516816e+000
 2.449794294721036e-001	 2.462845930842334e+000	 6.343089144929702e+000
 2.223897338053576e-001	 2.464988398804064e+000	 6.342856449869119e+000
 4.549076310515292e-001	 2.458263421042266e+000	 6.578513750370405e+000
 4.317063079453936e-001	 2.462443839700501e+000	 6.526596685528226e+000
 4.085356604418978e-001	 2.466393848136456e+000	 6.478697946025520e+000
 3.853987828395767e-001	 2.470114932173584e+000	 6.435814001391796e+000
 3.622987225744604e-001	 2.473608626191484e+000	 6.398773513855263e+000
 3.392384794576842e-001	 2.476876511656140e+000	 6.368239126345680e+000
 3.162210049612340e-001	 2.479920215642903e+000	 6.344709573177353e+000
 2.932492015515172e-001	 2.482741409353889e+000	 6.328522099128267e+000
 2.703259220703973e-001	 2.485341806631373e+000	 6.319855172244827e+000
 2.474539691632788e-001	 2.487723162468773e+000	 6.318731475375473e+000
 2.246360947537655e-001	 2.489887271520747e+000	 6.325021161167340e+000
 2.021724852704328e-001	 2.240898544376048e+000	 5.748480379175066e+000
 1.816874995949720e-001	 2.242652369958055e+000	 5.712026508218765e+000
 1.612559993974847e-001	 2.244214005536660e+000	 5.682418742454936e+000
 1.408803220354768e-001	 2.245585165352947e+000	 5.658905018890169e+000
 1.205627577348666e-001	 2.246767593997911e+000	 5.640630367651934e+000
 1.003055493189618e-001	 2.247763065087045e+000	 5.626640555290935e+000
 8.011089197596211e-002	 2.248573379941687e+000	 5.615885842550358e+000
 5.998093306429295e-002	 2.249200366278207e+000	 5.607224844712822e+000
 3.991777195504935e-002	 2.249645876906150e+000	 5.599428482762463e+000
 1.992345991080419e-002	 2.249911788436346e+000	 5.591184013769139e+000
 0.000000000000000e+000	 2.250000000000000e+000	 5.581099129089256e+000
 2.044188462186914e-001	 2.265797417088305e+000	 5.884552717896358e+000
 1.837062495910136e-001	 2.267570729621807e+000	 5.849813907183331e+000
 1.630477327244405e-001	 2.269149716707362e+000	 5.820758480811612e+000
 1.424456589471164e-001	 2.270536111633176e+000	 5.796665962973506e+000
 1.219023439319140e-001	 2.271731678374588e+000	 5.776710327782167e+000
 1.014200554223994e-001	 2.272738210253934e+000	 5.759963683516925e+000
 8.100101299775198e-002	 2.273557528607231e+000	 5.745400076360557e+000
 6.064738787593482e-002	 2.274191481458810e+000	 5.731899401423432e+000
 4.036130275438802e-002	 2.274641942204989e+000	 5.718251408984340e+000
 2.014483168749037e-002	 2.274910808307830e+000	 5.703159794040833e+000
 0.000000000000000e+000	 2.275000000000000e+000	 5.685246357455917e+000
 2.066652071669667e-001	 2.290696289801054e+000	 6.002535844762578e+000
 1.857249995872511e-001	 2.292489089285958e+000	 5.970495364503444e+000
 1.648394660517300e-001	 2.294085427878376e+000	 5.943186855614909e+000
 1.440109958591867e-001	 2.295487057913643e+000	 5.919919766899995e+000
 1.232419301294486e-001	 2.296695762751441e+000	 5.899895177724376e+000
 1.025345615263407e-001	 2.297713355420943e+000	 5.882209528610270e+000
 8.189113402002246e-002	 2.298541677272851e+000	 5.865858476472692e+000
 6.131384268799495e-002	 2.299182596639456e+000	 5.849740861969758e+000
 4.080483355404375e-002	 2.299638007503848e+000	 5.832662776568863e+000
 2.036620346435405e-002	 2.299909828179321e+000	 5.813341717099527e+000
 0.000000000000000e+000	 2.300000000000000e+000	 5.790410815755113e+000
 2.089115681152584e-001	 2.315595162514295e+000	 6.102683176040864e+000
 1.877437495836842e-001	 2.317407448950504e+000	 6.074279634375539e+000
 1.666311993793531e-001	 2.319021139049704e+000	 6.049866918086472e+000
 1.455763327716877e-001	 2.320438004194348e+000	 6.028782776426265e+000
 1.245815163274705e-001	 2.321659847128467e+000	 6.010253592686349e+000
 1.036490676307859e-001	 2.322688500588074e+000	 5.993398166540933e+000
 8.278125504277363e-002	 2.323525825938548e+000	 5.977231626313933e+000
 6.198029750047333e-002	 2.324173711820144e+000	 5.960669458302609e+000
 4.124836435401658e-002	 2.324634072802725e+000	 5.942531640420836e+000
 2.058757524139525e-002	 2.324908848050816e+000	 5.921546867593709e+000
 0.000000000000000e+000	 2.325000000000000e+000	 5.896356856529695e+000
 2.111579290635668e-001	 2.340494035228026e+000	 6.185245199812801e+000
 1.897624995803131e-001	 2.342325808615447e+000	 6.161373291207257e+000
 1.684229327073099e-001	 2.343956850221343e+000	 6.140960414128536e+000
 1.471416696846195e-001	 2.345388950475293e+000	 6.123371030923870e+000
 1.259211025259797e-001	 2.346623931505669e+000	 6.107855063238395e+000
 1.047635737357348e-001	 2.347663645755325e+000	 6.093551731510144e+000
 8.367137606600540e-002	 2.348509974604322e+000	 6.079493529800581e+000
 6.264675231337000e-002	 2.349164827000876e+000	 6.064610322742047e+000
 4.169189515430646e-002	 2.349630138101622e+000	 6.047733551513630e+000
 2.080894701861396e-002	 2.349907867922315e+000	 6.027600535922900e+000
 0.000000000000000e+000	 2.350000000000000e+000	 6.002858859873443e+000
 2.134042900118918e-001	 2.365392907942251e+000	 6.250469630089935e+000
 1.917812495771378e-001	 2.367244168280787e+000	 6.231980844342809e+000
 1.702146660356004e-001	 2.368892561393295e+000	 6.216627853025087e+000
 1.487070065979819e-001	 2.370339896756475e+000	 6.203800279504691e+000
 1.272606887249762e-001	 2.371588015883045e+000	 6.192769852399221e+000
 1.058780798411875e-001	 2.372638790922696e+000	 6.182694307621887e+000
 8.456149708971783e-002	 2.373494123270175e+000	 6.172621431312576e+000
 6.331320712668491e-002	 2.374155942181651e+000	 6.161493230063734e+000
 4.213542595491342e-002	 2.374626203400537e+000	 6.148150214990605e+000
 2.103031879601018e-002	 2.374906887793820e+000	 6.131335786355930e+000
 0.000000000000000e+000	 2.375000000000000e+000	 6.109700705665350e+000
 2.156506509602334e-001	 2.390291780656967e+000	 6.298601551295850e+000
 1.937999995741583e-001	 2.392162527946525e+000	 6.286304845619424e+000
 1.720063993642245e-001	 2.393828272565560e+000	 6.277028571849152e+000
 1.502723435117751e-001	 2.395290843037896e+000	 6.270185996138942e+000
 1.286002749244599e-001	 2.396552100260596e+000	 6.265068955404356e+000
 1.069925859471440e-001	 2.397613936090189e+000	 6.260851827325813e+000
 8.545161811391089e-002	 2.398478271936103e+000	 6.256595646919116e+000
 6.397966194041810e-002	 2.399147057362470e+000	 6.251252355703338e+000
 4.257895675583746e-002	 2.399622268699472e+000	 6.243669169635435e+000
 2.125169057358391e-002	 2.399905907665330e+000	 6.232593052142114e+000
 0.000000000000000e+000	 2.400000000000000e+000	 6.216675278789118e+000
 2.178970119085915e-001	 2.415190653372174e+000	 6.329883553812687e+000
 1.958187495713746e-001	 2.417080887612659e+000	 6.324545990268621e+000
 1.737981326931824e-001	 2.418763983738137e+000	 6.322320795885907e+000
 1.518376804259990e-001	 2.420241789319556e+000	 6.322643393837261e+000
 1.299398611244309e-001	 2.421516184638321e+000	 6.324824061963210e+000
 1.081070920536042e-001	 2.422589081257802e+000	 6.328051976141655e+000
 8.634173913858456e-002	 2.423462420602109e+000	 6.331399406044425e+000
 6.464611675456952e-002	 2.424138172543332e+000	 6.333826048919473e+000
 4.302248755707858e-002	 2.424618333998426e+000	 6.334183487169178e+000
 2.147306235133515e-002	 2.424904927536844e+000	 6.331219755666557e+000
 0.000000000000000e+000	 2.425000000000000e+000	 6.323584004957621e+000
 2.201433728569663e-001	 2.440089526087873e+000	 6.344555861227972e+000
 1.978374995687866e-001	 2.441999247279191e+000	 6.346903211641528e+000
 1.755898660224739e-001	 2.443699694911027e+000	 6.352661695356304e+000
 1.534030173406536e-001	 2.445192735601454e+000	 6.361287437965125e+000
 1.312794473248892e-001	 2.446480269016221e+000	 6.372107520826622e+000
 1.092215981605683e-001	 2.447564226425537e+000	 6.384324103216554e+000
 8.723186016373889e-002	 2.448446569268192e+000	 6.397018702827366e+000
 6.531257156913924e-002	 2.449129287724237e+000	 6.409156619843360e+000
 4.346601835863679e-002	 2.449614399297399e+000	 6.419591489957493e+000
 2.169443412926390e-002	 2.449903947408363e+000	 6.427069951861848e+000
 0.000000000000000e+000	 2.449999999999999e+000	 6.430236414956334e+000
 2.223897338053576e-001	 2.464988398804064e+000	 6.342856449869119e+000
 1.998562495663943e-001	 2.466917606946119e+000	 6.353573770192972e+000
 1.773815993520991e-001	 2.468635406084229e+000	 6.368207438703946e+000
 1.549683542557389e-001	 2.470143681883590e+000	 6.386232858750539e+000
 1.326190335258348e-001	 2.471444353394296e+000	 6.406992306501804e+000
 1.103361042680361e-001	 2.472539371593392e+000	 6.429699137304121e+000
 8.812198118937387e-002	 2.473430717934352e+000	 6.453442156488420e+000
 6.597902638412719e-002	 2.474120402905185e+000	 6.477190139433858e+000
 4.390954916051204e-002	 2.474610464596391e+000	 6.499796485826589e+000
 2.191580590737017e-002	 2.474902967279886e+000	 6.520003993230849e+000
 0.000000000000000e+000	 2.474999999999999e+000	 6.536449735296364e+000
 2.246360947537655e-001	 2.489887271520747e+000	 6.325021161167340e+000
 2.018749995641979e-001	 2.491835966613445e+000	 6.344753337125514e+000
 1.791733326820581e-001	 2.493571117257746e+000	 6.369113242682852e+000
 1.565336911712550e-001	 2.495094628165966e+000	 6.397594163040570e+000
 1.339586197272678e-001	 2.496408437772546e+000	 6.429551987964781e+000
 1.114506103760078e-001	 2.497514516761370e+000	 6.464209507783320e+000
 8.901210221548951e-002	 2.498414866600589e+000	 6.500660880077053e+000
 6.664548119953342e-002	 2.499111518086177e+000	 6.537876251437255e+000
 4.435307996270441e-002	 2.499606529895403e+000	 6.574706518789972e+000
 2.213717768565395e-002	 2.499901987151415e+000	 6.609888214968451e+000
 0.000000000000000e+000	 2.500000000000000e+000	 6.642048503428173e+000
 2.500000000000000e+000	 0.000000000000000e+000	 1.131320854668543e+001
 2.499901987151415e+000	 2.213717768565403e-002	 1.134642094745447e+001
 2.499606529895403e+000	 4.435307996270457e-002	 1.137521539726271e+001
 2.499111518086177e+000	 6.664548119953326e-002	 1.139943352462063e+001
 2.498414866600589e+000	 8.901210221548944e-002	 1.141893600829254e+001
 2.497514516761369e+000	 1.114506103760078e-001	 1.143360320263375e+001
 2.496408437772546e+000	 1.339586197272678e-001	 1.144333573905912e+001
 2.495094628165966e+000	 1.565336911712552e-001	 1.144805510151383e+001
 2.493571117257746e+000	 1.791733326820579e-001	 1.144770417380984e+001
 2.491835966613445e+000	 2.018749995641979e-001	 1.144224775669192e+001
 2.489887271520747e+000	 2.246360947537655e-001	 1.143167305250299e+001
 2.525000000000000e+000	 0.000000000000000e+000	 1.128189459539504e+001
 2.524901007022946e+000	 2.235854946393780e-002	 1.131555309885305e+001
 2.524602595194425e+000	 4.479661076489691e-002	 1.134295805423155e+001
 2.524102633267189e+000	 6.731193601493948e-002	 1.136436614145499e+001
 2.523399015266865e+000	 8.990222324160507e-002	 1.138002204285314e+001
 2.522489661929406e+000	 1.125651164839795e-001	 1.139015781596834e+001
 2.521372522150882e+000	 1.352982059287007e-001	 1.139499228148015e+001
 2.520045574448461e+000	 1.580990280867712e-001	 1.139473042817446e+001
 2.518506828431417e+000	 1.809650660120168e-001	 1.138956283690220e+001
 2.516754326280969e+000	 2.038937495620014e-001	 1.137966512548642e+001
 2.514786144237676e+000	 2.268824557021734e-001	 1.136519741654325e+001
 2.550000000000000e+000	 0.000000000000000e+000	 1.125453213287977e+001
 2.549900026894477e+000	 2.257992124204407e-002	 1.128899160477675e+001
 2.549598660493445e+000	 4.524014156677218e-002	 1.131727962876803e+001
 2.549093748448203e+000	 6.797839082992745e-002	 1.133964065084582e+001
 2.548383163933140e+000	 9.079234426724003e-002	 1.135630627513832e+001
 2.547464807097442e+000	 1.136796225914473e-001	 1.136749462717388e+001
 2.546336606529218e+000	 1.366377921296463e-001	 1.137340973351682e+001
 2.544996520730955e+000	 1.596643650018565e-001	 1.137424091976814e+001
 2.543442539605088e+000	 1.827567993416420e-001	 1.137016222894132e+001
 2.541672685948493e+000	 2.059124995596092e-001	 1.136133186223684e+001
 2.539685016954604e+000	 2.291288166505647e-001	 1.134789164424364e+001
 2.575000000000000e+000	 0.000000000000000e+000	 1.123096753431834e+001
 2.574899046766007e+000	 2.280129301997283e-002	 1.126550580839332e+001
 2.574594725792466e+000	 4.568367236833036e-002	 1.129397270954938e+001
 2.574084863629216e+000	 6.864484564449713e-002	 1.131660079545695e+001
 2.573367312599416e+000	 9.168246529239436e-002	 1.133360892126853e+001
 2.572439952265480e+000	 1.147941286984114e-001	 1.134520159267638e+001
 2.571300690907555e+000	 1.379773783301046e-001	 1.135156833660897e+001
 2.569947467013449e+000	 1.612297019165111e-001	 1.135288309162707e+001
 2.568378250778760e+000	 1.845485326709336e-001	 1.134930362009674e+001
 2.566591045616016e+000	 2.079312495570212e-001	 1.134097094422881e+001
 2.564583889671532e+000	 2.313751775989394e-001	 1.132800880807846e+001
 2.600000000000000e+000	 0.000000000000000e+000	 1.121105308353670e+001
 2.599898066637538e+000	 2.302266479772407e-002	 1.124497003966366e+001
 2.599590791091487e+000	 4.612720316957149e-002	 1.127293384787488e+001
 2.599075978810229e+000	 6.931130045864856e-002	 1.129516551552634e+001
 2.598351461265692e+000	 9.257258631706805e-002	 1.131187147007893e+001
 2.597415097433516e+000	 1.159086348048716e-001	 1.132324290128455e+001
 2.596264775285892e+000	 1.393169645300756e-001	 1.132945512229147e+001
 2.594898413295944e+000	 1.627950388307350e-001	 1.133066695179876e+001
 2.593313961952431e+000	 1.863402659998913e-001	 1.132702011940635e+001
 2.591509405283540e+000	 2.099499995542374e-001	 1.131863869631720e+001
 2.589482762388461e+000	 2.336215385472976e-001	 1.130562855355294e+001
 2.625000000000000e+000	 0.000000000000000e+000	 1.119464669164390e+001
 2.624897086509069e+000	 2.324403657529780e-002	 1.122726357404554e+001
 2.624586856390508e+000	 4.657073397049554e-002	 1.125406386172292e+001
 2.624067093991241e+000	 6.997775527238173e-002	 1.127525734241005e+001
 2.623335609931968e+000	 9.346270734126111e-002	 1.129103832950970e+001
 2.622390242601552e+000	 1.170231409108282e-001	 1.130158499274125e+001
 2.621228859664228e+000	 1.406565507295594e-001	 1.130705870900164e+001
 2.619849359578439e+000	 1.643603757445282e-001	 1.130760343564041e+001
 2.618249673126103e+000	 1.881319993285156e-001	 1.130334510836565e+001
 2.616427764951064e+000	 2.119687495512579e-001	 1.129439106600724e+001
 2.614381635105390e+000	 2.358678994956392e-001	 1.128082950436654e+001
 2.650000000000000e+000	 0.000000000000000e+000	 1.118161163159422e+001
 2.649896106380600e+000	 2.346540835269402e-002	 1.121227039921553e+001
 2.649582921689528e+000	 4.701426477110250e-002	 1.123726763449262e+001
 2.649058209172255e+000	 7.064421008569664e-002	 1.125680222918977e+001
 2.648319758598243e+000	 9.435282836497354e-002	 1.127105668891230e+001
 2.647365387769589e+000	 1.181376470162808e-001	 1.128019645154730e+001
 2.646192944042564e+000	 1.419961369285558e-001	 1.128436922722551e+001
 2.644800305860933e+000	 1.659257126578906e-001	 1.128370436207786e+001
 2.643185384299773e+000	 1.899237326568060e-001	 1.127831222807599e+001
 2.641346124618587e+000	 2.139874995480826e-001	 1.126828364125408e+001
 2.639280507822317e+000	 2.381142604439641e-001	 1.125368931061134e+001
 2.675000000000000e+000	 0.000000000000000e+000	 1.117181628763358e+001
 2.674895126252130e+000	 2.368678012991273e-002	 1.119987899487175e+001
 2.674578986988550e+000	 4.745779557139240e-002	 1.122245392503086e+001
 2.674049324353267e+000	 7.131066489859329e-002	 1.123972939077919e+001
 2.673303907264519e+000	 9.524294938820532e-002	 1.125187638907706e+001
 2.672340532937625e+000	 1.192521531212298e-001	 1.125904790673921e+001
 2.671157028420902e+000	 1.433357231270650e-001	 1.126137824884121e+001
 2.669751252143427e+000	 1.674910495708224e-001	 1.125898239231739e+001
 2.668121095473446e+000	 1.917154659847628e-001	 1.125195536711344e+001
 2.666264484286111e+000	 2.160062495447115e-001	 1.124037166726420e+001
 2.664179380539246e+000	 2.403606213922725e-001	 1.122428469426775e+001
 2.699999999999999e+000	 0.000000000000000e+000	 1.116513391866572e+001
 2.699894146123661e+000	 2.390815190695394e-002	 1.118998212476999e+001
 2.699575052287571e+000	 4.790132637136522e-002	 1.120953518821334e+001
 2.699040439534280e+000	 7.197711971107168e-002	 1.122397115291325e+001
 2.698288055930795e+000	 9.613307041095645e-002	 1.123344979948137e+001
 2.697315678105662e+000	 1.203666592256749e-001	 1.123811193723468e+001
 2.696121112799238e+000	 1.446753093250869e-001	 1.123807872038791e+001
 2.694702198425921e+000	 1.690563864833234e-001	 1.123345099085122e+001
 2.693056806647117e+000	 1.935071993123860e-001	 1.122430865007161e+001
 2.691182843953635e+000	 2.180249995411447e-001	 1.121071006236340e+001
 2.689078253256174e+000	 2.426069823405643e-001	 1.119269149217264e+001
 2.724999999999999e+000	 0.000000000000000e+000	 1.116144243464400e+001
 2.724893165995192e+000	 2.412952368381761e-002	 1.118247664020729e+001
 2.724571117586591e+000	 4.834485717102095e-002	 1.119842740540206e+001
 2.724031554715293e+000	 7.264357452313183e-002	 1.120946280944983e+001
 2.723272204597070e+000	 9.702319143322696e-002	 1.121573170229483e+001
 2.722290823273699e+000	 1.214811653296163e-001	 1.121736298238858e+001
 2.721085197177575e+000	 1.460148955226216e-001	 1.121446490000798e+001
 2.719653144708416e+000	 1.706217233953938e-001	 1.120712438860956e+001
 2.717992517820789e+000	 1.952989326396755e-001	 1.119540642673519e+001
 2.716101203621158e+000	 2.200437495373821e-001	 1.117935343299131e+001
 2.713977125973103e+000	 2.448533432888396e-001	 1.115898469662219e+001
 2.750000000000000e+000	 0.000000000000000e+000	 1.116062418516005e+001
 2.749892185866724e+000	 2.435089546050380e-002	 1.117726329422451e+001
 2.749567182885613e+000	 4.878838797035964e-002	 1.118904992415048e+001
 2.749022669896307e+000	 7.331002933477374e-002	 1.119614248745517e+001
 2.748256353263346e+000	 9.791331245501686e-002	 1.119867918271145e+001
 2.747265968441735e+000	 1.225956714330539e-001	 1.119677725742753e+001
 2.746049281555912e+000	 1.473544817196689e-001	 1.119053229782862e+001
 2.744604090990912e+000	 1.721870603070334e-001	 1.118001754812252e+001
 2.742928228994461e+000	 1.970906659666313e-001	 1.116528326184396e+001
 2.741019563288683e+000	 2.220624995334238e-001	 1.114635608787804e+001
 2.738875998690032e+000	 2.470997042370982e-001	 1.112323849376017e+001
 2.489887271520747e+000	 2.246360947537655e-001	 1.143167305250299e+001
 2.487723162468774e+000	 2.474539691632789e-001	 1.146371877816555e+001
 2.485341806631373e+000	 2.703259220703974e-001	 1.149085751733641e+001
 2.482741409353889e+000	 2.932492015515169e-001	 1.151309537583417e+001
 2.479920215642903e+000	 3.162210049612338e-001	 1.153046140562765e+001
 2.476876511656140e+000	 3.392384794576842e-001	 1.154300792142789e+001
 2.473608626191484e+000	 3.622987225744604e-001	 1.155081077440630e+001
 2.470114932173583e+000	 3.853987828395769e-001	 1.155396958116531e+001
 2.466393848136456e+000	 4.085356604418977e-001	 1.155260790615148e+001
 2.462443839700501e+000	 4.317063079453934e-001	 1.154687339577322e+001
 2.458263421042266e+000	 4.549076310515292e-001	 1.153693786256461e+001
 2.514786144237676e+000	 2.268824557021734e-001	 1.136519741654325e+001
 2.512600394095503e+000	 2.499285088544540e-001	 1.139251782560521e+001
 2.510195224699992e+000	 2.730291812895608e-001	 1.141569545272076e+001
 2.507568823449939e+000	 2.961816935646565e-001	 1.143480387736869e+001
 2.504719417801990e+000	 3.193832150078854e-001	 1.144989856432467e+001
 2.501645276775446e+000	 3.426308642489679e-001	 1.146101649297027e+001
 2.498344712456170e+000	 3.659217097968348e-001	 1.147221335527931e+001
 2.494816081498057e+000	 3.892527706647826e-001	 1.148240085053263e+001
 2.491057786620465e+000	 4.126210170435669e-001	 1.148712289596758e+001
 2.487068278099993e+000	 4.360233710227999e-001	 1.148653132957553e+001
 2.482846055254957e+000	 4.594567073609637e-001	 1.148080347493914e+001
 2.539685016954604e+000	 2.291288166505647e-001	 1.134789164424364e+001
 2.537477625722233e+000	 2.524030485457934e-001	 1.137520276709889e+001
 2.535048642768611e+000	 2.757324405090310e-001	 1.139828153975289e+001
 2.532396237545989e+000	 2.991141855782061e-001	 1.141719413522612e+001
 2.529518619961077e+000	 3.225454250550114e-001	 1.143198800129021e+001
 2.526414041894753e+000	 3.460232490407508e-001	 1.144269148814683e+001
 2.523080798720856e+000	 3.695446970196928e-001	 1.144931351325191e+001
 2.519517230822531e+000	 3.931067584904164e-001	 1.145184326517412e+001
 2.515721725104473e+000	 4.167063736455674e-001	 1.145024994832421e+001
 2.511692716499485e+000	 4.403404341004001e-001	 1.144448257033403e+001
 2.507428689467647e+000	 4.640057836704130e-001	 1.143446977379517e+001
 2.564583889671532e+000	 2.313751775989394e-001	 1.132800880807846e+001
 2.562354857348963e+000	 2.548775882372970e-001	 1.135530296309506e+001
 2.559902060837231e+000	 2.784356997288078e-001	 1.137829775571963e+001
 2.557223651642040e+000	 3.020466775921658e-001	 1.139705191681151e+001
 2.554317822120163e+000	 3.257076351026120e-001	 1.141160481533069e+001
 2.551182807014058e+000	 3.494156338330328e-001	 1.142197608400765e+001
 2.547816884985543e+000	 3.731676842430345e-001	 1.142816528355632e+001
 2.544218380147005e+000	 3.969607463164779e-001	 1.143015160736823e+001
 2.540385663588481e+000	 4.207917302478994e-001	 1.142789362857090e+001
 2.536317154898976e+000	 4.446574971781940e-001	 1.142132909127295e+001
 2.532011323680339e+000	 4.685548599798769e-001	 1.141037474774745e+001
 2.589482762388461e+000	 2.336215385472976e-001	 1.130562855355294e+001
 2.587232088975693e+000	 2.573521279289648e-001	 1.133290643715391e+001
 2.584755478905850e+000	 2.811389589488911e-001	 1.135584053013199e+001
 2.582051065738090e+000	 3.049791696065358e-001	 1.137448207993932e+001
 2.579117024279250e+000	 3.288698451506871e-001	 1.138886230915118e+001
 2.575951572133364e+000	 3.528080186258139e-001	 1.139899203874844e+001
 2.572552971250230e+000	 3.767906714668600e-001	 1.140486135137729e+001
 2.568919529471479e+000	 4.008147341429675e-001	 1.140643929657432e+001
 2.565049602072488e+000	 4.248770868505627e-001	 1.140367363988852e+001
 2.560941593298468e+000	 4.489745602561819e-001	 1.139649065776769e+001
 2.556593957893029e+000	 4.731039362893555e-001	 1.138479498000368e+001
 2.614381635105390e+000	 2.358678994956392e-001	 1.128082950436654e+001
 2.612109320602422e+000	 2.598266676207970e-001	 1.130810012507442e+001
 2.609608896974470e+000	 2.838422181692812e-001	 1.133100514688350e+001
 2.606878479834139e+000	 3.079116616213161e-001	 1.134958828715243e+001
 2.603916226438337e+000	 3.320320551992365e-001	 1.136387254883261e+001
 2.600720337252670e+000	 3.562004034190940e-001	 1.137385984098623e+001
 2.597289057514916e+000	 3.804136586911692e-001	 1.137953064075192e+001
 2.593620678795953e+000	 4.046687219698851e-001	 1.138084369879789e+001
 2.589713540556496e+000	 4.289624434535576e-001	 1.137773579024406e+001
 2.585566031697960e+000	 4.532916233343634e-001	 1.137012151296761e+001
 2.581176592105721e+000	 4.776530125988487e-001	 1.135789313513064e+001
 2.639280507822317e+000	 2.381142604439641e-001	 1.125368931061134e+001
 2.636986552229153e+000	 2.623012073127934e-001	 1.128096992620387e+001
 2.634462315043090e+000	 2.865454773899779e-001	 1.130388579828893e+001
 2.631705893930190e+000	 3.108441536365064e-001	 1.132247306210288e+001
 2.628715428597424e+000	 3.351942652482604e-001	 1.133674642216306e+001
 2.625489102371976e+000	 3.595927882128733e-001	 1.134669876964514e+001
 2.622025143779603e+000	 3.840366459159622e-001	 1.135230084271498e+001
 2.618321828120427e+000	 4.085227097972307e-001	 1.135350093190854e+001
 2.614377479040503e+000	 4.330478000568838e-001	 1.135022463259283e+001
 2.610190470097453e+000	 4.576086864127387e-001	 1.134237464647091e+001
 2.605759226318411e+000	 4.822020889083566e-001	 1.132983063401513e+001
 2.664179380539246e+000	 2.403606213922725e-001	 1.122428469426775e+001
 2.661863783855882e+000	 2.647757470049541e-001	 1.125160075187005e+001
 2.659315733111709e+000	 2.892487366109813e-001	 1.127457563609250e+001
 2.656533308026239e+000	 3.137766456521069e-001	 1.129323784277101e+001
 2.653514630756510e+000	 3.383564752977588e-001	 1.130759369369817e+001
 2.650257867491282e+000	 3.629851730071516e-001	 1.131762695048409e+001
 2.646761230044289e+000	 3.876596331412388e-001	 1.132329847291578e+001
 2.643022977444901e+000	 4.123766976250041e-001	 1.132454592396410e+001
 2.639041417524512e+000	 4.371331566605415e-001	 1.132128352352405e+001
 2.634814908496945e+000	 4.619257494913079e-001	 1.131340185290177e+001
 2.630341860531103e+000	 4.867511652178794e-001	 1.130076771197985e+001
 2.689078253256174e+000	 2.426069823405643e-001	 1.119269149217264e+001
 2.686741015482612e+000	 2.672502866972791e-001	 1.122007657112308e+001
 2.684169151180328e+000	 2.919519958322913e-001	 1.124316681964249e+001
 2.681360722122289e+000	 3.167091376681177e-001	 1.126198303172808e+001
 2.678313832915597e+000	 3.415186853477316e-001	 1.127652305676270e+001
 2.675026632610588e+000	 3.663775578019290e-001	 1.128676140948411e+001
 2.671497316308975e+000	 3.912826203669991e-001	 1.129264892603421e+001
 2.667724126769374e+000	 4.162306854532055e-001	 1.129411246829447e+001
 2.663705356008520e+000	 4.412185132645305e-001	 1.129105467864794e+001
 2.659439346896436e+000	 4.662428125700707e-001	 1.128335378723328e+001
 2.654924494743793e+000	 4.913002415274165e-001	 1.127086347367065e+001
 2.713977125973103e+000	 2.448533432888396e-001	 1.115898469662219e+001
 2.711618247109342e+000	 2.697248263897683e-001	 1.118648045395898e+001
 2.709022569248949e+000	 2.946552550539079e-001	 1.120975056141402e+001
 2.706188136218340e+000	 3.196416296845386e-001	 1.122880804363209e+001
 2.703113035074684e+000	 3.446808953981789e-001	 1.124364218258948e+001
 2.699795397729894e+000	 3.697699425972057e-001	 1.125421812329684e+001
 2.696233402573662e+000	 3.949056075932432e-001	 1.126047652720136e+001
 2.692425276093848e+000	 4.200846732818348e-001	 1.126233327555339e+001
 2.688369294492528e+000	 4.453038698688511e-001	 1.125967922493446e+001
 2.684063785295928e+000	 4.705598756490275e-001	 1.125238001706495e+001
 2.679507128956485e+000	 4.958493178369686e-001	 1.124027594492243e+001
 2.738875998690032e+000	 2.470997042370982e-001	 1.112323849376017e+001
 2.736495478736073e+000	 2.721993660824219e-001	 1.115089461218593e+001
 2.733875987317568e+000	 2.973585142758314e-001	 1.117441717004871e+001
 2.731015550314390e+000	 3.225741217013698e-001	 1.119381135013292e+001
 2.727912237233771e+000	 3.478431054491007e-001	 1.120905776677818e+001
 2.724564162849201e+000	 3.731623273929815e-001	 1.122011206694133e+001
 2.720969488838349e+000	 3.985285948199711e-001	 1.122690458061530e+001
 2.717126425418324e+000	 4.239386611108923e-001	 1.122934002293102e+001
 2.713033232976536e+000	 4.493892264735031e-001	 1.122729725019675e+001
 2.708688223695421e+000	 4.748769387281779e-001	 1.122062907204882e+001
 2.704089763169176e+000	 5.003983941465353e-001	 1.120916212179596e+001
 2.458263421042266e+000	 4.549076310515292e-001	 1.153693786256461e+001
 2.453851156354649e+000	 4.781364894097321e-001	 1.157863513805886e+001
 2.449205661297807e+000	 5.013896974771258e-001	 1.161574419776624e+001
 2.444325604437782e+000	 5.246640254268113e-001	 1.164854138883342e+001
 2.439209708669709e+000	 5.479562001042994e-001	 1.167732841474264e+001
 2.433856752625838e+000	 5.712629060330331e-001	 1.170243213868787e+001
 2.428265572065930e+000	 5.945807864685845e-001	 1.172420432719578e+001
 2.422435061248221e+000	 6.179064445013770e-001	 1.174302133308773e+001
 2.416364174279133e+000	 6.412364442077183e-001	 1.173564183803809e+001
 2.410051926439911e+000	 6.645673118488592e-001	 1.171854694852248e+001
 2.403497395488342e+000	 6.878955371177123e-001	 1.170261533231295e+001
 2.482846055254957e+000	 4.594567073609637e-001	 1.148080347493914e+001
 2.478389667920199e+000	 4.829178543038031e-001	 1.152748936338976e+001
 2.473697717912495e+000	 5.064035944528337e-001	 1.156874569564646e+001
 2.468768860483547e+000	 5.299106656828868e-001	 1.160485741997440e+001
 2.463601805757441e+000	 5.534357621079268e-001	 1.163613611465125e+001
 2.458195320152747e+000	 5.769755350966310e-001	 1.166291979292215e+001
 2.452548227786828e+000	 6.005265943371260e-001	 1.168557264592506e+001
 2.446659411860499e+000	 6.240855089507388e-001	 1.170448472263397e+001
 2.440527816021247e+000	 6.476488086545389e-001	 1.168973164954445e+001
 2.434152445703129e+000	 6.712129849723890e-001	 1.167449713381192e+001
 2.427532369441510e+000	 6.947744924941302e-001	 1.166009462656846e+001
 2.507428689467647e+000	 4.640057836704130e-001	 1.143446977379517e+001
 2.502928179485754e+000	 4.876992191976984e-001	 1.147911257256633e+001
 2.498189774527202e+000	 5.114174914281946e-001	 1.152059377915589e+001
 2.493212116529355e+000	 5.351573059384635e-001	 1.155960462745873e+001
 2.487993902845249e+000	 5.589153241109238e-001	 1.159295253247911e+001
 2.482533887679780e+000	 5.826881641594864e-001	 1.162098722126002e+001
 2.476830883507901e+000	 6.064724022048327e-001	 1.164408589571807e+001
 2.470883762473018e+000	 6.302645733991934e-001	 1.165578274763414e+001
 2.464691457763676e+000	 6.540611731004009e-001	 1.164193456833011e+001
 2.458252964966746e+000	 6.778586580949291e-001	 1.162859039833032e+001
 2.451567343395171e+000	 7.016534478695476e-001	 1.161575695238620e+001
 2.532011323680339e+000	 4.685548599798769e-001	 1.141037474774745e+001
 2.527466691051314e+000	 4.924805840914179e-001	 1.145550295810202e+001
 2.522681831141929e+000	 5.164313884032088e-001	 1.149543992195869e+001
 2.517655372575207e+000	 5.404039461935419e-001	 1.153006823999395e+001
 2.512385999933136e+000	 5.643948861132903e-001	 1.155925051799556e+001
 2.506872455206933e+000	 5.884007932215989e-001	 1.158282944595961e+001
 2.501113539229152e+000	 6.124182100717046e-001	 1.160062792997135e+001
 2.495108113085776e+000	 6.364436378467416e-001	 1.160391730960299e+001
 2.488855099506419e+000	 6.604735375453044e-001	 1.159229719881578e+001
 2.482353484230762e+000	 6.845043312164795e-001	 1.158087383072503e+001
 2.475602317349326e+000	 7.085324032439653e-001	 1.156964970768476e+001
 2.556593957893029e+000	 4.731039362893555e-001	 1.138479498000368e+001
 2.552005202616878e+000	 4.972619489849618e-001	 1.143057001232790e+001
 2.547173887756675e+000	 5.214452853778763e-001	 1.147107885279874e+001
 2.542098628621103e+000	 5.456505864481217e-001	 1.150618917653499e+001
 2.536778097021101e+000	 5.698744481150262e-001	 1.153574797367469e+001
 2.531211022734208e+000	 5.941134222829687e-001	 1.155958164186522e+001
 2.525396194950578e+000	 6.183640179377414e-001	 1.157749613341935e+001
 2.519332463698774e+000	 6.426227022933823e-001	 1.157080324138579e+001
 2.513018741249476e+000	 6.668859019892494e-001	 1.155538437520755e+001
 2.506454003495175e+000	 6.911500043370404e-001	 1.153890908029245e+001
 2.499637291303976e+000	 7.154113586173830e-001	 1.152181875931521e+001
 2.581176592105721e+000	 4.776530125988487e-001	 1.135789313513064e+001
 2.576543714182448e+000	 5.020433138783298e-001	 1.140448651570523e+001
 2.571665944371440e+000	 5.264591823521967e-001	 1.144575817784081e+001
 2.566541884667042e+000	 5.508972267022031e-001	 1.148156055866985e+001
 2.561170194109142e+000	 5.753540101161317e-001	 1.151172469278295e+001
 2.555549590261605e+000	 5.998260513435957e-001	 1.153606031817250e+001
 2.549678850672180e+000	 6.243098258029435e-001	 1.155435603877386e+001
 2.543556814312013e+000	 6.488017667391167e-001	 1.154393590242132e+001
 2.537182382992848e+000	 6.732982664322358e-001	 1.153141476824953e+001
 2.530554522759990e+000	 6.977956774566119e-001	 1.151752102036597e+001
 2.523672265259118e+000	 7.222903139898007e-001	 1.150225814202626e+001
 2.605759226318411e+000	 4.822020889083566e-001	 1.132983063401513e+001
 2.601082225748022e+000	 5.068246787715222e-001	 1.137742395863447e+001
 2.596158000986225e+000	 5.314730793261705e-001	 1.141965947969915e+001
 2.590985140713025e+000	 5.561438669557857e-001	 1.145637407604347e+001
 2.585562291197262e+000	 5.808335721166065e-001	 1.148738247869930e+001
 2.579888157789124e+000	 6.055386804034800e-001	 1.151247739035914e+001
 2.573961506393957e+000	 6.302556336673105e-001	 1.152642484047625e+001
 2.567781164925491e+000	 6.549808311839438e-001	 1.151833169545958e+001
 2.561346024736533e+000	 6.797106308742636e-001	 1.150855076002025e+001
 2.554655042025202e+000	 7.044413505751934e-001	 1.149709126990414e+001
 2.547707239214755e+000	 7.291692693612185e-001	 1.148395858533326e+001
 2.630341860531103e+000	 4.867511652178794e-001	 1.130076771197985e+001
 2.625620737313602e+000	 5.116060436645390e-001	 1.134955260173847e+001
 2.620650057601029e+000	 5.364869762997971e-001	 1.139296307355633e+001
 2.615428396759051e+000	 5.613905072088699e-001	 1.143082011984714e+001
 2.609954388285460e+000	 5.863131341164509e-001	 1.146292181202889e+001
 2.604226725316765e+000	 6.112513094626221e-001	 1.148904343357703e+001
 2.598244162115911e+000	 6.362014415308429e-001	 1.149910149868258e+001
 2.592005515539210e+000	 6.611598956278643e-001	 1.149388405070885e+001
 2.585509666480534e+000	 6.861229953153332e-001	 1.148668098270941e+001
 2.578755561290814e+000	 7.110870236927857e-001	 1.147750355648860e+001
 2.571742213170885e+000	 7.360482247316361e-001	 1.146635927588437e+001
 2.654924494743793e+000	 4.913002415274165e-001	 1.127086347367065e+001
 2.650159248879185e+000	 5.163874085573799e-001	 1.132104153279666e+001
 2.645142114215853e+000	 5.415008732730773e-001	 1.136584806584077e+001
 2.639871652805121e+000	 5.666371474614557e-001	 1.140508784293221e+001
 2.634346485373736e+000	 5.917926961156647e-001	 1.143854191184250e+001
 2.628565292844528e+000	 6.169639385210207e-001	 1.146596774470423e+001
 2.622526817838040e+000	 6.421472493935402e-001	 1.147300374572185e+001
 2.616229866153168e+000	 6.673389600708776e-001	 1.147048510622887e+001
 2.609673308224848e+000	 6.925353597554441e-001	 1.146569277933453e+001
 2.602856080556824e+000	 7.177326968093881e-001	 1.145864032818349e+001
 2.595777187127509e+000	 7.429271801010537e-001	 1.144933766937181e+001
 2.679507128956485e+000	 4.958493178369686e-001	 1.124027594492243e+001
 2.674697760444774e+000	 5.211687734500451e-001	 1.129205872054518e+001
 2.669634170830695e+000	 5.465147702460103e-001	 1.133849240967408e+001
 2.664314908851235e+000	 5.718837877135429e-001	 1.137936521661462e+001
 2.658738582462088e+000	 5.972722581142480e-001	 1.141444079354507e+001
 2.652903860372413e+000	 6.226765675786770e-001	 1.144345840098147e+001
 2.646809473560346e+000	 6.480930572554026e-001	 1.144802718295657e+001
 2.640454216767366e+000	 6.735180245129845e-001	 1.144802576720375e+001
 2.633836949969477e+000	 6.989477241945965e-001	 1.144547226287730e+001
 2.626956599823234e+000	 7.243783699250009e-001	 1.144038281222895e+001
 2.619812161084627e+000	 7.498061354694716e-001	 1.143277001629306e+001
 2.704089763169176e+000	 5.003983941465353e-001	 1.120916212179596e+001
 2.699236272010369e+000	 5.259501383425348e-001	 1.126277106554248e+001
 2.694126227445558e+000	 5.515286672185968e-001	 1.131107295729416e+001
 2.688758164897393e+000	 5.771304279651318e-001	 1.135383908438107e+001
 2.683130679550521e+000	 6.027518201122009e-001	 1.139081532358786e+001
 2.677242427900420e+000	 6.283891966355909e-001	 1.141889374299529e+001
 2.671092129282827e+000	 6.540388651164305e-001	 1.142406623823857e+001
 2.664678567381807e+000	 6.796970889541842e-001	 1.142639576198179e+001
 2.658000591714422e+000	 7.053600886327908e-001	 1.142590437219432e+001
 2.651057119090043e+000	 7.310240430396247e-001	 1.142261107053302e+001
 2.643847135042239e+000	 7.566850908368894e-001	 1.141653141673231e+001
 2.403497395488342e+000	 6.878955371177123e-001	 1.170261533231295e+001
 2.396699722934155e+000	 7.112175744331118e-001	 1.175053770740023e+001
 2.389658115285039e+000	 7.345298442800079e-001	 1.179283312801387e+001
 2.382371845262166e+000	 7.578287345960115e-001	 1.182937862751867e+001
 2.374840252984291e+000	 7.811106022040242e-001	 1.186005019908111e+001
 2.367062747117390e+000	 8.043717742891897e-001	 1.188472293913092e+001
 2.359038805988395e+000	 8.276085499197395e-001	 1.190327119887606e+001
 2.350767978661280e+000	 8.508172016108215e-001	 1.191556874378986e+001
 2.342249885973674e+000	 8.739939769303398e-001	 1.192148892096321e+001
 2.333484221532295e+000	 8.971351001457415e-001	 1.192090483418731e+001
 2.324470752665467e+000	 9.202367739106158e-001	 1.191368952660597e+001
 2.427532369441510e+000	 6.947744924941302e-001	 1.166009462656846e+001
 2.420666720161247e+000	 7.183297501827995e-001	 1.170715123969133e+001
 2.413554696435142e+000	 7.418751427282125e-001	 1.174876653811558e+001
 2.406195563711574e+000	 7.654070219473556e-001	 1.178482221317599e+001
 2.398588655510490e+000	 7.889217082313585e-001	 1.181519872787471e+001
 2.390733374584523e+000	 8.124154920372166e-001	 1.183977545434648e+001
 2.382629194043878e+000	 8.358846354238423e-001	 1.185843081963966e+001
 2.374275658443167e+000	 8.593253736315351e-001	 1.187104245974644e+001
 2.365672384828394e+000	 8.827339167038775e-001	 1.187748738178805e+001
 2.356819063742346e+000	 9.061064511509911e-001	 1.187764213423446e+001
 2.347715460186632e+000	 9.294391416530003e-001	 1.187138298500921e+001
 2.451567343395171e+000	 7.016534478695476e-001	 1.161575695238620e+001
 2.444633717388931e+000	 7.254419259314924e-001	 1.166217989616895e+001
 2.437451277585918e+000	 7.492204411754367e-001	 1.170334722131363e+001
 2.430019282161732e+000	 7.729853092977435e-001	 1.173914511331694e+001
 2.422337058037504e+000	 7.967328142577710e-001	 1.176945833723450e+001
 2.414404002052529e+000	 8.204592097843656e-001	 1.179417036926910e+001
 2.406219582100278e+000	 8.441607209271217e-001	 1.181316353694682e+001
 2.397783338226005e+000	 8.678335456514896e-001	 1.182631916782839e+001
 2.389094883684092e+000	 8.914738564767305e-001	 1.183351774667512e+001
 2.380153905953393e+000	 9.150778021556406e-001	 1.183463908096190e+001
 2.370960167708796e+000	 9.386415093948796e-001	 1.182956247460064e+001
 2.475602317349326e+000	 7.085324032439653e-001	 1.156964970768476e+001
 2.468600714617200e+000	 7.325541016791896e-001	 1.161566590142952e+001
 2.461347858737369e+000	 7.565657396216802e-001	 1.165661233878087e+001
 2.453843000612641e+000	 7.805635966471753e-001	 1.169237953799392e+001
 2.446085460565335e+000	 8.045439202832617e-001	 1.172285640073796e+001
 2.438074629521406e+000	 8.285029275306370e-001	 1.174793033792483e+001
 2.429809970157597e+000	 8.524368064295774e-001	 1.176748740440659e+001
 2.421291018009799e+000	 8.763417176706848e-001	 1.178141244250361e+001
 2.412517382540770e+000	 9.002137962488993e-001	 1.178958923429656e+001
 2.403488748165433e+000	 9.240491531596902e-001	 1.179190066258721e+001
 2.394204875231962e+000	 9.478438771362537e-001	 1.178822888040398e+001
 2.499637291303976e+000	 7.154113586173830e-001	 1.152181875931521e+001
 2.492567711846060e+000	 7.396662774258920e-001	 1.156765018112487e+001
 2.485244439889495e+000	 7.639110380669433e-001	 1.160859798201337e+001
 2.477666719064299e+000	 7.881418839956509e-001	 1.164455685387394e+001
 2.469833863093982e+000	 8.123550263078306e-001	 1.167541967177138e+001
 2.461745256991155e+000	 8.365466452760307e-001	 1.170107761412512e+001
 2.453400358215832e+000	 8.607128919312103e-001	 1.172142029205239e+001
 2.444798697794545e+000	 8.848498896891213e-001	 1.173633588784686e+001
 2.435939881398428e+000	 9.089537360203831e-001	 1.174571130253937e+001
 2.426823590378469e+000	 9.330205041631400e-001	 1.174943231245899e+001
 2.417449582756126e+000	 9.570462448771225e-001	 1.174738373468219e+001
 2.523672265259118e+000	 7.222903139898007e-001	 1.150225814202626e+001
 2.516534709075509e+000	 7.467784531715990e-001	 1.153977808494140e+001
 2.509141021042295e+000	 7.712563365112256e-001	 1.157164624160232e+001
 2.501490437516708e+000	 7.957201713431702e-001	 1.159777080876104e+001
 2.493582265623444e+000	 8.201661323314773e-001	 1.162717431306289e+001
 2.485415884461776e+000	 8.445903630205468e-001	 1.165363407052455e+001
 2.476990746274987e+000	 8.689889774320192e-001	 1.167497989508372e+001
 2.468306377580246e+000	 8.933580617067987e-001	 1.169110313612999e+001
 2.459362380257065e+000	 9.176936757911827e-001	 1.170189363711423e+001
 2.450158432592499e+000	 9.419918551659895e-001	 1.170723988786005e+001
 2.440694290281292e+000	 9.662486126174865e-001	 1.170702918611648e+001
 2.547707239214755e+000	 7.291692693612185e-001	 1.148395858533326e+001
 2.540501706305546e+000	 7.538906289163111e-001	 1.152210688428642e+001
 2.533037602195769e+000	 7.786016349545277e-001	 1.155478161165638e+001
 2.525314155969867e+000	 8.032984586897336e-001	 1.158190096954292e+001
 2.517330668153723e+000	 8.279772383542027e-001	 1.160338032524792e+001
 2.509086511933270e+000	 8.526340807641855e-001	 1.161913197995827e+001
 2.500581134335059e+000	 8.772650629320051e-001	 1.162906494162740e+001
 2.491814057366899e+000	 9.018662337237170e-001	 1.164572784649188e+001
 2.482784879116681e+000	 9.264336155612974e-001	 1.165814614080910e+001
 2.473493274807526e+000	 9.509632061682394e-001	 1.166532965001069e+001
 2.463938997807456e+000	 9.754509803573452e-001	 1.166716797073008e+001
 2.571742213170885e+000	 7.360482247316361e-001	 1.146635927588437e+001
 2.564468703536172e+000	 7.610028046600280e-001	 1.150516238208906e+001
 2.556934183349918e+000	 7.859469333968490e-001	 1.153867246851100e+001
 2.549137874423776e+000	 8.108767460353409e-001	 1.156681785928724e+001
 2.541079070684818e+000	 8.357883443760058e-001	 1.158952382147910e+001
 2.532757139405634e+000	 8.606777985069464e-001	 1.160671231227310e+001
 2.524171522396048e+000	 8.855411484311676e-001	 1.161830173043164e+001
 2.515321737154507e+000	 9.103744057398762e-001	 1.162420667301766e+001
 2.506207377977277e+000	 9.351735553307274e-001	 1.162433769843097e+001
 2.496828117023545e+000	 9.599345571698887e-001	 1.162370824519288e+001
 2.487183705334621e+000	 9.846533480966988e-001	 1.162780338444225e+001
 2.595777187127509e+000	 7.429271801010537e-001	 1.144933766937181e+001
 2.588435700767387e+000	 7.681149804027497e-001	 1.148881256965831e+001
 2.580830764504741e+000	 7.932922318381895e-001	 1.152317748514002e+001
 2.572961592878435e+000	 8.184550333799915e-001	 1.155237098489066e+001
 2.564827473216728e+000	 8.435994503968870e-001	 1.157632835417822e+001
 2.556427766878871e+000	 8.687215162488297e-001	 1.159498131984210e+001
 2.547761910457955e+000	 8.938172339295065e-001	 1.160825777997412e+001
 2.538829416943069e+000	 9.188825777552762e-001	 1.161608153897865e+001
 2.529629876838851e+000	 9.439134950994730e-001	 1.161837204910211e+001
 2.520162959240561e+000	 9.689059081709385e-001	 1.161504415953229e+001
 2.510428412862785e+000	 9.938557158355472e-001	 1.160600787417543e+001
 2.619812161084627e+000	 7.498061354694716e-001	 1.143277001629306e+001
 2.612402697999191e+000	 7.752271561444764e-001	 1.147292441582627e+001
 2.604727345660238e+000	 8.006375302785499e-001	 1.150815449251075e+001
 2.596785311333844e+000	 8.260333207236867e-001	 1.153840918937093e+001
 2.588575875749454e+000	 8.514105564168467e-001	 1.156363393438208e+001
 2.580098394352981e+000	 8.767652339898353e-001	 1.158377034367471e+001
 2.571352298520781e+000	 9.020933194270221e-001	 1.159875592909898e+001
 2.562337096732584e+000	 9.273907497699172e-001	 1.160852381127693e+001
 2.553052375701406e+000	 9.526534348675338e-001	 1.161300243928577e+001
 2.543497801458571e+000	 9.778772591713880e-001	 1.161211531812709e+001
 2.533673120391951e+000	 1.003058083573891e+000	 1.160578074514450e+001
 2.643847135042239e+000	 7.566850908368894e-001	 1.141653141673231e+001
 2.636369695231585e+000	 7.823393318852079e-001	 1.145736391342422e+001
 2.628623926816410e+000	 8.079828287179298e-001	 1.149346051785695e+001
 2.620609029790003e+000	 8.336116080664255e-001	 1.152478068204307e+001
 2.612324278282998e+000	 8.592216624358847e-001	 1.155128010712846e+001
 2.603769021827961e+000	 8.848089517299635e-001	 1.157291042406722e+001
 2.594942686584525e+000	 9.103694049237149e-001	 1.158961887871537e+001
 2.585844776523053e+000	 9.358989217837994e-001	 1.160134802252392e+001
 2.576474874564940e+000	 9.613933746349104e-001	 1.160803541002915e+001
 2.566832643677576e+000	 9.868486101712379e-001	 1.160961330434988e+001
 2.556917827922116e+000	 1.012260451311729e+000	 1.160600839190990e+001
 2.324470752665467e+000	 9.202367739106158e-001	 1.191368952660597e+001
 2.315209321330897e+000	 9.432951809896923e-001	 1.194749127448836e+001
 2.305699844977406e+000	 9.663064860216960e-001	 1.197709449358928e+001
 2.295942317358884e+000	 9.892668373179072e-001	 1.200238839823638e+001
 2.285936809298535e+000	 1.012172368694827e+000	 1.202326064172133e+001
 2.275683469402266e+000	 1.035019201340097e+000	 1.203959748607287e+001
 2.265182524719623e+000	 1.057803445709805e+000	 1.205128398017646e+001
 2.254434281350881e+000	 1.080521203455544e+000	 1.205820414599796e+001
 2.243439124998900e+000	 1.103168569379458e+000	 1.206024117263849e+001
 2.232197521464457e+000	 1.125741633415527e+000	 1.205727761791781e+001
 2.220710017083810e+000	 1.148236482635196e+000	 1.204919561715404e+001
 2.347715460186632e+000	 9.294391416530003e-001	 1.187138298500921e+001
 2.338361414538539e+000	 9.527281328023738e-001	 1.190641939254735e+001
 2.328756843421378e+000	 9.759695508843156e-001	 1.193713617569029e+001
 2.318901740526581e+000	 9.991595056932203e-001	 1.196341835828660e+001
 2.308796177385584e+000	 1.022294092383755e+000	 1.198514939894802e+001
 2.298440304090351e+000	 1.045369393355437e+000	 1.200221136770619e+001
 2.287834349960926e+000	 1.068381480168918e+000	 1.201448513122367e+001
 2.276978624158587e+000	 1.091326415492304e+000	 1.202185054630548e+001
 2.265873516243221e+000	 1.114200255075764e+000	 1.202418666142615e+001
 2.254519496673615e+000	 1.136999049752618e+000	 1.202137192595685e+001
 2.242917117249388e+000	 1.159718847465025e+000	 1.201328440674670e+001
 2.370960167708796e+000	 9.386415093948796e-001	 1.182956247460064e+001
 2.361513507747179e+000	 9.621610846146400e-001	 1.186589541617874e+001
 2.351813841866350e+000	 9.856326157465911e-001	 1.189779228565644e+001
 2.341861163695277e+000	 1.009052174068240e+000	 1.192513382854345e+001
 2.331655545473632e+000	 1.032415816072421e+000	 1.194779921552889e+001
 2.321197138779436e+000	 1.055719585370526e+000	 1.196566622610477e+001
 2.310486175203229e+000	 1.078959514627770e+000	 1.197861144096160e+001
 2.299522966967292e+000	 1.102131627528776e+000	 1.198651044289079e+001
 2.288307907488542e+000	 1.125231940771733e+000	 1.198923802589700e+001
 2.276841471883772e+000	 1.148256466089302e+000	 1.198666841219187e+001
 2.265124217415967e+000	 1.171201212294357e+000	 1.197867547670912e+001
 2.394204875231962e+000	 9.478438771362537e-001	 1.178822888040398e+001
 2.384665600956820e+000	 9.715940364264912e-001	 1.182592100272971e+001
 2.374870840312321e+000	 9.952956806085224e-001	 1.185906519783938e+001
 2.364820586864975e+000	 1.018944842442968e+000	 1.188753784354245e+001
 2.354514913562681e+000	 1.042537539760825e+000	 1.191121372786497e+001
 2.343953973469522e+000	 1.066069777385366e+000	 1.192996623972498e+001
 2.333138000446533e+000	 1.089537549086364e+000	 1.194366756860783e+001
 2.322067309776998e+000	 1.112936839564960e+000	 1.195218891296471e+001
 2.310742298734863e+000	 1.136263626467365e+000	 1.195540069702533e+001
 2.299163447094930e+000	 1.159513882425580e+000	 1.195317279568309e+001
 2.287331317583545e+000	 1.182683577123193e+000	 1.194537476707887e+001
 2.417449582756126e+000	 9.570462448771225e-001	 1.174738373468219e+001
 2.407817694167462e+000	 9.810269882379279e-001	 1.178649847241763e+001
 2.397927838759294e+000	 1.004958745470109e+000	 1.182095796821640e+001
 2.387780010035672e+000	 1.028837510817401e+000	 1.185063414133478e+001
 2.377374281652728e+000	 1.052659263448967e+000	 1.187539730090586e+001
 2.366710808160606e+000	 1.076419969399954e+000	 1.189511634375401e+001
 2.355789825690836e+000	 1.100115583544699e+000	 1.190965896144693e+001
 2.344611652587703e+000	 1.123742051600856e+000	 1.191889185629765e+001
 2.333176689982184e+000	 1.147295312162661e+000	 1.192268096599472e+001
 2.321485422307088e+000	 1.170771298761451e+000	 1.192089169650579e+001
 2.309538417752123e+000	 1.194165941951533e+000	 1.191338916286679e+001
 2.440694290281292e+000	 9.662486126174865e-001	 1.170702918611648e+001
 2.430969787379103e+000	 9.904599400489497e-001	 1.174763077676480e+001
 2.420984837207266e+000	 1.014621810331353e+000	 1.178347430193202e+001
 2.410739433207368e+000	 1.038730179191542e+000	 1.181442712998648e+001
 2.400233649743777e+000	 1.062780987136847e+000	 1.184035499345693e+001
 2.389467642852692e+000	 1.086770161414292e+000	 1.186112219407504e+001
 2.378441650936139e+000	 1.110693618002774e+000	 1.187659181730339e+001
 2.367155995399409e+000	 1.134547263636464e+000	 1.188662595605013e+001
 2.355611081230504e+000	 1.158326997857619e+000	 1.189108594323584e+001
 2.343807397520245e+000	 1.182028715096917e+000	 1.188983259284481e+001
 2.331745517921702e+000	 1.205648306779377e+000	 1.188272644905830e+001
 2.463938997807456e+000	 9.754509803573452e-001	 1.166716797073008e+001
 2.454121880591744e+000	 9.998928918595564e-001	 1.170932146881994e+001
 2.444041835656238e+000	 1.024284875192251e+000	 1.174661852267695e+001
 2.433698856380065e+000	 1.048622847565389e+000	 1.177892185597403e+001
 2.423093017835825e+000	 1.072902710824466e+000	 1.180609252545025e+001
 2.412224477545776e+000	 1.097120353428380e+000	 1.182799013327213e+001
 2.401093476182441e+000	 1.121271652460590e+000	 1.184447304913882e+001
 2.389700338212113e+000	 1.145352475671785e+000	 1.185539864182033e+001
 2.378045472479827e+000	 1.169358683552240e+000	 1.186062351978262e+001
 2.366129372734403e+000	 1.193286131431976e+000	 1.186000378051766e+001
 2.353952618092280e+000	 1.217130671606725e+000	 1.185339526816175e+001
 2.487183705334621e+000	 9.846533480966988e-001	 1.162780338444225e+001
 2.477273973805385e+000	 1.009325843669748e+000	 1.167157467504948e+001
 2.467098834106210e+000	 1.033947940052806e+000	 1.171039554378401e+001
 2.456658279553762e+000	 1.058515515938944e+000	 1.174412397435205e+001
 2.445952385928873e+000	 1.083024434511822e+000	 1.177261624705082e+001
 2.434981312239862e+000	 1.107470545442217e+000	 1.179572715854151e+001
 2.423745301429745e+000	 1.131849686918147e+000	 1.181331025163433e+001
 2.412244681025819e+000	 1.156157687706817e+000	 1.182521805476389e+001
 2.400479863730147e+000	 1.180390369246524e+000	 1.183130233079553e+001
 2.388451347949561e+000	 1.204543547766628e+000	 1.183141433476745e+001
 2.376159718263858e+000	 1.228613036433577e+000	 1.182540508013727e+001
 2.510428412862785e+000	 9.938557158355472e-001	 1.160600787417543e+001
 2.500426067020026e+000	 1.018758795479525e+000	 1.163509928091423e+001
 2.490155832557182e+000	 1.043611004913016e+000	 1.167481084092991e+001
 2.479617702728460e+000	 1.068408184312206e+000	 1.171003972057836e+001
 2.468811754022921e+000	 1.093146158198917e+000	 1.173993310947916e+001
 2.457738146934947e+000	 1.117820737455804e+000	 1.176434089138528e+001
 2.446397126678048e+000	 1.142427721375446e+000	 1.178311166962942e+001
 2.434789023840525e+000	 1.166962899741562e+000	 1.179609301465142e+001
 2.422914254981468e+000	 1.191422054940472e+000	 1.180313172111119e+001
 2.410773323165719e+000	 1.215800964100875e+000	 1.180407407417827e+001
 2.398366818436436e+000	 1.240095401259933e+000	 1.179876612455175e+001
 2.533673120391951e+000	 1.003058083573891e+000	 1.160578074514450e+001
 2.523578160235667e+000	 1.028191747288888e+000	 1.163672047594130e+001
 2.513212831009153e+000	 1.053274069772882e+000	 1.166183639423219e+001
 2.502577125904157e+000	 1.078300852685174e+000	 1.168098797861931e+001
 2.491671122117970e+000	 1.103267881885750e+000	 1.170805063743990e+001
 2.480494981631032e+000	 1.128170929469140e+000	 1.173383954897368e+001
 2.469048951927351e+000	 1.153005755832484e+000	 1.175388616829825e+001
 2.457333366656231e+000	 1.177768111776018e+000	 1.176803298873937e+001
 2.445348646233789e+000	 1.202453740634082e+000	 1.177612171268852e+001
 2.433095298382876e+000	 1.227058380434715e+000	 1.177799352657712e+001
 2.420573918610014e+000	 1.251577766085793e+000	 1.177329742418619e+001
 2.556917827922116e+000	 1.012260451311729e+000	 1.160600839190990e+001
 2.546730253452309e+000	 1.037624699097835e+000	 1.163869853831112e+001
 2.536269829462127e+000	 1.062937134632405e+000	 1.166555230372951e+001
 2.525536549080854e+000	 1.088193521057849e+000	 1.168643046845149e+001
 2.514530490214019e+000	 1.113389605572322e+000	 1.170118708824123e+001
 2.503251816328117e+000	 1.138521121482226e+000	 1.170966931772786e+001
 2.491700777177656e+000	 1.163583790289265e+000	 1.172564320495255e+001
 2.479877709472937e+000	 1.188573323810187e+000	 1.174104806233885e+001
 2.467783037487111e+000	 1.213485426327356e+000	 1.175028297383036e+001
 2.455417273601035e+000	 1.238315796768149e+000	 1.175318389679544e+001
 2.442781018784593e+000	 1.263060130911157e+000	 1.174637988305213e+001
 2.220710017083810e+000	 1.148236482635196e+000	 1.204919561715404e+001
 2.208977239107448e+000	 1.170649203275409e+000	 1.205956252453994e+001
 2.196999896018612e+000	 1.192975882787096e+000	 1.206393444177749e+001
 2.184778777790678e+000	 1.215212611902256e+000	 1.206209356456244e+001
 2.172314756082765e+000	 1.237355486717287e+000	 1.205382230684614e+001
 2.159608784372368e+000	 1.259400610790523e+000	 1.205219763405487e+001
 2.146661898024328e+000	 1.281344097251810e+000	 1.206449487644837e+001
 2.133475214295430e+000	 1.303182070921886e+000	 1.207399532106807e+001
 2.120049932274017e+000	 1.324910670439301e+000	 1.208067707972301e+001
 2.106387332754106e+000	 1.346526050392599e+000	 1.208452004963456e+001
 2.092488778043565e+000	 1.368024383455396e+000	 1.208550592313717e+001
 2.242917117249388e+000	 1.159718847465025e+000	 1.201328440674670e+001
 2.231067011493503e+000	 1.182355695312165e+000	 1.202090319263344e+001
 2.218969894973999e+000	 1.204905641619348e+000	 1.202274706137254e+001
 2.206626565563987e+000	 1.227364738025891e+000	 1.201861165109943e+001
 2.194037903639175e+000	 1.249729041589154e+000	 1.200829267056536e+001
 2.181204872211835e+000	 1.271994616903055e+000	 1.201995060270113e+001
 2.168128517000457e+000	 1.294157538228737e+000	 1.202950360800547e+001
 2.154809966434391e+000	 1.316213891635144e+000	 1.203662367892051e+001
 2.141250431592865e+000	 1.338159777147214e+000	 1.204130862485278e+001
 2.127451206077835e+000	 1.359991310899373e+000	 1.204355788653691e+001
 2.113413665820249e+000	 1.381704627291974e+000	 1.204337252352589e+001
 2.265124217415967e+000	 1.171201212294357e+000	 1.197867547670912e+001
 2.253156783880558e+000	 1.194062187348341e+000	 1.198416872731160e+001
 2.240939893930386e+000	 1.216835400450964e+000	 1.198410398217168e+001
 2.228474353338295e+000	 1.239516864148863e+000	 1.197828991608238e+001
 2.215761051196585e+000	 1.262102596460362e+000	 1.197950929681863e+001
 2.202800960052304e+000	 1.284588623014960e+000	 1.198892889325324e+001
 2.189595135977586e+000	 1.306970979205101e+000	 1.199625850020470e+001
 2.176144718574352e+000	 1.329245712347933e+000	 1.200151387251600e+001
 2.162450930912713e+000	 1.351408883854782e+000	 1.200471227616763e+001
 2.148515079402566e+000	 1.373456571405956e+000	 1.200587245730815e+001
 2.134338553597934e+000	 1.395384871128547e+000	 1.200501460775130e+001
 2.287331317583545e+000	 1.182683577123193e+000	 1.194537476707887e+001
 2.275246556268613e+000	 1.205768679383935e+000	 1.194935011002769e+001
 2.262909892887774e+000	 1.228765159281942e+000	 1.194798135200671e+001
 2.250322141113604e+000	 1.251668990271171e+000	 1.194252320930852e+001
 2.237484198754997e+000	 1.274476151330910e+000	 1.195167949671105e+001
 2.224397047893772e+000	 1.297182629126240e+000	 1.195904644612404e+001
 2.211061754955715e+000	 1.319784420180902e+000	 1.196465772897087e+001
 2.197479470715314e+000	 1.342277533060255e+000	 1.196854845029189e+001
 2.183651430233561e+000	 1.364657990562005e+000	 1.197075509971410e+001
 2.169578952728295e+000	 1.386921831912350e+000	 1.197131549875891e+001
 2.155263441376618e+000	 1.409065114965114e+000	 1.197026874455630e+001
 2.309538417752123e+000	 1.194165941951533e+000	 1.191338916286679e+001
 2.297336328657668e+000	 1.217475171418948e+000	 1.191643989550776e+001
 2.284879891846161e+000	 1.240694918112284e+000	 1.191435751592631e+001
 2.272169928889912e+000	 1.263821116392816e+000	 1.191712456715942e+001
 2.259207346314407e+000	 1.286849706200797e+000	 1.192441235821375e+001
 2.245993135736240e+000	 1.309776635236893e+000	 1.193022124154190e+001
 2.232528373934845e+000	 1.332597861156142e+000	 1.193460411347011e+001
 2.218814222857275e+000	 1.355309353772108e+000	 1.193761520145500e+001
 2.204851929555409e+000	 1.377907097268884e+000	 1.193930999363442e+001
 2.190642826055024e+000	 1.400387092418553e+000	 1.193974516461834e+001
 2.176188329156302e+000	 1.422745358801676e+000	 1.193897849762264e+001
 2.331745517921702e+000	 1.205648306779377e+000	 1.188272644905830e+001
 2.319426101047722e+000	 1.229181663453380e+000	 1.188543213683279e+001
 2.306849890805548e+000	 1.252624676941988e+000	 1.188459403204699e+001
 2.294017716667222e+000	 1.275973242513798e+000	 1.189174091488823e+001
 2.280930493874819e+000	 1.299223261070027e+000	 1.189764441332651e+001
 2.267589223579708e+000	 1.322370641346921e+000	 1.190237510717857e+001
 2.253994992914973e+000	 1.345411302130819e+000	 1.190600489500324e+001
 2.240148975000236e+000	 1.368341174483492e+000	 1.190860690642098e+001
 2.226052428878258e+000	 1.391156203975419e+000	 1.191025541044757e+001
 2.211706699382753e+000	 1.413852352924567e+000	 1.191102571996653e+001
 2.197113216936987e+000	 1.436425602638232e+000	 1.191099409247860e+001
 2.353952618092280e+000	 1.217130671606725e+000	 1.185339526816175e+001
 2.341515873438778e+000	 1.240888155487230e+000	 1.185632231476156e+001
 2.328819889765935e+000	 1.264554435771055e+000	 1.186037663642250e+001
 2.315865504445531e+000	 1.288125368634117e+000	 1.186632615508074e+001
 2.302653641436229e+000	 1.311596815938596e+000	 1.187131530735151e+001
 2.289185311424177e+000	 1.334964647456323e+000	 1.187543353666603e+001
 2.275461611896103e+000	 1.358224743104934e+000	 1.187877152841443e+001
 2.261483727144197e+000	 1.381372995194408e+000	 1.188142110138009e+001
 2.247252928202105e+000	 1.404405310681609e+000	 1.188347509505047e+001
 2.232770572711483e+000	 1.427317613430390e+000	 1.188502725296329e+001
 2.218038104718671e+000	 1.450105846474784e+000	 1.188617210226102e+001
 2.376159718263858e+000	 1.228613036433577e+000	 1.182540508013727e+001
 2.363605645830832e+000	 1.252594647520498e+000	 1.182962399438280e+001
 2.350789888727322e+000	 1.276484194599485e+000	 1.183562434181820e+001
 2.337713292224839e+000	 1.300277494753773e+000	 1.184083662673962e+001
 2.324376788998640e+000	 1.323970370806505e+000	 1.184536765341201e+001
 2.310781399269644e+000	 1.347558653565099e+000	 1.184932551828987e+001
 2.296928230878231e+000	 1.371038184078486e+000	 1.185281948519675e+001
 2.282818479289158e+000	 1.394404815904855e+000	 1.185595985606464e+001
 2.268453427526953e+000	 1.417654417387455e+000	 1.185885783741048e+001
 2.253834446041212e+000	 1.440782873936023e+000	 1.186162540274169e+001
 2.238962992501355e+000	 1.463786090311330e+000	 1.186437515109795e+001
 2.398366818436436e+000	 1.240095401259933e+000	 1.179876612455175e+001
 2.385695418223886e+000	 1.264301139553186e+000	 1.180485597163792e+001
 2.372759887689709e+000	 1.288413953427277e+000	 1.181030911985760e+001
 2.359561080005148e+000	 1.312429620872765e+000	 1.181523099248753e+001
 2.346099936562051e+000	 1.336343925673756e+000	 1.181974689505320e+001
 2.332377487116112e+000	 1.360152659673249e+000	 1.182398337319985e+001
 2.318394849861361e+000	 1.383851625051477e+000	 1.182806806753611e+001
 2.304153231435119e+000	 1.407436636614834e+000	 1.183212956386287e+001
 2.289653926852801e+000	 1.430903524092956e+000	 1.183629723899755e+001
 2.274898319371942e+000	 1.454248134441466e+000	 1.184070110241845e+001
 2.259887880285039e+000	 1.477466334147870e+000	 1.184547163397038e+001
 2.420573918610014e+000	 1.251577766085793e+000	 1.177329742418619e+001
 2.407785190617942e+000	 1.276007631585292e+000	 1.177906118817131e+001
 2.394729886653096e+000	 1.300343712254434e+000	 1.178440467172509e+001
 2.381408867786457e+000	 1.324581746991095e+000	 1.178947013197893e+001
 2.367823084126462e+000	 1.348717480540346e+000	 1.179440117640627e+001
 2.353973574963581e+000	 1.372746665780774e+000	 1.179934260252619e+001
 2.339861468845490e+000	 1.396665066023905e+000	 1.180444023259147e+001
 2.325487983582081e+000	 1.420468457324345e+000	 1.180984074348603e+001
 2.310854426179648e+000	 1.444152630798113e+000	 1.181569149207287e+001
 2.295962192703671e+000	 1.467713394946719e+000	 1.182214033625072e+001
 2.280812768069723e+000	 1.491146577984406e+000	 1.182933545199399e+001
 2.442781018784593e+000	 1.263060130911157e+000	 1.174637988305213e+001
 2.429874963012998e+000	 1.287714123616817e+000	 1.175222742831183e+001
 2.416699885617484e+000	 1.312273471080953e+000	 1.175788634954949e+001
 2.403256655568766e+000	 1.336733873108761e+000	 1.176351704112589e+001
 2.389546231691873e+000	 1.361091035406278e+000	 1.176928121943464e+001
 2.375569662812049e+000	 1.385340671887672e+000	 1.177534174283495e+001
 2.361328087830619e+000	 1.409478506995772e+000	 1.178186242635968e+001
 2.346822735730042e+000	 1.433500278033387e+000	 1.178900785145378e+001
 2.332054925507497e+000	 1.457401737502926e+000	 1.179694317101666e+001
 2.317026066036402e+000	 1.481178655451782e+000	 1.180583391003880e+001
 2.301737655855408e+000	 1.504826821820936e+000	 1.181584576214050e+001
 2.092488778043565e+000	 1.368024383455396e+000	 1.208550592313717e+001
 2.078355711706041e+000	 1.389401862522306e+000	 1.207013890609983e+001
 2.063989658236324e+000	 1.410654702842501e+000	 1.205419834602669e+001
 2.049392222669044e+000	 1.431779144149050e+000	 1.203781261711037e+001
 2.034565090120716e+000	 1.452771452782182e+000	 1.202111050219879e+001
 2.019510025265108e+000	 1.473627923803213e+000	 1.200422102855394e+001
 2.004228871742098e+000	 1.494344883097002e+000	 1.198727330112110e+001
 1.988723551500282e+000	 1.514918689460505e+000	 1.197039633360765e+001
 1.972996064073689e+000	 1.535345736674993e+000	 1.195371887768297e+001
 1.957048485793046e+000	 1.555622455559538e+000	 1.193736925061764e+001
 1.940882968932161e+000	 1.575745316003345e+000	 1.192147516169031e+001
 2.113413665820249e+000	 1.381704627291974e+000	 1.204337252352589e+001
 2.099139268819376e+000	 1.403295881148705e+000	 1.203068336834676e+001
 2.084629554814937e+000	 1.424761249871356e+000	 1.201728347200364e+001
 2.069886144891909e+000	 1.446096935590330e+000	 1.200328418149789e+001
 2.054910741017975e+000	 1.467299167309258e+000	 1.198879736618727e+001
 2.039705125513637e+000	 1.488364203040068e+000	 1.197393527141921e+001
 2.024271160455173e+000	 1.509288331926469e+000	 1.195881036956652e+001
 2.008610787010665e+000	 1.530067876353385e+000	 1.194353520873619e+001
 1.992726024709482e+000	 1.550699194039903e+000	 1.192822225943215e+001
 1.976618970645657e+000	 1.571178680113284e+000	 1.191298375946163e+001
 1.960291798615738e+000	 1.591502769161626e+000	 1.189793155738482e+001
 2.134338553597934e+000	 1.395384871128547e+000	 1.200501460775130e+001
 2.119922825933710e+000	 1.417189899775284e+000	 1.199441082365788e+001
 2.105269451394550e+000	 1.438867796900547e+000	 1.198296324385110e+001
 2.090380067115775e+000	 1.460414727032072e+000	 1.197076650627635e+001
 2.075256391916233e+000	 1.481826881836891e+000	 1.195791588430342e+001
 2.059900225763165e+000	 1.503100482277546e+000	 1.194450715792953e+001
 2.044313449169247e+000	 1.524231780756594e+000	 1.193063648227568e+001
 2.028498022522047e+000	 1.545217063246931e+000	 1.191640025361747e+001
 2.012455985346274e+000	 1.566052651405454e+000	 1.190189497320227e+001
 1.996189455499269e+000	 1.586734904667616e+000	 1.188721710911437e+001
 1.979700628300315e+000	 1.607260222320409e+000	 1.187246295645798e+001
 2.155263441376618e+000	 1.409065114965114e+000	 1.197026874455630e+001
 2.140706383049044e+000	 1.431083918402042e+000	 1.196117444760556e+001
 2.125909347975163e+000	 1.452974343930074e+000	 1.195110731573085e+001
 2.110873989340641e+000	 1.474732518474275e+000	 1.194014558799222e+001
 2.095602042815492e+000	 1.496354596365081e+000	 1.192836825136793e+001
 2.080095326013694e+000	 1.517836761515647e+000	 1.191585492923009e+001
 2.064355737884322e+000	 1.539175229587379e+000	 1.190268576700248e+001
 2.048385258034430e+000	 1.560366250141141e+000	 1.188894131521279e+001
 2.032185945984066e+000	 1.581406108771645e+000	 1.187470241016302e+001
 2.015759940353880e+000	 1.602291129222535e+000	 1.186005005245090e+001
 1.999109457985893e+000	 1.623017675479693e+000	 1.184506528358484e+001
 2.176188329156302e+000	 1.422745358801676e+000	 1.193897849762264e+001
 2.161489940165379e+000	 1.444977937028980e+000	 1.193083376601603e+001
 2.146549244556775e+000	 1.467080890959936e+000	 1.192159105172240e+001
 2.131367911566507e+000	 1.489050309916940e+000	 1.191131249743999e+001
 2.115947693715750e+000	 1.510882310893829e+000	 1.190006110576225e+001
 2.100290426265223e+000	 1.532573040754371e+000	 1.188790064463617e+001
 2.084398026600397e+000	 1.554118678418823e+000	 1.187489554988899e+001
 2.068272493547812e+000	 1.575515437036017e+000	 1.186111082500822e+001
 2.051915906622858e+000	 1.596759566138478e+000	 1.184661193837034e+001
 2.035330425209491e+000	 1.617847353778040e+000	 1.183146471812329e+001
 2.018518287672471e+000	 1.638775128639479e+000	 1.181573524493812e+001
 2.197113216936987e+000	 1.436425602638232e+000	 1.191099409247860e+001
 2.182273497282713e+000	 1.458871955656099e+000	 1.190325435257626e+001
 2.167189141139388e+000	 1.481187437990134e+000	 1.189429525392221e+001
 2.151861833793373e+000	 1.503368101360066e+000	 1.188416313803128e+001
 2.136293344617010e+000	 1.525410025423134e+000	 1.187290531783049e+001
 2.120485526517752e+000	 1.547309319993719e+000	 1.186056999981559e+001
 2.104440315317472e+000	 1.569062127250926e+000	 1.184720620316129e+001
 2.088159729062195e+000	 1.590664623931558e+000	 1.183286367594173e+001
 2.071645867262650e+000	 1.612113023505951e+000	 1.181759280862886e+001
 2.054900910066102e+000	 1.633403578334131e+000	 1.180144454504745e+001
 2.037927117360048e+000	 1.654532581799765e+000	 1.178447029097383e+001
 2.218038104718671e+000	 1.450105846474784e+000	 1.188617210226102e+001
 2.203057054401048e+000	 1.472765974283397e+000	 1.187830754355779e+001
 2.187829037723001e+000	 1.495293985020668e+000	 1.186910590593334e+001
 2.172355756021239e+000	 1.517685892803653e+000	 1.185859801784131e+001
 2.156638995519268e+000	 1.539937739952995e+000	 1.184681579025847e+001
 2.140680626771280e+000	 1.562045599233690e+000	 1.183379215526258e+001
 2.124482604035547e+000	 1.584005576083688e+000	 1.181956100144629e+001
 2.108046964577577e+000	 1.605813810827764e+000	 1.180415710629703e+001
 2.091375827903442e+000	 1.627466480874065e+000	 1.178761606568319e+001
 2.074471394923713e+000	 1.648959802890808e+000	 1.176997422059817e+001
 2.057335947048625e+000	 1.670290034960553e+000	 1.175126858132386e+001
 2.238962992501355e+000	 1.463786090311330e+000	 1.186437515109795e+001
 2.223840611520382e+000	 1.486659992910875e+000	 1.185587016853678e+001
 2.208468934307614e+000	 1.509400532051536e+000	 1.184591393073909e+001
 2.192849678250105e+000	 1.532003684247701e+000	 1.183452203443756e+001
 2.176984646422527e+000	 1.554465454483415e+000	 1.182171126964661e+001
 2.160875727025809e+000	 1.576781878474284e+000	 1.180749957439008e+001
 2.144524892754621e+000	 1.598949024917110e+000	 1.179190598614547e+001
 2.127934200093959e+000	 1.620962997724635e+000	 1.177495059010814e+001
 2.111105788545235e+000	 1.642819938242820e+000	 1.175665446438881e+001
 2.094041879782325e+000	 1.664516027448072e+000	 1.173703962227004e+001
 2.076744776738203e+000	 1.686047488121843e+000	 1.171612895165661e+001
 2.259887880285039e+000	 1.477466334147870e+000	 1.184547163397038e+001
 2.244624168640716e+000	 1.500554011538533e+000	 1.183582429607458e+001
 2.229108830893227e+000	 1.523507079082740e+000	 1.182461496202796e+001
 2.213343600479971e+000	 1.546321475692211e+000	 1.181184427166267e+001
 2.197330297326785e+000	 1.568993169014391e+000	 1.179751416855090e+001
 2.181070827281339e+000	 1.591518157715502e+000	 1.178162787061680e+001
 2.164567181474695e+000	 1.613892473751191e+000	 1.176418983734350e+001
 2.147821435611342e+000	 1.636112184622171e+000	 1.174520573365214e+001
 2.130835749188027e+000	 1.658173395612215e+000	 1.172468239054030e+001
 2.113612364641936e+000	 1.680072252005922e+000	 1.170262776257912e+001
 2.096153606428781e+000	 1.701804941283633e+000	 1.167905088237924e+001
 2.280812768069723e+000	 1.491146577984406e+000	 1.182933545199399e+001
 2.265407725762050e+000	 1.514448030166370e+000	 1.181805699339721e+001
 2.249748727479839e+000	 1.537613626114280e+000	 1.180510912810626e+001
 2.233837522710837e+000	 1.560639267137182e+000	 1.179047780760339e+001
 2.217675948232044e+000	 1.583520883545925e+000	 1.177415039731975e+001
 2.201265927537867e+000	 1.606254436957342e+000	 1.175611566287151e+001
 2.184609470195770e+000	 1.628835922585931e+000	 1.173636375276771e+001
 2.167708671129724e+000	 1.651261371520372e+000	 1.171488617764017e+001
 2.150565709831819e+000	 1.673526852982251e+000	 1.169167578605766e+001
 2.133182849502547e+000	 1.695628476564357e+000	 1.166672673699793e+001
 2.115562436120359e+000	 1.717562394445926e+000	 1.164003446906238e+001
 2.301737655855408e+000	 1.504826821820936e+000	 1.181584576214050e+001
 2.286191282884384e+000	 1.528342048794389e+000	 1.180246009918337e+001
 2.270388624067453e+000	 1.551720173146156e+000	 1.178730084759729e+001
 2.254331444942703e+000	 1.574957058582615e+000	 1.177033953303409e+001
 2.238021599138304e+000	 1.598048598078017e+000	 1.175154920510350e+001
 2.221461027795396e+000	 1.620990716199807e+000	 1.173090443897904e+001
 2.204651758917846e+000	 1.643779371421331e+000	 1.170838133334979e+001
 2.187595906649108e+000	 1.666410558419238e+000	 1.168395750474284e+001
 2.170295670476612e+000	 1.688880310352929e+000	 1.165761207825326e+001
 2.152753334364159e+000	 1.711184701123381e+000	 1.162932567473005e+001
 2.134971265812936e+000	 1.733319847608720e+000	 1.159908039447812e+001
 1.940882968932161e+000	 1.575745316003345e+000	 1.192147516169031e+001
 1.924501740789867e+000	 1.595710828974349e+000	 1.188487597918119e+001
 1.907907102708858e+000	 1.615515548502403e+000	 1.184237736439359e+001
 1.891101429031947e+000	 1.635156073634189e+000	 1.179399837711957e+001
 1.874087165996259e+000	 1.654629050357171e+000	 1.174115740312864e+001
 1.856866830566979e+000	 1.673931173491006e+000	 1.170827969910090e+001
 1.839443009211615e+000	 1.693059188543971e+000	 1.167155405157193e+001
 1.821818356616007e+000	 1.712009893532202e+000	 1.163096162636397e+001
 1.803995594343423e+000	 1.730780140759638e+000	 1.158648788051279e+001
 1.785977509438138e+000	 1.749366838556605e+000	 1.153812264022520e+001
 1.767766952975000e+000	 1.767766952975000e+000	 1.148586017085286e+001
 1.960291798615738e+000	 1.591502769161626e+000	 1.189793155738482e+001
 1.943746758191629e+000	 1.611667937262448e+000	 1.185983120751642e+001
 1.926986173729532e+000	 1.631670703985806e+000	 1.181697094674817e+001
 1.910012443315688e+000	 1.651507634368848e+000	 1.176939245236024e+001
 1.892828037649595e+000	 1.671175340858912e+000	 1.171714133425083e+001
 1.875435498866089e+000	 1.690670485223853e+000	 1.166026705974840e+001
 1.857837439297352e+000	 1.709989780427031e+000	 1.162659495369692e+001
 1.840036540176085e+000	 1.729129992464742e+000	 1.159100409614736e+001
 1.822035550281187e+000	 1.748087942163965e+000	 1.155281000538109e+001
 1.803837284527377e+000	 1.766860506938328e+000	 1.151201606319741e+001
 1.785444622500250e+000	 1.785444622500250e+000	 1.146862899218755e+001
 1.979700628300315e+000	 1.607260222320409e+000	 1.187246295645798e+001
 1.962991775594386e+000	 1.627625045550958e+000	 1.183346766396650e+001
 1.946065244751185e+000	 1.647825859469549e+000	 1.179083177291338e+001
 1.928923457600384e+000	 1.667859195103797e+000	 1.174461930161733e+001
 1.911568909303850e+000	 1.687721631360913e+000	 1.169489722391456e+001
 1.894004167166073e+000	 1.707409796956951e+000	 1.164173536722817e+001
 1.876231869383909e+000	 1.726920372310351e+000	 1.158520630579894e+001
 1.858254723736918e+000	 1.746250091397571e+000	 1.155312188798648e+001
 1.840075506219632e+000	 1.765395743568632e+000	 1.152167627800128e+001
 1.821697059617210e+000	 1.784354175320462e+000	 1.148889975454460e+001
 1.803122292026000e+000	 1.803122292026000e+000	 1.145481123589297e+001
 1.999109457985893e+000	 1.623017675479693e+000	 1.184506528358484e+001
 1.982236792998138e+000	 1.643582153839881e+000	 1.180576295351894e+001
 1.965144315773818e+000	 1.663981014953634e+000	 1.176391972386785e+001
 1.947834471886035e+000	 1.684210755839037e+000	 1.171962168721131e+001
 1.930309780959026e+000	 1.704267921863176e+000	 1.167295692735498e+001
 1.912572835466933e+000	 1.724149108690299e+000	 1.162401539088473e+001
 1.894626299471287e+000	 1.743850964193931e+000	 1.157288875509109e+001
 1.876472907298506e+000	 1.763370190330692e+000	 1.151967029254444e+001
 1.858115462158756e+000	 1.782703544973638e+000	 1.149299989420571e+001
 1.839556834707639e+000	 1.801847843703006e+000	 1.146867441984427e+001
 1.820799961552250e+000	 1.820799961552250e+000	 1.144429575492893e+001
 2.018518287672471e+000	 1.638775128639479e+000	 1.181573524493812e+001
 2.001481810402884e+000	 1.659539262129213e+000	 1.177669615605577e+001
 1.984223386797432e+000	 1.680136170438059e+000	 1.173619682553046e+001
 1.966745486172641e+000	 1.700562316574568e+000	 1.169434516274288e+001
 1.949050652615121e+000	 1.720814212365699e+000	 1.165125011646759e+001
 1.931141503768667e+000	 1.740888420423898e+000	 1.160702152013092e+001
 1.913020729559484e+000	 1.760781556077771e+000	 1.156176993463219e+001
 1.894691090860849e+000	 1.780490289264101e+000	 1.151560648905685e+001
 1.876155418098561e+000	 1.800011346378985e+000	 1.146864271961659e+001
 1.857416609798663e+000	 1.819341512085959e+000	 1.145124691820077e+001
 1.838477631079000e+000	 1.838477631079000e+000	 1.143697802752037e+001
 2.037927117360048e+000	 1.654532581799765e+000	 1.178447029097383e+001
 2.020726827808627e+000	 1.675496370418957e+000	 1.174624775612070e+001
 2.003302457822026e+000	 1.696291325922827e+000	 1.170762714662035e+001
 1.985656500460202e+000	 1.716913877310390e+000	 1.166873794017481e+001
 1.967791524272137e+000	 1.737360502868483e+000	 1.162970971417138e+001
 1.949710172071277e+000	 1.757627732157748e+000	 1.159067196485425e+001
 1.931415159648502e+000	 1.777712147961873e+000	 1.155175392523754e+001
 1.912909274423948e+000	 1.797610388197801e+000	 1.151308438213572e+001
 1.894195374039045e+000	 1.817319147784671e+000	 1.147479149269238e+001
 1.875276384890282e+000	 1.836835180469323e+000	 1.143700260079264e+001
 1.856155300606249e+000	 1.856155300606249e+000	 1.143275984166858e+001
 2.057335947048625e+000	 1.670290034960553e+000	 1.175126858132386e+001
 2.039971845215364e+000	 1.691453478709113e+000	 1.171439957666120e+001
 2.022381528847599e+000	 1.712446481407935e+000	 1.167817670229833e+001
 2.004567514748718e+000	 1.733265438046503e+000	 1.164275076443749e+001
 1.986532395930073e+000	 1.753906793371528e+000	 1.160827174105854e+001
 1.968278840374762e+000	 1.774367043891847e+000	 1.157488857520588e+001
 1.949809589738340e+000	 1.794642739846234e+000	 1.154274896818005e+001
 1.931127457987801e+000	 1.814730487131792e+000	 1.151199917305748e+001
 1.912235329980210e+000	 1.834626949190698e+000	 1.148278378896415e+001
 1.893136159982496e+000	 1.854328848853096e+000	 1.145524555653133e+001
 1.873832970134000e+000	 1.873832970134000e+000	 1.143154899752030e+001
 2.076744776738203e+000	 1.686047488121843e+000	 1.171612895165661e+001
 2.059216862623095e+000	 1.707410586999680e+000	 1.168113471648642e+001
 2.041460599874153e+000	 1.728601636893384e+000	 1.164781336321177e+001
 2.023478529038190e+000	 1.749616998782907e+000	 1.161633679506602e+001
 2.005273267588929e+000	 1.770453083874833e+000	 1.158687517064342e+001
 1.986847508679121e+000	 1.791106355626198e+000	 1.155959667149474e+001
 1.968204019828998e+000	 1.811573331730855e+000	 1.153466727077647e+001
 1.949345641552410e+000	 1.831850586066073e+000	 1.151225050342400e+001
 1.930275285922055e+000	 1.851934750597065e+000	 1.149250723831969e+001
 1.910995935075305e+000	 1.871822517237279e+000	 1.147559545292643e+001
 1.891510639662249e+000	 1.891510639662249e+000	 1.139917178758607e+001
 2.096153606428781e+000	 1.701804941283633e+000	 1.167905088237924e+001
 2.078461880031822e+000	 1.723367695290657e+000	 1.164643749119957e+001
 2.060539670901687e+000	 1.744756792379175e+000	 1.161650676959243e+001
 2.042389543328616e+000	 1.765968559519602e+000	 1.158945149441286e+001
 2.024014139248705e+000	 1.786999374378399e+000	 1.156546179265311e+001
 2.005416176984356e+000	 1.807845667360798e+000	 1.154472488353219e+001
 1.986598449920475e+000	 1.828503923615737e+000	 1.152742482277415e+001
 1.967563825117773e+000	 1.848970685000643e+000	 1.151374224959171e+001
 1.948315241864579e+000	 1.869242552003771e+000	 1.150385413689160e+001
 1.928855710168709e+000	 1.889316185621873e+000	 1.144534537423880e+001
 1.909188309190999e+000	 1.909188309190999e+000	 1.136858352731694e+001
 2.115562436120359e+000	 1.717562394445926e+000	 1.164003446906238e+001
 2.097706897441544e+000	 1.739324803582046e+000	 1.161029337738158e+001
 2.079618741930201e+000	 1.760911947865306e+000	 1.158422825008277e+001
 2.061300557619997e+000	 1.782320120256587e+000	 1.156205252201411e+001
 2.042755010909402e+000	 1.803545664882226e+000	 1.154397608384349e+001
 2.023984845290466e+000	 1.824584979095650e+000	 1.153020499882000e+001
 2.004992880012773e+000	 1.845434515500879e+000	 1.152094122284502e+001
 1.985782008683892e+000	 1.866090783935504e+000	 1.151638232841706e+001
 1.966355197807784e+000	 1.886550353410819e+000	 1.147550774314846e+001
 1.946715485262708e+000	 1.906809854006877e+000	 1.140692959700905e+001
 1.926865978720250e+000	 1.926865978720250e+000	 1.134204064966697e+001
 2.134971265812936e+000	 1.733319847608720e+000	 1.159908039447812e+001
 2.116951914852261e+000	 1.755281911873847e+000	 1.157268895981943e+001
 2.098697812959695e+000	 1.777067103351779e+000	 1.155095074499007e+001
 2.080211571912335e+000	 1.798671680993865e+000	 1.153409963471740e+001
 2.061495882571018e+000	 1.820091955386313e+000	 1.152236508586143e+001
 2.042553513597452e+000	 1.841324290830752e+000	 1.151597181901876e+001
 2.023387310105892e+000	 1.862365107386282e+000	 1.151513951454373e+001
 2.004000192250766e+000	 1.883210882870656e+000	 1.149159139590038e+001
 1.984395153751669e+000	 1.903858154818207e+000	 1.142943735996015e+001
 1.964575260357303e+000	 1.924303522392292e+000	 1.137199957273370e+001
 1.944543648250000e+000	 1.944543648250000e+000	 1.131934600769344e+001
 1.767766952975000e+000	 1.767766952975000e+000	 1.148586017085286e+001
 1.749366838556605e+000	 1.785977509438138e+000	 1.141271891508979e+001
 1.730780140759639e+000	 1.803995594343423e+000	 1.134764946615283e+001
 1.712009893532202e+000	 1.821818356616006e+000	 1.129080917279698e+001
 1.693059188543972e+000	 1.839443009211615e+000	 1.124234834615611e+001
 1.673931173491006e+000	 1.856866830566979e+000	 1.120241014912443e+001
 1.654629050357171e+000	 1.874087165996259e+000	 1.117113049272824e+001
 1.635156073634190e+000	 1.891101429031947e+000	 1.107613908375955e+001
 1.615515548502402e+000	 1.907907102708858e+000	 1.098548543055491e+001
 1.595710828974349e+000	 1.924501740789867e+000	 1.090346135259951e+001
 1.575745316003345e+000	 1.940882968932160e+000	 1.083028160538359e+001
 1.785444622500250e+000	 1.785444622500250e+000	 1.146862899218755e+001
 1.766860506938328e+000	 1.803837284527377e+000	 1.140929692263994e+001
 1.748087942163965e+000	 1.822035550281187e+000	 1.135724175770537e+001
 1.729129992464742e+000	 1.840036540176085e+000	 1.131260820939154e+001
 1.709989780427031e+000	 1.857837439297352e+000	 1.127553481123175e+001
 1.690670485223853e+000	 1.875435498866089e+000	 1.124425171453763e+001
 1.671175340858912e+000	 1.892828037649594e+000	 1.114589283706251e+001
 1.651507634368848e+000	 1.910012443315688e+000	 1.105482462206602e+001
 1.631670703985806e+000	 1.926986173729532e+000	 1.097127124382350e+001
 1.611667937262448e+000	 1.943746758191629e+000	 1.089545112768955e+001
 1.591502769161626e+000	 1.960291798615738e+000	 1.082757666061506e+001
 1.803122292026000e+000	 1.803122292026000e+000	 1.145481123589297e+001
 1.784354175320462e+000	 1.821697059617210e+000	 1.140893360548685e+001
 1.765395743568632e+000	 1.840075506219632e+000	 1.136955601331308e+001
 1.746250091397571e+000	 1.858254723736918e+000	 1.133681065637066e+001
 1.726920372310351e+000	 1.876231869383909e+000	 1.130556194979076e+001
 1.707409796956950e+000	 1.894004167166073e+000	 1.120959455183045e+001
 1.687721631360913e+000	 1.911568909303850e+000	 1.111982205812420e+001
 1.667859195103797e+000	 1.928923457600383e+000	 1.103646911544356e+001
 1.647825859469549e+000	 1.946065244751185e+000	 1.095975583929179e+001
 1.627625045550958e+000	 1.962991775594386e+000	 1.088989751834350e+001
 1.607260222320409e+000	 1.979700628300316e+000	 1.082710432289555e+001
 1.820799961552250e+000	 1.820799961552250e+000	 1.144429575492893e+001
 1.801847843703005e+000	 1.839556834707639e+000	 1.141152858822409e+001
 1.782703544973638e+000	 1.858115462158756e+000	 1.138450206914043e+001
 1.763370190330691e+000	 1.876472907298506e+000	 1.135719179410538e+001
 1.743850964193931e+000	 1.894626299471287e+000	 1.126524882038081e+001
 1.724149108690299e+000	 1.912572835466933e+000	 1.117842836163860e+001
 1.704267921863176e+000	 1.930309780959026e+000	 1.109695358182677e+001
 1.684210755839037e+000	 1.947834471886035e+000	 1.102104432561132e+001
 1.663981014953634e+000	 1.965144315773819e+000	 1.095091681982894e+001
 1.643582153839880e+000	 1.982236792998137e+000	 1.088678337699833e+001
 1.623017675479693e+000	 1.999109457985893e+000	 1.082885210152546e+001
 1.838477631079000e+000	 1.838477631079000e+000	 1.143697802752037e+001
 1.819341512085959e+000	 1.857416609798663e+000	 1.141698772102519e+001
 1.800011346378985e+000	 1.876155418098561e+000	 1.139729742877169e+001
 1.780490289264101e+000	 1.894691090860850e+000	 1.131095505732780e+001
 1.760781556077771e+000	 1.913020729559484e+000	 1.122868809265254e+001
 1.740888420423898e+000	 1.931141503768667e+000	 1.115071628626762e+001
 1.720814212365699e+000	 1.949050652615121e+000	 1.107725727308738e+001
 1.700562316574568e+000	 1.966745486172641e+000	 1.100852627297465e+001
 1.680136170438060e+000	 1.984223386797433e+000	 1.094473579239494e+001
 1.659539262129213e+000	 2.001481810402884e+000	 1.088609532681053e+001
 1.638775128639479e+000	 2.018518287672471e+000	 1.083281106446112e+001
 1.856155300606249e+000	 1.856155300606249e+000	 1.143275984166858e+001
 1.836835180469322e+000	 1.875276384890282e+000	 1.142412939395988e+001
 1.817319147784672e+000	 1.894195374039045e+000	 1.134490616251097e+001
 1.797610388197801e+000	 1.912909274423948e+000	 1.126873839333020e+001
 1.777712147961873e+000	 1.931415159648502e+000	 1.119584052497236e+001
 1.757627732157748e+000	 1.949710172071277e+000	 1.112642606911720e+001
 1.737360502868483e+000	 1.967791524272137e+000	 1.106070731530823e+001
 1.716913877310390e+000	 1.985656500460202e+000	 1.099889503383055e+001
 1.696291325922827e+000	 2.003302457822026e+000	 1.094119817736922e+001
 1.675496370418957e+000	 2.020726827808626e+000	 1.088782358209782e+001
 1.654532581799765e+000	 2.037927117360048e+000	 1.083897566885480e+001
 1.873832970134000e+000	 1.873832970134000e+000	 1.143154899752030e+001
 1.854328848853096e+000	 1.893136159982496e+000	 1.136538731538522e+001
 1.834626949190698e+000	 1.912235329980210e+000	 1.129680776928089e+001
 1.814730487131792e+000	 1.931127457987802e+000	 1.123050001223323e+001
 1.794642739846235e+000	 1.949809589738340e+000	 1.116667154800511e+001
 1.774367043891847e+000	 1.968278840374762e+000	 1.110552983764809e+001
 1.753906793371527e+000	 1.986532395930073e+000	 1.104728200667425e+001
 1.733265438046503e+000	 2.004567514748718e+000	 1.099213454905208e+001
 1.712446481407935e+000	 2.022381528847600e+000	 1.094029302867271e+001
 1.691453478709112e+000	 2.039971845215364e+000	 1.089196177894494e+001
 1.670290034960553e+000	 2.057335947048625e+000	 1.084734360118711e+001
 1.891510639662249e+000	 1.891510639662249e+000	 1.139917178758607e+001
 1.871822517237279e+000	 1.910995935075305e+000	 1.131121499536465e+001
 1.851934750597065e+000	 1.930275285922054e+000	 1.125295777482379e+001
 1.831850586066072e+000	 1.949345641552410e+000	 1.119620287084577e+001
 1.811573331730855e+000	 1.968204019828998e+000	 1.114115104638240e+001
 1.791106355626197e+000	 1.986847508679121e+000	 1.108800389851978e+001
 1.770453083874833e+000	 2.005273267588930e+000	 1.103696356787371e+001
 1.749616998782907e+000	 2.023478529038189e+000	 1.098823244350060e+001
 1.728601636893384e+000	 2.041460599874153e+000	 1.094201286397605e+001
 1.707410586999679e+000	 2.059216862623095e+000	 1.089850681530794e+001
 1.686047488121843e+000	 2.076744776738203e+000	 1.085791562636369e+001
 1.909188309190999e+000	 1.909188309190999e+000	 1.136858352731694e+001
 1.889316185621873e+000	 1.928855710168709e+000	 1.128645390506019e+001
 1.869242552003772e+000	 1.948315241864579e+000	 1.121331652798281e+001
 1.848970685000643e+000	 1.967563825117773e+000	 1.116581445291087e+001
 1.828503923615737e+000	 1.986598449920475e+000	 1.111925315250042e+001
 1.807845667360798e+000	 2.005416176984356e+000	 1.107382854410895e+001
 1.786999374378399e+000	 2.024014139248705e+000	 1.102973796050069e+001
 1.765968559519602e+000	 2.042389543328615e+000	 1.098717985547079e+001
 1.744756792379174e+000	 2.060539670901687e+000	 1.094635350434076e+001
 1.723367695290657e+000	 2.078461880031822e+000	 1.090745870000158e+001
 1.701804941283634e+000	 2.096153606428781e+000	 1.087069544519565e+001
 1.926865978720250e+000	 1.926865978720250e+000	 1.134204064966697e+001
 1.906809854006877e+000	 1.946715485262708e+000	 1.127105463778271e+001
 1.886550353410819e+000	 1.966355197807783e+000	 1.119813695726905e+001
 1.866090783935504e+000	 1.985782008683892e+000	 1.113930656144808e+001
 1.845434515500879e+000	 2.004992880012773e+000	 1.110095605166832e+001
 1.824584979095649e+000	 2.023984845290466e+000	 1.106298786967837e+001
 1.803545664882226e+000	 2.042755010909402e+000	 1.102559471545404e+001
 1.782320120256588e+000	 2.061300557619997e+000	 1.098897127552402e+001
 1.760911947865306e+000	 2.079618741930201e+000	 1.095331392268761e+001
 1.739324803582046e+000	 2.097706897441543e+000	 1.091882040999941e+001
 1.717562394445926e+000	 2.115562436120359e+000	 1.088568955972492e+001
 1.944543648250000e+000	 1.944543648250000e+000	 1.131934600769344e+001
 1.924303522392292e+000	 1.964575260357303e+000	 1.125924950707794e+001
 1.903858154818207e+000	 1.984395153751669e+000	 1.119654382584439e+001
 1.883210882870656e+000	 2.004000192250766e+000	 1.113122180483960e+001
 1.862365107386283e+000	 2.023387310105892e+000	 1.108624179788490e+001
 1.841324290830751e+000	 2.042553513597451e+000	 1.105546960051846e+001
 1.820091955386314e+000	 2.061495882571018e+000	 1.102452677069611e+001
 1.798671680993865e+000	 2.080211571912334e+000	 1.099360439411260e+001
 1.777067103351779e+000	 2.098697812959695e+000	 1.096289610053030e+001
 1.755281911873847e+000	 2.116951914852261e+000	 1.093259775551743e+001
 1.733319847608720e+000	 2.134971265812937e+000	 1.090290714589557e+001
 1.575745316003345e+000	 1.940882968932160e+000	 1.083028160538359e+001
 1.555622455559537e+000	 1.957048485793046e+000	 1.075582364939128e+001
 1.535345736674993e+000	 1.972996064073689e+000	 1.068231524603854e+001
 1.514918689460505e+000	 1.988723551500282e+000	 1.060987177889747e+001
 1.494344883097002e+000	 2.004228871742098e+000	 1.053860893938770e+001
 1.473627923803213e+000	 2.019510025265108e+000	 1.046864251940807e+001
 1.452771452782182e+000	 2.034565090120716e+000	 1.040008820264635e+001
 1.431779144149050e+000	 2.049392222669044e+000	 1.033306135508748e+001
 1.410654702842500e+000	 2.063989658236325e+000	 1.026767681524301e+001
 1.389401862522307e+000	 2.078355711706042e+000	 1.020404868462496e+001
 1.368024383455396e+000	 2.092488778043565e+000	 1.014229011898342e+001
 1.591502769161626e+000	 1.960291798615738e+000	 1.082757666061506e+001
 1.571178680113283e+000	 1.976618970645657e+000	 1.075460334317075e+001
 1.550699194039903e+000	 1.992726024709482e+000	 1.068258777962216e+001
 1.530067876353385e+000	 2.008610787010665e+000	 1.061163317726404e+001
 1.509288331926469e+000	 2.024271160455173e+000	 1.054184319553508e+001
 1.488364203040068e+000	 2.039705125513637e+000	 1.047332174791962e+001
 1.467299167309258e+000	 2.054910741017975e+000	 1.040617280219729e+001
 1.446096935590331e+000	 2.069886144891909e+000	 1.034050017955425e+001
 1.424761249871356e+000	 2.084629554814938e+000	 1.027640735307135e+001
 1.403295881148705e+000	 2.099139268819376e+000	 1.021399724610639e+001
 1.381704627291974e+000	 2.113413665820249e+000	 1.015337203108485e+001
 1.607260222320409e+000	 1.979700628300316e+000	 1.082710432289555e+001
 1.586734904667616e+000	 1.996189455499269e+000	 1.075511361513579e+001
 1.566052651405454e+000	 2.012455985346274e+000	 1.068408960254232e+001
 1.545217063246930e+000	 2.028498022522047e+000	 1.061412361962770e+001
 1.524231780756594e+000	 2.044313449169247e+000	 1.054530759722734e+001
 1.503100482277546e+000	 2.059900225763165e+000	 1.047773387333463e+001
 1.481826881836891e+000	 2.075256391916233e+000	 1.041149500195533e+001
 1.460414727032072e+000	 2.090380067115775e+000	 1.034668356048728e+001
 1.438867796900547e+000	 2.105269451394550e+000	 1.028339195613475e+001
 1.417189899775284e+000	 2.119922825933710e+000	 1.022171223186924e+001
 1.395384871128547e+000	 2.134338553597933e+000	 1.016173587244627e+001
 1.623017675479693e+000	 1.999109457985893e+000	 1.082885210152546e+001
 1.602291129222535e+000	 2.015759940353880e+000	 1.075735466870346e+001
 1.581406108771645e+000	 2.032185945984065e+000	 1.068683353384365e+001
 1.560366250141141e+000	 2.048385258034430e+000	 1.061736845691049e+001
 1.539175229587379e+000	 2.064355737884322e+000	 1.054903993833583e+001
 1.517836761515647e+000	 2.080095326013694e+000	 1.048192903845554e+001
 1.496354596365081e+000	 2.095602042815492e+000	 1.041611719463601e+001
 1.474732518474276e+000	 2.110873989340641e+000	 1.035168603659159e+001
 1.452974343930074e+000	 2.125909347975163e+000	 1.028871720039590e+001
 1.431083918402042e+000	 2.140706383049044e+000	 1.022729214169405e+001
 1.409065114965114e+000	 2.155263441376618e+000	 1.016749194862146e+001
 1.638775128639479e+000	 2.018518287672471e+000	 1.083281106446112e+001
 1.617847353778040e+000	 2.035330425209491e+000	 1.076132974331069e+001
 1.596759566138478e+000	 2.051915906622858e+000	 1.069083490756952e+001
 1.575515437036017e+000	 2.068272493547812e+000	 1.062139503587319e+001
 1.554118678418823e+000	 2.084398026600397e+000	 1.055307949151713e+001
 1.532573040754372e+000	 2.100290426265223e+000	 1.048595835016504e+001
 1.510882310893829e+000	 2.115947693715751e+000	 1.042010222491934e+001
 1.489050309916940e+000	 2.131367911566507e+000	 1.035558208924790e+001
 1.467080890959936e+000	 2.146549244556776e+000	 1.029246909826625e+001
 1.444977937028980e+000	 2.161489940165378e+000	 1.023083440887702e+001
 1.422745358801676e+000	 2.176188329156302e+000	 1.017074899926969e+001
 1.654532581799765e+000	 2.037927117360048e+000	 1.083897566885480e+001
 1.633403578334131e+000	 2.054900910066102e+000	 1.076704496984201e+001
 1.612113023505951e+000	 2.071645867262650e+000	 1.069611145300015e+001
 1.590664623931557e+000	 2.088159729062194e+000	 1.062623260407557e+001
 1.569062127250926e+000	 2.104440315317472e+000	 1.055746693779453e+001
 1.547309319993719e+000	 2.120485526517752e+000	 1.048987383351755e+001
 1.525410025423134e+000	 2.136293344617009e+000	 1.042351336792770e+001
 1.503368101360066e+000	 2.151861833793373e+000	 1.035844614524221e+001
 1.481187437990134e+000	 2.167189141139388e+000	 1.029473312544159e+001
 1.458871955656099e+000	 2.182273497282713e+000	 1.023243545101507e+001
 1.436425602638232e+000	 2.197113216936987e+000	 1.017161427272225e+001
 1.670290034960553e+000	 2.057335947048625e+000	 1.084734360118711e+001
 1.648959802890809e+000	 2.074471394923714e+000	 1.077450923424039e+001
 1.627466480874065e+000	 2.091375827903443e+000	 1.070268318166968e+001
 1.605813810827764e+000	 2.108046964577577e+000	 1.063191222021588e+001
 1.584005576083689e+000	 2.124482604035547e+000	 1.056224430012580e+001
 1.562045599233690e+000	 2.140680626771280e+000	 1.049372838842915e+001
 1.539937739952996e+000	 2.156638995519268e+000	 1.042641430892204e+001
 1.517685892803653e+000	 2.172355756021238e+000	 1.036035257934115e+001
 1.495293985020667e+000	 2.187829037723001e+000	 1.029559424621895e+001
 1.472765974283397e+000	 2.203057054401047e+000	 1.023219071791599e+001
 1.450105846474784e+000	 2.218038104718671e+000	 1.017019359632830e+001
 1.686047488121843e+000	 2.076744776738203e+000	 1.085791562636369e+001
 1.664516027448072e+000	 2.094041879782325e+000	 1.078373404876631e+001
 1.642819938242820e+000	 2.111105788545235e+000	 1.071057228071885e+001
 1.620962997724635e+000	 2.127934200093960e+000	 1.063846666949839e+001
 1.598949024917110e+000	 2.144524892754621e+000	 1.056745488069588e+001
 1.576781878474284e+000	 2.160875727025809e+000	 1.049757574879617e+001
 1.554465454483415e+000	 2.176984646422527e+000	 1.042886912413642e+001
 1.532003684247701e+000	 2.192849678250105e+000	 1.036137571672279e+001
 1.509400532051535e+000	 2.208468934307614e+000	 1.029513693739377e+001
 1.486659992910875e+000	 2.223840611520382e+000	 1.023019473682249e+001
 1.463786090311330e+000	 2.238962992501355e+000	 1.016659144285549e+001
 1.701804941283634e+000	 2.096153606428781e+000	 1.087069544519565e+001
 1.680072252005922e+000	 2.113612364641936e+000	 1.079473343040894e+001
 1.658173395612215e+000	 2.130835749188027e+000	 1.071980301217255e+001
 1.636112184622171e+000	 2.147821435611342e+000	 1.064593038370234e+001
 1.613892473751191e+000	 2.164567181474696e+000	 1.057314320169338e+001
 1.591518157715502e+000	 2.181070827281338e+000	 1.050147044388518e+001
 1.568993169014391e+000	 2.197330297326785e+000	 1.043094226267739e+001
 1.546321475692211e+000	 2.213343600479971e+000	 1.036158983527228e+001
 1.523507079082740e+000	 2.229108830893226e+000	 1.029344521082927e+001
 1.500554011538533e+000	 2.244624168640716e+000	 1.022654115512327e+001
 1.477466334147870e+000	 2.259887880285039e+000	 1.016091099320244e+001
 1.717562394445926e+000	 2.115562436120359e+000	 1.088568955972492e+001
 1.695628476564358e+000	 2.133182849502547e+000	 1.080752378599035e+001
 1.673526852982252e+000	 2.150565709831819e+000	 1.073040161776149e+001
 1.651261371520371e+000	 2.167708671129724e+000	 1.065433936565120e+001
 1.628835922585931e+000	 2.184609470195770e+000	 1.057935494934718e+001
 1.606254436957342e+000	 2.201265927537867e+000	 1.050546776184788e+001
 1.583520883545925e+000	 2.217675948232044e+000	 1.043269852941990e+001
 1.560639267137182e+000	 2.233837522710837e+000	 1.036106916775138e+001
 1.537613626114279e+000	 2.249748727479839e+000	 1.029060263478379e+001
 1.514448030166371e+000	 2.265407725762050e+000	 1.022132278071361e+001
 1.491146577984406e+000	 2.280812768069723e+000	 1.015325419565868e+001
 1.733319847608720e+000	 2.134971265812937e+000	 1.090290714589557e+001
 1.711184701123380e+000	 2.152753334364159e+000	 1.082212380353661e+001
 1.688880310352929e+000	 2.170295670476612e+000	 1.074239622893571e+001
 1.666410558419238e+000	 2.187595906649107e+000	 1.066373111780142e+001
 1.643779371421331e+000	 2.204651758917846e+000	 1.058613692101551e+001
 1.620990716199807e+000	 2.221461027795396e+000	 1.050962371522645e+001
 1.598048598078017e+000	 2.238021599138304e+000	 1.043420306883589e+001
 1.574957058582615e+000	 2.254331444942703e+000	 1.035988790384949e+001
 1.551720173146155e+000	 2.270388624067453e+000	 1.028669235407452e+001
 1.528342048794388e+000	 2.286191282884385e+000	 1.021463162015376e+001
 1.504826821820936e+000	 2.301737655855408e+000	 1.014372182193216e+001
 1.368024383455396e+000	 2.092488778043565e+000	 1.014229011898342e+001
 1.346526050392599e+000	 2.106387332754106e+000	 1.004317454273955e+001
 1.324910670439301e+000	 2.120049932274017e+000	 9.949028007548334e+000
 1.303182070921885e+000	 2.133475214295430e+000	 9.859868143119966e+000
 1.281344097251810e+000	 2.146661898024328e+000	 9.775709338060880e+000
 1.259400610790523e+000	 2.159608784372367e+000	 9.696562652879020e+000
 1.237355486717287e+000	 2.172314756082764e+000	 9.610726468705208e+000
 1.215212611902256e+000	 2.184778777790678e+000	 9.526519885911952e+000
 1.192975882787095e+000	 2.196999896018612e+000	 9.454252494915192e+000
 1.170649203275408e+000	 2.208977239107448e+000	 9.394071899413291e+000
 1.148236482635196e+000	 2.220710017083810e+000	 9.346111730656608e+000
 1.381704627291974e+000	 2.113413665820249e+000	 1.015337203108485e+001
 1.359991310899373e+000	 2.127451206077835e+000	 1.005308376850642e+001
 1.338159777147214e+000	 2.141250431592865e+000	 9.957859168216990e+000
 1.316213891635144e+000	 2.154809966434392e+000	 9.867731228262043e+000
 1.294157538228737e+000	 2.168128517000457e+000	 9.782729532778941e+000
 1.271994616903055e+000	 2.181204872211835e+000	 9.702880147295863e+000
 1.249729041589154e+000	 2.194037903639175e+000	 9.627947393905616e+000
 1.227364738025891e+000	 2.206626565563986e+000	 9.540760142720380e+000
 1.204905641619348e+000	 2.218969894973999e+000	 9.465909128968194e+000
 1.182355695312165e+000	 2.231067011493503e+000	 9.403560124663031e+000
 1.159718847465025e+000	 2.242917117249388e+000	 9.353864317682911e+000
 1.395384871128547e+000	 2.134338553597933e+000	 1.016173587244627e+001
 1.373456571405956e+000	 2.148515079402566e+000	 1.006063811972999e+001
 1.351408883854781e+000	 2.162450930912713e+000	 9.964697721954574e+000
 1.329245712347933e+000	 2.176144718574352e+000	 9.873962952570034e+000
 1.306970979205101e+000	 2.189595135977586e+000	 9.788478500180043e+000
 1.284588623014960e+000	 2.202800960052304e+000	 9.708285346124910e+000
 1.262102596460361e+000	 2.215761051196586e+000	 9.633420647245844e+000
 1.239516864148863e+000	 2.228474353338295e+000	 9.555383144097316e+000
 1.216835400450963e+000	 2.240939893930387e+000	 9.478259971204748e+000
 1.194062187348341e+000	 2.253156783880558e+000	 9.414057844487104e+000
 1.171201212294357e+000	 2.265124217415967e+000	 9.362945481759635e+000
 1.409065114965114e+000	 2.155263441376618e+000	 1.016749194862146e+001
 1.386921831912350e+000	 2.169578952728295e+000	 1.006593499532750e+001
 1.364657990562005e+000	 2.183651430233561e+000	 9.969628169783375e+000
 1.342277533060255e+000	 2.197479470715314e+000	 9.878634934711009e+000
 1.319784420180902e+000	 2.211061754955715e+000	 9.793014998873970e+000
 1.297182629126240e+000	 2.224397047893772e+000	 9.712824176929139e+000
 1.274476151330910e+000	 2.237484198754997e+000	 9.638114254844281e+000
 1.251668990271171e+000	 2.250322141113604e+000	 9.568932861241818e+000
 1.228765159281942e+000	 2.262909892887774e+000	 9.491225276264208e+000
 1.205768679383935e+000	 2.275246556268613e+000	 9.425472805884818e+000
 1.182683577123193e+000	 2.287331317583545e+000	 9.373250596475069e+000
 1.422745358801676e+000	 2.176188329156302e+000	 1.017074899926969e+001
 1.400387092418553e+000	 2.190642826055024e+000	 1.006907067842427e+001
 1.377907097268885e+000	 2.204851929555409e+000	 9.972734345789043e+000
 1.355309353772107e+000	 2.218814222857275e+000	 9.881818573815117e+000
 1.332597861156142e+000	 2.232528373934845e+000	 9.796398013672933e+000
 1.309776635236893e+000	 2.245993135736240e+000	 9.716543237349168e+000
 1.286849706200797e+000	 2.259207346314407e+000	 9.642320585694243e+000
 1.263821116392817e+000	 2.272169928889913e+000	 9.573792022809347e+000
 1.240694918112283e+000	 2.284879891846162e+000	 9.504727287309319e+000
 1.217475171418949e+000	 2.297336328657668e+000	 9.437715178815221e+000
 1.194165941951533e+000	 2.309538417752123e+000	 9.384677889971576e+000
 1.436425602638232e+000	 2.197113216936987e+000	 1.017161427272225e+001
 1.413852352924566e+000	 2.211706699382753e+000	 1.007014038948682e+001
 1.391156203975419e+000	 2.226052428878257e+000	 9.974099448879123e+000
 1.368341174483492e+000	 2.240148975000236e+000	 9.883585059929830e+000
 1.345411302130819e+000	 2.253994992914973e+000	 9.798686744819884e+000
 1.322370641346921e+000	 2.267589223579708e+000	 9.719489763194931e+000
 1.299223261070027e+000	 2.280930493874819e+000	 9.646074942811715e+000
 1.275973242513798e+000	 2.294017716667222e+000	 9.578518516936184e+000
 1.252624676941988e+000	 2.306849890805548e+000	 9.516891968892210e+000
 1.229181663453380e+000	 2.319426101047722e+000	 9.450697440817798e+000
 1.205648306779377e+000	 2.331745517921702e+000	 9.397128309014304e+000
 1.450105846474784e+000	 2.218038104718671e+000	 1.017019359632830e+001
 1.427317613430390e+000	 2.232770572711484e+000	 1.006923833644827e+001
 1.404405310681609e+000	 2.247252928202105e+000	 9.973806072744642e+000
 1.381372995194407e+000	 2.261483727144197e+000	 9.884005383882155e+000
 1.358224743104934e+000	 2.275461611896103e+000	 9.799940597826820e+000
 1.334964647456323e+000	 2.289185311424177e+000	 9.721711598343230e+000
 1.311596815938596e+000	 2.302653641436229e+000	 9.649413638203631e+000
 1.288125368634117e+000	 2.315865504445530e+000	 9.583137159559202e+000
 1.264554435771055e+000	 2.328819889765935e+000	 9.522967621901882e+000
 1.240888155487230e+000	 2.341515873438777e+000	 9.464334268164459e+000
 1.217130671606725e+000	 2.353952618092280e+000	 9.410505390754297e+000
 1.463786090311330e+000	 2.238962992501355e+000	 1.016659144285549e+001
 1.440782873936023e+000	 2.253834446041212e+000	 1.006645776202292e+001
 1.417654417387455e+000	 2.268453427526952e+000	 9.971936234141046e+000
 1.394404815904855e+000	 2.282818479289158e+000	 9.883150346588243e+000
 1.371038184078486e+000	 2.296928230878231e+000	 9.800219173882795e+000
 1.347558653565099e+000	 2.310781399269645e+000	 9.723257166323378e+000
 1.323970370806506e+000	 2.324376788998640e+000	 9.652373945718853e+000
 1.300277494753773e+000	 2.337713292224839e+000	 9.587674108688697e+000
 1.276484194599485e+000	 2.350789888727322e+000	 9.529257037992686e+000
 1.252594647520499e+000	 2.363605645830832e+000	 9.477216722325476e+000
 1.228613036433577e+000	 2.376159718263858e+000	 9.424715141682437e+000
 1.477466334147870e+000	 2.259887880285039e+000	 1.016091099320244e+001
 1.454248134441466e+000	 2.274898319371942e+000	 1.006189098839226e+001
 1.430903524092956e+000	 2.289653926852800e+000	 9.968571399598270e+000
 1.407436636614834e+000	 2.304153231435119e+000	 9.881090567845293e+000
 1.383851625051477e+000	 2.318394849861361e+000	 9.799582260794594e+000
 1.360152659673249e+000	 2.332377487116113e+000	 9.724175443481501e+000
 1.336343925673756e+000	 2.346099936562051e+000	 9.654994056518547e+000
 1.312429620872765e+000	 2.359561080005148e+000	 9.592156802275373e+000
 1.288413953427277e+000	 2.372759887689710e+000	 9.535776939526281e+000
 1.264301139553186e+000	 2.385695418223887e+000	 9.485962087027314e+000
 1.240095401259933e+000	 2.398366818436436e+000	 9.439665923308098e+000
 1.491146577984406e+000	 2.280812768069723e+000	 1.015325419565868e+001
 1.467713394946719e+000	 2.295962192703671e+000	 1.005562945943147e+001
 1.444152630798113e+000	 2.310854426179648e+000	 9.963792510660403e+000
 1.420468457324345e+000	 2.325487983582081e+000	 9.877896494639998e+000
 1.396665066023905e+000	 2.339861468845490e+000	 9.798089824426461e+000
 1.372746665780774e+000	 2.353973574963581e+000	 9.724515933622023e+000
 1.348717480540346e+000	 2.367823084126461e+000	 9.657313036997273e+000
 1.324581746991095e+000	 2.381408867786456e+000	 9.596613899497337e+000
 1.300343712254433e+000	 2.394729886653097e+000	 9.542545614149812e+000
 1.276007631585292e+000	 2.407785190617942e+000	 9.495229389368724e+000
 1.251577766085793e+000	 2.420573918610014e+000	 9.454780346118641e+000
 1.504826821820936e+000	 2.301737655855408e+000	 1.014372182193216e+001
 1.481178655451783e+000	 2.317026066036402e+000	 1.004776378063211e+001
 1.457401737502926e+000	 2.332054925507497e+000	 9.957680007748742e+000
 1.433500278033387e+000	 2.346822735730042e+000	 9.873638409003359e+000
 1.409478506995772e+000	 2.361328087830619e+000	 9.795802000606672e+000
 1.385340671887672e+000	 2.375569662812049e+000	 9.724328644032134e+000
 1.361091035406278e+000	 2.389546231691873e+000	 9.659370789000146e+000
 1.336733873108761e+000	 2.403256655568767e+000	 9.601075225249778e+000
 1.312273471080952e+000	 2.416699885617484e+000	 9.549582843646860e+000
 1.287714123616817e+000	 2.429874963012997e+000	 9.505028407151977e+000
 1.263060130911157e+000	 2.442781018784593e+000	 9.467540332140496e+000
 1.148236482635196e+000	 2.220710017083810e+000	 9.346111730656608e+000
 1.125741633415527e+000	 2.232197521464456e+000	 9.228960740801155e+000
 1.103168569379458e+000	 2.243439124998900e+000	 9.115039017413711e+000
 1.080521203455544e+000	 2.254434281350881e+000	 9.004423629758014e+000
 1.057803445709805e+000	 2.265182524719623e+000	 8.897186988210137e+000
 1.035019201340097e+000	 2.275683469402266e+000	 8.793396710209219e+000
 1.012172368694828e+000	 2.285936809298536e+000	 8.693115500489880e+000
 9.892668373179073e-001	 2.295942317358883e+000	 8.596401045642161e+000
 9.663064860216958e-001	 2.305699844977406e+000	 8.503305923003676e+000
 9.432951809896925e-001	 2.315209321330897e+000	 8.413877523842517e+000
 9.202367739106159e-001	 2.324470752665467e+000	 8.328157990748673e+000
 1.159718847465025e+000	 2.242917117249388e+000	 9.353864317682911e+000
 1.136999049752618e+000	 2.254519496673615e+000	 9.233455141058700e+000
 1.114200255075764e+000	 2.265873516243221e+000	 9.118129555131663e+000
 1.091326415492304e+000	 2.276978624158587e+000	 9.007975927478169e+000
 1.068381480168917e+000	 2.287834349960926e+000	 8.903076108356464e+000
 1.045369393355437e+000	 2.298440304090351e+000	 8.803505303938767e+000
 1.022294092383755e+000	 2.308796177385585e+000	 8.709331966316377e+000
 9.991595056932207e-001	 2.318901740526581e+000	 8.620617700275529e+000
 9.759695508843156e-001	 2.328756843421378e+000	 8.537417186793460e+000
 9.527281328023738e-001	 2.338361414538538e+000	 8.459778123154255e+000
 9.294391416530002e-001	 2.347715460186632e+000	 8.387741179539136e+000
 1.171201212294357e+000	 2.265124217415967e+000	 9.362945481759635e+000
 1.148256466089302e+000	 2.276841471883772e+000	 9.239729153845616e+000
 1.125231940771734e+000	 2.288307907488541e+000	 9.123427112958479e+000
 1.102131627528776e+000	 2.299522966967292e+000	 9.014139069077825e+000
 1.078959514627770e+000	 2.310486175203229e+000	 8.911956366895437e+000
 1.055719585370526e+000	 2.321197138779436e+000	 8.816961866108438e+000
 1.032415816072421e+000	 2.331655545473632e+000	 8.729229840973874e+000
 1.009052174068241e+000	 2.341861163695277e+000	 8.648825899073199e+000
 9.856326157465907e-001	 2.351813841866350e+000	 8.575806919181595e+000
 9.621610846146402e-001	 2.361513507747179e+000	 8.510221008083502e+000
 9.386415093948795e-001	 2.370960167708796e+000	 8.452107476126759e+000
 1.182683577123193e+000	 2.287331317583545e+000	 9.373250596475069e+000
 1.159513882425580e+000	 2.299163447094930e+000	 9.247662186323067e+000
 1.136263626467366e+000	 2.310742298734863e+000	 9.130796075234851e+000
 1.112936839564960e+000	 2.322067309776998e+000	 9.022763363195152e+000
 1.089537549086364e+000	 2.333138000446533e+000	 8.923664946738496e+000
 1.066069777385366e+000	 2.343953973469521e+000	 8.833591406086850e+000
 1.042537539760825e+000	 2.354514913562680e+000	 8.752622914034072e+000
 1.018944842442968e+000	 2.364820586864975e+000	 8.680829166476503e+000
 9.952956806085219e-001	 2.374870840312322e+000	 8.618269334430735e+000
 9.715940364264912e-001	 2.384665600956820e+000	 8.564992037322002e+000
 9.478438771362536e-001	 2.394204875231962e+000	 8.521035337272844e+000
 1.194165941951533e+000	 2.309538417752123e+000	 9.384677889971576e+000
 1.170771298761452e+000	 2.321485422307088e+000	 9.257137072374771e+000
 1.147295312162661e+000	 2.333176689982184e+000	 9.140104791338175e+000
 1.123742051600856e+000	 2.344611652587703e+000	 9.033703587883593e+000
 1.100115583544699e+000	 2.355789825690836e+000	 8.938043970595736e+000
 1.076419969399954e+000	 2.366710808160607e+000	 8.853224309391084e+000
 1.052659263448967e+000	 2.377374281652728e+000	 8.779330753516538e+000
 1.028837510817402e+000	 2.387780010035671e+000	 8.716437173628320e+000
 1.004958745470109e+000	 2.397927838759294e+000	 8.664605127738387e+000
 9.810269882379279e-001	 2.407817694167462e+000	 8.623883850754540e+000
 9.570462448771225e-001	 2.417449582756126e+000	 8.594310267282072e+000
 1.205648306779377e+000	 2.331745517921702e+000	 9.397128309014304e+000
 1.182028715096917e+000	 2.343807397520245e+000	 9.268039909429582e+000
 1.158326997857619e+000	 2.355611081230504e+000	 9.151225386871337e+000
 1.134547263636464e+000	 2.367155995399408e+000	 9.046818777782605e+000
 1.110693618002774e+000	 2.378441650936139e+000	 8.954940265747172e+000
 1.086770161414292e+000	 2.389467642852691e+000	 8.875696081679346e+000
 1.062780987136847e+000	 2.400233649743777e+000	 8.809178430724632e+000
 1.038730179191542e+000	 2.410739433207368e+000	 8.755465445673282e+000
 1.014621810331352e+000	 2.420984837207266e+000	 8.714621166620912e+000
 9.904599400489497e-001	 2.430969787379103e+000	 8.686695546545419e+000
 9.662486126174865e-001	 2.440694290281291e+000	 8.671724482405468e+000
 1.217130671606725e+000	 2.353952618092280e+000	 9.410505390754297e+000
 1.193286131431976e+000	 2.366129372734403e+000	 9.280259904520827e+000
 1.169358683552240e+000	 2.378045472479826e+000	 9.164033585538912e+000
 1.145352475671785e+000	 2.389700338212114e+000	 9.061972023335363e+000
 1.121271652460591e+000	 2.401093476182442e+000	 8.974205142129378e+000
 1.097120353428380e+000	 2.412224477545776e+000	 8.900847107235233e+000
 1.072902710824466e+000	 2.423093017835825e+000	 8.841996260656595e+000
 1.048622847565390e+000	 2.433698856380066e+000	 8.797735085625208e+000
 1.024284875192251e+000	 2.444041835656238e+000	 8.768130199766315e+000
 9.998928918595562e-001	 2.454121880591744e+000	 8.753232376502281e+000
 9.754509803573452e-001	 2.463938997807456e+000	 8.753076594238950e+000
 1.228613036433577e+000	 2.376159718263858e+000	 9.424715141682437e+000
 1.204543547766628e+000	 2.388451347949561e+000	 9.293689228977613e+000
 1.180390369246525e+000	 2.400479863730146e+000	 9.178408541011248e+000
 1.156157687706817e+000	 2.412244681025820e+000	 9.079030281265055e+000
 1.131849686918147e+000	 2.423745301429745e+000	 8.995694182865275e+000
 1.107470545442217e+000	 2.434981312239862e+000	 8.928522420994382e+000
 1.083024434511822e+000	 2.445952385928873e+000	 8.877619556973132e+000
 1.058515515938944e+000	 2.456658279553762e+000	 8.843072513719477e+000
 1.033947940052805e+000	 2.467098834106210e+000	 8.824950582213354e+000
 1.009325843669748e+000	 2.477273973805384e+000	 8.823305458522947e+000
 9.846533480966987e-001	 2.487183705334621e+000	 8.838171310875426e+000
 1.240095401259933e+000	 2.398366818436436e+000	 9.439665923308098e+000
 1.215800964100875e+000	 2.410773323165718e+000	 9.308222881189019e+000
 1.191422054940472e+000	 2.422914254981468e+000	 9.194232678130378e+000
 1.166962899741561e+000	 2.434789023840525e+000	 9.097864195580565e+000
 1.142427721375445e+000	 2.446397126678048e+000	 9.019267046431551e+000
 1.117820737455804e+000	 2.457738146934947e+000	 8.958571493236468e+000
 1.093146158198917e+000	 2.468811754022922e+000	 8.915888400577844e+000
 1.068408184312206e+000	 2.479617702728460e+000	 8.891309221244958e+000
 1.043611004913016e+000	 2.490155832557182e+000	 8.884906015798016e+000
 1.018758795479525e+000	 2.500426067020026e+000	 8.893026280691169e+000
 9.938557158355471e-001	 2.510428412862785e+000	 8.831110361757942e+000
 1.251577766085793e+000	 2.420573918610014e+000	 9.454780346118641e+000
 1.227058380434714e+000	 2.433095298382876e+000	 9.323758556922160e+000
 1.202453740634082e+000	 2.445348646233789e+000	 9.211391542855573e+000
 1.177768111776018e+000	 2.457333366656231e+000	 9.118347928434961e+000
 1.153005755832484e+000	 2.469048951927352e+000	 9.044787279715903e+000
 1.128170929469140e+000	 2.480494981631032e+000	 8.990848026129179e+000
 1.103267881885750e+000	 2.491671122117969e+000	 8.956647420936260e+000
 1.078300852685174e+000	 2.502577125904156e+000	 8.922447482746556e+000
 1.053274069772882e+000	 2.513212831009154e+000	 8.840651649779636e+000
 1.028191747288888e+000	 2.523578160235667e+000	 8.771534122746687e+000
 1.003058083573891e+000	 2.533673120391951e+000	 8.714489977432210e+000
 1.263060130911157e+000	 2.442781018784593e+000	 9.467540332140496e+000
 1.238315796768149e+000	 2.455417273601034e+000	 9.340196526714486e+000
 1.213485426327356e+000	 2.467783037487111e+000	 9.229773660394853e+000
 1.188573323810187e+000	 2.479877709472937e+000	 9.140359000209726e+000
 1.163583790289265e+000	 2.491700777177656e+000	 9.072122141270835e+000
 1.138521121482226e+000	 2.503251816328117e+000	 9.002970474090910e+000
 1.113389605572322e+000	 2.514530490214019e+000	 8.895338932711734e+000
 1.088193521057850e+000	 2.525536549080854e+000	 8.802658531617981e+000
 1.062937134632405e+000	 2.536269829462127e+000	 8.724233806574457e+000
 1.037624699097835e+000	 2.546730253452309e+000	 8.659401046614548e+000
 1.012260451311729e+000	 2.556917827922117e+000	 8.607529277065785e+000
 9.202367739106159e-001	 2.324470752665467e+000	 8.328157990748673e+000
 8.971351001457416e-001	 2.333484221532295e+000	 8.191793328454686e+000
 8.739939769303398e-001	 2.342249885973674e+000	 8.064568094914179e+000
 8.508172016108214e-001	 2.350767978661281e+000	 7.946419357303052e+000
 8.276085499197395e-001	 2.359038805988396e+000	 7.837275692916435e+000
 8.043717742891899e-001	 2.367062747117389e+000	 7.737057333079561e+000
 7.811106022040244e-001	 2.374840252984292e+000	 7.645676321361467e+000
 7.578287345960116e-001	 2.382371845262165e+000	 7.563036685508449e+000
 7.345298442800076e-001	 2.389658115285039e+000	 7.489034622486738e+000
 7.112175744331116e-001	 2.396699722934155e+000	 7.423558696001486e+000
 6.878955371177123e-001	 2.403497395488342e+000	 7.366490045836895e+000
 9.294391416530002e-001	 2.347715460186632e+000	 8.387741179539136e+000
 9.061064511509912e-001	 2.356819063742346e+000	 8.264698539659777e+000
 8.827339167038776e-001	 2.365672384828394e+000	 8.151837681811905e+000
 8.593253736315348e-001	 2.374275658443167e+000	 8.049105700457583e+000
 8.358846354238423e-001	 2.382629194043878e+000	 7.956440049672423e+000
 8.124154920372165e-001	 2.390733374584523e+000	 7.873768691781476e+000
 7.889217082313587e-001	 2.398588655510490e+000	 7.801010261876973e+000
 7.654070219473557e-001	 2.406195563711574e+000	 7.738074247592575e+000
 7.418751427282125e-001	 2.413554696435142e+000	 7.684861183481374e+000
 7.183297501827994e-001	 2.420666720161248e+000	 7.641262859318039e+000
 6.947744924941302e-001	 2.427532369441510e+000	 7.607162541622980e+000
 9.386415093948795e-001	 2.370960167708796e+000	 8.452107476126759e+000
 9.150778021556407e-001	 2.380153905953393e+000	 8.342971487405499e+000
 8.914738564767309e-001	 2.389094883684093e+000	 8.245052802392461e+000
 8.678335456514892e-001	 2.397783338226005e+000	 8.158308409337055e+000
 8.441607209271217e-001	 2.406219582100279e+000	 8.082684506951248e+000
 8.204592097843656e-001	 2.414404002052529e+000	 8.018116657849781e+000
 7.967328142577711e-001	 2.422337058037504e+000	 7.964529959451583e+000
 7.729853092977437e-001	 2.430019282161732e+000	 7.921839231678164e+000
 7.492204411754364e-001	 2.437451277585918e+000	 7.889949220750353e+000
 7.254419259314923e-001	 2.444633717388931e+000	 7.868754818360194e+000
 7.016534478695476e-001	 2.451567343395171e+000	 7.858141295465299e+000
 9.478438771362536e-001	 2.394204875231962e+000	 8.521035337272844e+000
 9.240491531596904e-001	 2.403488748165434e+000	 8.426373498582239e+000
 9.002137962488996e-001	 2.412517382540771e+000	 8.343958140096888e+000
 8.763417176706848e-001	 2.421291018009799e+000	 8.273756015488189e+000
 8.524368064295773e-001	 2.429809970157597e+000	 8.215721940703928e+000
 8.285029275306370e-001	 2.438074629521406e+000	 8.169798952290940e+000
 8.045439202832618e-001	 2.446085460565335e+000	 8.135918484763160e+000
 7.805635966471756e-001	 2.453843000612641e+000	 8.114000566307016e+000
 7.565657396216801e-001	 2.461347858737370e+000	 8.103954032084545e+000
 7.325541016791896e-001	 2.468600714617200e+000	 8.105676754362367e+000
 7.085324032439653e-001	 2.475602317349326e+000	 8.119055888667372e+000
 9.570462448771225e-001	 2.417449582756126e+000	 8.594310267282072e+000
 9.330205041631401e-001	 2.426823590378469e+000	 8.514673590921596e+000
 9.089537360203834e-001	 2.435939881398428e+000	 8.448306696614223e+000
 8.848498896891212e-001	 2.444798697794545e+000	 8.395185980043433e+000
 8.607128919312100e-001	 2.453400358215833e+000	 8.355274751567613e+000
 8.365466452760307e-001	 2.461745256991155e+000	 8.328523399505828e+000
 8.123550263078306e-001	 2.469833863093982e+000	 8.314869574054614e+000
 7.881418839956511e-001	 2.477666719064299e+000	 8.314238391087031e+000
 7.639110380669429e-001	 2.485244439889494e+000	 8.326542655050258e+000
 7.396662774258919e-001	 2.492567711846060e+000	 8.351683100142823e+000
 7.154113586173831e-001	 2.499637291303976e+000	 8.389548648924196e+000
 9.662486126174865e-001	 2.440694290281291e+000	 8.671724482405468e+000
 9.419918551659895e-001	 2.450158432592499e+000	 8.607648106765669e+000
 9.176936757911829e-001	 2.459362380257065e+000	 8.557859395774749e+000
 8.933580617067983e-001	 2.468306377580246e+000	 8.522344268502591e+000
 8.689889774320192e-001	 2.476990746274987e+000	 8.501074411309546e+000
 8.445903630205469e-001	 2.485415884461776e+000	 8.494007446175587e+000
 8.201661323314775e-001	 2.493582265623445e+000	 8.501087121249968e+000
 7.957201713431706e-001	 2.501490437516709e+000	 8.501634336382846e+000
 7.712563365112256e-001	 2.509141021042295e+000	 8.424405206953569e+000
 7.467784531715992e-001	 2.516534709075509e+000	 8.353492238550093e+000
 7.222903139898008e-001	 2.523672265259119e+000	 8.288722141168204e+000
 9.754509803573452e-001	 2.463938997807456e+000	 8.753076594238950e+000
 9.509632061682393e-001	 2.473493274807525e+000	 8.705080367566868e+000
 9.264336155612976e-001	 2.482784879116681e+000	 8.672384709863948e+000
 9.018662337237166e-001	 2.491814057366900e+000	 8.654984949583424e+000
 8.772650629320052e-001	 2.500581134335059e+000	 8.646062745315689e+000
 8.526340807641855e-001	 2.509086511933270e+000	 8.553907923152343e+000
 8.279772383542029e-001	 2.517330668153723e+000	 8.469008291546611e+000
 8.032984586897338e-001	 2.525314155969867e+000	 8.391081270666723e+000
 7.786016349545272e-001	 2.533037602195769e+000	 8.319879619455159e+000
 7.538906289163110e-001	 2.540501706305546e+000	 8.255191426094742e+000
 7.291692693612184e-001	 2.547707239214755e+000	 8.196840015180664e+000
 9.846533480966987e-001	 2.487183705334621e+000	 8.838171310875426e+000
 9.599345571698887e-001	 2.496828117023545e+000	 8.806760347760964e+000
 9.351735553307278e-001	 2.506207377977277e+000	 8.727249496874201e+000
 9.103744057398758e-001	 2.515321737154508e+000	 8.625070195661387e+000
 8.855411484311674e-001	 2.524171522396048e+000	 8.531010437129686e+000
 8.606777985069464e-001	 2.532757139405634e+000	 8.444709893781880e+000
 8.357883443760058e-001	 2.541079070684818e+000	 8.365844059739082e+000
 8.108767460353409e-001	 2.549137874423776e+000	 8.294124421008107e+000
 7.859469333968487e-001	 2.556934183349918e+000	 8.229298536799382e+000
 7.610028046600279e-001	 2.564468703536173e+000	 8.171150033590665e+000
 7.360482247316361e-001	 2.571742213170885e+000	 8.119498513839677e+000
 9.938557158355471e-001	 2.510428412862785e+000	 8.831110361757942e+000
 9.689059081709385e-001	 2.520162959240560e+000	 8.717093788773942e+000
 9.439134950994733e-001	 2.529629876838852e+000	 8.612204462975273e+000
 9.188825777552759e-001	 2.538829416943069e+000	 8.516001855469709e+000
 8.938172339295064e-001	 2.547761910457955e+000	 8.428081387024353e+000
 8.687215162488298e-001	 2.556427766878871e+000	 8.348074792868024e+000
 8.435994503968872e-001	 2.564827473216728e+000	 8.275650393572729e+000
 8.184550333799922e-001	 2.572961592878435e+000	 8.210513273278210e+000
 7.932922318381895e-001	 2.580830764504741e+000	 8.152405366763489e+000
 7.681149804027495e-001	 2.588435700767387e+000	 8.101105457094294e+000
 7.429271801010537e-001	 2.595777187127509e+000	 8.056429085792029e+000
 1.003058083573891e+000	 2.533673120391951e+000	 8.714489977432210e+000
 9.778772591713881e-001	 2.543497801458570e+000	 8.606654254220755e+000
 9.526534348675341e-001	 2.553052375701406e+000	 8.508096835312740e+000
 9.273907497699170e-001	 2.562337096732584e+000	 8.418367118270888e+000
 9.020933194270221e-001	 2.571352298520781e+000	 8.337051233867630e+000
 8.767652339898353e-001	 2.580098394352981e+000	 8.263772423627417e+000
 8.514105564168467e-001	 2.588575875749455e+000	 8.198191321113542e+000
 8.260333207236869e-001	 2.596785311333844e+000	 8.140006138249049e+000
 8.006375302785497e-001	 2.604727345660237e+000	 8.088952758204199e+000
 7.752271561444761e-001	 2.612402697999191e+000	 8.044804736616513e+000
 7.498061354694716e-001	 2.619812161084627e+000	 8.007373213131944e+000
 1.012260451311729e+000	 2.556917827922117e+000	 8.607529277065785e+000
 9.868486101712383e-001	 2.566832643677576e+000	 8.506424941988435e+000
 9.613933746349105e-001	 2.576474874564940e+000	 8.414720367117493e+000
 9.358989217837993e-001	 2.585844776523053e+000	 8.331954231403802e+000
 9.103694049237148e-001	 2.594942686584524e+000	 8.257702773184864e+000
 8.848089517299635e-001	 2.603769021827962e+000	 8.191580180763355e+000
 8.592216624358849e-001	 2.612324278282999e+000	 8.133238884318070e+000
 8.336116080664260e-001	 2.620609029790004e+000	 8.082369750461528e+000
 8.079828287179296e-001	 2.628623926816410e+000	 8.038702181008743e+000
 7.823393318852077e-001	 2.636369695231585e+000	 8.002004117760906e+000
 7.566850908368894e-001	 2.643847135042238e+000	 7.972081955334941e+000
 6.878955371177123e-001	 2.403497395488342e+000	 7.366490045836895e+000
 6.645673118488593e-001	 2.410051926439911e+000	 7.298525635422513e+000
 6.412364442077186e-001	 2.416364174279133e+000	 7.198645346271672e+000
 6.179064445013768e-001	 2.422435061248221e+000	 7.082756160355757e+000
 5.945807864685845e-001	 2.428265572065930e+000	 6.992541293063536e+000
 5.712629060330331e-001	 2.433856752625838e+000	 6.904985781219932e+000
 5.479562001042996e-001	 2.439209708669709e+000	 6.822310342168503e+000
 5.246640254268117e-001	 2.444325604437782e+000	 6.746555726110011e+000
 5.013896974771256e-001	 2.449205661297807e+000	 6.679582051504721e+000
 4.781364894097321e-001	 2.453851156354649e+000	 6.623068555689997e+000
 4.549076310515292e-001	 2.458263421042266e+000	 6.578513750370405e+000
 6.947744924941302e-001	 2.427532369441510e+000	 7.607162541622980e+000
 6.712129849723891e-001	 2.434152445703129e+000	 7.561066964624728e+000
 6.476488086545391e-001	 2.440527816021247e+000	 7.487280758761388e+000
 6.240855089507384e-001	 2.446659411860499e+000	 7.387596182140218e+000
 6.005265943371260e-001	 2.452548227786828e+000	 7.321539798572915e+000
 5.769755350966310e-001	 2.458195320152748e+000	 7.265691594915503e+000
 5.534357621079269e-001	 2.463601805757440e+000	 7.222334948471090e+000
 5.299106656828870e-001	 2.468768860483547e+000	 7.193562312169268e+000
 5.064035944528335e-001	 2.473697717912495e+000	 7.181274627340351e+000
 4.829178543038030e-001	 2.478389667920199e+000	 7.187181168805431e+000
 4.594567073609638e-001	 2.482846055254957e+000	 7.212799811371615e+000
 7.016534478695476e-001	 2.451567343395171e+000	 7.858141295465299e+000
 6.778586580949291e-001	 2.458252964966745e+000	 7.834593616889945e+000
 6.540611731004010e-001	 2.464691457763677e+000	 7.787510717287367e+000
 6.302645733991933e-001	 2.470883762473018e+000	 7.716949080035893e+000
 6.064724022048327e-001	 2.476830883507902e+000	 7.665609067774264e+000
 5.826881641594863e-001	 2.482533887679780e+000	 7.639788111466219e+000
 5.589153241109239e-001	 2.487993902845249e+000	 7.634116118060359e+000
 5.351573059384638e-001	 2.493212116529355e+000	 7.650740340791776e+000
 5.114174914281945e-001	 2.498189774527202e+000	 7.691605475159558e+000
 4.876992191976983e-001	 2.502928179485755e+000	 7.675264099346522e+000
 4.640057836704129e-001	 2.507428689467647e+000	 7.623426884852817e+000
 7.085324032439653e-001	 2.475602317349326e+000	 8.119055888667372e+000
 6.845043312164796e-001	 2.482353484230761e+000	 8.118718182168450e+000
 6.604735375453047e-001	 2.488855099506419e+000	 8.098933139243190e+000
 6.364436378467412e-001	 2.495108113085776e+000	 8.059734800615964e+000
 6.124182100717045e-001	 2.501113539229152e+000	 8.003297875251450e+000
 5.884007932215989e-001	 2.506872455206933e+000	 7.884477275309356e+000
 5.643948861132904e-001	 2.512385999933136e+000	 7.782554410025304e+000
 5.404039461935422e-001	 2.517655372575207e+000	 7.696462625857088e+000
 5.164313884032087e-001	 2.522681831141930e+000	 7.625300177196515e+000
 4.924805840914177e-001	 2.527466691051314e+000	 7.568329464750497e+000
 4.685548599798770e-001	 2.532011323680339e+000	 7.524975919302280e+000
 7.154113586173831e-001	 2.499637291303976e+000	 8.389548648924196e+000
 6.911500043370404e-001	 2.506454003495176e+000	 8.303351354612097e+000
 6.668859019892492e-001	 2.513018741249476e+000	 8.189060956016837e+000
 6.426227022933821e-001	 2.519332463698774e+000	 8.052639528911893e+000
 6.183640179377414e-001	 2.525396194950578e+000	 7.903895225616923e+000
 5.941134222829687e-001	 2.531211022734208e+000	 7.785459874067112e+000
 5.698744481150263e-001	 2.536778097021101e+000	 7.685813330530500e+000
 5.456505864481219e-001	 2.542098628621103e+000	 7.603794714294966e+000
 5.214452853778759e-001	 2.547173887756675e+000	 7.538411776890374e+000
 4.972619489849617e-001	 2.552005202616879e+000	 7.488840210114652e+000
 4.731039362893555e-001	 2.556593957893029e+000	 7.454422588483296e+000
 7.222903139898008e-001	 2.523672265259119e+000	 8.288722141168204e+000
 6.977956774566120e-001	 2.530554522759990e+000	 8.201460302816585e+000
 6.732982664322361e-001	 2.537182382992848e+000	 8.095101270464866e+000
 6.488017667391163e-001	 2.543556814312013e+000	 7.969710385998839e+000
 6.243098258029436e-001	 2.549678850672180e+000	 7.826129641315895e+000
 5.998260513435958e-001	 2.555549590261605e+000	 7.709377104965851e+000
 5.753540101161317e-001	 2.561170194109143e+000	 7.613146967124683e+000
 5.508972267022031e-001	 2.566541884667042e+000	 7.536182475024983e+000
 5.264591823521964e-001	 2.571665944371441e+000	 7.477399431444018e+000
 5.020433138783298e-001	 2.576543714182449e+000	 7.435885571405416e+000
 4.776530125988488e-001	 2.581176592105721e+000	 7.410899562039205e+000
 7.291692693612184e-001	 2.547707239214755e+000	 8.196840015180664e+000
 7.044413505751935e-001	 2.554655042025202e+000	 8.114792459484070e+000
 6.797106308742640e-001	 2.561346024736534e+000	 8.016679024310147e+000
 6.549808311839437e-001	 2.567781164925491e+000	 7.902543802074432e+000
 6.302556336673104e-001	 2.573961506393957e+000	 7.772482988375878e+000
 6.055386804034801e-001	 2.579888157789124e+000	 7.655163662410697e+000
 5.808335721166065e-001	 2.585562291197262e+000	 7.563531423922401e+000
 5.561438669557858e-001	 2.590985140713024e+000	 7.492643973262601e+000
 5.314730793261701e-001	 2.596158000986225e+000	 7.441323673670469e+000
 5.068246787715222e-001	 2.601082225748022e+000	 7.408569011753882e+000
 4.822020889083566e-001	 2.605759226318411e+000	 7.393553653505964e+000
 7.360482247316361e-001	 2.571742213170885e+000	 8.119498513839677e+000
 7.110870236927857e-001	 2.578755561290814e+000	 8.043058271660472e+000
 6.861229953153335e-001	 2.585509666480533e+000	 7.953495794436312e+000
 6.611598956278639e-001	 2.592005515539210e+000	 7.850834087226377e+000
 6.362014415308428e-001	 2.598244162115910e+000	 7.735146918325190e+000
 6.112513094626219e-001	 2.604226725316765e+000	 7.621767407158604e+000
 5.863131341164509e-001	 2.609954388285460e+000	 7.535956178578903e+000
 5.613905072088702e-001	 2.615428396759051e+000	 7.472210782454653e+000
 5.364869762997969e-001	 2.620650057601029e+000	 7.429258607354633e+000
 5.116060436645389e-001	 2.625620737313602e+000	 7.406007556634493e+000
 4.867511652178794e-001	 2.630341860531103e+000	 7.401545159382772e+000
 7.429271801010537e-001	 2.595777187127509e+000	 8.056429085792029e+000
 7.177326968093882e-001	 2.602856080556824e+000	 7.985979252139630e+000
 6.925353597554443e-001	 2.609673308224849e+000	 7.905264702171766e+000
 6.673389600708776e-001	 2.616229866153168e+000	 7.814287503801078e+000
 6.421472493935400e-001	 2.622526817838040e+000	 7.713099216145235e+000
 6.169639385210209e-001	 2.628565292844528e+000	 7.608148756765336e+000
 5.917926961156648e-001	 2.634346485373736e+000	 7.529423463145553e+000
 5.666371474614558e-001	 2.639871652805121e+000	 7.473927358898948e+000
 5.415008732730768e-001	 2.645142114215853e+000	 7.440291278967332e+000
 5.163874085573799e-001	 2.650159248879186e+000	 7.427331165979008e+000
 4.913002415274165e-001	 2.654924494743793e+000	 7.434047234920818e+000
 7.498061354694716e-001	 2.619812161084627e+000	 8.007373213131944e+000
 7.243783699250013e-001	 2.626956599823234e+000	 7.943287471860090e+000
 6.989477241945968e-001	 2.633836949969477e+000	 7.871709883727915e+000
 6.735180245129840e-001	 2.640454216767367e+000	 7.792621718134719e+000
 6.480930572554026e-001	 2.646809473560346e+000	 7.706052531026632e+000
 6.226765675786771e-001	 2.652903860372412e+000	 7.613280109584972e+000
 5.972722581142479e-001	 2.658738582462089e+000	 7.542947679004805e+000
 5.718837877135431e-001	 2.664314908851234e+000	 7.496850450787185e+000
 5.465147702460100e-001	 2.669634170830696e+000	 7.473521083964140e+000
 5.211687734500450e-001	 2.674697760444775e+000	 7.471682140852730e+000
 4.958493178369686e-001	 2.679507128956484e+000	 7.490245304271974e+000
 7.566850908368894e-001	 2.643847135042238e+000	 7.972081955334941e+000
 7.310240430396248e-001	 2.651057119090043e+000	 7.914725079989426e+000
 7.053600886327910e-001	 2.658000591714422e+000	 7.852565989522770e+000
 6.796970889541841e-001	 2.664678567381807e+000	 7.785565282190145e+000
 6.540388651164302e-001	 2.671092129282827e+000	 7.713730704996587e+000
 6.283891966355909e-001	 2.677242427900419e+000	 7.637116422775535e+000
 6.027518201122010e-001	 2.683130679550521e+000	 7.575554843719711e+000
 5.771304279651321e-001	 2.688758164897392e+000	 7.540048539482918e+000
 5.515286672185965e-001	 2.694126227445559e+000	 7.528059205468158e+000
 5.259501383425347e-001	 2.699236272010369e+000	 7.538214562493728e+000
 5.003983941465354e-001	 2.704089763169176e+000	 7.569336502811788e+000
 4.549076310515292e-001	 2.458263421042266e+000	 6.578513750370405e+000
 4.317063079453936e-001	 2.462443839700501e+000	 6.526596685528226e+000
 4.085356604418978e-001	 2.466393848136456e+000	 6.478697946025520e+000
 3.853987828395767e-001	 2.470114932173584e+000	 6.435814001391796e+000
 3.622987225744604e-001	 2.473608626191484e+000	 6.398773513855263e+000
 3.392384794576842e-001	 2.476876511656140e+000	 6.368239126345680e+000
 3.162210049612340e-001	 2.479920215642903e+000	 6.344709573177353e+000
 2.932492015515172e-001	 2.482741409353889e+000	 6.328522099128267e+000
 2.703259220703973e-001	 2.485341806631373e+000	 6.319855172244827e+000
 2.474539691632788e-001	 2.487723162468773e+000	 6.318731475375473e+000
 2.246360947537655e-001	 2.489887271520747e+000	 6.325021161167340e+000
 4.594567073609638e-001	 2.482846055254957e+000	 7.212799811371615e+000
 4.360233710227999e-001	 2.487068278099993e+000	 7.235436521725219e+000
 4.126210170435670e-001	 2.491057786620465e+000	 7.268725030612209e+000
 3.892527706647824e-001	 2.494816081498056e+000	 7.313653869802115e+000
 3.659217097968348e-001	 2.498344712456170e+000	 7.371034658546575e+000
 3.426308642489678e-001	 2.501645276775445e+000	 7.363252039375126e+000
 3.193832150078855e-001	 2.504719417801990e+000	 7.282344912677688e+000
 2.961816935646566e-001	 2.507568823449939e+000	 7.201568067194335e+000
 2.730291812895607e-001	 2.510195224699992e+000	 7.121760365493139e+000
 2.499285088544538e-001	 2.512600394095503e+000	 7.043900656944832e+000
 2.268824557021734e-001	 2.514786144237676e+000	 6.969103634445338e+000
 4.640057836704129e-001	 2.507428689467647e+000	 7.623426884852817e+000
 4.403404341004001e-001	 2.511692716499485e+000	 7.555516238459461e+000
 4.167063736455675e-001	 2.515721725104473e+000	 7.486379813470079e+000
 3.931067584904162e-001	 2.519517230822531e+000	 7.416035697383071e+000
 3.695446970196927e-001	 2.523080798720857e+000	 7.344663855085198e+000
 3.460232490407508e-001	 2.526414041894752e+000	 7.272603154539507e+000
 3.225454250550116e-001	 2.529518619961077e+000	 7.200348117849458e+000
 2.991141855782062e-001	 2.532396237545989e+000	 7.128545412343811e+000
 2.757324405090309e-001	 2.535048642768612e+000	 7.057990096590197e+000
 2.524030485457932e-001	 2.537477625722233e+000	 6.989621636456049e+000
 2.291288166505648e-001	 2.539685016954604e+000	 6.924519706489130e+000
 4.685548599798770e-001	 2.532011323680339e+000	 7.524975919302280e+000
 4.446574971781941e-001	 2.536317154898977e+000	 7.463291373042758e+000
 4.207917302478996e-001	 2.540385663588481e+000	 7.400846813459397e+000
 3.969607463164778e-001	 2.544218380147005e+000	 7.337593387104310e+000
 3.731676842430345e-001	 2.547816884985543e+000	 7.273648862018800e+000
 3.494156338330328e-001	 2.551182807014058e+000	 7.209294639667536e+000
 3.257076351026121e-001	 2.554317822120163e+000	 7.144972482491601e+000
 3.020466775921660e-001	 2.557223651642039e+000	 7.081280972085169e+000
 2.784356997288076e-001	 2.559902060837231e+000	 7.018971713277887e+000
 2.548775882372969e-001	 2.562354857348963e+000	 6.958945299624271e+000
 2.313751775989394e-001	 2.564583889671531e+000	 6.902247055968941e+000
 4.731039362893555e-001	 2.556593957893029e+000	 7.454422588483296e+000
 4.489745602561820e-001	 2.560941593298469e+000	 7.399014129115721e+000
 4.248770868505629e-001	 2.565049602072488e+000	 7.343168301239044e+000
 4.008147341429674e-001	 2.568919529471479e+000	 7.286768773511442e+000
 3.767906714668599e-001	 2.572552971250230e+000	 7.229870756896058e+000
 3.528080186258139e-001	 2.575951572133364e+000	 7.172698000432067e+000
 3.288698451506871e-001	 2.579117024279251e+000	 7.115639492633155e+000
 3.049791696065360e-001	 2.582051065738089e+000	 7.059245883884923e+000
 2.811389589488911e-001	 2.584755478905851e+000	 7.004225645509044e+000
 2.573521279289648e-001	 2.587232088975693e+000	 6.951440981393003e+000
 2.336215385472976e-001	 2.589482762388461e+000	 6.901903508258950e+000
 4.776530125988488e-001	 2.581176592105721e+000	 7.410899562039205e+000
 4.532916233343635e-001	 2.585566031697960e+000	 7.361867864655134e+000
 4.289624434535578e-001	 2.589713540556496e+000	 7.312578114806168e+000
 4.046687219698851e-001	 2.593620678795953e+000	 7.262845929501252e+000
 3.804136586911692e-001	 2.597289057514916e+000	 7.212663567082742e+000
 3.562004034190940e-001	 2.600720337252670e+000	 7.162196904435292e+000
 3.320320551992365e-001	 2.603916226438336e+000	 7.111782109585808e+000
 3.079116616213161e-001	 2.606878479834139e+000	 7.061922025451940e+000
 2.838422181692811e-001	 2.609608896974470e+000	 7.013282280800023e+000
 2.598266676207969e-001	 2.612109320602423e+000	 6.966687144720781e+000
 2.358678994956391e-001	 2.614381635105389e+000	 6.923115141114216e+000
 4.822020889083566e-001	 2.605759226318411e+000	 7.393553653505964e+000
 4.576086864127388e-001	 2.610190470097453e+000	 7.351049668020588e+000
 4.330478000568840e-001	 2.614377479040504e+000	 7.308323359581241e+000
 4.085227097972305e-001	 2.618321828120427e+000	 7.265121683615016e+000
 3.840366459159620e-001	 2.622025143779603e+000	 7.221373515643422e+000
 3.595927882128733e-001	 2.625489102371976e+000	 7.177186607532757e+000
 3.351942652482605e-001	 2.628715428597424e+000	 7.132844228656430e+000
 3.108441536365066e-001	 2.631705893930189e+000	 7.088801508122524e+000
 2.865454773899778e-001	 2.634462315043089e+000	 7.045681494534563e+000
 2.623012073127933e-001	 2.636986552229153e+000	 7.004270950014053e+000
 2.381142604439641e-001	 2.639280507822317e+000	 6.965515895406393e+000
 4.867511652178794e-001	 2.630341860531103e+000	 7.401545159382772e+000
 4.619257494913080e-001	 2.634814908496944e+000	 7.365769716347927e+000
 4.371331566605418e-001	 2.639041417524512e+000	 7.329663788434662e+000
 4.123766976250038e-001	 2.643022977444900e+000	 7.292905023980483e+000
 3.876596331412386e-001	 2.646761230044289e+000	 7.255358451448479e+000
 3.629851730071516e-001	 2.650257867491282e+000	 7.217073412326425e+000
 3.383564752977588e-001	 2.653514630756510e+000	 7.178280168213283e+000
 3.137766456521071e-001	 2.656533308026239e+000	 7.139386198653329e+000
 2.892487366109812e-001	 2.659315733111709e+000	 7.100972206605198e+000
 2.647757470049540e-001	 2.661863783855882e+000	 7.063787848705112e+000
 2.403606213922725e-001	 2.664179380539246e+000	 7.028747207689406e+000
 4.913002415274165e-001	 2.654924494743793e+000	 7.434047234920818e+000
 4.662428125700708e-001	 2.659439346896436e+000	 7.405250669587320e+000
 4.412185132645307e-001	 2.663705356008520e+000	 7.375871216156686e+000
 4.162306854532054e-001	 2.667724126769375e+000	 7.345516535368028e+000
 3.912826203669990e-001	 2.671497316308976e+000	 7.313987310942622e+000
 3.663775578019290e-001	 2.675026632610588e+000	 7.281274156740659e+000
 3.415186853477317e-001	 2.678313832915596e+000	 7.247554187136155e+000
 3.167091376681179e-001	 2.681360722122289e+000	 7.213187267581686e+000
 2.919519958322911e-001	 2.684169151180329e+000	 7.178711962686421e+000
 2.672502866972790e-001	 2.686741015482613e+000	 7.144841199407519e+000
 2.426069823405643e-001	 2.689078253256174e+000	 7.112457663176489e+000
 4.958493178369686e-001	 2.679507128956484e+000	 7.490245304271974e+000
 4.705598756490275e-001	 2.684063785295928e+000	 7.468727097897359e+000
 4.453038698688512e-001	 2.688369294492528e+000	 7.446228966158293e+000
 4.200846732818347e-001	 2.692425276093848e+000	 7.422287867234930e+000
 3.949056075932431e-001	 2.696233402573662e+000	 7.396639609540466e+000
 3.697699425972056e-001	 2.699795397729895e+000	 7.369215730751296e+000
 3.446808953981790e-001	 2.703113035074684e+000	 7.340140028830341e+000
 3.196416296845388e-001	 2.706188136218339e+000	 7.309724762446630e+000
 2.946552550539079e-001	 2.709022569248949e+000	 7.278466538556177e+000
 2.697248263897681e-001	 2.711618247109342e+000	 7.247041905202095e+000
 2.448533432888395e-001	 2.713977125973103e+000	 7.216302667820186e+000
 5.003983941465354e-001	 2.704089763169176e+000	 7.569336502811788e+000
 4.748769387281781e-001	 2.708688223695421e+000	 7.555444940271185e+000
 4.493892264735033e-001	 2.713033232976536e+000	 7.540031347352114e+000
 4.239386611108921e-001	 2.717126425418323e+000	 7.522561230784285e+000
 3.985285948199710e-001	 2.720969488838350e+000	 7.502704960764362e+000
 3.731623273929815e-001	 2.724564162849201e+000	 7.480334619473668e+000
 3.478431054491009e-001	 2.727912237233771e+000	 7.455520490111559e+000
 3.225741217013700e-001	 2.731015550314390e+000	 7.428527204288657e+000
 2.973585142758312e-001	 2.733875987317568e+000	 7.399809566000565e+000
 2.721993660824217e-001	 2.736495478736074e+000	 7.370008070706184e+000
 2.470997042370982e-001	 2.738875998690031e+000	 7.339944138279003e+000
 2.246360947537655e-001	 2.489887271520747e+000	 6.325021161167340e+000
 2.018749995641979e-001	 2.491835966613445e+000	 6.344753337125514e+000
 1.791733326820581e-001	 2.493571117257746e+000	 6.369113242682852e+000
 1.565336911712550e-001	 2.495094628165966e+000	 6.397594163040570e+000
 1.339586197272678e-001	 2.496408437772546e+000	 6.429551987964781e+000
 1.114506103760078e-001	 2.497514516761370e+000	 6.464209507783320e+000
 8.901210221548951e-002	 2.498414866600589e+000	 6.500660880077053e+000
 6.664548119953342e-002	 2.499111518086177e+000	 6.537876251437255e+000
 4.435307996270441e-002	 2.499606529895403e+000	 6.574706518789972e+000
 2.213717768565395e-002	 2.499901987151415e+000	 6.609888214968451e+000
 0.000000000000000e+000	 2.500000000000000e+000	 6.642048503428173e+000
 2.268824557021734e-001	 2.514786144237676e+000	 6.969103634445338e+000
 2.038937495620015e-001	 2.516754326280969e+000	 6.905880545531239e+000
 1.809650660120170e-001	 2.518506828431417e+000	 6.845603312363982e+000
 1.580990280867710e-001	 2.520045574448461e+000	 6.789820755996002e+000
 1.352982059287006e-001	 2.521372522150883e+000	 6.740199657461082e+000
 1.125651164839795e-001	 2.522489661929406e+000	 6.698519754188669e+000
 8.990222324160513e-002	 2.523399015266865e+000	 6.666668620399895e+000
 6.731193601493965e-002	 2.524102633267190e+000	 6.646636446123920e+000
 4.479661076489676e-002	 2.524602595194425e+000	 6.640510729265258e+000
 2.235854946393773e-002	 2.524901007022946e+000	 6.650470894905349e+000
 0.000000000000000e+000	 2.525000000000000e+000	 6.678782855741574e+000
 2.291288166505648e-001	 2.539685016954604e+000	 6.924519706489130e+000
 2.059124995596093e-001	 2.541672685948493e+000	 6.871618440329962e+000
 1.827567993416422e-001	 2.543442539605088e+000	 6.821170415250119e+000
 1.596643650018564e-001	 2.544996520730955e+000	 6.774696674969976e+000
 1.366377921296462e-001	 2.546336606529218e+000	 6.733840949660114e+000
 1.136796225914473e-001	 2.547464807097442e+000	 6.700364552450329e+000
 9.079234426724010e-002	 2.548383163933141e+000	 6.676141153794024e+000
 6.797839082992760e-002	 2.549093748448203e+000	 6.663151448768748e+000
 4.524014156677202e-002	 2.549598660493445e+000	 6.663477732179073e+000
 2.257992124204399e-002	 2.549900026894477e+000	 6.679298396082886e+000
 0.000000000000000e+000	 2.550000000000000e+000	 6.712882364074905e+000
 2.313751775989394e-001	 2.564583889671531e+000	 6.902247055968941e+000
 2.079312495570213e-001	 2.566591045616016e+000	 6.857746026818501e+000
 1.845485326709337e-001	 2.568378250778760e+000	 6.815079156605297e+000
 1.612297019165109e-001	 2.569947467013449e+000	 6.775740874254721e+000
 1.379773783301045e-001	 2.571300690907556e+000	 6.741353155163874e+000
 1.147941286984114e-001	 2.572439952265480e+000	 6.713660313700059e+000
 9.168246529239445e-002	 2.573367312599417e+000	 6.694523667317691e+000
 6.864484564449729e-002	 2.574084863629215e+000	 6.685916087823542e+000
 4.568367236833022e-002	 2.574594725792466e+000	 6.689916455108544e+000
 2.280129301997274e-002	 2.574899046766007e+000	 6.708704028412229e+000
 0.000000000000000e+000	 2.575000000000000e+000	 6.744552749895487e+000
 2.336215385472976e-001	 2.589482762388461e+000	 6.901903508258950e+000
 2.099499995542375e-001	 2.591509405283540e+000	 6.863943280583138e+000
 1.863402659998916e-001	 2.593313961952431e+000	 6.827070795776697e+000
 1.627950388307349e-001	 2.594898413295944e+000	 6.792755006554555e+000
 1.393169645300756e-001	 2.596264775285893e+000	 6.762597407352392e+000
 1.159086348048716e-001	 2.597415097433516e+000	 6.738326718689995e+000
 9.257258631706813e-002	 2.598351461265692e+000	 6.721793436800339e+000
 6.931130045864874e-002	 2.599075978810228e+000	 6.714964264518094e+000
 4.612720316957133e-002	 2.599590791091487e+000	 6.719916439206502e+000
 2.302266479772398e-002	 2.599898066637537e+000	 6.738831973244286e+000
 0.000000000000000e+000	 2.600000000000000e+000	 6.773991822306467e+000
 2.358678994956391e-001	 2.614381635105389e+000	 6.923115141114216e+000
 2.119687495512579e-001	 2.616427764951064e+000	 6.889896971527463e+000
 1.881319993285157e-001	 2.618249673126103e+000	 6.856891899208699e+000
 1.643603757445280e-001	 2.619849359578438e+000	 6.825544516164710e+000
 1.406565507295593e-001	 2.621228859664228e+000	 6.797437088277136e+000
 1.170231409108281e-001	 2.622390242601553e+000	 6.774284127384074e+000
 9.346270734126122e-002	 2.623335609931968e+000	 6.757926822159415e+000
 6.997775527238191e-002	 2.624067093991241e+000	 6.750327344256315e+000
 4.657073397049537e-002	 2.624586856390508e+000	 6.753563045967963e+000
 2.324403657529772e-002	 2.624897086509069e+000	 6.769820565396213e+000
 0.000000000000000e+000	 2.625000000000000e+000	 6.801389854825493e+000
 2.381142604439641e-001	 2.639280507822317e+000	 6.965515895406393e+000
 2.139874995480826e-001	 2.641346124618587e+000	 6.935300343386327e+000
 1.899237326568062e-001	 2.643185384299774e+000	 6.904294090108694e+000
 1.659257126578905e-001	 2.644800305860932e+000	 6.873918460122974e+000
 1.419961369285558e-001	 2.646192944042565e+000	 6.845737722591200e+000
 1.181376470162809e-001	 2.647365387769589e+000	 6.821453546920532e+000
 9.435282836497362e-002	 2.648319758598243e+000	 6.802899310604393e+000
 7.064421008569682e-002	 2.649058209172255e+000	 6.792034276229960e+000
 4.701426477110234e-002	 2.649582921689528e+000	 6.790937654383989e+000
 2.346540835269394e-002	 2.649896106380600e+000	 6.801802568931145e+000
 0.000000000000000e+000	 2.650000000000000e+000	 6.826929940837244e+000
 2.403606213922725e-001	 2.664179380539246e+000	 7.028747207689406e+000
 2.160062495447116e-001	 2.666264484286111e+000	 6.999852811209505e+000
 1.917154659847630e-001	 2.668121095473445e+000	 6.969033812149089e+000
 1.674910495708223e-001	 2.669751252143427e+000	 6.937689339389619e+000
 1.433357231270650e-001	 2.671157028420902e+000	 6.907366877428473e+000
 1.192521531212298e-001	 2.672340532937625e+000	 6.879756601369357e+000
 9.524294938820538e-002	 2.673303907264518e+000	 6.856685557416802e+000
 7.131066489859349e-002	 2.674049324353268e+000	 6.840111706326231e+000
 4.745779557139222e-002	 2.674578986988549e+000	 6.832117847039940e+000
 2.368678012991264e-002	 2.674895126252130e+000	 6.834905437473402e+000
 0.000000000000000e+000	 2.675000000000000e+000	 6.850788329113522e+000
 2.426069823405643e-001	 2.689078253256174e+000	 7.112457663176489e+000
 2.180249995411448e-001	 2.691182843953635e+000	 7.083259675653031e+000
 1.935071993123861e-001	 2.693056806647117e+000	 7.050872106297750e+000
 1.690563864833233e-001	 2.694702198425921e+000	 7.016672939407086e+000
 1.446753093250869e-001	 2.696121112799239e+000	 6.982194067843611e+000
 1.203666592256749e-001	 2.697315678105662e+000	 6.949115503171265e+000
 9.613307041095653e-002	 2.698288055930794e+000	 6.919259424465951e+000
 7.197711971107187e-002	 2.699040439534281e+000	 6.894584083762153e+000
 4.790132637136506e-002	 2.699575052287571e+000	 6.877177585874784e+000
 2.390815190695384e-002	 2.699894146123661e+000	 6.869251560062567e+000
 0.000000000000000e+000	 2.699999999999999e+000	 6.873134740693564e+000
 2.448533432888395e-001	 2.713977125973103e+000	 7.216302667820186e+000
 2.200437495373822e-001	 2.716101203621158e+000	 7.185231852997641e+000
 1.952989326396756e-001	 2.717992517820788e+000	 7.149574399933293e+000
 1.706217233953936e-001	 2.719653144708416e+000	 7.110688179435249e+000
 1.460148955226215e-001	 2.721085197177575e+000	 7.070090667458476e+000
 1.214811653296163e-001	 2.722290823273699e+000	 7.029453026148130e+000
 9.702319143322702e-002	 2.723272204597070e+000	 6.990594016603510e+000
 7.264357452313200e-002	 2.724031554715293e+000	 6.955473761849023e+000
 4.834485717102078e-002	 2.724571117586591e+000	 6.926187378266184e+000
 2.412952368381753e-002	 2.724893165995192e+000	 6.904958493473562e+000
 0.000000000000000e+000	 2.724999999999999e+000	 6.894132668321201e+000
 2.470997042370982e-001	 2.738875998690031e+000	 7.339944138279003e+000
 2.220624995334239e-001	 2.741019563288683e+000	 7.305485619892284e+000
 1.970906659666314e-001	 2.742928228994460e+000	 7.264910307462487e+000
 1.721870603070332e-001	 2.744604090990911e+000	 7.219556970105190e+000
 1.473544817196688e-001	 2.746049281555912e+000	 7.170929823981494e+000
 1.225956714330539e-001	 2.747265968441736e+000	 7.120692479985346e+000
 9.791331245501693e-002	 2.748256353263346e+000	 7.070661716074185e+000
 7.331002933477392e-002	 2.749022669896307e+000	 7.022801093261054e+000
 4.878838797035946e-002	 2.749567182885613e+000	 6.979214434055645e+000
 2.435089546050372e-002	 2.749892185866723e+000	 6.942139181865584e+000
 0.000000000000000e+000	 2.750000000000000e+000	 6.913939659549309e+000
 2.750000000000000e+000	 0.000000000000000e+000	 1.116062418516005e+001
 2.749892185866724e+000	 2.435089546050380e-002	 1.117726329422451e+001
 2.749567182885613e+000	 4.878838797035964e-002	 1.118904992415048e+001
 2.749022669896307e+000	 7.331002933477374e-002	 1.119614248745517e+001
 2.748256353263346e+000	 9.791331245501686e-002	 1.119867918271145e+001
 2.747265968441735e+000	 1.225956714330539e-001	 1.119677725742753e+001
 2.746049281555912e+000	 1.473544817196689e-001	 1.119053229782862e+001
 2.744604090990912e+000	 1.721870603070334e-001	 1.118001754812252e+001
 2.742928228994461e+000	 1.970906659666313e-001	 1.116528326184396e+001
 2.741019563288683e+000	 2.220624995334238e-001	 1.114635608787804e+001
 2.738875998690032e+000	 2.470997042370982e-001	 1.112323849376017e+001
 2.775000000000000e+000	 0.000000000000000e+000	 1.112912592609496e+001
 2.774891205738252e+000	 2.457226723710123e-002	 1.114819638883833e+001
 2.774563248184625e+000	 4.923191876953977e-002	 1.116207293223221e+001
 2.774013785077298e+000	 7.397648414620646e-002	 1.117091678675802e+001
 2.773240501929583e+000	 9.880343347656641e-002	 1.117486871625366e+001
 2.772241113609713e+000	 1.237101775362395e-001	 1.117404827083371e+001
 2.771013365934162e+000	 1.486940679164726e-001	 1.116855306735567e+001
 2.769555037273286e+000	 1.737523972184576e-001	 1.115845810006584e+001
 2.767863940167976e+000	 1.988823992934202e-001	 1.114381508407147e+001
 2.765937922956008e+000	 2.240812495293676e-001	 1.112465183429101e+001
 2.763774871406714e+000	 2.493460651853486e-001	 1.110097168253125e+001
 2.800000000000000e+000	 0.000000000000000e+000	 1.109402254679161e+001
 2.799890225609775e+000	 2.479363901369865e-002	 1.111569643602733e+001
 2.799559313483616e+000	 4.967544956871989e-002	 1.113186742341076e+001
 2.799004900258245e+000	 7.464293895763922e-002	 1.114269970798024e+001
 2.798224650595743e+000	 9.969355449811596e-002	 1.114833674092853e+001
 2.797216258777568e+000	 1.248246836394252e-001	 1.114890046779932e+001
 2.795977450312236e+000	 1.500336541132763e-001	 1.114449059889765e+001
 2.794505983555422e+000	 1.753177341298819e-001	 1.113518391060193e+001
 2.792799651341178e+000	 2.006741326202092e-001	 1.112103358027811e+001
 2.790856282622937e+000	 2.260999995253114e-001	 1.110206855750165e+001
 2.788673744122905e+000	 2.515924261335989e-001	 1.107829297428913e+001
 2.825000000000000e+000	 0.000000000000000e+000	 1.105537463548885e+001
 2.824889245481293e+000	 2.501501079029607e-002	 1.107982189530156e+001
 2.824555378782589e+000	 5.011898036790001e-002	 1.109848958585643e+001
 2.823996015439152e+000	 7.530939376907195e-002	 1.111154502350960e+001
 2.823208799261825e+000	 1.005836755196655e-001	 1.111913446699465e+001
 2.822191403945302e+000	 1.259391897426109e-001	 1.112138234813036e+001
 2.820941534690137e+000	 1.513732403100800e-001	 1.111839053143425e+001
 2.819456929837322e+000	 1.768830710413061e-001	 1.111023760538634e+001
 2.817735362514068e+000	 2.024658659469981e-001	 1.109697820809956e+001
 2.815774642289468e+000	 2.281187495212551e-001	 1.107864239015810e+001
 2.813572616838604e+000	 2.538387870818492e-001	 1.105523501738124e+001
 2.850000000000000e+000	 0.000000000000000e+000	 1.101324065452248e+001
 2.849888265352808e+000	 2.523638256689349e-002	 1.104062932054793e+001
 2.849551444081544e+000	 5.056251116708015e-002	 1.106199393628168e+001
 2.848987130620012e+000	 7.597584858050469e-002	 1.107750508238984e+001
 2.848192947927832e+000	 1.014737965412150e-001	 1.108731194348542e+001
 2.847166549112915e+000	 1.270536958457965e-001	 1.109154152658103e+001
 2.845905619067861e+000	 1.527128265068837e-001	 1.109029790916428e+001
 2.844407876118980e+000	 1.784484079527304e-001	 1.108366151969820e+001
 2.842671073686645e+000	 2.042575992737870e-001	 1.107168845336152e+001
 2.840693001955603e+000	 2.301374995171989e-001	 1.105440982584820e+001
 2.838471489553812e+000	 2.560851480300996e-001	 1.103183116804120e+001
 2.875000000000000e+000	 0.000000000000000e+000	 1.096767703275568e+001
 2.874887285224318e+000	 2.545775434349091e-002	 1.099817344288335e+001
 2.874547509380478e+000	 5.100604196626029e-002	 1.102243339261329e+001
 2.873978245800831e+000	 7.664230339193742e-002	 1.104063087220533e+001
 2.873177096593761e+000	 1.023639175627646e-001	 1.105291810869700e+001
 2.872141694280408e+000	 1.281682019489822e-001	 1.105942477133421e+001
 2.870869703445413e+000	 1.540524127036874e-001	 1.106025720736584e+001
 2.869358822400401e+000	 1.800137448641546e-001	 1.105549771106532e+001
 2.867606784858911e+000	 2.060493326005760e-001	 1.104520382885401e+001
 2.865611361621340e+000	 2.321562495131426e-001	 1.102940770340634e+001
 2.863370362268527e+000	 2.583315089783499e-001	 1.100811545961111e+001
 2.900000000000000e+000	 0.000000000000000e+000	 1.091873825322882e+001
 2.899886305095822e+000	 2.567912612008834e-002	 1.095250724922241e+001
 2.899543574679393e+000	 5.144957276544040e-002	 1.097985934290549e+001
 2.898969360981606e+000	 7.730875820337015e-002	 1.100097207776457e+001
 2.898161245259613e+000	 1.032540385843141e-001	 1.101600083806506e+001
 2.897116839447780e+000	 1.292827080521679e-001	 1.102507804049161e+001
 2.895833787822788e+000	 1.553919989004911e-001	 1.102831235691862e+001
 2.894309768681584e+000	 1.815790817755789e-001	 1.102578797123613e+001
 2.892542496030862e+000	 2.078410659273649e-001	 1.101756387316913e+001
 2.890529721286680e+000	 2.341749995090864e-001	 1.100367319203221e+001
 2.888269234982751e+000	 2.605778699266002e-001	 1.098412257335587e+001
 2.925000000000000e+000	 0.000000000000000e+000	 1.086647693631420e+001
 2.924885324967321e+000	 2.590049789668575e-002	 1.090368205681599e+001
 2.924539639978291e+000	 5.189310356462054e-002	 1.093432171071922e+001
 2.923960476162338e+000	 7.797521301480291e-002	 1.095857713677441e+001
 2.923145393925387e+000	 1.041441596058637e-001	 1.097660698958603e+001
 2.922091984615031e+000	 1.303972141553536e-001	 1.098854651669271e+001
 2.920797872199990e+000	 1.567315850972948e-001	 1.099450676756892e+001
 2.919260714962528e+000	 1.831444186870031e-001	 1.099457383753786e+001
 2.917478207202502e+000	 2.096327992541539e-001	 1.098880814959841e+001
 2.915448080951624e+000	 2.361937495050301e-001	 1.097724377717261e+001
 2.913168107696484e+000	 2.628242308748505e-001	 1.095988781077416e+001
 2.949999999999999e+000	 0.000000000000000e+000	 1.081094391864271e+001
 2.949884344838818e+000	 2.612186967328318e-002	 1.085174758399959e+001
 2.949535705277168e+000	 5.233663436380066e-002	 1.088586901717675e+001
 2.948951591343028e+000	 7.864166782623562e-002	 1.091349329268335e+001
 2.948129542591084e+000	 1.050342806274132e-001	 1.093478244692905e+001
 2.947067129782162e+000	 1.315117202585392e-001	 1.094987463997320e+001
 2.945761956577017e+000	 1.580711712940985e-001	 1.095888335001147e+001
 2.944211661243234e+000	 1.847097555984273e-001	 1.096189660365706e+001
 2.942413918373829e+000	 2.114245325809428e-001	 1.095897624508622e+001
 2.940366440616171e+000	 2.382124995009739e-001	 1.095015724712114e+001
 2.938066980409724e+000	 2.650705918231008e-001	 1.093544706731736e+001
 2.974999999999999e+000	 0.000000000000000e+000	 1.075218832805090e+001
 2.974883364710307e+000	 2.634324144988059e-002	 1.079675201737481e+001
 2.974531770576026e+000	 5.278016516298079e-002	 1.083454843988788e+001
 2.973942706523673e+000	 7.930812263766840e-002	 1.086576664486037e+001
 2.973113691256705e+000	 1.059244016489628e-001	 1.089057216037397e+001
 2.972042274949171e+000	 1.326262263617249e-001	 1.090910613896690e+001
 2.970726040953869e+000	 1.594107574909022e-001	 1.092148453685804e+001
 2.969162607523700e+000	 1.862750925098516e-001	 1.092779732987661e+001
 2.967349629544844e+000	 2.132162659077317e-001	 1.092810776923593e+001
 2.965284800280319e+000	 2.402312494969177e-001	 1.092245168029359e+001
 2.962965853122473e+000	 2.673169527713512e-001	 1.091083680743353e+001
 3.000000000000000e+000	 0.000000000000000e+000	 1.069025765478077e+001
 2.999882384581794e+000	 2.656461322647803e-002	 1.073874207563150e+001
 2.999527835874867e+000	 5.322369596216094e-002	 1.078040586892947e+001
 2.998933821704276e+000	 7.997457744910114e-002	 1.081544219626504e+001
 2.998097839922249e+000	 1.068145226705123e-001	 1.084402018570269e+001
 2.997017420116060e+000	 1.337407324649106e-001	 1.086628406054746e+001
 2.995690125330548e+000	 1.607503436877060e-001	 1.088235230255756e+001
 2.994113553803930e+000	 1.878404294212759e-001	 1.089231685280089e+001
 2.992285340715547e+000	 2.150079992345207e-001	 1.089624235336583e+001
 2.990203159944073e+000	 2.422499994928615e-001	 1.089416543313940e+001
 2.987864725834731e+000	 2.695633137196016e-001	 1.088609404085924e+001
 2.738875998690032e+000	 2.470997042370982e-001	 1.112323849376017e+001
 2.736495478736073e+000	 2.721993660824219e-001	 1.115089461218593e+001
 2.733875987317568e+000	 2.973585142758314e-001	 1.117441717004871e+001
 2.731015550314390e+000	 3.225741217013698e-001	 1.119381135013292e+001
 2.727912237233771e+000	 3.478431054491007e-001	 1.120905776677818e+001
 2.724564162849201e+000	 3.731623273929815e-001	 1.122011206694133e+001
 2.720969488838349e+000	 3.985285948199711e-001	 1.122690458061530e+001
 2.717126425418324e+000	 4.239386611108923e-001	 1.122934002293102e+001
 2.713033232976536e+000	 4.493892264735031e-001	 1.122729725019675e+001
 2.708688223695421e+000	 4.748769387281779e-001	 1.122062907204882e+001
 2.704089763169176e+000	 5.003983941465353e-001	 1.120916212179596e+001
 2.763774871406714e+000	 2.493460651853486e-001	 1.110097168253125e+001
 2.761372710362509e+000	 2.746739057751574e-001	 1.113045127663887e+001
 2.758729405385852e+000	 3.000617734979081e-001	 1.115540920533097e+001
 2.755842964410066e+000	 3.255066137184060e-001	 1.117583481670441e+001
 2.752711439392450e+000	 3.510053155002597e-001	 1.119169233319143e+001
 2.749332927968071e+000	 3.765547121890066e-001	 1.120292046145436e+001
 2.745705575102577e+000	 4.021515820469407e-001	 1.120943205329429e+001
 2.741827574742320e+000	 4.277926489401635e-001	 1.121111381993940e+001
 2.737697171460054e+000	 4.534745830783209e-001	 1.120782610200465e+001
 2.733312662094416e+000	 4.791940018074253e-001	 1.119940269732983e+001
 2.728672397381367e+000	 5.049474704561092e-001	 1.118565074880851e+001
 2.788673744122905e+000	 2.515924261335989e-001	 1.107829297428913e+001
 2.786249941988360e+000	 2.771484454678931e-001	 1.110955480434106e+001
 2.783582823453462e+000	 3.027650327199847e-001	 1.113593887163360e+001
 2.780670378504993e+000	 3.284391057354422e-001	 1.115741873423085e+001
 2.777510641550315e+000	 3.541675255514188e-001	 1.117394223590589e+001
 2.774101693086072e+000	 3.799470969850319e-001	 1.118543112433494e+001
 2.770441661365888e+000	 4.057745692739103e-001	 1.119178072200147e+001
 2.766528724065365e+000	 4.316466367694348e-001	 1.119285965221815e+001
 2.762361109942594e+000	 4.575599396831384e-001	 1.118850962259692e+001
 2.757937100492415e+000	 4.835110648866727e-001	 1.117854526820994e+001
 2.753255031592557e+000	 5.094965467656832e-001	 1.116275405658481e+001
 2.813572616838604e+000	 2.538387870818492e-001	 1.105523501738124e+001
 2.811127173613622e+000	 2.796229851606287e-001	 1.108824856288067e+001
 2.808436241520400e+000	 3.054682919420613e-001	 1.111606010715631e+001
 2.805497792599171e+000	 3.313715977524783e-001	 1.113862745475224e+001
 2.802309843707365e+000	 3.573297356025775e-001	 1.115588207572797e+001
 2.798870458203201e+000	 3.833394817810571e-001	 1.116772873162294e+001
 2.795177747628281e+000	 4.093975565008799e-001	 1.117404515586639e+001
 2.791229873387456e+000	 4.355006245987061e-001	 1.117468179108505e+001
 2.787025048424154e+000	 4.616452962879561e-001	 1.116946158567937e+001
 2.782561538889420e+000	 4.878281279659200e-001	 1.115817985194828e+001
 2.777837665802749e+000	 5.140456230752573e-001	 1.114060418793961e+001
 2.838471489553812e+000	 2.560851480300996e-001	 1.103183116804120e+001
 2.836004405238297e+000	 2.820975248533642e-001	 1.106657648483677e+001
 2.833289659586666e+000	 3.081715511641379e-001	 1.109582728584807e+001
 2.830325206692602e+000	 3.343040897695145e-001	 1.111952565065569e+001
 2.827109045863600e+000	 3.604919456537367e-001	 1.113758667242942e+001
 2.823639223319458e+000	 3.867318665770823e-001	 1.114989809113766e+001
 2.819913833889759e+000	 4.130205437278497e-001	 1.115631998297804e+001
 2.815931022708593e+000	 4.393546124279774e-001	 1.115668450852761e+001
 2.811688986904735e+000	 4.657306528927737e-001	 1.115079572202627e+001
 2.807185977285430e+000	 4.921451910451673e-001	 1.113842944411227e+001
 2.802420300011939e+000	 5.185946993848312e-001	 1.111933320022213e+001
 2.863370362268527e+000	 2.583315089783499e-001	 1.100811545961111e+001
 2.860881636862386e+000	 2.845720645460999e-001	 1.104458304321445e+001
 2.858143077652259e+000	 3.108748103862145e-001	 1.107529519846141e+001
 2.855152620785284e+000	 3.372365817865506e-001	 1.110017830074734e+001
 2.851908248019021e+000	 3.636541557048956e-001	 1.111913105522716e+001
 2.848407988434845e+000	 3.901242513731075e-001	 1.113202413674837e+001
 2.844649920150318e+000	 4.166435309548192e-001	 1.113869988782139e+001
 2.840632172028778e+000	 4.432086002572487e-001	 1.113897207717388e+001
 2.836352925384337e+000	 4.698160094975914e-001	 1.113262572134711e+001
 2.831810415680446e+000	 4.964622541244146e-001	 1.111941697169456e+001
 2.827002934220130e+000	 5.231437756944052e-001	 1.109907306903202e+001
 2.888269234982751e+000	 2.605778699266002e-001	 1.098412257335587e+001
 2.885758868485888e+000	 2.870466042388355e-001	 1.102231322815052e+001
 2.882996495717179e+000	 3.135780696082912e-001	 1.105451903458685e+001
 2.879980034877217e+000	 3.401690738035869e-001	 1.108065067704463e+001
 2.876707450173627e+000	 3.668163657560546e-001	 1.110059045375542e+001
 2.873176753549362e+000	 3.935166361691326e-001	 1.111419192294100e+001
 2.869386006409960e+000	 4.202665181817890e-001	 1.112127960884660e+001
 2.865333321348009e+000	 4.470625880865199e-001	 1.112164877026490e+001
 2.861016863862960e+000	 4.739013661024089e-001	 1.111506523405650e+001
 2.856434854074466e+000	 5.007793172036621e-001	 1.110126529606892e+001
 2.851585568427321e+000	 5.276928520039791e-001	 1.107995569174298e+001
 2.913168107696484e+000	 2.628242308748505e-001	 1.095988781077416e+001
 2.910636100108802e+000	 2.895211439315710e-001	 1.099981252481399e+001
 2.907849913781428e+000	 3.162813288303679e-001	 1.103355436560847e+001
 2.904807448968402e+000	 3.431015658206231e-001	 1.106100833224593e+001
 2.901506652327419e+000	 3.699785758072136e-001	 1.108204028950095e+001
 2.897945518663007e+000	 3.969090209651578e-001	 1.109648661966373e+001
 2.894122092668686e+000	 4.238895054087586e-001	 1.110415393616268e+001
 2.890034470666287e+000	 4.509165759157913e-001	 1.110481886162846e+001
 2.885680802340603e+000	 4.779867227072266e-001	 1.109822787295354e+001
 2.881059292467493e+000	 5.050963802829094e-001	 1.108409721579439e+001
 2.876168202633513e+000	 5.322419283135530e-001	 1.106211289084581e+001
 2.938066980409724e+000	 2.650705918231008e-001	 1.093544706731736e+001
 2.935513331731131e+000	 2.919956836243067e-001	 1.097712689243008e+001
 2.932703331845003e+000	 3.189845880524445e-001	 1.101245712852625e+001
 2.929634863058839e+000	 3.460340578376592e-001	 1.104131708783721e+001
 2.926305854480396e+000	 3.731407858583725e-001	 1.106355616767364e+001
 2.922714283775782e+000	 4.003014057611831e-001	 1.107899350743441e+001
 2.918858178926494e+000	 4.275124926357282e-001	 1.108741770934870e+001
 2.914735619983612e+000	 4.547705637450625e-001	 1.108858662565425e+001
 2.910344740817267e+000	 4.820720793120442e-001	 1.108222721481560e+001
 2.905683730859523e+000	 5.094134433621567e-001	 1.106803546927698e+001
 2.900750836838703e+000	 5.367910046231269e-001	 1.104567641712135e+001
 2.962965853122473e+000	 2.673169527713512e-001	 1.091083680743353e+001
 2.960390563352871e+000	 2.944702233170423e-001	 1.095430274436183e+001
 2.957556749907905e+000	 3.216878472745211e-001	 1.099128361059402e+001
 2.954462277148527e+000	 3.489665498546954e-001	 1.102164302279851e+001
 2.951105056632558e+000	 3.763029959095315e-001	 1.104521386948710e+001
 2.947483048887686e+000	 4.036937905572083e-001	 1.106179797269477e+001
 2.943594265183386e+000	 4.311354798626978e-001	 1.107116581537512e+001
 2.939436769299982e+000	 4.586245515743337e-001	 1.107305633727022e+001
 2.935008679292953e+000	 4.861574359168619e-001	 1.106717680191191e+001
 2.930308169250560e+000	 5.137305064414041e-001	 1.105320273729705e+001
 2.925333471042894e+000	 5.413400809327010e-001	 1.103077795265357e+001
 2.987864725834731e+000	 2.695633137196016e-001	 1.088609404085924e+001
 2.985267794974027e+000	 2.969447630097781e-001	 1.093138692918780e+001
 2.982410167970137e+000	 3.243911064965979e-001	 1.097009043472562e+001
 2.979289691237467e+000	 3.518990418717317e-001	 1.100205246287497e+001
 2.975904258783907e+000	 3.794652059606906e-001	 1.102708934482509e+001
 2.972251813998720e+000	 4.070861753532337e-001	 1.104498550339703e+001
 2.968330351439361e+000	 4.347584670896677e-001	 1.105549318662916e+001
 2.964137918615402e+000	 4.624785394036052e-001	 1.105833227192024e+001
 2.959672617767659e+000	 4.902427925216796e-001	 1.105319014344136e+001
 2.954932607640603e+000	 5.180475695206515e-001	 1.103972164541043e+001
 2.949916105246086e+000	 5.458891572422751e-001	 1.101754911369187e+001
 2.704089763169176e+000	 5.003983941465353e-001	 1.120916212179596e+001
 2.699236272010369e+000	 5.259501383425348e-001	 1.126277106554248e+001
 2.694126227445558e+000	 5.515286672185968e-001	 1.131107295729416e+001
 2.688758164897393e+000	 5.771304279651318e-001	 1.135383908438107e+001
 2.683130679550521e+000	 6.027518201122009e-001	 1.139081532358786e+001
 2.677242427900420e+000	 6.283891966355909e-001	 1.141889374299529e+001
 2.671092129282827e+000	 6.540388651164305e-001	 1.142406623823857e+001
 2.664678567381807e+000	 6.796970889541842e-001	 1.142639576198179e+001
 2.658000591714422e+000	 7.053600886327908e-001	 1.142590437219432e+001
 2.651057119090043e+000	 7.310240430396247e-001	 1.142261107053302e+001
 2.643847135042239e+000	 7.566850908368894e-001	 1.141653141673231e+001
 2.728672397381367e+000	 5.049474704561092e-001	 1.118565074880851e+001
 2.723774783575466e+000	 5.307315032349365e-001	 1.123806081439893e+001
 2.718618284059930e+000	 5.565425641910099e-001	 1.128536677179194e+001
 2.713201420943072e+000	 5.823770682164715e-001	 1.132733198347814e+001
 2.707522776638490e+000	 6.082313821098384e-001	 1.136369354073845e+001
 2.701580995427986e+000	 6.341018256921329e-001	 1.138663655311364e+001
 2.695374785004896e+000	 6.599846729770404e-001	 1.139175504744489e+001
 2.688902917995866e+000	 6.858761533949309e-001	 1.139395639407340e+001
 2.682164233459023e+000	 7.117724530705056e-001	 1.139327508589911e+001
 2.675157638356550e+000	 7.376697161537531e-001	 1.138974264479266e+001
 2.667882108999597e+000	 7.635640462038071e-001	 1.138338721625290e+001
 2.753255031592557e+000	 5.094965467656832e-001	 1.116275405658481e+001
 2.748313295139561e+000	 5.355128681273381e-001	 1.121445959030173e+001
 2.743110340673302e+000	 5.615564611634224e-001	 1.126128189726749e+001
 2.737644676987751e+000	 5.876237084678108e-001	 1.130297592828490e+001
 2.731914873725461e+000	 6.137109441074760e-001	 1.133926947264009e+001
 2.725919562954553e+000	 6.398144547486752e-001	 1.135746231356814e+001
 2.719657440725966e+000	 6.659304808376506e-001	 1.136256513643579e+001
 2.713127268608924e+000	 6.920552178356770e-001	 1.136468338267359e+001
 2.706327875202623e+000	 7.181848175082201e-001	 1.136386414879845e+001
 2.699258157622058e+000	 7.443153892678818e-001	 1.136015164012313e+001
 2.691917082955955e+000	 7.704430015707247e-001	 1.135358674526995e+001
 2.777837665802749e+000	 5.140456230752573e-001	 1.114060418793961e+001
 2.772851806702656e+000	 5.402942330197397e-001	 1.119210261340064e+001
 2.767602397285674e+000	 5.665703581358352e-001	 1.123895674092453e+001
 2.762087933031431e+000	 5.928703487191503e-001	 1.128091261854127e+001
 2.756306970811430e+000	 6.191905061051134e-001	 1.131768821257948e+001
 2.750258130480121e+000	 6.455270838052173e-001	 1.133121172934697e+001
 2.743940096446035e+000	 6.718762886982608e-001	 1.133632612249335e+001
 2.737351619220983e+000	 6.982342822764235e-001	 1.133839524434534e+001
 2.730491516945223e+000	 7.245971819459348e-001	 1.133747896958198e+001
 2.723358676886565e+000	 7.509610623820101e-001	 1.133363435609107e+001
 2.715952056911313e+000	 7.773219569376425e-001	 1.132691519892174e+001
 2.802420300011939e+000	 5.185946993848312e-001	 1.111933320022213e+001
 2.797390318264753e+000	 5.450755979121414e-001	 1.117112522222095e+001
 2.792094453897046e+000	 5.715842551082483e-001	 1.121853003528668e+001
 2.786531189074109e+000	 5.981169889704898e-001	 1.126128428929485e+001
 2.780699067896400e+000	 6.246700681027507e-001	 1.129909560212026e+001
 2.774596698004689e+000	 6.512397128617596e-001	 1.130772646960043e+001
 2.768222752165104e+000	 6.778220965588708e-001	 1.131286880579566e+001
 2.761575969832041e+000	 7.044133467171696e-001	 1.131491190005988e+001
 2.754655158686825e+000	 7.310095463836497e-001	 1.131392858556574e+001
 2.747459196150072e+000	 7.576067354961386e-001	 1.130998894773826e+001
 2.739987030865671e+000	 7.842009123045602e-001	 1.130315985722357e+001
 2.827002934220130e+000	 5.231437756944052e-001	 1.109907306903202e+001
 2.821928829825849e+000	 5.498569628045430e-001	 1.115166286851662e+001
 2.816586510507418e+000	 5.765981520806611e-001	 1.120014082405299e+001
 2.810974445115789e+000	 6.033636292218294e-001	 1.124423368762692e+001
 2.805091164980371e+000	 6.301496301003884e-001	 1.127843845968610e+001
 2.798935265528256e+000	 6.569523419183018e-001	 1.128684912572097e+001
 2.792505407883173e+000	 6.837679044194810e-001	 1.129202511798649e+001
 2.785800320442101e+000	 7.105924111579159e-001	 1.129405461413556e+001
 2.778818800427425e+000	 7.374219108213642e-001	 1.129302359188227e+001
 2.771559715412582e+000	 7.642524086102674e-001	 1.128901534490882e+001
 2.764022004819029e+000	 7.910798676714779e-001	 1.128210999442094e+001
 2.851585568427321e+000	 5.276928520039791e-001	 1.107995569174298e+001
 2.846467341385945e+000	 5.546383276969448e-001	 1.113385111238978e+001
 2.841078567116790e+000	 5.816120490530741e-001	 1.118392844868536e+001
 2.835417701156467e+000	 6.086102694731688e-001	 1.122990405058183e+001
 2.829483262063339e+000	 6.356291920980257e-001	 1.125992979682403e+001
 2.823273833050822e+000	 6.626649709748439e-001	 1.126842317159128e+001
 2.816788063600243e+000	 6.897137122800909e-001	 1.127362807340532e+001
 2.810024671051159e+000	 7.167714755986622e-001	 1.127564593633477e+001
 2.802982442167025e+000	 7.438342752590790e-001	 1.127457607433339e+001
 2.795660234674088e+000	 7.708980817243958e-001	 1.127051517574911e+001
 2.788056978771388e+000	 7.979588230383955e-001	 1.126355679303133e+001
 2.876168202633513e+000	 5.322419283135530e-001	 1.106211289084581e+001
 2.871005852945042e+000	 5.594196925893464e-001	 1.111782561766046e+001
 2.865570623725160e+000	 5.866259460254867e-001	 1.117003253568355e+001
 2.859860957196146e+000	 6.138569097245082e-001	 1.121843908422855e+001
 2.853875359145309e+000	 6.411087540956634e-001	 1.124373836350631e+001
 2.847612400572390e+000	 6.683776000313862e-001	 1.125229292587109e+001
 2.841070719316312e+000	 6.956595201407011e-001	 1.125751172281824e+001
 2.834249021659218e+000	 7.229505400394086e-001	 1.125950964693062e+001
 2.827146083905626e+000	 7.502466396967937e-001	 1.125839954568638e+001
 2.819760753934596e+000	 7.775437548385245e-001	 1.125429169413070e+001
 2.812091952722746e+000	 8.048377784053130e-001	 1.124729326229418e+001
 2.900750836838703e+000	 5.367910046231269e-001	 1.104567641712135e+001
 2.895544364503137e+000	 5.642010574817481e-001	 1.110372214747178e+001
 2.890062680332532e+000	 5.916398429978996e-001	 1.115859298450731e+001
 2.884304213234825e+000	 6.191035499758476e-001	 1.120998294378662e+001
 2.878267456226280e+000	 6.465883160933008e-001	 1.122971936598516e+001
 2.871950968092957e+000	 6.740902290879284e-001	 1.123830351620152e+001
 2.865353375031381e+000	 7.016053280013114e-001	 1.124351110950156e+001
 2.858473372266276e+000	 7.291296044801550e-001	 1.124547070456657e+001
 2.851309725643227e+000	 7.566590041345083e-001	 1.124430888520936e+001
 2.843861273194104e+000	 7.841894279526529e-001	 1.124014971076371e+001
 2.836126926673104e+000	 8.117167337722308e-001	 1.123311416076733e+001
 2.925333471042894e+000	 5.413400809327010e-001	 1.103077795265357e+001
 2.920082876060233e+000	 5.689824223741498e-001	 1.109167656011669e+001
 2.914554736938903e+000	 5.966537399703125e-001	 1.114974995610746e+001
 2.908747469272504e+000	 6.243501902271872e-001	 1.120468021475441e+001
 2.902659553306250e+000	 6.520678780909385e-001	 1.121772861197546e+001
 2.896289535612524e+000	 6.798028581444705e-001	 1.122630084521427e+001
 2.889636030745451e+000	 7.075511358619213e-001	 1.123146222753974e+001
 2.882697722872336e+000	 7.353086689209013e-001	 1.123335519674508e+001
 2.875473367379827e+000	 7.630713685722230e-001	 1.123212028125521e+001
 2.867961792452611e+000	 7.908351010667813e-001	 1.122789552778347e+001
 2.860161900622463e+000	 8.185956891391486e-001	 1.122081592282636e+001
 2.949916105246086e+000	 5.458891572422751e-001	 1.101754911369187e+001
 2.944621387616330e+000	 5.737637872665515e-001	 1.108182480507336e+001
 2.939046793544276e+000	 6.016676369427255e-001	 1.114364386203050e+001
 2.933190725309185e+000	 6.295968304785270e-001	 1.119551696787150e+001
 2.927051650385220e+000	 6.575474400885762e-001	 1.120762248559390e+001
 2.920628103131092e+000	 6.855154872010129e-001	 1.121613155824030e+001
 2.913918686458521e+000	 7.134969437225319e-001	 1.122120198220833e+001
 2.906922073477395e+000	 7.414877333616478e-001	 1.122299029279177e+001
 2.899637009115429e+000	 7.694837330099380e-001	 1.122165117671651e+001
 2.892062311710120e+000	 7.974807741809101e-001	 1.121733687660773e+001
 2.884196874570821e+000	 8.254746445060665e-001	 1.121019658883871e+001
 2.643847135042239e+000	 7.566850908368894e-001	 1.141653141673231e+001
 2.636369695231585e+000	 7.823393318852079e-001	 1.145736391342422e+001
 2.628623926816410e+000	 8.079828287179298e-001	 1.149346051785695e+001
 2.620609029790003e+000	 8.336116080664255e-001	 1.152478068204307e+001
 2.612324278282998e+000	 8.592216624358847e-001	 1.155128010712846e+001
 2.603769021827961e+000	 8.848089517299635e-001	 1.157291042406722e+001
 2.594942686584525e+000	 9.103694049237149e-001	 1.158961887871537e+001
 2.585844776523053e+000	 9.358989217837994e-001	 1.160134802252392e+001
 2.576474874564940e+000	 9.613933746349104e-001	 1.160803541002915e+001
 2.566832643677576e+000	 9.868486101712379e-001	 1.160961330434988e+001
 2.556917827922116e+000	 1.012260451311729e+000	 1.160600839190990e+001
 2.667882108999597e+000	 7.635640462038071e-001	 1.138338721625290e+001
 2.660336692463774e+000	 7.894515076254417e-001	 1.142318810994892e+001
 2.652520507972429e+000	 8.153281271568192e-001	 1.145854285325709e+001
 2.644432748246060e+000	 8.411898954086864e-001	 1.148941634655547e+001
 2.636072680816487e+000	 8.670327684544612e-001	 1.151576935293108e+001
 2.627439649302940e+000	 8.928526694696530e-001	 1.153755815929397e+001
 2.618533074648314e+000	 9.186454904199954e-001	 1.155473424221138e+001
 2.609352456313619e+000	 9.444070937973019e-001	 1.156724393969631e+001
 2.599897373428621e+000	 9.701333144019442e-001	 1.157502813020138e+001
 2.590167485896779e+000	 9.958199611707879e-001	 1.157802192008207e+001
 2.580162535452529e+000	 1.021462819049315e+000	 1.157615434080123e+001
 2.691917082955955e+000	 7.704430015707247e-001	 1.135358674526995e+001
 2.684303689694970e+000	 7.965636833656756e-001	 1.139214665063388e+001
 2.676417089127467e+000	 8.226734255957088e-001	 1.142655151401101e+001
 2.668256466701160e+000	 8.487681827509469e-001	 1.145677190258573e+001
 2.659821083349055e+000	 8.748438744730380e-001	 1.148277385691442e+001
 2.651110276777040e+000	 9.008963872093422e-001	 1.150451853207004e+001
 2.642123462711282e+000	 9.269215759162762e-001	 1.152196184380810e+001
 2.632860136103426e+000	 9.529152658108043e-001	 1.153505412104245e+001
 2.623319872291618e+000	 9.788732541689782e-001	 1.154373976593635e+001
 2.613502328115380e+000	 1.004791312170337e+000	 1.154795692292746e+001
 2.603407242982436e+000	 1.030665186786900e+000	 1.154763715801426e+001
 2.715952056911313e+000	 7.773219569376425e-001	 1.132691519892174e+001
 2.708270686925169e+000	 8.036758591059093e-001	 1.136402115229699e+001
 2.700313670281525e+000	 8.300187240345980e-001	 1.139726471898019e+001
 2.692080185155304e+000	 8.563464700932075e-001	 1.142662235527521e+001
 2.683569485880700e+000	 8.826549804916148e-001	 1.145206559850124e+001
 2.674780904250262e+000	 9.089401049490314e-001	 1.147356068775279e+001
 2.665713850773425e+000	 9.351976614125567e-001	 1.149106818998259e+001
 2.656367815892474e+000	 9.614234378243067e-001	 1.150454263275005e+001
 2.646742371153929e+000	 9.876131939360121e-001	 1.151393214499677e+001
 2.636837170333382e+000	 1.013762663169887e+000	 1.151917810722343e+001
 2.626651950511838e+000	 1.039867554524486e+000	 1.152021481245152e+001
 2.739987030865671e+000	 7.842009123045602e-001	 1.130315985722357e+001
 2.732237684154373e+000	 8.107880348461433e-001	 1.133859528480857e+001
 2.724210251434601e+000	 8.373640224734873e-001	 1.137046270490096e+001
 2.715903903608492e+000	 8.639247574354683e-001	 1.139874468910046e+001
 2.707317888411426e+000	 8.904660865101918e-001	 1.142341849454023e+001
 2.698451531722607e+000	 9.169838226887206e-001	 1.144445566384136e+001
 2.689304238834745e+000	 9.434737469088372e-001	 1.146182163069106e+001
 2.679875495680763e+000	 9.699316098378094e-001	 1.147547533244344e+001
 2.670164870015556e+000	 9.963531337030460e-001	 1.148536883116036e+001
 2.660172012550785e+000	 1.022734014169437e+000	 1.149144694452418e+001
 2.649896658040735e+000	 1.049069922262071e+000	 1.149364688806254e+001
 2.764022004819029e+000	 7.910798676714779e-001	 1.128210999442094e+001
 2.756204681382582e+000	 8.179002105863771e-001	 1.131565468182813e+001
 2.748106832586698e+000	 8.447093209123768e-001	 1.134592763865089e+001
 2.739727622060723e+000	 8.715030447777287e-001	 1.137291778181518e+001
 2.731066290941226e+000	 8.982771925287681e-001	 1.139660831507016e+001
 2.722122159194074e+000	 9.250275404284097e-001	 1.141697630770955e+001
 2.712894626895241e+000	 9.517498324051178e-001	 1.143399227921760e+001
 2.703383175468293e+000	 9.784397818513119e-001	 1.144761979129512e+001
 2.693587368876499e+000	 1.005093073470080e+000	 1.145781504874096e+001
 2.683506854767586e+000	 1.031705365168986e+000	 1.146452651067831e+001
 2.673141365569126e+000	 1.058272289999657e+000	 1.146769451362437e+001
 2.788056978771388e+000	 7.979588230383955e-001	 1.126355679303133e+001
 2.780171678609796e+000	 8.250123863266109e-001	 1.129498685615836e+001
 2.772003413737814e+000	 8.520546193512663e-001	 1.132344353405293e+001
 2.763551340511999e+000	 8.790813321199895e-001	 1.134892232284342e+001
 2.754814693470107e+000	 9.060882985473449e-001	 1.137141260344094e+001
 2.745792786664665e+000	 9.330712581680993e-001	 1.139089719859410e+001
 2.736485014954916e+000	 9.600259179013982e-001	 1.140735193616861e+001
 2.726890855255064e+000	 9.869479538648145e-001	 1.142074522016584e+001
 2.717009867736757e+000	 1.013833013237114e+000	 1.143103761101366e+001
 2.706841696983789e+000	 1.040676716168536e+000	 1.143818141667823e+001
 2.696386073097013e+000	 1.067474657737242e+000	 1.144212029615427e+001
 2.812091952722746e+000	 8.048377784053130e-001	 1.124729326229418e+001
 2.804138675836015e+000	 8.321245620668447e-001	 1.127638111943987e+001
 2.795899994887949e+000	 8.593999177901556e-001	 1.130279617294628e+001
 2.787375058962318e+000	 8.866596194622501e-001	 1.132654073585780e+001
 2.778563095998065e+000	 9.138994045659217e-001	 1.134761060053115e+001
 2.769463414134377e+000	 9.411149759077884e-001	 1.136599457358334e+001
 2.760075403013765e+000	 9.683020033976790e-001	 1.138167401736508e+001
 2.750398535041076e+000	 9.954561258783168e-001	 1.139462239953253e+001
 2.740432366596330e+000	 1.022572953004148e+000	 1.140480485231053e+001
 2.730176539199392e+000	 1.049648067168086e+000	 1.141217774305562e+001
 2.719630780624395e+000	 1.076677025474828e+000	 1.141668825773698e+001
 2.836126926673104e+000	 8.117167337722308e-001	 1.123311416076733e+001
 2.828105673061239e+000	 8.392367378070784e-001	 1.125962850592916e+001
 2.819796576037104e+000	 8.667452162290449e-001	 1.128377303027025e+001
 2.811198777411680e+000	 8.942379068045107e-001	 1.130555710529437e+001
 2.802311498525101e+000	 9.217105105844983e-001	 1.132498317281880e+001
 2.793134041603210e+000	 9.491586936474775e-001	 1.134204625736933e+001
 2.783665791071792e+000	 9.765780888939597e-001	 1.135673348540123e+001
 2.773906214826328e+000	 1.003964297891819e+000	 1.136902361297908e+001
 2.763854865455220e+000	 1.031312892771182e+000	 1.137888656356901e+001
 2.753511381414393e+000	 1.058619418167635e+000	 1.138628297761294e+001
 2.742875488151270e+000	 1.085879393212413e+000	 1.139116377556429e+001
 2.860161900622463e+000	 8.185956891391486e-001	 1.122081592282636e+001
 2.852072670285467e+000	 8.463489135473123e-001	 1.124452170011989e+001
 2.843693157185278e+000	 8.740905146679343e-001	 1.126616320292579e+001
 2.835022495860089e+000	 9.018161941467713e-001	 1.128575710657271e+001
 2.826059901051216e+000	 9.295216166030752e-001	 1.130331274407889e+001
 2.816804669071168e+000	 9.572024113871669e-001	 1.131883159554175e+001
 2.807256179128995e+000	 9.848541743902404e-001	 1.133230678465410e+001
 2.797413894610821e+000	 1.012472469905322e+000	 1.134372258404063e+001
 2.787277364313424e+000	 1.040052832538216e+000	 1.135305393113001e+001
 2.776846223628796e+000	 1.067590769167185e+000	 1.136026595629434e+001
 2.766120195677642e+000	 1.095081760949999e+000	 1.136531352499774e+001
 2.884196874570821e+000	 8.254746445060665e-001	 1.121019658883871e+001
 2.876039667508701e+000	 8.534610892875464e-001	 1.123085496798297e+001
 2.867589738332473e+000	 8.814358131068238e-001	 1.124975734219363e+001
 2.858846214307540e+000	 9.093944814890321e-001	 1.126692793980486e+001
 2.849808303576410e+000	 9.373327226216522e-001	 1.128238323049600e+001
 2.840475296538248e+000	 9.652461291268560e-001	 1.129613139121723e+001
 2.830846567185376e+000	 9.931302598865213e-001	 1.130817177954257e+001
 2.820921574394557e+000	 1.020980641918824e+000	 1.131849441620556e+001
 2.810699863170943e+000	 1.048792772305250e+000	 1.132707947859610e+001
 2.800181065842598e+000	 1.076562120166735e+000	 1.133389680701309e+001
 2.789364903203508e+000	 1.104284128687585e+000	 1.133890542547821e+001
 2.556917827922116e+000	 1.012260451311729e+000	 1.160600839190990e+001
 2.546730253452309e+000	 1.037624699097835e+000	 1.163869853831112e+001
 2.536269829462127e+000	 1.062937134632405e+000	 1.166555230372951e+001
 2.525536549080854e+000	 1.088193521057849e+000	 1.168643046845149e+001
 2.514530490214019e+000	 1.113389605572322e+000	 1.170118708824123e+001
 2.503251816328117e+000	 1.138521121482226e+000	 1.170966931772786e+001
 2.491700777177656e+000	 1.163583790289265e+000	 1.172564320495255e+001
 2.479877709472937e+000	 1.188573323810187e+000	 1.174104806233885e+001
 2.467783037487111e+000	 1.213485426327356e+000	 1.175028297383036e+001
 2.455417273601035e+000	 1.238315796768149e+000	 1.175318389679544e+001
 2.442781018784593e+000	 1.263060130911157e+000	 1.174637988305213e+001
 2.580162535452529e+000	 1.021462819049315e+000	 1.157615434080123e+001
 2.569882346669243e+000	 1.047057650906575e+000	 1.160983302638752e+001
 2.559326827915428e+000	 1.072600199491755e+000	 1.163813919526269e+001
 2.548495972257904e+000	 1.098086189430378e+000	 1.166093696810710e+001
 2.537389858310436e+000	 1.123511329258762e+000	 1.167808307782180e+001
 2.526008651025577e+000	 1.148871313495187e+000	 1.168942667495211e+001
 2.514352602428330e+000	 1.174161824745915e+000	 1.169480915121447e+001
 2.502422052289998e+000	 1.199378535844212e+000	 1.169406398227200e+001
 2.490217428740764e+000	 1.224517112020461e+000	 1.170318112370194e+001
 2.477739248819489e+000	 1.249573213101380e+000	 1.171031979103852e+001
 2.464988118959423e+000	 1.274542495736273e+000	 1.170223781233318e+001
 2.603407242982436e+000	 1.030665186786900e+000	 1.154763715801426e+001
 2.593034439885761e+000	 1.056490602715315e+000	 1.158217883714091e+001
 2.582383826368382e+000	 1.082263264351105e+000	 1.161181283895668e+001
 2.571455395434662e+000	 1.107978857802907e+000	 1.163640675484046e+001
 2.560249226406592e+000	 1.133633052945202e+000	 1.165582011937230e+001
 2.548765485722786e+000	 1.159221505508147e+000	 1.166990419747319e+001
 2.537004427678744e+000	 1.184739859202564e+000	 1.167850179057338e+001
 2.524966395106771e+000	 1.210183747878236e+000	 1.168144706301300e+001
 2.512651819994079e+000	 1.235548797713566e+000	 1.167856538984495e+001
 2.500061224037538e+000	 1.260830629434610e+000	 1.166362044220425e+001
 2.487195219133758e+000	 1.286024860561388e+000	 1.165736090523189e+001
 2.626651950511838e+000	 1.039867554524486e+000	 1.152021481245152e+001
 2.616186533101865e+000	 1.065923554524055e+000	 1.155549071124876e+001
 2.605440824820995e+000	 1.091926329210455e+000	 1.158632502438790e+001
 2.594414818611126e+000	 1.117871526175436e+000	 1.161258894785710e+001
 2.583108594502486e+000	 1.143754776631642e+000	 1.163414494586686e+001
 2.571522320419745e+000	 1.169571697521108e+000	 1.165084651937928e+001
 2.559656252928899e+000	 1.195317893659215e+000	 1.166253799460031e+001
 2.547510737923258e+000	 1.220988959912261e+000	 1.166905433269817e+001
 2.535086211247058e+000	 1.246580483406670e+000	 1.167022096197619e+001
 2.522383199255179e+000	 1.272088045767840e+000	 1.165087436218319e+001
 2.509402319307596e+000	 1.297507225386504e+000	 1.162644018926234e+001
 2.649896658040735e+000	 1.049069922262071e+000	 1.149364688806254e+001
 2.639338626317554e+000	 1.075356506332795e+000	 1.152952499551921e+001
 2.628497823273262e+000	 1.101589394069805e+000	 1.156142913275934e+001
 2.617374241787297e+000	 1.127764194547964e+000	 1.158923423787076e+001
 2.605967962598117e+000	 1.153876500318082e+000	 1.161280583603154e+001
 2.594279155116454e+000	 1.179921889534068e+000	 1.163199978909587e+001
 2.582308078178794e+000	 1.205895928115864e+000	 1.164666206608636e+001
 2.570055080739456e+000	 1.231794171946285e+000	 1.165662853591703e+001
 2.557520602499700e+000	 1.257612169099776e+000	 1.165528525476486e+001
 2.544705174472416e+000	 1.283345462101071e+000	 1.163539237545267e+001
 2.531609419480937e+000	 1.308989590211620e+000	 1.161333016839973e+001
 2.673141365569126e+000	 1.058272289999657e+000	 1.146769451362437e+001
 2.662490719532829e+000	 1.084789458141534e+000	 1.150403957305921e+001
 2.651554821725186e+000	 1.111252458929156e+000	 1.153688006769951e+001
 2.640333664963175e+000	 1.137656862920493e+000	 1.156609481877701e+001
 2.628827330693487e+000	 1.163998224004522e+000	 1.159155254713775e+001
 2.617035989812912e+000	 1.190272081547028e+000	 1.161311160354499e+001
 2.604959903428432e+000	 1.216473962572515e+000	 1.163061972084196e+001
 2.592599423555365e+000	 1.242599383980309e+000	 1.164391378935970e+001
 2.579954993752004e+000	 1.268643854792880e+000	 1.163512199710309e+001
 2.567027149689244e+000	 1.294602878434302e+000	 1.161713733786516e+001
 2.553816519653783e+000	 1.320471955036735e+000	 1.159738037245251e+001
 2.696386073097013e+000	 1.067474657737242e+000	 1.144212029615427e+001
 2.685642812747688e+000	 1.094222409950274e+000	 1.147879379705480e+001
 2.674611820176765e+000	 1.120915523788506e+000	 1.151243418964062e+001
 2.663293088138760e+000	 1.147549531293022e+000	 1.154292432286093e+001
 2.651686698788594e+000	 1.174119947690962e+000	 1.157013625127171e+001
 2.639792824509118e+000	 1.200622273559989e+000	 1.159393094571000e+001
 2.627611728677810e+000	 1.227051997029165e+000	 1.161415802679077e+001
 2.615143766370987e+000	 1.253404596014334e+000	 1.162693706442535e+001
 2.602389385003972e+000	 1.279675540485985e+000	 1.161221079678533e+001
 2.589349124905667e+000	 1.305860294767532e+000	 1.159607332426694e+001
 2.576023619826133e+000	 1.331954319861851e+000	 1.157855642522486e+001
 2.719630780624395e+000	 1.076677025474828e+000	 1.141668825773698e+001
 2.708794905962132e+000	 1.103655361759014e+000	 1.145354842794722e+001
 2.697668818628000e+000	 1.130578588647856e+000	 1.148784925356201e+001
 2.686252511314052e+000	 1.157442199665550e+000	 1.151947775932747e+001
 2.674546066883441e+000	 1.184241671377402e+000	 1.154830947487247e+001
 2.662549659205076e+000	 1.210972465572949e+000	 1.157420812540224e+001
 2.650263553926928e+000	 1.237630031485815e+000	 1.159702534618720e+001
 2.637688109186321e+000	 1.264209808048359e+000	 1.159984299315334e+001
 2.624823776255603e+000	 1.290707226179090e+000	 1.158651554249935e+001
 2.611671100121684e+000	 1.317117711100763e+000	 1.157216557640435e+001
 2.598230719997987e+000	 1.343436684686967e+000	 1.155682506494514e+001
 2.742875488151270e+000	 1.085879393212413e+000	 1.139116377556429e+001
 2.731946999176162e+000	 1.113088313567753e+000	 1.142806557380344e+001
 2.720725817078890e+000	 1.140241653507206e+000	 1.146288434989915e+001
 2.709211934489051e+000	 1.167334868038079e+000	 1.149551145595731e+001
 2.697405434978025e+000	 1.194363395063843e+000	 1.152582604134389e+001
 2.685306493900782e+000	 1.221322657585910e+000	 1.155369472303940e+001
 2.672915379175787e+000	 1.248208065942465e+000	 1.157897128077177e+001
 2.660232452001367e+000	 1.275015020082383e+000	 1.156998442769278e+001
 2.647258167506897e+000	 1.301738911872195e+000	 1.155800128585044e+001
 2.633993075337294e+000	 1.328375127433993e+000	 1.154538045347889e+001
 2.620437820169345e+000	 1.354919049512082e+000	 1.153215409704456e+001
 2.766120195677642e+000	 1.095081760949999e+000	 1.136531352499774e+001
 2.755099092389776e+000	 1.122521265376493e+000	 1.140210863369321e+001
 2.743782815529437e+000	 1.149904718366556e+000	 1.143729984843209e+001
 2.732171357663757e+000	 1.177227536410608e+000	 1.147078300370467e+001
 2.720264803072348e+000	 1.204485118750283e+000	 1.150244101656044e+001
 2.708063328596237e+000	 1.231672849598870e+000	 1.153214353625885e+001
 2.695567204424388e+000	 1.258786100399115e+000	 1.154772746756496e+001
 2.682776794816125e+000	 1.285820232116408e+000	 1.153732640365551e+001
 2.669692558757854e+000	 1.312770597565300e+000	 1.152663419249939e+001
 2.656315050552498e+000	 1.339632543767224e+000	 1.151568538519531e+001
 2.642644920340206e+000	 1.366401414337198e+000	 1.150451234931671e+001
 2.789364903203508e+000	 1.104284128687585e+000	 1.133890542547821e+001
 2.778251185602976e+000	 1.131954217185233e+000	 1.137544224389730e+001
 2.766839813979641e+000	 1.159567783225906e+000	 1.141085734497935e+001
 2.755130780838170e+000	 1.187120204783136e+000	 1.144505120406493e+001
 2.743124171166410e+000	 1.214606842436723e+000	 1.147791065709756e+001
 2.730820163291444e+000	 1.242023041611831e+000	 1.150930852920003e+001
 2.718219029672730e+000	 1.269364134855766e+000	 1.151137442012124e+001
 2.705321137630596e+000	 1.296625444150433e+000	 1.150183506163230e+001
 2.692126950008475e+000	 1.323802283258405e+000	 1.149238149574347e+001
 2.678637025767297e+000	 1.350889960100455e+000	 1.148304882715727e+001
 2.664852020510573e+000	 1.377883779162314e+000	 1.147386962931913e+001
 2.442781018784593e+000	 1.263060130911157e+000	 1.174637988305213e+001
 2.429874963012998e+000	 1.287714123616817e+000	 1.175222742831183e+001
 2.416699885617484e+000	 1.312273471080953e+000	 1.175788634954949e+001
 2.403256655568766e+000	 1.336733873108761e+000	 1.176351704112589e+001
 2.389546231691873e+000	 1.361091035406278e+000	 1.176928121943464e+001
 2.375569662812049e+000	 1.385340671887672e+000	 1.177534174283495e+001
 2.361328087830619e+000	 1.409478506995772e+000	 1.178186242635968e+001
 2.346822735730042e+000	 1.433500278033387e+000	 1.178900785145378e+001
 2.332054925507497e+000	 1.457401737502926e+000	 1.179694317101666e+001
 2.317026066036402e+000	 1.481178655451782e+000	 1.180583391003880e+001
 2.301737655855408e+000	 1.504826821820936e+000	 1.181584576214050e+001
 2.464988118959423e+000	 1.274542495736273e+000	 1.170223781233318e+001
 2.451964735408257e+000	 1.299420615648048e+000	 1.171189749290286e+001
 2.438669884582033e+000	 1.324203229907143e+000	 1.172114538077449e+001
 2.425104443351200e+000	 1.348885999226073e+000	 1.173013489171563e+001
 2.411269379257375e+000	 1.373464590271840e+000	 1.173902097000485e+001
 2.397165750660581e+000	 1.397934677994196e+000	 1.174795991688952e+001
 2.382794706815789e+000	 1.422291947967267e+000	 1.175710921356316e+001
 2.368157487878027e+000	 1.446532098742073e+000	 1.176662733890112e+001
 2.353255424835356e+000	 1.470650844207407e+000	 1.177667358221161e+001
 2.338089939369133e+000	 1.494643915956549e+000	 1.178740785127689e+001
 2.322662543641093e+000	 1.518507065657215e+000	 1.179899047597765e+001
 2.487195219133758e+000	 1.286024860561388e+000	 1.165736090523189e+001
 2.474054507802924e+000	 1.311127107679275e+000	 1.167058416366357e+001
 2.460639883545905e+000	 1.336132988733313e+000	 1.168317652670110e+001
 2.446952231132880e+000	 1.361038125343341e+000	 1.169528458236866e+001
 2.432992526822060e+000	 1.385838145137323e+000	 1.170705665305666e+001
 2.418761838508240e+000	 1.410528684100595e+000	 1.171864263235906e+001
 2.404261325800040e+000	 1.435105388938585e+000	 1.173019381617329e+001
 2.389492240025056e+000	 1.459563919450517e+000	 1.174186272828429e+001
 2.374455924162234e+000	 1.483899950911571e+000	 1.175380294067427e+001
 2.359153812700870e+000	 1.508109176460914e+000	 1.176616888881746e+001
 2.343587431425777e+000	 1.532187309492996e+000	 1.177911568223773e+001
 2.509402319307596e+000	 1.297507225386504e+000	 1.162644018926234e+001
 2.496144280197001e+000	 1.322833599710497e+000	 1.162827642735010e+001
 2.482609882509102e+000	 1.348062747559464e+000	 1.164397477792653e+001
 2.468800018913809e+000	 1.373190251460564e+000	 1.165896697390125e+001
 2.454715674385927e+000	 1.398211700002727e+000	 1.167339486285341e+001
 2.440357926355025e+000	 1.423122690206872e+000	 1.168740207710672e+001
 2.425727944783372e+000	 1.447918829909724e+000	 1.170113387280764e+001
 2.410826992171133e+000	 1.472595740158718e+000	 1.171473696321266e+001
 2.395656423488133e+000	 1.497149057615417e+000	 1.172835934640973e+001
 2.380217686031612e+000	 1.521574436964876e+000	 1.174215012771842e+001
 2.364512319209461e+000	 1.545867553328280e+000	 1.175625933703161e+001
 2.531609419480937e+000	 1.308989590211620e+000	 1.161333016839973e+001
 2.518234052590487e+000	 1.334540091741714e+000	 1.161268420860824e+001
 2.504579881471621e+000	 1.359992506385595e+000	 1.161051461896580e+001
 2.490647806693985e+000	 1.385342377577743e+000	 1.162118356628481e+001
 2.476438821948976e+000	 1.410585254868052e+000	 1.163804263015857e+001
 2.461954014200937e+000	 1.435716696313025e+000	 1.165425067716245e+001
 2.447194563765786e+000	 1.460732270880685e+000	 1.166994706634988e+001
 2.432161744316254e+000	 1.485627560866675e+000	 1.168527284220208e+001
 2.416856922813052e+000	 1.510398164318946e+000	 1.170037056961726e+001
 2.401281559361360e+000	 1.535039697468435e+000	 1.171538416327078e+001
 2.385437206992146e+000	 1.559547797163067e+000	 1.173045871159466e+001
 2.553816519653783e+000	 1.320471955036735e+000	 1.159738037245251e+001
 2.540323824983382e+000	 1.346246583772926e+000	 1.160007219269629e+001
 2.526549880433464e+000	 1.371922265211707e+000	 1.160108130472156e+001
 2.512495594473410e+000	 1.397494503694878e+000	 1.160046248428244e+001
 2.498161969511209e+000	 1.422958809733299e+000	 1.160100740325738e+001
 2.483550102045977e+000	 1.448310702419053e+000	 1.161920108636796e+001
 2.468661182747281e+000	 1.473545711851468e+000	 1.163665112202524e+001
 2.453496496460421e+000	 1.498659381574390e+000	 1.165349302498328e+001
 2.438057422136993e+000	 1.523647271022157e+000	 1.166986406502950e+001
 2.422345432690112e+000	 1.548504957971592e+000	 1.168590310316216e+001
 2.406362094773829e+000	 1.573228040997356e+000	 1.170175042206395e+001
 2.576023619826133e+000	 1.331954319861851e+000	 1.157855642522486e+001
 2.562413597375686e+000	 1.357953075804133e+000	 1.158437255571659e+001
 2.548519879394630e+000	 1.383852024037799e+000	 1.158835212132980e+001
 2.534343382252084e+000	 1.409646629811968e+000	 1.159054203539194e+001
 2.519885117072623e+000	 1.435332364598465e+000	 1.159098836563902e+001
 2.505146189890143e+000	 1.460904708524959e+000	 1.158973626816391e+001
 2.490127801727857e+000	 1.486359152822073e+000	 1.160126380557537e+001
 2.474831248603634e+000	 1.511691202281862e+000	 1.161942003848402e+001
 2.459257921459952e+000	 1.536896377725050e+000	 1.163686698551037e+001
 2.443409306017870e+000	 1.561970218474346e+000	 1.165373858849437e+001
 2.427286982554514e+000	 1.586908284831148e+000	 1.167017045771528e+001
 2.598230719997987e+000	 1.343436684686967e+000	 1.155682506494514e+001
 2.584503369767397e+000	 1.369659567835335e+000	 1.156555737216873e+001
 2.570489878355120e+000	 1.395781782863870e+000	 1.157230438315546e+001
 2.556191170030006e+000	 1.421798755929015e+000	 1.157710526291855e+001
 2.541608264633220e+000	 1.447705919463553e+000	 1.157999841848812e+001
 2.526742277733436e+000	 1.473498714630741e+000	 1.158102144174848e+001
 2.511594420707514e+000	 1.499172593792499e+000	 1.158021105371612e+001
 2.496166000745893e+000	 1.524723022989092e+000	 1.158307628250432e+001
 2.480458420781933e+000	 1.550145484427626e+000	 1.160140619495528e+001
 2.464473179344632e+000	 1.575435478976699e+000	 1.161892181372289e+001
 2.448211870334198e+000	 1.600588528664443e+000	 1.163575420775204e+001
 2.620437820169345e+000	 1.354919049512082e+000	 1.153215409704456e+001
 2.606593142158518e+000	 1.381366059866532e+000	 1.154359960341157e+001
 2.592459877314933e+000	 1.407711541689923e+000	 1.155291611441719e+001
 2.578038957807175e+000	 1.433950882046016e+000	 1.156013515806090e+001
 2.563331412193000e+000	 1.460079474328562e+000	 1.156528758935892e+001
 2.548338365575855e+000	 1.486092720736399e+000	 1.156840354195497e+001
 2.533061039686254e+000	 1.511986034762747e+000	 1.156951238114665e+001
 2.517500752887197e+000	 1.537754843696078e+000	 1.156864265843083e+001
 2.501658920102933e+000	 1.563394591129885e+000	 1.156582206766844e+001
 2.485537052670400e+000	 1.588900739478649e+000	 1.158148354558259e+001
 2.469136758112883e+000	 1.614268772497240e+000	 1.159853648673214e+001
 2.642644920340206e+000	 1.366401414337198e+000	 1.150451234931671e+001
 2.628682914549048e+000	 1.393072551897724e+000	 1.151847306040018e+001
 2.614429876274070e+000	 1.419641300515956e+000	 1.153016601936159e+001
 2.599886745583591e+000	 1.446103008162973e+000	 1.153961522576861e+001
 2.585054559751962e+000	 1.472453029193492e+000	 1.154684408863546e+001
 2.569934453417402e+000	 1.498686726841934e+000	 1.155187538669461e+001
 2.554527658664074e+000	 1.524799475732817e+000	 1.155473123006101e+001
 2.538835505027548e+000	 1.550786664402821e+000	 1.155543302337739e+001
 2.522859419422954e+000	 1.576643697831826e+000	 1.155400143052594e+001
 2.506600925995173e+000	 1.602365999980196e+000	 1.155045634098882e+001
 2.490061645890567e+000	 1.627949016329540e+000	 1.155855155871261e+001
 2.664852020510573e+000	 1.377883779162314e+000	 1.147386962931913e+001
 2.650772686938987e+000	 1.404779043928912e+000	 1.149015236828604e+001
 2.636399875232532e+000	 1.431571059341969e+000	 1.150403345392867e+001
 2.621734533359257e+000	 1.458255134279886e+000	 1.151552946333595e+001
 2.606777707310106e+000	 1.484826584058344e+000	 1.152465646294016e+001
 2.591530541258077e+000	 1.511280732947345e+000	 1.153142997733976e+001
 2.575994277640976e+000	 1.537612916702709e+000	 1.153586495949367e+001
 2.560170257166945e+000	 1.563818485109322e+000	 1.153797576236099e+001
 2.544059918741996e+000	 1.589892804533449e+000	 1.153777611205723e+001
 2.527664799318952e+000	 1.615831260481341e+000	 1.153527908259398e+001
 2.510986533667252e+000	 1.641629260161343e+000	 1.153049707226598e+001
 2.301737655855408e+000	 1.504826821820936e+000	 1.181584576214050e+001
 2.286191282884384e+000	 1.528342048794389e+000	 1.180246009918337e+001
 2.270388624067453e+000	 1.551720173146156e+000	 1.178730084759729e+001
 2.254331444942703e+000	 1.574957058582615e+000	 1.177033953303409e+001
 2.238021599138304e+000	 1.598048598078017e+000	 1.175154920510350e+001
 2.221461027795396e+000	 1.620990716199807e+000	 1.173090443897904e+001
 2.204651758917846e+000	 1.643779371421331e+000	 1.170838133334979e+001
 2.187595906649108e+000	 1.666410558419238e+000	 1.168395750474284e+001
 2.170295670476612e+000	 1.688880310352929e+000	 1.165761207825326e+001
 2.152753334364159e+000	 1.711184701123381e+000	 1.162932567473005e+001
 2.134971265812936e+000	 1.733319847608720e+000	 1.159908039447812e+001
 2.322662543641093e+000	 1.518507065657215e+000	 1.179899047597765e+001
 2.306974840006722e+000	 1.542236067422203e+000	 1.178226106299502e+001
 2.291028520655075e+000	 1.565826720177869e+000	 1.176418968222143e+001
 2.274825367174591e+000	 1.589274850027924e+000	 1.174477963968783e+001
 2.258367250044602e+000	 1.612576312610017e+000	 1.172403556106637e+001
 2.241656128052987e+000	 1.635726995442208e+000	 1.170196335767718e+001
 2.224694047640010e+000	 1.658722820256690e+000	 1.167857018885798e+001
 2.207483142168611e+000	 1.681559745318081e+000	 1.165386442078211e+001
 2.190025631121564e+000	 1.704233767723595e+000	 1.162785558182364e+001
 2.172323819225972e+000	 1.726740925682400e+000	 1.160055431457952e+001
 2.154380095505764e+000	 1.749077300771513e+000	 1.157197232467133e+001
 2.343587431425777e+000	 1.532187309492996e+000	 1.177911568223773e+001
 2.327758397128064e+000	 1.556130086049429e+000	 1.175984546582921e+001
 2.311668417241718e+000	 1.579933267208925e+000	 1.173965879740061e+001
 2.295319289405525e+000	 1.603592641472524e+000	 1.171859039455822e+001
 2.278712900949980e+000	 1.627104027141278e+000	 1.169667609358565e+001
 2.261851228309702e+000	 1.650463274683859e+000	 1.167395278017319e+001
 2.244736336361353e+000	 1.673666269091308e+000	 1.165045831652358e+001
 2.227370377687360e+000	 1.696708932216214e+000	 1.162623146497994e+001
 2.209755591765835e+000	 1.719587225093602e+000	 1.160131180833567e+001
 2.191894304087189e+000	 1.742297150240828e+000	 1.157573966699762e+001
 2.173788925198088e+000	 1.764834753933805e+000	 1.154955601318645e+001
 2.364512319209461e+000	 1.545867553328280e+000	 1.175625933703161e+001
 2.348541954248410e+000	 1.570024104676068e+000	 1.173522929912578e+001
 2.332308313827380e+000	 1.594039814239324e+000	 1.171370236973016e+001
 2.315813211635502e+000	 1.617910432916416e+000	 1.169174432030381e+001
 2.299058551854437e+000	 1.641631741671801e+000	 1.166942184332629e+001
 2.282046328565542e+000	 1.665199553924761e+000	 1.164680244806170e+001
 2.264778625081876e+000	 1.688609717925187e+000	 1.162395435270843e+001
 2.247257613205352e+000	 1.711858119113637e+000	 1.160094637314122e+001
 2.229485552409424e+000	 1.734940682462946e+000	 1.157784780846522e+001
 2.211464788947809e+000	 1.757853374798665e+000	 1.155472832361473e+001
 2.193197754889913e+000	 1.780592207095596e+000	 1.153165782924104e+001
 2.385437206992146e+000	 1.559547797163067e+000	 1.173045871159466e+001
 2.369325511367762e+000	 1.583918123302120e+000	 1.170842863470126e+001
 2.352948210412062e+000	 1.608146361269064e+000	 1.168631541564514e+001
 2.336307133864524e+000	 1.632228224359600e+000	 1.166421553271781e+001
 2.319404202757974e+000	 1.656159456201584e+000	 1.164222619083874e+001
 2.302241428820505e+000	 1.679935833164913e+000	 1.162044518265573e+001
 2.284820913801577e+000	 1.703553166758326e+000	 1.159897074603703e+001
 2.267144848722588e+000	 1.727007306010348e+000	 1.157790141822158e+001
 2.249215513052331e+000	 1.750294139831630e+000	 1.155733588690695e+001
 2.231035273807834e+000	 1.773409599355911e+000	 1.153737283856810e+001
 2.212606584581236e+000	 1.796349660256885e+000	 1.151811080431216e+001
 2.406362094773829e+000	 1.573228040997356e+000	 1.170175042206395e+001
 2.390109068486118e+000	 1.597812141927584e+000	 1.167945962125438e+001
 2.373588106995764e+000	 1.622252908298146e+000	 1.165749375490558e+001
 2.356801056092591e+000	 1.646546015802076e+000	 1.163597967146152e+001
 2.339749853660591e+000	 1.670687170730629e+000	 1.161504475482489e+001
 2.322436529074593e+000	 1.694672112404316e+000	 1.159481675108599e+001
 2.304863202520457e+000	 1.718496615590724e+000	 1.157542359164606e+001
 2.287032084239069e+000	 1.742156492906350e+000	 1.155699321306008e+001
 2.268945473694558e+000	 1.765647597199653e+000	 1.153965337393874e+001
 2.250605758667262e+000	 1.788965823912565e+000	 1.152353146926247e+001
 2.232015414272057e+000	 1.812107113417673e+000	 1.150875434247271e+001
 2.427286982554514e+000	 1.586908284831148e+000	 1.167017045771528e+001
 2.410892625603480e+000	 1.611706160552461e+000	 1.164833848105209e+001
 2.394228003578486e+000	 1.636359455326572e+000	 1.162723397597034e+001
 2.377294978319703e+000	 1.660863807243843e+000	 1.160701383438022e+001
 2.360095504562286e+000	 1.685214885258934e+000	 1.158783529566586e+001
 2.342631629327805e+000	 1.709408391642969e+000	 1.156985573932588e+001
 2.324905491238517e+000	 1.733440064422383e+000	 1.155323247400700e+001
 2.306919319754793e+000	 1.757305679801640e+000	 1.153812252331505e+001
 2.288675434336103e+000	 1.781001054567014e+000	 1.152468240880167e+001
 2.270176243526093e+000	 1.804522048468628e+000	 1.151306793053957e+001
 2.251424243962378e+000	 1.827864566577960e+000	 1.150343394571087e+001
 2.448211870334198e+000	 1.600588528664443e+000	 1.163575420775204e+001
 2.431676182719846e+000	 1.625600179176749e+000	 1.161508150678572e+001
 2.414867900160228e+000	 1.650466002354339e+000	 1.159553340314682e+001
 2.397788900545859e+000	 1.675181598684902e+000	 1.157729651518769e+001
 2.380441155463061e+000	 1.699742599786501e+000	 1.156055762389748e+001
 2.362826729580141e+000	 1.724144670880873e+000	 1.154550343172826e+001
 2.344947779955755e+000	 1.748383513253301e+000	 1.153232031780945e+001
 2.326806555269760e+000	 1.772454866696219e+000	 1.152119408999343e+001
 2.308405394976968e+000	 1.796354511933715e+000	 1.151230973418886e+001
 2.289746728384328e+000	 1.820078273024101e+000	 1.150585116145425e+001
 2.270833073652197e+000	 1.843622019737746e+000	 1.150200095333525e+001
 2.469136758112883e+000	 1.614268772497240e+000	 1.159853648673214e+001
 2.452459739835218e+000	 1.639494197800451e+000	 1.157970505858682e+001
 2.435507796740989e+000	 1.664572549381448e+000	 1.156239006541079e+001
 2.418282822771059e+000	 1.689499390125252e+000	 1.154680754431921e+001
 2.400786806362916e+000	 1.714270314313329e+000	 1.153317351333920e+001
 2.383021829831602e+000	 1.738880950118028e+000	 1.152170369668722e+001
 2.364990068672173e+000	 1.763326962083479e+000	 1.151261324642628e+001
 2.346693790783972e+000	 1.787604053590089e+000	 1.150611646100353e+001
 2.328135355617151e+000	 1.811707969299755e+000	 1.150242650118383e+001
 2.309317213241967e+000	 1.835634497578981e+000	 1.150175510390962e+001
 2.290241903341514e+000	 1.859379472897029e+000	 1.150431229463078e+001
 2.490061645890567e+000	 1.627949016329540e+000	 1.155855155871261e+001
 2.473243296949594e+000	 1.653388216423565e+000	 1.154222556119349e+001
 2.456147693320771e+000	 1.678679096407900e+000	 1.152780266679869e+001
 2.438776744995305e+000	 1.703817181564894e+000	 1.151552803276678e+001
 2.421132457261850e+000	 1.728798028839418e+000	 1.150564661860307e+001
 2.403216930082187e+000	 1.753617229354432e+000	 1.149840287806495e+001
 2.385032357387770e+000	 1.778270410912917e+000	 1.149404044751529e+001
 2.366581026297428e+000	 1.802753240483248e+000	 1.149280183120150e+001
 2.347865316256653e+000	 1.827061426665134e+000	 1.149492808403408e+001
 2.328887698099010e+000	 1.851190722133271e+000	 1.150065849245328e+001
 2.309650733030330e+000	 1.875136926055812e+000	 1.150982730199840e+001
 2.510986533667252e+000	 1.641629260161343e+000	 1.153049707226598e+001
 2.494026854062975e+000	 1.667282235046092e+000	 1.150265950125864e+001
 2.476787589899573e+000	 1.692785643433693e+000	 1.149177055827990e+001
 2.459270667218596e+000	 1.718134973003829e+000	 1.148344031872263e+001
 2.441478108159864e+000	 1.743325743364769e+000	 1.147794239672761e+001
 2.423412030331897e+000	 1.768353508590088e+000	 1.147554969204728e+001
 2.405074646102547e+000	 1.793213859741616e+000	 1.147653404534061e+001
 2.386468261810128e+000	 1.817902427375696e+000	 1.148116589043486e+001
 2.367595276895474e+000	 1.842414884029853e+000	 1.148971390418591e+001
 2.348458182955457e+000	 1.866746946686970e+000	 1.150244465458379e+001
 2.329059562718645e+000	 1.890894379214094e+000	 1.147314652394779e+001
 2.134971265812936e+000	 1.733319847608720e+000	 1.159908039447812e+001
 2.116951914852261e+000	 1.755281911873847e+000	 1.157268895981943e+001
 2.098697812959695e+000	 1.777067103351779e+000	 1.155095074499007e+001
 2.080211571912335e+000	 1.798671680993865e+000	 1.153409963471740e+001
 2.061495882571018e+000	 1.820091955386313e+000	 1.152236508586143e+001
 2.042553513597452e+000	 1.841324290830752e+000	 1.151597181901876e+001
 2.023387310105892e+000	 1.862365107386282e+000	 1.151513951454373e+001
 2.004000192250766e+000	 1.883210882870656e+000	 1.149159139590038e+001
 1.984395153751669e+000	 1.903858154818207e+000	 1.142943735996015e+001
 1.964575260357303e+000	 1.924303522392292e+000	 1.137199957273370e+001
 1.944543648250000e+000	 1.944543648250000e+000	 1.131934600769344e+001
 2.154380095505764e+000	 1.749077300771513e+000	 1.157197232467133e+001
 2.136196932263273e+000	 1.771239020165651e+000	 1.155381716085416e+001
 2.117776883989519e+000	 1.793222258838262e+000	 1.154018109239623e+001
 2.099122586205026e+000	 1.815023241731164e+000	 1.153127748221228e+001
 2.080236754233004e+000	 1.836638245890441e+000	 1.152731542112559e+001
 2.061122181904811e+000	 1.858063602565916e+000	 1.152849943969106e+001
 2.041781740199379e+000	 1.879295699271775e+000	 1.152051514817544e+001
 2.022218375817995e+000	 1.900330981805929e+000	 1.146035566939278e+001
 2.002435109695884e+000	 1.921165956225754e+000	 1.140457430890938e+001
 1.982435035452191e+000	 1.941797190777908e+000	 1.135322205060220e+001
 1.962221317780000e+000	 1.962221317780000e+000	 1.130634293678425e+001
 2.173788925198088e+000	 1.764834753933805e+000	 1.154955601318645e+001
 2.155441949673878e+000	 1.787196128457048e+000	 1.153899363149911e+001
 2.136855955019021e+000	 1.809377414324423e+000	 1.153282127708447e+001
 2.118033600497470e+000	 1.831374802468217e+000	 1.153123214167821e+001
 2.098977625894809e+000	 1.853184536394387e+000	 1.153441529854309e+001
 2.079690850212045e+000	 1.874802914300954e+000	 1.154255543416360e+001
 2.060176170292787e+000	 1.896226291157187e+000	 1.148501595770675e+001
 2.040436559385177e+000	 1.917451080741158e+000	 1.143091719895051e+001
 2.020475065640079e+000	 1.938473757633281e+000	 1.138094242041970e+001
 2.000294810547075e+000	 1.959290859163519e+000	 1.133511871481914e+001
 1.979898987310000e+000	 1.979898987310000e+000	 1.129346640489129e+001
 2.193197754889913e+000	 1.780592207095596e+000	 1.153165782924104e+001
 2.174686967084077e+000	 1.803153236748038e+000	 1.152806111758983e+001
 2.155935026048201e+000	 1.825532569810263e+000	 1.152873028965319e+001
 2.136944614789670e+000	 1.847726363205024e+000	 1.153383870895169e+001
 2.117718497556434e+000	 1.869730826898153e+000	 1.154355577207394e+001
 2.098259518519154e+000	 1.891542226035867e+000	 1.150419518914678e+001
 2.078570600386115e+000	 1.913156883042519e+000	 1.145172992461320e+001
 2.058654742952316e+000	 1.934571179676341e+000	 1.140313317136353e+001
 2.038515021584253e+000	 1.955781559040788e+000	 1.135841502763733e+001
 2.018154585641954e+000	 1.976784527549125e+000	 1.131757890580582e+001
 1.997576656840000e+000	 1.997576656840000e+000	 1.128062161233772e+001
 2.212606584581236e+000	 1.796349660256885e+000	 1.151811080431216e+001
 2.193931984493869e+000	 1.819110345038622e+000	 1.152086844237974e+001
 2.175014097077061e+000	 1.841687725295783e+000	 1.152777261750176e+001
 2.155855629081623e+000	 1.864077923941585e+000	 1.153897720056291e+001
 2.136459369217877e+000	 1.886277117401738e+000	 1.151874969090540e+001
 2.116828186826137e+000	 1.908281537770655e+000	 1.146779431142470e+001
 2.096965030479361e+000	 1.930087474927769e+000	 1.142050118085373e+001
 2.076872926519409e+000	 1.951691278611478e+000	 1.137686344040081e+001
 2.056554977528407e+000	 1.973089360448274e+000	 1.133686758131646e+001
 2.036014360736828e+000	 1.994278195934725e+000	 1.130049353838359e+001
 2.015254326370000e+000	 2.015254326370001e+000	 1.126771479706560e+001
 2.232015414272057e+000	 1.812107113417673e+000	 1.150875434247271e+001
 2.213177001903255e+000	 1.835067453328800e+000	 1.151727024230464e+001
 2.194093168105600e+000	 1.857842880780981e+000	 1.152981800583912e+001
 2.174766643373330e+000	 1.880429484677900e+000	 1.152961484337391e+001
 2.155200240879140e+000	 1.902823407905143e+000	 1.147997212889502e+001
 2.135396855132995e+000	 1.925020849505317e+000	 1.143383406033532e+001
 2.115359460572527e+000	 1.947018066812941e+000	 1.139117694053539e+001
 2.095091110086457e+000	 1.968811377546571e+000	 1.135197041085464e+001
 2.074594933472542e+000	 1.990397161855741e+000	 1.131617755774927e+001
 2.053874135831696e+000	 2.011771864320322e+000	 1.128375503332171e+001
 2.032931995899999e+000	 2.032931995899999e+000	 1.125465318952196e+001
 2.251424243962378e+000	 1.827864566577960e+000	 1.150343394571087e+001
 2.232422019312235e+000	 1.851024561618572e+000	 1.151712671641452e+001
 2.213172239133817e+000	 1.873998036265858e+000	 1.153474123105405e+001
 2.193677657664791e+000	 1.896781045413969e+000	 1.148920474028294e+001
 2.173941112540222e+000	 1.919369698408366e+000	 1.144399991627899e+001
 2.153965523439727e+000	 1.941760161239853e+000	 1.140214981068254e+001
 2.133753890665613e+000	 1.963948658698031e+000	 1.136360736706197e+001
 2.113309293653459e+000	 1.985931476481618e+000	 1.132831892858279e+001
 2.092634889416655e+000	 2.007704963263187e+000	 1.129622437145832e+001
 2.071733910926561e+000	 2.029265532705913e+000	 1.126725725242575e+001
 2.050609665430000e+000	 2.050609665430000e+000	 1.124134496987859e+001
 2.270833073652197e+000	 1.843622019737746e+000	 1.150200095333525e+001
 2.251667036720809e+000	 1.866981669907937e+000	 1.152030338865490e+001
 2.232251310161713e+000	 1.890153191750413e+000	 1.149651260160567e+001
 2.212588671956006e+000	 1.913132606149793e+000	 1.145194696064158e+001
 2.192681984201123e+000	 1.935915988911409e+000	 1.141065735162816e+001
 2.172534191746333e+000	 1.958499472974264e+000	 1.137258025196906e+001
 2.152148320758618e+000	 1.980879250583041e+000	 1.133764544709589e+001
 2.131527477220416e+000	 2.003051575416621e+000	 1.130577617618944e+001
 2.110674845360750e+000	 2.025012764670614e+000	 1.127688929236617e+001
 2.089593686021419e+000	 2.046759201091499e+000	 1.125089543695484e+001
 2.068287334960000e+000	 2.068287334960000e+000	 1.122769922744534e+001
 2.290241903341514e+000	 1.859379472897029e+000	 1.150431229463078e+001
 2.270912054128976e+000	 1.882938778196897e+000	 1.150299461000435e+001
 2.251330381189289e+000	 1.906308347234647e+000	 1.145870297049318e+001
 2.231499686246975e+000	 1.929484166885370e+000	 1.141765545450874e+001
 2.211422855861843e+000	 1.952462279414270e+000	 1.137977238286476e+001
 2.191102860052813e+000	 1.975238784708549e+000	 1.134496724794321e+001
 2.170542750851543e+000	 1.997809842467971e+000	 1.131314687092847e+001
 2.149745660787328e+000	 2.020171674351577e+000	 1.128421157401044e+001
 2.128714801304823e+000	 2.042320566078020e+000	 1.125805536717670e+001
 2.107453461116273e+000	 2.064252869477080e+000	 1.123456614917033e+001
 2.085965004490000e+000	 2.085965004490000e+000	 1.121362592214732e+001
 2.309650733030330e+000	 1.875136926055812e+000	 1.150982730199840e+001
 2.290157071536736e+000	 1.898895886485449e+000	 1.146537459694638e+001
 2.270409452216542e+000	 1.922463502718561e+000	 1.142418002202676e+001
 2.250410700537698e+000	 1.945835727620701e+000	 1.138614812718163e+001
 2.230163727522383e+000	 1.969008569916952e+000	 1.135117645392826e+001
 2.209671528359169e+000	 1.991978096442708e+000	 1.131915570322713e+001
 2.188937180944388e+000	 2.014740434352820e+000	 1.128996991888213e+001
 2.167963844354194e+000	 2.037291773286489e+000	 1.126349668609121e+001
 2.146754757248877e+000	 2.059628367485406e+000	 1.123960734472051e+001
 2.125313236211122e+000	 2.081746537862656e+000	 1.121816721683133e+001
 2.103642674020000e+000	 2.103642674020000e+000	 1.119903584794464e+001
 2.329059562718645e+000	 1.890894379214094e+000	 1.147314652394779e+001
 2.309402088944092e+000	 1.914852994773596e+000	 1.143134623883979e+001
 2.289488523243476e+000	 1.938618658202153e+000	 1.139275228616090e+001
 2.269321714828176e+000	 1.962187288355787e+000	 1.135724667439411e+001
 2.248904599182742e+000	 1.985554860419452e+000	 1.132470435910802e+001
 2.228240196665399e+000	 2.008717408176743e+000	 1.129499343661378e+001
 2.207331611037153e+000	 2.031671026237589e+000	 1.126797535339239e+001
 2.186182027921017e+000	 2.054411872221357e+000	 1.124350513086514e+001
 2.164794713192912e+000	 2.076936168892773e+000	 1.122143160503289e+001
 2.143173011305966e+000	 2.099240206248227e+000	 1.120159768046587e+001
 2.121320343550000e+000	 2.121320343550000e+000	 1.118384059808064e+001
 1.944543648250000e+000	 1.944543648250000e+000	 1.131934600769344e+001
 1.924303522392292e+000	 1.964575260357303e+000	 1.125924950707794e+001
 1.903858154818207e+000	 1.984395153751669e+000	 1.119654382584439e+001
 1.883210882870656e+000	 2.004000192250766e+000	 1.113122180483960e+001
 1.862365107386283e+000	 2.023387310105892e+000	 1.108624179788490e+001
 1.841324290830751e+000	 2.042553513597451e+000	 1.105546960051846e+001
 1.820091955386314e+000	 2.061495882571018e+000	 1.102452677069611e+001
 1.798671680993865e+000	 2.080211571912334e+000	 1.099360439411260e+001
 1.777067103351779e+000	 2.098697812959695e+000	 1.096289610053030e+001
 1.755281911873847e+000	 2.116951914852261e+000	 1.093259775551743e+001
 1.733319847608720e+000	 2.134971265812937e+000	 1.090290714589557e+001
 1.962221317780000e+000	 1.962221317780000e+000	 1.130634293678425e+001
 1.941797190777907e+000	 1.982435035452191e+000	 1.125016900463671e+001
 1.921165956225753e+000	 2.002435109695884e+000	 1.119147274045115e+001
 1.900330981805929e+000	 2.022218375817995e+000	 1.113023195140868e+001
 1.879295699271775e+000	 2.041781740199379e+000	 1.106642455327550e+001
 1.858063602565916e+000	 2.061122181904811e+000	 1.103115613190911e+001
 1.836638245890441e+000	 2.080236754233004e+000	 1.100341712944943e+001
 1.815023241731165e+000	 2.099122586205026e+000	 1.097569485490946e+001
 1.793222258838262e+000	 2.117776883989519e+000	 1.094817502166124e+001
 1.771239020165651e+000	 2.136196932263273e+000	 1.092104570862810e+001
 1.749077300771513e+000	 2.154380095505764e+000	 1.089449705060717e+001
 1.979898987310000e+000	 1.979898987310000e+000	 1.129346640489129e+001
 1.959290859163519e+000	 2.000294810547075e+000	 1.124092434896627e+001
 1.938473757633281e+000	 2.020475065640078e+000	 1.118594862370553e+001
 1.917451080741157e+000	 2.040436559385178e+000	 1.112850207695592e+001
 1.896226291157187e+000	 2.060176170292787e+000	 1.106854755308677e+001
 1.874802914300954e+000	 2.079690850212046e+000	 1.100640456744847e+001
 1.853184536394388e+000	 2.098977625894809e+000	 1.098150924040734e+001
 1.831374802468217e+000	 2.118033600497470e+000	 1.095662572463329e+001
 1.809377414324423e+000	 2.136855955019021e+000	 1.093193205453906e+001
 1.787196128457048e+000	 2.155441949673878e+000	 1.090760876197801e+001
 1.764834753933805e+000	 2.173788925198089e+000	 1.088383857115930e+001
 1.997576656840000e+000	 1.997576656840000e+000	 1.128062161233772e+001
 1.976784527549125e+000	 2.018154585641954e+000	 1.123142987596726e+001
 1.955781559040787e+000	 2.038515021584253e+000	 1.117989499348674e+001
 1.934571179676340e+000	 2.058654742952317e+000	 1.112596492271742e+001
 1.913156883042519e+000	 2.078570600386115e+000	 1.106958750301844e+001
 1.891542226035867e+000	 2.098259518519154e+000	 1.101071062132358e+001
 1.869730826898153e+000	 2.117718497556434e+000	 1.095890809213531e+001
 1.847726363205024e+000	 2.136944614789669e+000	 1.093650980503494e+001
 1.825532569810264e+000	 2.155935026048202e+000	 1.091428776089645e+001
 1.803153236748038e+000	 2.174686967084077e+000	 1.089241518098773e+001
 1.780592207095596e+000	 2.193197754889913e+000	 1.087106761733502e+001
 2.015254326370000e+000	 2.015254326370001e+000	 1.126771479706560e+001
 1.994278195934726e+000	 2.036014360736828e+000	 1.122160065954642e+001
 1.973089360448274e+000	 2.056554977528407e+000	 1.117323580563577e+001
 1.951691278611479e+000	 2.076872926519410e+000	 1.112255336756052e+001
 1.930087474927769e+000	 2.096965030479361e+000	 1.106948624114017e+001
 1.908281537770655e+000	 2.116828186826137e+000	 1.101396727047768e+001
 1.886277117401738e+000	 2.136459369217877e+000	 1.095592943627388e+001
 1.864077923941585e+000	 2.155855629081622e+000	 1.091545883420937e+001
 1.841687725295782e+000	 2.175014097077062e+000	 1.089536133922030e+001
 1.819110345038622e+000	 2.193931984493869e+000	 1.087559156882237e+001
 1.796349660256885e+000	 2.212606584581236e+000	 1.085631813837593e+001
 2.032931995899999e+000	 2.032931995899999e+000	 1.125465318952196e+001
 2.011771864320322e+000	 2.053874135831696e+000	 1.121135247952915e+001
 1.990397161855741e+000	 2.074594933472541e+000	 1.116589543491357e+001
 1.968811377546571e+000	 2.095091110086456e+000	 1.111820042200006e+001
 1.947018066812941e+000	 2.115359460572527e+000	 1.106818544976118e+001
 1.925020849505317e+000	 2.135396855132995e+000	 1.101576837317688e+001
 1.902823407905143e+000	 2.155200240879140e+000	 1.096086710042970e+001
 1.880429484677901e+000	 2.174766643373330e+000	 1.090339980337761e+001
 1.857842880780981e+000	 2.194093168105600e+000	 1.087527068402301e+001
 1.835067453328800e+000	 2.213177001903255e+000	 1.085726293866362e+001
 1.812107113417673e+000	 2.232015414272058e+000	 1.083972220822302e+001
 2.050609665430000e+000	 2.050609665430000e+000	 1.124134496987859e+001
 2.029265532705913e+000	 2.071733910926561e+000	 1.120060179123205e+001
 2.007704963263187e+000	 2.092634889416655e+000	 1.115779865694430e+001
 1.985931476481618e+000	 2.113309293653459e+000	 1.111283922252376e+001
 1.963948658698031e+000	 2.133753890665613e+000	 1.106562666214402e+001
 1.941760161239853e+000	 2.153965523439727e+000	 1.101606389069102e+001
 1.919369698408366e+000	 2.173941112540221e+000	 1.096405378986391e+001
 1.896781045413970e+000	 2.193677657664791e+000	 1.090949943773411e+001
 1.873998036265857e+000	 2.213172239133817e+000	 1.085413244204856e+001
 1.851024561618572e+000	 2.232422019312235e+000	 1.083755278224344e+001
 1.827864566577960e+000	 2.251424243962378e+000	 1.082141010634863e+001
 2.068287334960000e+000	 2.068287334960000e+000	 1.122769922744534e+001
 2.046759201091498e+000	 2.089593686021419e+000	 1.118926569659586e+001
 2.025012764670613e+000	 2.110674845360750e+000	 1.114887063108425e+001
 2.003051575416620e+000	 2.131527477220416e+000	 1.110640302620878e+001
 1.980879250583041e+000	 2.152148320758619e+000	 1.106175126887409e+001
 1.958499472974264e+000	 2.172534191746333e+000	 1.101480337834945e+001
 1.935915988911409e+000	 2.192681984201123e+000	 1.096544725130460e+001
 1.913132606149792e+000	 2.212588671956005e+000	 1.091357091049015e+001
 1.890153191750413e+000	 2.232251310161714e+000	 1.085906275641549e+001
 1.866981669907937e+000	 2.251667036720808e+000	 1.081658313486332e+001
 1.843622019737746e+000	 2.270833073652197e+000	 1.080151039444312e+001
 2.085965004490000e+000	 2.085965004490000e+000	 1.121362592214732e+001
 2.064252869477080e+000	 2.107453461116273e+000	 1.117726191678596e+001
 2.042320566078020e+000	 2.128714801304823e+000	 1.113903688416208e+001
 2.020171674351578e+000	 2.149745660787329e+000	 1.109882520561211e+001
 1.997809842467971e+000	 2.170542750851543e+000	 1.105650052390536e+001
 1.975238784708549e+000	 2.191102860052813e+000	 1.101193600274171e+001
 1.952462279414270e+000	 2.211422855861843e+000	 1.096500459075630e+001
 1.929484166885370e+000	 2.231499686246975e+000	 1.091557928936067e+001
 1.906308347234647e+000	 2.251330381189289e+000	 1.086353342373526e+001
 1.882938778196897e+000	 2.270912054128976e+000	 1.080874091627549e+001
 1.859379472897029e+000	 2.290241903341515e+000	 1.078014998920225e+001
 2.103642674020000e+000	 2.103642674020000e+000	 1.119903584794464e+001
 2.081746537862656e+000	 2.125313236211122e+000	 1.116450876617471e+001
 2.059628367485406e+000	 2.146754757248877e+000	 1.112822329503885e+001
 2.037291773286489e+000	 2.167963844354194e+000	 1.109003924391831e+001
 2.014740434352820e+000	 2.188937180944388e+000	 1.104981555030099e+001
 1.991978096442708e+000	 2.209671528359169e+000	 1.100741055805119e+001
 1.969008569916952e+000	 2.230163727522383e+000	 1.096268230042112e+001
 1.945835727620701e+000	 2.250410700537698e+000	 1.091548878709739e+001
 1.922463502718561e+000	 2.270409452216543e+000	 1.086568829455725e+001
 1.898895886485449e+000	 2.290157071536736e+000	 1.081313965899931e+001
 1.875136926055812e+000	 2.309650733030330e+000	 1.075770257110083e+001
 2.121320343550000e+000	 2.121320343550000e+000	 1.118384059808064e+001
 2.099240206248228e+000	 2.143173011305966e+000	 1.115092512762434e+001
 2.076936168892773e+000	 2.164794713192911e+000	 1.111635607993995e+001
 2.054411872221356e+000	 2.186182027921017e+000	 1.107997873033015e+001
 2.031671026237590e+000	 2.207331611037154e+000	 1.104163734568741e+001
 2.008717408176743e+000	 2.228240196665399e+000	 1.100117548157200e+001
 1.985554860419452e+000	 2.248904599182742e+000	 1.095843628427397e+001
 1.962187288355787e+000	 2.269321714828175e+000	 1.091326279711234e+001
 1.938618658202153e+000	 2.289488523243476e+000	 1.086549827020997e+001
 1.914852994773596e+000	 2.309402088944092e+000	 1.081498647296785e+001
 1.890894379214094e+000	 2.329059562718646e+000	 1.076157200845273e+001
 1.733319847608720e+000	 2.134971265812937e+000	 1.090290714589557e+001
 1.711184701123380e+000	 2.152753334364159e+000	 1.082212380353661e+001
 1.688880310352929e+000	 2.170295670476612e+000	 1.074239622893571e+001
 1.666410558419238e+000	 2.187595906649107e+000	 1.066373111780142e+001
 1.643779371421331e+000	 2.204651758917846e+000	 1.058613692101551e+001
 1.620990716199807e+000	 2.221461027795396e+000	 1.050962371522645e+001
 1.598048598078017e+000	 2.238021599138304e+000	 1.043420306883589e+001
 1.574957058582615e+000	 2.254331444942703e+000	 1.035988790384949e+001
 1.551720173146155e+000	 2.270388624067453e+000	 1.028669235407452e+001
 1.528342048794388e+000	 2.286191282884385e+000	 1.021463162015376e+001
 1.504826821820936e+000	 2.301737655855408e+000	 1.014372182193216e+001
 1.749077300771513e+000	 2.154380095505764e+000	 1.089449705060717e+001
 1.726740925682399e+000	 2.172323819225972e+000	 1.081176574286270e+001
 1.704233767723596e+000	 2.190025631121564e+000	 1.073054721371459e+001
 1.681559745318081e+000	 2.207483142168611e+000	 1.065087424942257e+001
 1.658722820256690e+000	 2.224694047640010e+000	 1.057278092163536e+001
 1.635726995442208e+000	 2.241656128052987e+000	 1.049630242953590e+001
 1.612576312610017e+000	 2.258367250044602e+000	 1.042147493809902e+001
 1.589274850027924e+000	 2.274825367174592e+000	 1.034833541298098e+001
 1.565826720177869e+000	 2.291028520655076e+000	 1.027692145257011e+001
 1.542236067422203e+000	 2.306974840006722e+000	 1.020727111773281e+001
 1.518507065657215e+000	 2.322662543641092e+000	 1.013942275979320e+001
 1.764834753933805e+000	 2.173788925198089e+000	 1.088383857115930e+001
 1.742297150240828e+000	 2.191894304087189e+000	 1.079978941623075e+001
 1.719587225093601e+000	 2.209755591765834e+000	 1.071770081475826e+001
 1.696708932216214e+000	 2.227370377687360e+000	 1.063763143404196e+001
 1.673666269091309e+000	 2.244736336361353e+000	 1.055964076525230e+001
 1.650463274683859e+000	 2.261851228309702e+000	 1.048378893719933e+001
 1.627104027141278e+000	 2.278712900949980e+000	 1.041013652692199e+001
 1.603592641472524e+000	 2.295319289405525e+000	 1.033874436766515e+001
 1.579933267208925e+000	 2.311668417241718e+000	 1.026967335482009e+001
 1.556130086049429e+000	 2.327758397128064e+000	 1.020298425040748e+001
 1.532187309492996e+000	 2.343587431425777e+000	 1.013873748668364e+001
 1.780592207095596e+000	 2.193197754889913e+000	 1.087106761733502e+001
 1.757853374798665e+000	 2.211464788947809e+000	 1.078631193055811e+001
 1.734940682462946e+000	 2.229485552409423e+000	 1.070395551650138e+001
 1.711858119113637e+000	 2.247257613205353e+000	 1.062408272322711e+001
 1.688609717925187e+000	 2.264778625081876e+000	 1.054677826927969e+001
 1.665199553924761e+000	 2.282046328565542e+000	 1.047212702914400e+001
 1.641631741671801e+000	 2.299058551854437e+000	 1.040021381621849e+001
 1.617910432916417e+000	 2.315813211635502e+000	 1.033112316392072e+001
 1.594039814239324e+000	 2.332308313827380e+000	 1.026493910554655e+001
 1.570024104676068e+000	 2.348541954248410e+000	 1.020174495350806e+001
 1.545867553328280e+000	 2.364512319209462e+000	 1.014162307857296e+001
 1.796349660256885e+000	 2.212606584581236e+000	 1.085631813837593e+001
 1.773409599355911e+000	 2.231035273807834e+000	 1.077144906058720e+001
 1.750294139831630e+000	 2.249215513052330e+000	 1.068940909196036e+001
 1.727007306010348e+000	 2.267144848722589e+000	 1.061030806998984e+001
 1.703553166758326e+000	 2.284820913801577e+000	 1.053425575726665e+001
 1.679935833164913e+000	 2.302241428820505e+000	 1.046136159868175e+001
 1.656159456201584e+000	 2.319404202757974e+000	 1.039173447682791e+001
 1.632228224359600e+000	 2.336307133864525e+000	 1.032548246626656e+001
 1.608146361269064e+000	 2.352948210412063e+000	 1.026271258732803e+001
 1.583918123302120e+000	 2.369325511367762e+000	 1.020353056011443e+001
 1.559547797163067e+000	 2.385437206992145e+000	 1.014804055937206e+001
 1.812107113417673e+000	 2.232015414272058e+000	 1.083972220822302e+001
 1.788965823912565e+000	 2.250605758667261e+000	 1.075531530680623e+001
 1.765647597199653e+000	 2.268945473694558e+000	 1.067415863366427e+001
 1.742156492906349e+000	 2.287032084239069e+000	 1.059638733307137e+001
 1.718496615590724e+000	 2.304863202520457e+000	 1.052213603689231e+001
 1.694672112404316e+000	 2.322436529074593e+000	 1.045153859357936e+001
 1.670687170730629e+000	 2.339749853660591e+000	 1.038472779604000e+001
 1.646546015802076e+000	 2.356801056092591e+000	 1.032183510909112e+001
 1.622252908298147e+000	 2.373588106995765e+000	 1.026299039721428e+001
 1.597812141927584e+000	 2.390109068486118e+000	 1.020832165332757e+001
 1.573228040997356e+000	 2.406362094773829e+000	 1.015795472928360e+001
 1.827864566577960e+000	 2.251424243962378e+000	 1.082141010634863e+001
 1.804522048468628e+000	 2.270176243526093e+000	 1.073802395037393e+001
 1.781001054567015e+000	 2.288675434336103e+000	 1.065830058298636e+001
 1.757305679801640e+000	 2.306919319754793e+000	 1.058240028100561e+001
 1.733440064422383e+000	 2.324905491238517e+000	 1.051048237909801e+001
 1.709408391642969e+000	 2.342631629327805e+000	 1.044270497060775e+001
 1.685214885258934e+000	 2.360095504562286e+000	 1.037922460792068e+001
 1.660863807243843e+000	 2.377294978319702e+000	 1.032019600312371e+001
 1.636359455326572e+000	 2.394228003578486e+000	 1.026577172972327e+001
 1.611706160552460e+000	 2.410892625603480e+000	 1.021610192618252e+001
 1.586908284831148e+000	 2.427286982554514e+000	 1.017133400203102e+001
 1.843622019737746e+000	 2.270833073652197e+000	 1.080151039444312e+001
 1.820078273024101e+000	 2.289746728384328e+000	 1.071968710522765e+001
 1.796354511933716e+000	 2.308405394976967e+000	 1.064193075797118e+001
 1.772454866696219e+000	 2.326806555269760e+000	 1.056842659597428e+001
 1.748383513253301e+000	 2.344947779955755e+000	 1.049935849828975e+001
 1.724144670880873e+000	 2.362826729580141e+000	 1.043490865242225e+001
 1.699742599786501e+000	 2.380441155463061e+000	 1.037525722721013e+001
 1.675181598684902e+000	 2.397788900545858e+000	 1.032058204670187e+001
 1.650466002354339e+000	 2.414867900160228e+000	 1.027105826583835e+001
 1.625600179176749e+000	 2.431676182719846e+000	 1.022685804874518e+001
 1.600588528664443e+000	 2.448211870334198e+000	 1.018815025043420e+001
 1.859379472897029e+000	 2.290241903341515e+000	 1.078014998920225e+001
 1.835634497578981e+000	 2.309317213241967e+000	 1.070041576754186e+001
 1.811707969299756e+000	 2.328135355617151e+000	 1.062514437974687e+001
 1.787604053590088e+000	 2.346693790783972e+000	 1.055454587746580e+001
 1.763326962083479e+000	 2.364990068672173e+000	 1.048882853354747e+001
 1.738880950118027e+000	 2.383021829831602e+000	 1.042819848663521e+001
 1.714270314313329e+000	 2.400786806362916e+000	 1.037285938658245e+001
 1.689499390125252e+000	 2.418282822771059e+000	 1.032301204155075e+001
 1.664572549381448e+000	 2.435507796740990e+000	 1.027885406764932e+001
 1.639494197800451e+000	 2.452459739835218e+000	 1.024057954196692e+001
 1.614268772497240e+000	 2.469136758112883e+000	 1.020837865983787e+001
 1.875136926055812e+000	 2.309650733030330e+000	 1.075770257110083e+001
 1.851190722133271e+000	 2.328887698099010e+000	 1.068031986269314e+001
 1.827061426665134e+000	 2.347865316256653e+000	 1.060803609760564e+001
 1.802753240483247e+000	 2.366581026297427e+000	 1.054083764574981e+001
 1.778270410912917e+000	 2.385032357387770e+000	 1.047895703078133e+001
 1.753617229354432e+000	 2.403216930082187e+000	 1.042262420695233e+001
 1.728798028839418e+000	 2.421132457261850e+000	 1.037206617706878e+001
 1.703817181564894e+000	 2.438776744995305e+000	 1.032750661280874e+001
 1.678679096407899e+000	 2.456147693320771e+000	 1.028916547830619e+001
 1.653388216423565e+000	 2.473243296949593e+000	 1.025725865789967e+001
 1.627949016329540e+000	 2.490061645890567e+000	 1.023199758892985e+001
 1.890894379214094e+000	 2.329059562718646e+000	 1.076157200845273e+001
 1.866746946686970e+000	 2.348458182955457e+000	 1.065950828987644e+001
 1.842414884029853e+000	 2.367595276895474e+000	 1.059070001283022e+001
 1.817902427375696e+000	 2.386468261810128e+000	 1.052738134517805e+001
 1.793213859741616e+000	 2.405074646102547e+000	 1.046980892578084e+001
 1.768353508590088e+000	 2.423412030331897e+000	 1.041823639625200e+001
 1.743325743364769e+000	 2.441478108159864e+000	 1.037291399145897e+001
 1.718134973003829e+000	 2.459270667218596e+000	 1.033408813305208e+001
 1.692785643433693e+000	 2.476787589899573e+000	 1.030200102697491e+001
 1.667282235046092e+000	 2.494026854062976e+000	 1.027689026589960e+001
 1.641629260161343e+000	 2.510986533667252e+000	 1.021854442626556e+001
 1.504826821820936e+000	 2.301737655855408e+000	 1.014372182193216e+001
 1.481178655451783e+000	 2.317026066036402e+000	 1.004776378063211e+001
 1.457401737502926e+000	 2.332054925507497e+000	 9.957680007748742e+000
 1.433500278033387e+000	 2.346822735730042e+000	 9.873638409003359e+000
 1.409478506995772e+000	 2.361328087830619e+000	 9.795802000606672e+000
 1.385340671887672e+000	 2.375569662812049e+000	 9.724328644032134e+000
 1.361091035406278e+000	 2.389546231691873e+000	 9.659370789000146e+000
 1.336733873108761e+000	 2.403256655568767e+000	 9.601075225249778e+000
 1.312273471080952e+000	 2.416699885617484e+000	 9.549582843646860e+000
 1.287714123616817e+000	 2.429874963012997e+000	 9.505028407151977e+000
 1.263060130911157e+000	 2.442781018784593e+000	 9.467540332140496e+000
 1.518507065657215e+000	 2.322662543641092e+000	 1.013942275979320e+001
 1.494643915956549e+000	 2.338089939369133e+000	 1.005144782383177e+001
 1.470650844207407e+000	 2.353255424835356e+000	 9.969597746956783e+000
 1.446532098742074e+000	 2.368157487878027e+000	 9.894037827413953e+000
 1.422291947967267e+000	 2.382794706815789e+000	 9.824928322838915e+000
 1.397934677994196e+000	 2.397165750660582e+000	 9.762424184555259e+000
 1.373464590271840e+000	 2.411269379257375e+000	 9.706674800263059e+000
 1.348885999226073e+000	 2.425104443351199e+000	 9.657823745699664e+000
 1.324203229907142e+000	 2.438669884582033e+000	 9.616008545828835e+000
 1.299420615648048e+000	 2.451964735408257e+000	 9.581360446083485e+000
 1.274542495736273e+000	 2.464988118959423e+000	 9.554004194160177e+000
 1.532187309492996e+000	 2.343587431425777e+000	 1.013873748668364e+001
 1.508109176460914e+000	 2.359153812700871e+000	 1.005855159494706e+001
 1.483899950911571e+000	 2.374455924162234e+000	 9.984738695361758e+000
 1.459563919450516e+000	 2.389492240025056e+000	 9.917461662085936e+000
 1.435105388938585e+000	 2.404261325800040e+000	 9.856878178800899e+000
 1.410528684100595e+000	 2.418761838508240e+000	 9.803140472278564e+000
 1.385838145137323e+000	 2.432992526822060e+000	 9.756395054520406e+000
 1.361038125343342e+000	 2.446952231132881e+000	 9.716782474055050e+000
 1.336132988733313e+000	 2.460639883545905e+000	 9.684437076955836e+000
 1.311127107679275e+000	 2.474054507802925e+000	 9.659486778110052e+000
 1.286024860561388e+000	 2.487195219133758e+000	 9.642052843241256e+000
 1.545867553328280e+000	 2.364512319209462e+000	 1.014162307857296e+001
 1.521574436964876e+000	 2.380217686031613e+000	 1.006903477374944e+001
 1.497149057615418e+000	 2.395656423488133e+000	 1.000306517671095e+001
 1.472595740158718e+000	 2.410826992171133e+000	 9.943874920272970e+000
 1.447918829909724e+000	 2.425727944783372e+000	 9.891619298125010e+000
 1.423122690206872e+000	 2.440357926355025e+000	 9.846447997413394e+000
 1.398211700002727e+000	 2.454715674385927e+000	 9.808504840075917e+000
 1.373190251460564e+000	 2.468800018913809e+000	 9.777927533523483e+000
 1.348062747559464e+000	 2.482609882509102e+000	 9.754847431234829e+000
 1.322833599710497e+000	 2.496144280197001e+000	 9.739389303802845e+000
 1.297507225386504e+000	 2.509402319307596e+000	 9.681832638034985e+000
 1.559547797163067e+000	 2.385437206992145e+000	 1.014804055937206e+001
 1.535039697468435e+000	 2.401281559361360e+000	 1.008286085434568e+001
 1.510398164318946e+000	 2.416856922813052e+000	 1.002454319324015e+001
 1.485627560866675e+000	 2.432161744316253e+000	 9.973246149700863e+000
 1.460732270880685e+000	 2.447194563765786e+000	 9.929122810803163e+000
 1.435716696313025e+000	 2.461954014200937e+000	 9.892320508394860e+000
 1.410585254868052e+000	 2.476438821948977e+000	 9.862980559372781e+000
 1.385342377577744e+000	 2.490647806693986e+000	 9.841238015494774e+000
 1.359992506385595e+000	 2.504579881471621e+000	 9.804895311380932e+000
 1.334540091741714e+000	 2.518234052590487e+000	 9.729218740168300e+000
 1.308989590211620e+000	 2.531609419480937e+000	 9.658211937816803e+000
 1.573228040997356e+000	 2.406362094773829e+000	 1.015795472928360e+001
 1.548504957971592e+000	 2.422345432690113e+000	 1.009999697933745e+001
 1.523647271022157e+000	 2.438057422136991e+000	 1.004914226573914e+001
 1.498659381574390e+000	 2.453496496460421e+000	 1.000554728463390e+001
 1.473545711851468e+000	 2.468661182747281e+000	 9.969363099344644e+000
 1.448310702419053e+000	 2.483550102045977e+000	 9.940734870219686e+000
 1.422958809733299e+000	 2.498161969511209e+000	 9.919801593596207e+000
 1.397494503694878e+000	 2.512495594473410e+000	 9.848672613096980e+000
 1.371922265211707e+000	 2.526549880433465e+000	 9.774336755550086e+000
 1.346246583772926e+000	 2.540323824983382e+000	 9.704881865788465e+000
 1.320471955036735e+000	 2.553816519653783e+000	 9.640118683021841e+000
 1.586908284831148e+000	 2.427286982554514e+000	 1.017133400203102e+001
 1.561970218474347e+000	 2.443409306017870e+000	 1.012041378255837e+001
 1.536896377725050e+000	 2.459257921459952e+000	 1.007683528189009e+001
 1.511691202281862e+000	 2.474831248603634e+000	 1.004075349990336e+001
 1.486359152822073e+000	 2.490127801727857e+000	 1.001231765858172e+001
 1.460904708524959e+000	 2.505146189890143e+000	 9.969496001747761e+000
 1.435332364598465e+000	 2.519885117072623e+000	 9.890815558724972e+000
 1.409646629811969e+000	 2.534343382252084e+000	 9.817480096038855e+000
 1.383852024037798e+000	 2.548519879394630e+000	 9.749272736279840e+000
 1.357953075804133e+000	 2.562413597375685e+000	 9.685981553110008e+000
 1.331954319861851e+000	 2.576023619826133e+000	 9.627400151286384e+000
 1.600588528664443e+000	 2.448211870334198e+000	 1.018815025043420e+001
 1.575435478976699e+000	 2.464473179344633e+000	 1.014408523987622e+001
 1.550145484427626e+000	 2.480458420781932e+000	 1.010759835238317e+001
 1.524723022989091e+000	 2.496166000745893e+000	 1.007884307242199e+001
 1.499172593792499e+000	 2.511594420707515e+000	 1.001005026300651e+001
 1.473498714630741e+000	 2.526742277733436e+000	 9.931683885423785e+000
 1.447705919463553e+000	 2.541608264633220e+000	 9.858968504952850e+000
 1.421798755929015e+000	 2.556191170030004e+000	 9.791665001767582e+000
 1.395781782863870e+000	 2.570489878355120e+000	 9.729538757322150e+000
 1.369659567835335e+000	 2.584503369767397e+000	 9.672360283139854e+000
 1.343436684686967e+000	 2.598230719997987e+000	 9.619905828068029e+000
 1.614268772497240e+000	 2.469136758112883e+000	 1.020837865983787e+001
 1.588900739478649e+000	 2.485537052670400e+000	 1.017098852758112e+001
 1.563394591129885e+000	 2.501658920102933e+000	 1.013495051987723e+001
 1.537754843696077e+000	 2.517500752887198e+000	 1.005018036781118e+001
 1.511986034762747e+000	 2.533061039686253e+000	 9.971668883854376e+000
 1.486092720736399e+000	 2.548338365575855e+000	 9.899151551053278e+000
 1.460079474328563e+000	 2.563331412193000e+000	 9.832367134840489e+000
 1.433950882046016e+000	 2.578038957807174e+000	 9.771058380073233e+000
 1.407711541689923e+000	 2.592459877314933e+000	 9.714972688912136e+000
 1.381366059866532e+000	 2.606593142158518e+000	 9.663862777950646e+000
 1.354919049512082e+000	 2.620437820169344e+000	 9.617487313093880e+000
 1.627949016329540e+000	 2.490061645890567e+000	 1.023199758892985e+001
 1.602365999980196e+000	 2.506600925995173e+000	 1.017617665178131e+001
 1.576643697831826e+000	 2.522859419422954e+000	 1.009035638236161e+001
 1.550786664402821e+000	 2.538835505027548e+000	 1.001119678324172e+001
 1.524799475732817e+000	 2.554527658664074e+000	 9.938412081532833e+000
 1.498686726841934e+000	 2.569934453417402e+000	 9.871719143136287e+000
 1.472453029193492e+000	 2.585054559751961e+000	 9.810838217871888e+000
 1.446103008162973e+000	 2.599886745583591e+000	 9.755493666561490e+000
 1.419641300515955e+000	 2.614429876274071e+000	 9.705414668335852e+000
 1.393072551897724e+000	 2.628682914549047e+000	 9.660335906518466e+000
 1.366401414337198e+000	 2.642644920340206e+000	 9.619998231525740e+000
 1.641629260161343e+000	 2.510986533667252e+000	 1.021854442626556e+001
 1.615831260481341e+000	 2.527664799318952e+000	 1.013108812831744e+001
 1.589892804533449e+000	 2.544059918741996e+000	 1.005073207686525e+001
 1.563818485109322e+000	 2.560170257166945e+000	 9.977169623830440e+000
 1.537612916702709e+000	 2.575994277640975e+000	 9.910096041610940e+000
 1.511280732947345e+000	 2.591530541258076e+000	 9.849209315999927e+000
 1.484826584058343e+000	 2.606777707310107e+000	 9.794210922369592e+000
 1.458255134279887e+000	 2.621734533359257e+000	 9.744806583244474e+000
 1.431571059341969e+000	 2.636399875232532e+000	 9.700707005469889e+000
 1.404779043928912e+000	 2.650772686938987e+000	 9.661628595268473e+000
 1.377883779162314e+000	 2.664852020510572e+000	 9.627294149566939e+000
 1.263060130911157e+000	 2.442781018784593e+000	 9.467540332140496e+000
 1.238315796768149e+000	 2.455417273601034e+000	 9.340196526714486e+000
 1.213485426327356e+000	 2.467783037487111e+000	 9.229773660394853e+000
 1.188573323810187e+000	 2.479877709472937e+000	 9.140359000209726e+000
 1.163583790289265e+000	 2.491700777177656e+000	 9.072122141270835e+000
 1.138521121482226e+000	 2.503251816328117e+000	 9.002970474090910e+000
 1.113389605572322e+000	 2.514530490214019e+000	 8.895338932711734e+000
 1.088193521057850e+000	 2.525536549080854e+000	 8.802658531617981e+000
 1.062937134632405e+000	 2.536269829462127e+000	 8.724233806574457e+000
 1.037624699097835e+000	 2.546730253452309e+000	 8.659401046614548e+000
 1.012260451311729e+000	 2.556917827922117e+000	 8.607529277065785e+000
 1.274542495736273e+000	 2.464988118959423e+000	 9.554004194160177e+000
 1.249573213101380e+000	 2.477739248819489e+000	 9.437107738192475e+000
 1.224517112020461e+000	 2.490217428740764e+000	 9.334904640910732e+000
 1.199378535844211e+000	 2.502422052289999e+000	 9.239734382670610e+000
 1.174161824745915e+000	 2.514352602428329e+000	 9.104374188575799e+000
 1.148871313495187e+000	 2.526008651025577e+000	 8.985648187243969e+000
 1.123511329258762e+000	 2.537389858310436e+000	 8.882779267493261e+000
 1.098086189430378e+000	 2.548495972257904e+000	 8.795020555266019e+000
 1.072600199491755e+000	 2.559326827915428e+000	 8.721656628733653e+000
 1.047057650906575e+000	 2.569882346669242e+000	 8.662004632870124e+000
 1.021462819049315e+000	 2.580162535452528e+000	 8.615415292589294e+000
 1.286024860561388e+000	 2.487195219133758e+000	 9.642052843241256e+000
 1.260830629434610e+000	 2.500061224037538e+000	 9.534537592099843e+000
 1.235548797713566e+000	 2.512651819994079e+000	 9.368651838182819e+000
 1.210183747878236e+000	 2.524966395106772e+000	 9.220620894083888e+000
 1.184739859202564e+000	 2.537004427678743e+000	 9.090231251748280e+000
 1.159221505508147e+000	 2.548765485722786e+000	 8.976653770679203e+000
 1.133633052945202e+000	 2.560249226406592e+000	 8.879088977578698e+000
 1.107978857802907e+000	 2.571455395434662e+000	 8.796768419525609e+000
 1.082263264351105e+000	 2.582383826368382e+000	 8.728955915223533e+000
 1.056490602715315e+000	 2.593034439885762e+000	 8.674948703053182e+000
 1.030665186786900e+000	 2.603407242982436e+000	 8.634078484991377e+000
 1.297507225386504e+000	 2.509402319307596e+000	 9.681832638034985e+000
 1.272088045767840e+000	 2.522383199255179e+000	 9.511725292853059e+000
 1.246580483406671e+000	 2.535086211247057e+000	 9.351117643638650e+000
 1.220988959912261e+000	 2.547510737923258e+000	 9.208466559419927e+000
 1.195317893659215e+000	 2.559656252928899e+000	 9.083635499816440e+000
 1.169571697521108e+000	 2.571522320419745e+000	 8.975771295956342e+000
 1.143754776631642e+000	 2.583108594502486e+000	 8.884051227667491e+000
 1.117871526175436e+000	 2.594414818611126e+000	 8.807684416338333e+000
 1.091926329210455e+000	 2.605440824820994e+000	 8.745913113146505e+000
 1.065923554524055e+000	 2.616186533101865e+000	 8.698013881346972e+000
 1.039867554524486e+000	 2.626651950511838e+000	 8.663298671649287e+000
 1.308989590211620e+000	 2.531609419480937e+000	 9.658211937816803e+000
 1.283345462101071e+000	 2.544705174472416e+000	 9.495043592042983e+000
 1.257612169099776e+000	 2.557520602499699e+000	 9.341139139901639e+000
 1.231794171946285e+000	 2.570055080739456e+000	 9.203060987217631e+000
 1.205895928115865e+000	 2.582308078178795e+000	 9.084375888815924e+000
 1.179921889534068e+000	 2.594279155116453e+000	 8.982789105066475e+000
 1.153876500318082e+000	 2.605967962598117e+000	 8.897453777527677e+000
 1.127764194547964e+000	 2.617374241787297e+000	 8.827555748609488e+000
 1.101589394069805e+000	 2.628497823273261e+000	 8.772314887627665e+000
 1.075356506332795e+000	 2.639338626317554e+000	 8.730986308092117e+000
 1.049069922262071e+000	 2.649896658040735e+000	 8.702861475227104e+000
 1.320471955036735e+000	 2.553816519653783e+000	 9.640118683021841e+000
 1.294602878434302e+000	 2.567027149689244e+000	 9.484330973649398e+000
 1.268643854792880e+000	 2.579954993752005e+000	 9.338127757614421e+000
 1.242599383980310e+000	 2.592599423555365e+000	 9.204197225033324e+000
 1.216473962572515e+000	 2.604959903428432e+000	 9.092245140753528e+000
 1.190272081547028e+000	 2.617035989812912e+000	 8.997499624760803e+000
 1.163998224004522e+000	 2.628827330693487e+000	 8.919088782210283e+000
 1.137656862920493e+000	 2.640333664963175e+000	 8.856174316688124e+000
 1.111252458929155e+000	 2.651554821725185e+000	 8.807952894944163e+000
 1.084789458141534e+000	 2.662490719532829e+000	 8.773657399953862e+000
 1.058272289999657e+000	 2.673141365569126e+000	 8.752558071272198e+000
 1.331954319861851e+000	 2.576023619826133e+000	 9.627400151286384e+000
 1.305860294767532e+000	 2.589349124905667e+000	 9.479428563694485e+000
 1.279675540485985e+000	 2.602389385003972e+000	 9.341351332829600e+000
 1.253404596014334e+000	 2.615143766370987e+000	 9.213025550104618e+000
 1.227051997029165e+000	 2.627611728677810e+000	 9.107039581280796e+000
 1.200622273559989e+000	 2.639792824509118e+000	 9.019699190483470e+000
 1.174119947690962e+000	 2.651686698788595e+000	 8.948752602597590e+000
 1.147549531293022e+000	 2.663293088138761e+000	 8.893336515890653e+000
 1.120915523788505e+000	 2.674611820176764e+000	 8.852623567389257e+000
 1.094222409950274e+000	 2.685642812747688e+000	 8.825823622494132e+000
 1.067474657737242e+000	 2.696386073097013e+000	 8.812184948866561e+000
 1.343436684686967e+000	 2.598230719997987e+000	 9.619905828068029e+000
 1.317117711100763e+000	 2.611671100121684e+000	 9.480180017334918e+000
 1.290707226179090e+000	 2.624823776255602e+000	 9.350647872073578e+000
 1.264209808048359e+000	 2.637688109186322e+000	 9.231165401742242e+000
 1.237630031485815e+000	 2.650263553926928e+000	 9.128558985692083e+000
 1.210972465572949e+000	 2.662549659205076e+000	 9.049187879333649e+000
 1.184241671377402e+000	 2.674546066883441e+000	 8.986245625666594e+000
 1.157442199665550e+000	 2.686252511314052e+000	 8.938843044408678e+000
 1.130578588647855e+000	 2.697668818627999e+000	 8.906127909169303e+000
 1.103655361759014e+000	 2.708794905962132e+000	 8.887286274406820e+000
 1.076677025474828e+000	 2.719630780624395e+000	 8.881543683552790e+000
 1.354919049512082e+000	 2.620437820169344e+000	 9.617487313093880e+000
 1.328375127433993e+000	 2.633993075337294e+000	 9.486431411695255e+000
 1.301738911872195e+000	 2.647258167506897e+000	 9.365858104676189e+000
 1.275015020082383e+000	 2.660232452001367e+000	 9.255621925629663e+000
 1.248208065942465e+000	 2.672915379175787e+000	 9.156606432753325e+000
 1.221322657585910e+000	 2.685306493900782e+000	 9.085769351520439e+000
 1.194363395063843e+000	 2.697405434978026e+000	 9.031372093892035e+000
 1.167334868038079e+000	 2.709211934489050e+000	 8.992498720983342e+000
 1.140241653507206e+000	 2.720725817078891e+000	 8.968271302678380e+000
 1.113088313567753e+000	 2.731946999176162e+000	 8.957851282724178e+000
 1.085879393212413e+000	 2.742875488151270e+000	 8.960440721806132e+000
 1.366401414337198e+000	 2.642644920340206e+000	 9.619998231525740e+000
 1.339632543767224e+000	 2.656315050552498e+000	 9.498031144104415e+000
 1.312770597565300e+000	 2.669692558757853e+000	 9.386825368366976e+000
 1.285820232116408e+000	 2.682776794816125e+000	 9.286233567459272e+000
 1.258786100399115e+000	 2.695567204424388e+000	 9.196110990494958e+000
 1.231672849598870e+000	 2.708063328596238e+000	 9.129250699812449e+000
 1.204485118750283e+000	 2.720264803072348e+000	 9.083939943250298e+000
 1.177227536410608e+000	 2.732171357663756e+000	 9.054112311773370e+000
 1.149904718366555e+000	 2.743782815529437e+000	 9.038863324541024e+000
 1.122521265376493e+000	 2.755099092389776e+000	 9.037329008348413e+000
 1.095081760949999e+000	 2.766120195677642e+000	 9.048687176373312e+000
 1.377883779162314e+000	 2.664852020510572e+000	 9.627294149566939e+000
 1.350889960100455e+000	 2.678637025767296e+000	 9.514829835420850e+000
 1.323802283258406e+000	 2.692126950008474e+000	 9.413395500591941e+000
 1.296625444150432e+000	 2.705321137630596e+000	 9.322841542430195e+000
 1.269364134855766e+000	 2.718219029672730e+000	 9.243020804217759e+000
 1.242023041611831e+000	 2.730820163291444e+000	 9.179442306514067e+000
 1.214606842436724e+000	 2.743124171166410e+000	 9.143760649323903e+000
 1.187120204783137e+000	 2.755130780838170e+000	 9.123496365878987e+000
 1.159567783225906e+000	 2.766839813979641e+000	 9.117717570852307e+000
 1.131954217185234e+000	 2.778251185602977e+000	 9.125534061307670e+000
 1.104284128687585e+000	 2.789364903203509e+000	 9.146098631844732e+000
 1.012260451311729e+000	 2.556917827922117e+000	 8.607529277065785e+000
 9.868486101712383e-001	 2.566832643677576e+000	 8.506424941988435e+000
 9.613933746349105e-001	 2.576474874564940e+000	 8.414720367117493e+000
 9.358989217837993e-001	 2.585844776523053e+000	 8.331954231403802e+000
 9.103694049237148e-001	 2.594942686584524e+000	 8.257702773184864e+000
 8.848089517299635e-001	 2.603769021827962e+000	 8.191580180763355e+000
 8.592216624358849e-001	 2.612324278282999e+000	 8.133238884318070e+000
 8.336116080664260e-001	 2.620609029790004e+000	 8.082369750461528e+000
 8.079828287179296e-001	 2.628623926816410e+000	 8.038702181008743e+000
 7.823393318852077e-001	 2.636369695231585e+000	 8.002004117760906e+000
 7.566850908368894e-001	 2.643847135042238e+000	 7.972081955334941e+000
 1.021462819049315e+000	 2.580162535452528e+000	 8.615415292589294e+000
 9.958199611707879e-001	 2.590167485896778e+000	 8.520026469577065e+000
 9.701333144019444e-001	 2.599897373428621e+000	 8.432988243308381e+000
 9.444070937973018e-001	 2.609352456313620e+000	 8.353813153038962e+000
 9.186454904199952e-001	 2.618533074648314e+000	 8.282053418138757e+000
 8.928526694696530e-001	 2.627439649302940e+000	 8.217301338004534e+000
 8.670327684544615e-001	 2.636072680816487e+000	 8.159189589296409e+000
 8.411898954086866e-001	 2.644432748246060e+000	 8.107391421874088e+000
 8.153281271568190e-001	 2.652520507972429e+000	 8.061620755068926e+000
 7.894515076254415e-001	 2.660336692463774e+000	 8.021632176176128e+000
 7.635640462038073e-001	 2.667882108999597e+000	 7.987220843285420e+000
 1.030665186786900e+000	 2.603407242982436e+000	 8.634078484991377e+000
 1.004791312170337e+000	 2.613502328115380e+000	 8.544243053154426e+000
 9.788732541689785e-001	 2.623319872291618e+000	 8.461701428501673e+000
 9.529152658108042e-001	 2.632860136103427e+000	 8.385939522943790e+000
 9.269215759162761e-001	 2.642123462711282e+000	 8.316485077196573e+000
 9.008963872093423e-001	 2.651110276777040e+000	 8.252908070394920e+000
 8.748438744730380e-001	 2.659821083349055e+000	 8.194821022957550e+000
 8.487681827509470e-001	 2.668256466701160e+000	 8.141879194142772e+000
 8.226734255957083e-001	 2.676417089127467e+000	 8.093780676003394e+000
 7.965636833656755e-001	 2.684303689694970e+000	 8.050266385705612e+000
 7.704430015707247e-001	 2.691917082955955e+000	 8.011119958418938e+000
 1.039867554524486e+000	 2.626651950511838e+000	 8.663298671649287e+000
 1.013762663169887e+000	 2.636837170333383e+000	 8.578868867919963e+000
 9.876131939360127e-001	 2.646742371153929e+000	 8.500667902681766e+000
 9.614234378243066e-001	 2.656367815892474e+000	 8.428154564694861e+000
 9.351976614125565e-001	 2.665713850773424e+000	 8.360831648764746e+000
 9.089401049490314e-001	 2.674780904250262e+000	 8.298246375425583e+000
 8.826549804916150e-001	 2.683569485880700e+000	 8.239990699737927e+000
 8.563464700932076e-001	 2.692080185155304e+000	 8.185701510704899e+000
 8.300187240345979e-001	 2.700313670281525e+000	 8.135060723088158e+000
 8.036758591059092e-001	 2.708270686925169e+000	 8.087795263670353e+000
 7.773219569376425e-001	 2.715952056911313e+000	 8.043676954261077e+000
 1.049069922262071e+000	 2.649896658040735e+000	 8.702861475227104e+000
 1.022734014169437e+000	 2.660172012550785e+000	 8.623703642685133e+000
 9.963531337030465e-001	 2.670164870015556e+000	 8.549700958204628e+000
 9.699316098378089e-001	 2.679875495680763e+000	 8.480284583475667e+000
 9.434737469088371e-001	 2.689304238834746e+000	 8.414931892601800e+000
 9.169838226887206e-001	 2.698451531722607e+000	 8.353166902223016e+000
 8.904660865101917e-001	 2.707317888411425e+000	 8.294560586551972e+000
 8.639247574354684e-001	 2.715903903608491e+000	 8.238731078891798e+000
 8.373640224734872e-001	 2.724210251434602e+000	 8.185343761491069e+000
 8.107880348461430e-001	 2.732237684154373e+000	 8.134111245864926e+000
 7.842009123045602e-001	 2.739987030865671e+000	 8.084793245970788e+000
 1.058272289999657e+000	 2.673141365569126e+000	 8.752558071272198e+000
 1.031705365168986e+000	 2.683506854767587e+000	 8.678552418412140e+000
 1.005093073470081e+000	 2.693587368876500e+000	 8.608618968825200e+000
 9.784397818513116e-001	 2.703383175468292e+000	 8.542160745137162e+000
 9.517498324051178e-001	 2.712894626895242e+000	 8.478629218455428e+000
 9.250275404284100e-001	 2.722122159194075e+000	 8.417524749304230e+000
 8.982771925287684e-001	 2.731066290941226e+000	 8.358396909205901e+000
 8.715030447777293e-001	 2.739727622060724e+000	 8.300844684542092e+000
 8.447093209123765e-001	 2.748106832586698e+000	 8.244516564624522e+000
 8.179002105863769e-001	 2.756204681382582e+000	 8.189110516188769e+000
 7.910798676714780e-001	 2.764022004819030e+000	 8.134373846791624e+000
 1.067474657737242e+000	 2.696386073097013e+000	 8.812184948866561e+000
 1.040676716168536e+000	 2.706841696983788e+000	 8.743225319242024e+000
 1.013833013237114e+000	 2.717009867736757e+000	 8.677245170671673e+000
 9.869479538648138e-001	 2.726890855255063e+000	 8.613618866686148e+000
 9.600259179013986e-001	 2.736485014954916e+000	 8.551771485631686e+000
 9.330712581680992e-001	 2.745792786664665e+000	 8.491179272792486e+000
 9.060882985473451e-001	 2.754814693470107e+000	 8.431369968824978e+000
 8.790813321199896e-001	 2.763551340511998e+000	 8.371923016203954e+000
 8.520546193512658e-001	 2.772003413737813e+000	 8.312469645686443e+000
 8.250123863266107e-001	 2.780171678609796e+000	 8.252692845090129e+000
 7.979588230383954e-001	 2.788056978771388e+000	 8.192327212961462e+000
 1.076677025474828e+000	 2.719630780624395e+000	 8.881543683552790e+000
 1.049648067168086e+000	 2.730176539199391e+000	 8.817537335264575e+000
 1.022572953004148e+000	 2.740432366596331e+000	 8.755407454451696e+000
 9.954561258783166e-001	 2.750398535041075e+000	 8.694499217517965e+000
 9.683020033976790e-001	 2.760075403013765e+000	 8.634210812843117e+000
 9.411149759077881e-001	 2.769463414134377e+000	 8.573993904468528e+000
 9.138994045659219e-001	 2.778563095998065e+000	 8.513353967694323e+000
 8.866596194622503e-001	 2.787375058962318e+000	 8.451850498352743e+000
 8.593999177901553e-001	 2.795899994887950e+000	 8.389097097840656e+000
 8.321245620668445e-001	 2.804138675836015e+000	 8.324761436294626e+000
 8.048377784053131e-001	 2.812091952722746e+000	 8.258565096576241e+000
 1.085879393212413e+000	 2.742875488151270e+000	 8.960440721806132e+000
 1.058619418167635e+000	 2.753511381414393e+000	 8.901308116334239e+000
 1.031312892771182e+000	 2.763854865455219e+000	 8.842938168224316e+000
 1.003964297891819e+000	 2.773906214826328e+000	 8.784646330756013e+000
 9.765780888939597e-001	 2.783665791071792e+000	 8.725803397725199e+000
 9.491586936474775e-001	 2.793134041603211e+000	 8.665835979073027e+000
 9.217105105844986e-001	 2.802311498525102e+000	 8.604226843955845e+000
 8.942379068045111e-001	 2.811198777411681e+000	 8.540515133088816e+000
 8.667452162290448e-001	 2.819796576037104e+000	 8.474296442523229e+000
 8.392367378070782e-001	 2.828105673061239e+000	 8.405222781327323e+000
 8.117167337722309e-001	 2.836126926673104e+000	 8.333002405934884e+000
 1.095081760949999e+000	 2.766120195677642e+000	 9.048687176373312e+000
 1.067590769167185e+000	 2.776846223628796e+000	 8.994361776281471e+000
 1.040052832538216e+000	 2.787277364313423e+000	 8.939673930116541e+000
 1.012472469905321e+000	 2.797413894610821e+000	 8.883908824103477e+000
 9.848541743902404e-001	 2.807256179128995e+000	 8.826409345453310e+000
 9.572024113871669e-001	 2.816804669071168e+000	 8.766576570316834e+000
 9.295216166030752e-001	 2.826059901051216e+000	 8.703870114639226e+000
 9.018161941467714e-001	 2.835022495860088e+000	 8.637808349817366e+000
 8.740905146679339e-001	 2.843693157185277e+000	 8.567968485397451e+000
 8.463489135473121e-001	 2.852072670285467e+000	 8.493986521370228e+000
 8.185956891391485e-001	 2.860161900622463e+000	 8.415557072925806e+000
 1.104284128687585e+000	 2.789364903203509e+000	 9.146098631844732e+000
 1.076562120166735e+000	 2.800181065842599e+000	 9.096526706913998e+000
 1.048792772305250e+000	 2.810699863170943e+000	 9.045455450403628e+000
 1.020980641918824e+000	 2.820921574394557e+000	 8.992139229652478e+000
 9.931302598865212e-001	 2.830846567185376e+000	 8.935892505928493e+000
 9.652461291268561e-001	 2.840475296538248e+000	 8.876090335090552e+000
 9.373327226216525e-001	 2.849808303576410e+000	 8.812168726541723e+000
 9.093944814890325e-001	 2.858846214307540e+000	 8.743624862443935e+000
 8.814358131068237e-001	 2.867589738332473e+000	 8.670017179511017e+000
 8.534610892875463e-001	 2.876039667508701e+000	 8.590965316026129e+000
 8.254746445060665e-001	 2.884196874570822e+000	 8.506149927043930e+000
 7.566850908368894e-001	 2.643847135042238e+000	 7.972081955334941e+000
 7.310240430396248e-001	 2.651057119090043e+000	 7.914725079989426e+000
 7.053600886327910e-001	 2.658000591714422e+000	 7.852565989522770e+000
 6.796970889541841e-001	 2.664678567381807e+000	 7.785565282190145e+000
 6.540388651164302e-001	 2.671092129282827e+000	 7.713730704996587e+000
 6.283891966355909e-001	 2.677242427900419e+000	 7.637116422775535e+000
 6.027518201122010e-001	 2.683130679550521e+000	 7.575554843719711e+000
 5.771304279651321e-001	 2.688758164897392e+000	 7.540048539482918e+000
 5.515286672185965e-001	 2.694126227445559e+000	 7.528059205468158e+000
 5.259501383425347e-001	 2.699236272010369e+000	 7.538214562493728e+000
 5.003983941465354e-001	 2.704089763169176e+000	 7.569336502811788e+000
 7.635640462038073e-001	 2.667882108999597e+000	 7.987220843285420e+000
 7.376697161537533e-001	 2.675157638356550e+000	 7.923949617970010e+000
 7.117724530705057e-001	 2.682164233459022e+000	 7.857699371792020e+000
 6.858761533949306e-001	 2.688902917995866e+000	 7.788420056447242e+000
 6.599846729770403e-001	 2.695374785004896e+000	 7.716108245991908e+000
 6.341018256921330e-001	 2.701580995427987e+000	 7.640806430751855e+000
 6.082313821098385e-001	 2.707522776638490e+000	 7.573628034089233e+000
 5.823770682164716e-001	 2.713201420943071e+000	 7.532399663412948e+000
 5.565425641910096e-001	 2.718618284059930e+000	 7.514561517076214e+000
 5.307315032349363e-001	 2.723774783575466e+000	 7.518657863341320e+000
 5.049474704561093e-001	 2.728672397381367e+000	 7.543432825540893e+000
 7.704430015707247e-001	 2.691917082955955e+000	 8.011119958418938e+000
 7.443153892678818e-001	 2.699258157622057e+000	 7.942326525754532e+000
 7.181848175082203e-001	 2.706327875202622e+000	 7.872310267996495e+000
 6.920552178356768e-001	 2.713127268608924e+000	 7.801010466640117e+000
 6.659304808376505e-001	 2.719657440725967e+000	 7.728412558704169e+000
 6.398144547486752e-001	 2.725919562954553e+000	 7.654547454617882e+000
 6.137109441074761e-001	 2.731914873725461e+000	 7.584799418902661e+000
 5.876237084678111e-001	 2.737644676987750e+000	 7.539249593848211e+000
 5.615564611634222e-001	 2.743110340673302e+000	 7.516817550013698e+000
 5.355128681273379e-001	 2.748313295139560e+000	 7.515962395662966e+000
 5.094965467656832e-001	 2.753255031592557e+000	 7.535348978080996e+000
 7.773219569376425e-001	 2.715952056911313e+000	 8.043676954261077e+000
 7.509610623820103e-001	 2.723358676886565e+000	 7.969744756298973e+000
 7.245971819459354e-001	 2.730491516945223e+000	 7.896279803346801e+000
 6.982342822764233e-001	 2.737351619220983e+000	 7.823210676084959e+000
 6.718762886982608e-001	 2.743940096446035e+000	 7.750511703185286e+000
 6.455270838052174e-001	 2.750258130480121e+000	 7.678202302333020e+000
 6.191905061051134e-001	 2.756306970811430e+000	 7.608234876912476e+000
 5.928703487191506e-001	 2.762087933031430e+000	 7.559803720188792e+000
 5.665703581358352e-001	 2.767602397285674e+000	 7.534071933092513e+000
 5.402942330197397e-001	 2.772851806702656e+000	 7.529411720595243e+000
 5.140456230752573e-001	 2.777837665802749e+000	 7.544407112440668e+000
 7.842009123045602e-001	 2.739987030865671e+000	 8.084793245970788e+000
 7.576067354961388e-001	 2.747459196150073e+000	 8.006097482534315e+000
 7.310095463836498e-001	 2.754655158686824e+000	 7.929493739954501e+000
 7.044133467171695e-001	 2.761575969832042e+000	 7.854899860650565e+000
 6.778220965588707e-001	 2.768222752165104e+000	 7.782279086579984e+000
 6.512397128617596e-001	 2.774596698004689e+000	 7.711639422562474e+000
 6.246700681027508e-001	 2.780699067896399e+000	 7.643106180470262e+000
 5.981169889704902e-001	 2.786531189074110e+000	 7.593273537835095e+000
 5.715842551082480e-001	 2.792094453897045e+000	 7.565575573281679e+000
 5.450755979121412e-001	 2.797390318264753e+000	 7.558295809614273e+000
 5.185946993848312e-001	 2.802420300011939e+000	 7.569935883462815e+000
 7.910798676714780e-001	 2.764022004819030e+000	 8.134373846791624e+000
 7.642524086102673e-001	 2.771559715412581e+000	 8.051281913888746e+000
 7.374219108213646e-001	 2.778818800427425e+000	 7.971842275227668e+000
 7.105924111579157e-001	 2.785800320442100e+000	 7.895961990821331e+000
 6.837679044194811e-001	 2.792505407883174e+000	 7.823593230643070e+000
 6.569523419183018e-001	 2.798935265528256e+000	 7.754732659429244e+000
 6.301496301003886e-001	 2.805091164980371e+000	 7.689420732529589e+000
 6.033636292218295e-001	 2.810974445115789e+000	 7.638876382708997e+000
 5.765981520806607e-001	 2.816586510507417e+000	 7.610585382744220e+000
 5.498569628045430e-001	 2.821928829825850e+000	 7.601910765824808e+000
 5.231437756944052e-001	 2.827002934220130e+000	 7.611270166092825e+000
 7.979588230383954e-001	 2.788056978771388e+000	 8.192327212961462e+000
 7.708980817243957e-001	 2.795660234674088e+000	 8.105199122301231e+000
 7.438342752590791e-001	 2.802982442167025e+000	 8.023219850694281e+000
 7.167714755986623e-001	 2.810024671051159e+000	 7.946285625032656e+000
 6.897137122800909e-001	 2.816788063600243e+000	 7.874337551282324e+000
 6.626649709748439e-001	 2.823273833050822e+000	 7.807361019951187e+000
 6.356291920980260e-001	 2.829483262063339e+000	 7.745385021289387e+000
 6.086102694731691e-001	 2.835417701156467e+000	 7.695835179507793e+000
 5.816120490530735e-001	 2.841078567116789e+000	 7.668364019992366e+000
 5.546383276969445e-001	 2.846467341385945e+000	 7.659558559666370e+000
 5.276928520039791e-001	 2.851585568427321e+000	 7.667750787270372e+000
 8.048377784053131e-001	 2.812091952722746e+000	 8.258565096576241e+000
 7.775437548385245e-001	 2.819760753934596e+000	 8.167753877156532e+000
 7.502466396967938e-001	 2.827146083905626e+000	 8.083524970629750e+000
 7.229505400394083e-001	 2.834249021659217e+000	 8.005763713604733e+000
 6.956595201407010e-001	 2.841070719316312e+000	 7.934400149406689e+000
 6.683776000313861e-001	 2.847612400572389e+000	 7.869408453404390e+000
 6.411087540956635e-001	 2.853875359145309e+000	 7.810806266682082e+000
 6.138569097245084e-001	 2.859860957196147e+000	 7.763378202867242e+000
 5.866259460254865e-001	 2.865570623725161e+000	 7.738179644317381e+000
 5.594196925893462e-001	 2.871005852945041e+000	 7.730546778172203e+000
 5.322419283135530e-001	 2.876168202633512e+000	 7.738724271571102e+000
 8.117167337722309e-001	 2.836126926673104e+000	 8.333002405934884e+000
 7.841894279526530e-001	 2.843861273194103e+000	 8.238854488614225e+000
 7.566590041345087e-001	 2.851309725643227e+000	 8.152660029906459e+000
 7.291296044801549e-001	 2.858473372266277e+000	 8.074293412645741e+000
 7.016053280013110e-001	 2.865353375031381e+000	 8.003673612409184e+000
 6.740902290879285e-001	 2.871950968092957e+000	 7.940763641905816e+000
 6.465883160933009e-001	 2.878267456226280e+000	 7.885569902249323e+000
 6.191035499758479e-001	 2.884304213234826e+000	 7.840738850669526e+000
 5.916398429978994e-001	 2.890062680332532e+000	 7.819305682705436e+000
 5.642010574817480e-001	 2.895544364503138e+000	 7.814188386977959e+000
 5.367910046231269e-001	 2.900750836838703e+000	 7.823542599781064e+000
 8.185956891391485e-001	 2.860161900622463e+000	 8.415557072925806e+000
 7.908351010667816e-001	 2.867961792452611e+000	 8.318412658836159e+000
 7.630713685722232e-001	 2.875473367379827e+000	 8.230531150523275e+000
 7.353086689209010e-001	 2.882697722872336e+000	 8.151775907338081e+000
 7.075511358619213e-001	 2.889636030745451e+000	 8.082054825659125e+000
 6.798028581444705e-001	 2.896289535612524e+000	 8.021319801553899e+000
 6.520678780909384e-001	 2.902659553306250e+000	 7.969566098788915e+000
 6.243501902271874e-001	 2.908747469272504e+000	 7.927155428780614e+000
 5.966537399703122e-001	 2.914554736938904e+000	 7.911020608506104e+000
 5.689824223741495e-001	 2.920082876060233e+000	 7.909801504330265e+000
 5.413400809327010e-001	 2.925333471042894e+000	 7.921562979644293e+000
 8.254746445060665e-001	 2.884196874570822e+000	 8.506149927043930e+000
 7.974807741809102e-001	 2.892062311710120e+000	 8.406343340653505e+000
 7.694837330099383e-001	 2.899637009115428e+000	 8.317048026308806e+000
 7.414877333616478e-001	 2.906922073477395e+000	 8.238116244060235e+000
 7.134969437225316e-001	 2.913918686458521e+000	 8.169444793419878e+000
 6.855154872010129e-001	 2.920628103131092e+000	 8.110974493513245e+000
 6.575474400885762e-001	 2.927051650385220e+000	 8.062689566969914e+000
 6.295968304785271e-001	 2.933190725309185e+000	 8.024616931480962e+000
 6.016676369427254e-001	 2.939046793544277e+000	 8.012607731167135e+000
 5.737637872665514e-001	 2.944621387616330e+000	 8.016709186394294e+000
 5.458891572422751e-001	 2.949916105246086e+000	 8.032147628073030e+000
 5.003983941465354e-001	 2.704089763169176e+000	 7.569336502811788e+000
 4.748769387281781e-001	 2.708688223695421e+000	 7.555444940271185e+000
 4.493892264735033e-001	 2.713033232976536e+000	 7.540031347352114e+000
 4.239386611108921e-001	 2.717126425418323e+000	 7.522561230784285e+000
 3.985285948199710e-001	 2.720969488838350e+000	 7.502704960764362e+000
 3.731623273929815e-001	 2.724564162849201e+000	 7.480334619473668e+000
 3.478431054491009e-001	 2.727912237233771e+000	 7.455520490111559e+000
 3.225741217013700e-001	 2.731015550314390e+000	 7.428527204288657e+000
 2.973585142758312e-001	 2.733875987317568e+000	 7.399809566000565e+000
 2.721993660824217e-001	 2.736495478736074e+000	 7.370008070706184e+000
 2.470997042370982e-001	 2.738875998690031e+000	 7.339944138279003e+000
 5.049474704561093e-001	 2.728672397381367e+000	 7.543432825540893e+000
 4.791940018074254e-001	 2.733312662094415e+000	 7.519387846371029e+000
 4.534745830783211e-001	 2.737697171460055e+000	 7.496352241561389e+000
 4.277926489401633e-001	 2.741827574742321e+000	 7.473707391250211e+000
 4.021515820469407e-001	 2.745705575102577e+000	 7.451043192136134e+000
 3.765547121890066e-001	 2.749332927968071e+000	 7.428154938616776e+000
 3.510053155002598e-001	 2.752711439392450e+000	 7.405039834186876e+000
 3.255066137184062e-001	 2.755842964410066e+000	 7.381893151255549e+000
 3.000617734979079e-001	 2.758729405385851e+000	 7.359104057930722e+000
 2.746739057751573e-001	 2.761372710362509e+000	 7.337251130644409e+000
 2.493460651853486e-001	 2.763774871406714e+000	 7.317097571741367e+000
 5.094965467656832e-001	 2.753255031592557e+000	 7.535348978080996e+000
 4.835110648866728e-001	 2.757937100492415e+000	 7.502149292272459e+000
 4.575599396831386e-001	 2.762361109942594e+000	 7.472285870612994e+000
 4.316466367694347e-001	 2.766528724065365e+000	 7.445055471308828e+000
 4.057745692739102e-001	 2.770441661365888e+000	 7.419967240089679e+000
 3.799470969850319e-001	 2.774101693086072e+000	 7.396739620805379e+000
 3.541675255514188e-001	 2.777510641550315e+000	 7.375296885754485e+000
 3.284391057354423e-001	 2.780670378504993e+000	 7.355765304229118e+000
 3.027650327199846e-001	 2.783582823453463e+000	 7.338468968170712e+000
 2.771484454678929e-001	 2.786249941988359e+000	 7.323925294167109e+000
 2.515924261335989e-001	 2.788673744122905e+000	 7.312840221287447e+000
 5.140456230752573e-001	 2.777837665802749e+000	 7.544407112440668e+000
 4.878281279659201e-001	 2.782561538889420e+000	 7.503084593483890e+000
 4.616452962879563e-001	 2.787025048424154e+000	 7.467221719807085e+000
 4.355006245987059e-001	 2.791229873387455e+000	 7.436030091353096e+000
 4.093975565008799e-001	 2.795177747628282e+000	 7.408937785289166e+000
 3.833394817810571e-001	 2.798870458203201e+000	 7.385586292921043e+000
 3.573297356025777e-001	 2.802309843707365e+000	 7.365827065533821e+000
 3.313715977524785e-001	 2.805497792599171e+000	 7.349717687986081e+000
 3.054682919420611e-001	 2.808436241520401e+000	 7.337517699309012e+000
 2.796229851606286e-001	 2.811127173613622e+000	 7.329684079913537e+000
 2.538387870818492e-001	 2.813572616838604e+000	 7.326866425288936e+000
 5.185946993848312e-001	 2.802420300011939e+000	 7.569935883462815e+000
 4.921451910451676e-001	 2.807185977285431e+000	 7.521555798763197e+000
 4.657306528927738e-001	 2.811688986904735e+000	 7.480556149510599e+000
 4.393546124279772e-001	 2.815931022708593e+000	 7.446062800796072e+000
 4.130205437278496e-001	 2.819913833889759e+000	 7.417422404283230e+000
 3.867318665770823e-001	 2.823639223319458e+000	 7.394199358316454e+000
 3.604919456537368e-001	 2.827109045863601e+000	 7.376172365874782e+000
 3.343040897695147e-001	 2.830325206692602e+000	 7.363330609550598e+000
 3.081715511641378e-001	 2.833289659586666e+000	 7.355869563176615e+000
 2.820975248533642e-001	 2.836004405238298e+000	 7.354186460091731e+000
 2.560851480300995e-001	 2.838471489553812e+000	 7.358875438327953e+000
 5.231437756944052e-001	 2.827002934220130e+000	 7.611270166092825e+000
 4.964622541244147e-001	 2.831810415680446e+000	 7.556931397367459e+000
 4.698160094975916e-001	 2.836352925384337e+000	 7.511692096240943e+000
 4.432086002572486e-001	 2.840632172028778e+000	 7.474591776809799e+000
 4.166435309548192e-001	 2.844649920150318e+000	 7.444895269684037e+000
 3.901242513731075e-001	 2.848407988434846e+000	 7.422089702186587e+000
 3.636541557048957e-001	 2.851908248019020e+000	 7.405881065034988e+000
 3.372365817865509e-001	 2.855152620785284e+000	 7.396190385053416e+000
 3.108748103862144e-001	 2.858143077652259e+000	 7.393149523923744e+000
 2.845720645460997e-001	 2.860881636862386e+000	 7.397096623366541e+000
 2.583315089783498e-001	 2.863370362268527e+000	 7.408571217448993e+000
 5.276928520039791e-001	 2.851585568427321e+000	 7.667750787270372e+000
 5.007793172036622e-001	 2.856434854074466e+000	 7.608586041445225e+000
 4.739013661024092e-001	 2.861016863862959e+000	 7.560038789211668e+000
 4.470625880865198e-001	 2.865333321348009e+000	 7.521061538645475e+000
 4.202665181817888e-001	 2.869386006409961e+000	 7.490836865854123e+000
 3.935166361691326e-001	 2.873176753549362e+000	 7.468774412179029e+000
 3.668163657560547e-001	 2.876707450173628e+000	 7.454507456235398e+000
 3.401690738035870e-001	 2.879980034877217e+000	 7.447889080718783e+000
 3.135780696082910e-001	 2.882996495717180e+000	 7.448987954385174e+000
 2.870466042388354e-001	 2.885758868485888e+000	 7.458083750012248e+000
 2.605778699266002e-001	 2.888269234982751e+000	 7.475662219465927e+000
 5.322419283135530e-001	 2.876168202633512e+000	 7.738724271571102e+000
 5.050963802829095e-001	 2.881059292467493e+000	 7.675900282665433e+000
 4.779867227072269e-001	 2.885680802340604e+000	 7.625011481413406e+000
 4.509165759157910e-001	 2.890034470666286e+000	 7.584922676604905e+000
 4.238895054087584e-001	 2.894122092668686e+000	 7.554733719173636e+000
 3.969090209651579e-001	 2.897945518663008e+000	 7.533776513331751e+000
 3.699785758072137e-001	 2.901506652327419e+000	 7.521611590610693e+000
 3.431015658206232e-001	 2.904807448968402e+000	 7.518024267133581e+000
 3.162813288303678e-001	 2.907849913781428e+000	 7.523020404939880e+000
 2.895211439315709e-001	 2.910636100108803e+000	 7.536821798596647e+000
 2.628242308748505e-001	 2.913168107696484e+000	 7.559861208665180e+000
 5.367910046231269e-001	 2.900750836838703e+000	 7.823542599781064e+000
 5.094134433621568e-001	 2.905683730859524e+000	 7.758260322237261e+000
 4.820720793120443e-001	 2.910344740817267e+000	 7.706031194369595e+000
 4.547705637450623e-001	 2.914735619983611e+000	 7.665631594792258e+000
 4.275124926357281e-001	 2.918858178926494e+000	 7.636078142022351e+000
 4.003014057611831e-001	 2.922714283775782e+000	 7.616624716488635e+000
 3.731407858583726e-001	 2.926305854480396e+000	 7.606759033229362e+000
 3.460340578376594e-001	 2.929634863058839e+000	 7.606198786012020e+000
 3.189845880524443e-001	 2.932703331845003e+000	 7.614887384123867e+000
 2.919956836243065e-001	 2.935513331731130e+000	 7.632989303509955e+000
 2.650705918231008e-001	 2.938066980409724e+000	 7.660885074284776e+000
 5.413400809327010e-001	 2.925333471042894e+000	 7.921562979644293e+000
 5.137305064414042e-001	 2.930308169250560e+000	 7.855057773534955e+000
 4.861574359168621e-001	 2.935008679292952e+000	 7.802524475760635e+000
 4.586245515743336e-001	 2.939436769299983e+000	 7.762650266836919e+000
 4.311354798626977e-001	 2.943594265183386e+000	 7.734367989670711e+000
 4.036937905572083e-001	 2.947483048887686e+000	 7.716853179400392e+000
 3.763029959095316e-001	 2.951105056632559e+000	 7.709520631416458e+000
 3.489665498546956e-001	 2.954462277148526e+000	 7.712020528719383e+000
 3.216878472745210e-001	 2.957556749907905e+000	 7.724234150303883e+000
 2.944702233170422e-001	 2.960390563352872e+000	 7.746269182704155e+000
 2.673169527713512e-001	 2.962965853122473e+000	 7.778454657197568e+000
 5.458891572422751e-001	 2.949916105246086e+000	 8.032147628073030e+000
 5.180475695206517e-001	 2.954932607640603e+000	 7.965689436590504e+000
 4.902427925216797e-001	 2.959672617767659e+000	 7.913923169167641e+000
 4.624785394036050e-001	 2.964137918615402e+000	 7.875446003829648e+000
 4.347584670896675e-001	 2.968330351439361e+000	 7.849106429325927e+000
 4.070861753532337e-001	 2.972251813998719e+000	 7.834001279770015e+000
 3.794652059606907e-001	 2.975904258783907e+000	 7.829472294659396e+000
 3.518990418717319e-001	 2.979289691237467e+000	 7.835102225870095e+000
 3.243911064965978e-001	 2.982410167970138e+000	 7.850710513767969e+000
 2.969447630097779e-001	 2.985267794974027e+000	 7.876348555044284e+000
 2.695633137196015e-001	 2.987864725834731e+000	 7.912294585259583e+000
 2.470997042370982e-001	 2.738875998690031e+000	 7.339944138279003e+000
 2.220624995334239e-001	 2.741019563288683e+000	 7.305485619892284e+000
 1.970906659666314e-001	 2.742928228994460e+000	 7.264910307462487e+000
 1.721870603070332e-001	 2.744604090990911e+000	 7.219556970105190e+000
 1.473544817196688e-001	 2.746049281555912e+000	 7.170929823981494e+000
 1.225956714330539e-001	 2.747265968441736e+000	 7.120692479985346e+000
 9.791331245501693e-002	 2.748256353263346e+000	 7.070661716074185e+000
 7.331002933477392e-002	 2.749022669896307e+000	 7.022801093261054e+000
 4.878838797035946e-002	 2.749567182885613e+000	 6.979214434055645e+000
 2.435089546050372e-002	 2.749892185866723e+000	 6.942139181865584e+000
 0.000000000000000e+000	 2.750000000000000e+000	 6.913939659549309e+000
 2.493460651853486e-001	 2.763774871406714e+000	 7.317097571741367e+000
 2.240812495293676e-001	 2.765937922956008e+000	 7.291478826685630e+000
 1.988823992934204e-001	 2.767863940167976e+000	 7.261393558593920e+000
 1.737523972184575e-001	 2.769555037273286e+000	 7.228143463466816e+000
 1.486940679164726e-001	 2.771013365934161e+000	 7.193199243632730e+000
 1.237101775362395e-001	 2.772241113609713e+000	 7.158194491476847e+000
 9.880343347656646e-002	 2.773240501929583e+000	 7.124919391491832e+000
 7.397648414620664e-002	 2.774013785077298e+000	 7.095314260080379e+000
 4.923191876953960e-002	 2.774563248184625e+000	 7.071462942309973e+000
 2.457226723710114e-002	 2.774891205738252e+000	 7.055586084542800e+000
 0.000000000000000e+000	 2.775000000000000e+000	 7.050034301540981e+000
 2.515924261335989e-001	 2.788673744122905e+000	 7.312840221287447e+000
 2.260999995253115e-001	 2.790856282622937e+000	 7.295316335744585e+000
 2.006741326202093e-001	 2.792799651341178e+000	 7.274779001516709e+000
 1.753177341298817e-001	 2.794505983555423e+000	 7.252494206445072e+000
 1.500336541132762e-001	 2.795977450312236e+000	 7.229900680351552e+000
 1.248246836394252e-001	 2.797216258777567e+000	 7.208603709632922e+000
 9.969355449811602e-002	 2.798224650595743e+000	 7.190368763718139e+000
 7.464293895763939e-002	 2.799004900258246e+000	 7.177114953245235e+000
 4.967544956871973e-002	 2.799559313483616e+000	 7.170908339582636e+000
 2.479363901369855e-002	 2.799890225609775e+000	 7.173955115044691e+000
 0.000000000000000e+000	 2.800000000000000e+000	 7.188594672823531e+000
 2.538387870818492e-001	 2.813572616838604e+000	 7.326866425288936e+000
 2.281187495212552e-001	 2.815774642289468e+000	 7.316726053092759e+000
 2.024658659469983e-001	 2.817735362514068e+000	 7.304828670356577e+000
 1.768830710413059e-001	 2.819456929837321e+000	 7.292405893951316e+000
 1.513732403100800e-001	 2.820941534690137e+000	 7.280865995706355e+000
 1.259391897426109e-001	 2.822191403945301e+000	 7.271787642690117e+000
 1.005836755196656e-001	 2.823208799261826e+000	 7.266913442756697e+000
 7.530939376907211e-002	 2.823996015439151e+000	 7.268143315653083e+000
 5.011898036789984e-002	 2.824555378782589e+000	 7.277527709754120e+000
 2.501501079029598e-002	 2.824889245481295e+000	 7.297260684211139e+000
 0.000000000000000e+000	 2.825000000000000e+000	 7.329672875972530e+000
 2.560851480300995e-001	 2.838471489553812e+000	 7.358875438327953e+000
 2.301374995171990e-001	 2.840693001955602e+000	 7.355440460908342e+000
 2.042575992737872e-001	 2.842671073686646e+000	 7.351308758415974e+000
 1.784484079527302e-001	 2.844407876118981e+000	 7.347678887109876e+000
 1.527128265068837e-001	 2.845905619067862e+000	 7.345930149491578e+000
 1.270536958457965e-001	 2.847166549112915e+000	 7.347616255090273e+000
 1.014737965412151e-001	 2.848192947927832e+000	 7.354458779773970e+000
 7.597584858050487e-002	 2.848987130620012e+000	 7.368340444338090e+000
 5.056251116707998e-002	 2.849551444081544e+000	 7.391298232889746e+000
 2.523638256689339e-002	 2.849888265352807e+000	 7.425516371267682e+000
 0.000000000000000e+000	 2.850000000000000e+000	 7.473319185402969e+000
 2.583315089783498e-001	 2.863370362268527e+000	 7.408571217448993e+000
 2.321562495131427e-001	 2.865611361621340e+000	 7.411196418560460e+000
 2.060493326005761e-001	 2.867606784858910e+000	 7.413989437340320e+000
 1.800137448641544e-001	 2.869358822400401e+000	 7.418117053857148e+000
 1.540524127036873e-001	 2.870869703445412e+000	 7.424931065022185e+000
 1.281682019489822e-001	 2.872141694280408e+000	 7.435961860688361e+000
 1.023639175627647e-001	 2.873177096593761e+000	 7.452911791396913e+000
 7.664230339193760e-002	 2.873978245800831e+000	 7.477648348987098e+000
 5.100604196626010e-002	 2.874547509380479e+000	 7.512197181057450e+000
 2.545775434349082e-002	 2.874887285224317e+000	 7.558734959982776e+000
 0.000000000000000e+000	 2.875000000000000e+000	 7.619582126854629e+000
 2.605778699266002e-001	 2.888269234982751e+000	 7.475662219465927e+000
 2.341749995090864e-001	 2.890529721286680e+000	 7.483734973937974e+000
 2.078410659273651e-001	 2.892542496030862e+000	 7.492644685637317e+000
 1.815790817755787e-001	 2.894309768681583e+000	 7.503527617786080e+000
 1.553919989004910e-001	 2.895833787822788e+000	 7.517709501395368e+000
 1.292827080521679e-001	 2.897116839447781e+000	 7.536699021485118e+000
 1.032540385843142e-001	 2.898161245259612e+000	 7.562181087925690e+000
 7.730875820337035e-002	 2.898969360981606e+000	 7.596009912600930e+000
 5.144957276544022e-002	 2.899543574679394e+000	 7.640201914362342e+000
 2.567912612008824e-002	 2.899886305095822e+000	 7.696928472955535e+000
 0.000000000000000e+000	 2.900000000000000e+000	 7.768508552765746e+000
 2.628242308748505e-001	 2.913168107696484e+000	 7.559861208665180e+000
 2.361937495050302e-001	 2.915448080951624e+000	 7.572801184451912e+000
 2.096327992541540e-001	 2.917478207202503e+000	 7.587052125990849e+000
 1.831444186870029e-001	 2.919260714962529e+000	 7.603721014741713e+000
 1.567315850972948e-001	 2.920797872199990e+000	 7.624108932303785e+000
 1.303972141553536e-001	 2.922091984615031e+000	 7.649704451552229e+000
 1.041441596058637e-001	 2.923145393925386e+000	 7.682176805227707e+000
 7.797521301480311e-002	 2.923960476162339e+000	 7.723368854173411e+000
 5.189310356462035e-002	 2.924539639978291e+000	 7.775289877184171e+000
 2.590049789668566e-002	 2.924885324967322e+000	 7.840108204143139e+000
 0.000000000000000e+000	 2.925000000000000e+000	 7.920143713781894e+000
 2.650705918231008e-001	 2.938066980409724e+000	 7.660885074284776e+000
 2.382124995009740e-001	 2.940366440616170e+000	 7.678143947141246e+000
 2.114245325809429e-001	 2.942413918373830e+000	 7.696992870846794e+000
 1.847097555984271e-001	 2.944211661243234e+000	 7.718510756709606e+000
 1.580711712940984e-001	 2.945761956577017e+000	 7.743975431009953e+000
 1.315117202585392e-001	 2.947067129782162e+000	 7.774856925842736e+000
 1.050342806274133e-001	 2.948129542591085e+000	 7.812810540095519e+000
 7.864166782623584e-002	 2.948951591343027e+000	 7.859669693268117e+000
 5.233663436380049e-002	 2.949535705277169e+000	 7.917438594606657e+000
 2.612186967328308e-002	 2.949884344838817e+000	 7.988284749736452e+000
 0.000000000000000e+000	 2.949999999999999e+000	 8.074531326628572e+000
 2.673169527713512e-001	 2.962965853122473e+000	 7.778454657197568e+000
 2.402312494969177e-001	 2.965284800280320e+000	 7.799515837343489e+000
 2.132162659077319e-001	 2.967349629544843e+000	 7.822251375784074e+000
 1.862750925098514e-001	 2.969162607523701e+000	 7.847713302565154e+000
 1.594107574909021e-001	 2.970726040953869e+000	 7.877157561120770e+000
 1.326262263617249e-001	 2.972042274949171e+000	 7.912037193599784e+000
 1.059244016489628e-001	 2.973113691256704e+000	 7.953995288862927e+000
 7.930812263766857e-002	 2.973942706523673e+000	 8.004857716380380e+000
 5.278016516298060e-002	 2.974531770576026e+000	 8.066625669026639e+000
 2.634324144988050e-002	 2.974883364710307e+000	 8.141468037477299e+000
 0.000000000000000e+000	 2.974999999999999e+000	 8.231713638561283e+000
 2.695633137196015e-001	 2.987864725834731e+000	 7.912294585259583e+000
 2.422499994928616e-001	 2.990203159944074e+000	 7.936672955432434e+000
 2.150079992345209e-001	 2.992285340715546e+000	 7.962615300217610e+000
 1.878404294212756e-001	 2.994113553803930e+000	 7.991147935287374e+000
 1.607503436877059e-001	 2.995690125330548e+000	 8.023506272823116e+000
 1.337407324649106e-001	 2.997017420116060e+000	 8.061127896094199e+000
 1.068145226705124e-001	 2.998097839922249e+000	 8.105645389090967e+000
 7.997457744910133e-002	 2.998933821704276e+000	 8.158878944982417e+000
 5.322369596216075e-002	 2.999527835874867e+000	 8.222828776931921e+000
 2.656461322647793e-002	 2.999882384581794e+000	 8.299667354510804e+000
 0.000000000000000e+000	 3.000000000000000e+000	 8.391731488593928e+000
 3.000000000000000e+000	 0.000000000000000e+000	 1.069025765478077e+001
 2.999882384581794e+000	 2.656461322647803e-002	 1.073874207563150e+001
 2.999527835874867e+000	 5.322369596216094e-002	 1.078040586892947e+001
 2.998933821704276e+000	 7.997457744910114e-002	 1.081544219626504e+001
 2.998097839922249e+000	 1.068145226705123e-001	 1.084402018570269e+001
 2.997017420116060e+000	 1.337407324649106e-001	 1.086628406054746e+001
 2.995690125330548e+000	 1.607503436877060e-001	 1.088235230255756e+001
 2.994113553803930e+000	 1.878404294212759e-001	 1.089231685280089e+001
 2.992285340715547e+000	 2.150079992345207e-001	 1.089624235336583e+001
 2.990203159944073e+000	 2.422499994928615e-001	 1.089416543313940e+001
 2.987864725834731e+000	 2.695633137196016e-001	 1.088609404085924e+001
 3.025000000000000e+000	 0.000000000000000e+000	 1.078006876908998e+001
 3.024881404453279e+000	 2.678598500307306e-002	 1.081742173337036e+001
 3.024523901173706e+000	 5.366722676133150e-002	 1.084861143793929e+001
 3.023924936884879e+000	 8.064103226051231e-002	 1.087382588706966e+001
 3.023081988587793e+000	 1.077046436920233e-001	 1.089322771977710e+001
 3.021992565282949e+000	 1.348552385680359e-001	 1.090695331200289e+001
 3.020654209707225e+000	 1.620899298844223e-001	 1.091511191484577e+001
 3.019064500084158e+000	 1.894057663325809e-001	 1.091778483214740e+001
 3.017221051886248e+000	 2.167997325611534e-001	 1.091502464074883e+001
 3.015121519607826e+000	 2.442687494886068e-001	 1.090685445673779e+001
 3.012763598546988e+000	 2.718096746676061e-001	 1.089326725099837e+001
 3.050000000000000e+000	 0.000000000000000e+000	 1.087268047535404e+001
 3.049880424324768e+000	 2.700735677966334e-002	 1.089843038818584e+001
 3.049519966472564e+000	 5.411075756048293e-002	 1.091869232323075e+001
 3.048916052065525e+000	 8.130748707188022e-002	 1.093364935639679e+001
 3.048066137253413e+000	 1.085947647134573e-001	 1.094345784607721e+001
 3.046967710449958e+000	 1.359697446710402e-001	 1.094824650808012e+001
 3.045618294084077e+000	 1.634295160809641e-001	 1.094811552822889e+001
 3.044015446364626e+000	 1.909711032436473e-001	 1.094313571604694e+001
 3.042156763057263e+000	 2.185914658874734e-001	 1.093334770295331e+001
 3.040039879271977e+000	 2.462874994839551e-001	 1.091876118839716e+001
 3.037662471259737e+000	 2.740560356151188e-001	 1.089935423735025e+001
 3.075000000000000e+000	 0.000000000000000e+000	 1.096799219905622e+001
 3.074879444196264e+000	 2.722872855624884e-002	 1.098168255846106e+001
 3.074516031771441e+000	 5.455428835961522e-002	 1.099057844210951e+001
 3.073907167246214e+000	 8.197394188320498e-002	 1.099485822289160e+001
 3.073050285919110e+000	 1.094848857348141e-001	 1.099467218305396e+001
 3.071942855617088e+000	 1.370842507739238e-001	 1.099014156120182e+001
 3.070582378461104e+000	 1.647691022773312e-001	 1.098135763861275e+001
 3.068966392645331e+000	 1.925364401544753e-001	 1.096838086838717e+001
 3.067092474228589e+000	 2.203831992134809e-001	 1.095124005097268e+001
 3.064958238936522e+000	 2.483062494789064e-001	 1.092993155960059e+001
 3.062561343972977e+000	 2.763023965621398e-001	 1.090441861916328e+001
 3.100000000000000e+000	 0.000000000000000e+000	 1.106590661001906e+001
 3.099878464067764e+000	 2.745010033282959e-002	 1.106709565389742e+001
 3.099512097070338e+000	 5.499781915872840e-002	 1.106420224847219e+001
 3.098898282426945e+000	 8.264039669448649e-002	 1.105740028547154e+001
 3.098034434584885e+000	 1.103750067560939e-001	 1.104683417163860e+001
 3.096918000784339e+000	 1.381987568766865e-001	 1.103261784712632e+001
 3.095546462838306e+000	 1.661086884735237e-001	 1.101483384486506e+001
 3.093917338926274e+000	 1.941017770650647e-001	 1.099353239454088e+001
 3.092028185400229e+000	 2.221749325391758e-001	 1.096873057483447e+001
 3.089876598601465e+000	 2.503249994734608e-001	 1.094041151757134e+001
 3.087460216686710e+000	 2.785487575086693e-001	 1.090852366742315e+001
 3.125000000000000e+000	 0.000000000000000e+000	 1.116632949263074e+001
 3.124877483939268e+000	 2.767147210940556e-002	 1.115458985986181e+001
 3.124508162369254e+000	 5.544134995782243e-002	 1.113949863134263e+001
 3.123889397607720e+000	 8.330685150572482e-002	 1.112122543611541e+001
 3.123018583250737e+000	 1.112651277772966e-001	 1.109990900234343e+001
 3.121893145951711e+000	 1.393132629793284e-001	 1.107565614641428e+001
 3.120510547215681e+000	 1.674482746695415e-001	 1.104854080469708e+001
 3.118868285207457e+000	 1.956671139754157e-001	 1.101860311170664e+001
 3.116963896572181e+000	 2.239666658645581e-001	 1.098584852843894e+001
 3.114794958266806e+000	 2.523437494676183e-001	 1.095024702464316e+001
 3.112359089400934e+000	 2.807951184547070e-001	 1.091173231878324e+001
 3.150000000000000e+000	 0.000000000000000e+000	 1.102609682607338e+001
 3.149876503810778e+000	 2.789284388597678e-002	 1.102854870722251e+001
 3.149504227668188e+000	 5.588488075689733e-002	 1.102890728853943e+001
 3.148880512788539e+000	 8.397330631691997e-002	 1.102664516416655e+001
 3.148002731916666e+000	 1.121552487984223e-001	 1.102126241726753e+001
 3.146868291119204e+000	 1.404277690818493e-001	 1.101228745889697e+001
 3.145474631593232e+000	 1.687878608653847e-001	 1.099927781474942e+001
 3.143819231488878e+000	 1.972324508855280e-001	 1.098182085641768e+001
 3.141899607744445e+000	 2.257583991896278e-001	 1.095953447383856e+001
 3.139713317932544e+000	 2.543624994613788e-001	 1.093206768566357e+001
 3.137257962115649e+000	 2.830414794002528e-001	 1.089910118436541e+001
 3.175000000000000e+000	 0.000000000000000e+000	 1.089361109493726e+001
 3.174875523682292e+000	 2.811421566254322e-002	 1.090857529362459e+001
 3.174500292967143e+000	 5.632841155595311e-002	 1.092102011081065e+001
 3.173871627969401e+000	 8.463976112807191e-002	 1.093040673754932e+001
 3.172986880582672e+000	 1.130453698194708e-001	 1.093622474836420e+001
 3.171843436286817e+000	 1.415422751842494e-001	 1.093799296247905e+001
 3.170438715970958e+000	 1.701274470610533e-001	 1.093526025145186e+001
 3.168770177770539e+000	 1.987977877954020e-001	 1.092760628975285e+001
 3.166835318917023e+000	 2.275501325143849e-001	 1.091464224487578e+001
 3.164631677598678e+000	 2.563812494547423e-001	 1.089601140363334e+001
 3.162156834830856e+000	 2.852878403453070e-001	 1.087138973136277e+001
 3.199999999999999e+000	 0.000000000000000e+000	 1.076878670878134e+001
 3.199874543553811e+000	 2.833558743910490e-002	 1.079565704478457e+001
 3.199496358266115e+000	 5.677194235498975e-002	 1.081956111616111e+001
 3.198862743150305e+000	 8.530621593918064e-002	 1.083994905950578e+001
 3.197971029248754e+000	 1.139354908404423e-001	 1.085630032098303e+001
 3.196818581454552e+000	 1.426567812865288e-001	 1.086812454017280e+001
 3.195402800348857e+000	 1.714670332565473e-001	 1.087496237879865e+001
 3.193721124052436e+000	 2.003631247050374e-001	 1.087638629078721e+001
 3.191771030089914e+000	 2.293418658388294e-001	 1.087200123015770e+001
 3.189550037265210e+000	 2.583999994477089e-001	 1.086144529330400e+001
 3.187055707546556e+000	 2.875342012898696e-001	 1.084439029230846e+001
 3.224999999999999e+000	 0.000000000000000e+000	 1.065154073113174e+001
 3.224873563425334e+000	 2.855695921566181e-002	 1.068970942936760e+001
 3.224492423565108e+000	 5.721547315400726e-002	 1.072444396801811e+001
 3.223853858331254e+000	 8.597267075024617e-002	 1.075518377890534e+001
 3.222955177914915e+000	 1.148256118613368e-001	 1.078139856141967e+001
 3.221793726622407e+000	 1.437712873886872e-001	 1.080258918923863e+001
 3.220366884726932e+000	 1.728066194518667e-001	 1.081828856036115e+001
 3.218672070334573e+000	 2.019284616144343e-001	 1.082806238681285e+001
 3.216706741263116e+000	 2.311335991629614e-001	 1.083150992042874e+001
 3.214468396932137e+000	 2.604187494402785e-001	 1.082826461118556e+001
 3.211954580262747e+000	 2.897805622339404e-001	 1.081799469463451e+001
 3.250000000000000e+000	 0.000000000000000e+000	 1.054179277740609e+001
 3.249872583296864e+000	 2.877833099221397e-002	 1.059065019025554e+001
 3.249488488864120e+000	 5.765900395300565e-002	 1.063558432500861e+001
 3.248844973512246e+000	 8.663912556126854e-002	 1.067602425954851e+001
 3.247939326581152e+000	 1.157157328821541e-001	 1.071143032947340e+001
 3.246768871790384e+000	 1.448857934907248e-001	 1.074129505794913e+001
 3.245330969105183e+000	 1.741462056470114e-001	 1.076514402726468e+001
 3.243623016616949e+000	 2.034937985235927e-001	 1.078253668835000e+001
 3.241642452436632e+000	 2.329253324867808e-001	 1.079306710456924e+001
 3.239386756599463e+000	 2.624374994324513e-001	 1.079636462616873e+001
 3.236853452979430e+000	 2.920269231775197e-001	 1.079209449184085e+001
 2.987864725834731e+000	 2.695633137196016e-001	 1.088609404085924e+001
 2.985267794974027e+000	 2.969447630097781e-001	 1.093138692918780e+001
 2.982410167970137e+000	 3.243911064965979e-001	 1.097009043472562e+001
 2.979289691237467e+000	 3.518990418717317e-001	 1.100205246287497e+001
 2.975904258783907e+000	 3.794652059606906e-001	 1.102708934482509e+001
 2.972251813998720e+000	 4.070861753532337e-001	 1.104498550339703e+001
 2.968330351439361e+000	 4.347584670896677e-001	 1.105549318662916e+001
 2.964137918615402e+000	 4.624785394036052e-001	 1.105833227192024e+001
 2.959672617767659e+000	 4.902427925216796e-001	 1.105319014344136e+001
 2.954932607640603e+000	 5.180475695206515e-001	 1.103972164541043e+001
 2.949916105246086e+000	 5.458891572422751e-001	 1.101754911369187e+001
 3.012763598546988e+000	 2.718096746676061e-001	 1.089326725099837e+001
 3.010145026595181e+000	 2.994193027022249e-001	 1.093196930033586e+001
 3.007263586032368e+000	 3.270943657183575e-001	 1.096479691181866e+001
 3.004117105326406e+000	 3.548315338884370e-001	 1.099158901583199e+001
 3.000703460935255e+000	 3.826274160115196e-001	 1.101215150549648e+001
 2.997020579109752e+000	 4.104785601489446e-001	 1.102625688771026e+001
 2.993066437695334e+000	 4.383814543163540e-001	 1.103364400428889e+001
 2.988839067930820e+000	 4.663325272326390e-001	 1.103401782611486e+001
 2.984336556242365e+000	 4.943281491263212e-001	 1.102704932310162e+001
 2.979557046030644e+000	 5.223646325997994e-001	 1.101237541265429e+001
 2.974498739449277e+000	 5.504382335518415e-001	 1.098959898917514e+001
 3.037662471259737e+000	 2.740560356151188e-001	 1.089935423735025e+001
 3.035022258216923e+000	 3.018938423940945e-001	 1.093147239690700e+001
 3.032117004095270e+000	 3.297976249394829e-001	 1.095844836433022e+001
 3.028944519416094e+000	 3.577640259044806e-001	 1.098011195700043e+001
 3.025502663087416e+000	 3.857896260616888e-001	 1.099625846496392e+001
 3.021789344221656e+000	 4.138709449440277e-001	 1.100664828687080e+001
 3.017802523952225e+000	 4.420044415424736e-001	 1.101100663840789e+001
 3.013540217247193e+000	 4.701865150611983e-001	 1.100902333623698e+001
 3.009000494718050e+000	 4.984135057306104e-001	 1.100035266033656e+001
 3.004181484421681e+000	 5.266816956787482e-001	 1.098461329752096e+001
 2.999081373653468e+000	 5.549873098613937e-001	 1.096138836877075e+001
 3.062561343972977e+000	 2.763023965621398e-001	 1.090441861916328e+001
 3.059899489839250e+000	 3.043683820853868e-001	 1.092997067210393e+001
 3.056970422158845e+000	 3.325008841599744e-001	 1.095113037978435e+001
 3.053771933506530e+000	 3.606965179198625e-001	 1.096771830464151e+001
 3.050301865240394e+000	 3.889518361111982e-001	 1.097951896433736e+001
 3.046558109334430e+000	 4.172633297384822e-001	 1.098628045228837e+001
 3.042538610210034e+000	 4.456274287680267e-001	 1.098771413312859e+001
 3.038241366564517e+000	 4.740405028892827e-001	 1.098349441621649e+001
 3.033664433194715e+000	 5.024988623345474e-001	 1.097325861017964e+001
 3.028805922813712e+000	 5.309987587574979e-001	 1.095660686136322e+001
 3.023664007858659e+000	 5.595363861709308e-001	 1.093310217890499e+001
 3.087460216686710e+000	 2.785487575086693e-001	 1.090852366742315e+001
 3.084776721462165e+000	 3.068429217761016e-001	 1.092753809579470e+001
 3.081823840223093e+000	 3.352041433798316e-001	 1.094292792536733e+001
 3.078599347597715e+000	 3.636290099345828e-001	 1.095450431778008e+001
 3.075101067394186e+000	 3.921140461600479e-001	 1.096204084473345e+001
 3.071326874448076e+000	 4.206557145323085e-001	 1.096527309280316e+001
 3.067274696468759e+000	 4.492504159930132e-001	 1.096389834566858e+001
 3.062942515882794e+000	 4.778944907168924e-001	 1.095757534696636e+001
 3.058328371672358e+000	 5.065842189381320e-001	 1.094592414686193e+001
 3.053430361206737e+000	 5.353158218360486e-001	 1.092852603529817e+001
 3.048246642064849e+000	 5.640854624804536e-001	 1.090492356473406e+001
 3.112359089400934e+000	 2.807951184547070e-001	 1.091173231878324e+001
 3.109653953085667e+000	 3.093174614662391e-001	 1.092424817384597e+001
 3.106677258288014e+000	 3.379074025990548e-001	 1.093392537274107e+001
 3.103426761689649e+000	 3.665615019486414e-001	 1.094056552657406e+001
 3.099900269548792e+000	 3.952762562082375e-001	 1.094393108327530e+001
 3.096095639562592e+000	 4.240480993255067e-001	 1.094374491638867e+001
 3.092010782728402e+000	 4.528734032174330e-001	 1.093968999379772e+001
 3.087643665202025e+000	 4.817484785440275e-001	 1.093140912970330e+001
 3.082992310150981e+000	 5.106695755413645e-001	 1.091850482304430e+001
 3.078054799600758e+000	 5.396328849144005e-001	 1.090053918541669e+001
 3.072829276272041e+000	 5.686345387899614e-001	 1.087703396139480e+001
 3.137257962115649e+000	 2.830414794002528e-001	 1.089910118436541e+001
 3.134531184709755e+000	 3.117920011557995e-001	 1.091414838807202e+001
 3.131530676353606e+000	 3.406106618176438e-001	 1.092363555072015e+001
 3.128254175782331e+000	 3.694939939620383e-001	 1.092733137413198e+001
 3.124699471704213e+000	 3.984384662557674e-001	 1.092529582737802e+001
 3.120864404677979e+000	 4.274404841180766e-001	 1.092181366986849e+001
 3.116746868988962e+000	 4.564963904412862e-001	 1.091521870105418e+001
 3.112344814522210e+000	 4.856024663706877e-001	 1.090513753672932e+001
 3.107656248630582e+000	 5.147549321442445e-001	 1.089115482622890e+001
 3.102679237995774e+000	 5.439499479925535e-001	 1.087281317488759e+001
 3.097411910480231e+000	 5.731836150994546e-001	 1.084961316186263e+001
 3.162156834830856e+000	 2.852878403453070e-001	 1.087138973136277e+001
 3.159408416334431e+000	 3.142665408447823e-001	 1.089429884792452e+001
 3.156384094419872e+000	 3.433139210355989e-001	 1.091131156445515e+001
 3.153081589875761e+000	 3.724264859747735e-001	 1.092220465767906e+001
 3.149498673860448e+000	 4.016006763026375e-001	 1.092678865421195e+001
 3.145633169794237e+000	 4.308328689100182e-001	 1.092490799717101e+001
 3.141482955250439e+000	 4.601193776645729e-001	 1.091644112858880e+001
 3.137045963843347e+000	 4.894564541968733e-001	 1.090130048529349e+001
 3.132320187111163e+000	 5.188402887467722e-001	 1.087943240610623e+001
 3.127303676391783e+000	 5.482670110705071e-001	 1.085081694840593e+001
 3.121994544689422e+000	 5.777326914089332e-001	 1.082283938160361e+001
 3.187055707546556e+000	 2.875342012898696e-001	 1.084439029230846e+001
 3.184285647959694e+000	 3.167410805331879e-001	 1.087461893172752e+001
 3.181237512486811e+000	 3.460171802529198e-001	 1.089859729578763e+001
 3.177909003969940e+000	 3.753589779868468e-001	 1.091611079078828e+001
 3.174297876017498e+000	 4.047628863488477e-001	 1.092697968999751e+001
 3.170401934911366e+000	 4.342252537013316e-001	 1.093105929539630e+001
 3.166219041512832e+000	 4.637423648872926e-001	 1.092824001264333e+001
 3.161747113165439e+000	 4.933104420225841e-001	 1.091844733686711e+001
 3.156984125592723e+000	 5.229256453489479e-001	 1.090164174708497e+001
 3.151928114788789e+000	 5.525840741482619e-001	 1.087781850725633e+001
 3.146577178899613e+000	 5.822817677183971e-001	 1.084700737219697e+001
 3.211954580262747e+000	 2.897805622339404e-001	 1.081799469463451e+001
 3.209162879585543e+000	 3.192156202210161e-001	 1.085499097919873e+001
 3.206090930554421e+000	 3.487204394696066e-001	 1.088536544663258e+001
 3.202736418064867e+000	 3.782914699982586e-001	 1.090891269381579e+001
 3.199097078175363e+000	 4.079250963943981e-001	 1.092546333312997e+001
 3.195170700029366e+000	 4.376176384920169e-001	 1.093488414913674e+001
 3.190955127776143e+000	 4.673653521094461e-001	 1.093707816583319e+001
 3.186448262488482e+000	 4.971644298478201e-001	 1.093198462203538e+001
 3.181648064075263e+000	 5.270110019507712e-001	 1.091957885263751e+001
 3.176552553186789e+000	 5.569011372258178e-001	 1.089987207370916e+001
 3.171159813110805e+000	 5.868308440278466e-001	 1.087291106961809e+001
 3.236853452979430e+000	 2.920269231775197e-001	 1.079209449184085e+001
 3.234040111211981e+000	 3.216901599082671e-001	 1.083529694988066e+001
 3.230944348622705e+000	 3.514236986856594e-001	 1.087148823096765e+001
 3.227563832160543e+000	 3.812239620090088e-001	 1.090047268992718e+001
 3.223896280334043e+000	 4.110873064392887e-001	 1.092209187735853e+001
 3.219939465148238e+000	 4.410100232820740e-001	 1.093622469104309e+001
 3.215691214040372e+000	 4.709883393310329e-001	 1.094278743522789e+001
 3.211149411812481e+000	 5.010184176725818e-001	 1.094173378527637e+001
 3.206312002558781e+000	 5.310963585522424e-001	 1.093305465538195e+001
 3.201176991585784e+000	 5.612182003031746e-001	 1.091677796726034e+001
 3.195742447322996e+000	 5.913799203372813e-001	 1.089296831796862e+001
 2.949916105246086e+000	 5.458891572422751e-001	 1.101754911369187e+001
 2.944621387616330e+000	 5.737637872665515e-001	 1.108182480507336e+001
 2.939046793544276e+000	 6.016676369427255e-001	 1.114364386203050e+001
 2.933190725309185e+000	 6.295968304785270e-001	 1.119551696787150e+001
 2.927051650385220e+000	 6.575474400885762e-001	 1.120762248559390e+001
 2.920628103131092e+000	 6.855154872010129e-001	 1.121613155824030e+001
 2.913918686458521e+000	 7.134969437225319e-001	 1.122120198220833e+001
 2.906922073477395e+000	 7.414877333616478e-001	 1.122299029279177e+001
 2.899637009115429e+000	 7.694837330099380e-001	 1.122165117671651e+001
 2.892062311710120e+000	 7.974807741809101e-001	 1.121733687660773e+001
 2.884196874570821e+000	 8.254746445060665e-001	 1.121019658883871e+001
 2.974498739449277e+000	 5.504382335518415e-001	 1.098959898917514e+001
 2.969159899172426e+000	 5.785451521590409e-001	 1.105728952889266e+001
 2.963538850149648e+000	 6.066815339153120e-001	 1.112317335804257e+001
 2.957633981345865e+000	 6.348434707301158e-001	 1.117003821057687e+001
 2.951443747464190e+000	 6.630270020865289e-001	 1.118236810383877e+001
 2.944966670649659e+000	 6.912281162579265e-001	 1.119134479472591e+001
 2.938201342171590e+000	 7.194427515835593e-001	 1.119714547934526e+001
 2.931146424082455e+000	 7.476667978028477e-001	 1.119994599262645e+001
 2.923800650851029e+000	 7.758960974481320e-001	 1.119992018931323e+001
 2.916162830967627e+000	 8.041264472955334e-001	 1.119723931644908e+001
 2.908231848519180e+000	 8.323535998734841e-001	 1.119207137886570e+001
 2.999081373653468e+000	 5.549873098613937e-001	 1.096138836877075e+001
 2.993698410729522e+000	 5.833265170517062e-001	 1.103313206143246e+001
 2.988030906756019e+000	 6.116954308882450e-001	 1.110373375268068e+001
 2.982077237383543e+000	 6.400901109822029e-001	 1.114434358794993e+001
 2.975835844544160e+000	 6.685065640851121e-001	 1.115691296484321e+001
 2.969305238169227e+000	 6.969407453155827e-001	 1.116637403910926e+001
 2.962483997885658e+000	 7.253885594454217e-001	 1.117292356459003e+001
 2.955370774688512e+000	 7.538458622449542e-001	 1.117675683151771e+001
 2.947964292587630e+000	 7.823084618872844e-001	 1.117806701558664e+001
 2.940263350226135e+000	 8.107721204111466e-001	 1.117704451807873e+001
 2.932266822468538e+000	 8.392325552419018e-001	 1.117387629861049e+001
 3.023664007858659e+000	 5.595363861709308e-001	 1.093310217890499e+001
 3.018236922287618e+000	 5.881078819445471e-001	 1.100953953510255e+001
 3.012522963363392e+000	 6.167093278615249e-001	 1.108551462646768e+001
 3.006520493422222e+000	 6.453367512347887e-001	 1.111834648642475e+001
 3.000227941625130e+000	 6.739861260843260e-001	 1.113115894091412e+001
 2.993643805689794e+000	 7.026533743739816e-001	 1.114110976159876e+001
 2.986766653600728e+000	 7.313343673081191e-001	 1.114841542510371e+001
 2.979595125295572e+000	 7.600249266879678e-001	 1.115329083964491e+001
 2.972127934325230e+000	 7.887208263273955e-001	 1.115594866179875e+001
 2.964363869485642e+000	 8.174177935277489e-001	 1.115659860388107e+001
 2.956301796418896e+000	 8.461115106113193e-001	 1.115544673356333e+001
 3.048246642064849e+000	 5.640854624804536e-001	 1.090492356473406e+001
 3.042775433846714e+000	 5.928892468375639e-001	 1.098669751655286e+001
 3.037015019971764e+000	 6.217232248351519e-001	 1.106870420825873e+001
 3.030963749461900e+000	 6.505833914878728e-001	 1.109195915333951e+001
 3.024620038707100e+000	 6.794656880841702e-001	 1.110500697621199e+001
 3.017982373211360e+000	 7.083660034331233e-001	 1.111544171348029e+001
 3.011049309316797e+000	 7.372801751716513e-001	 1.112349973652010e+001
 3.003819475903630e+000	 7.662039911318881e-001	 1.112941574112340e+001
 2.996291576063832e+000	 7.951331907684649e-001	 1.113342203157534e+001
 2.988464388746150e+000	 8.240634666453409e-001	 1.113574779489274e+001
 2.980336770370254e+000	 8.529904659817371e-001	 1.113661836691254e+001
 3.072829276272041e+000	 5.686345387899614e-001	 1.087703396139480e+001
 3.067313945406811e+000	 5.976706117307563e-001	 1.096479006930390e+001
 3.061507076581136e+000	 6.267371218091253e-001	 1.104920831874129e+001
 3.055407005502580e+000	 6.558300317414558e-001	 1.106509274250045e+001
 3.049012135790070e+000	 6.849452500846451e-001	 1.107835712387666e+001
 3.042320940733928e+000	 7.140786324930076e-001	 1.108925895587406e+001
 3.035331965033867e+000	 7.432259830360184e-001	 1.109805468340685e+001
 3.028043826512689e+000	 7.723830555767155e-001	 1.110499896624716e+001
 3.020455217803432e+000	 8.015455552104926e-001	 1.111034393001139e+001
 3.012564908007658e+000	 8.307091397639227e-001	 1.111433840685662e+001
 3.004371744322612e+000	 8.598694213531548e-001	 1.111722716763658e+001
 3.097411910480231e+000	 5.731836150994546e-001	 1.084961316186263e+001
 3.091852456967906e+000	 6.024519766241243e-001	 1.094399981339471e+001
 3.085999133191508e+000	 6.317510187834460e-001	 1.102181838466781e+001
 3.079850261544259e+000	 6.610766719955370e-001	 1.103765735757591e+001
 3.073404232874039e+000	 6.904248120857505e-001	 1.105110858138528e+001
 3.066659508257495e+000	 7.197912615536347e-001	 1.106244988712213e+001
 3.059614620751936e+000	 7.491717909012203e-001	 1.107195797875217e+001
 3.052268177122748e+000	 7.785621200224495e-001	 1.107990766314826e+001
 3.044618859544032e+000	 8.079579196534793e-001	 1.108657106758102e+001
 3.036665427270165e+000	 8.373548128834938e-001	 1.109221684646364e+001
 3.028406718275971e+000	 8.667483767255725e-001	 1.109710937916320e+001
 3.121994544689422e+000	 5.777326914089332e-001	 1.082283938160361e+001
 3.116390968530002e+000	 6.072333415176683e-001	 1.092450798221286e+001
 3.110491189802878e+000	 6.367649157581131e-001	 1.099381101329453e+001
 3.104293517586937e+000	 6.663233122501168e-001	 1.100956209344037e+001
 3.097796329959009e+000	 6.959043740874864e-001	 1.102315972423992e+001
 3.090998075782062e+000	 7.255038906150046e-001	 1.103490226888202e+001
 3.083897276471005e+000	 7.551175987672573e-001	 1.104508688253093e+001
 3.076492527733806e+000	 7.847411844690906e-001	 1.105400870890575e+001
 3.068782501285633e+000	 8.143702840974244e-001	 1.106196006386277e+001
 3.060765946533673e+000	 8.440004860040550e-001	 1.106922960777211e+001
 3.052441692230329e+000	 8.736273320989901e-001	 1.107610150856427e+001
 3.146577178899613e+000	 5.822817677183971e-001	 1.084700737219697e+001
 3.140929480093099e+000	 6.120147064113878e-001	 1.094482570881785e+001
 3.134983246415251e+000	 6.417788127331275e-001	 1.098962363039081e+001
 3.128736773630616e+000	 6.715699525051951e-001	 1.099006843202164e+001
 3.122188427044979e+000	 7.013839360898527e-001	 1.099440813807584e+001
 3.115336643307630e+000	 7.312165196771172e-001	 1.100650325099730e+001
 3.108179932191074e+000	 7.610634066341291e-001	 1.101731821940058e+001
 3.100716878345864e+000	 7.909202489166383e-001	 1.102716872013352e+001
 3.092946143028234e+000	 8.207826485423276e-001	 1.103636745109014e+001
 3.084866465798181e+000	 8.506461591256057e-001	 1.104522326879492e+001
 3.076476666185687e+000	 8.805062874734078e-001	 1.105404031625726e+001
 3.171159813110805e+000	 5.868308440278466e-001	 1.087291106961809e+001
 3.165467991657194e+000	 6.167960713052830e-001	 1.098121239463560e+001
 3.159475303028622e+000	 6.467927097084883e-001	 1.101496719592720e+001
 3.153180029675296e+000	 6.768165927607718e-001	 1.101743640839787e+001
 3.146580524131949e+000	 7.068634980928498e-001	 1.101671795337129e+001
 3.139675210834197e+000	 7.369291487399725e-001	 1.101317148886734e+001
 3.132462587912143e+000	 7.670092145018358e-001	 1.100717100247651e+001
 3.124941228958924e+000	 7.970993133650932e-001	 1.099925406307596e+001
 3.117109784771834e+000	 8.271950129881898e-001	 1.100964967753710e+001
 3.108966985063688e+000	 8.572918322481455e-001	 1.102004448824553e+001
 3.100511640142045e+000	 8.873852428488256e-001	 1.103076280618566e+001
 3.195742447322996e+000	 5.913799203372813e-001	 1.089296831796862e+001
 3.190006503222291e+000	 6.215774361993541e-001	 1.101142835414872e+001
 3.183967359642995e+000	 6.518066066841965e-001	 1.103204593485862e+001
 3.177623285720976e+000	 6.820632330168475e-001	 1.103686251842472e+001
 3.170972621219920e+000	 7.123430600964775e-001	 1.103856316447910e+001
 3.164013778361765e+000	 7.426417778035708e-001	 1.103751560528523e+001
 3.156745243634213e+000	 7.729550223703776e-001	 1.103410219096340e+001
 3.149165579572983e+000	 8.032783778144551e-001	 1.102872008651669e+001
 3.141273426516435e+000	 8.336073774350103e-001	 1.102178144894454e+001
 3.133067504330196e+000	 8.639375053716755e-001	 1.101371358305398e+001
 3.124546614099405e+000	 8.942641982252434e-001	 1.100610621645244e+001
 2.884196874570821e+000	 8.254746445060665e-001	 1.121019658883871e+001
 2.876039667508701e+000	 8.534610892875464e-001	 1.123085496798297e+001
 2.867589738332473e+000	 8.814358131068238e-001	 1.124975734219363e+001
 2.858846214307540e+000	 9.093944814890321e-001	 1.126692793980486e+001
 2.849808303576410e+000	 9.373327226216522e-001	 1.128238323049600e+001
 2.840475296538248e+000	 9.652461291268560e-001	 1.129613139121723e+001
 2.830846567185376e+000	 9.931302598865213e-001	 1.130817177954257e+001
 2.820921574394557e+000	 1.020980641918824e+000	 1.131849441620556e+001
 2.810699863170943e+000	 1.048792772305250e+000	 1.132707947859610e+001
 2.800181065842598e+000	 1.076562120166735e+000	 1.133389680701309e+001
 2.789364903203508e+000	 1.104284128687585e+000	 1.133890542547821e+001
 2.908231848519180e+000	 8.323535998734841e-001	 1.119207137886570e+001
 2.900006664731933e+000	 8.605732650282778e-001	 1.121175043616329e+001
 2.891486319479657e+000	 8.887811115462038e-001	 1.122977312740509e+001
 2.882669932754969e+000	 9.169727688317708e-001	 1.124618638171385e+001
 2.873556706101564e+000	 9.451438286406897e-001	 1.126102934989314e+001
 2.864145924005266e+000	 9.732898468669844e-001	 1.127433283718175e+001
 2.854436955241667e+000	 1.001406345383214e+000	 1.128611874306769e+001
 2.844429254178170e+000	 1.029488813932706e+000	 1.129639950998348e+001
 2.834122362028305e+000	 1.057532712072626e+000	 1.130517758272833e+001
 2.823515908056201e+000	 1.085533471166585e+000	 1.131244488048217e+001
 2.812609610729128e+000	 1.113486496425423e+000	 1.131818228328827e+001
 2.932266822468538e+000	 8.392325552419018e-001	 1.117387629861049e+001
 2.923973661956154e+000	 8.676854407700045e-001	 1.119280420055486e+001
 2.915382900627801e+000	 8.961264099865641e-001	 1.121018298721525e+001
 2.906493651203310e+000	 9.245510561754659e-001	 1.122608236933201e+001
 2.897305108627561e+000	 9.529549346606492e-001	 1.124056425110507e+001
 2.887816551473040e+000	 9.813335646079899e-001	 1.125368212939343e+001
 2.878027343298606e+000	 1.009682430880729e+000	 1.126548049961341e+001
 2.867936933962303e+000	 1.037996985947347e+000	 1.127599427022430e+001
 2.857544860886037e+000	 1.066272651840687e+000	 1.128524818771610e+001
 2.846850750270003e+000	 1.094504822167034e+000	 1.129325627403466e+001
 2.835854318254756e+000	 1.122688864163766e+000	 1.130002127839406e+001
 2.956301796418896e+000	 8.461115106113193e-001	 1.115544673356333e+001
 2.947940659181365e+000	 8.747976165127259e-001	 1.117383622861023e+001
 2.939279481776907e+000	 9.034717084279046e-001	 1.119079151199281e+001
 2.930317369652564e+000	 9.321293435201169e-001	 1.120640516498498e+001
 2.921053511154402e+000	 9.607660406815306e-001	 1.122076192556443e+001
 2.911487178941568e+000	 9.893772823498731e-001	 1.123393805366516e+001
 2.901617731356190e+000	 1.017958516379068e+000	 1.124600070277490e+001
 2.891444613746952e+000	 1.046505157962747e+000	 1.125700729983373e+001
 2.880967359744136e+000	 1.075012591609432e+000	 1.126700493541849e+001
 2.870185592484005e+000	 1.103476173168083e+000	 1.127602976622045e+001
 2.859099025780396e+000	 1.131891231902615e+000	 1.128410643183973e+001
 2.980336770370254e+000	 8.529904659817371e-001	 1.113661836691254e+001
 2.971907656407567e+000	 8.819097922564430e-001	 1.115466713814834e+001
 2.963176062926975e+000	 9.108170068702260e-001	 1.117140429655562e+001
 2.954141088102730e+000	 9.397076308657238e-001	 1.118694539080051e+001
 2.944801913682087e+000	 9.685771467033343e-001	 1.120139808098213e+001
 2.935157806410852e+000	 9.974210000926341e-001	 1.121486146953824e+001
 2.925208119414423e+000	 1.026234601878231e+000	 1.122742543814854e+001
 2.914952293532121e+000	 1.055013329978907e+000	 1.123916999266028e+001
 2.904389858602606e+000	 1.083752531378863e+000	 1.125016461809229e+001
 2.893520434698208e+000	 1.112447524169733e+000	 1.126046764579804e+001
 2.882343733306045e+000	 1.141093599641968e+000	 1.127012563488553e+001
 3.004371744322612e+000	 8.598694213531548e-001	 1.111722716763658e+001
 2.995874653634759e+000	 8.890219680011550e-001	 1.113511817133966e+001
 2.987072644078003e+000	 9.181623053135278e-001	 1.115182789999271e+001
 2.977964806553807e+000	 9.472859182122873e-001	 1.116749497431643e+001
 2.968550316210615e+000	 9.763882527260589e-001	 1.118225007269622e+001
 2.958828433880890e+000	 1.005464717836273e+000	 1.119621522733327e+001
 2.948798507473301e+000	 1.034510687378216e+000	 1.120950312605173e+001
 2.938459973317807e+000	 1.063521501995825e+000	 1.122221642185741e+001
 2.927812357461445e+000	 1.092492471148977e+000	 1.123444705237613e+001
 2.916855276912610e+000	 1.121418875171983e+000	 1.124627557132618e+001
 2.905588440831705e+000	 1.150295967381827e+000	 1.125777049419903e+001
 3.028406718275971e+000	 8.667483767255725e-001	 1.109710937916320e+001
 3.019841650862942e+000	 8.961341437468621e-001	 1.111501116993051e+001
 3.010969225229993e+000	 9.255076037578103e-001	 1.113186980739956e+001
 3.001788525005797e+000	 9.548642055598066e-001	 1.114784709667853e+001
 2.992298718739988e+000	 9.841993587497060e-001	 1.116309683828994e+001
 2.982499061351686e+000	 1.013508435580789e+000	 1.117776408915101e+001
 2.972388895532826e+000	 1.042786772879026e+000	 1.119198442887527e+001
 2.961967653104012e+000	 1.072029674013502e+000	 1.120588323356203e+001
 2.951234856320653e+000	 1.101232410919777e+000	 1.121957495927531e+001
 2.940190119127212e+000	 1.130390226174832e+000	 1.123316243744163e+001
 2.928833148357375e+000	 1.159498335122191e+000	 1.124673618441840e+001
 3.052441692230329e+000	 8.736273320989901e-001	 1.107610150856427e+001
 3.043808648092115e+000	 9.032463194935644e-001	 1.109416855163764e+001
 3.034865806382944e+000	 9.328529022030734e-001	 1.111133839342118e+001
 3.025612243458701e+000	 9.624424929082823e-001	 1.112779614328603e+001
 3.016047121270204e+000	 9.920104647742746e-001	 1.114371883529846e+001
 3.006169688823235e+000	 1.021552153326183e+000	 1.115927465360532e+001
 2.995979283592998e+000	 1.051062858380658e+000	 1.117462216281270e+001
 2.985475332890736e+000	 1.080537846031939e+000	 1.118990954559586e+001
 2.974657355180231e+000	 1.109972350691261e+000	 1.120527384981660e+001
 2.963524961342014e+000	 1.139361577178282e+000	 1.122084024745451e+001
 2.952077855883055e+000	 1.168700702863060e+000	 1.123672130768107e+001
 3.076476666185687e+000	 8.805062874734078e-001	 1.105404031625726e+001
 3.067775645322278e+000	 9.103584952412617e-001	 1.107241328764936e+001
 3.058762387536855e+000	 9.401982006493168e-001	 1.109004288750396e+001
 3.049435961912515e+000	 9.700207802577138e-001	 1.110713765675043e+001
 3.039795523801263e+000	 9.998215707997652e-001	 1.112389798183586e+001
 3.029840316295539e+000	 1.029595871072454e+000	 1.114051528408449e+001
 3.019569671653817e+000	 1.059338943883114e+000	 1.115717121372752e+001
 3.008983012677976e+000	 1.089046018051134e+000	 1.117403685091525e+001
 2.998079854040177e+000	 1.118712290463429e+000	 1.119127191606315e+001
 2.986859803557016e+000	 1.148332928182332e+000	 1.120902399191574e+001
 2.975322563408745e+000	 1.177903070604434e+000	 1.122742775973713e+001
 3.100511640142045e+000	 8.873852428488256e-001	 1.103076280618566e+001
 3.091742642553431e+000	 9.174706709899544e-001	 1.104956888117320e+001
 3.082658968691728e+000	 9.475434990965410e-001	 1.106779334076402e+001
 3.073259680367243e+000	 9.775990676081021e-001	 1.108566829204222e+001
 3.063543926333167e+000	 1.007632676826178e+000	 1.110341759998350e+001
 3.053510943768600e+000	 1.037639588819603e+000	 1.112125604034905e+001
 3.043160059715283e+000	 1.067615029386393e+000	 1.113938845693324e+001
 3.032490692465736e+000	 1.097554190071088e+000	 1.115800892555173e+001
 3.021502352900493e+000	 1.127452230236283e+000	 1.117729992719822e+001
 3.010194645772218e+000	 1.157304279186981e+000	 1.119743153283260e+001
 2.998567270934446e+000	 1.187105438346313e+000	 1.121856060228981e+001
 3.124546614099405e+000	 8.942641982252434e-001	 1.100610621645244e+001
 3.115709639785576e+000	 9.245828467396423e-001	 1.102545934697360e+001
 3.106555549847563e+000	 9.548887975447460e-001	 1.104440059438437e+001
 3.097083398822883e+000	 9.851773549594461e-001	 1.106318577370792e+001
 3.087292328865915e+000	 1.015443782853513e+000	 1.108206236179128e+001
 3.077181571242415e+000	 1.045683306567630e+000	 1.110126861328670e+001
 3.066750447777396e+000	 1.075891114890496e+000	 1.112103268067620e+001
 3.055998372254012e+000	 1.106062362091802e+000	 1.114157174080141e+001
 3.044924851761178e+000	 1.136192170009821e+000	 1.116309113040525e+001
 3.033529487987621e+000	 1.166275630192231e+000	 1.118578349322792e+001
 3.021811978460158e+000	 1.196307806088698e+000	 1.120982794122811e+001
 2.789364903203508e+000	 1.104284128687585e+000	 1.133890542547821e+001
 2.778251185602976e+000	 1.131954217185233e+000	 1.137544224389730e+001
 2.766839813979641e+000	 1.159567783225906e+000	 1.141085734497935e+001
 2.755130780838170e+000	 1.187120204783136e+000	 1.144505120406493e+001
 2.743124171166410e+000	 1.214606842436723e+000	 1.147791065709756e+001
 2.730820163291444e+000	 1.242023041611831e+000	 1.150930852920003e+001
 2.718219029672730e+000	 1.269364134855766e+000	 1.151137442012124e+001
 2.705321137630596e+000	 1.296625444150433e+000	 1.150183506163230e+001
 2.692126950008475e+000	 1.323802283258405e+000	 1.149238149574347e+001
 2.678637025767297e+000	 1.350889960100455e+000	 1.148304882715727e+001
 2.664852020510573e+000	 1.377883779162314e+000	 1.147386962931913e+001
 2.812609610729128e+000	 1.113486496425423e+000	 1.131818228328827e+001
 2.801403278815884e+000	 1.141387168994181e+000	 1.135502062871736e+001
 2.789896812429516e+000	 1.169230848085429e+000	 1.139112032798542e+001
 2.778090204012230e+000	 1.197012873155812e+000	 1.142639232810645e+001
 2.765983539260103e+000	 1.224728566123295e+000	 1.146073339462094e+001
 2.753576997986275e+000	 1.252373233624917e+000	 1.149043013485510e+001
 2.740870854920701e+000	 1.279942169312546e+000	 1.148154522591941e+001
 2.727865480444710e+000	 1.307430656184601e+000	 1.147300890168154e+001
 2.714561341258762e+000	 1.334833968951679e+000	 1.146486618797426e+001
 2.700959000981798e+000	 1.362147376433889e+000	 1.145715948025511e+001
 2.687059120680686e+000	 1.389366143987678e+000	 1.144992845894590e+001
 2.835854318254756e+000	 1.122688864163766e+000	 1.130002127839406e+001
 2.824555372028621e+000	 1.150820120803543e+000	 1.133717455410583e+001
 2.812953810879079e+000	 1.178893912945295e+000	 1.137397856499884e+001
 2.801049627185874e+000	 1.206905541528780e+000	 1.141035483260985e+001
 2.788842907353316e+000	 1.234850289810127e+000	 1.144621014506475e+001
 2.776333832680607e+000	 1.262723425638253e+000	 1.146155651376195e+001
 2.763522680168190e+000	 1.290520203769584e+000	 1.145351568112146e+001
 2.750409823258400e+000	 1.318235868219058e+000	 1.144612288206509e+001
 2.736995732508725e+000	 1.345865654645289e+000	 1.143943053507491e+001
 2.723280976196111e+000	 1.373404792767729e+000	 1.143348825376254e+001
 2.709266220850791e+000	 1.400848508813537e+000	 1.142834275287011e+001
 2.859099025780396e+000	 1.131891231902615e+000	 1.128410643183973e+001
 2.847707465241187e+000	 1.160253072613320e+000	 1.132158055387298e+001
 2.836010809328330e+000	 1.188556977805505e+000	 1.135910126540061e+001
 2.824009050359106e+000	 1.216798209902042e+000	 1.139660077023866e+001
 2.811702275446057e+000	 1.244972013497222e+000	 1.143399597687885e+001
 2.799090667374439e+000	 1.273073617651840e+000	 1.143419978788259e+001
 2.786174505415197e+000	 1.301098238226882e+000	 1.142714067208925e+001
 2.772954166071666e+000	 1.329041080253802e+000	 1.142102819216522e+001
 2.759430123758361e+000	 1.356897340339236e+000	 1.141592208873736e+001
 2.745602951410237e+000	 1.384662209101975e+000	 1.141187912292594e+001
 2.731473321020889e+000	 1.412330873639893e+000	 1.140895297306865e+001
 2.882343733306045e+000	 1.141093599641968e+000	 1.127012563488553e+001
 2.870859558453585e+000	 1.169686024423512e+000	 1.130791916123519e+001
 2.859067807777270e+000	 1.198220042666060e+000	 1.134616176571863e+001
 2.846968473531923e+000	 1.226690878275596e+000	 1.138479644702824e+001
 2.834561643538319e+000	 1.255093737184579e+000	 1.141534090492198e+001
 2.821847502067773e+000	 1.283423809665677e+000	 1.140822309887927e+001
 2.808826330661722e+000	 1.311676272684440e+000	 1.140227970747521e+001
 2.795498508884507e+000	 1.339846292288835e+000	 1.139758076315768e+001
 2.781864515007672e+000	 1.367929026033521e+000	 1.139419326010722e+001
 2.767924926624177e+000	 1.395919625436628e+000	 1.139218103819904e+001
 2.753680421190979e+000	 1.423813238466745e+000	 1.139160467050989e+001
 2.905588440831705e+000	 1.150295967381827e+000	 1.125777049419903e+001
 2.894011651665810e+000	 1.179118976234119e+000	 1.129587474883866e+001
 2.882124806225897e+000	 1.207883107526959e+000	 1.133483736454183e+001
 2.869927896704327e+000	 1.236583546649444e+000	 1.137461225225091e+001
 2.857421011630105e+000	 1.265215460872197e+000	 1.138965522152020e+001
 2.844604336760608e+000	 1.293774001679765e+000	 1.138349390938316e+001
 2.831478155907767e+000	 1.322254307142256e+000	 1.137879673333086e+001
 2.818042851696924e+000	 1.350651504324155e+000	 1.137564107834006e+001
 2.804298906256655e+000	 1.378960711728142e+000	 1.137410112540560e+001
 2.790246901837927e+000	 1.407177041771687e+000	 1.137424772623458e+001
 2.775887521361062e+000	 1.435295603294094e+000	 1.137614828159395e+001
 2.928833148357375e+000	 1.159498335122191e+000	 1.124673618441840e+001
 2.917163744877866e+000	 1.188551928045140e+000	 1.128513537640119e+001
 2.905181804674214e+000	 1.217546172388202e+000	 1.132480916529551e+001
 2.892887319876317e+000	 1.246476215023584e+000	 1.136572249638274e+001
 2.880280379721415e+000	 1.275337184560077e+000	 1.136496094319815e+001
 2.867361171452942e+000	 1.304124193694102e+000	 1.135988383152745e+001
 2.854129981153329e+000	 1.332832341600331e+000	 1.135655995701948e+001
 2.840587194508918e+000	 1.361456716359763e+000	 1.135507399249199e+001
 2.826733297505314e+000	 1.389992397423100e+000	 1.135550724080709e+001
 2.812568877051491e+000	 1.418434458107152e+000	 1.135793750035260e+001
 2.798094621531136e+000	 1.446777968121937e+000	 1.136243893428644e+001
 2.952077855883055e+000	 1.168700702863060e+000	 1.123672130768107e+001
 2.940315838089752e+000	 1.197984879856577e+000	 1.127539264555174e+001
 2.928238803122218e+000	 1.227209237249789e+000	 1.131576192644471e+001
 2.915846743047894e+000	 1.256368883398018e+000	 1.134695204535480e+001
 2.903139747812249e+000	 1.285458908248220e+000	 1.134113701444455e+001
 2.890118006144780e+000	 1.314474385708691e+000	 1.133726846358113e+001
 2.876781806398410e+000	 1.343410376058666e+000	 1.133544167944792e+001
 2.863131537320488e+000	 1.372261928395659e+000	 1.133574855976956e+001
 2.849167688753645e+000	 1.401024083118395e+000	 1.133827746606367e+001
 2.834890852264868e+000	 1.429691874443023e+000	 1.134311307996303e+001
 2.820301721701203e+000	 1.458260332950277e+000	 1.135033626341114e+001
 2.975322563408745e+000	 1.177903070604434e+000	 1.122742775973713e+001
 2.963467931301467e+000	 1.207417831668428e+000	 1.126634156147465e+001
 2.951295801569911e+000	 1.236872302111720e+000	 1.130738391871913e+001
 2.938806166219057e+000	 1.266261551772745e+000	 1.132283214125859e+001
 2.925999115902606e+000	 1.295580631936623e+000	 1.131806610550505e+001
 2.912874840836117e+000	 1.324824577723530e+000	 1.131552723424047e+001
 2.899433631643009e+000	 1.353988410517259e+000	 1.131531813516262e+001
 2.885675880131633e+000	 1.383067140431844e+000	 1.131753786966715e+001
 2.871602080001652e+000	 1.412055768814028e+000	 1.132228179639614e+001
 2.857212827478058e+000	 1.440949290779302e+000	 1.132964141845272e+001
 2.842508821871260e+000	 1.469742697779114e+000	 1.133970423460081e+001
 2.998567270934446e+000	 1.187105438346313e+000	 1.121856060228981e+001
 2.986620024513012e+000	 1.216850783480695e+000	 1.125768040098879e+001
 2.974352800017291e+000	 1.246535366973995e+000	 1.129936678897885e+001
 2.961765589389805e+000	 1.276154220147765e+000	 1.129923311183028e+001
 2.948858483992487e+000	 1.305702355625290e+000	 1.129563446797308e+001
 2.935631675526955e+000	 1.335174769738620e+000	 1.129454325416289e+001
 2.922085456887126e+000	 1.364566444976112e+000	 1.129606933988287e+001
 2.908220222942354e+000	 1.393872352468316e+000	 1.130031889060899e+001
 2.894036471249331e+000	 1.423087454509997e+000	 1.130739420220470e+001
 2.879534802691059e+000	 1.452206707115986e+000	 1.131739353907798e+001
 2.864715922041312e+000	 1.481225062608446e+000	 1.133041097643643e+001
 3.021811978460158e+000	 1.196307806088698e+000	 1.120982794122811e+001
 3.009772117724388e+000	 1.226283735293376e+000	 1.124911058671555e+001
 2.997409798464362e+000	 1.256198431836615e+000	 1.128103024419466e+001
 2.984725012560141e+000	 1.286046888523079e+000	 1.127604773949978e+001
 2.971717852081893e+000	 1.315824079314217e+000	 1.127373179704561e+001
 2.958388510217295e+000	 1.345524961753960e+000	 1.127420317435312e+001
 2.944737282130763e+000	 1.375144479435225e+000	 1.127757894507114e+001
 2.930764565752652e+000	 1.404677564505076e+000	 1.128397232075957e+001
 2.916470862496686e+000	 1.434119140206303e+000	 1.129349247617740e+001
 2.901856777903874e+000	 1.463464123453077e+000	 1.130624437843090e+001
 2.886923022211355e+000	 1.492707427438275e+000	 1.132232862033376e+001
 2.664852020510573e+000	 1.377883779162314e+000	 1.147386962931913e+001
 2.650772686938987e+000	 1.404779043928912e+000	 1.149015236828604e+001
 2.636399875232532e+000	 1.431571059341969e+000	 1.150403345392867e+001
 2.621734533359257e+000	 1.458255134279886e+000	 1.151552946333595e+001
 2.606777707310106e+000	 1.484826584058344e+000	 1.152465646294016e+001
 2.591530541258077e+000	 1.511280732947345e+000	 1.153142997733976e+001
 2.575994277640976e+000	 1.537612916702709e+000	 1.153586495949367e+001
 2.560170257166945e+000	 1.563818485109322e+000	 1.153797576236099e+001
 2.544059918741996e+000	 1.589892804533449e+000	 1.153777611205723e+001
 2.527664799318952e+000	 1.615831260481341e+000	 1.153527908259398e+001
 2.510986533667252e+000	 1.641629260161343e+000	 1.153049707226598e+001
 2.687059120680686e+000	 1.389366143987678e+000	 1.144992845894590e+001
 2.672862459328722e+000	 1.416485535960390e+000	 1.146808359882585e+001
 2.658369874190830e+000	 1.443500818168300e+000	 1.148392173573615e+001
 2.643582321134799e+000	 1.470407260397131e+000	 1.149743327822553e+001
 2.628500854868160e+000	 1.497200138923525e+000	 1.150860788305118e+001
 2.613126629098687e+000	 1.523874739053070e+000	 1.151743444974152e+001
 2.597460896617837e+000	 1.550426357672883e+000	 1.152390111708750e+001
 2.581505009306319e+000	 1.576850305816057e+000	 1.152799526159949e+001
 2.565260418061028e+000	 1.603141911235244e+000	 1.152970349796131e+001
 2.548728672642727e+000	 1.629296520982581e+000	 1.152901168150812e+001
 2.531911421443936e+000	 1.655309503993148e+000	 1.152590491274984e+001
 2.709266220850791e+000	 1.400848508813537e+000	 1.142834275287011e+001
 2.694952231718638e+000	 1.428192027992455e+000	 1.144766571131281e+001
 2.680339873149483e+000	 1.455430576995289e+000	 1.146475770546693e+001
 2.665430108910844e+000	 1.482559386515083e+000	 1.147958330586154e+001
 2.650224002426849e+000	 1.509573693789444e+000	 1.149210609115158e+001
 2.634722716940044e+000	 1.536468745159543e+000	 1.150228866814037e+001
 2.618927515595535e+000	 1.563239798643796e+000	 1.151009269428478e+001
 2.602839761446600e+000	 1.589882126523503e+000	 1.151547890268255e+001
 2.586460917381019e+000	 1.616391017937702e+000	 1.151840712953488e+001
 2.569792545967492e+000	 1.642761781484414e+000	 1.151883634407113e+001
 2.552836309221620e+000	 1.668989747825456e+000	 1.151672468091537e+001
 2.731473321020889e+000	 1.412330873639893e+000	 1.140895297306865e+001
 2.717042004108736e+000	 1.439898520025105e+000	 1.142875622519231e+001
 2.702309872108486e+000	 1.467360335822935e+000	 1.144641594223241e+001
 2.687277896687393e+000	 1.494711512633743e+000	 1.146187117923794e+001
 2.671947149986172e+000	 1.521947248656102e+000	 1.147505976030102e+001
 2.656318804782146e+000	 1.549062751266766e+000	 1.148591832376588e+001
 2.640394134574071e+000	 1.576053239615449e+000	 1.149438237047101e+001
 2.624174513587791e+000	 1.602913947231661e+000	 1.150038631498735e+001
 2.607661416701968e+000	 1.629640124640821e+000	 1.150386353980726e+001
 2.590856419293248e+000	 1.656227041986839e+000	 1.150474645243151e+001
 2.573761197000304e+000	 1.682669991658267e+000	 1.150296654529268e+001
 2.753680421190979e+000	 1.423813238466745e+000	 1.139160467050989e+001
 2.739131776499018e+000	 1.451605012058342e+000	 1.141121719918081e+001
 2.724279871067844e+000	 1.479290094651236e+000	 1.142877501469041e+001
 2.709125684464445e+000	 1.506863638753109e+000	 1.144419197142274e+001
 2.693670297546130e+000	 1.534320803523498e+000	 1.145738045467128e+001
 2.677914892624994e+000	 1.561656757374739e+000	 1.146825145076749e+001
 2.661860753553444e+000	 1.588866680587844e+000	 1.147671462078979e+001
 2.645509265729889e+000	 1.615945767940529e+000	 1.148267837777957e+001
 2.628861916023877e+000	 1.642889231344602e+000	 1.148604996738103e+001
 2.611920292619992e+000	 1.669692302489857e+000	 1.148673555181269e+001
 2.594686084779988e+000	 1.696350235491580e+000	 1.148464029706886e+001
 2.775887521361062e+000	 1.435295603294094e+000	 1.137614828159395e+001
 2.761221548889481e+000	 1.463311504092165e+000	 1.139491504969492e+001
 2.746249870027555e+000	 1.491219853480195e+000	 1.141171732146328e+001
 2.730973472242002e+000	 1.519015764873184e+000	 1.142644405795504e+001
 2.715393445106724e+000	 1.546694358391633e+000	 1.143898251390171e+001
 2.699510980468590e+000	 1.574250763483461e+000	 1.144921833249775e+001
 2.683327372533654e+000	 1.601680121560979e+000	 1.145703564431263e+001
 2.666844017872895e+000	 1.628977588650109e+000	 1.146231717021783e+001
 2.650062415346746e+000	 1.656138338049046e+000	 1.146494432820880e+001
 2.632984165947726e+000	 1.683157562993467e+000	 1.146479734399005e+001
 2.615610972560673e+000	 1.710030479325396e+000	 1.146175536518174e+001
 2.798094621531136e+000	 1.446777968121937e+000	 1.136243893428644e+001
 2.783311321280128e+000	 1.475017996126575e+000	 1.137972037792681e+001
 2.768219868987619e+000	 1.503149612309811e+000	 1.139512893915523e+001
 2.752821260020063e+000	 1.531167890993967e+000	 1.140852898579466e+001
 2.737116592667952e+000	 1.559067913260507e+000	 1.141978294296169e+001
 2.721107068312932e+000	 1.586844769592933e+000	 1.142875141225827e+001
 2.704793991514703e+000	 1.614493562534854e+000	 1.143529329562900e+001
 2.688178770016811e+000	 1.642009409360401e+000	 1.143926592373887e+001
 2.671262914670573e+000	 1.669387444754151e+000	 1.144052518871452e+001
 2.654048039276451e+000	 1.696622823497669e+000	 1.143892568107848e+001
 2.636535860342357e+000	 1.723710723159714e+000	 1.143432083069487e+001
 2.820301721701203e+000	 1.458260332950277e+000	 1.135033626341114e+001
 2.805401093670956e+000	 1.486724488161570e+000	 1.136550780508929e+001
 2.790189867948035e+000	 1.515079371140083e+000	 1.137889947754984e+001
 2.774669047798628e+000	 1.543320017115457e+000	 1.139035134846294e+001
 2.758839740229814e+000	 1.571441468130118e+000	 1.139970130721631e+001
 2.742703156158019e+000	 1.599438775703154e+000	 1.140678520826231e+001
 2.726260610496587e+000	 1.627307003509469e+000	 1.141143701966853e+001
 2.709513522161635e+000	 1.655041230071403e+000	 1.141348897669225e+001
 2.692463413995360e+000	 1.682636551459918e+000	 1.141277174018419e+001
 2.675111912606165e+000	 1.710088084002464e+000	 1.140911455961359e+001
 2.657460748125041e+000	 1.737390966994536e+000	 1.140234544049328e+001
 2.842508821871260e+000	 1.469742697779114e+000	 1.133970423460081e+001
 2.827490866061967e+000	 1.498430980197152e+000	 1.135215581538377e+001
 2.812159866908804e+000	 1.527009129971012e+000	 1.136292194159528e+001
 2.796516835577696e+000	 1.555472143237654e+000	 1.137181866703653e+001
 2.780562887792313e+000	 1.583815023000468e+000	 1.137865963241102e+001
 2.764299244003852e+000	 1.612032781814124e+000	 1.138325623258352e+001
 2.747727229479309e+000	 1.640120444484826e+000	 1.138541778957837e+001
 2.730848274307367e+000	 1.668073050783117e+000	 1.138495173110169e+001
 2.713663913321106e+000	 1.695885658166348e+000	 1.138166377435727e+001
 2.696175785936869e+000	 1.723553344507852e+000	 1.137535811491020e+001
 2.678385635908726e+000	 1.751071210829859e+000	 1.136583762033746e+001
 2.864715922041312e+000	 1.481225062608446e+000	 1.133041097643643e+001
 2.849580638453159e+000	 1.510137472233320e+000	 1.133954660627196e+001
 2.834129865869927e+000	 1.538938888802599e+000	 1.134709259980875e+001
 2.818364623357268e+000	 1.567624269360559e+000	 1.135284127667625e+001
 2.802286035355447e+000	 1.596188577871557e+000	 1.135658230930791e+001
 2.785895331850432e+000	 1.624626787925845e+000	 1.135810291387462e+001
 2.769193848462869e+000	 1.652933885460923e+000	 1.135718804748986e+001
 2.752183026454008e+000	 1.681104871495543e+000	 1.135362061143717e+001
 2.734864412647811e+000	 1.709134764873439e+000	 1.134718166015321e+001
 2.717239659268562e+000	 1.737018605013831e+000	 1.133765061568331e+001
 2.699310523693410e+000	 1.764751454665686e+000	 1.132480548730995e+001
 2.886923022211355e+000	 1.492707427438275e+000	 1.132232862033376e+001
 2.871670410844536e+000	 1.521843964270075e+000	 1.132756594565817e+001
 2.856099864831404e+000	 1.550868647634841e+000	 1.133131085875463e+001
 2.840212411137345e+000	 1.579776395484173e+000	 1.133333221839298e+001
 2.824009182919216e+000	 1.608562132743385e+000	 1.133339600272364e+001
 2.807491419697759e+000	 1.637220794038314e+000	 1.133126552365270e+001
 2.790660467447267e+000	 1.665747326437760e+000	 1.132670164801921e+001
 2.773517778601557e+000	 1.694136692208680e+000	 1.131946302529031e+001
 2.756064911975476e+000	 1.722383871581193e+000	 1.130930632147233e+001
 2.738303532601247e+000	 1.750483865520404e+000	 1.129598645891737e+001
 2.720235411479095e+000	 1.778431698502015e+000	 1.127925686168757e+001
 2.510986533667252e+000	 1.641629260161343e+000	 1.153049707226598e+001
 2.494026854062975e+000	 1.667282235046092e+000	 1.150265950125864e+001
 2.476787589899573e+000	 1.692785643433693e+000	 1.149177055827990e+001
 2.459270667218596e+000	 1.718134973003829e+000	 1.148344031872263e+001
 2.441478108159864e+000	 1.743325743364769e+000	 1.147794239672761e+001
 2.423412030331897e+000	 1.768353508590088e+000	 1.147554969204728e+001
 2.405074646102547e+000	 1.793213859741616e+000	 1.147653404534061e+001
 2.386468261810128e+000	 1.817902427375696e+000	 1.148116589043486e+001
 2.367595276895474e+000	 1.842414884029853e+000	 1.148971390418591e+001
 2.348458182955457e+000	 1.866746946686970e+000	 1.150244465458379e+001
 2.329059562718645e+000	 1.890894379214094e+000	 1.147314652394779e+001
 2.531911421443936e+000	 1.655309503993148e+000	 1.152590491274984e+001
 2.514810411176357e+000	 1.681176253668529e+000	 1.149574949670799e+001
 2.497427486478374e+000	 1.706892190459319e+000	 1.147047716897766e+001
 2.479764589441885e+000	 1.732452764442532e+000	 1.146739741115187e+001
 2.461823759057878e+000	 1.757853457889840e+000	 1.146742482085961e+001
 2.443607130581607e+000	 1.783089787825432e+000	 1.147084018310895e+001
 2.425116934817322e+000	 1.808157308569985e+000	 1.147792303699910e+001
 2.406355497322827e+000	 1.833051614267811e+000	 1.148895131701371e+001
 2.387325237534295e+000	 1.857768341394250e+000	 1.150420099204622e+001
 2.368028667811903e+000	 1.882303171240376e+000	 1.150279500181566e+001
 2.348468392406961e+000	 1.906651832372125e+000	 1.145644347789918e+001
 2.552836309221620e+000	 1.668989747825456e+000	 1.151672468091537e+001
 2.535593968290734e+000	 1.695070272291373e+000	 1.149247417832629e+001
 2.518067383058155e+000	 1.720998737485267e+000	 1.146997757173814e+001
 2.500258511666131e+000	 1.746770555881482e+000	 1.144940445627657e+001
 2.482169409956812e+000	 1.772381172415094e+000	 1.145470925902407e+001
 2.463802230832191e+000	 1.797826067060902e+000	 1.146401914818311e+001
 2.445159223532919e+000	 1.823100757398434e+000	 1.147728335546688e+001
 2.426242732836283e+000	 1.848200801159972e+000	 1.149478730284782e+001
 2.407055198173796e+000	 1.873121798758668e+000	 1.151681424121502e+001
 2.387599152668946e+000	 1.897859395793786e+000	 1.147774513043560e+001
 2.367877222095776e+000	 1.922409285530155e+000	 1.143845706436560e+001
 2.573761197000304e+000	 1.682669991658267e+000	 1.150296654529268e+001
 2.556377525406104e+000	 1.708964290914625e+000	 1.148474697486662e+001
 2.538707279638917e+000	 1.735105284511537e+000	 1.146857194904945e+001
 2.520752433891332e+000	 1.761088347320680e+000	 1.145461625771565e+001
 2.502515060856666e+000	 1.786908886940528e+000	 1.144305074847042e+001
 2.483997331083652e+000	 1.812562346296498e+000	 1.145510193224766e+001
 2.465201512249337e+000	 1.838044206226964e+000	 1.147462761195343e+001
 2.446129968350495e+000	 1.863349988052179e+000	 1.149868380433234e+001
 2.426785158813979e+000	 1.888475256123106e+000	 1.148893123981353e+001
 2.407169637526585e+000	 1.913415620347201e+000	 1.145124042447646e+001
 2.387286051785095e+000	 1.938166738688187e+000	 1.141910437393900e+001
 2.594686084779988e+000	 1.696350235491580e+000	 1.148464029706886e+001
 2.577161082522472e+000	 1.722858309538284e+000	 1.147257486143601e+001
 2.559347176220658e+000	 1.749211831538130e+000	 1.146284270192574e+001
 2.541246356117488e+000	 1.775406138760124e+000	 1.145562373453962e+001
 2.522860711757442e+000	 1.801436601466145e+000	 1.145109366916240e+001
 2.504192431335988e+000	 1.827298625532221e+000	 1.144942379720602e+001
 2.485243800966575e+000	 1.852987655055575e+000	 1.146996856846302e+001
 2.466017203865462e+000	 1.878499174944431e+000	 1.149064771987165e+001
 2.446515119454843e+000	 1.903828713487564e+000	 1.145402382575828e+001
 2.426740122384820e+000	 1.928971844900622e+000	 1.142320030424523e+001
 2.406694881474913e+000	 1.953924191846217e+000	 1.139830294110647e+001
 2.615610972560673e+000	 1.710030479325396e+000	 1.146175536518174e+001
 2.597944639639833e+000	 1.736752328162351e+000	 1.145596454213083e+001
 2.579987072803379e+000	 1.763318378565045e+000	 1.145279389081331e+001
 2.561740278344600e+000	 1.789723930199816e+000	 1.145242838619135e+001
 2.543206362659138e+000	 1.815964315991943e+000	 1.145504853406613e+001
 2.524387531589200e+000	 1.842034904768069e+000	 1.146083015157784e+001
 2.505286089684636e+000	 1.867931103884267e+000	 1.146994415346641e+001
 2.485904439381187e+000	 1.893648361836729e+000	 1.144745650795676e+001
 2.466245080096388e+000	 1.919182170852043e+000	 1.141741577062405e+001
 2.446310607243651e+000	 1.944528069454047e+000	 1.139354455028224e+001
 2.426103711165233e+000	 1.969681645004247e+000	 1.137597072649450e+001
 2.636535860342357e+000	 1.723710723159714e+000	 1.143432083069487e+001
 2.618728196758190e+000	 1.750646346786826e+000	 1.143492246079120e+001
 2.600626969387082e+000	 1.777424925592283e+000	 1.143842940099500e+001
 2.582234200572667e+000	 1.804041721639754e+000	 1.144503161946994e+001
 2.563552013561753e+000	 1.830492030517922e+000	 1.145491435293200e+001
 2.544582631843289e+000	 1.856771184004044e+000	 1.146825788007192e+001
 2.525328378403515e+000	 1.882874552713040e+000	 1.146273801454811e+001
 2.505791674897666e+000	 1.908797548729072e+000	 1.140958288923569e+001
 2.485975040738615e+000	 1.934535628216541e+000	 1.137902908657798e+001
 2.465881092103079e+000	 1.960084294007477e+000	 1.136219328906614e+001
 2.445512540856055e+000	 1.985439098162278e+000	 1.135202609995867e+001
 2.657460748125041e+000	 1.737390966994536e+000	 1.140234544049328e+001
 2.639511753877541e+000	 1.764540365411708e+000	 1.140945481124731e+001
 2.621266865971764e+000	 1.791531472619843e+000	 1.141975294948643e+001
 2.602728122801689e+000	 1.818359513079940e+000	 1.143343475217807e+001
 2.583897664465291e+000	 1.845019745044084e+000	 1.145069012326847e+001
 2.564777732098252e+000	 1.871507463240145e+000	 1.147170374009219e+001
 2.545370667123217e+000	 1.897818001541894e+000	 1.143150208159035e+001
 2.525678910414902e+000	 1.923946735621460e+000	 1.138609288573903e+001
 2.505705001381524e+000	 1.949889085581060e+000	 1.134577317503899e+001
 2.485451576963103e+000	 1.975640518560913e+000	 1.132906697939431e+001
 2.464921370547378e+000	 2.001196551320309e+000	 1.132638782447229e+001
 2.678385635908726e+000	 1.751071210829859e+000	 1.136583762033746e+001
 2.660295310997888e+000	 1.778434384036998e+000	 1.137956754708538e+001
 2.641906762557427e+000	 1.805638019647725e+000	 1.139676809160893e+001
 2.623222045031667e+000	 1.832677304520372e+000	 1.141763901659850e+001
 2.604243315369748e+000	 1.859547459570427e+000	 1.144237483082007e+001
 2.584972832354091e+000	 1.886243742476373e+000	 1.143908526722503e+001
 2.565412955843738e+000	 1.912761450370828e+000	 1.139645217290143e+001
 2.545566145932895e+000	 1.939095922513895e+000	 1.135886722191732e+001
 2.525434962025113e+000	 1.965242542945600e+000	 1.132665958696207e+001
 2.505022061823724e+000	 1.991196743114353e+000	 1.130015460732308e+001
 2.484330200239203e+000	 2.016954004478340e+000	 1.129897504077015e+001
 2.699310523693410e+000	 1.764751454665686e+000	 1.132480548730995e+001
 2.681078868119230e+000	 1.792328402662695e+000	 1.134526639095948e+001
 2.662546659144069e+000	 1.819744566675930e+000	 1.136947822725676e+001
 2.643715967262600e+000	 1.846995095961051e+000	 1.139764556280880e+001
 2.624588966275126e+000	 1.874075174096952e+000	 1.142996745002345e+001
 2.605167932610806e+000	 1.900980021712726e+000	 1.139260550502523e+001
 2.585455244565083e+000	 1.927704899199844e+000	 1.135759543967791e+001
 2.565453381451643e+000	 1.954245109406375e+000	 1.132791052150953e+001
 2.545164922669383e+000	 1.980596000310159e+000	 1.130388785019493e+001
 2.524592546684941e+000	 2.006752967667799e+000	 1.128586049271191e+001
 2.503739029931528e+000	 2.032711457636371e+000	 1.127415697049446e+001
 2.720235411479095e+000	 1.778431698502015e+000	 1.127925686168757e+001
 2.701862425241567e+000	 1.806222421288800e+000	 1.130655684347354e+001
 2.683186555731693e+000	 1.833851113704457e+000	 1.133788660687507e+001
 2.664209889494488e+000	 1.861312887401978e+000	 1.137345546184299e+001
 2.644934617181425e+000	 1.888602888623658e+000	 1.137481136799791e+001
 2.625363032868398e+000	 1.915716300949207e+000	 1.134224999834705e+001
 2.605497533287247e+000	 1.942648348028941e+000	 1.131493915172664e+001
 2.585340616971148e+000	 1.969394296298900e+000	 1.129322758810472e+001
 2.564894883314335e+000	 1.995949457674740e+000	 1.127746036431678e+001
 2.544163031546755e+000	 2.022309192221251e+000	 1.126797830807465e+001
 2.523147859624355e+000	 2.048468910794402e+000	 1.126511749203059e+001
 2.329059562718645e+000	 1.890894379214094e+000	 1.147314652394779e+001
 2.309402088944092e+000	 1.914852994773596e+000	 1.143134623883979e+001
 2.289488523243476e+000	 1.938618658202153e+000	 1.139275228616090e+001
 2.269321714828176e+000	 1.962187288355787e+000	 1.135724667439411e+001
 2.248904599182742e+000	 1.985554860419452e+000	 1.132470435910802e+001
 2.228240196665399e+000	 2.008717408176743e+000	 1.129499343661378e+001
 2.207331611037153e+000	 2.031671026237589e+000	 1.126797535339239e+001
 2.186182027921017e+000	 2.054411872221357e+000	 1.124350513086514e+001
 2.164794713192912e+000	 2.076936168892773e+000	 1.122143160503289e+001
 2.143173011305966e+000	 2.099240206248227e+000	 1.120159768046587e+001
 2.121320343550000e+000	 2.121320343550000e+000	 1.118384059808064e+001
 2.348468392406961e+000	 1.906651832372125e+000	 1.145644347789918e+001
 2.328647106351446e+000	 1.930810103061539e+000	 1.141621363786086e+001
 2.308567594270409e+000	 1.954773813685585e+000	 1.137893070032638e+001
 2.288232729118653e+000	 1.978538849090749e+000	 1.134447502687664e+001
 2.267645470843101e+000	 2.002101150921862e+000	 1.131272008139821e+001
 2.246808864971628e+000	 2.025456719910714e+000	 1.128353262757099e+001
 2.225726041129918e+000	 2.048601618122318e+000	 1.125677294207488e+001
 2.204400211487839e+000	 2.071531971156200e+000	 1.123229504307870e+001
 2.182834669136945e+000	 2.094243970300128e+000	 1.120994693352765e+001
 2.161032786400810e+000	 2.116733874633796e+000	 1.118957085870074e+001
 2.138998013080000e+000	 2.138998013080000e+000	 1.117100357746507e+001
 2.367877222095776e+000	 1.922409285530155e+000	 1.143845706436560e+001
 2.347892123759207e+000	 1.946767211349483e+000	 1.139984798754717e+001
 2.327646665297662e+000	 1.970928969169017e+000	 1.136393597120192e+001
 2.307143743409376e+000	 1.994890409825711e+000	 1.133059966487124e+001
 2.286386342503640e+000	 2.018647441424272e+000	 1.129971096707373e+001
 2.265377533277983e+000	 2.042196031644684e+000	 1.127113522670846e+001
 2.244120471222762e+000	 2.065532210007047e+000	 1.124473146013927e+001
 2.222618395054706e+000	 2.088652070091044e+000	 1.122035258351415e+001
 2.200874625080999e+000	 2.111551771707485e+000	 1.119784565982566e+001
 2.178892561495658e+000	 2.134227543019364e+000	 1.117705216017371e+001
 2.156675682610000e+000	 2.156675682610000e+000	 1.115780823864733e+001
 2.387286051785095e+000	 1.938166738688187e+000	 1.141910437393900e+001
 2.367137141167375e+000	 1.962724319637426e+000	 1.138216552735113e+001
 2.346725736325238e+000	 1.987084124652448e+000	 1.134768337471100e+001
 2.326054757700345e+000	 2.011241970560673e+000	 1.131553478828543e+001
 2.305127214164361e+000	 2.035193731926682e+000	 1.128559002749420e+001
 2.283946201584464e+000	 2.058935343378656e+000	 1.125771294431447e+001
 2.262514901315687e+000	 2.082462801891776e+000	 1.123176120434200e+001
 2.240836578621618e+000	 2.105772169025888e+000	 1.120758652305278e+001
 2.218914581025073e+000	 2.128859573114841e+000	 1.118503491676175e+001
 2.196752336590512e+000	 2.151721211404932e+000	 1.116394696772902e+001
 2.174353352140000e+000	 2.174353352140000e+000	 1.114415810281968e+001
 2.406694881474913e+000	 1.953924191846217e+000	 1.139830294110647e+001
 2.386382158575948e+000	 1.978681427925369e+000	 1.136308297501205e+001
 2.365804807353134e+000	 2.003239280135879e+000	 1.133008870439880e+001
 2.344965771991560e+000	 2.027593531295636e+000	 1.129919515891352e+001
 2.323868085825262e+000	 2.051740022429092e+000	 1.127027088508612e+001
 2.302514869891070e+000	 2.075674655112627e+000	 1.124317815582114e+001
 2.280909331408693e+000	 2.099393393776504e+000	 1.121777319553500e+001
 2.259054762188574e+000	 2.122892267960731e+000	 1.119390642047297e+001
 2.236954536969167e+000	 2.146167374522197e+000	 1.117142269369137e+001
 2.214612111685371e+000	 2.169214879790501e+000	 1.115016159414579e+001
 2.192031021670000e+000	 2.192031021670000e+000	 1.112995769927977e+001
 2.426103711165233e+000	 1.969681645004247e+000	 1.137597072649450e+001
 2.405627175984928e+000	 1.994638536213313e+000	 1.134251750742494e+001
 2.384883878381352e+000	 2.019394435619311e+000	 1.131106825072731e+001
 2.363876786283021e+000	 2.043945092030598e+000	 1.128149607796112e+001
 2.342608957486344e+000	 2.068286312931502e+000	 1.125366774890038e+001
 2.321083538197802e+000	 2.092413966846599e+000	 1.122744387519853e+001
 2.299303761501779e+000	 2.116323985661233e+000	 1.120267914970183e+001
 2.277272945755577e+000	 2.140012366895575e+000	 1.117922259093424e+001
 2.254994492913282e+000	 2.163475175929552e+000	 1.115691780222963e+001
 2.232471886780234e+000	 2.186708548176069e+000	 1.113560324494043e+001
 2.209708691200000e+000	 2.209708691200000e+000	 1.111511252510655e+001
 2.445512540856055e+000	 1.985439098162278e+000	 1.135202609995867e+001
 2.424872193394315e+000	 2.010595644501256e+000	 1.132038674241990e+001
 2.403962949409890e+000	 2.035549591102742e+000	 1.129053878135627e+001
 2.382787800574729e+000	 2.060296652765560e+000	 1.126235336463981e+001
 2.361349829147607e+000	 2.084832603433911e+000	 1.123569539133336e+001
 2.339652206504660e+000	 2.109153278580569e+000	 1.121042372961606e+001
 2.317698191594945e+000	 2.133254577545962e+000	 1.118639145037309e+001
 2.295491129322625e+000	 2.157132465830419e+000	 1.116344607596218e+001
 2.273034448857415e+000	 2.180782977336909e+000	 1.114142984362210e+001
 2.250331661875104e+000	 2.204202216561638e+000	 1.112017998294081e+001
 2.227386360730000e+000	 2.227386360730000e+000	 1.109952900675623e+001
 2.464921370547378e+000	 2.001196551320309e+000	 1.132638782447229e+001
 2.444117210804107e+000	 2.026552752789199e+000	 1.129660872140248e+001
 2.423042020438750e+000	 2.051704746586175e+000	 1.126841752235606e+001
 2.401698814866681e+000	 2.076648213500522e+000	 1.124168333577341e+001
 2.380090700809050e+000	 2.101378893936321e+000	 1.121626912594807e+001
 2.358220874811643e+000	 2.125892590314541e+000	 1.119203193530059e+001
 2.336092621688192e+000	 2.150185169430690e+000	 1.116882312234505e+001
 2.313709312889718e+000	 2.174252564765263e+000	 1.114648861485139e+001
 2.291074404801570e+000	 2.198090778744265e+000	 1.112486917765686e+001
 2.268191436969977e+000	 2.221695884947206e+000	 1.110380069453349e+001
 2.245064030260000e+000	 2.245064030260000e+000	 1.108311446347249e+001
 2.484330200239203e+000	 2.016954004478340e+000	 1.129897504077015e+001
 2.463362228214306e+000	 2.042509861077142e+000	 1.127110189280779e+001
 2.442121091467931e+000	 2.067859902069606e+000	 1.124462214030088e+001
 2.420609829158880e+000	 2.092999774235484e+000	 1.121940278635974e+001
 2.398831572470674e+000	 2.117925184438732e+000	 1.119530478633482e+001
 2.376789543118751e+000	 2.142631902048512e+000	 1.117218327452651e+001
 2.354487051781519e+000	 2.167115761315419e+000	 1.114988780663026e+001
 2.331927496456856e+000	 2.191372663700107e+000	 1.112826261740877e+001
 2.309114360745745e+000	 2.215398580151621e+000	 1.110714689303402e+001
 2.286051212064856e+000	 2.239189553332774e+000	 1.108637505749385e+001
 2.262741699790000e+000	 2.262741699790000e+000	 1.106577707241221e+001
 2.503739029931528e+000	 2.032711457636371e+000	 1.127415697049446e+001
 2.482607245624910e+000	 2.058466969365085e+000	 1.124378509632417e+001
 2.461200162497433e+000	 2.084015057553037e+000	 1.121907072519505e+001
 2.439520843451326e+000	 2.109351334970447e+000	 1.119542897103700e+001
 2.417572444132480e+000	 2.134471474941141e+000	 1.117271870595502e+001
 2.395358211425986e+000	 2.159371213782483e+000	 1.115079307367579e+001
 2.372881481874926e+000	 2.184046353200148e+000	 1.112949973657306e+001
 2.350145680024039e+000	 2.208492762634951e+000	 1.110868113796481e+001
 2.327154316689939e+000	 2.232706381558977e+000	 1.108817477911337e+001
 2.303910987159740e+000	 2.256683221718343e+000	 1.106781351031179e+001
 2.280419369320000e+000	 2.280419369320000e+000	 1.104742583539281e+001
 2.523147859624355e+000	 2.048468910794402e+000	 1.126511749203059e+001
 2.501852263035922e+000	 2.074424077653029e+000	 1.121674429806871e+001
 2.480279233527257e+000	 2.100170213036469e+000	 1.119168177418718e+001
 2.458431857744017e+000	 2.125702895705409e+000	 1.116967958640514e+001
 2.436313315794466e+000	 2.151017765443552e+000	 1.114842769891551e+001
 2.413926879733346e+000	 2.176110525516454e+000	 1.112777718231091e+001
 2.391275911968414e+000	 2.200976945084877e+000	 1.110757371506777e+001
 2.368363863591268e+000	 2.225612861569795e+000	 1.108765785058405e+001
 2.345194272634154e+000	 2.250014182966334e+000	 1.106786529896572e+001
 2.321770762254630e+000	 2.274176890103913e+000	 1.104802722293369e+001
 2.298097038850000e+000	 2.298097038850000e+000	 1.102797054717463e+001
 2.121320343550000e+000	 2.121320343550000e+000	 1.118384059808064e+001
 2.099240206248228e+000	 2.143173011305966e+000	 1.115092512762434e+001
 2.076936168892773e+000	 2.164794713192911e+000	 1.111635607993995e+001
 2.054411872221356e+000	 2.186182027921017e+000	 1.107997873033015e+001
 2.031671026237590e+000	 2.207331611037154e+000	 1.104163734568741e+001
 2.008717408176743e+000	 2.228240196665399e+000	 1.100117548157200e+001
 1.985554860419452e+000	 2.248904599182742e+000	 1.095843628427397e+001
 1.962187288355787e+000	 2.269321714828175e+000	 1.091326279711234e+001
 1.938618658202153e+000	 2.289488523243476e+000	 1.086549827020997e+001
 1.914852994773596e+000	 2.309402088944092e+000	 1.081498647296785e+001
 1.890894379214094e+000	 2.329059562718646e+000	 1.076157200845273e+001
 2.138998013080000e+000	 2.138998013080000e+000	 1.117100357746507e+001
 2.116733874633795e+000	 2.161032786400810e+000	 1.113774771167391e+001
 2.094243970300128e+000	 2.182834669136945e+000	 1.110341184040639e+001
 2.071531971156200e+000	 2.204400211487839e+000	 1.106783328665452e+001
 2.048601618122318e+000	 2.225726041129918e+000	 1.103084777003279e+001
 2.025456719910714e+000	 2.246808864971628e+000	 1.099228971664981e+001
 2.002101150921862e+000	 2.267645470843101e+000	 1.095199257483458e+001
 1.978538849090749e+000	 2.288232729118653e+000	 1.090978913594049e+001
 1.954773813685585e+000	 2.308567594270409e+000	 1.086551185943318e+001
 1.930810103061539e+000	 2.328647106351446e+000	 1.081899320145264e+001
 1.906651832372125e+000	 2.348468392406962e+000	 1.077006594602788e+001
 2.156675682610000e+000	 2.156675682610000e+000	 1.115780823864733e+001
 2.134227543019364e+000	 2.178892561495658e+000	 1.112417200609906e+001
 2.111551771707485e+000	 2.200874625080999e+000	 1.109002407091495e+001
 2.088652070091043e+000	 2.222618395054705e+000	 1.105519375646727e+001
 2.065532210007047e+000	 2.244120471222762e+000	 1.101950818944683e+001
 2.042196031644685e+000	 2.265377533277983e+000	 1.098279262263437e+001
 2.018647441424272e+000	 2.286386342503640e+000	 1.094487076439677e+001
 1.994890409825711e+000	 2.307143743409375e+000	 1.090556511410128e+001
 1.970928969169016e+000	 2.327646665297662e+000	 1.086469730262135e+001
 1.946767211349483e+000	 2.347892123759207e+000	 1.082208843709037e+001
 1.922409285530155e+000	 2.367877222095777e+000	 1.077755944904622e+001
 2.174353352140000e+000	 2.174353352140000e+000	 1.114415810281968e+001
 2.151721211404932e+000	 2.196752336590512e+000	 1.111010400381679e+001
 2.128859573114841e+000	 2.218914581025073e+000	 1.107610146258625e+001
 2.105772169025888e+000	 2.240836578621618e+000	 1.104197175363324e+001
 2.082462801891776e+000	 2.262514901315687e+000	 1.100753336298304e+001
 2.058935343378656e+000	 2.283946201584464e+000	 1.097260232396054e+001
 2.035193731926682e+000	 2.305127214164361e+000	 1.093699256056472e+001
 2.011241970560673e+000	 2.326054757700345e+000	 1.090051623760178e+001
 1.987084124652448e+000	 2.346725736325238e+000	 1.086298411671660e+001
 1.962724319637426e+000	 2.367137141167375e+000	 1.082420591744574e+001
 1.938166738688187e+000	 2.387286051785094e+000	 1.078399068239789e+001
 2.192031021670000e+000	 2.192031021670000e+000	 1.112995769927977e+001
 2.169214879790501e+000	 2.214612111685371e+000	 1.109545064536204e+001
 2.146167374522197e+000	 2.236954536969167e+000	 1.106155358746580e+001
 2.122892267960732e+000	 2.259054762188575e+000	 1.102807970007740e+001
 2.099393393776504e+000	 2.280909331408693e+000	 1.099483877875633e+001
 2.075674655112627e+000	 2.302514869891070e+000	 1.096163758903313e+001
 2.051740022429092e+000	 2.323868085825262e+000	 1.092828022377421e+001
 2.027593531295636e+000	 2.344965771991560e+000	 1.089456846814421e+001
 2.003239280135879e+000	 2.365804807353134e+000	 1.086030217127501e+001
 1.978681427925369e+000	 2.386382158575948e+000	 1.082527962372806e+001
 1.953924191846217e+000	 2.406694881474913e+000	 1.078929793982062e+001
 2.209708691200000e+000	 2.209708691200000e+000	 1.111511252510655e+001
 2.186708548176069e+000	 2.232471886780235e+000	 1.108011978098283e+001
 2.163475175929553e+000	 2.254994492913281e+000	 1.104629086328690e+001
 2.140012366895575e+000	 2.277272945755577e+000	 1.101343079346257e+001
 2.116323985661233e+000	 2.299303761501779e+000	 1.098134062478049e+001
 2.092413966846598e+000	 2.321083538197802e+000	 1.094981780446837e+001
 2.068286312931502e+000	 2.342608957486344e+000	 1.091865654517929e+001
 2.043945092030598e+000	 2.363876786283021e+000	 1.088764820489823e+001
 2.019394435619311e+000	 2.384883878381352e+000	 1.085658167436207e+001
 1.994638536213312e+000	 2.405627175984928e+000	 1.082524377104547e+001
 1.969681645004248e+000	 2.426103711165233e+000	 1.079341963874571e+001
 2.227386360730000e+000	 2.227386360730000e+000	 1.109952900675623e+001
 2.204202216561638e+000	 2.250331661875104e+000	 1.106402013454059e+001
 2.180782977336909e+000	 2.273034448857415e+000	 1.103022451991171e+001
 2.157132465830419e+000	 2.295491129322625e+000	 1.099793897640597e+001
 2.133254577545962e+000	 2.317698191594946e+000	 1.096695576119451e+001
 2.109153278580569e+000	 2.339652206504660e+000	 1.093706295056139e+001
 2.084832603433911e+000	 2.361349829147606e+000	 1.090804482559211e+001
 2.060296652765560e+000	 2.382787800574728e+000	 1.087968226714109e+001
 2.035549591102742e+000	 2.403962949409890e+000	 1.085175315911986e+001
 2.010595644501256e+000	 2.424872193394315e+000	 1.082403279912322e+001
 1.985439098162278e+000	 2.445512540856055e+000	 1.079629431538950e+001
 2.245064030260000e+000	 2.245064030260000e+000	 1.108311446347249e+001
 2.221695884947205e+000	 2.268191436969977e+000	 1.104706126911596e+001
 2.198090778744265e+000	 2.291074404801570e+000	 1.101326656735767e+001
 2.174252564765263e+000	 2.313709312889717e+000	 1.098151890715045e+001
 2.150185169430690e+000	 2.336092621688192e+000	 1.095160169380085e+001
 2.125892590314540e+000	 2.358220874811642e+000	 1.092329357791324e+001
 2.101378893936321e+000	 2.380090700809050e+000	 1.089636885541763e+001
 2.076648213500522e+000	 2.401698814866680e+000	 1.087059787771796e+001
 2.051704746586174e+000	 2.423042020438750e+000	 1.084574747096859e+001
 2.026552752789199e+000	 2.444117210804107e+000	 1.082158136346046e+001
 2.001196551320309e+000	 2.464921370547378e+000	 1.079786062007690e+001
 2.262741699790000e+000	 2.262741699790000e+000	 1.106577707241221e+001
 2.239189553332774e+000	 2.286051212064856e+000	 1.102915355422674e+001
 2.215398580151621e+000	 2.309114360745745e+000	 1.099532976532255e+001
 2.191372663700107e+000	 2.331927496456856e+000	 1.096408593161037e+001
 2.167115761315419e+000	 2.354487051781518e+000	 1.093519654884435e+001
 2.142631902048512e+000	 2.376789543118751e+000	 1.090843078515324e+001
 2.117925184438731e+000	 2.398831572470674e+000	 1.088355289552886e+001
 2.092999774235484e+000	 2.420609829158880e+000	 1.086032264727767e+001
 2.067859902069606e+000	 2.442121091467931e+000	 1.083849575540836e+001
 2.042509861077142e+000	 2.463362228214305e+000	 1.081782432690173e+001
 2.016954004478340e+000	 2.484330200239203e+000	 1.079805731278398e+001
 2.280419369320000e+000	 2.280419369320000e+000	 1.104742583539281e+001
 2.256683221718343e+000	 2.303910987159740e+000	 1.101020813457065e+001
 2.232706381558977e+000	 2.327154316689938e+000	 1.097632759412727e+001
 2.208492762634950e+000	 2.350145680024038e+000	 1.094555605671750e+001
 2.184046353200148e+000	 2.372881481874926e+000	 1.091765904896394e+001
 2.159371213782483e+000	 2.395358211425986e+000	 1.089239619769761e+001
 2.134471474941142e+000	 2.417572444132480e+000	 1.086952165903167e+001
 2.109351334970446e+000	 2.439520843451325e+000	 1.084878455924130e+001
 2.084015057553037e+000	 2.461200162497433e+000	 1.082992944638816e+001
 2.058466969365085e+000	 2.482607245624910e+000	 1.081269675160002e+001
 2.032711457636371e+000	 2.503739029931528e+000	 1.078248655016942e+001
 2.298097038850000e+000	 2.298097038850000e+000	 1.102797054717463e+001
 2.274176890103912e+000	 2.321770762254630e+000	 1.099013690021075e+001
 2.250014182966333e+000	 2.345194272634154e+000	 1.095617422699946e+001
 2.225612861569795e+000	 2.368363863591268e+000	 1.092584592499749e+001
 2.200976945084877e+000	 2.391275911968415e+000	 1.089890849025446e+001
 2.176110525516454e+000	 2.413926879733345e+000	 1.087511194748837e+001
 2.151017765443552e+000	 2.436313315794466e+000	 1.085420029387130e+001
 2.125702895705410e+000	 2.458431857744016e+000	 1.083591195546504e+001
 2.100170213036469e+000	 2.480279233527257e+000	 1.081998025521160e+001
 2.074424077653029e+000	 2.501852263035922e+000	 1.079892530439267e+001
 2.048468910794402e+000	 2.523147859624355e+000	 1.070483986867231e+001
 1.890894379214094e+000	 2.329059562718646e+000	 1.076157200845273e+001
 1.866746946686970e+000	 2.348458182955457e+000	 1.065950828987644e+001
 1.842414884029853e+000	 2.367595276895474e+000	 1.059070001283022e+001
 1.817902427375696e+000	 2.386468261810128e+000	 1.052738134517805e+001
 1.793213859741616e+000	 2.405074646102547e+000	 1.046980892578084e+001
 1.768353508590088e+000	 2.423412030331897e+000	 1.041823639625200e+001
 1.743325743364769e+000	 2.441478108159864e+000	 1.037291399145897e+001
 1.718134973003829e+000	 2.459270667218596e+000	 1.033408813305208e+001
 1.692785643433693e+000	 2.476787589899573e+000	 1.030200102697491e+001
 1.667282235046092e+000	 2.494026854062976e+000	 1.027689026589960e+001
 1.641629260161343e+000	 2.510986533667252e+000	 1.021854442626556e+001
 1.906651832372125e+000	 2.348468392406962e+000	 1.077006594602788e+001
 1.882303171240375e+000	 2.368028667811902e+000	 1.066125985618182e+001
 1.857768341394251e+000	 2.387325237534294e+000	 1.058616453195707e+001
 1.833051614267811e+000	 2.406355497322827e+000	 1.052992081211989e+001
 1.808157308569985e+000	 2.425116934817322e+000	 1.047980896162118e+001
 1.783089787825431e+000	 2.443607130581606e+000	 1.043610002151174e+001
 1.757853457889840e+000	 2.461823759057878e+000	 1.039906125159593e+001
 1.732452764442532e+000	 2.479764589441885e+000	 1.036895570301616e+001
 1.706892190459319e+000	 2.497427486478374e+000	 1.034604179538247e+001
 1.681176253668529e+000	 2.514810411176357e+000	 1.027711559628307e+001
 1.655309503993148e+000	 2.531911421443936e+000	 1.020638975343116e+001
 1.922409285530155e+000	 2.367877222095777e+000	 1.077755944904622e+001
 1.897859395793785e+000	 2.387599152668946e+000	 1.067755863255393e+001
 1.873121798758668e+000	 2.407055198173796e+000	 1.058307406169531e+001
 1.848200801159972e+000	 2.426242732836283e+000	 1.053420708763759e+001
 1.823100757398434e+000	 2.445159223532919e+000	 1.049185051717528e+001
 1.797826067060902e+000	 2.463802230832191e+000	 1.045629274583894e+001
 1.772381172415094e+000	 2.482169409956812e+000	 1.042781801969820e+001
 1.746770555881482e+000	 2.500258511666131e+000	 1.040578862130204e+001
 1.720998737485267e+000	 2.518067383058155e+000	 1.032888532681533e+001
 1.695070272291373e+000	 2.535593968290734e+000	 1.026008299137114e+001
 1.668989747825456e+000	 2.552836309221620e+000	 1.019913193858205e+001
 1.938166738688187e+000	 2.387286051785094e+000	 1.078399068239789e+001
 1.913415620347201e+000	 2.407169637526585e+000	 1.069321488218960e+001
 1.888475256123106e+000	 2.426785158813978e+000	 1.060492426414031e+001
 1.863349988052179e+000	 2.446129968350495e+000	 1.054028681620077e+001
 1.838044206226964e+000	 2.465201512249337e+000	 1.050597064958986e+001
 1.812562346296498e+000	 2.483997331083652e+000	 1.047884215308145e+001
 1.786908886940528e+000	 2.502515060856667e+000	 1.045029787158199e+001
 1.761088347320680e+000	 2.520752433891332e+000	 1.037393169831502e+001
 1.735105284511538e+000	 2.538707279638917e+000	 1.030635526577157e+001
 1.708964290914625e+000	 2.556377525406104e+000	 1.024731692632475e+001
 1.682669991658267e+000	 2.573761197000304e+000	 1.019656255365450e+001
 1.953924191846217e+000	 2.406694881474913e+000	 1.078929793982062e+001
 1.928971844900621e+000	 2.426740122384820e+000	 1.070815907821274e+001
 1.903828713487564e+000	 2.446515119454843e+000	 1.062984645723184e+001
 1.878499174944431e+000	 2.466017203865463e+000	 1.055435826011684e+001
 1.852987655055575e+000	 2.485243800966576e+000	 1.052220768004829e+001
 1.827298625532221e+000	 2.504192431335988e+000	 1.048886362053290e+001
 1.801436601466145e+000	 2.522860711757442e+000	 1.041233671097983e+001
 1.775406138760124e+000	 2.541246356117489e+000	 1.034528871837497e+001
 1.749211831538130e+000	 2.559347176220658e+000	 1.028746719804538e+001
 1.722858309538284e+000	 2.577161082522472e+000	 1.023861597443701e+001
 1.696350235491580e+000	 2.594686084779988e+000	 1.019847599299547e+001
 1.969681645004248e+000	 2.426103711165233e+000	 1.079341963874571e+001
 1.944528069454047e+000	 2.446310607243651e+000	 1.072232209629310e+001
 1.919182170852043e+000	 2.466245080096388e+000	 1.065438835614618e+001
 1.893648361836729e+000	 2.485904439381185e+000	 1.058962343389568e+001
 1.867931103884267e+000	 2.505286089684635e+000	 1.052157449070331e+001
 1.842034904768069e+000	 2.524387531589201e+000	 1.044418872118699e+001
 1.815964315991943e+000	 2.543206362659138e+000	 1.037697094699530e+001
 1.789723930199816e+000	 2.561740278344599e+000	 1.031966915013697e+001
 1.763318378565046e+000	 2.579987072803380e+000	 1.027202629076254e+001
 1.736752328162351e+000	 2.597944639639833e+000	 1.023378118155220e+001
 1.710030479325396e+000	 2.615610972560673e+000	 1.020466936046620e+001
 1.985439098162278e+000	 2.445512540856055e+000	 1.079629431538950e+001
 1.960084294007477e+000	 2.465881092103079e+000	 1.073563519867231e+001
 1.934535628216542e+000	 2.485975040738615e+000	 1.067847409559609e+001
 1.908797548729072e+000	 2.505791674897666e+000	 1.060363425344320e+001
 1.882874552713040e+000	 2.525328378403515e+000	 1.048308771472213e+001
 1.856771184004044e+000	 2.544582631843288e+000	 1.040149745676294e+001
 1.830492030517922e+000	 2.563552013561753e+000	 1.034401619372163e+001
 1.804041721639754e+000	 2.582234200572666e+000	 1.029688436700898e+001
 1.777424925592283e+000	 2.600626969387082e+000	 1.025983985303718e+001
 1.750646346786826e+000	 2.618728196758190e+000	 1.023261596794873e+001
 1.723710723159714e+000	 2.636535860342358e+000	 1.021494236192190e+001
 2.001196551320309e+000	 2.464921370547378e+000	 1.079786062007690e+001
 1.975640518560913e+000	 2.485451576963104e+000	 1.074803001894445e+001
 1.949889085581061e+000	 2.505705001381523e+000	 1.068081986716170e+001
 1.923946735621460e+000	 2.525678910414903e+000	 1.056545222584038e+001
 1.897818001541894e+000	 2.545370667123217e+000	 1.045667251532883e+001
 1.871507463240145e+000	 2.564777732098252e+000	 1.036061121980258e+001
 1.845019745044084e+000	 2.583897664465290e+000	 1.031328966261353e+001
 1.818359513079940e+000	 2.602728122801688e+000	 1.027674757216147e+001
 1.791531472619842e+000	 2.621266865971764e+000	 1.025071725164153e+001
 1.764540365411708e+000	 2.639511753877541e+000	 1.023492603485739e+001
 1.737390966994536e+000	 2.657460748125041e+000	 1.022909720277082e+001
 2.016954004478340e+000	 2.484330200239203e+000	 1.079805731278398e+001
 1.991196743114353e+000	 2.505022061823724e+000	 1.074047412994151e+001
 1.965242542945600e+000	 2.525434962025112e+000	 1.062992164456464e+001
 1.939095922513894e+000	 2.545566145932895e+000	 1.052627184982999e+001
 1.912761450370828e+000	 2.565412955843739e+000	 1.042963104832526e+001
 1.886243742476373e+000	 2.584972832354091e+000	 1.034009444834086e+001
 1.859547459570427e+000	 2.604243315369748e+000	 1.028461010009026e+001
 1.832677304520372e+000	 2.623222045031667e+000	 1.025907372705226e+001
 1.805638019647725e+000	 2.641906762557427e+000	 1.024446983062863e+001
 1.778434384036998e+000	 2.660295310997888e+000	 1.024051927536169e+001
 1.751071210829859e+000	 2.678385635908726e+000	 1.024693849033565e+001
 2.032711457636371e+000	 2.503739029931528e+000	 1.078248655016942e+001
 2.006752967667799e+000	 2.524592546684941e+000	 1.067641821276983e+001
 1.980596000310160e+000	 2.545164922669383e+000	 1.057753878780531e+001
 1.954245109406374e+000	 2.565453381451643e+000	 1.048597400412855e+001
 1.927704899199844e+000	 2.585455244565083e+000	 1.040183786435818e+001
 1.900980021712726e+000	 2.605167932610806e+000	 1.032523270115897e+001
 1.874075174096952e+000	 2.624588966275126e+000	 1.025779772804101e+001
 1.846995095961051e+000	 2.643715967262599e+000	 1.024367948327600e+001
 1.819744566675930e+000	 2.662546659144069e+000	 1.024091083469348e+001
 1.792328402662695e+000	 2.681078868119229e+000	 1.024920568944244e+001
 1.764751454665686e+000	 2.699310523693410e+000	 1.026827314075609e+001
 2.048468910794402e+000	 2.523147859624355e+000	 1.070483986867231e+001
 2.022309192221251e+000	 2.544163031546754e+000	 1.061040366090377e+001
 1.995949457674740e+000	 2.564894883314335e+000	 1.052355922375120e+001
 1.969394296298900e+000	 2.585340616971148e+000	 1.044444034382661e+001
 1.942648348028941e+000	 2.605497533287247e+000	 1.037316850832450e+001
 1.915716300949207e+000	 2.625363032868398e+000	 1.030985295768273e+001
 1.888602888623659e+000	 2.644934617181425e+000	 1.025459076173133e+001
 1.861312887401978e+000	 2.664209889494488e+000	 1.023038311755879e+001
 1.833851113704457e+000	 2.683186555731693e+000	 1.023985533607154e+001
 1.806222421288800e+000	 2.701862425241568e+000	 1.026079730294293e+001
 1.778431698502015e+000	 2.720235411479095e+000	 1.029291029018794e+001
 1.641629260161343e+000	 2.510986533667252e+000	 1.021854442626556e+001
 1.615831260481341e+000	 2.527664799318952e+000	 1.013108812831744e+001
 1.589892804533449e+000	 2.544059918741996e+000	 1.005073207686525e+001
 1.563818485109322e+000	 2.560170257166945e+000	 9.977169623830440e+000
 1.537612916702709e+000	 2.575994277640975e+000	 9.910096041610940e+000
 1.511280732947345e+000	 2.591530541258076e+000	 9.849209315999927e+000
 1.484826584058343e+000	 2.606777707310107e+000	 9.794210922369592e+000
 1.458255134279887e+000	 2.621734533359257e+000	 9.744806583244474e+000
 1.431571059341969e+000	 2.636399875232532e+000	 9.700707005469889e+000
 1.404779043928912e+000	 2.650772686938987e+000	 9.661628595268473e+000
 1.377883779162314e+000	 2.664852020510572e+000	 9.627294149566939e+000
 1.655309503993148e+000	 2.531911421443936e+000	 1.020638975343116e+001
 1.629296520982582e+000	 2.548728672642727e+000	 1.012577494276565e+001
 1.603141911235245e+000	 2.565260418061028e+000	 1.005130986798323e+001
 1.576850305816056e+000	 2.581505009306319e+000	 9.982649297404052e+000
 1.550426357672883e+000	 2.597460896617837e+000	 9.919451157225128e+000
 1.523874739053070e+000	 2.613126629098687e+000	 9.861377366237070e+000
 1.497200138923525e+000	 2.628500854868160e+000	 9.808094651628302e+000
 1.470407260397131e+000	 2.643582321134798e+000	 9.759275343938638e+000
 1.443500818168300e+000	 2.658369874190830e+000	 9.714598149312129e+000
 1.416485535960391e+000	 2.672862459328722e+000	 9.673748897289578e+000
 1.389366143987678e+000	 2.687059120680686e+000	 9.636421262480068e+000
 1.668989747825456e+000	 2.552836309221620e+000	 1.019913193858205e+001
 1.642761781484414e+000	 2.569792545967492e+000	 1.012474340080493e+001
 1.616391017937702e+000	 2.586460917381019e+000	 1.005557108002920e+001
 1.589882126523502e+000	 2.602839761446600e+000	 9.991231099529028e+000
 1.563239798643796e+000	 2.618927515595535e+000	 9.931343967981572e+000
 1.536468745159543e+000	 2.634722716940044e+000	 9.875535456372656e+000
 1.509573693789444e+000	 2.650224002426849e+000	 9.823437453818100e+000
 1.482559386515083e+000	 2.665430108910843e+000	 9.774688800298966e+000
 1.455430576995289e+000	 2.680339873149482e+000	 9.728936094402307e+000
 1.428192027992455e+000	 2.694952231718638e+000	 9.685834474257129e+000
 1.400848508813537e+000	 2.709266220850791e+000	 9.645048369957769e+000
 1.682669991658267e+000	 2.573761197000304e+000	 1.019656255365450e+001
 1.656227041986839e+000	 2.590856419293247e+000	 1.012780608805302e+001
 1.629640124640821e+000	 2.607661416701968e+000	 1.006334892183994e+001
 1.602913947231660e+000	 2.624174513587791e+000	 1.000276846103611e+001
 1.576053239615450e+000	 2.640394134574071e+000	 9.945647715032624e+000
 1.549062751266767e+000	 2.656318804782146e+000	 9.891576216086504e+000
 1.521947248656102e+000	 2.671947149986172e+000	 9.840150915564074e+000
 1.494711512633743e+000	 2.687277896687392e+000	 9.790977054866985e+000
 1.467360335822934e+000	 2.702309872108487e+000	 9.743669009073024e+000
 1.439898520025105e+000	 2.717042004108736e+000	 9.697851101429007e+000
 1.412330873639893e+000	 2.731473321020890e+000	 9.653158386940946e+000
 1.696350235491580e+000	 2.594686084779988e+000	 1.019847599299547e+001
 1.669692302489857e+000	 2.611920292619992e+000	 1.013477783943770e+001
 1.642889231344602e+000	 2.628861916023877e+000	 1.007447829161989e+001
 1.615945767940529e+000	 2.645509265729889e+000	 1.001711595555829e+001
 1.588866680587844e+000	 2.661860753553444e+000	 9.962236249354948e+000
 1.561656757374739e+000	 2.677914892624994e+000	 9.909392365691900e+000
 1.534320803523498e+000	 2.693670297546130e+000	 9.858146208910988e+000
 1.506863638753110e+000	 2.709125684464445e+000	 9.808069304547651e+000
 1.479290094651236e+000	 2.724279871067844e+000	 9.758743679291428e+000
 1.451605012058342e+000	 2.739131776499018e+000	 9.709762709456440e+000
 1.423813238466745e+000	 2.753680421190979e+000	 9.660731936159682e+000
 1.710030479325396e+000	 2.615610972560673e+000	 1.020466936046620e+001
 1.683157562993467e+000	 2.632984165947726e+000	 1.014547564922435e+001
 1.656138338049046e+000	 2.650062415346746e+000	 1.008879570936595e+001
 1.628977588650109e+000	 2.666844017872896e+000	 1.003412925381869e+001
 1.601680121560979e+000	 2.683327372533654e+000	 9.980984007356302e+000
 1.574250763483461e+000	 2.699510980468590e+000	 9.928876712509931e+000
 1.546694358391633e+000	 2.715393445106724e+000	 9.877334107906330e+000
 1.519015764873185e+000	 2.730973472242002e+000	 9.825893876834639e+000
 1.491219853480195e+000	 2.746249870027555e+000	 9.774105563953714e+000
 1.463311504092165e+000	 2.761221548889481e+000	 9.721531458168126e+000
 1.435295603294094e+000	 2.775887521361062e+000	 9.667747439821923e+000
 1.723710723159714e+000	 2.636535860342358e+000	 1.021494236192190e+001
 1.696622823497669e+000	 2.654048039276451e+000	 1.015971858532812e+001
 1.669387444754151e+000	 2.671262914670574e+000	 1.010613925251107e+001
 1.642009409360400e+000	 2.688178770016811e+000	 1.005366508009518e+001
 1.614493562534854e+000	 2.704793991514702e+000	 1.000176598764431e+001
 1.586844769592933e+000	 2.721107068312931e+000	 9.949922147416986e+000
 1.559067913260507e+000	 2.737116592667952e+000	 9.897625004393911e+000
 1.531167890993967e+000	 2.752821260020063e+000	 9.844378264310734e+000
 1.503149612309810e+000	 2.768219868987618e+000	 9.789698847546774e+000
 1.475017996126574e+000	 2.783311321280127e+000	 9.733117806840946e+000
 1.446777968121937e+000	 2.798094621531136e+000	 9.674181206935520e+000
 1.737390966994536e+000	 2.657460748125041e+000	 1.022909720277082e+001
 1.710088084002464e+000	 2.675111912606165e+000	 1.017732770767395e+001
 1.682636551459918e+000	 2.692463413995360e+000	 1.012634849460756e+001
 1.655041230071403e+000	 2.709513522161635e+000	 1.007558117074197e+001
 1.627307003509469e+000	 2.726260610496586e+000	 1.002445772889254e+001
 1.599438775703154e+000	 2.742703156158019e+000	 9.972421641555075e+000
 1.571441468130118e+000	 2.758839740229814e+000	 9.918928923061182e+000
 1.543320017115457e+000	 2.774669047798627e+000	 9.863449157518478e+000
 1.515079371140083e+000	 2.790189867948035e+000	 9.805466490321651e+000
 1.486724488161570e+000	 2.805401093670956e+000	 9.744480581150926e+000
 1.458260332950278e+000	 2.820301721701202e+000	 9.680007516505281e+000
 1.751071210829859e+000	 2.678385635908726e+000	 1.024693849033565e+001
 1.723553344507851e+000	 2.696175785936869e+000	 1.019812599038371e+001
 1.695885658166348e+000	 2.713663913321106e+000	 1.014926444688513e+001
 1.668073050783117e+000	 2.730848274307367e+000	 1.009973623465528e+001
 1.640120444484825e+000	 2.747727229479309e+000	 1.004893528874421e+001
 1.612032781814124e+000	 2.764299244003852e+000	 9.996268243196445e+000
 1.583815023000468e+000	 2.780562887792313e+000	 9.941155535781642e+000
 1.555472143237654e+000	 2.796516835577696e+000	 9.883032476289888e+000
 1.527009129971012e+000	 2.812159866908805e+000	 9.821350276115544e+000
 1.498430980197152e+000	 2.827490866061967e+000	 9.755577036985535e+000
 1.469742697779114e+000	 2.842508821871260e+000	 9.685198696829852e+000
 1.764751454665686e+000	 2.699310523693410e+000	 1.026827314075609e+001
 1.737018605013831e+000	 2.717239659268562e+000	 1.022193824758273e+001
 1.709134764873440e+000	 2.734864412647811e+000	 1.017472950252691e+001
 1.681104871495542e+000	 2.752183026454008e+000	 1.012598991557792e+001
 1.652933885460923e+000	 2.769193848462869e+000	 1.007507522369693e+001
 1.624626787925844e+000	 2.785895331850432e+000	 1.002135507475412e+001
 1.596188577871557e+000	 2.802286035355447e+000	 9.964214175289117e+000
 1.567624269360560e+000	 2.818364623357268e+000	 9.903053399618795e+000
 1.538938888802598e+000	 2.834129865869928e+000	 9.837290857948901e+000
 1.510137472233320e+000	 2.849580638453159e+000	 9.766362921288522e+000
 1.481225062608446e+000	 2.864715922041312e+000	 9.689725201110637e+000
 1.778431698502015e+000	 2.720235411479095e+000	 1.029291029018794e+001
 1.750483865520404e+000	 2.738303532601247e+000	 1.024859106263020e+001
 1.722383871581194e+000	 2.756064911975476e+000	 1.020258738351724e+001
 1.694136692208680e+000	 2.773517778601557e+000	 1.015420275614368e+001
 1.665747326437760e+000	 2.790660467447267e+000	 1.010275456991636e+001
 1.637220794038314e+000	 2.807491419697759e+000	 1.004757532993030e+001
 1.608562132743385e+000	 2.824009182919216e+000	 9.988013848222323e+000
 1.579776395484173e+000	 2.840212411137346e+000	 9.923436394154699e+000
 1.550868647634841e+000	 2.856099864831404e+000	 9.853227801518530e+000
 1.521843964270075e+000	 2.871670410844536e+000	 9.776792530096053e+000
 1.492707427438275e+000	 2.886923022211355e+000	 9.693555679570608e+000
 1.377883779162314e+000	 2.664852020510572e+000	 9.627294149566939e+000
 1.350889960100455e+000	 2.678637025767296e+000	 9.514829835420850e+000
 1.323802283258406e+000	 2.692126950008474e+000	 9.413395500591941e+000
 1.296625444150432e+000	 2.705321137630596e+000	 9.322841542430195e+000
 1.269364134855766e+000	 2.718219029672730e+000	 9.243020804217759e+000
 1.242023041611831e+000	 2.730820163291444e+000	 9.179442306514067e+000
 1.214606842436724e+000	 2.743124171166410e+000	 9.143760649323903e+000
 1.187120204783137e+000	 2.755130780838170e+000	 9.123496365878987e+000
 1.159567783225906e+000	 2.766839813979641e+000	 9.117717570852307e+000
 1.131954217185234e+000	 2.778251185602977e+000	 9.125534061307670e+000
 1.104284128687585e+000	 2.789364903203509e+000	 9.146098631844732e+000
 1.389366143987678e+000	 2.687059120680686e+000	 9.636421262480068e+000
 1.362147376433888e+000	 2.700959000981797e+000	 9.524067128165765e+000
 1.334833968951679e+000	 2.714561341258762e+000	 9.422456648245561e+000
 1.307430656184601e+000	 2.727865480444711e+000	 9.331429864292204e+000
 1.279942169312546e+000	 2.740870854920701e+000	 9.250829705328712e+000
 1.252373233624917e+000	 2.753576997986275e+000	 9.180502526309606e+000
 1.224728566123295e+000	 2.765983539260102e+000	 9.140704772584451e+000
 1.197012873155812e+000	 2.778090204012229e+000	 9.117346283238748e+000
 1.169230848085428e+000	 2.789896812429516e+000	 9.107771553767746e+000
 1.141387168994181e+000	 2.801403278815884e+000	 9.111059068704645e+000
 1.113486496425423e+000	 2.812609610729128e+000	 9.126332133213602e+000
 1.400848508813537e+000	 2.709266220850791e+000	 9.645048369957769e+000
 1.373404792767729e+000	 2.723280976196111e+000	 9.532879065485519e+000
 1.345865654645289e+000	 2.736995732508725e+000	 9.431165999482078e+000
 1.318235868219058e+000	 2.750409823258400e+000	 9.339738566152372e+000
 1.290520203769584e+000	 2.763522680168190e+000	 9.258429494679177e+000
 1.262723425638253e+000	 2.776333832680606e+000	 9.187075404523908e+000
 1.234850289810128e+000	 2.788842907353317e+000	 9.137683588820948e+000
 1.206905541528780e+000	 2.801049627185874e+000	 9.111474491660099e+000
 1.178893912945294e+000	 2.812953810879079e+000	 9.098330699870949e+000
 1.150820120803543e+000	 2.824555372028621e+000	 9.097298627224422e+000
 1.122688864163766e+000	 2.835854318254756e+000	 9.107471367113098e+000
 1.412330873639893e+000	 2.731473321020890e+000	 9.653158386940946e+000
 1.384662209101975e+000	 2.745602951410237e+000	 9.541252450809420e+000
 1.356897340339236e+000	 2.759430123758361e+000	 9.439514179721234e+000
 1.329041080253802e+000	 2.772954166071666e+000	 9.347762025315054e+000
 1.301098238226882e+000	 2.786174505415197e+000	 9.265818227839983e+000
 1.273073617651840e+000	 2.799090667374439e+000	 9.193509388682122e+000
 1.244972013497222e+000	 2.811702275446057e+000	 9.134685444571888e+000
 1.216798209902042e+000	 2.824009050359106e+000	 9.105877835162760e+000
 1.188556977805505e+000	 2.836010809328329e+000	 9.089400081161578e+000
 1.160253072613320e+000	 2.847707465241187e+000	 9.084265758965190e+000
 1.131891231902615e+000	 2.859099025780396e+000	 9.089537019876378e+000
 1.423813238466745e+000	 2.753680421190979e+000	 9.660731936159682e+000
 1.395919625436628e+000	 2.767924926624177e+000	 9.549171774656486e+000
 1.367929026033521e+000	 2.781864515007671e+000	 9.447489482247367e+000
 1.339846292288834e+000	 2.795498508884507e+000	 9.355492269200608e+000
 1.311676272684440e+000	 2.808826330661723e+000	 9.272991594226284e+000
 1.283423809665677e+000	 2.821847502067772e+000	 9.199803754639534e+000
 1.255093737184579e+000	 2.834561643538319e+000	 9.135750449317895e+000
 1.226690878275597e+000	 2.846968473531924e+000	 9.100550751649953e+000
 1.198220042666059e+000	 2.859067807777269e+000	 9.080982353147073e+000
 1.169686024423512e+000	 2.870859558453585e+000	 9.071971060624058e+000
 1.141093599641968e+000	 2.882343733306045e+000	 9.072547344988836e+000
 1.435295603294094e+000	 2.775887521361062e+000	 9.667747439821923e+000
 1.407177041771687e+000	 2.790246901837927e+000	 9.556619307151712e+000
 1.378960711728142e+000	 2.804298906256655e+000	 9.455077961495041e+000
 1.350651504324155e+000	 2.818042851696924e+000	 9.362919069340672e+000
 1.322254307142256e+000	 2.831478155907767e+000	 9.279943011743452e+000
 1.293774001679765e+000	 2.844604336760608e+000	 9.205955492538438e+000
 1.265215460872197e+000	 2.857421011630105e+000	 9.140768118211062e+000
 1.236583546649444e+000	 2.869927896704327e+000	 9.095485369153082e+000
 1.207883107526959e+000	 2.882124806225897e+000	 9.073077851502591e+000
 1.179118976234119e+000	 2.894011651665810e+000	 9.060422800513388e+000
 1.150295967381827e+000	 2.905588440831705e+000	 9.056518260402010e+000
 1.446777968121937e+000	 2.798094621531136e+000	 9.674181206935520e+000
 1.418434458107152e+000	 2.812568877051492e+000	 9.563575186136962e+000
 1.389992397423100e+000	 2.826733297505313e+000	 9.462263521892044e+000
 1.361456716359763e+000	 2.840587194508919e+000	 9.370030030897592e+000
 1.332832341600331e+000	 2.854129981153329e+000	 9.286663716926670e+000
 1.304124193694102e+000	 2.867361171452942e+000	 9.211959397511135e+000
 1.275337184560077e+000	 2.880280379721414e+000	 9.145718301124655e+000
 1.246476215023585e+000	 2.892887319876318e+000	 9.090671597493230e+000
 1.217546172388201e+000	 2.905181804674213e+000	 9.065684684127650e+000
 1.188551928045140e+000	 2.917163744877866e+000	 9.049627010956728e+000
 1.159498335122191e+000	 2.928833148357375e+000	 9.041463441213589e+000
 1.458260332950278e+000	 2.820301721701202e+000	 9.680007516505281e+000
 1.429691874443023e+000	 2.834890852264868e+000	 9.570017501119311e+000
 1.401024083118395e+000	 2.849167688753644e+000	 9.469028002505302e+000
 1.372261928395659e+000	 2.863131537320488e+000	 9.376810677954513e+000
 1.343410376058666e+000	 2.876781806398410e+000	 9.293142850821454e+000
 1.314474385708691e+000	 2.890118006144780e+000	 9.217808156097846e+000
 1.285458908248220e+000	 2.903139747812248e+000	 9.150597155310999e+000
 1.256368883398019e+000	 2.915846743047894e+000	 9.091307919598405e+000
 1.227209237249788e+000	 2.928238803122218e+000	 9.058798818854026e+000
 1.197984879856576e+000	 2.940315838089752e+000	 9.039587576320127e+000
 1.168700702863060e+000	 2.952077855883055e+000	 9.027394407968449e+000
 1.469742697779114e+000	 2.842508821871260e+000	 9.685198696829852e+000
 1.440949290779301e+000	 2.857212827478057e+000	 9.575922373283923e+000
 1.412055768814028e+000	 2.871602080001652e+000	 9.475351257719355e+000
 1.383067140431843e+000	 2.885675880131633e+000	 9.383244534807558e+000
 1.353988410517259e+000	 2.899433631643008e+000	 9.299367540838771e+000
 1.324824577723530e+000	 2.912874840836117e+000	 9.223492428613238e+000
 1.295580631936623e+000	 2.925999115902606e+000	 9.155398800461997e+000
 1.266261551772745e+000	 2.938806166219056e+000	 9.094874308221755e+000
 1.236872302111720e+000	 2.951295801569911e+000	 9.052414167041958e+000
 1.207417831668428e+000	 2.963467931301467e+000	 9.030306316916590e+000
 1.177903070604434e+000	 2.975322563408745e+000	 9.014320610821233e+000
 1.481225062608446e+000	 2.864715922041312e+000	 9.689725201110637e+000
 1.452206707115985e+000	 2.879534802691059e+000	 9.581264031785590e+000
 1.423087454509997e+000	 2.894036471249331e+000	 9.481211234161664e+000
 1.393872352468315e+000	 2.908220222942355e+000	 9.389313203476961e+000
 1.364566444976112e+000	 2.922085456887126e+000	 9.305322978802964e+000
 1.335174769738620e+000	 2.935631675526955e+000	 9.229000927682609e+000
 1.305702355625289e+000	 2.948858483992487e+000	 9.160115397684152e+000
 1.276154220147765e+000	 2.961765589389805e+000	 9.098443333667074e+000
 1.246535366973995e+000	 2.974352800017292e+000	 9.046522663288529e+000
 1.216850783480694e+000	 2.986620024513012e+000	 9.021783069008144e+000
 1.187105438346313e+000	 2.998567270934446e+000	 9.002249509783811e+000
 1.492707427438275e+000	 2.886923022211355e+000	 9.693555679570608e+000
 1.463464123453077e+000	 2.901856777903874e+000	 9.586014886519337e+000
 1.434119140206303e+000	 2.916470862496686e+000	 9.486584044078130e+000
 1.404677564505076e+000	 2.930764565752653e+000	 9.394996437640737e+000
 1.375144479435225e+000	 2.944737282130762e+000	 9.310992495397246e+000
 1.345524961753960e+000	 2.958388510217295e+000	 9.234320493152804e+000
 1.315824079314217e+000	 2.971717852081893e+000	 9.164737224829011e+000
 1.286046888523079e+000	 2.984725012560141e+000	 9.102008637414610e+000
 1.256198431836615e+000	 2.997409798464362e+000	 9.045910429267581e+000
 1.226283735293376e+000	 3.009772117724388e+000	 9.014015761115566e+000
 1.196307806088698e+000	 3.021811978460158e+000	 8.991186651269311e+000
 1.104284128687585e+000	 2.789364903203509e+000	 9.146098631844732e+000
 1.076562120166735e+000	 2.800181065842599e+000	 9.096526706913998e+000
 1.048792772305250e+000	 2.810699863170943e+000	 9.045455450403628e+000
 1.020980641918824e+000	 2.820921574394557e+000	 8.992139229652478e+000
 9.931302598865212e-001	 2.830846567185376e+000	 8.935892505928493e+000
 9.652461291268561e-001	 2.840475296538248e+000	 8.876090335090552e+000
 9.373327226216525e-001	 2.849808303576410e+000	 8.812168726541723e+000
 9.093944814890325e-001	 2.858846214307540e+000	 8.743624862443935e+000
 8.814358131068237e-001	 2.867589738332473e+000	 8.670017179511017e+000
 8.534610892875463e-001	 2.876039667508701e+000	 8.590965316026129e+000
 8.254746445060665e-001	 2.884196874570822e+000	 8.506149927043930e+000
 1.113486496425423e+000	 2.812609610729128e+000	 9.126332133213602e+000
 1.085533471166585e+000	 2.823515908056200e+000	 9.068402029064220e+000
 1.057532712072626e+000	 2.834122362028305e+000	 9.010619219572146e+000
 1.029488813932706e+000	 2.844429254178170e+000	 8.952233760726436e+000
 1.001406345383213e+000	 2.854436955241667e+000	 8.892555277423195e+000
 9.732898468669844e-001	 2.864145924005266e+000	 8.830953495891819e+000
 9.451438286406900e-001	 2.873556706101563e+000	 8.766858633138833e+000
 9.169727688317710e-001	 2.882669932754969e+000	 8.699761645349318e+000
 8.887811115462034e-001	 2.891486319479657e+000	 8.629214337540979e+000
 8.605732650282777e-001	 2.900006664731933e+000	 8.554829337099237e+000
 8.323535998734841e-001	 2.908231848519181e+000	 8.476279934143120e+000
 1.122688864163766e+000	 2.835854318254756e+000	 9.107471367113098e+000
 1.094504822167034e+000	 2.846850750270003e+000	 9.042409185858729e+000
 1.066272651840688e+000	 2.857544860886037e+000	 8.979079072123271e+000
 1.037996985947347e+000	 2.867936933962302e+000	 8.916725977383923e+000
 1.009682430880729e+000	 2.878027343298606e+000	 8.854653962719540e+000
 9.813335646079902e-001	 2.887816551473039e+000	 8.792226763149465e+000
 9.529549346606492e-001	 2.897305108627561e+000	 8.728868207609253e+000
 9.245510561754662e-001	 2.906493651203310e+000	 8.664062496478762e+000
 8.961264099865637e-001	 2.915382900627801e+000	 8.597354338935027e+000
 8.676854407700044e-001	 2.923973661956154e+000	 8.528348952744787e+000
 8.392325552419019e-001	 2.932266822468538e+000	 8.456711929435471e+000
 1.131891231902615e+000	 2.859099025780396e+000	 9.089537019876378e+000
 1.103476173168084e+000	 2.870185592484005e+000	 9.018550531667641e+000
 1.075012591609433e+000	 2.880967359744138e+000	 8.950819761864837e+000
 1.046505157962747e+000	 2.891444613746952e+000	 8.885583761960481e+000
 1.017958516379068e+000	 2.901617731356191e+000	 8.822140299205877e+000
 9.893772823498731e-001	 2.911487178941568e+000	 8.759846453016577e+000
 9.607660406815307e-001	 2.921053511154402e+000	 8.698119065531774e+000
 9.321293435201170e-001	 2.930317369652563e+000	 8.636435048215867e+000
 9.034717084279045e-001	 2.939279481776909e+000	 8.574331546756760e+000
 8.747976165127258e-001	 2.947940659181365e+000	 8.511405966862469e+000
 8.461115106113193e-001	 2.956301796418897e+000	 8.447315863888655e+000
 1.141093599641968e+000	 2.882343733306045e+000	 9.072547344988836e+000
 1.112447524169733e+000	 2.893520434698208e+000	 8.996826811144050e+000
 1.083752531378863e+000	 2.904389858602606e+000	 8.925825224177503e+000
 1.055013329978906e+000	 2.914952293532121e+000	 8.858774937663878e+000
 1.026234601878231e+000	 2.925208119414423e+000	 8.794966692320640e+000
 9.974210000926342e-001	 2.935157806410852e+000	 8.733750244644710e+000
 9.685771467033342e-001	 2.944801913682086e+000	 8.674534848113682e+000
 9.397076308657241e-001	 2.954141088102729e+000	 8.616789588816550e+000
 9.108170068702257e-001	 2.963176062926975e+000	 8.560043577751529e+000
 8.819097922564428e-001	 2.971907656407568e+000	 8.503886002381675e+000
 8.529904659817370e-001	 2.980336770370254e+000	 8.447966040377029e+000
 1.150295967381827e+000	 2.905588440831705e+000	 9.056518260402010e+000
 1.121418875171983e+000	 2.916855276912609e+000	 8.977237223612669e+000
 1.092492471148978e+000	 2.927812357461445e+000	 8.904078608752405e+000
 1.063521501995824e+000	 2.938459973317808e+000	 8.836267270939066e+000
 1.034510687378216e+000	 2.948798507473302e+000	 8.773086188830460e+000
 1.005464717836273e+000	 2.958828433880891e+000	 8.713877125663787e+000
 9.763882527260590e-001	 2.968550316210615e+000	 8.658041141165274e+000
 9.472859182122877e-001	 2.977964806553808e+000	 8.605038956173710e+000
 9.181623053135277e-001	 2.987072644078004e+000	 8.554391172199003e+000
 8.890219680011547e-001	 2.995874653634759e+000	 8.505678348499975e+000
 8.598694213531549e-001	 3.004371744322613e+000	 8.458540939605875e+000
 1.159498335122191e+000	 2.928833148357375e+000	 9.041463441213589e+000
 1.130390226174833e+000	 2.940190119127211e+000	 8.959779484392554e+000
 1.101232410919777e+000	 2.951234856320653e+000	 8.885562310769059e+000
 1.072029674013502e+000	 2.961967653104012e+000	 8.818028473720741e+000
 1.042786772879025e+000	 2.972388895532827e+000	 8.756452451380563e+000
 1.013508435580789e+000	 2.982499061351686e+000	 8.700167340258325e+000
 9.841993587497061e-001	 2.992298718739987e+000	 8.648565397933377e+000
 9.548642055598070e-001	 3.001788525005797e+000	 8.601098436641362e+000
 9.255076037578098e-001	 3.010969225229992e+000	 8.557278069963706e+000
 8.961341437468618e-001	 3.019841650862941e+000	 8.516675815196429e+000
 8.667483767255724e-001	 3.028406718275971e+000	 8.478923054324369e+000
 1.168700702863060e+000	 2.952077855883055e+000	 9.027394407968449e+000
 1.139361577178282e+000	 2.963524961342014e+000	 8.944449883222452e+000
 1.109972350691261e+000	 2.974657355180230e+000	 8.870258000600494e+000
 1.080537846031938e+000	 2.985475332890735e+000	 8.804026205579374e+000
 1.051062858380658e+000	 2.995979283592999e+000	 8.745019734247595e+000
 1.021552153326183e+000	 3.006169688823234e+000	 8.692562339696922e+000
 9.920104647742748e-001	 3.016047121270203e+000	 8.646036865579942e+000
 9.624424929082825e-001	 3.025612243458701e+000	 8.604885668638561e+000
 9.328529022030730e-001	 3.034865806382944e+000	 8.568610892400839e+000
 9.032463194935642e-001	 3.043808648092115e+000	 8.536774594618043e+000
 8.736273320989901e-001	 3.052441692230329e+000	 8.508998731370843e+000
 1.177903070604434e+000	 2.975322563408745e+000	 9.014320610821233e+000
 1.148332928182332e+000	 2.986859803557016e+000	 8.931243339947338e+000
 1.118712290463430e+000	 2.998079854040177e+000	 8.858146652126106e+000
 1.089046018051134e+000	 3.008983012677976e+000	 8.794228075766679e+000
 1.059338943883114e+000	 3.019569671653818e+000	 8.738742860229067e+000
 1.029595871072454e+000	 3.029840316295539e+000	 8.691004735180437e+000
 9.998215707997656e-001	 3.039795523801263e+000	 8.650386515107345e+000
 9.700207802577143e-001	 3.049435961912515e+000	 8.616320550771722e+000
 9.401982006493166e-001	 3.058762387536855e+000	 8.588299029798259e+000
 9.103584952412615e-001	 3.067775645322277e+000	 8.565874128963991e+000
 8.805062874734078e-001	 3.076476666185687e+000	 8.548658021122696e+000
 1.187105438346313e+000	 2.998567270934446e+000	 9.002249509783811e+000
 1.157304279186982e+000	 3.010194645772219e+000	 8.920153457615349e+000
 1.127452230236283e+000	 3.021502352900493e+000	 8.849208569727505e+000
 1.097554190071088e+000	 3.032490692465735e+000	 8.788601645166033e+000
 1.067615029386393e+000	 3.043160059715283e+000	 8.737577198607523e+000
 1.037639588819603e+000	 3.053510943768599e+000	 8.695438252883337e+000
 1.007632676826178e+000	 3.063543926333166e+000	 8.661546974542999e+000
 9.775990676081021e-001	 3.073259680367242e+000	 8.635325154230495e+000
 9.475434990965406e-001	 3.082658968691728e+000	 8.616254534053404e+000
 9.174706709899542e-001	 3.091742642553431e+000	 8.603876984514573e+000
 8.873852428488256e-001	 3.100511640142046e+000	 8.597794533948303e+000
 1.196307806088698e+000	 3.021811978460158e+000	 8.991186651269311e+000
 1.166275630192232e+000	 3.033529487987621e+000	 8.911172573123668e+000
 1.136192170009821e+000	 3.044924851761178e+000	 8.843423414038437e+000
 1.106062362091802e+000	 3.055998372254013e+000	 8.787114428152727e+000
 1.075891114890496e+000	 3.066750447777396e+000	 8.741478644132126e+000
 1.045683306567630e+000	 3.077181571242415e+000	 8.705807691070268e+000
 1.015443782853513e+000	 3.087292328865915e+000	 8.679452465207444e+000
 9.851773549594465e-001	 3.097083398822883e+000	 8.661823639227045e+000
 9.548887975447457e-001	 3.106555549847563e+000	 8.652392016303498e+000
 9.245828467396422e-001	 3.115709639785575e+000	 8.650688731473991e+000
 8.942641982252435e-001	 3.124546614099404e+000	 8.656305303284267e+000
 8.254746445060665e-001	 2.884196874570822e+000	 8.506149927043930e+000
 7.974807741809102e-001	 2.892062311710120e+000	 8.406343340653505e+000
 7.694837330099383e-001	 2.899637009115428e+000	 8.317048026308806e+000
 7.414877333616478e-001	 2.906922073477395e+000	 8.238116244060235e+000
 7.134969437225316e-001	 2.913918686458521e+000	 8.169444793419878e+000
 6.855154872010129e-001	 2.920628103131092e+000	 8.110974493513245e+000
 6.575474400885762e-001	 2.927051650385220e+000	 8.062689566969914e+000
 6.295968304785271e-001	 2.933190725309185e+000	 8.024616931480962e+000
 6.016676369427254e-001	 2.939046793544277e+000	 8.012607731167135e+000
 5.737637872665514e-001	 2.944621387616330e+000	 8.016709186394294e+000
 5.458891572422751e-001	 2.949916105246086e+000	 8.032147628073030e+000
 8.323535998734841e-001	 2.908231848519181e+000	 8.476279934143120e+000
 8.041264472955336e-001	 2.916162830967627e+000	 8.387031402002448e+000
 7.758960974481322e-001	 2.923800650851029e+000	 8.307715620066199e+000
 7.476667978028474e-001	 2.931146424082455e+000	 8.238179453854473e+000
 7.194427515835592e-001	 2.938201342171590e+000	 8.178315850840974e+000
 6.912281162579265e-001	 2.944966670649659e+000	 8.128063303757932e+000
 6.630270020865289e-001	 2.951443747464190e+000	 8.087405214834847e+000
 6.348434707301159e-001	 2.957633981345864e+000	 8.056369165009890e+000
 6.066815339153117e-001	 2.963538850149649e+000	 8.049028715843937e+000
 5.785451521590409e-001	 2.969159899172426e+000	 8.058915835261896e+000
 5.504382335518416e-001	 2.974498739449277e+000	 8.076662509703185e+000
 8.392325552419019e-001	 2.932266822468538e+000	 8.456711929435471e+000
 8.107721204111463e-001	 2.940263350226134e+000	 8.378135573783572e+000
 7.823084618872848e-001	 2.947964292587630e+000	 8.308883058662341e+000
 7.538458622449540e-001	 2.955370774688512e+000	 8.248795616872044e+000
 7.253885594454216e-001	 2.962483997885659e+000	 8.197762148126930e+000
 6.969407453155827e-001	 2.969305238169226e+000	 8.155718665116583e+000
 6.685065640851122e-001	 2.975835844544160e+000	 8.122647637631140e+000
 6.400901109822031e-001	 2.982077237383543e+000	 8.098577238903344e+000
 6.116954308882447e-001	 2.988030906756019e+000	 8.095458413766513e+000
 5.833265170517062e-001	 2.993698410729522e+000	 8.112655227857575e+000
 5.549873098613937e-001	 2.999081373653468e+000	 8.134108174526945e+000
 8.461115106113193e-001	 2.956301796418897e+000	 8.447315863888655e+000
 8.174177935277489e-001	 2.964363869485642e+000	 8.379526013328524e+000
 7.887208263273956e-001	 2.972127934325231e+000	 8.320420514713455e+000
 7.600249266879676e-001	 2.979595125295572e+000	 8.269834727793208e+000
 7.313343673081191e-001	 2.986766653600728e+000	 8.227653306978366e+000
 7.026533743739817e-001	 2.993643805689793e+000	 8.193809629758459e+000
 6.739861260843261e-001	 3.000227941625130e+000	 8.168285120248912e+000
 6.453367512347888e-001	 3.006520493422221e+000	 8.151108472136935e+000
 6.167093278615247e-001	 3.012522963363392e+000	 8.151155526817268e+000
 5.881078819445469e-001	 3.018236922287618e+000	 8.177225560146212e+000
 5.595363861709308e-001	 3.023664007858659e+000	 8.203820960982233e+000
 8.529904659817370e-001	 2.980336770370254e+000	 8.447966040377029e+000
 8.240634666453410e-001	 2.988464388746150e+000	 8.391077363933812e+000
 7.951331907684651e-001	 2.996291576063831e+000	 8.342202777102836e+000
 7.662039911318878e-001	 3.003819475903630e+000	 8.301171524085085e+000
 7.372801751716512e-001	 3.011049309316797e+000	 8.267863814595739e+000
 7.083660034331233e-001	 3.017982373211360e+000	 8.242210234236781e+000
 6.794656880841703e-001	 3.024620038707100e+000	 8.224191046998559e+000
 6.505833914878733e-001	 3.030963749461901e+000	 8.213835394278231e+000
 6.217232248351515e-001	 3.037015019971764e+000	 8.215384074762248e+000
 5.928892468375637e-001	 3.042775433846714e+000	 8.251930449377495e+000
 5.640854624804536e-001	 3.048246642064849e+000	 8.285142728292060e+000
 8.598694213531549e-001	 3.004371744322613e+000	 8.458540939605875e+000
 8.307091397639229e-001	 3.012564908007657e+000	 8.412668575421856e+000
 8.015455552104932e-001	 3.020455217803432e+000	 8.374109066329782e+000
 7.723830555767151e-001	 3.028043826512689e+000	 8.342685296289790e+000
 7.432259830360183e-001	 3.035331965033867e+000	 8.318272829058900e+000
 7.140786324930076e-001	 3.042320940733928e+000	 8.300799300113466e+000
 6.849452500846452e-001	 3.049012135790070e+000	 8.290243697633930e+000
 6.558300317414558e-001	 3.055407005502579e+000	 8.286635537062844e+000
 6.267371218091252e-001	 3.061507076581135e+000	 8.290053933924188e+000
 5.976706117307562e-001	 3.067313945406811e+000	 8.336078717234539e+000
 5.686345387899615e-001	 3.072829276272041e+000	 8.377420635633197e+000
 8.667483767255724e-001	 3.028406718275971e+000	 8.478923054324369e+000
 8.373548128834940e-001	 3.036665427270165e+000	 8.444182733247244e+000
 8.079579196534796e-001	 3.044618859544032e+000	 8.416022858651928e+000
 7.785621200224494e-001	 3.052268177122748e+000	 8.394259707347098e+000
 7.491717909012202e-001	 3.059614620751936e+000	 8.378763993975158e+000
 7.197912615536347e-001	 3.066659508257495e+000	 8.369460244077633e+000
 6.904248120857505e-001	 3.073404232874039e+000	 8.366326053089127e+000
 6.610766719955372e-001	 3.079850261544258e+000	 8.369391235895851e+000
 6.317510187834454e-001	 3.085999133191507e+000	 8.378736871775457e+000
 6.024519766241242e-001	 3.091852456967906e+000	 8.428984183308856e+000
 5.731836150994546e-001	 3.097411910480231e+000	 8.480006931820366e+000
 8.736273320989901e-001	 3.052441692230329e+000	 8.508998731370843e+000
 8.440004860040550e-001	 3.060765946533674e+000	 8.485506895676457e+000
 8.143702840974244e-001	 3.068782501285632e+000	 8.467831718535756e+000
 7.847411844690904e-001	 3.076492527733806e+000	 8.455782620452517e+000
 7.551175987672572e-001	 3.083897276471005e+000	 8.449225261883392e+000
 7.255038906150046e-001	 3.090998075782062e+000	 8.448080897035284e+000
 6.959043740874865e-001	 3.097796329959009e+000	 8.452325610391895e+000
 6.663233122501171e-001	 3.104293517586938e+000	 8.461989440730932e+000
 6.367649157581130e-001	 3.110491189802879e+000	 8.477155397580502e+000
 6.072333415176682e-001	 3.116390968530002e+000	 8.529965468332209e+000
 5.777326914089334e-001	 3.121994544689422e+000	 8.592258754927020e+000
 8.805062874734078e-001	 3.076476666185687e+000	 8.548658021122696e+000
 8.506461591256057e-001	 3.084866465798181e+000	 8.536531938600286e+000
 8.207826485423281e-001	 3.092946143028234e+000	 8.529427138960898e+000
 7.909202489166383e-001	 3.100716878345866e+000	 8.527145934985219e+000
 7.610634066341288e-001	 3.108179932191074e+000	 8.529548725936715e+000
 7.312165196771172e-001	 3.115336643307630e+000	 8.536553331678976e+000
 7.013839360898529e-001	 3.122188427044979e+000	 8.548134206254463e+000
 6.715699525051954e-001	 3.128736773630617e+000	 8.521788428827140e+000
 6.417788127331272e-001	 3.134983246415251e+000	 8.473863211629240e+000
 6.120147064113878e-001	 3.140929480093099e+000	 8.464746622684567e+000
 5.822817677183971e-001	 3.146577178899613e+000	 8.487329711876953e+000
 8.873852428488256e-001	 3.100511640142046e+000	 8.597794533948303e+000
 8.572918322481457e-001	 3.108966985063688e+000	 8.597152407563236e+000
 8.271950129881900e-001	 3.117109784771833e+000	 8.600704389152215e+000
 7.970993133650929e-001	 3.124941228958924e+000	 8.608245430066445e+000
 7.670092145018357e-001	 3.132462587912143e+000	 8.530744697842362e+000
 7.369291487399725e-001	 3.139675210834196e+000	 8.462855668293779e+000
 7.068634980928500e-001	 3.146580524131949e+000	 8.405363593361109e+000
 6.768165927607722e-001	 3.153180029675296e+000	 8.358366627237230e+000
 6.467927097084881e-001	 3.159475303028622e+000	 8.321986569788935e+000
 6.167960713052829e-001	 3.165467991657194e+000	 8.316439060781937e+000
 5.868308440278466e-001	 3.171159813110805e+000	 8.361735378161328e+000
 8.942641982252435e-001	 3.124546614099404e+000	 8.656305303284267e+000
 8.639375053716756e-001	 3.133067504330197e+000	 8.567634685323766e+000
 8.336073774350107e-001	 3.141273426516435e+000	 8.483159678675472e+000
 8.032783778144549e-001	 3.149165579572983e+000	 8.408537401357414e+000
 7.729550223703774e-001	 3.156745243634214e+000	 8.343785021705932e+000
 7.426417778035707e-001	 3.164013778361765e+000	 8.288943902366182e+000
 7.123430600964776e-001	 3.170972621219920e+000	 8.244079796621913e+000
 6.820632330168476e-001	 3.177623285720976e+000	 8.209282971475790e+000
 6.518066066841962e-001	 3.183967359642995e+000	 8.184668258685697e+000
 6.215774361993540e-001	 3.190006503222291e+000	 8.179750271645169e+000
 5.913799203372813e-001	 3.195742447322996e+000	 8.247224545011436e+000
 5.458891572422751e-001	 2.949916105246086e+000	 8.032147628073030e+000
 5.180475695206517e-001	 2.954932607640603e+000	 7.965689436590504e+000
 4.902427925216797e-001	 2.959672617767659e+000	 7.913923169167641e+000
 4.624785394036050e-001	 2.964137918615402e+000	 7.875446003829648e+000
 4.347584670896675e-001	 2.968330351439361e+000	 7.849106429325927e+000
 4.070861753532337e-001	 2.972251813998719e+000	 7.834001279770015e+000
 3.794652059606907e-001	 2.975904258783907e+000	 7.829472294659396e+000
 3.518990418717319e-001	 2.979289691237467e+000	 7.835102225870095e+000
 3.243911064965978e-001	 2.982410167970138e+000	 7.850710513767969e+000
 2.969447630097779e-001	 2.985267794974027e+000	 7.876348555044284e+000
 2.695633137196015e-001	 2.987864725834731e+000	 7.912294585259583e+000
 5.504382335518416e-001	 2.974498739449277e+000	 8.076662509703185e+000
 5.223646325997995e-001	 2.979557046030643e+000	 8.006565396712592e+000
 4.943281491263213e-001	 2.984336556242365e+000	 7.949169854793518e+000
 4.663325272326387e-001	 2.988839067930820e+000	 7.902996035713974e+000
 4.383814543163538e-001	 2.993066437695334e+000	 7.866823232376257e+000
 4.104785601489446e-001	 2.997020579109751e+000	 7.839686861252777e+000
 3.826274160115197e-001	 3.000703460935255e+000	 7.820874956037060e+000
 3.548315338884371e-001	 3.004117105326406e+000	 7.809924194665015e+000
 3.270943657183573e-001	 3.007263586032367e+000	 7.806615482426803e+000
 2.994193027022248e-001	 3.010145026595181e+000	 7.810969114370463e+000
 2.718096746676061e-001	 3.012763598546989e+000	 7.823239540587056e+000
 5.549873098613937e-001	 2.999081373653468e+000	 8.134108174526945e+000
 5.266816956787482e-001	 3.004181484421681e+000	 8.061368034598663e+000
 4.984135057306106e-001	 3.009000494718050e+000	 7.999183892994620e+000
 4.701865150611981e-001	 3.013540217247192e+000	 7.945997740070780e+000
 4.420044415424734e-001	 3.017802523952225e+000	 7.900518745266875e+000
 4.138709449440277e-001	 3.021789344221657e+000	 7.861720184911975e+000
 3.857896260616890e-001	 3.025502663087416e+000	 7.828835866794135e+000
 3.577640259044809e-001	 3.028944519416094e+000	 7.801356074219748e+000
 3.297976249394828e-001	 3.032117004095270e+000	 7.779023052876477e+000
 3.018938423940943e-001	 3.035022258216922e+000	 7.761826064306462e+000
 2.740560356151188e-001	 3.037662471259737e+000	 7.749996030199742e+000
 5.595363861709308e-001	 3.023664007858659e+000	 8.203820960982233e+000
 5.309987587574980e-001	 3.028805922813711e+000	 8.129477145066627e+000
 5.024988623345476e-001	 3.033664433194716e+000	 8.063387763227135e+000
 4.740405028892825e-001	 3.038241366564517e+000	 8.003915480673234e+000
 4.456274287680266e-001	 3.042538610210034e+000	 7.949698388887942e+000
 4.172633297384822e-001	 3.046558109334430e+000	 7.899646876374295e+000
 3.889518361111983e-001	 3.050301865240394e+000	 7.852939981422509e+000
 3.606965179198629e-001	 3.053771933506530e+000	 7.809021250209955e+000
 3.325008841599741e-001	 3.056970422158845e+000	 7.767594124152744e+000
 3.043683820853866e-001	 3.059899489839250e+000	 7.728616880935070e+000
 2.763023965621398e-001	 3.062561343972977e+000	 7.692297154061200e+000
 5.640854624804536e-001	 3.048246642064849e+000	 8.285142728292060e+000
 5.353158218360488e-001	 3.053430361206738e+000	 8.210277923524428e+000
 5.065842189381322e-001	 3.058328371672358e+000	 8.141209201245617e+000
 4.778944907168923e-001	 3.062942515882795e+000	 8.076218709478374e+000
 4.492504159930130e-001	 3.067274696468759e+000	 8.013872480661370e+000
 4.206557145323085e-001	 3.071326874448076e+000	 7.953017242901522e+000
 3.921140461600480e-001	 3.075101067394186e+000	 7.892776698210950e+000
 3.636290099345831e-001	 3.078599347597715e+000	 7.832547291639303e+000
 3.352041433798315e-001	 3.081823840223094e+000	 7.771993495838728e+000
 3.068429217761015e-001	 3.084776721462165e+000	 7.711042636121712e+000
 2.785487575086692e-001	 3.087460216686710e+000	 7.649879281503088e+000
 5.686345387899615e-001	 3.072829276272041e+000	 8.377420635633197e+000
 5.396328849144008e-001	 3.078054799600758e+000	 8.303160749946240e+000
 5.106695755413646e-001	 3.082992310150981e+000	 8.232080988850344e+000
 4.817484785440273e-001	 3.087643665202026e+000	 8.162381763099619e+000
 4.528734032174329e-001	 3.092010782728402e+000	 8.092556038679396e+000
 4.240480993255067e-001	 3.096095639562592e+000	 8.021386086125309e+000
 3.952762562082376e-001	 3.099900269548792e+000	 7.947939681493343e+000
 3.665615019486416e-001	 3.103426761689649e+000	 7.871565783506184e+000
 3.379074025990547e-001	 3.106677258288014e+000	 7.791889712043308e+000
 3.093174614662391e-001	 3.109653953085666e+000	 7.708807853683207e+000
 2.807951184547069e-001	 3.112359089400934e+000	 7.622481920450521e+000
 5.731836150994546e-001	 3.097411910480231e+000	 8.480006931820366e+000
 5.439499479925536e-001	 3.102679237995774e+000	 8.407520983135907e+000
 5.147549321442447e-001	 3.107656248630582e+000	 8.335440753648207e+000
 4.856024663706874e-001	 3.112344814522210e+000	 8.261883668971549e+000
 4.564963904412860e-001	 3.116746868988962e+000	 8.185268595170411e+000
 4.274404841180766e-001	 3.120864404677980e+000	 8.104312523699074e+000
 3.984384662557676e-001	 3.124699471704213e+000	 8.018026692360952e+000
 3.694939939620384e-001	 3.128254175782330e+000	 7.920096179341820e+000
 3.406106618176438e-001	 3.131530676353607e+000	 7.828834533176913e+000
 3.117920011557994e-001	 3.134531184709755e+000	 7.745323642699641e+000
 2.830414794002528e-001	 3.137257962115649e+000	 7.669549900116283e+000
 5.777326914089334e-001	 3.121994544689422e+000	 8.592258754927020e+000
 5.482670110705072e-001	 3.127303676391783e+000	 8.500012469305077e+000
 5.188402887467726e-001	 3.132320187111164e+000	 8.384643965020736e+000
 4.894564541968731e-001	 3.137045963843348e+000	 8.277968374819132e+000
 4.601193776645727e-001	 3.141482955250438e+000	 8.180136017887540e+000
 4.308328689100183e-001	 3.145633169794238e+000	 8.091269362361700e+000
 4.016006763026376e-001	 3.149498673860448e+000	 8.011462550364717e+000
 3.724264859747737e-001	 3.153081589875761e+000	 7.940781002847010e+000
 3.433139210355988e-001	 3.156384094419873e+000	 7.879261103293185e+000
 3.142665408447822e-001	 3.159408416334431e+000	 7.826909959159897e+000
 2.852878403453070e-001	 3.162156834830856e+000	 7.783705239720146e+000
 5.822817677183971e-001	 3.146577178899613e+000	 8.487329711876953e+000
 5.525840741482619e-001	 3.151928114788789e+000	 8.382418763344619e+000
 5.229256453489481e-001	 3.156984125592723e+000	 8.287428911142794e+000
 4.933104420225839e-001	 3.161747113165438e+000	 8.202542387313974e+000
 4.637423648872925e-001	 3.166219041512832e+000	 8.127912320299755e+000
 4.342252537013316e-001	 3.170401934911366e+000	 8.063662189546788e+000
 4.047628863488477e-001	 3.174297876017497e+000	 8.009885363421484e+000
 3.753589779868471e-001	 3.177909003969940e+000	 7.966644719632416e+000
 3.460171802529196e-001	 3.181237512486811e+000	 7.933972347146908e+000
 3.167410805331877e-001	 3.184285647959694e+000	 7.911869328379748e+000
 2.875342012898696e-001	 3.187055707546556e+000	 7.900305600239718e+000
 5.868308440278466e-001	 3.171159813110805e+000	 8.361735378161328e+000
 5.569011372258178e-001	 3.176552553186789e+000	 8.275043239434254e+000
 5.270110019507714e-001	 3.181648064075263e+000	 8.199654004839349e+000
 4.971644298478201e-001	 3.186448262488483e+000	 8.135755593292307e+000
 4.673653521094459e-001	 3.190955127776143e+000	 8.083505003773912e+000
 4.376176384920170e-001	 3.195170700029367e+000	 8.043027778895473e+000
 4.079250963943982e-001	 3.199097078175363e+000	 8.014417554605680e+000
 3.782914699982589e-001	 3.202736418064867e+000	 7.997735695162907e+000
 3.487204394696065e-001	 3.206090930554421e+000	 7.993011012278530e+000
 3.192156202210159e-001	 3.209162879585544e+000	 8.000239567124215e+000
 2.897805622339404e-001	 3.211954580262747e+000	 8.019384553700379e+000
 5.913799203372813e-001	 3.195742447322996e+000	 8.247224545011436e+000
 5.612182003031748e-001	 3.201176991585784e+000	 8.177986654809317e+000
 5.310963585522425e-001	 3.206312002558782e+000	 8.121410150698605e+000
 5.010184176725815e-001	 3.211149411812481e+000	 8.077689710346805e+000
 4.709883393310327e-001	 3.215691214040372e+000	 8.046987266391767e+000
 4.410100232820740e-001	 3.219939465148238e+000	 8.029431477837791e+000
 4.110873064392889e-001	 3.223896280334044e+000	 8.025117290474915e+000
 3.812239620090090e-001	 3.227563832160544e+000	 8.034105585372734e+000
 3.514236986856592e-001	 3.230944348622705e+000	 8.056422914271867e+000
 3.216901599082669e-001	 3.234040111211981e+000	 8.092061320483872e+000
 2.920269231775196e-001	 3.236853452979430e+000	 8.140978243705517e+000
 2.695633137196015e-001	 2.987864725834731e+000	 7.912294585259583e+000
 2.422499994928616e-001	 2.990203159944074e+000	 7.936672955432434e+000
 2.150079992345209e-001	 2.992285340715546e+000	 7.962615300217610e+000
 1.878404294212756e-001	 2.994113553803930e+000	 7.991147935287374e+000
 1.607503436877059e-001	 2.995690125330548e+000	 8.023506272823116e+000
 1.337407324649106e-001	 2.997017420116060e+000	 8.061127896094199e+000
 1.068145226705124e-001	 2.998097839922249e+000	 8.105645389090967e+000
 7.997457744910133e-002	 2.998933821704276e+000	 8.158878944982417e+000
 5.322369596216075e-002	 2.999527835874867e+000	 8.222828776931921e+000
 2.656461322647793e-002	 2.999882384581794e+000	 8.299667354510804e+000
 0.000000000000000e+000	 3.000000000000000e+000	 8.391731488593928e+000
 2.718096746676061e-001	 3.012763598546989e+000	 7.823239540587056e+000
 2.442687494886068e-001	 3.015121519607826e+000	 7.821231054107345e+000
 2.167997325611536e-001	 3.017221051886249e+000	 7.818590538763995e+000
 1.894057663325807e-001	 3.019064500084158e+000	 7.816334885756077e+000
 1.620899298844222e-001	 3.020654209707225e+000	 7.815696817660025e+000
 1.348552385680359e-001	 3.021992565282949e+000	 7.818117802031799e+000
 1.077046436920234e-001	 3.023081988587792e+000	 7.825240711867403e+000
 8.064103226051250e-002	 3.023924936884879e+000	 7.838902257322528e+000
 5.366722676133132e-002	 3.024523901173706e+000	 7.861125212855832e+000
 2.678598500307297e-002	 3.024881404453279e+000	 7.894110463657186e+000
 0.000000000000000e+000	 3.025000000000000e+000	 7.940228894864629e+000
 2.740560356151188e-001	 3.037662471259737e+000	 7.749996030199742e+000
 2.462874994839552e-001	 3.040039879271976e+000	 7.720871256386521e+000
 2.185914658874736e-001	 3.042156763057263e+000	 7.688757722921203e+000
 1.909711032436471e-001	 3.044015446364626e+000	 7.654663785576260e+000
 1.634295160809640e-001	 3.045618294084078e+000	 7.619820538574378e+000
 1.359697446710402e-001	 3.046967710449958e+000	 7.585674562440336e+000
 1.085947647134573e-001	 3.048066137253413e+000	 7.553880410364892e+000
 8.130748707188042e-002	 3.048916052065525e+000	 7.526292858128177e+000
 5.411075756048274e-002	 3.049519966472564e+000	 7.504958942387461e+000
 2.700735677966324e-002	 3.049880424324769e+000	 7.492109811830013e+000
 0.000000000000000e+000	 3.050000000000000e+000	 7.490152415324296e+000
 2.763023965621398e-001	 3.062561343972977e+000	 7.692297154061200e+000
 2.483062494789065e-001	 3.064958238936522e+000	 7.635364887742759e+000
 2.203831992134811e-001	 3.067092474228589e+000	 7.572925498385495e+000
 1.925364401544751e-001	 3.068966392645331e+000	 7.505979681125118e+000
 1.647691022773311e-001	 3.070582378461104e+000	 7.435757950364629e+000
 1.370842507739238e-001	 3.071942855617088e+000	 7.363713217077325e+000
 1.094848857348142e-001	 3.073050285919111e+000	 7.291513096124144e+000
 8.197394188320514e-002	 3.073907167246214e+000	 7.221031969291855e+000
 5.455428835961503e-002	 3.074516031771442e+000	 7.154342829514039e+000
 2.722872855624875e-002	 3.074879444196264e+000	 7.093708931426342e+000
 0.000000000000000e+000	 3.075000000000000e+000	 7.041575273032574e+000
 2.785487575086692e-001	 3.087460216686710e+000	 7.649879281503088e+000
 2.503249994734609e-001	 3.089876598601465e+000	 7.564486080131146e+000
 2.221749325391760e-001	 3.092028185400229e+000	 7.470904831013082e+000
 1.941017770650646e-001	 3.093917338926275e+000	 7.370129429605368e+000
 1.661086884735236e-001	 3.095546462838306e+000	 7.263390846739009e+000
 1.381987568766865e-001	 3.096918000784339e+000	 7.152149530549562e+000
 1.103750067560940e-001	 3.098034434584885e+000	 7.038087529770103e+000
 8.264039669448670e-002	 3.098898282426946e+000	 6.923100364767310e+000
 5.499781915872820e-002	 3.099512097070338e+000	 6.809288672453597e+000
 2.745010033282948e-002	 3.099878464067764e+000	 6.698949650889907e+000
 0.000000000000000e+000	 3.100000000000000e+000	 6.594568329014823e+000
 2.807951184547069e-001	 3.112359089400934e+000	 7.622481920450521e+000
 2.523437494676183e-001	 3.114794958266807e+000	 7.508011659729779e+000
 2.239666658645582e-001	 3.116963896572182e+000	 7.382508914014020e+000
 1.956671139754155e-001	 3.118868285207458e+000	 7.246961626612723e+000
 1.674482746695415e-001	 3.120510547215681e+000	 7.102602249159548e+000
 1.393132629793283e-001	 3.121893145951711e+000	 6.950899963318814e+000
 1.112651277772967e-001	 3.123018583250737e+000	 6.793552615048358e+000
 8.330685150572503e-002	 3.123889397607721e+000	 6.632478388487447e+000
 5.544134995782223e-002	 3.124508162369253e+000	 6.469807246285843e+000
 2.767147210940546e-002	 3.124877483939268e+000	 6.307872162868868e+000
 0.000000000000000e+000	 3.125000000000000e+000	 6.149200176743893e+000
 2.830414794002528e-001	 3.137257962115649e+000	 7.669549900116283e+000
 2.543624994613788e-001	 3.139713317932543e+000	 7.575149965656122e+000
 2.257583991896280e-001	 3.141899607744446e+000	 7.479699920824923e+000
 1.972324508855279e-001	 3.143819231488879e+000	 7.383164947857271e+000
 1.687878608653847e-001	 3.145474631593233e+000	 7.285488526090309e+000
 1.404277690818493e-001	 3.146868291119204e+000	 7.186592392812725e+000
 1.121552487984223e-001	 3.148002731916666e+000	 7.086376565566068e+000
 8.397330631692018e-002	 3.148880512788539e+000	 6.984719424005154e+000
 5.588488075689713e-002	 3.149504227668189e+000	 6.881477849316692e+000
 2.789284388597667e-002	 3.149876503810777e+000	 6.776487419099715e+000
 0.000000000000000e+000	 3.150000000000000e+000	 6.669562655524827e+000
 2.852878403453070e-001	 3.162156834830856e+000	 7.783705239720146e+000
 2.563812494547424e-001	 3.164631677598678e+000	 7.722142842481166e+000
 2.275501325143851e-001	 3.166835318917024e+000	 7.661120752263669e+000
 1.987977877954018e-001	 3.168770177770539e+000	 7.600584247127250e+000
 1.701274470610533e-001	 3.170438715970958e+000	 7.540455322382305e+000
 1.415422751842495e-001	 3.171843436286817e+000	 7.480632691681819e+000
 1.130453698194709e-001	 3.172986880582671e+000	 7.420991851220757e+000
 8.463976112807213e-002	 3.173871627969401e+000	 7.361385205037855e+000
 5.632841155595290e-002	 3.174500292967142e+000	 7.301642249307505e+000
 2.811421566254312e-002	 3.174875523682292e+000	 7.241569813413546e+000
 0.000000000000000e+000	 3.175000000000000e+000	 7.180952355510065e+000
 2.875342012898696e-001	 3.187055707546556e+000	 7.900305600239718e+000
 2.583999994477090e-001	 3.189550037265209e+000	 7.870510683741834e+000
 2.293418658388295e-001	 3.191771030089913e+000	 7.842829295164241e+000
 2.003631247050372e-001	 3.193721124052436e+000	 7.817187830029510e+000
 1.714670332565472e-001	 3.195402800348858e+000	 7.793487804549113e+000
 1.426567812865288e-001	 3.196818581454552e+000	 7.771605896257254e+000
 1.139354908404424e-001	 3.197971029248754e+000	 7.751394049457111e+000
 8.530621593918086e-002	 3.198862743150305e+000	 7.732679643362324e+000
 5.677194235498956e-002	 3.199496358266116e+000	 7.715265720710854e+000
 2.833558743910480e-002	 3.199874543553810e+000	 7.698931274528714e+000
 0.000000000000000e+000	 3.199999999999999e+000	 7.683431590635353e+000
 2.897805622339404e-001	 3.211954580262747e+000	 8.019384553700379e+000
 2.604187494402786e-001	 3.214468396932137e+000	 8.020286445155966e+000
 2.311335991629615e-001	 3.216706741263115e+000	 8.024858634748227e+000
 2.019284616144341e-001	 3.218672070334574e+000	 8.033009652903193e+000
 1.728066194518666e-001	 3.220366884726932e+000	 8.044621537047101e+000
 1.437712873886872e-001	 3.221793726622408e+000	 8.059549911090544e+000
 1.148256118613368e-001	 3.222955177914914e+000	 8.077624131480452e+000
 8.597267075024639e-002	 3.223853858331254e+000	 8.098647497591268e+000
 5.721547315400705e-002	 3.224492423565107e+000	 8.122397524118700e+000
 2.855695921566170e-002	 3.224873563425334e+000	 8.148626273040179e+000
 0.000000000000000e+000	 3.224999999999999e+000	 8.177060742621324e+000
 2.920269231775196e-001	 3.236853452979430e+000	 8.140978243705517e+000
 2.624374994324514e-001	 3.239386756599464e+000	 8.171505289928666e+000
 2.329253324867810e-001	 3.241642452436632e+000	 8.207243681199444e+000
 2.034937985235925e-001	 3.243623016616949e+000	 8.248085096424122e+000
 1.741462056470113e-001	 3.245330969105182e+000	 8.293893090281577e+000
 1.448857934907249e-001	 3.246768871790385e+000	 8.344503210875578e+000
 1.157157328821542e-001	 3.247939326581152e+000	 8.399723185760983e+000
 8.663912556126877e-002	 3.248844973512246e+000	 8.459333174003740e+000
 5.765900395300546e-002	 3.249488488864120e+000	 8.523086081823433e+000
 2.877833099221386e-002	 3.249872583296864e+000	 8.590707939268697e+000
 0.000000000000000e+000	 3.250000000000000e+000	 8.661898335289543e+000
 3.250000000000000e+000	 0.000000000000000e+000	 1.054179277740609e+001
 3.249872583296864e+000	 2.877833099221397e-002	 1.059065019025554e+001
 3.249488488864120e+000	 5.765900395300565e-002	 1.063558432500861e+001
 3.248844973512246e+000	 8.663912556126854e-002	 1.067602425954851e+001
 3.247939326581152e+000	 1.157157328821541e-001	 1.071143032947340e+001
 3.246768871790384e+000	 1.448857934907248e-001	 1.074129505794913e+001
 3.245330969105183e+000	 1.741462056470114e-001	 1.076514402726468e+001
 3.243623016616949e+000	 2.034937985235927e-001	 1.078253668835000e+001
 3.241642452436632e+000	 2.329253324867808e-001	 1.079306710456924e+001
 3.239386756599463e+000	 2.624374994324513e-001	 1.079636462616873e+001
 3.236853452979430e+000	 2.920269231775197e-001	 1.079209449184085e+001
 3.275000000000000e+000	 0.000000000000000e+000	 1.057629483193262e+001
 3.274871603168394e+000	 2.899970276876611e-002	 1.061862041365983e+001
 3.274484554163141e+000	 5.810253475200403e-002	 1.065701457272852e+001
 3.273836088693259e+000	 8.730558037229089e-002	 1.069095311755052e+001
 3.272923475247428e+000	 1.166058539029715e-001	 1.071994481184706e+001
 3.271744016958421e+000	 1.460002995927624e-001	 1.074353229049739e+001
 3.270295053483519e+000	 1.754857918421561e-001	 1.076129291369023e+001
 3.268573962899444e+000	 2.050591354327511e-001	 1.077283955554647e+001
 3.266578163610304e+000	 2.347170658106001e-001	 1.077782132343887e+001
 3.264305116266987e+000	 2.644562494246239e-001	 1.077592420430721e+001
 3.261752325696358e+000	 2.942732841210988e-001	 1.076687163435387e+001
 3.300000000000000e+000	 0.000000000000000e+000	 1.060627030944155e+001
 3.299870623039924e+000	 2.922107454532303e-002	 1.064300760182191e+001
 3.299480619462162e+000	 5.854606555102154e-002	 1.067577902324530e+001
 3.298827203874272e+000	 8.797203518335642e-002	 1.070410682983011e+001
 3.297907623913702e+000	 1.174959749238659e-001	 1.072754795544106e+001
 3.296719162126458e+000	 1.471148056949209e-001	 1.074569491413235e+001
 3.295259137861856e+000	 1.768253780374754e-001	 1.075817663746351e+001
 3.293524909181938e+000	 2.066244723421480e-001	 1.076465924276228e+001
 3.291513874783975e+000	 2.365087991347321e-001	 1.076484672847195e+001
 3.289223475934511e+000	 2.664749994171936e-001	 1.075848159279798e+001
 3.286651198413287e+000	 2.965196450651695e-001	 1.074534537196164e+001
 3.324999999999999e+000	 0.000000000000000e+000	 1.063191368332247e+001
 3.324869642911456e+000	 2.944244632188471e-002	 1.066396844759236e+001
 3.324476684761182e+000	 5.898959635005818e-002	 1.069199647837624e+001
 3.323818319055285e+000	 8.863848999446515e-002	 1.071556621242656e+001
 3.322891772579979e+000	 1.183860959448374e-001	 1.073428251195319e+001
 3.321694307294494e+000	 1.482293117972002e-001	 1.074778755425552e+001
 3.320223222240192e+000	 1.781649642329694e-001	 1.075576165276565e+001
 3.318475855464432e+000	 2.081898092517834e-001	 1.075792400548151e+001
 3.316449585957646e+000	 2.383005324591765e-001	 1.075403336683622e+001
 3.314141835602035e+000	 2.684937494101602e-001	 1.074388863913362e+001
 3.311550071130215e+000	 2.987660060097320e-001	 1.072732937977809e+001
 3.350000000000000e+000	 0.000000000000000e+000	 1.065341362178914e+001
 3.349868662782986e+000	 2.966381809845116e-002	 1.068165464942952e+001
 3.349472750060204e+000	 5.943312714911397e-002	 1.070578155204610e+001
 3.348809434236297e+000	 8.930494480561710e-002	 1.072540869535199e+001
 3.347875921246254e+000	 1.192762169658859e-001	 1.074018864393099e+001
 3.346669452462531e+000	 1.493438178996003e-001	 1.074981303864910e+001
 3.345187306618529e+000	 1.795045504286380e-001	 1.075401340198351e+001
 3.343426801746927e+000	 2.097551461616573e-001	 1.075256186714999e+001
 3.341385297131318e+000	 2.400922657839337e-001	 1.074527182698282e+001
 3.339060195269558e+000	 2.705124994035237e-001	 1.073199849860945e+001
 3.336448943847143e+000	 3.010123669547863e-001	 1.071263940006710e+001
 3.375000000000000e+000	 0.000000000000000e+000	 1.067095320288606e+001
 3.374867682654517e+000	 2.988518987502237e-002	 1.069621309637689e+001
 3.374468815359225e+000	 5.987665794818887e-002	 1.071724482539432e+001
 3.373800549417310e+000	 8.997139961681223e-002	 1.073370844799983e+001
 3.372860069912530e+000	 1.201663379870116e-001	 1.074530402066614e+001
 3.371644597630567e+000	 1.504583240021213e-001	 1.075177246405462e+001
 3.370151390996865e+000	 1.808441366244812e-001	 1.075289635318361e+001
 3.368377748029421e+000	 2.113204830717697e-001	 1.074850062776936e+001
 3.366321008304989e+000	 2.418839991090034e-001	 1.073845321859861e+001
 3.363978554937082e+000	 2.725312493972842e-001	 1.072266558588617e+001
 3.361347816564072e+000	 3.032587279003323e-001	 1.070109316568125e+001
 3.400000000000000e+000	 0.000000000000000e+000	 1.068471012000934e+001
 3.399866702526047e+000	 3.010656165159834e-002	 1.070778604487991e+001
 3.399464880658245e+000	 6.032018874728289e-002	 1.072649299503912e+001
 3.398791664598323e+000	 9.063785442805056e-002	 1.074053649902046e+001
 3.397844218578805e+000	 1.210564590082143e-001	 1.074966390985834e+001
 3.396619742798603e+000	 1.515728301047631e-001	 1.075366525981397e+001
 3.395115475375202e+000	 1.821837228204991e-001	 1.075237403593266e+001
 3.393328694311914e+000	 2.128858199821206e-001	 1.074566787211187e+001
 3.391256719478661e+000	 2.436757324343857e-001	 1.073346915344319e+001
 3.388896914604606e+000	 2.745499993914417e-001	 1.071574552868984e+001
 3.386246689281000e+000	 3.055050888463699e-001	 1.069251032687856e+001
 3.425000000000000e+000	 0.000000000000000e+000	 1.069485687842677e+001
 3.424865722397579e+000	 3.032793342817908e-002	 1.071651128785888e+001
 3.424460945957267e+000	 6.076371954639608e-002	 1.073362901484839e+001
 3.423782779779336e+000	 9.130430923933212e-002	 1.074596085094692e+001
 3.422828367245081e+000	 1.219465800294941e-001	 1.075330126526454e+001
 3.421594887966640e+000	 1.526873362075258e-001	 1.075548924872353e+001
 3.420079559753539e+000	 1.835233090166916e-001	 1.075240907554943e+001
 3.418279640594410e+000	 2.144511568927102e-001	 1.074399097757554e+001
 3.416192430652332e+000	 2.454674657600806e-001	 1.073021172702505e+001
 3.413815274272130e+000	 2.765687493859961e-001	 1.071109512353934e+001
 3.411145561997928e+000	 3.077514497928993e-001	 1.068671238134404e+001
 3.449999999999999e+000	 0.000000000000000e+000	 1.070156098325344e+001
 3.449864742269110e+000	 3.054930520476459e-002	 1.072252231643082e+001
 3.449457011256287e+000	 6.120725034552838e-002	 1.073875223154656e+001
 3.448773894960349e+000	 9.197076405065684e-002	 1.075004658983681e+001
 3.447812515911356e+000	 1.228367010508510e-001	 1.075624681053761e+001
 3.446570033134677e+000	 1.538018423104094e-001	 1.075724070524228e+001
 3.445043644131875e+000	 1.848628952130587e-001	 1.075296322586731e+001
 3.443230586876903e+000	 2.160164938035381e-001	 1.074339712169767e+001
 3.441128141826004e+000	 2.472591990860880e-001	 1.072857350107445e+001
 3.438733633939654e+000	 2.785874993809474e-001	 1.070857229339876e+001
 3.436044434714856e+000	 3.099978107399203e-001	 1.068352260725406e+001
 3.474999999999999e+000	 0.000000000000000e+000	 1.070498511931338e+001
 3.474863762140640e+000	 3.077067698135486e-002	 1.072594847465071e+001
 3.474453076555308e+000	 6.165078114467980e-002	 1.074195851446798e+001
 3.473765010141362e+000	 9.263721886202479e-002	 1.075285599018146e+001
 3.472796664577632e+000	 1.237268220722849e-001	 1.075852911944575e+001
 3.471545178302714e+000	 1.549163484134138e-001	 1.075891441118736e+001
 3.470007728510212e+000	 1.862024814096004e-001	 1.075399740058275e+001
 3.468181533159398e+000	 2.175818307146046e-001	 1.074381328934408e+001
 3.466063852999675e+000	 2.490509324124081e-001	 1.072844748677279e+001
 3.463651993607177e+000	 2.806062493762958e-001	 1.070803604715794e+001
 3.460943307431786e+000	 3.122441716874331e-001	 1.068276599922985e+001
 3.500000000000000e+000	 0.000000000000000e+000	 1.070528732329277e+001
 3.499862782012172e+000	 3.099204875794991e-002	 1.072691510762074e+001
 3.499449141854330e+000	 6.209431194385037e-002	 1.074334037974940e+001
 3.498756125322376e+000	 9.330367367343595e-002	 1.075444861531903e+001
 3.497780813243909e+000	 1.246169430937959e-001	 1.076017469265416e+001
 3.496520323470751e+000	 1.560308545165391e-001	 1.076050370904280e+001
 3.494971812888549e+000	 1.875420676063169e-001	 1.075547170326012e+001
 3.493132479441893e+000	 2.191471676259096e-001	 1.074516627959022e+001
 3.490999564173347e+000	 2.508426657390408e-001	 1.072972712870090e+001
 3.488570353274701e+000	 2.826249993720411e-001	 1.070934644084922e+001
 3.485842180148715e+000	 3.144905326354376e-001	 1.068426920703585e+001
 3.236853452979430e+000	 2.920269231775197e-001	 1.079209449184085e+001
 3.234040111211981e+000	 3.216901599082671e-001	 1.083529694988066e+001
 3.230944348622705e+000	 3.514236986856594e-001	 1.087148823096765e+001
 3.227563832160543e+000	 3.812239620090088e-001	 1.090047268992718e+001
 3.223896280334043e+000	 4.110873064392887e-001	 1.092209187735853e+001
 3.219939465148238e+000	 4.410100232820740e-001	 1.093622469104309e+001
 3.215691214040372e+000	 4.709883393310329e-001	 1.094278743522789e+001
 3.211149411812481e+000	 5.010184176725818e-001	 1.094173378527637e+001
 3.206312002558781e+000	 5.310963585522424e-001	 1.093305465538195e+001
 3.201176991585784e+000	 5.612182003031746e-001	 1.091677796726034e+001
 3.195742447322996e+000	 5.913799203372813e-001	 1.089296831796862e+001
 3.261752325696358e+000	 2.942732841210988e-001	 1.076687163435387e+001
 3.258917342838710e+000	 3.241646995955180e-001	 1.080640583154010e+001
 3.255797766691325e+000	 3.541269579017121e-001	 1.083950348299990e+001
 3.252391246256594e+000	 3.841564540197591e-001	 1.086602020077231e+001
 3.248695482493130e+000	 4.142495164841794e-001	 1.088584993122803e+001
 3.244708230267543e+000	 4.444024080721309e-001	 1.089892506059215e+001
 3.240427300305057e+000	 4.746113265526195e-001	 1.090521642473977e+001
 3.235850561136954e+000	 5.048724054973430e-001	 1.090473322073689e+001
 3.230975941042790e+000	 5.351817151537135e-001	 1.089752281781157e+001
 3.225801429985276e+000	 5.655352633805314e-001	 1.088367046566960e+001
 3.220325081535687e+000	 5.959289966467158e-001	 1.086329889831072e+001
 3.286651198413287e+000	 2.965196450651695e-001	 1.074534537196164e+001
 3.283794574465441e+000	 3.266392392833462e-001	 1.078153184677338e+001
 3.280651184759944e+000	 3.568302171183990e-001	 1.081182665222760e+001
 3.277218660352643e+000	 3.870889460311707e-001	 1.083613676865532e+001
 3.273494684652216e+000	 4.174117265297296e-001	 1.085440868130929e+001
 3.269476995386850e+000	 4.477947928628163e-001	 1.086662844016181e+001
 3.265163386569745e+000	 4.782343137747729e-001	 1.087282162032065e+001
 3.260551710461429e+000	 5.087263933225793e-001	 1.087305318051399e+001
 3.255639879526798e+000	 5.392670717555368e-001	 1.086742721731772e+001
 3.250425868384768e+000	 5.698523264580871e-001	 1.085608661303591e+001
 3.244907715748377e+000	 6.004780729561651e-001	 1.083921257539729e+001
 3.311550071130215e+000	 2.987660060097320e-001	 1.072732937977809e+001
 3.308671806092171e+000	 3.291137789717518e-001	 1.076045844700607e+001
 3.305504602828564e+000	 3.595334763357197e-001	 1.078821107287503e+001
 3.302046074448694e+000	 3.900214380432441e-001	 1.081054573410570e+001
 3.298293886811303e+000	 4.205739365759399e-001	 1.082746161525435e+001
 3.294245760506156e+000	 4.511871776541295e-001	 1.083899862293636e+001
 3.289899472834430e+000	 4.818573009974929e-001	 1.084523729695881e+001
 3.285252859785903e+000	 5.125803811482900e-001	 1.084629861579126e+001
 3.280303818010806e+000	 5.433524283577124e-001	 1.084234369403460e+001
 3.275050306784260e+000	 5.741693895358420e-001	 1.083357336979417e+001
 3.269490349961068e+000	 6.050271492656288e-001	 1.082022768012568e+001
 3.336448943847143e+000	 3.010123669547863e-001	 1.071263940006710e+001
 3.333549037718900e+000	 3.315883186607346e-001	 1.074297166672611e+001
 3.330358020897183e+000	 3.622367355536747e-001	 1.076841316900901e+001
 3.326873488544744e+000	 3.929539300559794e-001	 1.078897402485085e+001
 3.323093088970390e+000	 4.237361466228101e-001	 1.080470629555338e+001
 3.319014525625462e+000	 4.545795624460712e-001	 1.081570395457336e+001
 3.314635559099118e+000	 4.854802882207795e-001	 1.082210274945749e+001
 3.309954009110376e+000	 5.164343689744756e-001	 1.082407995432863e+001
 3.304967756494813e+000	 5.474377849602401e-001	 1.082185401056914e+001
 3.299674745183751e+000	 5.784864526137957e-001	 1.081568405360100e+001
 3.294072984173759e+000	 6.095762255751076e-001	 1.080586932393613e+001
 3.361347816564072e+000	 3.032587279003323e-001	 1.070109316568125e+001
 3.358426269345630e+000	 3.340628583502949e-001	 1.072886002781496e+001
 3.355211438965803e+000	 3.649399947722639e-001	 1.075219234010003e+001
 3.351700902640793e+000	 3.958864220693762e-001	 1.077115202295697e+001
 3.347892291129476e+000	 4.268983566703398e-001	 1.078584420861477e+001
 3.343783290744768e+000	 4.579719472386412e-001	 1.079641716459356e+001
 3.339371645363804e+000	 4.891032754446326e-001	 1.080306210651569e+001
 3.334655158434851e+000	 5.202883568011358e-001	 1.080601289762620e+001
 3.329631694978821e+000	 5.515231415631203e-001	 1.080554563265022e+001
 3.324299183583244e+000	 5.828035156919486e-001	 1.080197810388204e+001
 3.318655618386451e+000	 6.141253018846009e-001	 1.079566914768050e+001
 3.386246689281000e+000	 3.055050888463699e-001	 1.069251032687856e+001
 3.383303500972360e+000	 3.365373980404324e-001	 1.071791444809921e+001
 3.380064857034422e+000	 3.676432539914870e-001	 1.073931085163259e+001
 3.376528316736844e+000	 3.988189140834348e-001	 1.075681343783123e+001
 3.372691493288563e+000	 4.300605667185297e-001	 1.077058062050347e+001
 3.368552055864074e+000	 4.613643320318394e-001	 1.078081520520925e+001
 3.364107731628490e+000	 4.927262626690525e-001	 1.078776415301149e+001
 3.359356307759325e+000	 5.241423446282708e-001	 1.079171822703664e+001
 3.354295633462829e+000	 5.556084981663527e-001	 1.079301151945507e+001
 3.348923621982736e+000	 5.871205787703004e-001	 1.079202085676686e+001
 3.343238252599141e+000	 6.186743781941089e-001	 1.078916508157039e+001
 3.411145561997928e+000	 3.077514497928993e-001	 1.068671238134404e+001
 3.408180732599090e+000	 3.390119377311472e-001	 1.070992815390735e+001
 3.404918275103042e+000	 3.703465132113444e-001	 1.072953373050607e+001
 3.401355730832894e+000	 4.017514060981550e-001	 1.074569518478604e+001
 3.397490695447650e+000	 4.332227767673792e-001	 1.075862443899724e+001
 3.393320820983380e+000	 4.647567168256657e-001	 1.076857909721174e+001
 3.388843817893178e+000	 4.963492498940390e-001	 1.077586216006848e+001
 3.384057457083798e+000	 5.279963324558805e-001	 1.078082161836928e+001
 3.378959571946838e+000	 5.596938547699373e-001	 1.078384992311838e+001
 3.373548060382228e+000	 5.914376418488513e-001	 1.078538332988084e+001
 3.367820886811832e+000	 6.232234545036315e-001	 1.078590111563845e+001
 3.436044434714856e+000	 3.099978107399203e-001	 1.068352260725406e+001
 3.433057964225819e+000	 3.414864774224395e-001	 1.070469659642840e+001
 3.429771693171661e+000	 3.730497724318357e-001	 1.072262866498343e+001
 3.426183144928944e+000	 4.046838981135369e-001	 1.073753726888303e+001
 3.422289897606735e+000	 4.363849868168885e-001	 1.074968808164057e+001
 3.418089586102685e+000	 4.681491016201202e-001	 1.075939378255883e+001
 3.413579904157863e+000	 4.999722371195919e-001	 1.076701372251054e+001
 3.408758606408273e+000	 5.318503202839651e-001	 1.077295346455453e+001
 3.403623510430845e+000	 5.637792113738743e-001	 1.077766419695850e+001
 3.398172498781719e+000	 5.957547049276010e-001	 1.078164201649384e+001
 3.392403521024523e+000	 6.277725308131688e-001	 1.077307703276786e+001
 3.460943307431786e+000	 3.122441716874331e-001	 1.068276599922985e+001
 3.457935195852550e+000	 3.439610171143091e-001	 1.070201737168102e+001
 3.454625111240281e+000	 3.757530316529612e-001	 1.071836590895880e+001
 3.451010559024994e+000	 4.076163901295806e-001	 1.073208267379096e+001
 3.447089099765823e+000	 4.395471968670578e-001	 1.074348734949411e+001
 3.442858351221993e+000	 4.715414864152032e-001	 1.075294798332574e+001
 3.438315990422550e+000	 5.035952243457118e-001	 1.076088060333321e+001
 3.433459755732745e+000	 5.357043081125240e-001	 1.076774870596335e+001
 3.428287448914853e+000	 5.678645679781635e-001	 1.077406261198167e+001
 3.422796937181212e+000	 6.000717680065498e-001	 1.078037868855454e+001
 3.416986155237214e+000	 6.323216071227208e-001	 1.075463801839869e+001
 3.485842180148715e+000	 3.144905326354376e-001	 1.068426920703585e+001
 3.482812427479281e+000	 3.464355568067562e-001	 1.070169014391234e+001
 3.479478529308901e+000	 3.784562908747209e-001	 1.071651819032773e+001
 3.475837973121044e+000	 4.105488821462860e-001	 1.072907725540693e+001
 3.471888301924910e+000	 4.427094069178869e-001	 1.073974130629471e+001
 3.467627116341299e+000	 4.749338712109144e-001	 1.074893406670088e+001
 3.463052076687238e+000	 5.072182115723981e-001	 1.075712858484027e+001
 3.458160905057221e+000	 5.395582959415582e-001	 1.076484666799866e+001
 3.452951387398861e+000	 5.719499245828053e-001	 1.077265818125022e+001
 3.447421375580704e+000	 6.043888310856977e-001	 1.078118020816621e+001
 3.441568789449906e+000	 6.368706834322875e-001	 1.073833487075580e+001
 3.195742447322996e+000	 5.913799203372813e-001	 1.089296831796862e+001
 3.190006503222291e+000	 6.215774361993541e-001	 1.101142835414872e+001
 3.183967359642995e+000	 6.518066066841965e-001	 1.103204593485862e+001
 3.177623285720976e+000	 6.820632330168475e-001	 1.103686251842472e+001
 3.170972621219920e+000	 7.123430600964775e-001	 1.103856316447910e+001
 3.164013778361765e+000	 7.426417778035708e-001	 1.103751560528523e+001
 3.156745243634213e+000	 7.729550223703776e-001	 1.103410219096340e+001
 3.149165579572983e+000	 8.032783778144551e-001	 1.102872008651669e+001
 3.141273426516435e+000	 8.336073774350103e-001	 1.102178144894454e+001
 3.133067504330196e+000	 8.639375053716755e-001	 1.101371358305398e+001
 3.124546614099405e+000	 8.942641982252434e-001	 1.100610621645244e+001
 3.220325081535687e+000	 5.959289966467158e-001	 1.086329889831072e+001
 3.214545014787886e+000	 6.263588010934251e-001	 1.098733857609472e+001
 3.208459416257858e+000	 6.568205036599045e-001	 1.099937156269047e+001
 3.202066541767134e+000	 6.873098732729227e-001	 1.100817387577310e+001
 3.195364718308351e+000	 7.178226221001052e-001	 1.101407477380460e+001
 3.188352345889771e+000	 7.483544068671686e-001	 1.101741760045595e+001
 3.181027899356695e+000	 7.789008302389191e-001	 1.101856002687150e+001
 3.173389930187422e+000	 8.094574422638170e-001	 1.101787427619735e+001
 3.165437068261379e+000	 8.400197418818309e-001	 1.101574732894479e+001
 3.157168023597005e+000	 8.705831784952052e-001	 1.101258110775487e+001
 3.148581588057016e+000	 9.011431536016611e-001	 1.100879264013020e+001
 3.244907715748377e+000	 6.004780729561651e-001	 1.083921257539729e+001
 3.239083526353474e+000	 6.311401659873205e-001	 1.095350751116230e+001
 3.232951472872700e+000	 6.618344006352653e-001	 1.096870367028146e+001
 3.226509797813247e+000	 6.925565135284995e-001	 1.098089940367503e+001
 3.219756815396703e+000	 7.233021841031020e-001	 1.099039998670113e+001
 3.212690913417656e+000	 7.540670359300240e-001	 1.099752447290446e+001
 3.205310555079000e+000	 7.848466381066257e-001	 1.100260596323419e+001
 3.197614280801620e+000	 8.156365067122716e-001	 1.100599185830525e+001
 3.189600710006009e+000	 8.464321063276927e-001	 1.100804409223213e+001
 3.181268542863414e+000	 8.772288516177456e-001	 1.100913934655706e+001
 3.172616562014134e+000	 9.080221089770787e-001	 1.100966924279188e+001
 3.269490349961068e+000	 6.050271492656288e-001	 1.082022768012568e+001
 3.263622037919057e+000	 6.359215308810399e-001	 1.092213500299601e+001
 3.257443529487524e+000	 6.668482976102796e-001	 1.093992937429681e+001
 3.250953053859317e+000	 6.978031537835777e-001	 1.095494527066796e+001
 3.244148912484980e+000	 7.287817461054684e-001	 1.096746406446931e+001
 3.237029480945418e+000	 7.597796649921365e-001	 1.097778060919806e+001
 3.229593210801129e+000	 7.907924459734975e-001	 1.098620353590599e+001
 3.221838631415580e+000	 8.218155711598196e-001	 1.099305553343071e+001
 3.213764351750323e+000	 8.528444707725963e-001	 1.099867361092749e+001
 3.205369062129424e+000	 8.838745247392957e-001	 1.100340934117831e+001
 3.196651535970757e+000	 9.149010643514963e-001	 1.100762908314961e+001
 3.294072984173759e+000	 6.095762255751076e-001	 1.080586932393613e+001
 3.288160549484637e+000	 6.407028957745838e-001	 1.089309548229486e+001
 3.281935586102328e+000	 6.718621945849470e-001	 1.091294164085478e+001
 3.275396309905343e+000	 7.030497940381575e-001	 1.093022302416843e+001
 3.268541009573177e+000	 7.342613081072044e-001	 1.094519717358742e+001
 3.261368048473059e+000	 7.654922940535064e-001	 1.095813482442680e+001
 3.253875866523083e+000	 7.967382538395345e-001	 1.096932022983381e+001
 3.246062982029298e+000	 8.279946356064606e-001	 1.097905146923278e+001
 3.237927993494324e+000	 8.592568352165414e-001	 1.098764073978922e+001
 3.229469581395036e+000	 8.905201978598566e-001	 1.099541462932405e+001
 3.220686509926887e+000	 9.217800197249140e-001	 1.100271436910050e+001
 3.318655618386451e+000	 6.141253018846009e-001	 1.079566914768050e+001
 3.312699061050211e+000	 6.454842606679520e-001	 1.086626946253441e+001
 3.306427642717112e+000	 6.768760915592673e-001	 1.088763906888021e+001
 3.299839565951326e+000	 7.082964342922389e-001	 1.090664939125429e+001
 3.292933106661296e+000	 7.397408701083097e-001	 1.092353420403813e+001
 3.285706616000578e+000	 7.712049231141334e-001	 1.093854019818419e+001
 3.278158522244861e+000	 8.026840617047366e-001	 1.095192733279450e+001
 3.270287332642777e+000	 8.341737000521948e-001	 1.096396917202937e+001
 3.262091635238009e+000	 8.656691996595277e-001	 1.097495320574492e+001
 3.253570100660249e+000	 8.971658709794281e-001	 1.098518115224336e+001
 3.244721483882524e+000	 9.286589750973319e-001	 1.099496924150957e+001
 3.343238252599141e+000	 6.186743781941089e-001	 1.078916508157039e+001
 3.337237572615780e+000	 6.502656255611442e-001	 1.084154331633539e+001
 3.330919699331878e+000	 6.818899885332411e-001	 1.086392568301615e+001
 3.324282821997265e+000	 7.135430745458216e-001	 1.088414608823601e+001
 3.317325203749339e+000	 7.452204321087845e-001	 1.090241459565031e+001
 3.310045183527974e+000	 7.769175521740177e-001	 1.091895391778395e+001
 3.302441177966462e+000	 8.086298695691037e-001	 1.093399979558477e+001
 3.294511683256015e+000	 8.403527644970220e-001	 1.094780136405242e+001
 3.286255276981380e+000	 8.720815641015558e-001	 1.096062150229702e+001
 3.277670619925062e+000	 9.038115440980098e-001	 1.097273716636349e+001
 3.268756457837667e+000	 9.355379304687496e-001	 1.098443970314486e+001
 3.367820886811832e+000	 6.232234545036315e-001	 1.078590111563845e+001
 3.361776084181346e+000	 6.550469904541610e-001	 1.081880906162619e+001
 3.355411755946624e+000	 6.869038855068678e-001	 1.084171073560481e+001
 3.348726078043160e+000	 7.187897147989056e-001	 1.086263963856786e+001
 3.341717300837303e+000	 7.506999941086290e-001	 1.088178217204612e+001
 3.334383751055251e+000	 7.826301812331595e-001	 1.089933712834321e+001
 3.326723833687888e+000	 8.145756774326358e-001	 1.091551609833440e+001
 3.318736033869013e+000	 8.465318289409424e-001	 1.093054386607873e+001
 3.310418918724438e+000	 8.784939285426251e-001	 1.094465878855291e+001
 3.301771139189478e+000	 9.104572172156019e-001	 1.095811315879421e+001
 3.292791431792316e+000	 9.424168858391672e-001	 1.097117355072473e+001
 3.392403521024523e+000	 6.277725308131688e-001	 1.077307703276786e+001
 3.386314595746905e+000	 6.598283553470019e-001	 1.079796415710278e+001
 3.379903812561350e+000	 6.919177824801479e-001	 1.082090851727823e+001
 3.373169334089012e+000	 7.240363550514914e-001	 1.084206119867604e+001
 3.366109397925190e+000	 7.561795561078428e-001	 1.086158498180805e+001
 3.358722318582403e+000	 7.883428102915583e-001	 1.087965478938384e+001
 3.351006489409138e+000	 8.205214852953331e-001	 1.089645812263184e+001
 3.342960384481771e+000	 8.527108933839557e-001	 1.091219548516392e+001
 3.334582560467180e+000	 8.849062929827362e-001	 1.092708079264502e+001
 3.325871658453493e+000	 9.171028903322045e-001	 1.094134176650598e+001
 3.316826405746471e+000	 9.492958412085848e-001	 1.095522030991964e+001
 3.416986155237214e+000	 6.323216071227208e-001	 1.075463801839869e+001
 3.410853107312460e+000	 6.646097202396671e-001	 1.077891130651759e+001
 3.404395869176057e+000	 6.969316794530809e-001	 1.080143817572481e+001
 3.397612590134821e+000	 7.292829953035789e-001	 1.082234639130499e+001
 3.390501495013000e+000	 7.616591181064262e-001	 1.084177514650180e+001
 3.383060886109436e+000	 7.940554393492147e-001	 1.085987553762358e+001
 3.375289145130212e+000	 8.264672931571958e-001	 1.087681102916957e+001
 3.367184735094290e+000	 8.588899578260625e-001	 1.089275790722225e+001
 3.358746202209609e+000	 8.913186574218885e-001	 1.090790571931987e+001
 3.349972177717109e+000	 9.237485634478172e-001	 1.092245769899692e+001
 3.340861379700133e+000	 9.561747965770026e-001	 1.093663117315966e+001
 3.441568789449906e+000	 6.368706834322875e-001	 1.073833487075580e+001
 3.435391618878011e+000	 6.693910851321568e-001	 1.076155827135603e+001
 3.428887925790747e+000	 7.019455764256674e-001	 1.078322354222303e+001
 3.422055846180587e+000	 7.345296355551677e-001	 1.080343514600603e+001
 3.414893592100732e+000	 7.671386801043790e-001	 1.082230871521270e+001
 3.407399453636346e+000	 7.997680684061285e-001	 1.083997155564774e+001
 3.399571800851111e+000	 8.324131010182234e-001	 1.085656314063322e+001
 3.391409085706569e+000	 8.650690222672625e-001	 1.087223559421024e+001
 3.382909843951724e+000	 8.977310218600828e-001	 1.088715416148755e+001
 3.374072696980329e+000	 9.303942365624409e-001	 1.090149766427390e+001
 3.364896353653301e+000	 9.630537519444204e-001	 1.091545894010732e+001
 3.124546614099405e+000	 8.942641982252434e-001	 1.100610621645244e+001
 3.115709639785576e+000	 9.245828467396423e-001	 1.102545934697360e+001
 3.106555549847563e+000	 9.548887975447460e-001	 1.104440059438437e+001
 3.097083398822883e+000	 9.851773549594461e-001	 1.106318577370792e+001
 3.087292328865915e+000	 1.015443782853513e+000	 1.108206236179128e+001
 3.077181571242415e+000	 1.045683306567630e+000	 1.110126861328670e+001
 3.066750447777396e+000	 1.075891114890496e+000	 1.112103268067620e+001
 3.055998372254012e+000	 1.106062362091802e+000	 1.114157174080141e+001
 3.044924851761178e+000	 1.136192170009821e+000	 1.116309113040525e+001
 3.033529487987621e+000	 1.166275630192231e+000	 1.118578349322792e+001
 3.021811978460158e+000	 1.196307806088698e+000	 1.120982794122811e+001
 3.148581588057016e+000	 9.011431536016611e-001	 1.100879264013020e+001
 3.139676637017926e+000	 9.316950224893300e-001	 1.100928061999595e+001
 3.130452131003560e+000	 9.622340959929508e-001	 1.100844356104567e+001
 3.120907117278647e+000	 9.927556423107905e-001	 1.101698943486537e+001
 3.111040731398753e+000	 1.023254888880847e+000	 1.103971423259647e+001
 3.100852198716295e+000	 1.053727024315657e+000	 1.106321676728222e+001
 3.090340835839549e+000	 1.084167200394599e+000	 1.108771499322314e+001
 3.079506052042313e+000	 1.114570534112516e+000	 1.111341504740748e+001
 3.068347350621874e+000	 1.144932109783358e+000	 1.114051037233292e+001
 3.056864330203026e+000	 1.175246981197481e+000	 1.116918085151404e+001
 3.045056685985869e+000	 1.205510173831083e+000	 1.119959196030906e+001
 3.172616562014134e+000	 9.080221089770787e-001	 1.100966924279188e+001
 3.163643634249695e+000	 9.388071982380229e-001	 1.101341787372156e+001
 3.154348712158920e+000	 9.695793944401748e-001	 1.101603335402389e+001
 3.144730835733751e+000	 1.000333929661178e+000	 1.101790282583609e+001
 3.134789133930934e+000	 1.031065994907259e+000	 1.101942947459475e+001
 3.124522826189546e+000	 1.061770742062806e+000	 1.102221846049939e+001
 3.113931223901139e+000	 1.092443285897878e+000	 1.105067532635401e+001
 3.103013731830142e+000	 1.123078706132470e+000	 1.108076520039493e+001
 3.091769849482220e+000	 1.153672049556212e+000	 1.111267011626124e+001
 3.080199172418235e+000	 1.184218332202131e+000	 1.114655767829559e+001
 3.068301393511570e+000	 1.214712541572961e+000	 1.118258020130848e+001
 3.196651535970757e+000	 9.149010643514963e-001	 1.100762908314961e+001
 3.187610631480886e+000	 9.459193739857201e-001	 1.101420144395184e+001
 3.178245293313646e+000	 9.769246928864183e-001	 1.101982303045213e+001
 3.168554554188189e+000	 1.007912217010610e+000	 1.102486399500313e+001
 3.158537536462453e+000	 1.038877100932750e+000	 1.102971046099856e+001
 3.148193453662171e+000	 1.069814459809077e+000	 1.103476466938129e+001
 3.137521611962162e+000	 1.100719371400334e+000	 1.104044509559297e+001
 3.126521411617497e+000	 1.131586878151666e+000	 1.104718653547900e+001
 3.115192348342218e+000	 1.162411989328380e+000	 1.107941191191213e+001
 3.103534014633251e+000	 1.193189683206180e+000	 1.111776438798816e+001
 3.091546101037261e+000	 1.223914909314336e+000	 1.115865212471053e+001
 3.220686509926887e+000	 9.217800197249140e-001	 1.100271436910050e+001
 3.211577628711498e+000	 9.530315497324225e-001	 1.101168773301518e+001
 3.202141874467737e+000	 9.842699913316814e-001	 1.101988320877819e+001
 3.192378272641967e+000	 1.015490504359086e+000	 1.102765402730824e+001
 3.182285938993314e+000	 1.046688206957319e+000	 1.103536933035884e+001
 3.171864081134169e+000	 1.077858177554471e+000	 1.104341434038143e+001
 3.161112000022622e+000	 1.108995456901967e+000	 1.105219050101469e+001
 3.150029091404383e+000	 1.140095050170102e+000	 1.106211558666256e+001
 3.138614847201868e+000	 1.171151929099864e+000	 1.107362377966225e+001
 3.126868856848072e+000	 1.202161034209630e+000	 1.108716571358825e+001
 3.114790808562941e+000	 1.233117277055205e+000	 1.112766553539509e+001
 3.244721483882524e+000	 9.286589750973319e-001	 1.099496924150957e+001
 3.235544625941530e+000	 9.601437254781297e-001	 1.100593473585210e+001
 3.226038455621191e+000	 9.916152897759637e-001	 1.101628575660283e+001
 3.216201991095082e+000	 1.023068791706605e+000	 1.102635867528170e+001
 3.206034341523513e+000	 1.054499312980966e+000	 1.103650572605217e+001
 3.195534708605540e+000	 1.085901895298987e+000	 1.104709519918014e+001
 3.184702388082517e+000	 1.117271542402776e+000	 1.105851160528866e+001
 3.173536771190797e+000	 1.148603222187779e+000	 1.107115580881926e+001
 3.162037346061168e+000	 1.179891868870663e+000	 1.108544512914833e+001
 3.150203699062697e+000	 1.211132385212480e+000	 1.110181340785045e+001
 3.138035516088611e+000	 1.242319644795568e+000	 1.112071104065162e+001
 3.268756457837667e+000	 9.355379304687496e-001	 1.098443970314486e+001
 3.259511623170984e+000	 9.672559012228417e-001	 1.099700198146336e+001
 3.249935036774011e+000	 9.989605882192657e-001	 1.100910374475504e+001
 3.240025709547534e+000	 1.030647079053168e+000	 1.102106456098353e+001
 3.229782744053054e+000	 1.062310419003691e+000	 1.103321982454584e+001
 3.219205336076284e+000	 1.093945613042626e+000	 1.104592097357353e+001
 3.208292776141848e+000	 1.125547627902762e+000	 1.105953567818449e+001
 3.197044450976738e+000	 1.157111394204698e+000	 1.107444799804395e+001
 3.185459844920121e+000	 1.188631808640778e+000	 1.109105850762862e+001
 3.173538541277128e+000	 1.220103736214729e+000	 1.110978438763175e+001
 3.161280223614271e+000	 1.251522012535427e+000	 1.112897094420777e+001
 3.292791431792316e+000	 9.424168858391672e-001	 1.097117355072473e+001
 3.283478620399857e+000	 9.743680769665586e-001	 1.098495047692230e+001
 3.273831617926194e+000	 1.006305886661587e+000	 1.099841140337859e+001
 3.263849427999325e+000	 1.038225366398776e+000	 1.101185914426886e+001
 3.253531146581935e+000	 1.070121525025494e+000	 1.102561231594195e+001
 3.242875963546400e+000	 1.101989330785387e+000	 1.104000557831581e+001
 3.231883164200613e+000	 1.133823713401924e+000	 1.105538984736404e+001
 3.220552130762207e+000	 1.165619566220857e+000	 1.107213247699835e+001
 3.208882343778725e+000	 1.197371748410209e+000	 1.109061740868637e+001
 3.196873383491363e+000	 1.229075087216379e+000	 1.111124528718669e+001
 3.184524931139920e+000	 1.260724380274781e+000	 1.112029137680934e+001
 3.316826405746471e+000	 9.492958412085848e-001	 1.095522030991964e+001
 3.307445617628153e+000	 9.814802527092802e-001	 1.096984265382151e+001
 3.297728199077743e+000	 1.013651185102928e+000	 1.098428407992787e+001
 3.287673146450452e+000	 1.045803653743426e+000	 1.099883069243298e+001
 3.277279549110157e+000	 1.077932631046375e+000	 1.101378438536743e+001
 3.266546591015890e+000	 1.110033048527270e+000	 1.102946310834552e+001
 3.255473552258815e+000	 1.142099798900263e+000	 1.104620110353012e+001
 3.244059810547205e+000	 1.174127738236257e+000	 1.106434911206435e+001
 3.232304842636979e+000	 1.206111688178954e+000	 1.108427454825462e+001
 3.220208225705404e+000	 1.238046438217428e+000	 1.110636163982977e+001
 3.207769638665559e+000	 1.269926748013629e+000	 1.110575202818031e+001
 3.340861379700133e+000	 9.561747965770026e-001	 1.093663117315966e+001
 3.331412614855868e+000	 9.885924284510067e-001	 1.095174231703117e+001
 3.321624780228655e+000	 1.020996483543288e+000	 1.096679819897684e+001
 3.311496864900918e+000	 1.053381941087122e+000	 1.098206825116685e+001
 3.301027951637719e+000	 1.085743737066335e+000	 1.099783769516742e+001
 3.290217218484751e+000	 1.118076766268275e+000	 1.101440783230405e+001
 3.279063940316452e+000	 1.150375884397779e+000	 1.103209630535318e+001
 3.267567490331730e+000	 1.182635910250898e+000	 1.105123732975706e+001
 3.255727341494886e+000	 1.214851627947015e+000	 1.107218189258918e+001
 3.243543067919250e+000	 1.247017789217878e+000	 1.109529791753772e+001
 3.231014346191188e+000	 1.279129115751972e+000	 1.108546212386390e+001
 3.364896353653301e+000	 9.630537519444204e-001	 1.091545894010732e+001
 3.355379612083005e+000	 9.957046041917383e-001	 1.093071459565336e+001
 3.345521361378934e+000	 1.028341781982668e+000	 1.094603122375054e+001
 3.335320583350721e+000	 1.060960228429860e+000	 1.096166161675704e+001
 3.324776354164621e+000	 1.093554843085373e+000	 1.097787436786173e+001
 3.313887845952988e+000	 1.126120484008404e+000	 1.099495418633190e+001
 3.302654328373525e+000	 1.158651969894472e+000	 1.101320218418666e+001
 3.291075170115785e+000	 1.191144082264780e+000	 1.103293613243422e+001
 3.279149840352444e+000	 1.223591567714391e+000	 1.105449068504279e+001
 3.266877910132902e+000	 1.255989140217728e+000	 1.107129703213636e+001
 3.254259053716807e+000	 1.288331483489811e+000	 1.105952956377990e+001
 3.021811978460158e+000	 1.196307806088698e+000	 1.120982794122811e+001
 3.009772117724388e+000	 1.226283735293376e+000	 1.124911058671555e+001
 2.997409798464362e+000	 1.256198431836615e+000	 1.128103024419466e+001
 2.984725012560141e+000	 1.286046888523079e+000	 1.127604773949978e+001
 2.971717852081893e+000	 1.315824079314217e+000	 1.127373179704561e+001
 2.958388510217295e+000	 1.345524961753960e+000	 1.127420317435312e+001
 2.944737282130763e+000	 1.375144479435225e+000	 1.127757894507114e+001
 2.930764565752652e+000	 1.404677564505076e+000	 1.128397232075957e+001
 2.916470862496686e+000	 1.434119140206303e+000	 1.129349247617740e+001
 2.901856777903874e+000	 1.463464123453077e+000	 1.130624437843090e+001
 2.886923022211355e+000	 1.492707427438275e+000	 1.132232862033376e+001
 3.045056685985869e+000	 1.205510173831083e+000	 1.119959196030906e+001
 3.032924210935764e+000	 1.235716687106057e+000	 1.124249238760717e+001
 3.020466796911431e+000	 1.265861496699235e+000	 1.126219509170209e+001
 3.007684435730476e+000	 1.295939556898392e+000	 1.126084341721468e+001
 2.994577220171298e+000	 1.325945803003145e+000	 1.126192926561105e+001
 2.981145344907635e+000	 1.355875153769300e+000	 1.126557922750970e+001
 2.967389107374398e+000	 1.385722513894337e+000	 1.127191646861587e+001
 2.953308908562949e+000	 1.415482776541836e+000	 1.128106054809277e+001
 2.938905253744040e+000	 1.445150825902609e+000	 1.129312724006757e+001
 2.924178753116689e+000	 1.474721539790167e+000	 1.130822835862803e+001
 2.909130122381398e+000	 1.504189792268103e+000	 1.132647158666340e+001
 3.068301393511570e+000	 1.214712541572961e+000	 1.118258020130848e+001
 3.056076304147308e+000	 1.245149638918323e+000	 1.122906545811020e+001
 3.043523795358812e+000	 1.275524561561510e+000	 1.123717684765768e+001
 3.030643858901224e+000	 1.305832225273412e+000	 1.123960179292098e+001
 3.017436588261178e+000	 1.336067526691811e+000	 1.124424144636695e+001
 3.003902179598474e+000	 1.366225345784390e+000	 1.125122819491100e+001
 2.990040932618514e+000	 1.396300548353190e+000	 1.126069125519161e+001
 2.975853251373670e+000	 1.426287988578308e+000	 1.127275648851952e+001
 2.961339644991720e+000	 1.456182511598578e+000	 1.128754621859662e+001
 2.946500728329691e+000	 1.485978956126852e+000	 1.130517905236148e+001
 2.931337222551448e+000	 1.515672157097435e+000	 1.132576970431630e+001
 3.091546101037261e+000	 1.223914909314336e+000	 1.115865212471053e+001
 3.079228397359024e+000	 1.254582590730175e+000	 1.120153559118587e+001
 3.066580793806505e+000	 1.285187626423441e+000	 1.120602214435663e+001
 3.053603282072387e+000	 1.315724893648139e+000	 1.121236583096586e+001
 3.040295956351537e+000	 1.346189250380215e+000	 1.122070752786809e+001
 3.026659014289811e+000	 1.376575537799230e+000	 1.123118538256420e+001
 3.012692757863114e+000	 1.406878582811784e+000	 1.124393462266645e+001
 2.998397594184816e+000	 1.437093200614492e+000	 1.125908736741536e+001
 2.983774036239725e+000	 1.467214197294210e+000	 1.127677244160634e+001
 2.968822703542879e+000	 1.497236372463129e+000	 1.129711519228376e+001
 2.953544322721507e+000	 1.527154521926272e+000	 1.132023730855946e+001
 3.114790808562941e+000	 1.233117277055205e+000	 1.112766553539509e+001
 3.102380490570910e+000	 1.264015542541612e+000	 1.116001614753816e+001
 3.089637792254510e+000	 1.294850691285028e+000	 1.116877616742487e+001
 3.076562705243963e+000	 1.325617562022573e+000	 1.117917715848266e+001
 3.063155324442370e+000	 1.356310974068357e+000	 1.119136547419629e+001
 3.049415848981648e+000	 1.386925729813818e+000	 1.120548498799699e+001
 3.035344583108194e+000	 1.417456617270118e+000	 1.122167689963995e+001
 3.020941936996386e+000	 1.447898412650389e+000	 1.124007954327847e+001
 3.006208427488057e+000	 1.478245882989506e+000	 1.126082819759260e+001
 2.991144678756257e+000	 1.508493788799001e+000	 1.128405489833158e+001
 2.975751422891574e+000	 1.538636886754612e+000	 1.130988825362832e+001
 3.138035516088611e+000	 1.242319644795568e+000	 1.112071104065162e+001
 3.125532583782966e+000	 1.273448494352633e+000	 1.111358313248862e+001
 3.112694790702826e+000	 1.304513756146272e+000	 1.112548270939945e+001
 3.099522128415953e+000	 1.335510230396713e+000	 1.114007611491738e+001
 3.086014692533679e+000	 1.366432697756237e+000	 1.115625207031127e+001
 3.072172683673983e+000	 1.397275921828156e+000	 1.117416014131235e+001
 3.057996408353757e+000	 1.428034651728194e+000	 1.119394746208273e+001
 3.043486279808379e+000	 1.458703624685997e+000	 1.121575853983610e+001
 3.028642818736715e+000	 1.489277568684464e+000	 1.123973506116268e+001
 3.013466653969821e+000	 1.519751205134466e+000	 1.126601570041903e+001
 2.997958523061648e+000	 1.550119251582456e+000	 1.129473593054287e+001
 3.161280223614271e+000	 1.251522012535427e+000	 1.112897094420777e+001
 3.148684676995192e+000	 1.282881446163240e+000	 1.111477537102740e+001
 3.135751789151454e+000	 1.314176821007170e+000	 1.110143269643041e+001
 3.122481551588358e+000	 1.345402898770561e+000	 1.109510179937008e+001
 3.108874060625466e+000	 1.376554421443856e+000	 1.111540296540069e+001
 3.094929518366817e+000	 1.407626113842244e+000	 1.113724294443204e+001
 3.080648233599801e+000	 1.438612686186010e+000	 1.116077476835953e+001
 3.066030622620796e+000	 1.469508836721317e+000	 1.118614907673480e+001
 3.051077209985699e+000	 1.500309254379085e+000	 1.121351391928119e+001
 3.035788629183572e+000	 1.531008621469525e+000	 1.124301456012960e+001
 3.020165623231730e+000	 1.561601616409804e+000	 1.127479328413754e+001
 3.184524931139920e+000	 1.260724380274781e+000	 1.112029137680934e+001
 3.171836770207588e+000	 1.292314397973432e+000	 1.111014335636637e+001
 3.158808787600394e+000	 1.323839885867725e+000	 1.110053468308261e+001
 3.145440974761175e+000	 1.355295567144116e+000	 1.109179629742602e+001
 3.131733428717729e+000	 1.386676145131212e+000	 1.108426844537304e+001
 3.117686353060151e+000	 1.417976305856081e+000	 1.109476450862158e+001
 3.103300058846326e+000	 1.449190720643567e+000	 1.112218639271853e+001
 3.088574965433638e+000	 1.480314048756350e+000	 1.115127509888638e+001
 3.073511601235010e+000	 1.511340940073369e+000	 1.118218499636645e+001
 3.058110604397510e+000	 1.542266037804178e+000	 1.121506789145812e+001
 3.042372723401820e+000	 1.573083981236655e+000	 1.125007282934541e+001
 3.207769638665559e+000	 1.269926748013629e+000	 1.110575202818031e+001
 3.194988863420155e+000	 1.301747349783208e+000	 1.109979555297174e+001
 3.181865786049645e+000	 1.333502950727936e+000	 1.109406657110946e+001
 3.168400397934406e+000	 1.365188235517377e+000	 1.108890253369052e+001
 3.154592796810468e+000	 1.396797868818307e+000	 1.108465075246953e+001
 3.140443187753983e+000	 1.428326497869668e+000	 1.108166823696830e+001
 3.125951884093334e+000	 1.459768755100865e+000	 1.108032150655507e+001
 3.111119308246904e+000	 1.491119260791094e+000	 1.111115980453802e+001
 3.095945992484646e+000	 1.522372625767317e+000	 1.114576787829588e+001
 3.080432579611637e+000	 1.553523454138424e+000	 1.118219158065100e+001
 3.064579823571918e+000	 1.584566346063012e+000	 1.122058666677432e+001
 3.231014346191188e+000	 1.279129115751972e+000	 1.108546212386390e+001
 3.218140956632892e+000	 1.311180301592571e+000	 1.108383913594475e+001
 3.204922784499208e+000	 1.343166015587802e+000	 1.108213334156749e+001
 3.191359821108052e+000	 1.375080903890346e+000	 1.108068865567462e+001
 3.177452164903683e+000	 1.406919592505140e+000	 1.107985941118313e+001
 3.163200022448315e+000	 1.438676689883004e+000	 1.108001019763003e+001
 3.148603709340823e+000	 1.470346789557903e+000	 1.108151567384815e+001
 3.133663651060593e+000	 1.501924472825550e+000	 1.108476035427760e+001
 3.118380383734608e+000	 1.533404311460927e+000	 1.110428153537498e+001
 3.102754554825951e+000	 1.564780870472264e+000	 1.114440100518996e+001
 3.086786923742023e+000	 1.596048710888871e+000	 1.118634649761062e+001
 3.254259053716807e+000	 1.288331483489811e+000	 1.105952956377990e+001
 3.241293049845800e+000	 1.320613253401518e+000	 1.106238003707041e+001
 3.227979782949084e+000	 1.352829080447324e+000	 1.106483881718166e+001
 3.214319244282112e+000	 1.384973572263021e+000	 1.106725623629833e+001
 3.200311532997376e+000	 1.417041316191711e+000	 1.106999360417834e+001
 3.185956857143146e+000	 1.449026881896090e+000	 1.107342304843417e+001
 3.171255534588795e+000	 1.480924824014684e+000	 1.107792732789950e+001
 3.156207993874709e+000	 1.512729684859719e+000	 1.108389961866379e+001
 3.140814774984898e+000	 1.544435997154201e+000	 1.109174327242307e+001
 3.125076530040452e+000	 1.576038286805698e+000	 1.110187154686494e+001
 3.108994023912139e+000	 1.607531075714235e+000	 1.114736363788428e+001
 2.886923022211355e+000	 1.492707427438275e+000	 1.132232862033376e+001
 2.871670410844536e+000	 1.521843964270075e+000	 1.132756594565817e+001
 2.856099864831404e+000	 1.550868647634841e+000	 1.133131085875463e+001
 2.840212411137345e+000	 1.579776395484173e+000	 1.133333221839298e+001
 2.824009182919216e+000	 1.608562132743385e+000	 1.133339600272364e+001
 2.807491419697759e+000	 1.637220794038314e+000	 1.133126552365270e+001
 2.790660467447267e+000	 1.665747326437760e+000	 1.132670164801921e+001
 2.773517778601557e+000	 1.694136692208680e+000	 1.131946302529031e+001
 2.756064911975476e+000	 1.722383871581193e+000	 1.130930632147233e+001
 2.738303532601247e+000	 1.750483865520404e+000	 1.129598645891737e+001
 2.720235411479095e+000	 1.778431698502015e+000	 1.127925686168757e+001
 2.909130122381398e+000	 1.504189792268103e+000	 1.132647158666340e+001
 2.893760183235911e+000	 1.533550456306829e+000	 1.132685740954232e+001
 2.878069863792879e+000	 1.562798406467084e+000	 1.132621498514051e+001
 2.862060198917423e+000	 1.591928521607786e+000	 1.132435312701506e+001
 2.845732330482985e+000	 1.620935687615213e+000	 1.132107766250197e+001
 2.829087507545085e+000	 1.649814800150784e+000	 1.131619160460100e+001
 2.812127086431664e+000	 1.678560767414597e+000	 1.130949533040771e+001
 2.794852530749106e+000	 1.707168512921817e+000	 1.130078676587710e+001
 2.777265411303141e+000	 1.735632978288948e+000	 1.128986157668544e+001
 2.759367405933931e+000	 1.763949126026977e+000	 1.127651336494002e+001
 2.741160299264779e+000	 1.792111942338345e+000	 1.126053387147037e+001
 2.931337222551448e+000	 1.515672157097435e+000	 1.132576970431630e+001
 2.915849955627105e+000	 1.545256948342998e+000	 1.132225494865583e+001
 2.900039862754003e+000	 1.574728165298670e+000	 1.131817335674493e+001
 2.883907986696995e+000	 1.604080647730691e+000	 1.131337323804857e+001
 2.867455478046118e+000	 1.633309242486302e+000	 1.130769980892784e+001
 2.850683595391665e+000	 1.662408806262504e+000	 1.130099532243015e+001
 2.833593705415224e+000	 1.691374208390694e+000	 1.129309920437723e+001
 2.816187282895747e+000	 1.720200333634242e+000	 1.128384819560258e+001
 2.798465910629847e+000	 1.748882084996039e+000	 1.127307650017349e+001
 2.780431279265625e+000	 1.777414386532957e+000	 1.126061593941698e+001
 2.762085187049463e+000	 1.805792186174171e+000	 1.124629611155354e+001
 2.953544322721507e+000	 1.527154521926272e+000	 1.132023730855946e+001
 2.937939728018115e+000	 1.556963440378580e+000	 1.131375133582435e+001
 2.922009861714772e+000	 1.586657924129600e+000	 1.130715728004052e+001
 2.905755774476064e+000	 1.616232773852888e+000	 1.130034249811727e+001
 2.889178625608617e+000	 1.645682797356652e+000	 1.129319114569960e+001
 2.872279683237499e+000	 1.675002812373475e+000	 1.128558426525027e+001
 2.855060324397947e+000	 1.704187649366050e+000	 1.127739988018549e+001
 2.837522035041479e+000	 1.733232154345956e+000	 1.126851309498243e+001
 2.819666409955593e+000	 1.762131191702468e+000	 1.125879620116165e+001
 2.801495152596329e+000	 1.790879647038344e+000	 1.124811878903280e+001
 2.783010074833148e+000	 1.819472430009495e+000	 1.123634786507700e+001
 2.975751422891574e+000	 1.538636886754612e+000	 1.130988825362832e+001
 2.960029500408944e+000	 1.568669932413575e+000	 1.130133950697869e+001
 2.943979860675189e+000	 1.598587682959872e+000	 1.129313886593506e+001
 2.927603562254629e+000	 1.628384899974378e+000	 1.128521229649169e+001
 2.910901773170480e+000	 1.658056352226264e+000	 1.127748245394358e+001
 2.893875771082586e+000	 1.687596818483696e+000	 1.126986872963823e+001
 2.876526943379831e+000	 1.717001090340666e+000	 1.126228730354181e+001
 2.858856787186303e+000	 1.746263975056959e+000	 1.125465120260404e+001
 2.840866909280380e+000	 1.775380298408235e+000	 1.124687036489213e+001
 2.822559025926043e+000	 1.804344907543139e+000	 1.123885170945068e+001
 2.803934962615832e+000	 1.833152673844316e+000	 1.123049921183016e+001
 2.997958523061648e+000	 1.550119251582456e+000	 1.129473593054287e+001
 2.982119272799590e+000	 1.580376424447985e+000	 1.128501255511385e+001
 2.965949859635252e+000	 1.610517441789487e+000	 1.127609099997755e+001
 2.949451350032689e+000	 1.640537026095161e+000	 1.126793541165773e+001
 2.932624920731709e+000	 1.670429907095137e+000	 1.126050651527226e+001
 2.915471858926927e+000	 1.700190824593167e+000	 1.125376162032408e+001
 2.897993562360879e+000	 1.729814531314541e+000	 1.124765463207195e+001
 2.880191539330218e+000	 1.759295795767250e+000	 1.124213606853123e+001
 2.862067408604207e+000	 1.788629405113341e+000	 1.123715308314188e+001
 2.843622899254766e+000	 1.817810168047342e+000	 1.123264949312807e+001
 2.824859850397516e+000	 1.846832917678635e+000	 1.122856581356102e+001
 3.020165623231730e+000	 1.561601616409804e+000	 1.127479328413754e+001
 3.004209045190053e+000	 1.592082916481808e+000	 1.126476372451452e+001
 2.987919858594963e+000	 1.622447200618447e+000	 1.125598731387882e+001
 2.971299137810247e+000	 1.652689152215236e+000	 1.124846596024257e+001
 2.954348068292302e+000	 1.682803461963273e+000	 1.124219803823694e+001
 2.937067946770523e+000	 1.712784830701890e+000	 1.123717835430296e+001
 2.919460181341089e+000	 1.742627972287676e+000	 1.123339811723284e+001
 2.901526291473225e+000	 1.772327616476831e+000	 1.123084491417655e+001
 2.883267907927075e+000	 1.801878511817784e+000	 1.122950269221786e+001
 2.864686772582501e+000	 1.831275428550951e+000	 1.122935174561089e+001
 2.845784738178201e+000	 1.860513161512450e+000	 1.123036870875721e+001
 3.042372723401820e+000	 1.573083981236655e+000	 1.125007282934541e+001
 3.026298817580335e+000	 1.603789408515045e+000	 1.124058640523372e+001
 3.009889857554320e+000	 1.634376959446748e+000	 1.123280215827927e+001
 2.993146925587299e+000	 1.664841278334603e+000	 1.122675934817741e+001
 2.976071215852259e+000	 1.695177016830668e+000	 1.122249358800159e+001
 2.958664034613371e+000	 1.725378836809862e+000	 1.122003676914682e+001
 2.940926800320462e+000	 1.755441413260070e+000	 1.121941699139914e+001
 2.922861043615324e+000	 1.785359437185700e+000	 1.122065849831030e+001
 2.904468407248984e+000	 1.815127618521566e+000	 1.122378161804702e+001
 2.885750645909246e+000	 1.844740689053969e+000	 1.122880270987359e+001
 2.866709625957885e+000	 1.874193405345763e+000	 1.123573411641459e+001
 3.064579823571918e+000	 1.584566346063012e+000	 1.122058666677432e+001
 3.048388589970434e+000	 1.615495900547695e+000	 1.121247412781125e+001
 3.031859856513325e+000	 1.646306718274394e+000	 1.120651057670073e+001
 3.014994713363848e+000	 1.676993404453262e+000	 1.120277222398360e+001
 2.997794363411584e+000	 1.707550571697327e+000	 1.120133151907423e+001
 2.980260122455474e+000	 1.737972842917085e+000	 1.120225703530208e+001
 2.962393419298998e+000	 1.768254854231724e+000	 1.120561335985895e+001
 2.944195795756514e+000	 1.798391257893857e+000	 1.121146098889551e+001
 2.925668906569935e+000	 1.828376725224685e+000	 1.121985622800177e+001
 2.906814519235000e+000	 1.858205949556393e+000	 1.123085109829619e+001
 2.887634513736569e+000	 1.887873649178574e+000	 1.120949806947508e+001
 3.086786923742023e+000	 1.596048710888871e+000	 1.118634649761062e+001
 3.070478362360350e+000	 1.627202392579759e+000	 1.118042055822013e+001
 3.053829855471977e+000	 1.658236477101382e+000	 1.117708828062272e+001
 3.036842501139893e+000	 1.689145530571214e+000	 1.117646243407507e+001
 3.019517510970271e+000	 1.719924126563246e+000	 1.117865191094202e+001
 3.001856210296831e+000	 1.750566849023559e+000	 1.118376157217348e+001
 2.983860038276696e+000	 1.781068295202637e+000	 1.119189209747154e+001
 2.965530547896796e+000	 1.811423078601303e+000	 1.120313984045510e+001
 2.946869405889925e+000	 1.841625831927142e+000	 1.121759668912130e+001
 2.927878392559766e+000	 1.871671210058226e+000	 1.123534993189435e+001
 2.908559401514253e+000	 1.901553893010882e+000	 1.118464394633639e+001
 3.108994023912139e+000	 1.607531075714235e+000	 1.114736363788428e+001
 3.092568134750085e+000	 1.638908884611238e+000	 1.114441949302987e+001
 3.075799854430276e+000	 1.670166235927714e+000	 1.114451162562673e+001
 3.058690288915435e+000	 1.701297656688459e+000	 1.114778897997649e+001
 3.041240658528325e+000	 1.732297681428427e+000	 1.115439650646490e+001
 3.023452298137441e+000	 1.763160855129283e+000	 1.116447496780409e+001
 3.005326657253558e+000	 1.793881736172811e+000	 1.117816074975419e+001
 2.986865300036170e+000	 1.824454899308038e+000	 1.119558567669470e+001
 2.968069905208957e+000	 1.854874938628938e+000	 1.121687683240927e+001
 2.948942265883543e+000	 1.885136470559467e+000	 1.121512580777593e+001
 2.929484289290938e+000	 1.915234136842687e+000	 1.116323064252113e+001
 2.720235411479095e+000	 1.778431698502015e+000	 1.127925686168757e+001
 2.701862425241567e+000	 1.806222421288800e+000	 1.130655684347354e+001
 2.683186555731693e+000	 1.833851113704457e+000	 1.133788660687507e+001
 2.664209889494488e+000	 1.861312887401978e+000	 1.137345546184299e+001
 2.644934617181425e+000	 1.888602888623658e+000	 1.137481136799791e+001
 2.625363032868398e+000	 1.915716300949207e+000	 1.134224999834705e+001
 2.605497533287247e+000	 1.942648348028941e+000	 1.131493915172664e+001
 2.585340616971148e+000	 1.969394296298900e+000	 1.129322758810472e+001
 2.564894883314335e+000	 1.995949457674740e+000	 1.127746036431678e+001
 2.544163031546755e+000	 2.022309192221251e+000	 1.126797830807465e+001
 2.523147859624355e+000	 2.048468910794402e+000	 1.126511749203059e+001
 2.741160299264779e+000	 1.792111942338345e+000	 1.126053387147037e+001
 2.722645982363904e+000	 1.820116439914905e+000	 1.129868173432456e+001
 2.703826452319316e+000	 1.847957660732984e+000	 1.134046090129665e+001
 2.684703811726376e+000	 1.875630678842904e+000	 1.138424234873395e+001
 2.665280268087723e+000	 1.903130603150365e+000	 1.135573752400257e+001
 2.645558133125989e+000	 1.930452580185686e+000	 1.133153609092106e+001
 2.625539822009412e+000	 1.957591796858037e+000	 1.131194132002820e+001
 2.605227852490652e+000	 1.984543483191425e+000	 1.129725375579878e+001
 2.584624843959287e+000	 2.011302915039319e+000	 1.128777074183386e+001
 2.563733516408568e+000	 2.037865416774702e+000	 1.128378594453854e+001
 2.542556689317182e+000	 2.064226363952433e+000	 1.128558887629824e+001
 2.762085187049463e+000	 1.805792186174171e+000	 1.124629611155354e+001
 2.743429539485246e+000	 1.834010458540603e+000	 1.129404975268115e+001
 2.724466348905958e+000	 1.862064207761188e+000	 1.134504540081764e+001
 2.705197733957309e+000	 1.889948470283585e+000	 1.135718816331795e+001
 2.685625918993101e+000	 1.917658317676889e+000	 1.133640314195369e+001
 2.665753233382703e+000	 1.945188859422040e+000	 1.131933600603008e+001
 2.645582110730754e+000	 1.972535245687052e+000	 1.130624203864960e+001
 2.625115088009400e+000	 1.999692670083905e+000	 1.129737424595490e+001
 2.604354804603557e+000	 2.026656372403878e+000	 1.129298293178854e+001
 2.583304001269784e+000	 2.053421641328147e+000	 1.129331527036439e+001
 2.561965519009508e+000	 2.079983817110463e+000	 1.129861487788033e+001
 2.783010074833148e+000	 1.819472430009495e+000	 1.123634786507700e+001
 2.764213096605592e+000	 1.847904477165892e+000	 1.129249342555609e+001
 2.745106245491620e+000	 1.876170754789071e+000	 1.134821700942791e+001
 2.725691656187286e+000	 1.904266261724016e+000	 1.133101119817460e+001
 2.705971569897559e+000	 1.932186032203232e+000	 1.131673780100288e+001
 2.685948333638542e+000	 1.959925138658268e+000	 1.130560623835833e+001
 2.665624399451278e+000	 1.987478694515987e+000	 1.129782447317533e+001
 2.645002323527393e+000	 2.014841856976339e+000	 1.129359863763949e+001
 2.624084765247146e+000	 2.042009829768418e+000	 1.129313265665338e+001
 2.602874486130406e+000	 2.068977865881588e+000	 1.129662786883665e+001
 2.581374348701332e+000	 2.095741270268494e+000	 1.130428264591150e+001
 2.803934962615832e+000	 1.833152673844316e+000	 1.123049921183016e+001
 2.784996653724944e+000	 1.861798495790774e+000	 1.129385023455944e+001
 2.765746142076302e+000	 1.890277301816630e+000	 1.131697345527871e+001
 2.746185578416309e+000	 1.918584053164202e+000	 1.130561717179476e+001
 2.726317220801094e+000	 1.946713746729394e+000	 1.129667354178609e+001
 2.706143433893507e+000	 1.974661417894369e+000	 1.129030492542401e+001
 2.685666688170978e+000	 2.002422143344840e+000	 1.128667262024793e+001
 2.664889559044628e+000	 2.029991043868728e+000	 1.128593653648025e+001
 2.643814725890054e+000	 2.057363287132937e+000	 1.128825486864539e+001
 2.622444970990429e+000	 2.084534090435024e+000	 1.129378376424524e+001
 2.600783178392654e+000	 2.111498723426525e+000	 1.130267699026407e+001
 2.824859850397516e+000	 1.846832917678635e+000	 1.122856581356102e+001
 2.805780210843301e+000	 1.875692514415249e+000	 1.129604278727317e+001
 2.786386038660004e+000	 1.904383848843868e+000	 1.128758641900130e+001
 2.766679500644376e+000	 1.932901844604140e+000	 1.128091496754531e+001
 2.746662871703712e+000	 1.961241461255374e+000	 1.127614477525755e+001
 2.726338534147595e+000	 1.989397697130344e+000	 1.127339178673361e+001
 2.705708976889859e+000	 2.017365592173614e+000	 1.127277127678813e+001
 2.684776794561109e+000	 2.045140230761071e+000	 1.127439757368229e+001
 2.663544686532281e+000	 2.072716744497436e+000	 1.127838377825399e+001
 2.642015455849857e+000	 2.100090314988454e+000	 1.128484147962598e+001
 2.620192008083476e+000	 2.127256176584556e+000	 1.129388046818745e+001
 2.845784738178201e+000	 1.860513161512450e+000	 1.123036870875721e+001
 2.826563767960662e+000	 1.889586533039316e+000	 1.126439703434822e+001
 2.807025935242726e+000	 1.918490395870783e+000	 1.125994286902780e+001
 2.787173422871487e+000	 1.947219636043832e+000	 1.125681651731326e+001
 2.767008522605407e+000	 1.975769175781172e+000	 1.125508819554567e+001
 2.746533634400807e+000	 2.004133976366193e+000	 1.125482806562050e+001
 2.725751265607919e+000	 2.032309041002305e+000	 1.125610601057284e+001
 2.704664030076832e+000	 2.060289417653369e+000	 1.125899140508777e+001
 2.683274647173826e+000	 2.088070201861914e+000	 1.126355288151042e+001
 2.661585940708688e+000	 2.115646539541879e+000	 1.126985809195393e+001
 2.639600837773796e+000	 2.143013629742586e+000	 1.127797346712524e+001
 2.866709625957885e+000	 1.874193405345763e+000	 1.123573411641459e+001
 2.847347325077028e+000	 1.903480551662975e+000	 1.123550827455379e+001
 2.827665831824468e+000	 1.932596942897376e+000	 1.123393345387795e+001
 2.807667345097644e+000	 1.961537427483276e+000	 1.123323669024607e+001
 2.787354173506182e+000	 1.990296890306788e+000	 1.123344269662558e+001
 2.766728734653143e+000	 2.018870255601915e+000	 1.123457647363092e+001
 2.745793554325158e+000	 2.047252489830916e+000	 1.123666313210168e+001
 2.724551265591801e+000	 2.075438604545620e+000	 1.123972771027682e+001
 2.703004607814691e+000	 2.103423659226372e+000	 1.124379498606288e+001
 2.681156425566923e+000	 2.131202764095300e+000	 1.124888928491916e+001
 2.659009667463616e+000	 2.158771082900617e+000	 1.125503428390506e+001
 2.887634513736569e+000	 1.887873649178574e+000	 1.120949806947508e+001
 2.868130882192400e+000	 1.917374570286227e+000	 1.120924701905067e+001
 2.848305728405229e+000	 1.946703489923646e+000	 1.120945236882250e+001
 2.828161267322845e+000	 1.975855218922473e+000	 1.121009318632902e+001
 2.807699824406037e+000	 2.004824604832223e+000	 1.121114929261455e+001
 2.786923834904604e+000	 2.033606534837511e+000	 1.121260113732776e+001
 2.765835843041575e+000	 2.062195938659446e+000	 1.121442966768678e+001
 2.744438501106012e+000	 2.090587791437828e+000	 1.121661619170745e+001
 2.722734568454874e+000	 2.118777116590811e+000	 1.121914223611792e+001
 2.700726910424563e+000	 2.146758988648715e+000	 1.122198939940817e+001
 2.678418497152933e+000	 2.174528536058647e+000	 1.122513920048567e+001
 2.908559401514253e+000	 1.901553893010882e+000	 1.118464394633639e+001
 2.888914439306776e+000	 1.931268588909071e+000	 1.118548789301829e+001
 2.868945624985010e+000	 1.960810036949595e+000	 1.118639722830228e+001
 2.848655189547090e+000	 1.990173010361424e+000	 1.118730643455663e+001
 2.828045475304971e+000	 2.019352319357477e+000	 1.118815104150778e+001
 2.807118935155189e+000	 2.048342814072982e+000	 1.118886754739073e+001
 2.785878131757172e+000	 2.077139387487895e+000	 1.118939333370410e+001
 2.764325736619468e+000	 2.105736978329988e+000	 1.118966657389249e+001
 2.742464529094375e+000	 2.134130573955228e+000	 1.118962613630524e+001
 2.720297395281605e+000	 2.162315213202126e+000	 1.118921148180625e+001
 2.697827326841749e+000	 2.190285989216679e+000	 1.118836255643414e+001
 2.929484289290938e+000	 1.915234136842687e+000	 1.116323064252113e+001
 2.909697996420158e+000	 1.945162607531509e+000	 1.116410948872544e+001
 2.889585521563812e+000	 1.974916583975221e+000	 1.116466894381501e+001
 2.869149111770381e+000	 2.004490801800127e+000	 1.116479949546793e+001
 2.848391126202986e+000	 2.033880033882548e+000	 1.116439297218287e+001
 2.827314035404899e+000	 2.063079093308326e+000	 1.116334250989790e+001
 2.805920420471948e+000	 2.092082836316265e+000	 1.116154251194829e+001
 2.784212972132169e+000	 2.120886165222105e+000	 1.115888860261213e+001
 2.762194489733197e+000	 2.149484031319626e+000	 1.115527757451973e+001
 2.739867880138053e+000	 2.177871437755532e+000	 1.115060733022946e+001
 2.717236156530065e+000	 2.206043442374710e+000	 1.114477681829703e+001
 2.523147859624355e+000	 2.048468910794402e+000	 1.126511749203059e+001
 2.501852263035922e+000	 2.074424077653029e+000	 1.121674429806871e+001
 2.480279233527257e+000	 2.100170213036469e+000	 1.119168177418718e+001
 2.458431857744017e+000	 2.125702895705409e+000	 1.116967958640514e+001
 2.436313315794466e+000	 2.151017765443552e+000	 1.114842769891551e+001
 2.413926879733346e+000	 2.176110525516454e+000	 1.112777718231091e+001
 2.391275911968414e+000	 2.200976945084877e+000	 1.110757371506777e+001
 2.368363863591268e+000	 2.225612861569795e+000	 1.108765785058405e+001
 2.345194272634154e+000	 2.250014182966334e+000	 1.106786529896572e+001
 2.321770762254630e+000	 2.274176890103913e+000	 1.104802722293369e+001
 2.298097038850000e+000	 2.298097038850000e+000	 1.102797054717463e+001
 2.542556689317182e+000	 2.064226363952433e+000	 1.128558887629824e+001
 2.521097280446934e+000	 2.090381185940973e+000	 1.123654975540935e+001
 2.499358304557080e+000	 2.116325368519902e+000	 1.118854932433611e+001
 2.477342872036707e+000	 2.142054456440371e+000	 1.116576247401464e+001
 2.455054187456451e+000	 2.167564055945962e+000	 1.114420128056302e+001
 2.432495548040706e+000	 2.192849837250425e+000	 1.112372736554552e+001
 2.409670342061902e+000	 2.217907536969605e+000	 1.110419639768547e+001
 2.386582047158496e+000	 2.242732960504639e+000	 1.108545835063446e+001
 2.363234228578369e+000	 2.267321984373689e+000	 1.106735777640773e+001
 2.339630537349519e+000	 2.291670558489480e+000	 1.104973409386870e+001
 2.315774708380000e+000	 2.315774708380000e+000	 1.103242189159604e+001
 2.561965519009508e+000	 2.079983817110463e+000	 1.129861487788033e+001
 2.540342297857539e+000	 2.106338294228916e+000	 1.124924316921445e+001
 2.518437375586582e+000	 2.132480524003333e+000	 1.120055658765953e+001
 2.496253886329152e+000	 2.158406017175334e+000	 1.115687692717771e+001
 2.473795059118257e+000	 2.184110346448371e+000	 1.113535120472117e+001
 2.451064216347939e+000	 2.209589148984396e+000	 1.111539654635461e+001
 2.428064772155310e+000	 2.234838128854334e+000	 1.109687838308238e+001
 2.404800230725679e+000	 2.259853059439483e+000	 1.107965587971692e+001
 2.381274184522563e+000	 2.284629785781046e+000	 1.106358220021821e+001
 2.357490312444403e+000	 2.309164226875049e+000	 1.104850478901595e+001
 2.333452377910000e+000	 2.333452377910000e+000	 1.103426566765654e+001
 2.581374348701332e+000	 2.095741270268494e+000	 1.130428264591150e+001
 2.559587315267738e+000	 2.122295402516860e+000	 1.125490341267410e+001
 2.537516446615764e+000	 2.148635679486764e+000	 1.120658747820315e+001
 2.515164900621352e+000	 2.174757577910296e+000	 1.115947133185846e+001
 2.492535930779882e+000	 2.200656636950781e+000	 1.112185773482805e+001
 2.469632884655048e+000	 2.226328460718368e+000	 1.110275815922763e+001
 2.446459202248637e+000	 2.251768720739063e+000	 1.108558644666801e+001
 2.423018414292818e+000	 2.276973158374327e+000	 1.107021072688079e+001
 2.399314140466738e+000	 2.301937587188402e+000	 1.105649254853158e+001
 2.375350087539282e+000	 2.326657895260617e+000	 1.104428715363735e+001
 2.351130047440000e+000	 2.351130047440000e+000	 1.103344376825536e+001
 2.600783178392654e+000	 2.111498723426525e+000	 1.130267699026407e+001
 2.578832332677530e+000	 2.138252510804803e+000	 1.125360724934268e+001
 2.556595517644623e+000	 2.164790834970196e+000	 1.120597465885318e+001
 2.534075914913305e+000	 2.191109138645258e+000	 1.115993382957101e+001
 2.511276802441324e+000	 2.217202927453191e+000	 1.111563806418169e+001
 2.488201552962031e+000	 2.243067772452339e+000	 1.108578441164676e+001
 2.464853632341883e+000	 2.268699312623791e+000	 1.107028634798040e+001
 2.441236597859911e+000	 2.294093257309171e+000	 1.105708237241849e+001
 2.417354096410892e+000	 2.319245388595757e+000	 1.104604219371621e+001
 2.393209862634155e+000	 2.344151563646185e+000	 1.103702862599661e+001
 2.368807716970000e+000	 2.368807716970000e+000	 1.102989787374133e+001
 2.620192008083476e+000	 2.127256176584556e+000	 1.129388046818745e+001
 2.598077350086916e+000	 2.154209619092746e+000	 1.124542941127348e+001
 2.575674588673162e+000	 2.180945990453628e+000	 1.119878513657430e+001
 2.552986929205012e+000	 2.207460699380221e+000	 1.115412030266539e+001
 2.530017674102587e+000	 2.233749217955601e+000	 1.111160595841126e+001
 2.506770221268889e+000	 2.259807084186310e+000	 1.107141118622108e+001
 2.483248062435050e+000	 2.285629904508520e+000	 1.105094286831102e+001
 2.459454781426959e+000	 2.311213356244015e+000	 1.104022951781938e+001
 2.435394052355027e+000	 2.336553190003114e+000	 1.103218392481024e+001
 2.411069637729024e+000	 2.361645232031754e+000	 1.102667625243324e+001
 2.386485386499999e+000	 2.386485386500000e+000	 1.102356945978521e+001
 2.639600837773796e+000	 2.143013629742586e+000	 1.127797346712524e+001
 2.617322367495897e+000	 2.170166727380690e+000	 1.123044267370634e+001
 2.594753659701379e+000	 2.197101145937059e+000	 1.118508417128643e+001
 2.571897943496473e+000	 2.223812260115183e+000	 1.114208859696394e+001
 2.548758545763669e+000	 2.250295508458011e+000	 1.110164467972608e+001
 2.525338889575621e+000	 2.276546395920281e+000	 1.106393885997843e+001
 2.501642492528136e+000	 2.302560496393249e+000	 1.102915490918109e+001
 2.477672964993961e+000	 2.328333455178859e+000	 1.101961011440230e+001
 2.453434008299141e+000	 2.353860991410470e+000	 1.101486996896747e+001
 2.428929412823889e+000	 2.379138900417323e+000	 1.101317670177162e+001
 2.404163056029999e+000	 2.404163056029999e+000	 1.101439980490448e+001
 2.659009667463616e+000	 2.158771082900617e+000	 1.125503428390506e+001
 2.636567384904470e+000	 2.186123835668633e+000	 1.120871792648405e+001
 2.613832730729275e+000	 2.213256301420491e+000	 1.116493533962572e+001
 2.590808957787688e+000	 2.240163820850145e+000	 1.112389507391089e+001
 2.567499417424571e+000	 2.266841798960421e+000	 1.108580347658040e+001
 2.543907557882227e+000	 2.293285707654253e+000	 1.105086428733075e+001
 2.520036922621142e+000	 2.319491088277978e+000	 1.101927823452612e+001
 2.495891148560918e+000	 2.345453554113703e+000	 1.099518139069397e+001
 2.471473964243236e+000	 2.371168792817826e+000	 1.099405201196422e+001
 2.446789187918747e+000	 2.396632568802891e+000	 1.099647627909878e+001
 2.421840725560000e+000	 2.421840725560000e+000	 1.100232999765883e+001
 2.678418497152933e+000	 2.174528536058647e+000	 1.122513920048567e+001
 2.655812402312637e+000	 2.202080943956577e+000	 1.118032424236398e+001
 2.632911801756850e+000	 2.229411456903923e+000	 1.113840059593293e+001
 2.609719972078657e+000	 2.256515381585107e+000	 1.109959466435403e+001
 2.586240289085291e+000	 2.283388089462831e+000	 1.106413035534391e+001
 2.562476226188708e+000	 2.310025019388224e+000	 1.103222865322333e+001
 2.538431352714066e+000	 2.336421680162706e+000	 1.100410719168858e+001
 2.514109332127830e+000	 2.362573653048547e+000	 1.097997982833382e+001
 2.489513920187309e+000	 2.388476594225181e+000	 1.096968121781429e+001
 2.464648963013601e+000	 2.414126237188460e+000	 1.097652093894337e+001
 2.439518395090000e+000	 2.439518395090000e+000	 1.098730094353265e+001
 2.697827326841749e+000	 2.190285989216679e+000	 1.118836255643414e+001
 2.675057419720397e+000	 2.218038052244520e+000	 1.114532894238080e+001
 2.651990872784105e+000	 2.245566612387354e+000	 1.110554033060943e+001
 2.628630986369380e+000	 2.272866942320069e+000	 1.106924092000520e+001
 2.604981160745831e+000	 2.299934379965241e+000	 1.103667212498104e+001
 2.581044894495063e+000	 2.326764331122195e+000	 1.100807212376371e+001
 2.556825782806911e+000	 2.353352272047435e+000	 1.098367540770330e+001
 2.532327515694697e+000	 2.379693751983390e+000	 1.096371233268203e+001
 2.507553876131363e+000	 2.405784395632538e+000	 1.094840867370167e+001
 2.482508738108449e+000	 2.431619905574028e+000	 1.095325629788572e+001
 2.457196064620000e+000	 2.457196064620000e+000	 1.096925337152046e+001
 2.717236156530065e+000	 2.206043442374710e+000	 1.114477681829703e+001
 2.694302437127753e+000	 2.233995160532463e+000	 1.110379765840801e+001
 2.671069943811038e+000	 2.261721767870786e+000	 1.106641342597221e+001
 2.647542000659858e+000	 2.289218503055032e+000	 1.103288606269509e+001
 2.623722032406190e+000	 2.316480670467651e+000	 1.100347443981552e+001
 2.599613562801293e+000	 2.343503642856166e+000	 1.097843388260869e+001
 2.575220212899676e+000	 2.370282863932164e+000	 1.095801569620845e+001
 2.550545699261519e+000	 2.396813850918235e+000	 1.094246669387267e+001
 2.525593832075397e+000	 2.423092197039895e+000	 1.093202872881812e+001
 2.500368513203295e+000	 2.449113573959597e+000	 1.092693823075220e+001
 2.474873734150000e+000	 2.474873734150000e+000	 1.094812784043014e+001
 2.298097038850000e+000	 2.298097038850000e+000	 1.102797054717463e+001
 2.274176890103912e+000	 2.321770762254630e+000	 1.099013690021075e+001
 2.250014182966333e+000	 2.345194272634154e+000	 1.095617422699946e+001
 2.225612861569795e+000	 2.368363863591268e+000	 1.092584592499749e+001
 2.200976945084877e+000	 2.391275911968415e+000	 1.089890849025446e+001
 2.176110525516454e+000	 2.413926879733345e+000	 1.087511194748837e+001
 2.151017765443552e+000	 2.436313315794466e+000	 1.085420029387130e+001
 2.125702895705410e+000	 2.458431857744016e+000	 1.083591195546504e+001
 2.100170213036469e+000	 2.480279233527257e+000	 1.081998025521160e+001
 2.074424077653029e+000	 2.501852263035922e+000	 1.079892530439267e+001
 2.048468910794402e+000	 2.523147859624355e+000	 1.070483986867231e+001
 2.315774708380000e+000	 2.315774708380000e+000	 1.103242189159604e+001
 2.291670558489480e+000	 2.339630537349518e+000	 1.099686742855856e+001
 2.267321984373690e+000	 2.363234228578369e+000	 1.096575498580848e+001
 2.242732960504639e+000	 2.386582047158496e+000	 1.093886863691485e+001
 2.217907536969605e+000	 2.409670342061902e+000	 1.091598488089468e+001
 2.192849837250426e+000	 2.432495548040706e+000	 1.089687305489284e+001
 2.167564055945962e+000	 2.455054187456451e+000	 1.088129576164779e+001
 2.142054456440372e+000	 2.477342872036708e+000	 1.086900931070252e+001
 2.116325368519901e+000	 2.499358304557081e+000	 1.085976417228151e+001
 2.090381185940973e+000	 2.521097280446934e+000	 1.077072329647975e+001
 2.064226363952433e+000	 2.542556689317182e+000	 1.068432729225627e+001
 2.333452377910000e+000	 2.333452377910000e+000	 1.103426566765654e+001
 2.309164226875049e+000	 2.357490312444403e+000	 1.100166978916115e+001
 2.284629785781046e+000	 2.381274184522563e+000	 1.097408288384604e+001
 2.259853059439483e+000	 2.404800230725679e+000	 1.095130930039113e+001
 2.234838128854334e+000	 2.428064772155310e+000	 1.093314514094420e+001
 2.209589148984396e+000	 2.451064216347939e+000	 1.091937865683353e+001
 2.184110346448371e+000	 2.473795059118257e+000	 1.090979066014172e+001
 2.158406017175333e+000	 2.496253886329152e+000	 1.090415495011878e+001
 2.132480524003332e+000	 2.518437375586582e+000	 1.082900763874608e+001
 2.106338294228916e+000	 2.540342297857539e+000	 1.074495211189155e+001
 2.079983817110463e+000	 2.561965519009508e+000	 1.066686352706578e+001
 2.351130047440000e+000	 2.351130047440000e+000	 1.103344376825536e+001
 2.326657895260617e+000	 2.375350087539281e+000	 1.100447211379270e+001
 2.301937587188402e+000	 2.399314140466737e+000	 1.098107248496110e+001
 2.276973158374327e+000	 2.423018414292818e+000	 1.096306911046632e+001
 2.251768720739063e+000	 2.446459202248637e+000	 1.095027730152147e+001
 2.226328460718368e+000	 2.469632884655048e+000	 1.094250383101566e+001
 2.200656636950781e+000	 2.492535930779882e+000	 1.093954732961959e+001
 2.174757577910297e+000	 2.515164900621352e+000	 1.088010761592716e+001
 2.148635679486764e+000	 2.537516446615764e+000	 1.079732510496465e+001
 2.122295402516860e+000	 2.559587315267738e+000	 1.072139951445013e+001
 2.095741270268495e+000	 2.581374348701332e+000	 1.065222420602457e+001
 2.368807716970000e+000	 2.368807716970000e+000	 1.102989787374133e+001
 2.344151563646185e+000	 2.393209862634155e+000	 1.100520275026607e+001
 2.319245388595758e+000	 2.417354096410892e+000	 1.098663899288141e+001
 2.294093257309171e+000	 2.441236597859911e+000	 1.097405032094729e+001
 2.268699312623791e+000	 2.464853632341883e+000	 1.096727086624766e+001
 2.243067772452339e+000	 2.488201552962031e+000	 1.096612553603409e+001
 2.217202927453191e+000	 2.511276802441325e+000	 1.092437669041135e+001
 2.191109138645258e+000	 2.534075914913305e+000	 1.084186794953020e+001
 2.164790834970196e+000	 2.556595517644623e+000	 1.076705346938390e+001
 2.138252510804803e+000	 2.578832332677530e+000	 1.069985672512654e+001
 2.111498723426525e+000	 2.600783178392654e+000	 1.064018879803301e+001
 2.386485386499999e+000	 2.386485386500000e+000	 1.102356945978521e+001
 2.361645232031754e+000	 2.411069637729024e+000	 1.100379025443142e+001
 2.336553190003114e+000	 2.435394052355026e+000	 1.099069822751436e+001
 2.311213356244014e+000	 2.459454781426959e+000	 1.098415620519422e+001
 2.285629904508520e+000	 2.483248062435050e+000	 1.098401675670948e+001
 2.259807084186310e+000	 2.506770221268889e+000	 1.096210600637997e+001
 2.233749217955601e+000	 2.530017674102588e+000	 1.087894129923726e+001
 2.207460699380221e+000	 2.552986929205012e+000	 1.080425384615268e+001
 2.180945990453627e+000	 2.575674588673162e+000	 1.073799891718393e+001
 2.154209619092746e+000	 2.598077350086916e+000	 1.068011829399823e+001
 2.127256176584556e+000	 2.620192008083476e+000	 1.063054046589461e+001
 2.404163056029999e+000	 2.404163056029999e+000	 1.101439980490448e+001
 2.379138900417322e+000	 2.428929412823889e+000	 1.100016338252778e+001
 2.353860991410470e+000	 2.453434008299141e+000	 1.099316660229343e+001
 2.328333455178858e+000	 2.477672964993961e+000	 1.099329101863693e+001
 2.302560496393249e+000	 2.501642492528136e+000	 1.099352335717764e+001
 2.276546395920281e+000	 2.525338889575621e+000	 1.090884370636062e+001
 2.250295508458011e+000	 2.548758545763669e+000	 1.083336831411631e+001
 2.223812260115183e+000	 2.571897943496473e+000	 1.076708585555592e+001
 2.197101145937059e+000	 2.594753659701379e+000	 1.070997048305321e+001
 2.170166727380690e+000	 2.617322367495896e+000	 1.066198197785546e+001
 2.143013629742586e+000	 2.639600837773797e+000	 1.062306593051087e+001
 2.421840725560000e+000	 2.421840725560000e+000	 1.100232999765883e+001
 2.396632568802890e+000	 2.446789187918747e+000	 1.099425108386941e+001
 2.371168792817826e+000	 2.471473964243235e+000	 1.099396110251648e+001
 2.345453554113702e+000	 2.495891148560919e+000	 1.100135996293304e+001
 2.319491088277978e+000	 2.520036922621141e+000	 1.093181057173262e+001
 2.293285707654252e+000	 2.543907557882227e+000	 1.085470266314403e+001
 2.266841798960421e+000	 2.567499417424571e+000	 1.078749207302852e+001
 2.240163820850145e+000	 2.590808957787687e+000	 1.073018692339588e+001
 2.213256301420490e+000	 2.613832730729275e+000	 1.068277994719182e+001
 2.186123835668633e+000	 2.636567384904469e+000	 1.064524862316798e+001
 2.158771082900617e+000	 2.659009667463616e+000	 1.061755534102374e+001
 2.439518395090000e+000	 2.439518395090000e+000	 1.098730094353265e+001
 2.414126237188460e+000	 2.464648963013600e+000	 1.098598249385061e+001
 2.388476594225182e+000	 2.489513920187309e+000	 1.099299926462614e+001
 2.362573653048546e+000	 2.514109332127830e+000	 1.094801312504772e+001
 2.336421680162706e+000	 2.538431352714067e+000	 1.086849973536682e+001
 2.310025019388224e+000	 2.562476226188708e+000	 1.079953044892817e+001
 2.283388089462831e+000	 2.586240289085291e+000	 1.074114888099569e+001
 2.256515381585107e+000	 2.609719972078657e+000	 1.069338230441552e+001
 2.229411456903922e+000	 2.632911801756850e+000	 1.065624173583630e+001
 2.202080943956577e+000	 2.655812402312637e+000	 1.062972205414014e+001
 2.174528536058648e+000	 2.678418497152933e+000	 1.061380215060386e+001
 2.457196064620000e+000	 2.457196064620000e+000	 1.096925337152046e+001
 2.431619905574028e+000	 2.482508738108450e+000	 1.097528692725199e+001
 2.405784395632538e+000	 2.507553876131362e+000	 1.095755743900428e+001
 2.379693751983389e+000	 2.532327515694696e+000	 1.087493838675964e+001
 2.353352272047435e+000	 2.556825782806911e+000	 1.080345112198999e+001
 2.326764331122194e+000	 2.581044894495063e+000	 1.074317619769575e+001
 2.299934379965241e+000	 2.604981160745831e+000	 1.069417693932438e+001
 2.272866942320070e+000	 2.628630986369379e+000	 1.065649947938397e+001
 2.245566612387353e+000	 2.651990872784105e+000	 1.063017282607862e+001
 2.218038052244520e+000	 2.675057419720398e+000	 1.061520896559808e+001
 2.190285989216679e+000	 2.697827326841749e+000	 1.061160299760081e+001
 2.474873734150000e+000	 2.474873734150000e+000	 1.094812784043014e+001
 2.449113573959596e+000	 2.500368513203294e+000	 1.096048348073616e+001
 2.423092197039895e+000	 2.525593832075397e+000	 1.087413248206451e+001
 2.396813850918235e+000	 2.550545699261519e+000	 1.079944043253690e+001
 2.370282863932165e+000	 2.575220212899676e+000	 1.073652618452789e+001
 2.343503642856166e+000	 2.599613562801293e+000	 1.068549054943630e+001
 2.316480670467651e+000	 2.623722032406190e+000	 1.064641627788156e+001
 2.289218503055032e+000	 2.647542000659858e+000	 1.061936807559581e+001
 2.261721767870785e+000	 2.671069943811037e+000	 1.060439265476413e+001
 2.233995160532464e+000	 2.694302437127753e+000	 1.060151882046749e+001
 2.206043442374710e+000	 2.717236156530064e+000	 1.061075759178654e+001
 2.048468910794402e+000	 2.523147859624355e+000	 1.070483986867231e+001
 2.022309192221251e+000	 2.544163031546754e+000	 1.061040366090377e+001
 1.995949457674740e+000	 2.564894883314335e+000	 1.052355922375120e+001
 1.969394296298900e+000	 2.585340616971148e+000	 1.044444034382661e+001
 1.942648348028941e+000	 2.605497533287247e+000	 1.037316850832450e+001
 1.915716300949207e+000	 2.625363032868398e+000	 1.030985295768273e+001
 1.888602888623659e+000	 2.644934617181425e+000	 1.025459076173133e+001
 1.861312887401978e+000	 2.664209889494488e+000	 1.023038311755879e+001
 1.833851113704457e+000	 2.683186555731693e+000	 1.023985533607154e+001
 1.806222421288800e+000	 2.701862425241568e+000	 1.026079730294293e+001
 1.778431698502015e+000	 2.720235411479095e+000	 1.029291029018794e+001
 2.064226363952433e+000	 2.542556689317182e+000	 1.068432729225627e+001
 2.037865416774701e+000	 2.563733516408568e+000	 1.060419336703487e+001
 2.011302915039320e+000	 2.584624843959287e+000	 1.053026885352042e+001
 1.984543483191425e+000	 2.605227852490652e+000	 1.046262209519126e+001
 1.957591796858037e+000	 2.625539822009412e+000	 1.040131064308936e+001
 1.930452580185686e+000	 2.645558133125988e+000	 1.034638137181585e+001
 1.903130603150365e+000	 2.665280268087723e+000	 1.029787061678596e+001
 1.875630678842904e+000	 2.684703811726376e+000	 1.025580433210929e+001
 1.847957660732984e+000	 2.703826452319316e+000	 1.026526256277501e+001
 1.820116439914905e+000	 2.722645982363904e+000	 1.028535682602781e+001
 1.792111942338345e+000	 2.741160299264779e+000	 1.031470721370966e+001
 2.079983817110463e+000	 2.561965519009508e+000	 1.066686352706578e+001
 2.053421641328147e+000	 2.583304001269784e+000	 1.059954431883320e+001
 2.026656372403879e+000	 2.604354804603557e+000	 1.053708044935629e+001
 1.999692670083905e+000	 2.625115088009401e+000	 1.047947542344368e+001
 1.972535245687052e+000	 2.645582110730755e+000	 1.042672343743017e+001
 1.945188859422041e+000	 2.665753233382704e+000	 1.037880955813535e+001
 1.917658317676889e+000	 2.685625918993101e+000	 1.033570992088609e+001
 1.889948470283585e+000	 2.705197733957309e+000	 1.029739194587387e+001
 1.862064207761188e+000	 2.724466348905958e+000	 1.028452486687688e+001
 1.834010458540603e+000	 2.743429539485246e+000	 1.030258178468316e+001
 1.805792186174171e+000	 2.762085187049463e+000	 1.032801051285883e+001
 2.095741270268495e+000	 2.581374348701332e+000	 1.065222420602457e+001
 2.068977865881588e+000	 2.602874486130406e+000	 1.059626764997268e+001
 2.042009829768418e+000	 2.624084765247146e+000	 1.054384014324021e+001
 2.014841856976339e+000	 2.645002323527393e+000	 1.049488094025712e+001
 1.987478694515987e+000	 2.665624399451278e+000	 1.044932144828166e+001
 1.959925138658268e+000	 2.685948333638543e+000	 1.040708546896461e+001
 1.932186032203233e+000	 2.705971569897559e+000	 1.036808945681337e+001
 1.904266261724017e+000	 2.725691656187287e+000	 1.033224279373347e+001
 1.876170754789071e+000	 2.745106245491620e+000	 1.029944807878204e+001
 1.847904477165892e+000	 2.764213096605592e+000	 1.031251245454671e+001
 1.819472430009494e+000	 2.783010074833148e+000	 1.033289310088269e+001
 2.111498723426525e+000	 2.600783178392654e+000	 1.064018879803301e+001
 2.084534090435024e+000	 2.622444970990429e+000	 1.059417728856366e+001
 2.057363287132937e+000	 2.643814725890054e+000	 1.055039583650123e+001
 2.029991043868728e+000	 2.664889559044628e+000	 1.050872001847500e+001
 2.002422143344841e+000	 2.685666688170979e+000	 1.046901900293196e+001
 1.974661417894369e+000	 2.706143433893507e+000	 1.043115585396053e+001
 1.946713746729394e+000	 2.726317220801095e+000	 1.039498784988314e+001
 1.918584053164202e+000	 2.746185578416309e+000	 1.036036681570068e+001
 1.890277301816630e+000	 2.765746142076302e+000	 1.032713946843468e+001
 1.861798495790774e+000	 2.784996653724944e+000	 1.031518420274523e+001
 1.833152673844316e+000	 2.803934962615831e+000	 1.032942210456343e+001
 2.127256176584556e+000	 2.620192008083476e+000	 1.063054046589461e+001
 2.100090314988453e+000	 2.642015455849857e+000	 1.059308985365546e+001
 2.072716744497436e+000	 2.663544686532280e+000	 1.055659713428431e+001
 2.045140230761070e+000	 2.684776794561108e+000	 1.052087476391945e+001
 2.017365592173613e+000	 2.705708976889859e+000	 1.048573020752808e+001
 1.989397697130344e+000	 2.726338534147595e+000	 1.045096630465679e+001
 1.961241461255374e+000	 2.746662871703712e+000	 1.041638164785066e+001
 1.932901844604140e+000	 2.766679500644376e+000	 1.038177097273155e+001
 1.904383848843868e+000	 2.786386038660005e+000	 1.034692555869080e+001
 1.875692514415249e+000	 2.805780210843301e+000	 1.031163363912495e+001
 1.846832917678635e+000	 2.824859850397516e+000	 1.031765907853187e+001
 2.143013629742586e+000	 2.639600837773797e+000	 1.062306593051087e+001
 2.115646539541880e+000	 2.661585940708688e+000	 1.059282455630461e+001
 2.088070201861914e+000	 2.683274647173827e+000	 1.056229528291024e+001
 2.060289417653368e+000	 2.704664030076833e+000	 1.053122798844345e+001
 2.032309041002305e+000	 2.725751265607919e+000	 1.049936895520615e+001
 2.004133976366192e+000	 2.746533634400806e+000	 1.046646129704178e+001
 1.975769175781172e+000	 2.767008522605407e+000	 1.043224539729201e+001
 1.947219636043831e+000	 2.787173422871487e+000	 1.039645935624955e+001
 1.918490395870783e+000	 2.807025935242726e+000	 1.035883944697507e+001
 1.889586533039316e+000	 2.826563767960661e+000	 1.031912057832143e+001
 1.860513161512450e+000	 2.845784738178200e+000	 1.029766021012609e+001
 2.158771082900617e+000	 2.659009667463616e+000	 1.061755534102374e+001
 2.131202764095300e+000	 2.681156425566923e+000	 1.059320310497616e+001
 2.103423659226372e+000	 2.703004607814691e+000	 1.056734310997857e+001
 2.075438604545620e+000	 2.724551265591801e+000	 1.053966318416347e+001
 2.047252489830916e+000	 2.745793554325158e+000	 1.050984893386536e+001
 2.018870255601915e+000	 2.766728734653143e+000	 1.047758423227205e+001
 1.990296890306788e+000	 2.787354173506182e+000	 1.044255171663974e+001
 1.961537427483276e+000	 2.807667345097644e+000	 1.040443329287322e+001
 1.932596942897376e+000	 2.827665831824468e+000	 1.036291064625023e+001
 1.903480551662975e+000	 2.847347325077028e+000	 1.031766575704875e+001
 1.874193405345763e+000	 2.866709625957885e+000	 1.026947651527774e+001
 2.174528536058648e+000	 2.678418497152933e+000	 1.061380215060386e+001
 2.146758988648715e+000	 2.700726910424563e+000	 1.059404961505793e+001
 2.118777116590811e+000	 2.722734568454874e+000	 1.057159496707502e+001
 2.090587791437827e+000	 2.744438501106012e+000	 1.054606449881201e+001
 2.062195938659447e+000	 2.765835843041575e+000	 1.051708363360429e+001
 2.033606534837511e+000	 2.786923834904604e+000	 1.048427747561543e+001
 2.004824604832223e+000	 2.807699824406037e+000	 1.044727136604313e+001
 1.975855218922474e+000	 2.828161267322844e+000	 1.040569144459001e+001
 1.946703489923646e+000	 2.848305728405229e+000	 1.035916521488855e+001
 1.917374570286227e+000	 2.868130882192400e+000	 1.030732211255621e+001
 1.887873649178574e+000	 2.887634513736569e+000	 1.024979407454633e+001
 2.190285989216679e+000	 2.697827326841749e+000	 1.061160299760081e+001
 2.162315213202126e+000	 2.720297395281605e+000	 1.059519052228032e+001
 2.134130573955228e+000	 2.742464529094375e+000	 1.057490667495180e+001
 2.105736978329988e+000	 2.764325736619468e+000	 1.055031671215443e+001
 2.077139387487895e+000	 2.785878131757172e+000	 1.052098635383589e+001
 2.048342814072981e+000	 2.807118935155188e+000	 1.048648239371323e+001
 2.019352319357476e+000	 2.828045475304971e+000	 1.044637331421314e+001
 1.990173010361424e+000	 2.848655189547090e+000	 1.040022990460657e+001
 1.960810036949594e+000	 2.868945624985010e+000	 1.034762588093804e+001
 1.931268588909071e+000	 2.888914439306776e+000	 1.028813850634216e+001
 1.901553893010882e+000	 2.908559401514253e+000	 1.022134921033287e+001
 2.206043442374710e+000	 2.717236156530064e+000	 1.061075759178654e+001
 2.177871437755532e+000	 2.739867880138052e+000	 1.059645449984710e+001
 2.149484031319626e+000	 2.762194489733196e+000	 1.057713547105732e+001
 2.120886165222104e+000	 2.784212972132168e+000	 1.055230521341636e+001
 2.092082836316265e+000	 2.805920420471948e+000	 1.052147021009777e+001
 2.063079093308326e+000	 2.827314035404899e+000	 1.048413939024544e+001
 2.033880033882548e+000	 2.848391126202985e+000	 1.043982480240204e+001
 2.004490801800128e+000	 2.869149111770381e+000	 1.038804228909071e+001
 1.974916583975221e+000	 2.889585521563813e+000	 1.032831216106245e+001
 1.945162607531509e+000	 2.909697996420158e+000	 1.026015986971613e+001
 1.915234136842688e+000	 2.929484289290938e+000	 1.018311667620002e+001
 1.778431698502015e+000	 2.720235411479095e+000	 1.029291029018794e+001
 1.750483865520404e+000	 2.738303532601247e+000	 1.024859106263020e+001
 1.722383871581194e+000	 2.756064911975476e+000	 1.020258738351724e+001
 1.694136692208680e+000	 2.773517778601557e+000	 1.015420275614368e+001
 1.665747326437760e+000	 2.790660467447267e+000	 1.010275456991636e+001
 1.637220794038314e+000	 2.807491419697759e+000	 1.004757532993030e+001
 1.608562132743385e+000	 2.824009182919216e+000	 9.988013848222323e+000
 1.579776395484173e+000	 2.840212411137346e+000	 9.923436394154699e+000
 1.550868647634841e+000	 2.856099864831404e+000	 9.853227801518530e+000
 1.521843964270075e+000	 2.871670410844536e+000	 9.776792530096053e+000
 1.492707427438275e+000	 2.886923022211355e+000	 9.693555679570608e+000
 1.792111942338345e+000	 2.741160299264779e+000	 1.031470721370966e+001
 1.763949126026976e+000	 2.759367405933930e+000	 1.025765143678046e+001
 1.735632978288948e+000	 2.777265411303141e+000	 1.020071552912207e+001
 1.707168512921817e+000	 2.794852530749107e+000	 1.014323660330045e+001
 1.678560767414597e+000	 2.812127086431664e+000	 1.008456370243282e+001
 1.649814800150784e+000	 2.829087507545086e+000	 1.002405902746630e+001
 1.620935687615213e+000	 2.845732330482985e+000	 9.961099128588492e+000
 1.591928521607785e+000	 2.862060198917422e+000	 9.895076058171547e+000
 1.562798406467084e+000	 2.878069863792879e+000	 9.825398482788630e+000
 1.533550456306829e+000	 2.893760183235912e+000	 9.751492751982910e+000
 1.504189792268103e+000	 2.909130122381397e+000	 9.672803921620631e+000
 1.805792186174171e+000	 2.762085187049463e+000	 1.032801051285883e+001
 1.777414386532957e+000	 2.780431279265624e+000	 1.025976690985714e+001
 1.748882084996038e+000	 2.798465910629846e+000	 1.019341778193293e+001
 1.720200333634242e+000	 2.816187282895747e+000	 1.012833292598567e+001
 1.691374208390694e+000	 2.833593705415225e+000	 1.006389213881066e+001
 1.662408806262504e+000	 2.850683595391665e+000	 9.999486442980409e+000
 1.633309242486302e+000	 2.867455478046118e+000	 9.934519279270500e+000
 1.604080647730691e+000	 2.883907986696995e+000	 9.868407662981127e+000
 1.574728165298670e+000	 2.900039862754003e+000	 9.800583301638916e+000
 1.545256948342998e+000	 2.915849955627105e+000	 9.730493671702241e+000
 1.515672157097435e+000	 2.931337222551448e+000	 9.657603052039784e+000
 1.819472430009494e+000	 2.783010074833148e+000	 1.033289310088269e+001
 1.790879647038344e+000	 2.801495152596328e+000	 1.025498199489832e+001
 1.762131191702469e+000	 2.819666409955593e+000	 1.018071095245460e+001
 1.733232154345956e+000	 2.837522035041479e+000	 1.010948153817844e+001
 1.704187649366050e+000	 2.855060324397947e+000	 1.004070341035573e+001
 1.675002812373475e+000	 2.872279683237500e+000	 9.973795546313713e+000
 1.645682797356652e+000	 2.889178625608618e+000	 9.908187436720032e+000
 1.616232773852888e+000	 2.905755774476063e+000	 9.843320246097994e+000
 1.586657924129600e+000	 2.922009861714772e+000	 9.778647936987218e+000
 1.556963440378580e+000	 2.937939728018115e+000	 9.713638355314659e+000
 1.527154521926272e+000	 2.953544322721507e+000	 9.647774274683345e+000
 1.833152673844316e+000	 2.803934962615831e+000	 1.032942210456343e+001
 1.804344907543139e+000	 2.822559025926043e+000	 1.024333636318675e+001
 1.775380298408235e+000	 2.840866909280380e+000	 1.016260793384048e+001
 1.746263975056959e+000	 2.858856787186303e+000	 1.008666924023773e+001
 1.717001090340666e+000	 2.876526943379832e+000	 1.001495891746043e+001
 1.687596818483696e+000	 2.893875771082586e+000	 9.946923037739403e+000
 1.658056352226264e+000	 2.910901773170480e+000	 9.882016307483829e+000
 1.628384899974379e+000	 2.927603562254629e+000	 9.819703232806701e+000
 1.598587682959872e+000	 2.943979860675189e+000	 9.759459250918130e+000
 1.568669932413575e+000	 2.960029500408944e+000	 9.700771824892359e+000
 1.538636886754612e+000	 2.975751422891574e+000	 9.643141499453048e+000
 1.846832917678635e+000	 2.824859850397516e+000	 1.031765907853187e+001
 1.817810168047342e+000	 2.843622899254767e+000	 1.022486502357407e+001
 1.788629405113341e+000	 2.862067408604207e+000	 1.013911784697948e+001
 1.759295795767250e+000	 2.880191539330219e+000	 1.005987993051783e+001
 1.729814531314541e+000	 2.897993562360880e+000	 9.986618008526367e+000
 1.700190824593167e+000	 2.915471858926927e+000	 9.918804394983555e+000
 1.670429907095137e+000	 2.932624920731709e+000	 9.855918184125963e+000
 1.640537026095160e+000	 2.949451350032689e+000	 9.797446421799796e+000
 1.610517441789488e+000	 2.965949859635252e+000	 9.742885244861904e+000
 1.580376424447985e+000	 2.982119272799590e+000	 9.691740986074235e+000
 1.550119251582456e+000	 2.997958523061648e+000	 9.643531242073083e+000
 1.860513161512450e+000	 2.845784738178200e+000	 1.029766021012609e+001
 1.831275428550952e+000	 2.864686772582501e+000	 1.019959849389380e+001
 1.801878511817784e+000	 2.883267907927075e+000	 1.011024617918231e+001
 1.772327616476830e+000	 2.901526291473225e+000	 1.002909471205973e+001
 1.742627972287676e+000	 2.919460181341089e+000	 9.955638055405283e+000
 1.712784830701890e+000	 2.937067946770523e+000	 9.889373918172064e+000
 1.682803461963272e+000	 2.954348068292302e+000	 9.829804960447802e+000
 1.652689152215236e+000	 2.971299137810246e+000	 9.776439971449495e+000
 1.622447200618446e+000	 2.987919858594963e+000	 9.728795017706855e+000
 1.592082916481808e+000	 3.004209045190053e+000	 9.686394558817133e+000
 1.561601616409804e+000	 3.020165623231730e+000	 9.648772528287774e+000
 1.874193405345763e+000	 2.866709625957885e+000	 1.026947651527774e+001
 1.844740689053969e+000	 2.885750645909246e+000	 1.016756296486694e+001
 1.815127618521566e+000	 2.904468407248984e+000	 1.007599491679389e+001
 1.785359437185699e+000	 2.922861043615324e+000	 9.994291994609974e+000
 1.755441413260070e+000	 2.940926800320462e+000	 9.921974525535870e+000
 1.725378836809862e+000	 2.958664034613371e+000	 9.858564772808398e+000
 1.695177016830668e+000	 2.976071215852259e+000	 9.803588146041511e+000
 1.664841278334603e+000	 2.993146925587299e+000	 9.756574386680896e+000
 1.634376959446748e+000	 3.009889857554320e+000	 9.717058725746067e+000
 1.603789408515045e+000	 3.026298817580335e+000	 9.684583011179837e+000
 1.573083981236656e+000	 3.042372723401821e+000	 9.658696802255108e+000
 1.887873649178574e+000	 2.887634513736569e+000	 1.024979407454633e+001
 1.858205949556393e+000	 2.906814519235001e+000	 1.012878045688149e+001
 1.828376725224685e+000	 2.925668906569934e+000	 1.003636267203985e+001
 1.798391257893857e+000	 2.944195795756514e+000	 9.955447592203539e+000
 1.768254854231724e+000	 2.962393419298998e+000	 9.885581050944175e+000
 1.737972842917085e+000	 2.980260122455474e+000	 9.826309030883314e+000
 1.707550571697327e+000	 2.997794363411583e+000	 9.777178880210652e+000
 1.676993404453262e+000	 3.014994713363848e+000	 9.737740506415646e+000
 1.646306718274393e+000	 3.031859856513325e+000	 9.707547544365772e+000
 1.615495900547695e+000	 3.048388589970434e+000	 9.686158495986003e+000
 1.584566346063012e+000	 3.064579823571918e+000	 9.673137838922894e+000
 1.901553893010882e+000	 2.908559401514253e+000	 1.022134921033287e+001
 1.871671210058226e+000	 2.927878392559766e+000	 1.008326897000458e+001
 1.841625831927143e+000	 2.946869405889925e+000	 9.991344804397746e+000
 1.811423078601302e+000	 2.965530547896796e+000	 9.912534816535031e+000
 1.781068295202637e+000	 2.983860038276696e+000	 9.846409494265695e+000
 1.750566849023559e+000	 3.001856210296831e+000	 9.792537710209807e+000
 1.719924126563246e+000	 3.019517510970271e+000	 9.750487945289754e+000
 1.689145530571214e+000	 3.036842501139892e+000	 9.719829491557581e+000
 1.658236477101382e+000	 3.053829855471977e+000	 9.700133631387166e+000
 1.627202392579759e+000	 3.070478362360350e+000	 9.690974790221238e+000
 1.596048710888871e+000	 3.086786923742023e+000	 9.691931660187628e+000
 1.915234136842688e+000	 2.929484289290938e+000	 1.018311667620002e+001
 1.885136470559467e+000	 2.948942265883543e+000	 1.004304928057711e+001
 1.854874938628939e+000	 2.968069905208957e+000	 9.940933536766680e+000
 1.824454899308038e+000	 2.986865300036170e+000	 9.865524566327716e+000
 1.793881736172811e+000	 3.005326657253558e+000	 9.804410011937982e+000
 1.763160855129283e+000	 3.023452298137441e+000	 9.757180812072340e+000
 1.732297681428427e+000	 3.041240658528325e+000	 9.723425779393452e+000
 1.701297656688460e+000	 3.058690288915435e+000	 9.702732813493386e+000
 1.670166235927714e+000	 3.075799854430276e+000	 9.694690091979469e+000
 1.638908884611238e+000	 3.092568134750086e+000	 9.698887237027217e+000
 1.607531075714235e+000	 3.108994023912138e+000	 9.714916454645993e+000
 1.492707427438275e+000	 2.886923022211355e+000	 9.693555679570608e+000
 1.463464123453077e+000	 2.901856777903874e+000	 9.586014886519337e+000
 1.434119140206303e+000	 2.916470862496686e+000	 9.486584044078130e+000
 1.404677564505076e+000	 2.930764565752653e+000	 9.394996437640737e+000
 1.375144479435225e+000	 2.944737282130762e+000	 9.310992495397246e+000
 1.345524961753960e+000	 2.958388510217295e+000	 9.234320493152804e+000
 1.315824079314217e+000	 2.971717852081893e+000	 9.164737224829011e+000
 1.286046888523079e+000	 2.984725012560141e+000	 9.102008637414610e+000
 1.256198431836615e+000	 2.997409798464362e+000	 9.045910429267581e+000
 1.226283735293376e+000	 3.009772117724388e+000	 9.014015761115566e+000
 1.196307806088698e+000	 3.021811978460158e+000	 8.991186651269311e+000
 1.504189792268103e+000	 2.909130122381397e+000	 9.672803921620631e+000
 1.474721539790167e+000	 2.924178753116689e+000	 9.579185644974826e+000
 1.445150825902609e+000	 2.938905253744039e+000	 9.494278663950707e+000
 1.415482776541836e+000	 2.953308908562949e+000	 9.417810390885396e+000
 1.385722513894337e+000	 2.967389107374397e+000	 9.349514995762032e+000
 1.355875153769300e+000	 2.981145344907636e+000	 9.289134133358193e+000
 1.325945803003145e+000	 2.994577220171298e+000	 9.236417635953409e+000
 1.295939556898392e+000	 3.007684435730476e+000	 9.191124170314067e+000
 1.265861496699235e+000	 3.020466796911432e+000	 9.153021857810485e+000
 1.235716687106057e+000	 3.032924210935764e+000	 9.132159739891284e+000
 1.205510173831083e+000	 3.045056685985870e+000	 9.127498537352579e+000
 1.515672157097435e+000	 2.931337222551448e+000	 9.657603052039784e+000
 1.485978956126852e+000	 2.946500728329692e+000	 9.578383993682577e+000
 1.456182511598578e+000	 2.961339644991719e+000	 9.508462708947670e+000
 1.426287988578308e+000	 2.975853251373670e+000	 9.447560312702638e+000
 1.396300548353190e+000	 2.990040932618514e+000	 9.395404308224521e+000
 1.366225345784390e+000	 3.003902179598473e+000	 9.351729337106606e+000
 1.336067526691811e+000	 3.017436588261179e+000	 9.316277894570886e+000
 1.305832225273413e+000	 3.030643858901224e+000	 9.288801008855852e+000
 1.275524561561510e+000	 3.043523795358813e+000	 9.269058883485281e+000
 1.245149638918324e+000	 3.056076304147309e+000	 9.260159739809724e+000
 1.214712541572961e+000	 3.068301393511570e+000	 9.274176702259457e+000
 1.527154521926272e+000	 2.953544322721507e+000	 9.647774274683345e+000
 1.497236372463129e+000	 2.968822703542879e+000	 9.583426640260358e+000
 1.467214197294211e+000	 2.983774036239725e+000	 9.528948633437373e+000
 1.437093200614492e+000	 2.998397594184816e+000	 9.484054645789200e+000
 1.406878582811784e+000	 3.012692757863114e+000	 9.448465103861787e+000
 1.376575537799229e+000	 3.026659014289811e+000	 9.421907242270473e+000
 1.346189250380215e+000	 3.040295956351536e+000	 9.404115842021181e+000
 1.315724893648139e+000	 3.053603282072388e+000	 9.394833932672935e+000
 1.285187626423441e+000	 3.066580793806505e+000	 9.393813457100016e+000
 1.254582590730175e+000	 3.079228397359024e+000	 9.400815897751111e+000
 1.223914909314336e+000	 3.091546101037260e+000	 9.431010420441456e+000
 1.538636886754612e+000	 2.975751422891574e+000	 9.643141499453048e+000
 1.508493788799001e+000	 2.991144678756257e+000	 9.594133229507655e+000
 1.478245882989506e+000	 3.006208427488057e+000	 9.555552052231711e+000
 1.447898412650388e+000	 3.020941936996385e+000	 9.527105208609228e+000
 1.417456617270118e+000	 3.035344583108195e+000	 9.508505636845396e+000
 1.386925729813818e+000	 3.049415848981647e+000	 9.499472769094243e+000
 1.356310974068357e+000	 3.063155324442370e+000	 9.499733293195522e+000
 1.325617562022573e+000	 3.076562705243963e+000	 9.509021877989268e+000
 1.294850691285028e+000	 3.089637792254510e+000	 9.527081860916535e+000
 1.264015542541612e+000	 3.102380490570910e+000	 9.553665896758808e+000
 1.233117277055205e+000	 3.114790808562941e+000	 9.597793622875560e+000
 1.550119251582456e+000	 2.997958523061648e+000	 9.643531242073083e+000
 1.519751205134466e+000	 3.013466653969821e+000	 9.610326234621381e+000
 1.489277568684464e+000	 3.028642818736715e+000	 9.588091623532582e+000
 1.458703624685996e+000	 3.043486279808379e+000	 9.576527070365511e+000
 1.428034651728194e+000	 3.057996408353757e+000	 9.575337611734081e+000
 1.397275921828156e+000	 3.072172683673983e+000	 9.584234480106204e+000
 1.366432697756237e+000	 3.086014692533680e+000	 9.602935889368258e+000
 1.335510230396714e+000	 3.099522128415953e+000	 9.631167783672369e+000
 1.304513756146271e+000	 3.112694790702827e+000	 9.668664548225994e+000
 1.273448494352633e+000	 3.125532583782966e+000	 9.708289081980144e+000
 1.242319644795568e+000	 3.138035516088611e+000	 9.605516719464387e+000
 1.561601616409804e+000	 3.020165623231730e+000	 9.648772528287774e+000
 1.531008621469525e+000	 3.035788629183572e+000	 9.631830853210431e+000
 1.500309254379085e+000	 3.051077209985700e+000	 9.626388937042615e+000
 1.469508836721317e+000	 3.066030622620796e+000	 9.632138431487338e+000
 1.438612686186010e+000	 3.080648233599801e+000	 9.648776056621392e+000
 1.407626113842244e+000	 3.094929518366817e+000	 9.676004446211149e+000
 1.376554421443855e+000	 3.108874060625466e+000	 9.713532957520741e+000
 1.345402898770562e+000	 3.122481551588358e+000	 9.761078444076972e+000
 1.314176821007170e+000	 3.135751789151454e+000	 9.679915179949454e+000
 1.282881446163240e+000	 3.148684676995191e+000	 9.579279283277771e+000
 1.251522012535427e+000	 3.161280223614271e+000	 9.491465617680442e+000
 1.573083981236656e+000	 3.042372723401821e+000	 9.658696802255108e+000
 1.542266037804178e+000	 3.058110604397511e+000	 9.658474907864800e+000
 1.511340940073370e+000	 3.073511601235009e+000	 9.670268406975779e+000
 1.480314048756349e+000	 3.088574965433638e+000	 9.693760509351886e+000
 1.449190720643567e+000	 3.103300058846326e+000	 9.728639201838762e+000
 1.417976305856081e+000	 3.117686353060152e+000	 9.774598118647550e+000
 1.386676145131212e+000	 3.131733428717729e+000	 9.745258091672069e+000
 1.355295567144116e+000	 3.145440974761175e+000	 9.636300670428760e+000
 1.323839885867724e+000	 3.158808787600393e+000	 9.540817432353254e+000
 1.292314397973432e+000	 3.171836770207588e+000	 9.458775111887743e+000
 1.260724380274781e+000	 3.184524931139920e+000	 9.390136598962817e+000
 1.584566346063012e+000	 3.064579823571918e+000	 9.673137838922894e+000
 1.553523454138424e+000	 3.080432579611637e+000	 9.690088751047497e+000
 1.522372625767317e+000	 3.095945992484646e+000	 9.719557169720622e+000
 1.491119260791094e+000	 3.111119308246904e+000	 9.761217428974728e+000
 1.459768755100865e+000	 3.125951884093334e+000	 9.802687687025667e+000
 1.428326497869667e+000	 3.140443187753983e+000	 9.683286090730395e+000
 1.396797868818307e+000	 3.154592796810469e+000	 9.578002323795271e+000
 1.365188235517377e+000	 3.168400397934406e+000	 9.486807823637829e+000
 1.333502950727935e+000	 3.181865786049646e+000	 9.409668510315626e+000
 1.301747349783209e+000	 3.194988863420155e+000	 9.346545380482599e+000
 1.269926748013629e+000	 3.207769638665559e+000	 9.297395090909033e+000
 1.596048710888871e+000	 3.086786923742023e+000	 9.691931660187628e+000
 1.564780870472264e+000	 3.102754554825951e+000	 9.726505174091821e+000
 1.533404311460927e+000	 3.118380383734608e+000	 9.774084985919650e+000
 1.501924472825550e+000	 3.133663651060593e+000	 9.725149093764449e+000
 1.470346789557904e+000	 3.148603709340823e+000	 9.607979113113565e+000
 1.438676689883004e+000	 3.163200022448315e+000	 9.505533626909386e+000
 1.406919592505140e+000	 3.177452164903683e+000	 9.417785753237141e+000
 1.375080903890346e+000	 3.191359821108051e+000	 9.344701937179893e+000
 1.343166015587801e+000	 3.204922784499208e+000	 9.286242576168755e+000
 1.311180301592571e+000	 3.218140956632892e+000	 9.242362636709634e+000
 1.279129115751972e+000	 3.231014346191188e+000	 9.213012260875994e+000
 1.607531075714235e+000	 3.108994023912138e+000	 9.714916454645993e+000
 1.576038286805698e+000	 3.125076530040452e+000	 9.766606040016368e+000
 1.544435997154201e+000	 3.140814774984898e+000	 9.635527298193759e+000
 1.512729684859719e+000	 3.156207993874709e+000	 9.519785733352215e+000
 1.480924824014684e+000	 3.171255534588795e+000	 9.419366101320033e+000
 1.449026881896090e+000	 3.185956857143146e+000	 9.334244627193710e+000
 1.417041316191712e+000	 3.200311532997376e+000	 9.264389665041422e+000
 1.384973572263021e+000	 3.214319244282112e+000	 9.209762352776551e+000
 1.352829080447324e+000	 3.227979782949084e+000	 9.170317260389927e+000
 1.320613253401519e+000	 3.241293049845800e+000	 9.146003029799237e+000
 1.288331483489811e+000	 3.254259053716808e+000	 9.136763004647220e+000
 1.196307806088698e+000	 3.021811978460158e+000	 8.991186651269311e+000
 1.166275630192232e+000	 3.033529487987621e+000	 8.911172573123668e+000
 1.136192170009821e+000	 3.044924851761178e+000	 8.843423414038437e+000
 1.106062362091802e+000	 3.055998372254013e+000	 8.787114428152727e+000
 1.075891114890496e+000	 3.066750447777396e+000	 8.741478644132126e+000
 1.045683306567630e+000	 3.077181571242415e+000	 8.705807691070268e+000
 1.015443782853513e+000	 3.087292328865915e+000	 8.679452465207444e+000
 9.851773549594465e-001	 3.097083398822883e+000	 8.661823639227045e+000
 9.548887975447457e-001	 3.106555549847563e+000	 8.652392016303498e+000
 9.245828467396422e-001	 3.115709639785575e+000	 8.650688731473991e+000
 8.942641982252435e-001	 3.124546614099404e+000	 8.656305303284267e+000
 1.205510173831083e+000	 3.045056685985870e+000	 9.127498537352579e+000
 1.175246981197481e+000	 3.056864330203026e+000	 9.070144240240717e+000
 1.144932109783359e+000	 3.068347350621874e+000	 9.023565462270236e+000
 1.114570534112516e+000	 3.079506052042313e+000	 8.986879577096147e+000
 1.084167200394599e+000	 3.090340835839550e+000	 8.959264825786619e+000
 1.053727024315657e+000	 3.100852198716295e+000	 8.939961175612961e+000
 1.023254888880847e+000	 3.111040731398753e+000	 8.928271013590654e+000
 9.927556423107906e-001	 3.120907117278648e+000	 8.923559676593916e+000
 9.622340959929506e-001	 3.130452131003561e+000	 8.856096898402615e+000
 9.316950224893299e-001	 3.139676637017925e+000	 8.748380955244318e+000
 9.011431536016610e-001	 3.148581588057016e+000	 8.652615893191932e+000
 1.214712541572961e+000	 3.068301393511570e+000	 9.274176702259457e+000
 1.184218332202131e+000	 3.080199172418236e+000	 9.238992992999251e+000
 1.153672049556212e+000	 3.091769849482220e+000	 9.213082128697266e+000
 1.123078706132470e+000	 3.103013731830142e+000	 9.195503189009962e+000
 1.092443285897879e+000	 3.113931223901139e+000	 9.185379247775796e+000
 1.061770742062806e+000	 3.124522826189546e+000	 9.181898264978473e+000
 1.031065994907259e+000	 3.134789133930934e+000	 9.058699961356409e+000
 1.000333929661179e+000	 3.144730835733750e+000	 8.940470839993548e+000
 9.695793944401745e-001	 3.154348712158920e+000	 8.833165206662423e+000
 9.388071982380229e-001	 3.163643634249695e+000	 8.736603476764858e+000
 9.080221089770787e-001	 3.172616562014134e+000	 8.650629168350246e+000
 1.223914909314336e+000	 3.091546101037260e+000	 9.431010420441456e+000
 1.193189683206180e+000	 3.103534014633252e+000	 9.417532004031614e+000
 1.162411989328381e+000	 3.115192348342218e+000	 9.411809987881345e+000
 1.131586878151665e+000	 3.126521411617498e+000	 9.393117753354499e+000
 1.100719371400334e+000	 3.137521611962162e+000	 9.257814576047862e+000
 1.069814459809077e+000	 3.148193453662171e+000	 9.132946456561403e+000
 1.038877100932750e+000	 3.158537536462453e+000	 9.018224422978650e+000
 1.007912217010610e+000	 3.168554554188189e+000	 8.913381988504481e+000
 9.769246928864181e-001	 3.178245293313647e+000	 8.818176114697055e+000
 9.459193739857200e-001	 3.187610631480886e+000	 8.732388091141248e+000
 9.149010643514963e-001	 3.196651535970757e+000	 8.655824330808086e+000
 1.233117277055205e+000	 3.114790808562941e+000	 9.597793622875560e+000
 1.202161034209630e+000	 3.126868856848071e+000	 9.581333638330325e+000
 1.171151929099864e+000	 3.138614847201867e+000	 9.443006541595763e+000
 1.140095050170102e+000	 3.150029091404383e+000	 9.314696166180708e+000
 1.108995456901967e+000	 3.161112000022622e+000	 9.196022675806532e+000
 1.077858177554471e+000	 3.171864081134169e+000	 9.086628380363877e+000
 1.046688206957319e+000	 3.182285938993313e+000	 8.986178910575545e+000
 1.015490504359086e+000	 3.192378272641967e+000	 8.894364307571740e+000
 9.842699913316808e-001	 3.202141874467737e+000	 8.810900026030307e+000
 9.530315497324224e-001	 3.211577628711497e+000	 8.735527849832202e+000
 9.217800197249140e-001	 3.220686509926887e+000	 8.668016719470575e+000
 1.242319644795568e+000	 3.138035516088611e+000	 9.605516719464387e+000
 1.211132385212480e+000	 3.150203699062697e+000	 9.476231526791056e+000
 1.179891868870664e+000	 3.162037346061168e+000	 9.356358145172928e+000
 1.148603222187779e+000	 3.173536771190796e+000	 9.245444500245315e+000
 1.117271542402776e+000	 3.184702388082517e+000	 9.143061196767532e+000
 1.085901895298987e+000	 3.195534708605540e+000	 9.048802829051725e+000
 1.054499312980966e+000	 3.206034341523514e+000	 8.962289204060108e+000
 1.023068791706606e+000	 3.216201991095082e+000	 8.883166475490247e+000
 9.916152897759637e-001	 3.226038455621192e+000	 8.811108187476359e+000
 9.601437254781294e-001	 3.235544625941530e+000	 8.745816226840180e+000
 9.286589750973320e-001	 3.244721483882524e+000	 8.687021683124527e+000
 1.251522012535427e+000	 3.161280223614271e+000	 9.491465617680442e+000
 1.220103736214729e+000	 3.173538541277126e+000	 9.380595528964056e+000
 1.188631808640779e+000	 3.185459844920121e+000	 9.278855741386792e+000
 1.157111394204697e+000	 3.197044450976737e+000	 9.185020932675140e+000
 1.125547627902761e+000	 3.208292776141848e+000	 9.098611689081137e+000
 1.093945613042626e+000	 3.219205336076285e+000	 9.019174439765381e+000
 1.062310419003691e+000	 3.229782744053054e+000	 8.946282729064762e+000
 1.030647079053169e+000	 3.240025709547533e+000	 8.879538395787543e+000
 9.989605882192654e-001	 3.249935036774010e+000	 8.818572658136549e+000
 9.672559012228416e-001	 3.259511623170983e+000	 8.763047103176604e+000
 9.355379304687495e-001	 3.268756457837667e+000	 8.712654580074927e+000
 1.260724380274781e+000	 3.184524931139920e+000	 9.390136598962817e+000
 1.229075087216379e+000	 3.196873383491363e+000	 9.294039985159074e+000
 1.197371748410209e+000	 3.208882343778725e+000	 9.210137137379045e+000
 1.165619566220856e+000	 3.220552130762207e+000	 9.133086483971718e+000
 1.133823713401924e+000	 3.231883164200613e+000	 9.062358120119372e+000
 1.101989330785386e+000	 3.242875963546399e+000	 8.997449847581125e+000
 1.070121525025494e+000	 3.253531146581936e+000	 8.937888496878196e+000
 1.038225366398776e+000	 3.263849427999324e+000	 8.883231152507170e+000
 1.006305886661587e+000	 3.273831617926195e+000	 8.833066279753810e+000
 9.743680769665584e-001	 3.283478620399857e+000	 8.787014752007723e+000
 9.424168858391672e-001	 3.292791431792316e+000	 8.744730777797447e+000
 1.269926748013629e+000	 3.207769638665559e+000	 9.297395090909033e+000
 1.238046438217428e+000	 3.220208225705404e+000	 9.216182816761023e+000
 1.206111688178954e+000	 3.232304842636979e+000	 9.149843297838332e+000
 1.174127738236257e+000	 3.244059810547205e+000	 9.089304914990684e+000
 1.142099798900263e+000	 3.255473552258815e+000	 9.033986786895213e+000
 1.110033048527270e+000	 3.266546591015890e+000	 8.983337613122231e+000
 1.077932631046376e+000	 3.277279549110157e+000	 8.936837046994519e+000
 1.045803653743427e+000	 3.287673146450453e+000	 8.893996967436342e+000
 1.013651185102928e+000	 3.297728199077743e+000	 8.854362648356290e+000
 9.814802527092800e-001	 3.307445617628152e+000	 8.817513824445793e+000
 9.492958412085848e-001	 3.316826405746471e+000	 8.783065652606323e+000
 1.279129115751972e+000	 3.231014346191188e+000	 9.213012260875994e+000
 1.247017789217878e+000	 3.243543067919251e+000	 9.146645397414350e+000
 1.214851627947015e+000	 3.255727341494886e+000	 9.097618231419107e+000
 1.182635910250898e+000	 3.267567490331730e+000	 9.053342628367799e+000
 1.150375884397779e+000	 3.279063940316452e+000	 9.013186232262882e+000
 1.118076766268276e+000	 3.290217218484752e+000	 8.976548153294852e+000
 1.085743737066335e+000	 3.301027951637718e+000	 8.942860392141562e+000
 1.053381941087122e+000	 3.311496864900918e+000	 8.911589159179984e+000
 1.020996483543287e+000	 3.321624780228655e+000	 8.882236087124532e+000
 9.885924284510065e-001	 3.331412614855867e+000	 8.854339335954336e+000
 9.561747965770026e-001	 3.340861379700133e+000	 8.827474589336450e+000
 1.288331483489811e+000	 3.254259053716808e+000	 9.136763004647220e+000
 1.255989140217728e+000	 3.266877910132902e+000	 9.086756412211479e+000
 1.223591567714392e+000	 3.279149840352444e+000	 9.053108882028964e+000
 1.191144082264780e+000	 3.291075170115786e+000	 9.024868574169652e+000
 1.158651969894471e+000	 3.302654328373525e+000	 8.999647164708936e+000
 1.126120484008404e+000	 3.313887845952988e+000	 8.976793674991864e+000
 1.093554843085373e+000	 3.324776354164622e+000	 8.955691965665407e+000
 1.060960228429861e+000	 3.335320583350722e+000	 8.935762103988731e+000
 1.028341781982668e+000	 3.345521361378934e+000	 8.916461620421801e+000
 9.957046041917382e-001	 3.355379612083005e+000	 8.897286653335119e+000
 9.630537519444204e-001	 3.364896353653301e+000	 8.877772981039026e+000
 8.942641982252435e-001	 3.124546614099404e+000	 8.656305303284267e+000
 8.639375053716756e-001	 3.133067504330197e+000	 8.567634685323766e+000
 8.336073774350107e-001	 3.141273426516435e+000	 8.483159678675472e+000
 8.032783778144549e-001	 3.149165579572983e+000	 8.408537401357414e+000
 7.729550223703774e-001	 3.156745243634214e+000	 8.343785021705932e+000
 7.426417778035707e-001	 3.164013778361765e+000	 8.288943902366182e+000
 7.123430600964776e-001	 3.170972621219920e+000	 8.244079796621913e+000
 6.820632330168476e-001	 3.177623285720976e+000	 8.209282971475790e+000
 6.518066066841962e-001	 3.183967359642995e+000	 8.184668258685697e+000
 6.215774361993540e-001	 3.190006503222291e+000	 8.179750271645169e+000
 5.913799203372813e-001	 3.195742447322996e+000	 8.247224545011436e+000
 9.011431536016610e-001	 3.148581588057016e+000	 8.652615893191932e+000
 8.705831784952053e-001	 3.157168023597005e+000	 8.566949020242641e+000
 8.400197418818312e-001	 3.165437068261379e+000	 8.490159495602079e+000
 8.094574422638166e-001	 3.173389930187422e+000	 8.422207942577931e+000
 7.789008302389191e-001	 3.181027899356694e+000	 8.363080639216879e+000
 7.483544068671686e-001	 3.188352345889772e+000	 8.312789809009855e+000
 7.178226221001053e-001	 3.195364718308351e+000	 8.271373833946839e+000
 6.873098732729230e-001	 3.202066541767132e+000	 8.238897390966027e+000
 6.568205036599041e-001	 3.208459416257858e+000	 8.215451513049590e+000
 6.263588010934251e-001	 3.214545014787885e+000	 8.201153576411151e+000
 5.959289966467158e-001	 3.220325081535687e+000	 8.273907356635279e+000
 9.080221089770787e-001	 3.172616562014134e+000	 8.650629168350246e+000
 8.772288516177454e-001	 3.181268542863414e+000	 8.573267579296953e+000
 8.464321063276931e-001	 3.189600710006008e+000	 8.503794329443270e+000
 8.156365067122714e-001	 3.197614280801621e+000	 8.442137152659436e+000
 7.848466381066257e-001	 3.205310555079000e+000	 8.388251185651853e+000
 7.540670359300239e-001	 3.212690913417656e+000	 8.342119279062345e+000
 7.233021841031021e-001	 3.219756815396703e+000	 8.303752227481592e+000
 6.925565135284997e-001	 3.226509797813246e+000	 8.273188919460896e+000
 6.618344006352651e-001	 3.232951472872700e+000	 8.250496408821773e+000
 6.311401659873202e-001	 3.239083526353473e+000	 8.235769908761148e+000
 6.004780729561651e-001	 3.244907715748377e+000	 8.300848884269954e+000
 9.149010643514963e-001	 3.196651535970757e+000	 8.655824330808086e+000
 8.838745247392960e-001	 3.205369062129424e+000	 8.586427119432885e+000
 8.528444707725966e-001	 3.213764351750323e+000	 8.523922130579846e+000
 8.218155711598192e-001	 3.221838631415580e+000	 8.468203929609118e+000
 7.907924459734976e-001	 3.229593210801130e+000	 8.419196250246401e+000
 7.597796649921365e-001	 3.237029480945418e+000	 8.376852326355406e+000
 7.287817461054688e-001	 3.244148912484980e+000	 8.341155139148746e+000
 6.978031537835781e-001	 3.250953053859317e+000	 8.312117580961312e+000
 6.668482976102793e-001	 3.257443529487524e+000	 8.289782536931499e+000
 6.359215308810396e-001	 3.263622037919057e+000	 8.274222886142677e+000
 6.050271492656288e-001	 3.269490349961068e+000	 8.328421930834548e+000
 9.217800197249140e-001	 3.220686509926887e+000	 8.668016719470575e+000
 8.905201978598567e-001	 3.229469581395036e+000	 8.606264014943807e+000
 8.592568352165415e-001	 3.237927993494322e+000	 8.550400077820106e+000
 8.279946356064604e-001	 3.246062982029298e+000	 8.500286015073760e+000
 7.967382538395343e-001	 3.253875866523083e+000	 8.455813885350993e+000
 7.654922940535065e-001	 3.261368048473059e+000	 8.416907051701868e+000
 7.342613081072044e-001	 3.268541009573177e+000	 8.383520446233224e+000
 7.030497940381579e-001	 3.275396309905343e+000	 8.355640747846072e+000
 6.718621945849467e-001	 3.281935586102327e+000	 8.333286474450803e+000
 6.407028957745837e-001	 3.288160549484636e+000	 8.316507991267720e+000
 6.095762255751076e-001	 3.294072984173759e+000	 8.356995575609750e+000
 9.286589750973320e-001	 3.244721483882524e+000	 8.687021683124527e+000
 8.971658709794282e-001	 3.253570100660248e+000	 8.632614271641980e+000
 8.656691996595282e-001	 3.262091635238010e+000	 8.583084606976680e+000
 8.341737000521943e-001	 3.270287332642776e+000	 8.538260037167794e+000
 8.026840617047365e-001	 3.278158522244862e+000	 8.498000663352393e+000
 7.712049231141334e-001	 3.285706616000578e+000	 8.462199713748422e+000
 7.397408701083099e-001	 3.292933106661297e+000	 8.430783825998569e+000
 7.082964342922391e-001	 3.299839565951325e+000	 8.403713239079970e+000
 6.768760915592670e-001	 3.306427642717112e+000	 8.380981896219241e+000
 6.454842606679518e-001	 3.312699061050212e+000	 8.362617460477210e+000
 6.141253018846009e-001	 3.318655618386451e+000	 8.386935312150447e+000
 9.355379304687495e-001	 3.268756457837667e+000	 8.712654580074927e+000
 9.038115440980098e-001	 3.277670619925062e+000	 8.665313540406176e+000
 8.720815641015560e-001	 3.286255276981380e+000	 8.621831438182495e+000
 8.403527644970217e-001	 3.294511683256016e+000	 8.582001551412015e+000
 8.086298695691034e-001	 3.302441177966462e+000	 8.545651731084364e+000
 7.769175521740177e-001	 3.310045183527975e+000	 8.512644796702045e+000
 7.452204321087848e-001	 3.317325203749339e+000	 8.482878836570031e+000
 7.135430745458218e-001	 3.324282821997265e+000	 8.456287414089518e+000
 6.818899885332407e-001	 3.330919699331877e+000	 8.432839681543186e+000
 6.502656255611443e-001	 3.337237572615780e+000	 8.412540403093091e+000
 6.186743781941089e-001	 3.343238252599141e+000	 8.418603180113882e+000
 9.424168858391672e-001	 3.292791431792316e+000	 8.744730777797447e+000
 9.104572172156019e-001	 3.301771139189477e+000	 8.704197130135066e+000
 8.784939285426255e-001	 3.310418918724437e+000	 8.666495602010388e+000
 8.465318289409420e-001	 3.318736033869013e+000	 8.631385079879228e+000
 8.145756774326358e-001	 3.326723833687888e+000	 8.598660861854910e+000
 7.826301812331594e-001	 3.334383751055250e+000	 8.568155075090735e+000
 7.506999941086291e-001	 3.341717300837304e+000	 8.539736994275383e+000
 7.187897147989062e-001	 3.348726078043161e+000	 8.513313262526943e+000
 6.869038855068675e-001	 3.355411755946624e+000	 8.488828016222946e+000
 6.550469904541608e-001	 3.361776084181345e+000	 8.466262915543000e+000
 6.232234545036314e-001	 3.367820886811832e+000	 8.452357891314172e+000
 9.492958412085848e-001	 3.316826405746471e+000	 8.783065652606323e+000
 9.171028903322046e-001	 3.325871658453493e+000	 8.749100020138137e+000
 8.849062929827364e-001	 3.334582560467181e+000	 8.716931464457320e+000
 8.527108933839558e-001	 3.342960384481772e+000	 8.686284148638279e+000
 8.205214852953330e-001	 3.351006489409139e+000	 8.656920505211904e+000
 7.883428102915585e-001	 3.358722318582404e+000	 8.628641675708469e+000
 7.561795561078429e-001	 3.366109397925190e+000	 8.601287847623125e+000
 7.240363550514918e-001	 3.373169334089012e+000	 8.574738490131798e+000
 6.919177824801477e-001	 3.379903812561350e+000	 8.548912490143323e+000
 6.598283553470018e-001	 3.386314595746906e+000	 8.523768190523088e+000
 6.277725308131688e-001	 3.392403521024523e+000	 8.499303332555241e+000
 9.561747965770026e-001	 3.340861379700133e+000	 8.827474589336450e+000
 9.237485634478174e-001	 3.349972177717110e+000	 8.799856871991205e+000
 8.913186574218889e-001	 3.358746202209609e+000	 8.772992750849939e+000
 8.588899578260621e-001	 3.367184735094290e+000	 8.746571323581268e+000
 8.264672931571956e-001	 3.375289145130211e+000	 8.720321834560235e+000
 7.940554393492146e-001	 3.383060886109435e+000	 8.694014136885945e+000
 7.616591181064262e-001	 3.390501495012999e+000	 8.667459048087340e+000
 7.292829953035791e-001	 3.397612590134821e+000	 8.640508600885761e+000
 6.969316794530807e-001	 3.404395869176058e+000	 8.613056190652005e+000
 6.646097202396671e-001	 3.410853107312461e+000	 8.585036621448909e+000
 6.323216071227208e-001	 3.416986155237214e+000	 8.556426052792745e+000
 9.630537519444204e-001	 3.364896353653301e+000	 8.877772981039026e+000
 9.303942365624410e-001	 3.374072696980329e+000	 8.856302040884110e+000
 8.977310218600831e-001	 3.382909843951724e+000	 8.834532568725653e+000
 8.650690222672622e-001	 3.391409085706569e+000	 8.812118244715723e+000
 8.324131010182233e-001	 3.399571800851111e+000	 8.788754792738384e+000
 7.997680684061285e-001	 3.407399453636346e+000	 8.764180465221772e+000
 7.671386801043791e-001	 3.414893592100732e+000	 8.738176417858865e+000
 7.345296355551679e-001	 3.422055846180586e+000	 8.710566975647256e+000
 7.019455764256671e-001	 3.428887925790747e+000	 8.681219791935986e+000
 6.693910851321567e-001	 3.435391618878011e+000	 8.650045902429614e+000
 6.368706834322875e-001	 3.441568789449906e+000	 8.616999676348005e+000
 5.913799203372813e-001	 3.195742447322996e+000	 8.247224545011436e+000
 5.612182003031748e-001	 3.201176991585784e+000	 8.177986654809317e+000
 5.310963585522425e-001	 3.206312002558782e+000	 8.121410150698605e+000
 5.010184176725815e-001	 3.211149411812481e+000	 8.077689710346805e+000
 4.709883393310327e-001	 3.215691214040372e+000	 8.046987266391767e+000
 4.410100232820740e-001	 3.219939465148238e+000	 8.029431477837791e+000
 4.110873064392889e-001	 3.223896280334044e+000	 8.025117290474915e+000
 3.812239620090090e-001	 3.227563832160544e+000	 8.034105585372734e+000
 3.514236986856592e-001	 3.230944348622705e+000	 8.056422914271867e+000
 3.216901599082669e-001	 3.234040111211981e+000	 8.092061320483872e+000
 2.920269231775196e-001	 3.236853452979430e+000	 8.140978243705517e+000
 5.959289966467158e-001	 3.220325081535687e+000	 8.273907356635279e+000
 5.655352633805315e-001	 3.225801429985276e+000	 8.208103832819742e+000
 5.351817151537136e-001	 3.230975941042790e+000	 8.153743698853109e+000
 5.048724054973427e-001	 3.235850561136954e+000	 8.111081759034855e+000
 4.746113265526194e-001	 3.240427300305058e+000	 8.080339453250645e+000
 4.444024080721309e-001	 3.244708230267543e+000	 8.061704260729275e+000
 4.142495164841795e-001	 3.248695482493129e+000	 8.055329196054663e+000
 3.841564540197592e-001	 3.252391246256594e+000	 8.061332396513228e+000
 3.541269579017118e-001	 3.255797766691325e+000	 8.079796799620247e+000
 3.241646995955179e-001	 3.258917342838711e+000	 8.110769909446766e+000
 2.942732841210988e-001	 3.261752325696358e+000	 8.154263650156670e+000
 6.004780729561651e-001	 3.244907715748377e+000	 8.300848884269954e+000
 5.698523264580873e-001	 3.250425868384768e+000	 8.238435376157581e+000
 5.392670717555369e-001	 3.255639879526798e+000	 8.186260292509983e+000
 5.087263933225791e-001	 3.260551710461429e+000	 8.144639009761344e+000
 4.782343137747728e-001	 3.265163386569744e+000	 8.113852900041200e+000
 4.477947928628162e-001	 3.269476995386849e+000	 8.094148666869845e+000
 4.174117265297299e-001	 3.273494684652216e+000	 8.085737776388006e+000
 3.870889460311708e-001	 3.277218660352643e+000	 8.088795983229728e+000
 3.568302171183988e-001	 3.280651184759945e+000	 8.103462949901466e+000
 3.266392392833460e-001	 3.283794574465440e+000	 8.129841958300967e+000
 2.965196450651695e-001	 3.286651198413287e+000	 8.167999711786051e+000
 6.050271492656288e-001	 3.269490349961068e+000	 8.328421930834548e+000
 5.741693895358421e-001	 3.275050306784259e+000	 8.269326583282640e+000
 5.433524283577125e-001	 3.280303818010806e+000	 8.219277545008190e+000
 5.125803811482899e-001	 3.285252859785903e+000	 8.178651227223082e+000
 4.818573009974927e-001	 3.289899472834430e+000	 8.147789376241885e+000
 4.511871776541295e-001	 3.294245760506156e+000	 8.126998340679204e+000
 4.205739365759401e-001	 3.298293886811303e+000	 8.116548437509415e+000
 3.900214380432444e-001	 3.302046074448694e+000	 8.116673416124126e+000
 3.595334763357196e-001	 3.305504602828564e+000	 8.127570019271838e+000
 3.291137789717515e-001	 3.308671806092170e+000	 8.149397639520718e+000
 2.987660060097320e-001	 3.311550071130214e+000	 8.182278069659784e+000
 6.095762255751076e-001	 3.294072984173759e+000	 8.356995575609750e+000
 5.784864526137959e-001	 3.299674745183752e+000	 8.301119447237333e+000
 5.474377849602403e-001	 3.304967756494813e+000	 8.253110189862158e+000
 5.164343689744753e-001	 3.309954009110377e+000	 8.213405729017760e+000
 4.854802882207794e-001	 3.314635559099118e+000	 8.182408643848877e+000
 4.545795624460711e-001	 3.319014525625462e+000	 8.160485365361868e+000
 4.237361466228101e-001	 3.323093088970389e+000	 8.147965476913324e+000
 3.929539300559796e-001	 3.326873488544744e+000	 8.145141116100557e+000
 3.622367355536746e-001	 3.330358020897184e+000	 8.152266476956182e+000
 3.315883186607344e-001	 3.333549037718901e+000	 8.169557411098772e+000
 3.010123669547862e-001	 3.336448943847143e+000	 8.197191126254442e+000
 6.141253018846009e-001	 3.318655618386451e+000	 8.386935312150447e+000
 5.828035156919487e-001	 3.324299183583244e+000	 8.334152778069221e+000
 5.515231415631204e-001	 3.329631694978822e+000	 8.288070187422008e+000
 5.202883568011357e-001	 3.334655158434851e+000	 8.249187476277371e+000
 4.891032754446326e-001	 3.339371645363804e+000	 8.217968531727594e+000
 4.579719472386412e-001	 3.343783290744768e+000	 8.194840320729963e+000
 4.268983566703400e-001	 3.347892291129476e+000	 8.180192124611500e+000
 3.958864220693765e-001	 3.351700902640793e+000	 8.174374878427743e+000
 3.649399947722636e-001	 3.355211438965803e+000	 8.177700614097239e+000
 3.340628583502946e-001	 3.358426269345630e+000	 8.190442005971548e+000
 3.032587279003322e-001	 3.361347816564072e+000	 8.212832017256798e+000
 6.186743781941089e-001	 3.343238252599141e+000	 8.418603180113882e+000
 5.871205787703006e-001	 3.348923621982736e+000	 8.368762319853003e+000
 5.556084981663528e-001	 3.354295633462829e+000	 8.324466826828227e+000
 5.241423446282706e-001	 3.359356307759324e+000	 8.286279160303051e+000
 4.927262626690523e-001	 3.364107731628491e+000	 8.254725006683437e+000
 4.613643320318393e-001	 3.368552055864074e+000	 8.230292338475108e+000
 4.300605667185297e-001	 3.372691493288563e+000	 8.213430582378450e+000
 3.988189140834350e-001	 3.376528316736843e+000	 8.204549895740684e+000
 3.676432539914868e-001	 3.380064857034423e+000	 8.204020550302699e+000
 3.365373980404323e-001	 3.383303500972360e+000	 8.212172421910758e+000
 3.055050888463698e-001	 3.386246689281000e+000	 8.229294584607340e+000
 6.232234545036314e-001	 3.367820886811832e+000	 8.452357891314172e+000
 5.914376418488513e-001	 3.373548060382227e+000	 8.405280862587375e+000
 5.596938547699376e-001	 3.378959571946838e+000	 8.362606823500894e+000
 5.279963324558803e-001	 3.384057457083798e+000	 8.324961285405484e+000
 4.963492498940388e-001	 3.388843817893178e+000	 8.292932241420406e+000
 4.647567168256657e-001	 3.393320820983380e+000	 8.267069155019398e+000
 4.332227767673793e-001	 3.397490695447649e+000	 8.247882061278560e+000
 4.017514060981554e-001	 3.401355730832893e+000	 8.235840780034366e+000
 3.703465132113441e-001	 3.404918275103043e+000	 8.231374239905643e+000
 3.390119377311472e-001	 3.408180732599090e+000	 8.234869911858182e+000
 3.077514497928993e-001	 3.411145561997928e+000	 8.246673350724835e+000
 6.277725308131688e-001	 3.392403521024523e+000	 8.499303332555241e+000
 5.957547049276010e-001	 3.398172498781718e+000	 8.444038349226627e+000
 5.637792113738745e-001	 3.403623510430845e+000	 8.402794412390756e+000
 5.318503202839647e-001	 3.408758606408273e+000	 8.365512248143814e+000
 4.999722371195919e-001	 3.413579904157864e+000	 8.332842679544594e+000
 4.681491016201202e-001	 3.418089586102685e+000	 8.305397162068672e+000
 4.363849868168886e-001	 3.422289897606736e+000	 8.283746817561209e+000
 4.046838981135373e-001	 3.426183144928944e+000	 8.268421583701604e+000
 3.730497724318355e-001	 3.429771693171662e+000	 8.259909477952823e+000
 3.414864774224393e-001	 3.433057964225819e+000	 8.258655974680071e+000
 3.099978107399203e-001	 3.436044434714856e+000	 8.265063493851162e+000
 6.323216071227208e-001	 3.416986155237214e+000	 8.556426052792745e+000
 6.000717680065499e-001	 3.422796937181211e+000	 8.485361978092518e+000
 5.678645679781637e-001	 3.428287448914853e+000	 8.445331437204207e+000
 5.357043081125240e-001	 3.433459755732746e+000	 8.408208413144115e+000
 5.035952243457116e-001	 3.438315990422550e+000	 8.374707097761984e+000
 4.715414864152032e-001	 3.442858351221992e+000	 8.345501454983705e+000
 4.395471968670580e-001	 3.447089099765823e+000	 8.321224187006765e+000
 4.076163901295808e-001	 3.451010559024994e+000	 8.302465819662624e+000
 3.757530316529610e-001	 3.454625111240281e+000	 8.289773905934279e+000
 3.439610171143090e-001	 3.457935195852550e+000	 8.283652346321158e+000
 3.122441716874331e-001	 3.460943307431786e+000	 8.284560824460503e+000
 6.368706834322875e-001	 3.441568789449906e+000	 8.616999676348005e+000
 6.043888310856980e-001	 3.447421375580705e+000	 8.529576300896629e+000
 5.719499245828054e-001	 3.452951387398861e+000	 8.490517435805455e+000
 5.395582959415579e-001	 3.458160905057221e+000	 8.453324185668061e+000
 5.072182115723980e-001	 3.463052076687238e+000	 8.418774665410719e+000
 4.749338712109144e-001	 3.467627116341299e+000	 8.387605879078224e+000
 4.427094069178871e-001	 3.471888301924911e+000	 8.360512617800453e+000
 4.105488821462863e-001	 3.475837973121045e+000	 8.338146480631691e+000
 3.784562908747207e-001	 3.479478529308901e+000	 8.321115017267610e+000
 3.464355568067561e-001	 3.482812427479280e+000	 8.309980991337575e+000
 3.144905326354376e-001	 3.485842180148714e+000	 8.305261762679884e+000
 2.920269231775196e-001	 3.236853452979430e+000	 8.140978243705517e+000
 2.624374994324514e-001	 3.239386756599464e+000	 8.171505289928666e+000
 2.329253324867810e-001	 3.241642452436632e+000	 8.207243681199444e+000
 2.034937985235925e-001	 3.243623016616949e+000	 8.248085096424122e+000
 1.741462056470113e-001	 3.245330969105182e+000	 8.293893090281577e+000
 1.448857934907249e-001	 3.246768871790385e+000	 8.344503210875578e+000
 1.157157328821542e-001	 3.247939326581152e+000	 8.399723185760983e+000
 8.663912556126877e-002	 3.248844973512246e+000	 8.459333174003740e+000
 5.765900395300546e-002	 3.249488488864120e+000	 8.523086081823433e+000
 2.877833099221386e-002	 3.249872583296864e+000	 8.590707939268697e+000
 0.000000000000000e+000	 3.250000000000000e+000	 8.661898335289543e+000
 2.942732841210988e-001	 3.261752325696358e+000	 8.154263650156670e+000
 2.644562494246240e-001	 3.264305116266987e+000	 8.177258468383487e+000
 2.347170658106003e-001	 3.266578163610304e+000	 8.205002893600996e+000
 2.050591354327509e-001	 3.268573962899443e+000	 8.237448128388966e+000
 1.754857918421560e-001	 3.270295053483519e+000	 8.274515806907797e+000
 1.460002995927624e-001	 3.271744016958421e+000	 8.316098076420996e+000
 1.166058539029716e-001	 3.272923475247428e+000	 8.362057750715010e+000
 8.730558037229109e-002	 3.273836088693259e+000	 8.412228533021031e+000
 5.810253475200383e-002	 3.274484554163141e+000	 8.466415305925219e+000
 2.899970276876601e-002	 3.274871603168394e+000	 8.524394485650872e+000
 0.000000000000000e+000	 3.275000000000000e+000	 8.585914438004124e+000
 2.965196450651695e-001	 3.286651198413287e+000	 8.167999711786051e+000
 2.664749994171937e-001	 3.289223475934511e+000	 8.183885084168402e+000
 2.365087991347322e-001	 3.291513874783975e+000	 8.204071015986745e+000
 2.066244723421478e-001	 3.293524909181937e+000	 8.228568376556916e+000
 1.768253780374754e-001	 3.295259137861856e+000	 8.257357003372325e+000
 1.471148056949209e-001	 3.296719162126458e+000	 8.290385747512637e+000
 1.174959749238660e-001	 3.297907623913702e+000	 8.327572594510311e+000
 8.797203518335663e-002	 3.298827203874272e+000	 8.368804858220880e+000
 5.854606555102134e-002	 3.299480619462162e+000	 8.413939445122718e+000
 2.922107454532293e-002	 3.299870623039924e+000	 8.462803186359164e+000
 0.000000000000000e+000	 3.300000000000000e+000	 8.515193234742105e+000
 2.987660060097320e-001	 3.311550071130214e+000	 8.182278069659784e+000
 2.684937494101602e-001	 3.314141835602035e+000	 8.191441009870855e+000
 2.383005324591768e-001	 3.316449585957646e+000	 8.204468219350044e+000
 2.081898092517832e-001	 3.318475855464431e+000	 8.221430393759563e+000
 1.781649642329693e-001	 3.320223222240192e+000	 8.242365713944585e+000
 1.482293117972002e-001	 3.321694307294495e+000	 8.267279855238469e+000
 1.183860959448375e-001	 3.322891772579979e+000	 8.296146075821710e+000
 8.863848999446536e-002	 3.323818319055284e+000	 8.328905381623136e+000
 5.898959635005797e-002	 3.324476684761183e+000	 8.365466765124332e+000
 2.944244632188460e-002	 3.324869642911456e+000	 8.405707515311933e+000
 0.000000000000000e+000	 3.324999999999999e+000	 8.449473595919866e+000
 3.010123669547862e-001	 3.336448943847143e+000	 8.197191126254442e+000
 2.705124994035238e-001	 3.339060195269558e+000	 8.199983575584943e+000
 2.400922657839339e-001	 3.341385297131319e+000	 8.206216830669431e+000
 2.097551461616571e-001	 3.343426801746927e+000	 8.216021589378858e+000
 1.795045504286379e-001	 3.345187306618529e+000	 8.229494531805074e+000
 1.493438178996003e-001	 3.346669452462530e+000	 8.246698293465370e+000
 1.192762169658860e-001	 3.347875921246255e+000	 8.267661521193821e+000
 8.930494480561731e-002	 3.348809434236298e+000	 8.292379009150100e+000
 5.943312714911376e-002	 3.349472750060204e+000	 8.320811912239970e+000
 2.966381809845104e-002	 3.349868662782986e+000	 8.352888034122005e+000
 0.000000000000000e+000	 3.350000000000000e+000	 8.388502186866647e+000
 3.032587279003322e-001	 3.361347816564072e+000	 8.212832017256798e+000
 2.725312493972843e-001	 3.363978554937082e+000	 8.209571514929460e+000
 2.418839991090036e-001	 3.366321008304990e+000	 8.209341253057197e+000
 2.113204830717695e-001	 3.368377748029420e+000	 8.212332123549349e+000
 1.808441366244811e-001	 3.370151390996865e+000	 8.218699477234154e+000
 1.504583240021213e-001	 3.371644597630567e+000	 8.228563060958406e+000
 1.201663379870117e-001	 3.372860069912531e+000	 8.242007041045570e+000
 8.997139961681246e-002	 3.373800549417310e+000	 8.259080110482469e+000
 5.987665794818865e-002	 3.374468815359224e+000	 8.279795677062717e+000
 2.988518987502226e-002	 3.374867682654517e+000	 8.304132129589330e+000
 0.000000000000000e+000	 3.375000000000000e+000	 8.332033179124212e+000
 3.055050888463698e-001	 3.386246689281000e+000	 8.229294584607340e+000
 2.745499993914417e-001	 3.388896914604605e+000	 8.220264913448411e+000
 2.436757324343858e-001	 3.391256719478660e+000	 8.213867889431002e+000
 2.128858199821205e-001	 3.393328694311915e+000	 8.210354806026967e+000
 1.821837228204990e-001	 3.395115475375202e+000	 8.209939871615191e+000
 1.515728301047632e-001	 3.396619742798604e+000	 8.212800110465658e+000
 1.210564590082144e-001	 3.397844218578805e+000	 8.219075353792713e+000
 9.063785442805079e-002	 3.398791664598323e+000	 8.228868318185347e+000
 6.032018874728268e-002	 3.399464880658245e+000	 8.242244768575924e+000
 3.010656165159823e-002	 3.399866702526048e+000	 8.259233762775104e+000
 0.000000000000000e+000	 3.400000000000000e+000	 8.279827974483052e+000
 3.077514497928993e-001	 3.411145561997928e+000	 8.246673350724835e+000
 2.765687493859962e-001	 3.413815274272130e+000	 8.232125159269925e+000
 2.454674657600808e-001	 3.416192430652333e+000	 8.219825069528131e+000
 2.144511568927100e-001	 3.418279640594410e+000	 8.210084999488068e+000
 1.835233090166915e-001	 3.420079559753539e+000	 8.203178216956900e+000
 1.526873362075258e-001	 3.421594887966641e+000	 8.199339204412183e+000
 1.219465800294942e-001	 3.422828367245081e+000	 8.198763617672555e+000
 9.130430923933233e-002	 3.423782779779336e+000	 8.201608335632526e+000
 6.076371954639585e-002	 3.424460945957266e+000	 8.207991598153617e+000
 3.032793342817898e-002	 3.424865722397578e+000	 8.217993229065172e+000
 0.000000000000000e+000	 3.425000000000000e+000	 8.231654941104688e+000
 3.099978107399203e-001	 3.436044434714856e+000	 8.265063493851162e+000
 2.785874993809475e-001	 3.438733633939654e+000	 8.245214895911692e+000
 2.472591990860882e-001	 3.441128141826003e+000	 8.227242980093498e+000
 2.160164938035379e-001	 3.443230586876903e+000	 8.211520527032070e+000
 1.848628952130586e-001	 3.445043644131875e+000	 8.198380080652914e+000
 1.538018423104094e-001	 3.446570033134677e+000	 8.188113776868079e+000
 1.228367010508511e-001	 3.447812515911356e+000	 8.180973269881037e+000
 9.197076405065707e-002	 3.448773894960349e+000	 8.177169753281435e+000
 6.120725034552816e-002	 3.449457011256288e+000	 8.176874072952137e+000
 3.054930520476448e-002	 3.449864742269110e+000	 8.180216928665518e+000
 0.000000000000000e+000	 3.449999999999999e+000	 8.187289161117075e+000
 3.122441716874331e-001	 3.460943307431786e+000	 8.284560824460503e+000
 2.806062493762958e-001	 3.463651993607177e+000	 8.259597977122898e+000
 2.490509324124082e-001	 3.466063852999674e+000	 8.236153598080511e+000
 2.175818307146044e-001	 3.468181533159398e+000	 8.214661583676920e+000
 1.862024814096004e-001	 3.470007728510212e+000	 8.195513985216271e+000
 1.549163484134138e-001	 3.471545178302714e+000	 8.179060801475186e+000
 1.237268220722850e-001	 3.472796664577632e+000	 8.165609872653244e+000
 9.263721886202500e-002	 3.473765010141362e+000	 8.155426872878712e+000
 6.165078114467958e-002	 3.474453076555308e+000	 8.148735398220200e+000
 3.077067698135475e-002	 3.474863762140640e+000	 8.145717147004456e+000
 0.000000000000000e+000	 3.474999999999999e+000	 8.146512189104803e+000
 3.144905326354376e-001	 3.485842180148714e+000	 8.305261762679884e+000
 2.826249993720412e-001	 3.488570353274702e+000	 8.275339423661471e+000
 2.508426657390410e-001	 3.490999564173347e+000	 8.246590626715165e+000
 2.191471676259094e-001	 3.493132479441893e+000	 8.219510651648047e+000
 1.875420676063168e-001	 3.494971812888549e+000	 8.194551302739567e+000
 1.560308545165391e-001	 3.496520323470751e+000	 8.172120665033678e+000
 1.246169430937960e-001	 3.497780813243908e+000	 8.152582965940670e+000
 9.330367367343619e-002	 3.498756125322376e+000	 8.136258539199881e+000
 6.209431194385016e-002	 3.499449141854330e+000	 8.123423888081140e+000
 3.099204875794980e-002	 3.499862782012172e+000	 8.114311844546027e+000
 0.000000000000000e+000	 3.500000000000000e+000	 8.109111820950087e+000
 3.500000000000000e+000	 0.000000000000000e+000	 1.070528732329277e+001
 3.499862782012172e+000	 3.099204875794991e-002	 1.072691510762074e+001
 3.499449141854330e+000	 6.209431194385037e-002	 1.074334037974940e+001
 3.498756125322376e+000	 9.330367367343595e-002	 1.075444861531903e+001
 3.497780813243909e+000	 1.246169430937959e-001	 1.076017469265416e+001
 3.496520323470751e+000	 1.560308545165391e-001	 1.076050370904280e+001
 3.494971812888549e+000	 1.875420676063169e-001	 1.075547170326012e+001
 3.493132479441893e+000	 2.191471676259096e-001	 1.074516627959022e+001
 3.490999564173347e+000	 2.508426657390408e-001	 1.072972712870090e+001
 3.488570353274701e+000	 2.826249993720411e-001	 1.070934644084922e+001
 3.485842180148715e+000	 3.144905326354376e-001	 1.068426920703585e+001
 3.525000000000000e+000	 0.000000000000000e+000	 1.067951917892624e+001
 3.524861801883700e+000	 3.121342053454733e-002	 1.070173671048111e+001
 3.524445207153342e+000	 6.253784274303052e-002	 1.071880897847615e+001
 3.523747240503367e+000	 9.397012848486869e-002	 1.073065446292756e+001
 3.522764961910145e+000	 1.255070641153455e-001	 1.073724250789698e+001
 3.521495468638728e+000	 1.571453606197247e-001	 1.073859412892321e+001
 3.519935897266799e+000	 1.888816538031206e-001	 1.073478272353453e+001
 3.518083425724269e+000	 2.207125045373338e-001	 1.072593467999978e+001
 3.515935275346863e+000	 2.526343990658297e-001	 1.071222987958377e+001
 3.513488712942027e+000	 2.846437493679848e-001	 1.069390208769941e+001
 3.510741052865397e+000	 3.167368935836880e-001	 1.067123922949501e+001
 3.549999999999999e+000	 0.000000000000000e+000	 1.065529871879407e+001
 3.549860821755223e+000	 3.143479231114475e-002	 1.067826117852519e+001
 3.549441272452333e+000	 6.298137354221063e-002	 1.069610233940859e+001
 3.548738355684315e+000	 9.463658329630142e-002	 1.070877365349968e+001
 3.547749110576305e+000	 1.263971851368950e-001	 1.071627893212237e+001
 3.546470613806581e+000	 1.582598667229104e-001	 1.071867514503283e+001
 3.544899981644873e+000	 1.902212399999243e-001	 1.071607311945747e+001
 3.543034372006405e+000	 2.222778414487581e-001	 1.070863813406671e+001
 3.540870986520065e+000	 2.544261323926187e-001	 1.069659040305747e+001
 3.538407072608955e+000	 2.866624993639286e-001	 1.068020544564979e+001
 3.535639925581588e+000	 3.189832545319382e-001	 1.065981433645412e+001
 3.574999999999999e+000	 0.000000000000000e+000	 1.063267938469403e+001
 3.574859841626743e+000	 3.165616408774217e-002	 1.065652038361440e+001
 3.574437337751306e+000	 6.342490434139073e-002	 1.067523073709335e+001
 3.573729470865220e+000	 9.530303810773416e-002	 1.068879484740106e+001
 3.572733259242388e+000	 1.272873061584445e-001	 1.069725100546262e+001
 3.571445758974317e+000	 1.593743728260961e-001	 1.070069218233013e+001
 3.569864066022773e+000	 1.915608261967280e-001	 1.069926671728030e+001
 3.567985318288304e+000	 2.238431783601823e-001	 1.069317889749993e+001
 3.565806697692955e+000	 2.562178657194076e-001	 1.068268942443766e+001
 3.563325432275486e+000	 2.886812493598724e-001	 1.066811576203758e+001
 3.560538798297286e+000	 3.212296154801885e-001	 1.064983236222825e+001
 3.600000000000000e+000	 0.000000000000000e+000	 1.061171313392956e+001
 3.599858861498257e+000	 3.187753586433959e-002	 1.063654501730042e+001
 3.599433403050260e+000	 6.386843514057089e-002	 1.065620356365682e+001
 3.598720586046081e+000	 9.596949291916691e-002	 1.067070611399080e+001
 3.597717407908394e+000	 1.281774271799941e-001	 1.068012546180083e+001
 3.596420904141930e+000	 1.604888789292818e-001	 1.068459063744575e+001
 3.594828150400499e+000	 1.929004123935317e-001	 1.068428758583280e+001
 3.592936264569962e+000	 2.254085152716066e-001	 1.067945973229996e+001
 3.590742408865532e+000	 2.580095990461965e-001	 1.067040843167454e+001
 3.588243791941620e+000	 2.906999993558161e-001	 1.065749329563186e+001
 3.585437671012494e+000	 3.234759764284390e-001	 1.064113239364149e+001
 3.625000000000000e+000	 0.000000000000000e+000	 1.059245049049910e+001
 3.624857881369765e+000	 3.209890764093702e-002	 1.061836463152541e+001
 3.624429468349195e+000	 6.431196593975101e-002	 1.063902935923342e+001
 3.623711701226900e+000	 9.663594773059965e-002	 1.065449495200102e+001
 3.622701556574323e+000	 1.290675482015436e-001	 1.066486873933119e+001
 3.621396049309424e+000	 1.616033850324674e-001	 1.067031587965925e+001
 3.619792234778049e+000	 1.942399985903353e-001	 1.067106002815834e+001
 3.617887210851384e+000	 2.269738521830308e-001	 1.066738388930046e+001
 3.615678120037797e+000	 2.598013323729855e-001	 1.065962964905519e+001
 3.613162151607358e+000	 2.927187493517598e-001	 1.064819928175657e+001
 3.610336543727210e+000	 3.257223373766893e-001	 1.063355472683695e+001
 3.650000000000000e+000	 0.000000000000000e+000	 1.057494059418201e+001
 3.649856901241271e+000	 3.232027941753444e-002	 1.060200767764978e+001
 3.649425533648110e+000	 6.475549673893113e-002	 1.062371584114345e+001
 3.648702816407675e+000	 9.730240254203239e-002	 1.064014830907876e+001
 3.647685705240175e+000	 1.299576692230932e-001	 1.065144699068545e+001
 3.646371194476795e+000	 1.627178911356531e-001	 1.065781325183587e+001
 3.644756319155425e+000	 1.955795847871390e-001	 1.065950857349295e+001
 3.642838157132565e+000	 2.285391890944550e-001	 1.065685509142744e+001
 3.640613831209749e+000	 2.615930656997744e-001	 1.065023601198648e+001
 3.638080511272699e+000	 2.947374993477036e-001	 1.064009589884680e+001
 3.635235416441434e+000	 3.279686983249396e-001	 1.062694082586172e+001
 3.675000000000000e+000	 0.000000000000000e+000	 1.055923124762079e+001
 3.674855921112770e+000	 3.254165119413186e-002	 1.058750154388698e+001
 3.674421598947007e+000	 6.519902753811127e-002	 1.061026993187993e+001
 3.673693931588407e+000	 9.796885735346513e-002	 1.062765260053055e+001
 3.672669853905949e+000	 1.308477902446427e-001	 1.063982609264578e+001
 3.671346339644046e+000	 1.638323972388388e-001	 1.064702807132500e+001
 3.669720403532627e+000	 1.969191709839428e-001	 1.064955796957163e+001
 3.667789103413511e+000	 2.301045260058793e-001	 1.064777751764173e+001
 3.665549542381389e+000	 2.633847990265633e-001	 1.064211114280736e+001
 3.662998870937642e+000	 2.967562493436474e-001	 1.063304623637032e+001
 3.660134289155166e+000	 3.302150592731899e-001	 1.062113328294223e+001
 3.699999999999999e+000	 0.000000000000000e+000	 1.054536896149462e+001
 3.699854940984265e+000	 3.276302297072929e-002	 1.057487259122054e+001
 3.699417664245885e+000	 6.564255833729141e-002	 1.059869778596087e+001
 3.698685046769097e+000	 9.863531216489786e-002	 1.061699372730674e+001
 3.697654002571647e+000	 1.317379112661923e-001	 1.062997165546414e+001
 3.696321484811177e+000	 1.649469033420245e-001	 1.063790563082207e+001
 3.694684487909653e+000	 1.982587571807465e-001	 1.064113317524665e+001
 3.692740049694216e+000	 2.316698629173035e-001	 1.064005578753228e+001
 3.690485253552716e+000	 2.651765323533523e-001	 1.063513932758166e+001
 3.687917230602189e+000	 2.987749993395912e-001	 1.062691426404930e+001
 3.685033161868407e+000	 3.324614202214402e-001	 1.061597578037017e+001
 3.724999999999999e+000	 0.000000000000000e+000	 1.053339899787384e+001
 3.724853960855755e+000	 3.298439474732670e-002	 1.056414618787493e+001
 3.724413729544743e+000	 6.608608913647153e-002	 1.058900481570024e+001
 3.723676161949742e+000	 9.930176697633060e-002	 1.060815709326182e+001
 3.722638151237268e+000	 1.326280322877418e-001	 1.062184903180614e+001
 3.721296629978185e+000	 1.660614094452101e-001	 1.063039119919600e+001
 3.719648572286506e+000	 1.995983433775501e-001	 1.063415935340306e+001
 3.717690995974683e+000	 2.332351998287278e-001	 1.063359494653014e+001
 3.715420964723730e+000	 2.669682656801413e-001	 1.062920549382551e+001
 3.712835590266338e+000	 3.007937493355349e-001	 1.062156480232166e+001
 3.709932034581156e+000	 3.347077811696906e-001	 1.061131305392302e+001
 3.750000000000000e+000	 0.000000000000000e+000	 1.052336541184029e+001
 3.749852980727241e+000	 3.320576652392414e-002	 1.055534674240759e+001
 3.749409794843583e+000	 6.652961993565168e-002	 1.058119571594814e+001
 3.748667277130346e+000	 9.996822178776336e-002	 1.060112762172425e+001
 3.747622299902811e+000	 1.335181533092914e-001	 1.061542332533735e+001
 3.746271775145075e+000	 1.671759155483958e-001	 1.062443002228330e+001
 3.744612656663185e+000	 2.009379295743539e-001	 1.062856186415764e+001
 3.742641942254912e+000	 2.348005367401521e-001	 1.062830045171362e+001
 3.740356675894433e+000	 2.687599990069302e-001	 1.062419518912552e+001
 3.737753949930092e+000	 3.028124993314787e-001	 1.061686349398389e+001
 3.734830907293414e+000	 3.369541421179410e-001	 1.060699085774789e+001
 3.485842180148715e+000	 3.144905326354376e-001	 1.068426920703585e+001
 3.482812427479281e+000	 3.464355568067562e-001	 1.070169014391234e+001
 3.479478529308901e+000	 3.784562908747209e-001	 1.071651819032773e+001
 3.475837973121044e+000	 4.105488821462860e-001	 1.072907725540693e+001
 3.471888301924910e+000	 4.427094069178869e-001	 1.073974130629471e+001
 3.467627116341299e+000	 4.749338712109144e-001	 1.074893406670088e+001
 3.463052076687238e+000	 5.072182115723981e-001	 1.075712858484027e+001
 3.458160905057221e+000	 5.395582959415582e-001	 1.076484666799866e+001
 3.452951387398861e+000	 5.719499245828053e-001	 1.077265818125022e+001
 3.447421375580704e+000	 6.043888310856977e-001	 1.078118020816621e+001
 3.441568789449906e+000	 6.368706834322875e-001	 1.073833487075580e+001
 3.510741052865397e+000	 3.167368935836880e-001	 1.067123922949501e+001
 3.507689659105719e+000	 3.489100964994941e-001	 1.068905372779595e+001
 3.504331947377194e+000	 3.811595500968071e-001	 1.070452081281412e+001
 3.500665387216742e+000	 4.134813741633439e-001	 1.071801511332364e+001
 3.496687504083628e+000	 4.458716169690846e-001	 1.072996277770848e+001
 3.492395881460230e+000	 4.783262560070001e-001	 1.074084112974408e+001
 3.487788162951552e+000	 5.108411987994553e-001	 1.075117818966970e+001
 3.482862054381337e+000	 5.434122837709491e-001	 1.076155205774549e+001
 3.477615325882536e+000	 5.760352811877795e-001	 1.077259015779379e+001
 3.472045813979897e+000	 6.087058941651440e-001	 1.078496833854801e+001
 3.466151423662342e+000	 6.414197597421076e-001	 1.072714827031037e+001
 3.535639925581588e+000	 3.189832545319382e-001	 1.065981433645412e+001
 3.532566890731576e+000	 3.513846361922370e-001	 1.067801382928999e+001
 3.529185365444834e+000	 3.838628093189126e-001	 1.069408271877836e+001
 3.525492801311734e+000	 4.164138661804452e-001	 1.070844664553689e+001
 3.521486706241609e+000	 4.490338270203597e-001	 1.072158426648178e+001
 3.517164646578412e+000	 4.817186408032074e-001	 1.073402686789311e+001
 3.512524249215127e+000	 5.144641860266879e-001	 1.074635783960567e+001
 3.507563203704741e+000	 5.472662716005793e-001	 1.075921200748250e+001
 3.502279264365546e+000	 5.801206377930674e-001	 1.077327482164235e+001
 3.496670252378495e+000	 6.130229572449882e-001	 1.078928139824640e+001
 3.490734057874272e+000	 6.459688360524207e-001	 1.071712475426169e+001
 3.560538798297286e+000	 3.212296154801885e-001	 1.064983236222825e+001
 3.557444122356851e+000	 3.538591758849846e-001	 1.066838345712147e+001
 3.554038783511820e+000	 3.865660685410373e-001	 1.068499211179145e+001
 3.550320215406021e+000	 4.193463581975898e-001	 1.070013528494892e+001
 3.546285908398853e+000	 4.521960370717121e-001	 1.071434448368822e+001
 3.541933411695844e+000	 4.851110255995358e-001	 1.072820533387450e+001
 3.537260335477958e+000	 5.180871732540956e-001	 1.074235700743105e+001
 3.532264353027430e+000	 5.511202594304486e-001	 1.075749150364461e+001
 3.526943202847890e+000	 5.842059943986687e-001	 1.077435278193060e+001
 3.521294690776494e+000	 6.173400203252302e-001	 1.079373574384464e+001
 3.515316692085695e+000	 6.505179123632263e-001	 1.070818740505915e+001
 3.585437671012494e+000	 3.234759764284390e-001	 1.064113239364149e+001
 3.582321353981543e+000	 3.563337155777368e-001	 1.065997720266442e+001
 3.578892201578153e+000	 3.892693277631812e-001	 1.067703910210148e+001
 3.575147629499604e+000	 4.222788502147779e-001	 1.069284668887203e+001
 3.571085110555359e+000	 4.553582471231420e-001	 1.070798467605846e+001
 3.566702176812527e+000	 4.885034103959857e-001	 1.072309342064562e+001
 3.561996421740048e+000	 5.217101604816786e-001	 1.073886830387329e+001
 3.556965502349404e+000	 5.549742472605573e-001	 1.075605896127926e+001
 3.551607141329567e+000	 5.882913510045832e-001	 1.077546835984397e+001
 3.545919129173896e+000	 6.216570834058701e-001	 1.079795172000283e+001
 3.539899326296611e+000	 6.550669886745246e-001	 1.070026356166182e+001
 3.610336543727210e+000	 3.257223373766893e-001	 1.063355472683695e+001
 3.607198585605653e+000	 3.588082552704940e-001	 1.065261118536593e+001
 3.603745619643832e+000	 3.919725869853444e-001	 1.067001564088621e+001
 3.599975043592481e+000	 4.252113422320094e-001	 1.068634866232471e+001
 3.595884312711128e+000	 4.585204571746492e-001	 1.070224853854391e+001
 3.591470941928460e+000	 4.918957951925567e-001	 1.071841076345572e+001
 3.586732508001396e+000	 5.253331477094367e-001	 1.073558736939926e+001
 3.581666651670666e+000	 5.588282350909053e-001	 1.075458610581829e+001
 3.576271079810581e+000	 5.923767076108114e-001	 1.077626946061695e+001
 3.570543567570702e+000	 6.259741464869079e-001	 1.079765900472101e+001
 3.564481960507018e+000	 6.596160649863155e-001	 1.069328467276225e+001
 3.635235416441434e+000	 3.279686983249396e-001	 1.062694082586172e+001
 3.632075817229181e+000	 3.612827949632560e-001	 1.064610300041482e+001
 3.628599037708858e+000	 3.946758462075267e-001	 1.066371545720753e+001
 3.624802457684653e+000	 4.281438342492843e-001	 1.068041108448012e+001
 3.620683514866161e+000	 4.616826672262339e-001	 1.069688213047351e+001
 3.616239707043643e+000	 4.952881799892492e-001	 1.071387964593178e+001
 3.611468594262003e+000	 5.289561349373702e-001	 1.073221277045710e+001
 3.606367800991213e+000	 5.626822229214923e-001	 1.075274785970874e+001
 3.600935018290927e+000	 5.964620642173529e-001	 1.077640745079162e+001
 3.595168005966912e+000	 6.302912095683437e-001	 1.078384826122815e+001
 3.589064594716919e+000	 6.641651412985992e-001	 1.068718615604214e+001
 3.660134289155166e+000	 3.302150592731899e-001	 1.062113328294223e+001
 3.656953048852127e+000	 3.637573346560227e-001	 1.064027166854633e+001
 3.653452455773231e+000	 3.973791054297284e-001	 1.065793399753916e+001
 3.649629871776120e+000	 4.310763262666025e-001	 1.067480583811657e+001
 3.645482717020455e+000	 4.648448772778959e-001	 1.069163379513269e+001
 3.641008472158077e+000	 4.986805647860629e-001	 1.070922490999770e+001
 3.636204680521868e+000	 5.325791221654790e-001	 1.072844589995309e+001
 3.631068950311046e+000	 5.665362107523188e-001	 1.075022223367070e+001
 3.625598956770607e+000	 6.005474208242078e-001	 1.077553704048618e+001
 3.619792444362524e+000	 6.346082726501773e-001	 1.077027386904216e+001
 3.613647228926312e+000	 6.687142176113755e-001	 1.068190726317274e+001
 3.685033161868407e+000	 3.324614202214402e-001	 1.061597578037017e+001
 3.681830280474491e+000	 3.662318743487942e-001	 1.063493758788182e+001
 3.678305873836951e+000	 4.000823646519492e-001	 1.065246836774603e+001
 3.674457285866882e+000	 4.340088182839642e-001	 1.066930674192821e+001
 3.670281919174012e+000	 4.680070873296354e-001	 1.068625408260277e+001
 3.665777237271761e+000	 5.020729495829980e-001	 1.070417386944533e+001
 3.660940766780990e+000	 5.362021093937627e-001	 1.072399088176313e+001
 3.655770099630165e+000	 5.703901985833844e-001	 1.074669022236386e+001
 3.650262895249622e+000	 6.046327774313762e-001	 1.077331617043619e+001
 3.644416882757539e+000	 6.389253357324086e-001	 1.075688373094969e+001
 3.638229863135198e+000	 6.732632939246445e-001	 1.067739095028821e+001
 3.709932034581156e+000	 3.347077811696906e-001	 1.061131305392302e+001
 3.706707512096273e+000	 3.687064140415705e-001	 1.062992248770772e+001
 3.703159291900017e+000	 4.027856238741893e-001	 1.064711727740000e+001
 3.699284699956938e+000	 4.369413103013691e-001	 1.066368948556132e+001
 3.695081121326833e+000	 4.711692973814522e-001	 1.068049567570734e+001
 3.690546002384696e+000	 5.054653343800544e-001	 1.069845622698582e+001
 3.685676853039371e+000	 5.398250966222219e-001	 1.071855447908957e+001
 3.680471248948569e+000	 5.742441864146891e-001	 1.074183570425529e+001
 3.674926833727972e+000	 6.087181340388581e-001	 1.076940590358472e+001
 3.669041321151958e+000	 6.432423988150380e-001	 1.074362910411039e+001
 3.662812497343578e+000	 6.778123702384060e-001	 1.067358375367470e+001
 3.734830907293414e+000	 3.369541421179410e-001	 1.060699085774789e+001
 3.731584743717474e+000	 3.711809537343518e-001	 1.062504938410342e+001
 3.728012709962431e+000	 4.054888830964487e-001	 1.064168098632296e+001
 3.724112114046291e+000	 4.398738023188177e-001	 1.065773156724935e+001
 3.719880323478916e+000	 4.743315074333465e-001	 1.067411331892081e+001
 3.715314767496883e+000	 5.088577191772322e-001	 1.069180399461908e+001
 3.710412939297010e+000	 5.434480838508564e-001	 1.071184600648352e+001
 3.705172398266262e+000	 5.780981742462336e-001	 1.073534534549246e+001
 3.699590772205656e+000	 6.128034906466535e-001	 1.076347032100863e+001
 3.693665759545779e+000	 6.475594618980652e-001	 1.073046448824467e+001
 3.687395131551449e+000	 6.823614465526605e-001	 1.067043567043202e+001
 3.441568789449906e+000	 6.368706834322875e-001	 1.073833487075580e+001
 3.435391618878011e+000	 6.693910851321568e-001	 1.076155827135603e+001
 3.428887925790747e+000	 7.019455764256674e-001	 1.078322354222303e+001
 3.422055846180587e+000	 7.345296355551677e-001	 1.080343514600603e+001
 3.414893592100732e+000	 7.671386801043790e-001	 1.082230871521270e+001
 3.407399453636346e+000	 7.997680684061285e-001	 1.083997155564774e+001
 3.399571800851111e+000	 8.324131010182234e-001	 1.085656314063322e+001
 3.391409085706569e+000	 8.650690222672625e-001	 1.087223559421024e+001
 3.382909843951724e+000	 8.977310218600828e-001	 1.088715416148755e+001
 3.374072696980329e+000	 9.303942365624409e-001	 1.090149766427390e+001
 3.364896353653301e+000	 9.630537519444204e-001	 1.091545894010732e+001
 3.466151423662342e+000	 6.414197597421076e-001	 1.072714827031037e+001
 3.459930130443355e+000	 6.741724500248499e-001	 1.075068319953614e+001
 3.453379982405272e+000	 7.069594733984075e-001	 1.077260867951416e+001
 3.446499102226226e+000	 7.397762758068601e-001	 1.079301555177656e+001
 3.439285689188370e+000	 7.726182421023854e-001	 1.081200594610694e+001
 3.431738021163191e+000	 8.054806974630454e-001	 1.082969380956889e+001
 3.423854456571968e+000	 8.383589088792042e-001	 1.084620542655043e+001
 3.415633436318824e+000	 8.712480867083656e-001	 1.086167992797065e+001
 3.407073485693827e+000	 9.041433862981300e-001	 1.087626978775878e+001
 3.398173216243544e+000	 9.370399096768673e-001	 1.089014130468569e+001
 3.388931327606469e+000	 9.699327073115912e-001	 1.090347506760231e+001
 3.490734057874272e+000	 6.459688360524207e-001	 1.071712475426169e+001
 3.484468642008293e+000	 6.789538149181262e-001	 1.074087024899893e+001
 3.477872039019489e+000	 7.119733703718012e-001	 1.076295110681100e+001
 3.470942358271659e+000	 7.450229160592580e-001	 1.078344445824058e+001
 3.463677786275902e+000	 7.780978041011289e-001	 1.080243884578364e+001
 3.456076588690030e+000	 8.111933265207119e-001	 1.082003477883473e+001
 3.448137112292918e+000	 8.443047167409267e-001	 1.083634527988026e+001
 3.439857786931271e+000	 8.774271511501820e-001	 1.085149642003242e+001
 3.431237127436225e+000	 9.105557507368419e-001	 1.086562784195788e+001
 3.422273735507154e+000	 9.436855827918899e-001	 1.087889326822310e+001
 3.412966301560131e+000	 9.768116626792683e-001	 1.089146099305158e+001
 3.515316692085695e+000	 6.505179123632263e-001	 1.070818740505915e+001
 3.509007153572822e+000	 6.837351798119854e-001	 1.073205111973740e+001
 3.502364095633400e+000	 7.169872673458494e-001	 1.075419108299114e+001
 3.495385614316884e+000	 7.502695563123617e-001	 1.077467061969566e+001
 3.488069883363327e+000	 7.835773661006105e-001	 1.079356459569319e+001
 3.480415156216862e+000	 8.169059555791279e-001	 1.081095999898653e+001
 3.472419768013961e+000	 8.502505246033906e-001	 1.082695651241141e+001
 3.464082137543915e+000	 8.836062155927117e-001	 1.084166707582543e+001
 3.455400769178915e+000	 9.169681151762189e-001	 1.085521843581057e+001
 3.446374254771156e+000	 9.503312559075078e-001	 1.086775168085293e+001
 3.437001275514286e+000	 9.836906180474516e-001	 1.087942275993373e+001
 3.539899326296611e+000	 6.550669886745246e-001	 1.070026356166182e+001
 3.533545665136944e+000	 6.885165447064279e-001	 1.072416162353365e+001
 3.526856152247003e+000	 7.220011643205517e-001	 1.074627283400032e+001
 3.519828870361901e+000	 7.555161965661709e-001	 1.076664661284718e+001
 3.512461980450645e+000	 7.890569281008292e-001	 1.078534405515531e+001
 3.504753723743688e+000	 8.226185846382935e-001	 1.080243853908046e+001
 3.496702423735099e+000	 8.561963324665961e-001	 1.081801632533998e+001
 3.488306488156749e+000	 8.897852800359548e-001	 1.083217714638967e+001
 3.479564410921900e+000	 9.233804796162607e-001	 1.084503478323010e+001
 3.470474774035552e+000	 9.569769290237220e-001	 1.085671762774600e+001
 3.461036249468935e+000	 9.905695734161415e-001	 1.086736922845218e+001
 3.564481960507018e+000	 6.596160649863155e-001	 1.069328467276225e+001
 3.558084176700659e+000	 6.932979096014533e-001	 1.071714154217287e+001
 3.551348208860298e+000	 7.270150612959079e-001	 1.073914441605700e+001
 3.544272126406713e+000	 7.607628368206859e-001	 1.075932870500124e+001
 3.536854077537856e+000	 7.945364901017854e-001	 1.077774163453604e+001
 3.529092291270506e+000	 8.283312136982085e-001	 1.079444287984231e+001
 3.520985079456329e+000	 8.621421403305435e-001	 1.080950519239332e+001
 3.512530838769779e+000	 8.959643444799115e-001	 1.082301501645783e+001
 3.503728052665179e+000	 9.297928440569673e-001	 1.083507309334514e+001
 3.494575293300343e+000	 9.636226021405324e-001	 1.084579505123550e+001
 3.485071223424078e+000	 9.974485287853374e-001	 1.085531197840667e+001
 3.589064594716919e+000	 6.641651412985992e-001	 1.068718615604214e+001
 3.582622688263967e+000	 6.980792744970616e-001	 1.071093449148450e+001
 3.575840265473288e+000	 7.320289582719184e-001	 1.073275758447876e+001
 3.568715382451316e+000	 7.660094770759063e-001	 1.075267672767414e+001
 3.561246174624959e+000	 8.000160521034790e-001	 1.077072517363650e+001
 3.553430858797317e+000	 8.340438427588731e-001	 1.078694879682941e+001
 3.545267735177652e+000	 8.680879481952318e-001	 1.080140674775701e+001
 3.536755189383001e+000	 9.021434089245812e-001	 1.081417209713683e+001
 3.527891694408750e+000	 9.362052084983389e-001	 1.082533246792402e+001
 3.518675812565527e+000	 9.702682752579382e-001	 1.083499065296904e+001
 3.509106197379714e+000	 1.004327484155040e+000	 1.084326521605648e+001
 3.613647228926312e+000	 6.687142176113755e-001	 1.068190726317274e+001
 3.607161199826867e+000	 7.028606393932529e-001	 1.070548779093240e+001
 3.600332322085968e+000	 7.370428552485825e-001	 1.072706766786234e+001
 3.593158638495712e+000	 7.712561173318322e-001	 1.074665395536078e+001
 3.585638271711956e+000	 8.054956141059104e-001	 1.076426582504550e+001
 3.577769426324122e+000	 8.397564718202876e-001	 1.077993524836162e+001
 3.569550390899070e+000	 8.740337560606620e-001	 1.079370767857635e+001
 3.560979539996417e+000	 9.083224733699646e-001	 1.080564272297011e+001
 3.552055336152617e+000	 9.426175729403754e-001	 1.081581480298560e+001
 3.542776331831104e+000	 9.769139483759401e-001	 1.082431380005441e+001
 3.533141171335844e+000	 1.011206439525248e+000	 1.083124568478499e+001
 3.638229863135198e+000	 6.732632939246445e-001	 1.067739095028821e+001
 3.631699711389360e+000	 7.076420042900274e-001	 1.070075233849225e+001
 3.624824378698343e+000	 7.420567522259013e-001	 1.072203344736505e+001
 3.617601894539901e+000	 7.765027575884640e-001	 1.074122698921786e+001
 3.610030368798846e+000	 8.109751761090793e-001	 1.075833794222098e+001
 3.602107993850920e+000	 8.454691008824511e-001	 1.077338426799550e+001
 3.593833046620580e+000	 8.799795639268339e-001	 1.078639762181578e+001
 3.585203890610026e+000	 9.145015378160613e-001	 1.079742405317279e+001
 3.576218977896775e+000	 9.490299373830767e-001	 1.080652469439888e+001
 3.566876851097076e+000	 9.835596214945378e-001	 1.081377643501022e+001
 3.557176145292468e+000	 1.018085394895963e+000	 1.081927257938609e+001
 3.662812497343578e+000	 6.778123702384060e-001	 1.067358375367470e+001
 3.656238222951446e+000	 7.124233691873849e-001	 1.069668249056711e+001
 3.649316435310409e+000	 7.470706492038739e-001	 1.071761704084678e+001
 3.642045150583884e+000	 7.817493978458017e-001	 1.073636564543084e+001
 3.634422465885629e+000	 8.164547381129856e-001	 1.075291897207835e+001
 3.626446561377711e+000	 8.511817299453643e-001	 1.076728086132850e+001
 3.618115702342184e+000	 8.859253717937471e-001	 1.077946906527165e+001
 3.609428241223830e+000	 9.206806022628714e-001	 1.078951597684401e+001
 3.600382619641227e+000	 9.554423018264429e-001	 1.079746934728400e+001
 3.590977370363441e+000	 9.902052946137316e-001	 1.080339298934274e+001
 3.581211119249587e+000	 1.024964350267184e+000	 1.080736746380202e+001
 3.687395131551449e+000	 6.823614465526605e-001	 1.067043567043202e+001
 3.680776734513125e+000	 7.172047340853256e-001	 1.069323594670655e+001
 3.673808491922170e+000	 7.520845461825008e-001	 1.071378379164677e+001
 3.666488406627660e+000	 7.869960381038449e-001	 1.073204284804638e+001
 3.658814562972306e+000	 8.219343001176298e-001	 1.074798935187523e+001
 3.650785128904496e+000	 8.568943590090273e-001	 1.076161290693089e+001
 3.642398358063882e+000	 8.918711796614021e-001	 1.077291725254455e+001
 3.633652591837826e+000	 9.268596667103950e-001	 1.078192102197088e+001
 3.624546261385975e+000	 9.618546662704742e-001	 1.078865848903724e+001
 3.615077889630201e+000	 9.968509677335213e-001	 1.079318030057963e+001
 3.605246093207198e+000	 1.031843305638912e+000	 1.079555419215180e+001
 3.364896353653301e+000	 9.630537519444204e-001	 1.091545894010732e+001
 3.355379612083005e+000	 9.957046041917383e-001	 1.093071459565336e+001
 3.345521361378934e+000	 1.028341781982668e+000	 1.094603122375054e+001
 3.335320583350721e+000	 1.060960228429860e+000	 1.096166161675704e+001
 3.324776354164621e+000	 1.093554843085373e+000	 1.097787436786173e+001
 3.313887845952988e+000	 1.126120484008404e+000	 1.099495418633190e+001
 3.302654328373525e+000	 1.158651969894472e+000	 1.101320218418666e+001
 3.291075170115785e+000	 1.191144082264780e+000	 1.103293613243422e+001
 3.279149840352444e+000	 1.223591567714391e+000	 1.105449068504279e+001
 3.266877910132902e+000	 1.255989140217728e+000	 1.107129703213636e+001
 3.254259053716807e+000	 1.288331483489811e+000	 1.105952956377990e+001
 3.388931327606469e+000	 9.699327073115912e-001	 1.090347506760231e+001
 3.379346609310144e+000	 1.002816779932178e+000	 1.091854598136424e+001
 3.369417942529220e+000	 1.035687080421720e+000	 1.093368786980586e+001
 3.359144301800547e+000	 1.068538515772246e+000	 1.094915412729516e+001
 3.348524756691562e+000	 1.101365949104042e+000	 1.096521432274123e+001
 3.337558473421284e+000	 1.134164201748157e+000	 1.098215452798539e+001
 3.326244716430685e+000	 1.166928055390793e+000	 1.100027761704771e+001
 3.314582849899959e+000	 1.199652254278306e+000	 1.101990353431710e+001
 3.302572339210160e+000	 1.232331507481435e+000	 1.104136952980486e+001
 3.290212752346754e+000	 1.264960491217280e+000	 1.104837212231783e+001
 3.277503761242674e+000	 1.297533851227396e+000	 1.103758752251028e+001
 3.412966301560131e+000	 9.768116626792683e-001	 1.089146099305158e+001
 3.403313606537867e+000	 1.009928955673029e+000	 1.090646375885463e+001
 3.393314523680163e+000	 1.043032378861098e+000	 1.092154106193210e+001
 3.382968020251078e+000	 1.076116803114882e+000	 1.093694674910929e+001
 3.372273159219241e+000	 1.109177055122894e+000	 1.095295122367166e+001
 3.361229100890329e+000	 1.142207919488038e+000	 1.096984178727523e+001
 3.349835104488588e+000	 1.175204140887197e+000	 1.098792295213373e+001
 3.338090529684847e+000	 1.208160426291878e+000	 1.100751672151935e+001
 3.325994838068540e+000	 1.241071447248501e+000	 1.102896283664625e+001
 3.313547594561200e+000	 1.273931842216838e+000	 1.102691791062471e+001
 3.300748468769045e+000	 1.306736218964982e+000	 1.101714074663622e+001
 3.437001275514286e+000	 9.836906180474516e-001	 1.087942275993373e+001
 3.427280603766174e+000	 1.017041131414290e+000	 1.089447634206431e+001
 3.417211104831760e+000	 1.050377677300802e+000	 1.090960151949150e+001
 3.406791738702316e+000	 1.083695090457767e+000	 1.092505244007534e+001
 3.396021561747658e+000	 1.116988161141931e+000	 1.094110019832475e+001
 3.384899728360125e+000	 1.150251637228048e+000	 1.095803319120672e+001
 3.373425492547229e+000	 1.183480226383683e+000	 1.097615744364485e+001
 3.361598209470447e+000	 1.216668598305496e+000	 1.099579690169201e+001
 3.349417336927582e+000	 1.249811387015586e+000	 1.101729369139417e+001
 3.336882436776240e+000	 1.282903193216400e+000	 1.100689258167070e+001
 3.323993176295922e+000	 1.315938586702568e+000	 1.099814813455229e+001
 3.461036249468935e+000	 9.905695734161415e-001	 1.086736922845218e+001
 3.451247600995065e+000	 1.024153307155963e+000	 1.088259497101782e+001
 3.441107685984012e+000	 1.057722975740830e+000	 1.089788279679083e+001
 3.430615457154259e+000	 1.091273377800902e+000	 1.091348700136556e+001
 3.419769964276813e+000	 1.124799267161153e+000	 1.092967922550524e+001
 3.408570355830670e+000	 1.158295354968185e+000	 1.094674882523255e+001
 3.397015880606614e+000	 1.191756311880251e+000	 1.096500321101391e+001
 3.385105889256760e+000	 1.225176770319161e+000	 1.098476815396836e+001
 3.372839835787290e+000	 1.258551326782692e+000	 1.099789153752946e+001
 3.360217278991877e+000	 1.291874544215968e+000	 1.098825720241801e+001
 3.347237883823303e+000	 1.325140954440153e+000	 1.098057147160667e+001
 3.485071223424078e+000	 9.974485287853374e-001	 1.085531197840667e+001
 3.475214598224541e+000	 1.031265482898046e+000	 1.087083361437330e+001
 3.465004267136918e+000	 1.065068274181185e+000	 1.088640118532462e+001
 3.454439175606909e+000	 1.098851665144287e+000	 1.090226897940391e+001
 3.443518366806704e+000	 1.132610373180557e+000	 1.091870903683603e+001
 3.432240983301964e+000	 1.166339072708451e+000	 1.093601153468582e+001
 3.420606268666739e+000	 1.200032397376902e+000	 1.095448514010542e+001
 3.408613569043786e+000	 1.233684942332872e+000	 1.097445732994722e+001
 3.396262334647661e+000	 1.267291266549819e+000	 1.097961901880978e+001
 3.383552121208107e+000	 1.300845895215541e+000	 1.097097562278617e+001
 3.370482591351189e+000	 1.334343322177739e+000	 1.096437533055096e+001
 3.509106197379714e+000	 1.004327484155040e+000	 1.084326521605648e+001
 3.499181595454600e+000	 1.038377658640541e+000	 1.085920887597612e+001
 3.488900848290481e+000	 1.072413572621866e+000	 1.087517562003592e+001
 3.478262894060265e+000	 1.106429952487922e+000	 1.089141957185055e+001
 3.467266769337335e+000	 1.140421479200146e+000	 1.090821302248361e+001
 3.455911610774009e+000	 1.174382790448845e+000	 1.092584683026348e+001
 3.444196656727606e+000	 1.208308482873634e+000	 1.094463078847462e+001
 3.432121248831523e+000	 1.242193114346629e+000	 1.096489395874556e+001
 3.419684833508697e+000	 1.276031206316967e+000	 1.096263551616245e+001
 3.406886963424933e+000	 1.309817246215119e+000	 1.095501438034515e+001
 3.393727298879581e+000	 1.343545689915324e+000	 1.094952697608121e+001
 3.533141171335844e+000	 1.011206439525248e+000	 1.083124568478499e+001
 3.523148592685243e+000	 1.045489834383448e+000	 1.084773990522667e+001
 3.512797429444697e+000	 1.079758871062871e+000	 1.086422758940303e+001
 3.502086612514328e+000	 1.114008239831808e+000	 1.088096253742371e+001
 3.491015171868703e+000	 1.148232585219919e+000	 1.089821714073128e+001
 3.479582238246801e+000	 1.182426508189367e+000	 1.091628279736769e+001
 3.467787044789213e+000	 1.216584568370449e+000	 1.093547029449372e+001
 3.455628928619976e+000	 1.250701286360433e+000	 1.095547312155386e+001
 3.443107332370397e+000	 1.284771146084134e+000	 1.094690940139232e+001
 3.430221805642353e+000	 1.318788597214702e+000	 1.094034260889878e+001
 3.416972006408479e+000	 1.352748057652910e+000	 1.093599627327517e+001
 3.557176145292468e+000	 1.018085394895963e+000	 1.081927257938609e+001
 3.547115589916470e+000	 1.052602010126765e+000	 1.083644831108184e+001
 3.536694010599569e+000	 1.087104169504203e+000	 1.085358104917142e+001
 3.525910330969095e+000	 1.121586527175942e+000	 1.087092410937748e+001
 3.514763574400809e+000	 1.156043691239876e+000	 1.088874983121860e+001
 3.503252865720343e+000	 1.190470225930017e+000	 1.090735000912263e+001
 3.491377432851563e+000	 1.224860653867346e+000	 1.092703629016217e+001
 3.479136608409139e+000	 1.259209458374282e+000	 1.093996838744302e+001
 3.466529831232760e+000	 1.293511085851323e+000	 1.093241155033757e+001
 3.453556647860368e+000	 1.327759948214290e+000	 1.092693195077407e+001
 3.440216713937880e+000	 1.361950425390495e+000	 1.092375559974157e+001
 3.581211119249587e+000	 1.024964350267184e+000	 1.080736746380202e+001
 3.571082587148281e+000	 1.059714185870493e+000	 1.082535807951959e+001
 3.560590591755095e+000	 1.094449467945860e+000	 1.084326233955956e+001
 3.549734049424571e+000	 1.129164814520327e+000	 1.086133291246376e+001
 3.538511976933652e+000	 1.163854797260017e+000	 1.087984193167428e+001
 3.526923493194636e+000	 1.198513943670795e+000	 1.089908144289379e+001
 3.514967820914652e+000	 1.233136739364325e+000	 1.091936381742780e+001
 3.502644288199015e+000	 1.267717630388179e+000	 1.092562766872255e+001
 3.489952330095787e+000	 1.302251025618533e+000	 1.091911525884161e+001
 3.476891490078978e+000	 1.336731299213884e+000	 1.091475647264267e+001
 3.463461421467788e+000	 1.371152793128081e+000	 1.091277976130695e+001
 3.605246093207198e+000	 1.031843305638912e+000	 1.079555419215180e+001
 3.595049584380677e+000	 1.066826361614633e+000	 1.081449549430495e+001
 3.584487172911277e+000	 1.101794766387843e+000	 1.083330010577645e+001
 3.573557767880753e+000	 1.136743101864962e+000	 1.085221988321555e+001
 3.562260379467235e+000	 1.171665903280343e+000	 1.087152659797995e+001
 3.550594120669679e+000	 1.206557661411701e+000	 1.089151240014662e+001
 3.538558208978485e+000	 1.241412824861386e+000	 1.091249024785528e+001
 3.526151967989605e+000	 1.276225802402121e+000	 1.091242579398719e+001
 3.513374828959480e+000	 1.310990965385763e+000	 1.090699616208634e+001
 3.500226332298183e+000	 1.345702650213483e+000	 1.090379258470925e+001
 3.486706128998200e+000	 1.380355160865667e+000	 1.090304591107516e+001
 3.254259053716807e+000	 1.288331483489811e+000	 1.105952956377990e+001
 3.241293049845800e+000	 1.320613253401518e+000	 1.106238003707041e+001
 3.227979782949084e+000	 1.352829080447324e+000	 1.106483881718166e+001
 3.214319244282112e+000	 1.384973572263021e+000	 1.106725623629833e+001
 3.200311532997376e+000	 1.417041316191711e+000	 1.106999360417834e+001
 3.185956857143146e+000	 1.449026881896090e+000	 1.107342304843417e+001
 3.171255534588795e+000	 1.480924824014684e+000	 1.107792732789950e+001
 3.156207993874709e+000	 1.512729684859719e+000	 1.108389961866379e+001
 3.140814774984898e+000	 1.544435997154201e+000	 1.109174327242307e+001
 3.125076530040452e+000	 1.576038286805698e+000	 1.110187154686494e+001
 3.108994023912139e+000	 1.607531075714235e+000	 1.114736363788428e+001
 3.277503761242674e+000	 1.297533851227396e+000	 1.103758752251028e+001
 3.264445143058997e+000	 1.330046205210258e+000	 1.104437310129422e+001
 3.251036781399276e+000	 1.362492145306674e+000	 1.105081942565496e+001
 3.237278667456502e+000	 1.394866240635550e+000	 1.105724757780473e+001
 3.223170901091398e+000	 1.427163039878151e+000	 1.106398949745729e+001
 3.208713691838290e+000	 1.459377073909050e+000	 1.107138785298392e+001
 3.193907359837047e+000	 1.491502858471334e+000	 1.107979588596806e+001
 3.178752336689058e+000	 1.523534896893744e+000	 1.108957722868813e+001
 3.163249166235359e+000	 1.555467682847305e+000	 1.110110569412293e+001
 3.147398505255051e+000	 1.587295703138930e+000	 1.111476503814261e+001
 3.131201124082256e+000	 1.619013440539351e+000	 1.113094869361987e+001
 3.300748468769045e+000	 1.306736218964982e+000	 1.101714074663622e+001
 3.287597236272605e+000	 1.339479157018998e+000	 1.102711410120976e+001
 3.274093779849794e+000	 1.372155210166024e+000	 1.103679610944601e+001
 3.260238090631141e+000	 1.404758909008078e+000	 1.104647892678022e+001
 3.246030269185602e+000	 1.437284763564591e+000	 1.105646545525025e+001
 3.231470526533562e+000	 1.469727265922011e+000	 1.106706924538040e+001
 3.216559185085382e+000	 1.502080892927984e+000	 1.107861437176067e+001
 3.201296679503453e+000	 1.534340108927768e+000	 1.109143528179792e+001
 3.185683557485841e+000	 1.566499368540411e+000	 1.110587661717932e+001
 3.169720480469652e+000	 1.598553119472159e+000	 1.112229300765603e+001
 3.153408224252373e+000	 1.630495805364467e+000	 1.114104883682589e+001
 3.323993176295922e+000	 1.315938586702568e+000	 1.099814813455229e+001
 3.310749329486621e+000	 1.348912108827738e+000	 1.101057873409342e+001
 3.297150778300636e+000	 1.381818275025375e+000	 1.102276135020838e+001
 3.283197513806030e+000	 1.414651577380607e+000	 1.103495952711633e+001
 3.268889637279991e+000	 1.447406487251032e+000	 1.104744745388220e+001
 3.254227361228962e+000	 1.480077457934971e+000	 1.106050989688787e+001
 3.239211010333798e+000	 1.512658927384634e+000	 1.107444210627941e+001
 3.223841022317894e+000	 1.545145320961793e+000	 1.108954969581335e+001
 3.208117948736344e+000	 1.577531054233515e+000	 1.110614849558834e+001
 3.192042455684259e+000	 1.609810535805390e+000	 1.112456437721501e+001
 3.175615324422491e+000	 1.641978170189583e+000	 1.114513305104726e+001
 3.347237883823303e+000	 1.325140954440153e+000	 1.098057147160667e+001
 3.333901422701049e+000	 1.358345060636478e+000	 1.099474514060372e+001
 3.320207776751802e+000	 1.391481339884725e+000	 1.100870962842337e+001
 3.306156936981168e+000	 1.424544245753136e+000	 1.102270017619091e+001
 3.291749005374561e+000	 1.457528210937472e+000	 1.103696257723390e+001
 3.276984195924488e+000	 1.490427649947932e+000	 1.105175314000701e+001
 3.261862835582296e+000	 1.523236961841284e+000	 1.106733862525675e+001
 3.246385365132381e+000	 1.555950532995818e+000	 1.108399615679632e+001
 3.230552339986867e+000	 1.588562739926620e+000	 1.110201310532208e+001
 3.214364430898872e+000	 1.621067952138621e+000	 1.112168694476999e+001
 3.197822424592608e+000	 1.653460535014698e+000	 1.114332508077902e+001
 3.370482591351189e+000	 1.334343322177739e+000	 1.096437533055096e+001
 3.357053515915887e+000	 1.367778012445218e+000	 1.097959382052673e+001
 3.343264775203294e+000	 1.401144404744075e+000	 1.099463735447500e+001
 3.329116360156554e+000	 1.434436914125664e+000	 1.100971317129958e+001
 3.314608373469317e+000	 1.467649934623912e+000	 1.102503897855034e+001
 3.299741030620142e+000	 1.500777841960892e+000	 1.104084294567365e+001
 3.284514660830876e+000	 1.533814996297935e+000	 1.105736367175104e+001
 3.268929707946914e+000	 1.566755745029842e+000	 1.107485012704198e+001
 3.252986731237411e+000	 1.599594425619725e+000	 1.109356156770875e+001
 3.236686406113489e+000	 1.632325368471851e+000	 1.111376742316578e+001
 3.220029524762726e+000	 1.664942899839814e+000	 1.113574715556555e+001
 3.393727298879581e+000	 1.343545689915324e+000	 1.094952697608121e+001
 3.380205609131133e+000	 1.377210964253957e+000	 1.096510755198406e+001
 3.366321773655109e+000	 1.410807469603425e+000	 1.098054280255739e+001
 3.352075783332190e+000	 1.444329582498193e+000	 1.099601225828882e+001
 3.337467741564254e+000	 1.477771658310352e+000	 1.101170584381864e+001
 3.322497865315922e+000	 1.511128033973852e+000	 1.102782390139457e+001
 3.307166486079536e+000	 1.544393030754585e+000	 1.104457718904625e+001
 3.291474050761494e+000	 1.577560957063867e+000	 1.106218685274212e+001
 3.275421122487976e+000	 1.610626111312830e+000	 1.108088437185199e+001
 3.259008381328112e+000	 1.643582784805082e+000	 1.110091147730268e+001
 3.242236624932843e+000	 1.676425264664929e+000	 1.112252004188254e+001
 3.416972006408479e+000	 1.352748057652910e+000	 1.093599627327517e+001
 3.403357702346791e+000	 1.386643916062697e+000	 1.095127131393844e+001
 3.389378772107251e+000	 1.420470534462775e+000	 1.096642604727988e+001
 3.375035206508074e+000	 1.454222250870722e+000	 1.098161258228534e+001
 3.360327109659375e+000	 1.487893381996793e+000	 1.099699335664079e+001
 3.345254700011832e+000	 1.521478225986813e+000	 1.101274119027569e+001
 3.329818311328278e+000	 1.554971065211234e+000	 1.102903931384164e+001
 3.314018393576120e+000	 1.588366169097891e+000	 1.104608137133548e+001
 3.297855513738560e+000	 1.621657797005935e+000	 1.106407139613519e+001
 3.281330356542740e+000	 1.654840201138312e+000	 1.108322375978092e+001
 3.264443725102960e+000	 1.687907629490045e+000	 1.110376309290116e+001
 3.440216713937880e+000	 1.361950425390495e+000	 1.092375559974157e+001
 3.426509795562858e+000	 1.396076867871437e+000	 1.093807221184098e+001
 3.412435770559715e+000	 1.430133599322125e+000	 1.095228890284222e+001
 3.397994629684208e+000	 1.464114919243250e+000	 1.096653064042330e+001
 3.383186477754680e+000	 1.498015105683233e+000	 1.098093266453048e+001
 3.368011534707869e+000	 1.531828417999774e+000	 1.099564057090048e+001
 3.352470136577104e+000	 1.565549099667885e+000	 1.101081036971746e+001
 3.336562736390792e+000	 1.599171381131916e+000	 1.102660851856036e+001
 3.320289904989166e+000	 1.632689482699040e+000	 1.104321192885380e+001
 3.303652331757374e+000	 1.666097617471543e+000	 1.106080794509989e+001
 3.286650825273078e+000	 1.699389994315161e+000	 1.107959429623487e+001
 3.463461421467788e+000	 1.371152793128081e+000	 1.091277976130695e+001
 3.449661888779335e+000	 1.405509819680177e+000	 1.092549940627251e+001
 3.435492769012504e+000	 1.439796664181475e+000	 1.093813486465901e+001
 3.420954052860590e+000	 1.474007587615779e+000	 1.095078423647478e+001
 3.406045845850167e+000	 1.508136829369673e+000	 1.096355584656699e+001
 3.390768369404032e+000	 1.542178610012734e+000	 1.097656835801860e+001
 3.375121961826010e+000	 1.576127134124535e+000	 1.098995086086375e+001
 3.359107079205510e+000	 1.609976593165940e+000	 1.100384293522297e+001
 3.342724296239791e+000	 1.643721168392145e+000	 1.101839468801700e+001
 3.325974306972011e+000	 1.677355033804773e+000	 1.103376676248046e+001
 3.308857925443196e+000	 1.710872359140276e+000	 1.105013031976351e+001
 3.486706128998200e+000	 1.380355160865667e+000	 1.090304591107516e+001
 3.472813981996224e+000	 1.414942771488917e+000	 1.091354404443925e+001
 3.458549767465619e+000	 1.449459729040826e+000	 1.092396905331923e+001
 3.443913476037222e+000	 1.483900255988308e+000	 1.093439243729525e+001
 3.428905213945839e+000	 1.518258553056113e+000	 1.094489588234308e+001
 3.413525204100325e+000	 1.552528802025695e+000	 1.095557140400711e+001
 3.397773787075000e+000	 1.586705168581185e+000	 1.096652146605998e+001
 3.381651422020273e+000	 1.620781805199965e+000	 1.097785907369524e+001
 3.365158687490438e+000	 1.654752854085250e+000	 1.098970784035732e+001
 3.348296282186655e+000	 1.688612450138004e+000	 1.100220202737406e+001
 3.331065025613314e+000	 1.722354723965393e+000	 1.101548655562437e+001
 3.108994023912139e+000	 1.607531075714235e+000	 1.114736363788428e+001
 3.092568134750085e+000	 1.638908884611238e+000	 1.114441949302987e+001
 3.075799854430276e+000	 1.670166235927714e+000	 1.114451162562673e+001
 3.058690288915435e+000	 1.701297656688459e+000	 1.114778897997649e+001
 3.041240658528325e+000	 1.732297681428427e+000	 1.115439650646490e+001
 3.023452298137441e+000	 1.763160855129283e+000	 1.116447496780409e+001
 3.005326657253558e+000	 1.793881736172811e+000	 1.117816074975419e+001
 2.986865300036170e+000	 1.824454899308038e+000	 1.119558567669470e+001
 2.968069905208957e+000	 1.854874938628938e+000	 1.121687683240927e+001
 2.948942265883543e+000	 1.885136470559467e+000	 1.121512580777593e+001
 2.929484289290938e+000	 1.915234136842687e+000	 1.116323064252113e+001
 3.131201124082256e+000	 1.619013440539351e+000	 1.113094869361987e+001
 3.114657907139728e+000	 1.650615376642425e+000	 1.112044261501868e+001
 3.097769853388399e+000	 1.682095994753727e+000	 1.112605831240687e+001
 3.080538076690724e+000	 1.713449782805372e+000	 1.113521327730342e+001
 3.062963806086062e+000	 1.744671236293278e+000	 1.114806613934051e+001
 3.045048385977678e+000	 1.775754861234694e+000	 1.116477110000175e+001
 3.026793276230001e+000	 1.806695177142703e+000	 1.118547772654672e+001
 3.008200052175089e+000	 1.837486720014539e+000	 1.121033075096078e+001
 2.989270404527509e+000	 1.868124045330562e+000	 1.123946987432393e+001
 2.970006139206822e+000	 1.898601731060612e+000	 1.121044910304184e+001
 2.950409177067122e+000	 1.928914380674490e+000	 1.116674140127151e+001
 3.153408224252373e+000	 1.630495805364467e+000	 1.114104883682589e+001
 3.136747679529372e+000	 1.662321868673618e+000	 1.111352692290292e+001
 3.119739852346521e+000	 1.694025753579760e+000	 1.110132030950960e+001
 3.102385864466013e+000	 1.725601908922329e+000	 1.111662812408709e+001
 3.084686953643797e+000	 1.757044791158208e+000	 1.113599951809148e+001
 3.066644473817915e+000	 1.788348867340229e+000	 1.115960199038440e+001
 3.048259895206442e+000	 1.819508618112772e+000	 1.118759814865053e+001
 3.029534804314007e+000	 1.850518540721283e+000	 1.122014549185591e+001
 3.010470903846060e+000	 1.881373152032502e+000	 1.124078709067523e+001
 2.991070012530103e+000	 1.912066991562159e+000	 1.120178901595049e+001
 2.971334064843307e+000	 1.942594624506790e+000	 1.116650559692087e+001
 3.175615324422491e+000	 1.641978170189583e+000	 1.114513305104726e+001
 3.158837451919014e+000	 1.674028360704815e+000	 1.112148638334959e+001
 3.141709851304642e+000	 1.705955512405812e+000	 1.110315070437214e+001
 3.124233652241302e+000	 1.737754035039331e+000	 1.109207058236487e+001
 3.106410101201532e+000	 1.769418346023218e+000	 1.111822796939942e+001
 3.088240561658153e+000	 1.800942873445888e+000	 1.114899330835394e+001
 3.069726514182884e+000	 1.832322059083021e+000	 1.118454210920188e+001
 3.050869556452927e+000	 1.863550361428269e+000	 1.122504450016825e+001
 3.031671403164613e+000	 1.894622258734760e+000	 1.121986863353219e+001
 3.012133885853384e+000	 1.925532252064109e+000	 1.118916533318449e+001
 2.992258952619491e+000	 1.956274868339587e+000	 1.116253733229654e+001
 3.197822424592608e+000	 1.653460535014698e+000	 1.114332508077902e+001
 3.180927224308658e+000	 1.685734852736017e+000	 1.112381245141060e+001
 3.163679850262765e+000	 1.717885271231884e+000	 1.110983590918103e+001
 3.146081440016591e+000	 1.749906161156377e+000	 1.110190686923563e+001
 3.128133248759268e+000	 1.781791900888305e+000	 1.110054440558239e+001
 3.109836649498389e+000	 1.813536879551669e+000	 1.113296996365517e+001
 3.091193133159327e+000	 1.845135500053447e+000	 1.117632909730230e+001
 3.072204308591847e+000	 1.876582182135497e+000	 1.122102884037533e+001
 3.052871902483164e+000	 1.907871365437336e+000	 1.119477598417792e+001
 3.033197759176664e+000	 1.938997512566462e+000	 1.117259769026530e+001
 3.013183840395675e+000	 1.969955112172882e+000	 1.115485070509206e+001
 3.220029524762726e+000	 1.664942899839814e+000	 1.113574715556555e+001
 3.203016996698300e+000	 1.697441344767224e+000	 1.112062202611292e+001
 3.185649849220887e+000	 1.729815030057976e+000	 1.111125219853531e+001
 3.167929227791881e+000	 1.762058287273467e+000	 1.110816740518889e+001
 3.149856396317004e+000	 1.794165455753472e+000	 1.111190519423811e+001
 3.131432737338627e+000	 1.826130885657575e+000	 1.112301040296284e+001
 3.112659752135769e+000	 1.857948941024052e+000	 1.116297801884752e+001
 3.093539060730765e+000	 1.889614002842969e+000	 1.118337251527038e+001
 3.074072401801717e+000	 1.921120472140230e+000	 1.116553409626024e+001
 3.054261632499945e+000	 1.952462773069216e+000	 1.115210557676574e+001
 3.034108728171860e+000	 1.983635356006674e+000	 1.114345980804413e+001
 3.242236624932843e+000	 1.676425264664929e+000	 1.112252004188254e+001
 3.225106769087943e+000	 1.709147836798436e+000	 1.111203069798912e+001
 3.207619848179009e+000	 1.741744788884088e+000	 1.110750999534457e+001
 3.189777015567170e+000	 1.774210413390602e+000	 1.110950589279549e+001
 3.171579543874740e+000	 1.806539010618718e+000	 1.111857432903407e+001
 3.153028825178865e+000	 1.838724891763604e+000	 1.113527867708485e+001
 3.134126371112211e+000	 1.870762381994835e+000	 1.116018916844351e+001
 3.114873812869684e+000	 1.902645823550685e+000	 1.114136773141408e+001
 3.095272901120267e+000	 1.934369578843441e+000	 1.113216764396527e+001
 3.075325505823225e+000	 1.965928033572373e+000	 1.112770834130815e+001
 3.055033615948044e+000	 1.997315599840964e+000	 1.112837872910250e+001
 3.264443725102960e+000	 1.687907629490045e+000	 1.110376309290116e+001
 3.247196541477585e+000	 1.720854328829652e+000	 1.109815279358399e+001
 3.229589847137131e+000	 1.753674547710219e+000	 1.109871860617049e+001
 3.211624803342460e+000	 1.786362539507781e+000	 1.110602662798581e+001
 3.193302691432475e+000	 1.818912565484043e+000	 1.112065110736973e+001
 3.174624913019101e+000	 1.851318897869757e+000	 1.114317387946623e+001
 3.155592990088653e+000	 1.883575822965795e+000	 1.115330179966325e+001
 3.136208565008604e+000	 1.915677644258642e+000	 1.111358170546630e+001
 3.116473400438819e+000	 1.947618685546969e+000	 1.109470103152303e+001
 3.096389379146505e+000	 1.979393294075933e+000	 1.109942519635869e+001
 3.075958503724228e+000	 2.010995843675750e+000	 1.110962155159260e+001
 3.286650825273078e+000	 1.699389994315161e+000	 1.107959429623487e+001
 3.269286313867229e+000	 1.732560820860875e+000	 1.107910141815688e+001
 3.251559846095252e+000	 1.765604306536369e+000	 1.108498625894143e+001
 3.233472591117748e+000	 1.798514665625005e+000	 1.109783296901501e+001
 3.215025838990211e+000	 1.831286120349447e+000	 1.111823402816009e+001
 3.196221000859339e+000	 1.863912903976033e+000	 1.114678966272869e+001
 3.177059609065095e+000	 1.896389263936935e+000	 1.113252680539209e+001
 3.157543317147523e+000	 1.928709464966843e+000	 1.109905360966061e+001
 3.137673899757371e+000	 1.960867792250816e+000	 1.107330863918672e+001
 3.117453252469785e+000	 1.992858554579895e+000	 1.106727522282721e+001
 3.096883391500412e+000	 2.024676087511034e+000	 1.108720235437199e+001
 3.308857925443196e+000	 1.710872359140276e+000	 1.105013031976351e+001
 3.291376086256872e+000	 1.744267312892101e+000	 1.105498849666432e+001
 3.273529845053375e+000	 1.777534065362540e+000	 1.106642013914801e+001
 3.255320378893036e+000	 1.810666791742272e+000	 1.108502736792848e+001
 3.236748986547946e+000	 1.843659675214930e+000	 1.111142081863045e+001
 3.217817088699575e+000	 1.876506910082433e+000	 1.114268607580969e+001
 3.198526228041538e+000	 1.909202704908252e+000	 1.110840554884462e+001
 3.178878069286442e+000	 1.941741285675286e+000	 1.108139331904327e+001
 3.158874399075922e+000	 1.974116898954979e+000	 1.106233004567927e+001
 3.138517125793066e+000	 2.006323815084259e+000	 1.105190788187206e+001
 3.117808279276597e+000	 2.038356331346816e+000	 1.106113521198007e+001
 3.331065025613314e+000	 1.722354723965393e+000	 1.101548655562437e+001
 3.313465858646516e+000	 1.755973804923333e+000	 1.102592481310355e+001
 3.295499844011498e+000	 1.789463824188730e+000	 1.104312642459115e+001
 3.277168166668326e+000	 1.822818917859585e+000	 1.106771140076891e+001
 3.258472134105683e+000	 1.856033230080492e+000	 1.110030846003934e+001
 3.239413176539813e+000	 1.889100916188957e+000	 1.110886885737068e+001
 3.219992847017981e+000	 1.922016145879749e+000	 1.108106526107455e+001
 3.200212821425362e+000	 1.954773106383973e+000	 1.106072379113577e+001
 3.180074898394475e+000	 1.987366005659461e+000	 1.104854367349425e+001
 3.159580999116347e+000	 2.019789075589026e+000	 1.104523588926459e+001
 3.138733167052782e+000	 2.052036575183095e+000	 1.105152243917054e+001
 2.929484289290938e+000	 1.915234136842687e+000	 1.116323064252113e+001
 2.909697996420158e+000	 1.945162607531509e+000	 1.116410948872544e+001
 2.889585521563812e+000	 1.974916583975221e+000	 1.116466894381501e+001
 2.869149111770381e+000	 2.004490801800127e+000	 1.116479949546793e+001
 2.848391126202986e+000	 2.033880033882548e+000	 1.116439297218287e+001
 2.827314035404899e+000	 2.063079093308326e+000	 1.116334250989790e+001
 2.805920420471948e+000	 2.092082836316265e+000	 1.116154251194829e+001
 2.784212972132169e+000	 2.120886165222105e+000	 1.115888860261213e+001
 2.762194489733197e+000	 2.149484031319626e+000	 1.115527757451973e+001
 2.739867880138053e+000	 2.177871437755532e+000	 1.115060733022946e+001
 2.717236156530065e+000	 2.206043442374710e+000	 1.114477681829703e+001
 2.950409177067122e+000	 1.928914380674490e+000	 1.116674140127151e+001
 2.930481553533042e+000	 1.959056626154036e+000	 1.116705551490523e+001
 2.910225418142123e+000	 1.989023131001015e+000	 1.116672122503841e+001
 2.889643033993194e+000	 2.018808593239061e+000	 1.116564019342285e+001
 2.868736777100538e+000	 2.048407748407898e+000	 1.116371588546412e+001
 2.847509135654170e+000	 2.077815372543980e+000	 1.116085352421109e+001
 2.825962709186313e+000	 2.107026285144964e+000	 1.115696003688104e+001
 2.804100207644490e+000	 2.136035352114552e+000	 1.115194399419030e+001
 2.781924450371677e+000	 2.164837488684344e+000	 1.114571554279064e+001
 2.759438364994201e+000	 2.193427662309230e+000	 1.113818633113839e+001
 2.736644986218128e+000	 2.221800895532991e+000	 1.112926942915203e+001
 2.971334064843307e+000	 1.942594624506790e+000	 1.116650559692087e+001
 2.951265110645926e+000	 1.972950644777149e+000	 1.116644812787625e+001
 2.930865314720434e+000	 2.003129678027466e+000	 1.116541844981141e+001
 2.910136956216006e+000	 2.033126384678703e+000	 1.116332939105981e+001
 2.889082427998092e+000	 2.062935462933988e+000	 1.116009604443240e+001
 2.867704235903441e+000	 2.092551651780386e+000	 1.115563570851755e+001
 2.846004997900678e+000	 2.121969733974401e+000	 1.114986782071321e+001
 2.823987443156810e+000	 2.151184539007711e+000	 1.114271388228329e+001
 2.801654411010157e+000	 2.180190946049723e+000	 1.113409737576125e+001
 2.779008849850348e+000	 2.208983886863519e+000	 1.112394367505498e+001
 2.756053815906193e+000	 2.237558348691773e+000	 1.111217994863438e+001
 2.992258952619491e+000	 1.956274868339587e+000	 1.116253733229654e+001
 2.972048667758809e+000	 1.986844663400851e+000	 1.116229663690607e+001
 2.951505211298744e+000	 2.017236225054575e+000	 1.116076500099920e+001
 2.930630878438818e+000	 2.047444176119054e+000	 1.115786641445883e+001
 2.909428078895645e+000	 2.077463177460815e+000	 1.115352759056323e+001
 2.887899336152713e+000	 2.107287931017540e+000	 1.114767789453389e+001
 2.866047286615044e+000	 2.136913182804580e+000	 1.114024926301268e+001
 2.843874678669133e+000	 2.166333725901581e+000	 1.113117611478147e+001
 2.821384371648636e+000	 2.195544403415763e+000	 1.112039525307179e+001
 2.798579334706496e+000	 2.224540111418400e+000	 1.110784575984369e+001
 2.775462645594258e+000	 2.253315801851058e+000	 1.109346888244355e+001
 3.013183840395675e+000	 1.969955112172882e+000	 1.115485070509206e+001
 2.992832224871694e+000	 2.000738682025141e+000	 1.115461046692997e+001
 2.972145107877057e+000	 2.031342772082342e+000	 1.115276550114930e+001
 2.951124800661630e+000	 2.061761967560113e+000	 1.114925095656031e+001
 2.929773729793199e+000	 2.091990891988382e+000	 1.114400516248210e+001
 2.908094436401984e+000	 2.122024210255444e+000	 1.113696954447411e+001
 2.886089575329409e+000	 2.151856631635498e+000	 1.112808853019343e+001
 2.863761914181453e+000	 2.181482912796160e+000	 1.111730944571354e+001
 2.841114332287117e+000	 2.210897860782464e+000	 1.110458240267559e+001
 2.818149819562645e+000	 2.240096335973872e+000	 1.108986017667742e+001
 2.794871475282322e+000	 2.269073255010843e+000	 1.107309807733877e+001
 3.034108728171860e+000	 1.983635356006674e+000	 1.114345980804413e+001
 3.013615781984577e+000	 2.014632700650016e+000	 1.114339915456256e+001
 2.992785004455367e+000	 2.045449319110766e+000	 1.114142480422682e+001
 2.971618722884444e+000	 2.076079759001881e+000	 1.113748306451475e+001
 2.950119380690753e+000	 2.106518606516688e+000	 1.113152387882156e+001
 2.928289536651255e+000	 2.136760489494098e+000	 1.112350072930828e+001
 2.906131864043775e+000	 2.166800080467156e+000	 1.111337052907271e+001
 2.883649149693775e+000	 2.196632099691451e+000	 1.110109350400029e+001
 2.860844292925597e+000	 2.226251318149826e+000	 1.108663306469027e+001
 2.837720304418793e+000	 2.255652560529936e+000	 1.106995566888888e+001
 2.814280304970386e+000	 2.284830708171129e+000	 1.105103067489556e+001
 3.055033615948044e+000	 1.997315599840964e+000	 1.112837872910250e+001
 3.034399339097461e+000	 2.028526719275481e+000	 1.112867234427307e+001
 3.013424901033678e+000	 2.059555866139850e+000	 1.112674798768905e+001
 2.992112645107255e+000	 2.090397550444356e+000	 1.112256312755221e+001
 2.970465031588305e+000	 2.121046321045732e+000	 1.111607932178242e+001
 2.948484636900526e+000	 2.151496768733500e+000	 1.110726210791471e+001
 2.926174152758140e+000	 2.181743529299555e+000	 1.109608088151465e+001
 2.903536385206096e+000	 2.211781286587452e+000	 1.108250876349241e+001
 2.880574253564076e+000	 2.241604775517848e+000	 1.106652245673473e+001
 2.857290789274941e+000	 2.271208785086590e+000	 1.104810209251312e+001
 2.833689134658449e+000	 2.300588161331918e+000	 1.102723106716282e+001
 3.075958503724228e+000	 2.010995843675750e+000	 1.110962155159260e+001
 3.055182896210345e+000	 2.042420737901532e+000	 1.111043978471689e+001
 3.034064797611990e+000	 2.073662413169590e+000	 1.110874034488378e+001
 3.012606567330068e+000	 2.104715341887540e+000	 1.110449186534695e+001
 2.990810682485858e+000	 2.135574035575516e+000	 1.109766752136631e+001
 2.968679737149798e+000	 2.166233047973652e+000	 1.108824490708312e+001
 2.946216441472506e+000	 2.196686978132694e+000	 1.107620590010900e+001
 2.923423620718417e+000	 2.226930473484163e+000	 1.106153651423156e+001
 2.900304214202556e+000	 2.256958232886532e+000	 1.104422674068075e+001
 2.876861274131089e+000	 2.286765009643835e+000	 1.102427037844054e+001
 2.853097964346514e+000	 2.316345614493208e+000	 1.100166485412960e+001
 3.096883391500412e+000	 2.024676087511034e+000	 1.108720235437199e+001
 3.075966453323229e+000	 2.056314756528171e+000	 1.108871132521567e+001
 3.054704694190301e+000	 2.087768960199989e+000	 1.108740737775567e+001
 3.033100489552880e+000	 2.119033133331432e+000	 1.108327031685381e+001
 3.011156333383411e+000	 2.150101750106038e+000	 1.107628494024714e+001
 2.988874837399069e+000	 2.180969327214555e+000	 1.106644090232843e+001
 2.966258730186870e+000	 2.211630426966571e+000	 1.105373256483580e+001
 2.943310856230740e+000	 2.242079660381585e+000	 1.103815883487625e+001
 2.920034174841036e+000	 2.272311690255878e+000	 1.101972299075245e+001
 2.896431758987238e+000	 2.302321234201673e+000	 1.099843249610409e+001
 2.872506794034578e+000	 2.332103067654998e+000	 1.097429880291634e+001
 3.117808279276597e+000	 2.038356331346816e+000	 1.106113521198007e+001
 3.096750010436112e+000	 2.070208775155397e+000	 1.106349691237935e+001
 3.075344590768612e+000	 2.101875507231044e+000	 1.106275478984634e+001
 3.053594411775693e+000	 2.133350924776032e+000	 1.105889982959408e+001
 3.031501984280965e+000	 2.164629464637300e+000	 1.105192845925190e+001
 3.009069937648340e+000	 2.195705606456206e+000	 1.104184239947713e+001
 2.986301018901236e+000	 2.226573875801191e+000	 1.102864850066973e+001
 2.963198091743061e+000	 2.257228847279718e+000	 1.101235856623822e+001
 2.939764135479516e+000	 2.287665147625883e+000	 1.099298916291058e+001
 2.916002243843385e+000	 2.317877458760101e+000	 1.097056141862898e+001
 2.891915623722642e+000	 2.347860520817291e+000	 1.094510080860944e+001
 3.138733167052782e+000	 2.052036575183095e+000	 1.105152243917054e+001
 3.117533567548996e+000	 2.084102793783212e+000	 1.103480658686318e+001
 3.095984487346924e+000	 2.115982054262759e+000	 1.103478847957449e+001
 3.074088333998507e+000	 2.147668716221342e+000	 1.103138204936990e+001
 3.051847635178519e+000	 2.179157179169301e+000	 1.102459536342236e+001
 3.029265037897612e+000	 2.210441885698607e+000	 1.101444221699026e+001
 3.006343307615602e+000	 2.241517324636550e+000	 1.100094195608026e+001
 2.983085327255383e+000	 2.272378034178562e+000	 1.098411928587730e+001
 2.959494096117997e+000	 2.303018604996550e+000	 1.096400406546126e+001
 2.935572728699535e+000	 2.333433683319122e+000	 1.094063108937618e+001
 2.911324453410707e+000	 2.363617973980084e+000	 1.091403985666231e+001
 2.717236156530065e+000	 2.206043442374710e+000	 1.114477681829703e+001
 2.694302437127753e+000	 2.233995160532463e+000	 1.110379765840801e+001
 2.671069943811038e+000	 2.261721767870786e+000	 1.106641342597221e+001
 2.647542000659858e+000	 2.289218503055032e+000	 1.103288606269509e+001
 2.623722032406190e+000	 2.316480670467651e+000	 1.100347443981552e+001
 2.599613562801293e+000	 2.343503642856166e+000	 1.097843388260869e+001
 2.575220212899676e+000	 2.370282863932164e+000	 1.095801569620845e+001
 2.550545699261519e+000	 2.396813850918235e+000	 1.094246669387267e+001
 2.525593832075397e+000	 2.423092197039895e+000	 1.093202872881812e+001
 2.500368513203295e+000	 2.449113573959597e+000	 1.092693823075220e+001
 2.474873734150000e+000	 2.474873734150000e+000	 1.094812784043014e+001
 2.736644986218128e+000	 2.221800895532991e+000	 1.112926942915203e+001
 2.713547454534904e+000	 2.249952268820610e+000	 1.109323057701983e+001
 2.690149014837810e+000	 2.277876923354378e+000	 1.106152368522619e+001
 2.666453014950212e+000	 2.305570063790118e+000	 1.103441905471346e+001
 2.642462904066458e+000	 2.333026960970151e+000	 1.101218328492882e+001
 2.618182231107459e+000	 2.360242954590201e+000	 1.099507878373057e+001
 2.593614642992400e+000	 2.387213455816933e+000	 1.098336327937446e+001
 2.568763882828318e+000	 2.413933949853102e+000	 1.097728933573547e+001
 2.543633788019420e+000	 2.440399998447261e+000	 1.097710387192349e+001
 2.518228288298135e+000	 2.466607242345167e+000	 1.098304768744969e+001
 2.492551403680000e+000	 2.492551403680000e+000	 1.100127030506419e+001
 2.756053815906193e+000	 2.237558348691773e+000	 1.111217994863438e+001
 2.732792471942056e+000	 2.265909377109163e+000	 1.108114057574568e+001
 2.709228085864582e+000	 2.294032078838291e+000	 1.105516200835499e+001
 2.685364029240567e+000	 2.321921624525449e+000	 1.103452295397080e+001
 2.661203775726726e+000	 2.349573251472833e+000	 1.101949779359867e+001
 2.636750899413626e+000	 2.376982266324359e+000	 1.101035607694478e+001
 2.612009073085125e+000	 2.404144047701782e+000	 1.100736202045060e+001
 2.586982066395117e+000	 2.431054048788012e+000	 1.101077400934812e+001
 2.561673743963445e+000	 2.457707799854648e+000	 1.102084410492535e+001
 2.536088063392976e+000	 2.484100910730744e+000	 1.103781755818873e+001
 2.510229073210000e+000	 2.510229073210000e+000	 1.101644699740926e+001
 2.775462645594258e+000	 2.253315801851058e+000	 1.109346888244355e+001
 2.752037489349208e+000	 2.281866485398122e+000	 1.106748605164259e+001
 2.728307156891355e+000	 2.310187234322526e+000	 1.104728485729772e+001
 2.704275043530920e+000	 2.338273185261025e+000	 1.103315246256987e+001
 2.679944647386995e+000	 2.366119541975694e+000	 1.102537108502634e+001
 2.655319567719793e+000	 2.393721578058645e+000	 1.102421747703230e+001
 2.630403503177848e+000	 2.421074639586712e+000	 1.102996240971684e+001
 2.605200249961916e+000	 2.448174147722970e+000	 1.104287016173633e+001
 2.579713699907468e+000	 2.475015601262054e+000	 1.106319801405681e+001
 2.553947838487818e+000	 2.501594579116325e+000	 1.108405407640466e+001
 2.527906742740000e+000	 2.527906742740000e+000	 1.100227107847348e+001
 2.794871475282322e+000	 2.269073255010843e+000	 1.107309807733877e+001
 2.771282506756359e+000	 2.297823593687487e+000	 1.105222678519374e+001
 2.747386227918126e+000	 2.326342389807081e+000	 1.103785011470212e+001
 2.723186057821274e+000	 2.354624745996849e+000	 1.103026373549601e+001
 2.698685519047263e+000	 2.382665832478737e+000	 1.102975775833913e+001
 2.673888236025959e+000	 2.410460889793056e+000	 1.103661620059503e+001
 2.648797933270572e+000	 2.438005231471722e+000	 1.105111645600516e+001
 2.623418433528714e+000	 2.465294246657972e+000	 1.107352877003329e+001
 2.597753655851491e+000	 2.492323402669479e+000	 1.110411572202997e+001
 2.571807613582659e+000	 2.519088247501911e+000	 1.105729005757032e+001
 2.545584412270000e+000	 2.545584412270000e+000	 1.098586342401945e+001
 2.814280304970386e+000	 2.284830708171129e+000	 1.105103067489556e+001
 2.790527524163510e+000	 2.313780701977259e+000	 1.103532389260396e+001
 2.766465298944899e+000	 2.342497545291958e+000	 1.102681703493454e+001
 2.742097072111628e+000	 2.370976306732918e+000	 1.102581433051761e+001
 2.717426390707531e+000	 2.399212122981961e+000	 1.103261384155849e+001
 2.692456904332127e+000	 2.427200201527592e+000	 1.104750691426883e+001
 2.667192363363296e+000	 2.454935823356812e+000	 1.107077763433567e+001
 2.641636617095514e+000	 2.482414345593019e+000	 1.110270228871735e+001
 2.615793611795516e+000	 2.509631204076926e+000	 1.110019006965751e+001
 2.589667388677500e+000	 2.536581915887501e+000	 1.102852572959925e+001
 2.563262081800000e+000	 2.563262081800000e+000	 1.096736504160297e+001
 2.833689134658449e+000	 2.300588161331918e+000	 1.102723106716282e+001
 2.809772541570663e+000	 2.329737810267437e+000	 1.101673978005590e+001
 2.785544369971670e+000	 2.358652700777156e+000	 1.101414619710329e+001
 2.761008086401982e+000	 2.387327867469233e+000	 1.101976316014562e+001
 2.736167262367800e+000	 2.415758413485365e+000	 1.103389674266517e+001
 2.711025572638294e+000	 2.443939513262254e+000	 1.105684568506494e+001
 2.685586793456021e+000	 2.471866415241984e+000	 1.108890083570474e+001
 2.659854800662312e+000	 2.499534444528111e+000	 1.113034459901800e+001
 2.633833567739539e+000	 2.526939005484393e+000	 1.106000431495891e+001
 2.607527163772341e+000	 2.554075584273098e+000	 1.099790544638114e+001
 2.580939751329999e+000	 2.580939751329999e+000	 1.094691836883614e+001
 2.853097964346514e+000	 2.316345614493208e+000	 1.100166485412960e+001
 2.829017558977814e+000	 2.345694918558022e+000	 1.099643809983328e+001
 2.804623440998443e+000	 2.374807856262675e+000	 1.099979945999943e+001
 2.779919100692337e+000	 2.403679428205794e+000	 1.101207044555388e+001
 2.754908134028069e+000	 2.432304703988950e+000	 1.103356520266202e+001
 2.729594240944460e+000	 2.460678824997042e+000	 1.106458993273801e+001
 2.703981223548745e+000	 2.488797007127235e+000	 1.110544231892249e+001
 2.678072984229111e+000	 2.516654543463250e+000	 1.108170958852007e+001
 2.651873523683563e+000	 2.544246806891879e+000	 1.101818868558383e+001
 2.625386938867182e+000	 2.571569252658699e+000	 1.096557494683150e+001
 2.598617420860000e+000	 2.598617420860000e+000	 1.092466722474605e+001
 2.872506794034578e+000	 2.332103067654998e+000	 1.097429880291634e+001
 2.848262576384966e+000	 2.361652026849011e+000	 1.097438370822281e+001
 2.823702512025215e+000	 2.390963011748516e+000	 1.098373991886420e+001
 2.798830114982690e+000	 2.420030988942601e+000	 1.100269767236749e+001
 2.773649005688337e+000	 2.448850994492715e+000	 1.103157925053928e+001
 2.748162909250627e+000	 2.477418136731954e+000	 1.107069838408549e+001
 2.722375653641469e+000	 2.505727599012566e+000	 1.109491044567300e+001
 2.696291167795910e+000	 2.533774642398433e+000	 1.102957265204089e+001
 2.669913479627586e+000	 2.561554608299386e+000	 1.097489223813700e+001
 2.643246713962023e+000	 2.589062921044305e+000	 1.093168130810049e+001
 2.616295090390000e+000	 2.616295090390000e+000	 1.090075676310532e+001
 2.891915623722642e+000	 2.347860520817291e+000	 1.094510080860944e+001
 2.867507593792117e+000	 2.377609135140408e+000	 1.095054262511141e+001
 2.842781583051987e+000	 2.407118167234677e+000	 1.096593186389746e+001
 2.817741129273045e+000	 2.436382549679655e+000	 1.099160754823160e+001
 2.792389877348605e+000	 2.465397284996662e+000	 1.102790016005364e+001
 2.766731577556794e+000	 2.494157448466993e+000	 1.107513102908692e+001
 2.740770083734193e+000	 2.522658190897978e+000	 1.103327261545087e+001
 2.714509351362709e+000	 2.550894741333661e+000	 1.097617541375437e+001
 2.687953435571610e+000	 2.578862409706913e+000	 1.093026532155622e+001
 2.661106489056865e+000	 2.606556589429915e+000	 1.089637290066551e+001
 2.633972759920000e+000	 2.633972759920000e+000	 1.087533342764197e+001
 2.911324453410707e+000	 2.363617973980084e+000	 1.091403985666231e+001
 2.886752611199269e+000	 2.393566243432211e+000	 1.092488199519959e+001
 2.861860654078760e+000	 2.423273322721160e+000	 1.094634074042561e+001
 2.836652143563399e+000	 2.452734110416955e+000	 1.097876396207743e+001
 2.811130749008874e+000	 2.481943575500790e+000	 1.102249040823593e+001
 2.785300245862961e+000	 2.510896760202158e+000	 1.103035969314737e+001
 2.759164513826918e+000	 2.539588782783472e+000	 1.097058589248116e+001
 2.732727534929508e+000	 2.568014840268935e+000	 1.092167149392244e+001
 2.705993391515634e+000	 2.596170211114460e+000	 1.088445953403450e+001
 2.678966264151707e+000	 2.624050257815533e+000	 1.085979934522045e+001
 2.651650429450000e+000	 2.651650429450000e+000	 1.084854490904095e+001
 2.474873734150000e+000	 2.474873734150000e+000	 1.094812784043014e+001
 2.449113573959596e+000	 2.500368513203294e+000	 1.096048348073616e+001
 2.423092197039895e+000	 2.525593832075397e+000	 1.087413248206451e+001
 2.396813850918235e+000	 2.550545699261519e+000	 1.079944043253690e+001
 2.370282863932165e+000	 2.575220212899676e+000	 1.073652618452789e+001
 2.343503642856166e+000	 2.599613562801293e+000	 1.068549054943630e+001
 2.316480670467651e+000	 2.623722032406190e+000	 1.064641627788156e+001
 2.289218503055032e+000	 2.647542000659858e+000	 1.061936807559581e+001
 2.261721767870785e+000	 2.671069943811037e+000	 1.060439265476413e+001
 2.233995160532464e+000	 2.694302437127753e+000	 1.060151882046749e+001
 2.206043442374710e+000	 2.717236156530064e+000	 1.061075759178654e+001
 2.492551403680000e+000	 2.492551403680000e+000	 1.100127030506419e+001
 2.466607242345168e+000	 2.518228288298135e+000	 1.094794124096262e+001
 2.440399998447261e+000	 2.543633788019420e+000	 1.087198140749010e+001
 2.413933949853101e+000	 2.568763882828318e+000	 1.080638436309643e+001
 2.387213455816933e+000	 2.593614642992400e+000	 1.075122731991780e+001
 2.360242954590201e+000	 2.618182231107459e+000	 1.070657059111070e+001
 2.333026960970151e+000	 2.642462904066458e+000	 1.067245761366150e+001
 2.305570063790118e+000	 2.666453014950212e+000	 1.064891500550138e+001
 2.277876923354377e+000	 2.690149014837810e+000	 1.063595265660990e+001
 2.249952268820610e+000	 2.713547454534904e+000	 1.063356385369437e+001
 2.221800895532991e+000	 2.736644986218128e+000	 1.064172543793971e+001
 2.510229073210000e+000	 2.510229073210000e+000	 1.101644699740926e+001
 2.484100910730744e+000	 2.536088063392976e+000	 1.093312187769229e+001
 2.457707799854647e+000	 2.561673743963444e+000	 1.086667689370562e+001
 2.431054048788012e+000	 2.586982066395117e+000	 1.080932457402051e+001
 2.404144047701782e+000	 2.612009073085125e+000	 1.076110087257524e+001
 2.376982266324359e+000	 2.636750899413626e+000	 1.072202596572682e+001
 2.349573251472832e+000	 2.661203775726727e+000	 1.069210431739709e+001
 2.321921624525448e+000	 2.685364029240566e+000	 1.067132477716415e+001
 2.294032078838291e+000	 2.709228085864582e+000	 1.065966071091234e+001
 2.265909377109162e+000	 2.732792471942056e+000	 1.065707016356235e+001
 2.237558348691774e+000	 2.756053815906193e+000	 1.066349605331149e+001
 2.527906742740000e+000	 2.527906742740000e+000	 1.100227107847348e+001
 2.501594579116325e+000	 2.553947838487817e+000	 1.091703683866245e+001
 2.475015601262053e+000	 2.579713699907468e+000	 1.085810299975574e+001
 2.448174147722970e+000	 2.605200249961916e+000	 1.080816375407247e+001
 2.421074639586712e+000	 2.630403503177848e+000	 1.076606776068440e+001
 2.393721578058645e+000	 2.655319567719793e+000	 1.073179541188052e+001
 2.366119541975694e+000	 2.679944647386995e+000	 1.070531253062347e+001
 2.338273185261026e+000	 2.704275043530920e+000	 1.068657050937806e+001
 2.310187234322525e+000	 2.728307156891355e+000	 1.067550648009885e+001
 2.281866485398122e+000	 2.752037489349207e+000	 1.067204351483129e+001
 2.253315801851058e+000	 2.775462645594258e+000	 1.067609085629355e+001
 2.545584412270000e+000	 2.545584412270000e+000	 1.098586342401945e+001
 2.519088247501911e+000	 2.571807613582659e+000	 1.090952677774583e+001
 2.492323402669479e+000	 2.597753655851491e+000	 1.084614425768894e+001
 2.465294246657972e+000	 2.623418433528715e+000	 1.080280455307848e+001
 2.438005231471722e+000	 2.648797933270572e+000	 1.076604836413196e+001
 2.410460889793055e+000	 2.673888236025959e+000	 1.073581664332396e+001
 2.382665832478737e+000	 2.698685519047263e+000	 1.071203689652516e+001
 2.354624745996849e+000	 2.723186057821274e+000	 1.069462336233590e+001
 2.326342389807081e+000	 2.747386227918127e+000	 1.068347722120879e+001
 2.297823593687487e+000	 2.771282506756359e+000	 1.067848683374859e+001
 2.269073255010843e+000	 2.794871475282322e+000	 1.067952800749250e+001
 2.563262081800000e+000	 2.563262081800000e+000	 1.096736504160297e+001
 2.536581915887501e+000	 2.589667388677499e+000	 1.089897260927277e+001
 2.509631204076926e+000	 2.615793611795515e+000	 1.083704518662995e+001
 2.482414345593019e+000	 2.641636617095514e+000	 1.079314958327020e+001
 2.454935823356812e+000	 2.667192363363296e+000	 1.076096254306888e+001
 2.427200201527592e+000	 2.692456904332126e+000	 1.073402638430490e+001
 2.399212122981961e+000	 2.717426390707532e+000	 1.071223061160353e+001
 2.370976306732918e+000	 2.742097072111629e+000	 1.069545260516727e+001
 2.342497545291958e+000	 2.766465298944899e+000	 1.068355786883788e+001
 2.313780701977259e+000	 2.790527524163510e+000	 1.067640030592876e+001
 2.284830708171130e+000	 2.814280304970386e+000	 1.067382252206731e+001
 2.580939751329999e+000	 2.580939751329999e+000	 1.094691836883614e+001
 2.554075584273098e+000	 2.607527163772341e+000	 1.088553237317935e+001
 2.526939005484393e+000	 2.633833567739539e+000	 1.082928157743732e+001
 2.499534444528111e+000	 2.659854800662312e+000	 1.077910142057219e+001
 2.471866415241984e+000	 2.685586793456022e+000	 1.075072965570963e+001
 2.443939513262254e+000	 2.711025572638294e+000	 1.072636040345387e+001
 2.415758413485365e+000	 2.736167262367800e+000	 1.070584547522066e+001
 2.387327867469234e+000	 2.761008086401982e+000	 1.068902568070108e+001
 2.358652700777156e+000	 2.785544369971671e+000	 1.067573111467395e+001
 2.329737810267437e+000	 2.809772541570662e+000	 1.066578147021087e+001
 2.300588161331918e+000	 2.833689134658449e+000	 1.065898637745017e+001
 2.598617420860000e+000	 2.598617420860000e+000	 1.092466722474605e+001
 2.571569252658698e+000	 2.625386938867181e+000	 1.086936500769055e+001
 2.544246806891880e+000	 2.651873523683562e+000	 1.081788165571452e+001
 2.516654543463250e+000	 2.678072984229111e+000	 1.077084672876684e+001
 2.488797007127235e+000	 2.703981223548745e+000	 1.073526857540491e+001
 2.460678824997041e+000	 2.729594240944460e+000	 1.071275354628817e+001
 2.432304703988950e+000	 2.754908134028068e+000	 1.069283193712108e+001
 2.403679428205795e+000	 2.779919100692336e+000	 1.067530826758458e+001
 2.374807856262675e+000	 2.804623440998443e+000	 1.065997748378634e+001
 2.345694918558021e+000	 2.829017558977813e+000	 1.064662530868487e+001
 2.316345614493208e+000	 2.853097964346514e+000	 1.063502861667041e+001
 2.616295090390000e+000	 2.616295090390000e+000	 1.090075676310532e+001
 2.589062921044304e+000	 2.643246713962023e+000	 1.085063031897257e+001
 2.561554608299387e+000	 2.669913479627586e+000	 1.080301940078781e+001
 2.533774642398432e+000	 2.696291167795910e+000	 1.075853512978572e+001
 2.505727599012566e+000	 2.722375653641469e+000	 1.071779816570471e+001
 2.477418136731954e+000	 2.748162909250627e+000	 1.069313976639812e+001
 2.448850994492716e+000	 2.773649005688336e+000	 1.067313914302701e+001
 2.420030988942601e+000	 2.798830114982690e+000	 1.065426433988410e+001
 2.390963011748515e+000	 2.823702512025216e+000	 1.063627540782242e+001
 2.361652026849012e+000	 2.848262576384966e+000	 1.061892433306820e+001
 2.332103067654998e+000	 2.872506794034578e+000	 1.060195544748989e+001
 2.633972759920000e+000	 2.633972759920000e+000	 1.087533342764197e+001
 2.606556589429916e+000	 2.661106489056865e+000	 1.082948895200726e+001
 2.578862409706913e+000	 2.687953435571610e+000	 1.078486918982728e+001
 2.550894741333660e+000	 2.714509351362708e+000	 1.074206755578073e+001
 2.522658190897978e+000	 2.740770083734193e+000	 1.070168869848741e+001
 2.494157448466993e+000	 2.766731577556793e+000	 1.066745215537747e+001
 2.465397284996662e+000	 2.792389877348606e+000	 1.064671497839742e+001
 2.436382549679655e+000	 2.817741129273045e+000	 1.062585622428579e+001
 2.407118167234677e+000	 2.842781583051988e+000	 1.060460129525672e+001
 2.377609135140408e+000	 2.867507593792117e+000	 1.058266866760429e+001
 2.347860520817291e+000	 2.891915623722642e+000	 1.055977033754612e+001
 2.651650429450000e+000	 2.651650429450000e+000	 1.084854490904095e+001
 2.624050257815533e+000	 2.678966264151706e+000	 1.080610236263170e+001
 2.596170211114461e+000	 2.705993391515634e+000	 1.076360578458528e+001
 2.568014840268935e+000	 2.732727534929508e+000	 1.072163161096970e+001
 2.539588782783472e+000	 2.759164513826918e+000	 1.068076920502816e+001
 2.510896760202157e+000	 2.785300245862960e+000	 1.064161934014975e+001
 2.481943575500790e+000	 2.811130749008874e+000	 1.061350611043691e+001
 2.452734110416955e+000	 2.836652143563399e+000	 1.059004465500819e+001
 2.423273322721160e+000	 2.861860654078760e+000	 1.056492959882999e+001
 2.393566243432212e+000	 2.886752611199269e+000	 1.053784612864486e+001
 2.363617973980084e+000	 2.911324453410707e+000	 1.050847410568966e+001
 2.206043442374710e+000	 2.717236156530064e+000	 1.061075759178654e+001
 2.177871437755532e+000	 2.739867880138052e+000	 1.059645449984710e+001
 2.149484031319626e+000	 2.762194489733196e+000	 1.057713547105732e+001
 2.120886165222104e+000	 2.784212972132168e+000	 1.055230521341636e+001
 2.092082836316265e+000	 2.805920420471948e+000	 1.052147021009777e+001
 2.063079093308326e+000	 2.827314035404899e+000	 1.048413939024544e+001
 2.033880033882548e+000	 2.848391126202985e+000	 1.043982480240204e+001
 2.004490801800128e+000	 2.869149111770381e+000	 1.038804228909071e+001
 1.974916583975221e+000	 2.889585521563813e+000	 1.032831216106245e+001
 1.945162607531509e+000	 2.909697996420158e+000	 1.026015986971613e+001
 1.915234136842688e+000	 2.929484289290938e+000	 1.018311667620002e+001
 2.221800895532991e+000	 2.736644986218128e+000	 1.064172543793971e+001
 2.193427662309230e+000	 2.759438364994201e+000	 1.061611115248878e+001
 2.164837488684345e+000	 2.781924450371677e+000	 1.058749730379506e+001
 2.136035352114552e+000	 2.804100207644489e+000	 1.055543584299316e+001
 2.107026285144963e+000	 2.825962709186313e+000	 1.051947820962936e+001
 2.077815372543980e+000	 2.847509135654169e+000	 1.047917596859653e+001
 2.048407748407898e+000	 2.868736777100538e+000	 1.043408145316457e+001
 2.018808593239061e+000	 2.889643033993193e+000	 1.038374841264972e+001
 1.989023131001014e+000	 2.910225418142124e+000	 1.032773266325027e+001
 1.959056626154036e+000	 2.930481553533042e+000	 1.026559274056317e+001
 1.928914380674490e+000	 2.950409177067122e+000	 1.019689055228830e+001
 2.237558348691774e+000	 2.756053815906193e+000	 1.066349605331149e+001
 2.208983886863519e+000	 2.779008849850348e+000	 1.062789764548927e+001
 2.180190946049723e+000	 2.801654411010157e+000	 1.059129275726430e+001
 2.151184539007711e+000	 2.823987443156810e+000	 1.055327995494455e+001
 2.121969733974401e+000	 2.846004997900678e+000	 1.051345502070801e+001
 2.092551651780386e+000	 2.867704235903441e+000	 1.047141155622558e+001
 2.062935462933988e+000	 2.889082427998092e+000	 1.042674159582586e+001
 2.033126384678703e+000	 2.910136956216005e+000	 1.037903622776717e+001
 2.003129678027465e+000	 2.930865314720434e+000	 1.032788622215803e+001
 1.972950644777149e+000	 2.951265110645926e+000	 1.027288266404700e+001
 1.942594624506790e+000	 2.971334064843307e+000	 1.021361759018749e+001
 2.253315801851058e+000	 2.775462645594258e+000	 1.067609085629355e+001
 2.224540111418400e+000	 2.798579334706496e+000	 1.063180953749334e+001
 2.195544403415763e+000	 2.821384371648636e+000	 1.058849215869683e+001
 2.166333725901581e+000	 2.843874678669132e+000	 1.054578328403157e+001
 2.136913182804580e+000	 2.866047286615044e+000	 1.050332243471300e+001
 2.107287931017540e+000	 2.887899336152712e+000	 1.046074465989793e+001
 2.077463177460816e+000	 2.909428078895646e+000	 1.041768112051006e+001
 2.047444176119055e+000	 2.930630878438818e+000	 1.037375968462390e+001
 2.017236225054575e+000	 2.951505211298745e+000	 1.032860553296136e+001
 1.986844663400851e+000	 2.972048667758809e+000	 1.028184177302801e+001
 1.956274868339587e+000	 2.992258952619491e+000	 1.023309006039158e+001
 2.269073255010843e+000	 2.794871475282322e+000	 1.067952800749250e+001
 2.240096335973872e+000	 2.818149819562644e+000	 1.062783986460810e+001
 2.210897860782464e+000	 2.841114332287116e+000	 1.057906403193240e+001
 2.181482912796160e+000	 2.863761914181454e+000	 1.053289046435167e+001
 2.151856631635498e+000	 2.886089575329409e+000	 1.048900182836782e+001
 2.122024210255444e+000	 2.908094436401985e+000	 1.044707404071867e+001
 2.091990891988382e+000	 2.929773729793199e+000	 1.040677682338406e+001
 2.061761967560114e+000	 2.951124800661631e+000	 1.036777427358588e+001
 2.031342772082342e+000	 2.972145107877056e+000	 1.032972544734760e+001
 2.000738682025140e+000	 2.992832224871693e+000	 1.029228495514528e+001
 1.969955112172882e+000	 3.013183840395675e+000	 1.025510356815015e+001
 2.284830708171130e+000	 2.814280304970386e+000	 1.067382252206731e+001
 2.255652560529935e+000	 2.837720304418793e+000	 1.061597922738730e+001
 2.226251318149826e+000	 2.860844292925596e+000	 1.056297515960471e+001
 2.196632099691450e+000	 2.883649149693774e+000	 1.051454506729257e+001
 2.166800080467156e+000	 2.906131864043775e+000	 1.047041417803880e+001
 2.136760489494098e+000	 2.928289536651255e+000	 1.043029870536222e+001
 2.106518606516688e+000	 2.950119380690753e+000	 1.039390637541443e+001
 2.076079759001881e+000	 2.971618722884443e+000	 1.036093697209444e+001
 2.045449319110767e+000	 2.992785004455368e+000	 1.033108289915321e+001
 2.014632700650016e+000	 3.013615781984577e+000	 1.030402975782424e+001
 1.983635356006674e+000	 3.034108728171860e+000	 1.027945693847683e+001
 2.300588161331918e+000	 2.833689134658449e+000	 1.065898637745017e+001
 2.271208785086590e+000	 2.857290789274941e+000	 1.059621587424050e+001
 2.241604775517849e+000	 2.880574253564076e+000	 1.054019064277163e+001
 2.211781286587451e+000	 2.903536385206097e+000	 1.049068963792655e+001
 2.181743529299555e+000	 2.926174152758140e+000	 1.044748007344583e+001
 2.151496768733500e+000	 2.948484636900527e+000	 1.041031789766248e+001
 2.121046321045732e+000	 2.970465031588305e+000	 1.037894829240880e+001
 2.090397550444356e+000	 2.992112645107255e+000	 1.035310619373909e+001
 2.059555866139849e+000	 3.013424901033678e+000	 1.033251683305728e+001
 2.028526719275481e+000	 3.034399339097460e+000	 1.031689629718798e+001
 1.997315599840964e+000	 3.055033615948044e+000	 1.030595210588357e+001
 2.316345614493208e+000	 2.853097964346514e+000	 1.063502861667041e+001
 2.286765009643835e+000	 2.876861274131089e+000	 1.056853578143813e+001
 2.256958232886533e+000	 2.900304214202556e+000	 1.051067395811170e+001
 2.226930473484163e+000	 2.923423620718418e+000	 1.046126572991910e+001
 2.196686978132694e+000	 2.946216441472505e+000	 1.042011973081368e+001
 2.166233047973652e+000	 2.968679737149798e+000	 1.038703109054618e+001
 2.135574035575516e+000	 2.990810682485858e+000	 1.036178190627952e+001
 2.104715341887540e+000	 3.012606567330067e+000	 1.034414173940882e+001
 2.073662413169589e+000	 3.034064797611989e+000	 1.033386813618575e+001
 2.042420737901532e+000	 3.055182896210345e+000	 1.033070717068683e+001
 2.010995843675750e+000	 3.075958503724228e+000	 1.033439400861511e+001
 2.332103067654998e+000	 2.872506794034578e+000	 1.060195544748989e+001
 2.302321234201673e+000	 2.896431758987238e+000	 1.053292272987281e+001
 2.272311690255878e+000	 2.920034174841036e+000	 1.047438701280192e+001
 2.242079660381585e+000	 2.943310856230740e+000	 1.042621393902225e+001
 2.211630426966572e+000	 2.966258730186870e+000	 1.038825300549009e+001
 2.180969327214554e+000	 2.988874837399069e+000	 1.036033797829320e+001
 2.150101750106038e+000	 3.011156333383411e+000	 1.034228733747255e+001
 2.119033133331432e+000	 3.033100489552880e+000	 1.033390475042394e+001
 2.087768960199988e+000	 3.054704694190300e+000	 1.033497957248781e+001
 2.056314756528171e+000	 3.075966453323229e+000	 1.034528737326942e+001
 2.024676087511034e+000	 3.096883391500412e+000	 1.036459048717176e+001
 2.347860520817291e+000	 2.891915623722642e+000	 1.055977033754612e+001
 2.317877458760101e+000	 2.916002243843385e+000	 1.048935837872992e+001
 2.287665147625883e+000	 2.939764135479516e+000	 1.043129019718547e+001
 2.257228847279718e+000	 2.963198091743061e+000	 1.038547393521953e+001
 2.226573875801191e+000	 2.986301018901236e+000	 1.035179940405559e+001
 2.195705606456205e+000	 3.009069937648340e+000	 1.033013846910866e+001
 2.164629464637300e+000	 3.031501984280965e+000	 1.032034546850694e+001
 2.133350924776032e+000	 3.053594411775692e+000	 1.032225766355523e+001
 2.101875507231044e+000	 3.075344590768612e+000	 1.033569571975572e+001
 2.070208775155397e+000	 3.096750010436112e+000	 1.036046421693008e+001
 2.038356331346816e+000	 3.117808279276597e+000	 1.039635218691824e+001
 2.363617973980084e+000	 2.911324453410707e+000	 1.050847410568966e+001
 2.333433683319122e+000	 2.935572728699535e+000	 1.043782233621094e+001
 2.303018604996550e+000	 2.959494096117997e+000	 1.038134243533283e+001
 2.272378034178562e+000	 2.983085327255383e+000	 1.033898449358479e+001
 2.241517324636550e+000	 3.006343307615601e+000	 1.031067809594935e+001
 2.210441885698607e+000	 3.029265037897612e+000	 1.029633267799203e+001
 2.179157179169300e+000	 3.051847635178518e+000	 1.029583791857196e+001
 2.147668716221342e+000	 3.074088333998506e+000	 1.030906416784210e+001
 2.115982054262759e+000	 3.095984487346924e+000	 1.033586290916293e+001
 2.084102793783212e+000	 3.117533567548997e+000	 1.037606725347357e+001
 2.052036575183095e+000	 3.138733167052782e+000	 1.027934675671293e+001
 1.915234136842688e+000	 2.929484289290938e+000	 1.018311667620002e+001
 1.885136470559467e+000	 2.948942265883543e+000	 1.004304928057711e+001
 1.854874938628939e+000	 2.968069905208957e+000	 9.940933536766680e+000
 1.824454899308038e+000	 2.986865300036170e+000	 9.865524566327716e+000
 1.793881736172811e+000	 3.005326657253558e+000	 9.804410011937982e+000
 1.763160855129283e+000	 3.023452298137441e+000	 9.757180812072340e+000
 1.732297681428427e+000	 3.041240658528325e+000	 9.723425779393452e+000
 1.701297656688460e+000	 3.058690288915435e+000	 9.702732813493386e+000
 1.670166235927714e+000	 3.075799854430276e+000	 9.694690091979469e+000
 1.638908884611238e+000	 3.092568134750086e+000	 9.698887237027217e+000
 1.607531075714235e+000	 3.108994023912138e+000	 9.714916454645993e+000
 1.928914380674490e+000	 2.950409177067122e+000	 1.019689055228830e+001
 1.898601731060612e+000	 2.970006139206823e+000	 1.007969503946908e+001
 1.868124045330562e+000	 2.989270404527509e+000	 9.984618836458040e+000
 1.837486720014539e+000	 3.008200052175089e+000	 9.931056966701059e+000
 1.806695177142703e+000	 3.026793276230001e+000	 9.892172276871476e+000
 1.775754861234695e+000	 3.045048385977679e+000	 9.867535583012518e+000
 1.744671236293278e+000	 3.062963806086061e+000	 9.856715409563835e+000
 1.713449782805372e+000	 3.080538076690723e+000	 9.859279239969126e+000
 1.682095994753727e+000	 3.097769853388399e+000	 9.874794745235194e+000
 1.650615376642425e+000	 3.114657907139728e+000	 9.902830987482030e+000
 1.619013440539351e+000	 3.131201124082256e+000	 9.866243452435176e+000
 1.942594624506790e+000	 2.971334064843307e+000	 1.021361759018749e+001
 1.912066991562159e+000	 2.991070012530103e+000	 1.011949081200725e+001
 1.881373152032502e+000	 3.010470903846060e+000	 1.004023086374261e+001
 1.850518540721282e+000	 3.029534804314007e+000	 1.000200043386915e+001
 1.819508618112772e+000	 3.048259895206442e+000	 9.985600933179487e+000
 1.788348867340229e+000	 3.066644473817915e+000	 9.983806057695388e+000
 1.757044791158208e+000	 3.084686953643796e+000	 9.996163621650029e+000
 1.725601908922329e+000	 3.102385864466013e+000	 1.002222027845742e+001
 1.694025753579759e+000	 3.119739852346521e+000	 1.006152278733470e+001
 1.662321868673618e+000	 3.136747679529371e+000	 9.969357178799216e+000
 1.630495805364467e+000	 3.153408224252373e+000	 9.826766735384167e+000
 1.956274868339587e+000	 2.992258952619491e+000	 1.023309006039158e+001
 1.925532252064109e+000	 3.012133885853384e+000	 1.016222798304750e+001
 1.894622258734761e+000	 3.031671403164613e+000	 1.010675420241399e+001
 1.863550361428269e+000	 3.050869556452928e+000	 1.007811828107342e+001
 1.832322059083021e+000	 3.069726514182885e+000	 1.008446097547241e+001
 1.800942873445888e+000	 3.088240561658154e+000	 1.010575903055508e+001
 1.769418346023218e+000	 3.106410101201532e+000	 1.014153912473314e+001
 1.737754035039331e+000	 3.124233652241302e+000	 1.019132666383905e+001
 1.705955512405812e+000	 3.141709851304644e+000	 1.005108475377127e+001
 1.674028360704815e+000	 3.158837451919015e+000	 9.915690776612992e+000
 1.641978170189583e+000	 3.175615324422491e+000	 9.794335031210872e+000
 1.969955112172882e+000	 3.013183840395675e+000	 1.025510356815015e+001
 1.938997512566461e+000	 3.033197759176664e+000	 1.020770132616964e+001
 1.907871365437337e+000	 3.052871902483164e+000	 1.017620706985783e+001
 1.876582182135497e+000	 3.072204308591847e+000	 1.016064571409108e+001
 1.845135500053447e+000	 3.091193133159327e+000	 1.018852093033560e+001
 1.813536879551670e+000	 3.109836649498390e+000	 1.023316486949451e+001
 1.781791900888305e+000	 3.128133248759268e+000	 1.025510038775378e+001
 1.749906161156377e+000	 3.146081440016592e+000	 1.011176304666959e+001
 1.717885271231884e+000	 3.163679850262765e+000	 9.982966101673478e+000
 1.685734852736017e+000	 3.180927224308658e+000	 9.868636151871936e+000
 1.653460535014698e+000	 3.197822424592608e+000	 9.768689246407856e+000
 1.983635356006674e+000	 3.034108728171860e+000	 1.027945693847683e+001
 1.952462773069216e+000	 3.054261632499945e+000	 1.025570888682512e+001
 1.921120472140230e+000	 3.074072401801716e+000	 1.024838687678308e+001
 1.889614002842969e+000	 3.093539060730766e+000	 1.025750955593647e+001
 1.857948941024052e+000	 3.112659752135769e+000	 1.029755273453673e+001
 1.826130885657575e+000	 3.131432737338627e+000	 1.028954312480033e+001
 1.794165455753472e+000	 3.149856396317004e+000	 1.015174413912392e+001
 1.762058287273467e+000	 3.167929227791880e+000	 1.002892862688851e+001
 1.729815030057976e+000	 3.185649849220887e+000	 9.921021464995789e+000
 1.697441344767224e+000	 3.203016996698300e+000	 9.827935803146469e+000
 1.664942899839814e+000	 3.220029524762726e+000	 9.749573892451497e+000
 1.997315599840964e+000	 3.055033615948044e+000	 1.030595210588357e+001
 1.965928033572373e+000	 3.075325505823225e+000	 1.030605187028643e+001
 1.934369578843441e+000	 3.095272901120267e+000	 1.032309424115172e+001
 1.902645823550684e+000	 3.114873812869684e+000	 1.035709143974901e+001
 1.870762381994835e+000	 3.134126371112212e+000	 1.030429960511107e+001
 1.838724891763604e+000	 3.153028825178865e+000	 1.017139678169649e+001
 1.806539010618718e+000	 3.171579543874740e+000	 1.005393090634301e+001
 1.774210413390602e+000	 3.189777015567169e+000	 9.951826442924096e+000
 1.741744788884087e+000	 3.207619848179009e+000	 9.864994900805021e+000
 1.709147836798436e+000	 3.225106769087943e+000	 9.793335686520868e+000
 1.676425264664929e+000	 3.242236624932843e+000	 9.736736962343670e+000
 2.010995843675750e+000	 3.075958503724228e+000	 1.033439400861511e+001
 1.979393294075933e+000	 3.096389379146505e+000	 1.035853453417033e+001
 1.947618685546970e+000	 3.116473400438819e+000	 1.040013287908847e+001
 1.915677644258642e+000	 3.136208565008604e+000	 1.032938513638400e+001
 1.883575822965795e+000	 3.155592990088653e+000	 1.017722254209973e+001
 1.851318897869757e+000	 3.174624913019101e+000	 1.005834358368669e+001
 1.818912565484043e+000	 3.193302691432475e+000	 9.961404627555533e+000
 1.786362539507781e+000	 3.211624803342458e+000	 9.880202078779993e+000
 1.753674547710218e+000	 3.229589847137131e+000	 9.814633780045917e+000
 1.720854328829653e+000	 3.247196541477585e+000	 9.764585097990706e+000
 1.687907629490045e+000	 3.264443725102961e+000	 9.729929812192406e+000
 2.024676087511034e+000	 3.096883391500412e+000	 1.036459048717176e+001
 1.992858554579895e+000	 3.117453252469786e+000	 1.041296408531798e+001
 1.960867792250816e+000	 3.137673899757371e+000	 1.033482409456903e+001
 1.928709464966843e+000	 3.157543317147523e+000	 1.018745655192308e+001
 1.896389263936935e+000	 3.177059609065096e+000	 1.005658419147555e+001
 1.863912903976033e+000	 3.196221000859338e+000	 9.950129077039284e+000
 1.831286120349447e+000	 3.215025838990211e+000	 9.873912384292865e+000
 1.798514665625005e+000	 3.233472591117748e+000	 9.813804292485539e+000
 1.765604306536369e+000	 3.251559846095253e+000	 9.769688675585956e+000
 1.732560820860875e+000	 3.269286313867229e+000	 9.741436560627934e+000
 1.699389994315161e+000	 3.286650825273078e+000	 9.728907047593634e+000
 2.038356331346816e+000	 3.117808279276597e+000	 1.039635218691824e+001
 2.006323815084259e+000	 3.138517125793066e+000	 1.031797121857554e+001
 1.974116898954979e+000	 3.158874399075922e+000	 1.017543652975553e+001
 1.941741285675286e+000	 3.178878069286442e+000	 1.004882085766194e+001
 1.909202704908252e+000	 3.198526228041538e+000	 9.939136422272680e+000
 1.876506910082433e+000	 3.217817088699575e+000	 9.847368843342775e+000
 1.843659675214930e+000	 3.236748986547947e+000	 9.791204295990200e+000
 1.810666791742272e+000	 3.255320378893037e+000	 9.752384909584830e+000
 1.777534065362540e+000	 3.273529845053375e+000	 9.729913254768066e+000
 1.744267312892101e+000	 3.291376086256872e+000	 9.723645716289958e+000
 1.710872359140276e+000	 3.308857925443196e+000	 9.733426414587811e+000
 2.052036575183095e+000	 3.138733167052782e+000	 1.027934675671293e+001
 2.019789075589026e+000	 3.159580999116348e+000	 1.014179216296854e+001
 1.987366005659461e+000	 3.180074898394475e+000	 1.001950108492152e+001
 1.954773106383973e+000	 3.200212821425363e+000	 9.913535263827848e+000
 1.922016145879748e+000	 3.219992847017981e+000	 9.824931238198866e+000
 1.889100916188957e+000	 3.239413176539813e+000	 9.754698366037427e+000
 1.856033230080492e+000	 3.258472134105683e+000	 9.713033418723475e+000
 1.822818917859585e+000	 3.277168166668327e+000	 9.695698720886051e+000
 1.789463824188730e+000	 3.295499844011498e+000	 9.695064176261527e+000
 1.755973804923333e+000	 3.313465858646516e+000	 9.710971221659849e+000
 1.722354723965393e+000	 3.331065025613313e+000	 9.743248694978442e+000
 1.607531075714235e+000	 3.108994023912138e+000	 9.714916454645993e+000
 1.576038286805698e+000	 3.125076530040452e+000	 9.766606040016368e+000
 1.544435997154201e+000	 3.140814774984898e+000	 9.635527298193759e+000
 1.512729684859719e+000	 3.156207993874709e+000	 9.519785733352215e+000
 1.480924824014684e+000	 3.171255534588795e+000	 9.419366101320033e+000
 1.449026881896090e+000	 3.185956857143146e+000	 9.334244627193710e+000
 1.417041316191712e+000	 3.200311532997376e+000	 9.264389665041422e+000
 1.384973572263021e+000	 3.214319244282112e+000	 9.209762352776551e+000
 1.352829080447324e+000	 3.227979782949084e+000	 9.170317260389927e+000
 1.320613253401519e+000	 3.241293049845800e+000	 9.146003029799237e+000
 1.288331483489811e+000	 3.254259053716808e+000	 9.136763004647220e+000
 1.619013440539351e+000	 3.131201124082256e+000	 9.866243452435176e+000
 1.587295703138929e+000	 3.147398505255050e+000	 9.740599702002037e+000
 1.555467682847306e+000	 3.163249166235358e+000	 9.627848396585383e+000
 1.523534896893743e+000	 3.178752336689058e+000	 9.527930165228929e+000
 1.491502858471334e+000	 3.193907359837046e+000	 9.440779208638853e+000
 1.459377073909050e+000	 3.208713691838291e+000	 9.366323994686244e+000
 1.427163039878152e+000	 3.223170901091399e+000	 9.304487946857519e+000
 1.394866240635550e+000	 3.237278667456502e+000	 9.255190123769069e+000
 1.362492145306674e+000	 3.251036781399277e+000	 9.218345887937721e+000
 1.330046205210258e+000	 3.264445143058997e+000	 9.193867562076179e+000
 1.297533851227396e+000	 3.277503761242674e+000	 9.181665071266501e+000
 1.630495805364467e+000	 3.153408224252373e+000	 9.826766735384167e+000
 1.598553119472159e+000	 3.169720480469653e+000	 9.720771554245966e+000
 1.566499368540411e+000	 3.185683557485841e+000	 9.625253990979195e+000
 1.534340108927768e+000	 3.201296679503453e+000	 9.540101463979852e+000
 1.502080892927984e+000	 3.216559185085382e+000	 9.465197704680250e+000
 1.469727265922010e+000	 3.231470526533562e+000	 9.400423486271935e+000
 1.437284763564592e+000	 3.246030269185602e+000	 9.345657341297391e+000
 1.404758909008079e+000	 3.260238090631141e+000	 9.300776266220030e+000
 1.372155210166024e+000	 3.274093779849795e+000	 9.265656411165288e+000
 1.339479157018998e+000	 3.287597236272605e+000	 9.240173753112744e+000
 1.306736218964982e+000	 3.300748468769045e+000	 9.224204750910534e+000
 1.641978170189583e+000	 3.175615324422491e+000	 9.794335031210872e+000
 1.609810535805390e+000	 3.192042455684259e+000	 9.706888044144050e+000
 1.577531054233516e+000	 3.208117948736343e+000	 9.627539083155927e+000
 1.545145320961793e+000	 3.223841022317894e+000	 9.556122454366477e+000
 1.512658927384634e+000	 3.239211010333797e+000	 9.492471495167321e+000
 1.480077457934971e+000	 3.254227361228961e+000	 9.436419336544105e+000
 1.447406487251032e+000	 3.268889637279991e+000	 9.387799650208619e+000
 1.414651577380608e+000	 3.283197513806030e+000	 9.346447378642150e+000
 1.381818275025374e+000	 3.297150778300636e+000	 9.312199446243335e+000
 1.348912108827738e+000	 3.310749329486621e+000	 9.284895449869328e+000
 1.315938586702568e+000	 3.323993176295921e+000	 9.264378327159603e+000
 1.653460535014698e+000	 3.197822424592608e+000	 9.768689246407856e+000
 1.621067952138621e+000	 3.214364430898872e+000	 9.698718620748922e+000
 1.588562739926621e+000	 3.230552339986867e+000	 9.634500965248261e+000
 1.555950532995817e+000	 3.246385365132382e+000	 9.575817561194164e+000
 1.523236961841284e+000	 3.261862835582296e+000	 9.522451416766600e+000
 1.490427649947932e+000	 3.276984195924488e+000	 9.474188063342565e+000
 1.457528210937472e+000	 3.291749005374561e+000	 9.430816332572793e+000
 1.424544245753136e+000	 3.306156936981168e+000	 9.392129112320406e+000
 1.391481339884724e+000	 3.320207776751802e+000	 9.357924079654953e+000
 1.358345060636478e+000	 3.333901422701050e+000	 9.328004409197622e+000
 1.325140954440153e+000	 3.347237883823303e+000	 9.302179455224749e+000
 1.664942899839814e+000	 3.220029524762726e+000	 9.749573892451497e+000
 1.632325368471851e+000	 3.236686406113489e+000	 9.696035631264797e+000
 1.599594425619725e+000	 3.252986731237410e+000	 9.645939140763124e+000
 1.566755745029842e+000	 3.268929707946914e+000	 9.599012754138371e+000
 1.533814996297935e+000	 3.284514660830876e+000	 9.554989204986544e+000
 1.500777841960892e+000	 3.299741030620142e+000	 9.513606457986416e+000
 1.467649934623912e+000	 3.314608373469317e+000	 9.474608516328306e+000
 1.434436914125665e+000	 3.329116360156554e+000	 9.437746203974930e+000
 1.401144404744074e+000	 3.343264775203294e+000	 9.402777920943468e+000
 1.367778012445217e+000	 3.357053515915887e+000	 9.369470369913440e+000
 1.334343322177739e+000	 3.370482591351189e+000	 9.337599252581253e+000
 1.676425264664929e+000	 3.242236624932843e+000	 9.736736962343670e+000
 1.643582784805082e+000	 3.259008381328112e+000	 9.698614221795518e+000
 1.610626111312830e+000	 3.275421122487975e+000	 9.661655248849792e+000
 1.577560957063866e+000	 3.291474050761495e+000	 9.625535494837807e+000
 1.544393030754585e+000	 3.307166486079536e+000	 9.589937463395314e+000
 1.511128033973852e+000	 3.322497865315922e+000	 9.554551575908294e+000
 1.477771658310352e+000	 3.337467741564254e+000	 9.519077009707711e+000
 1.444329582498193e+000	 3.352075783332190e+000	 9.483222507081791e+000
 1.410807469603424e+000	 3.366321773655109e+000	 9.446707153292797e+000
 1.377210964253957e+000	 3.380205609131133e+000	 9.409261121907505e+000
 1.343545689915324e+000	 3.393727298879581e+000	 9.370626385877392e+000
 1.687907629490045e+000	 3.264443725102961e+000	 9.729929812192406e+000
 1.654840201138312e+000	 3.281330356542740e+000	 9.706232242144075e+000
 1.621657797005935e+000	 3.297855513738559e+000	 9.681452991658802e+000
 1.588366169097891e+000	 3.314018393576120e+000	 9.655214686147689e+000
 1.554971065211234e+000	 3.329818311328278e+000	 9.627149634094860e+000
 1.521478225986813e+000	 3.345254700011833e+000	 9.596900727671073e+000
 1.487893381996792e+000	 3.360327109659375e+000	 9.564122312111829e+000
 1.454222250870722e+000	 3.375035206508074e+000	 9.528481021915310e+000
 1.420470534462774e+000	 3.389378772107250e+000	 9.489656582042791e+000
 1.386643916062697e+000	 3.403357702346791e+000	 9.447342572435455e+000
 1.352748057652909e+000	 3.416972006408478e+000	 9.401247154295833e+000
 1.699389994315161e+000	 3.286650825273078e+000	 9.728907047593634e+000
 1.666097617471543e+000	 3.303652331757373e+000	 9.718670154471237e+000
 1.632689482699040e+000	 3.320289904989165e+000	 9.705138064646237e+000
 1.599171381131915e+000	 3.336562736390792e+000	 9.687880623449836e+000
 1.565549099667884e+000	 3.352470136577104e+000	 9.666479969392089e+000
 1.531828417999774e+000	 3.368011534707868e+000	 9.640531470348424e+000
 1.498015105683233e+000	 3.383186477754680e+000	 9.609644624543440e+000
 1.464114919243251e+000	 3.397994629684207e+000	 9.573443924372411e+000
 1.430133599322125e+000	 3.412435770559716e+000	 9.531569681238203e+000
 1.396076867871437e+000	 3.426509795562858e+000	 9.483678809720296e+000
 1.361950425390495e+000	 3.440216713937880e+000	 9.429445569535691e+000
 1.710872359140276e+000	 3.308857925443196e+000	 9.733426414587811e+000
 1.677355033804773e+000	 3.325974306972011e+000	 9.735710945632542e+000
 1.643721168392145e+000	 3.342724296239791e+000	 9.732518089684014e+000
 1.609976593165940e+000	 3.359107079205510e+000	 9.723364947923686e+000
 1.576127134124535e+000	 3.375121961826010e+000	 9.707783504610895e+000
 1.542178610012734e+000	 3.390768369404033e+000	 9.685321599252795e+000
 1.508136829369672e+000	 3.406045845850167e+000	 9.655543859620472e+000
 1.474007587615779e+000	 3.420954052860590e+000	 9.618032593636276e+000
 1.439796664181474e+000	 3.435492769012503e+000	 9.572388638302988e+000
 1.405509819680177e+000	 3.449661888779335e+000	 9.518232163993865e+000
 1.371152793128081e+000	 3.463461421467788e+000	 9.455203432573596e+000
 1.722354723965393e+000	 3.331065025613313e+000	 9.743248694978442e+000
 1.688612450138004e+000	 3.348296282186655e+000	 9.757140043022044e+000
 1.654752854085250e+000	 3.365158687490438e+000	 9.763402550846255e+000
 1.620781805199965e+000	 3.381651422020275e+000	 9.761500601686247e+000
 1.586705168581185e+000	 3.397773787075000e+000	 9.750916031991418e+000
 1.552528802025695e+000	 3.413525204100325e+000	 9.731149139993987e+000
 1.518258553056114e+000	 3.428905213945840e+000	 9.701719651188984e+000
 1.483900255988309e+000	 3.443913476037222e+000	 9.662167638733521e+000
 1.449459729040825e+000	 3.458549767465619e+000	 9.612054396927556e+000
 1.414942771488917e+000	 3.472813981996224e+000	 9.550963266096494e+000
 1.380355160865667e+000	 3.486706128998200e+000	 9.478500407354563e+000
 1.288331483489811e+000	 3.254259053716808e+000	 9.136763004647220e+000
 1.255989140217728e+000	 3.266877910132902e+000	 9.086756412211479e+000
 1.223591567714392e+000	 3.279149840352444e+000	 9.053108882028964e+000
 1.191144082264780e+000	 3.291075170115786e+000	 9.024868574169652e+000
 1.158651969894471e+000	 3.302654328373525e+000	 8.999647164708936e+000
 1.126120484008404e+000	 3.313887845952988e+000	 8.976793674991864e+000
 1.093554843085373e+000	 3.324776354164622e+000	 8.955691965665407e+000
 1.060960228429861e+000	 3.335320583350722e+000	 8.935762103988731e+000
 1.028341781982668e+000	 3.345521361378934e+000	 8.916461620421801e+000
 9.957046041917382e-001	 3.355379612083005e+000	 8.897286653335119e+000
 9.630537519444204e-001	 3.364896353653301e+000	 8.877772981039026e+000
 1.297533851227396e+000	 3.277503761242674e+000	 9.181665071266501e+000
 1.264960491217280e+000	 3.290212752346754e+000	 9.125018602581887e+000
 1.232331507481436e+000	 3.302572339210159e+000	 9.083782416097026e+000
 1.199652254278306e+000	 3.314582849899959e+000	 9.050747157618543e+000
 1.166928055390793e+000	 3.326244716430685e+000	 9.021058629618484e+000
 1.134164201748157e+000	 3.337558473421284e+000	 8.994040607620089e+000
 1.101365949104042e+000	 3.348524756691562e+000	 8.969051981720813e+000
 1.068538515772246e+000	 3.359144301800546e+000	 8.945488175624389e+000
 1.035687080421720e+000	 3.369417942529221e+000	 8.922782452822577e+000
 1.002816779932178e+000	 3.379346609310144e+000	 8.900407108702199e+000
 9.699327073115912e-001	 3.388931327606469e+000	 8.877874547714875e+000
 1.306736218964982e+000	 3.300748468769045e+000	 9.224204750910534e+000
 1.273931842216838e+000	 3.313547594561200e+000	 9.161280242100490e+000
 1.241071447248501e+000	 3.325994838068540e+000	 9.113072241361975e+000
 1.208160426291877e+000	 3.338090529684847e+000	 9.075851066315977e+000
 1.175204140887197e+000	 3.349835104488588e+000	 9.042281942553407e+000
 1.142207919488038e+000	 3.361229100890329e+000	 9.011662685804428e+000
 1.109177055122894e+000	 3.372273159219242e+000	 8.983326530208633e+000
 1.076116803114882e+000	 3.382968020251078e+000	 8.956643599762005e+000
 1.043032378861098e+000	 3.393314523680163e+000	 8.931022264726094e+000
 1.009928955673028e+000	 3.403313606537868e+000	 8.905910381706317e+000
 9.768116626792683e-001	 3.412966301560131e+000	 8.880796416476798e+000
 1.315938586702568e+000	 3.323993176295921e+000	 9.264378327159603e+000
 1.282903193216400e+000	 3.336882436776241e+000	 9.195535548818935e+000
 1.249811387015587e+000	 3.349417336927583e+000	 9.140809759941636e+000
 1.216668598305496e+000	 3.361598209470447e+000	 9.100015976018719e+000
 1.183480226383683e+000	 3.373425492547229e+000	 9.063157299735702e+000
 1.150251637228048e+000	 3.384899728360124e+000	 9.029504865137291e+000
 1.116988161141931e+000	 3.396021561747658e+000	 8.998365557064762e+000
 1.083695090457767e+000	 3.406791738702315e+000	 8.969083535721074e+000
 1.050377677300801e+000	 3.417211104831760e+000	 8.941041643951342e+000
 1.017041131414290e+000	 3.427280603766174e+000	 8.913662695876642e+000
 9.836906180474517e-001	 3.437001275514286e+000	 8.886410645898289e+000
 1.325140954440153e+000	 3.347237883823303e+000	 9.302179455224749e+000
 1.291874544215968e+000	 3.360217278991877e+000	 9.227776254794360e+000
 1.258551326782692e+000	 3.372839835787290e+000	 9.168110379298023e+000
 1.225176770319160e+000	 3.385105889256760e+000	 9.123075337121033e+000
 1.191756311880251e+000	 3.397015880606614e+000	 9.083522790269550e+000
 1.158295354968185e+000	 3.408570355830670e+000	 9.047410104290258e+000
 1.124799267161153e+000	 3.419769964276813e+000	 9.014017113459319e+000
 1.091273377800902e+000	 3.430615457154258e+000	 8.982661342178826e+000
 1.057722975740830e+000	 3.441107685984012e+000	 8.952699463782640e+000
 1.024153307155962e+000	 3.451247600995065e+000	 8.923528638319546e+000
 9.905695734161415e-001	 3.461036249468935e+000	 8.894587728270068e+000
 1.334343322177739e+000	 3.370482591351189e+000	 9.337599252581253e+000
 1.300845895215541e+000	 3.383552121208107e+000	 9.257991691813377e+000
 1.267291266549819e+000	 3.396262334647662e+000	 9.193753734550931e+000
 1.233684942332871e+000	 3.408613569043786e+000	 9.144860451391576e+000
 1.200032397376902e+000	 3.420606268666740e+000	 9.103214468800848e+000
 1.166339072708451e+000	 3.432240983301965e+000	 9.065219433873581e+000
 1.132610373180557e+000	 3.443518366806705e+000	 9.030127421133244e+000
 1.098851665144288e+000	 3.454439175606909e+000	 8.997228639261282e+000
 1.065068274181185e+000	 3.465004267136919e+000	 8.965852942091642e+000
 1.031265482898046e+000	 3.475214598224541e+000	 8.935371216146725e+000
 9.974485287853375e-001	 3.485071223424078e+000	 8.905196643610127e+000
 1.343545689915324e+000	 3.393727298879581e+000	 9.370626385877392e+000
 1.309817246215119e+000	 3.406886963424932e+000	 9.286168873593194e+000
 1.276031206316967e+000	 3.419684833508697e+000	 9.217698219154030e+000
 1.242193114346628e+000	 3.432121248831524e+000	 9.165200545556406e+000
 1.208308482873634e+000	 3.444196656727606e+000	 9.122066425190313e+000
 1.174382790448845e+000	 3.455911610774008e+000	 9.082772022465409e+000
 1.140421479200146e+000	 3.467266769337335e+000	 9.046540935050073e+000
 1.106429952487922e+000	 3.478262894060265e+000	 9.012635368082743e+000
 1.072413572621865e+000	 3.488900848290479e+000	 8.980357698029412e+000
 1.038377658640541e+000	 3.499181595454599e+000	 8.949051910584997e+000
 1.004327484155040e+000	 3.509106197379714e+000	 8.918104911453733e+000
 1.352748057652909e+000	 3.416972006408478e+000	 9.401247154295833e+000
 1.318788597214702e+000	 3.430221805642352e+000	 9.312292574627358e+000
 1.284771146084135e+000	 3.443107332370397e+000	 9.239927339563026e+000
 1.250701286360432e+000	 3.455628928619975e+000	 9.183952395018396e+000
 1.216584568370449e+000	 3.467787044789213e+000	 9.139910851342822e+000
 1.182426508189367e+000	 3.479582238246800e+000	 9.099905239946514e+000
 1.148232585219919e+000	 3.491015171868703e+000	 9.063100403490328e+000
 1.114008239831808e+000	 3.502086612514327e+000	 9.028729847855095e+000
 1.079758871062871e+000	 3.512797429444697e+000	 8.996067806404820e+000
 1.045489834383447e+000	 3.523148592685243e+000	 8.964430728876643e+000
 1.011206439525248e+000	 3.533141171335845e+000	 8.933178640529690e+000
 1.361950425390495e+000	 3.440216713937880e+000	 9.429445569535691e+000
 1.327759948214291e+000	 3.453556647860368e+000	 9.336345405835386e+000
 1.293511085851323e+000	 3.466529831232760e+000	 9.260422555574968e+000
 1.259209458374282e+000	 3.479136608409139e+000	 9.201472511829278e+000
 1.224860653867346e+000	 3.491377432851563e+000	 9.156578105327681e+000
 1.190470225930017e+000	 3.503252865720344e+000	 9.116454718266802e+000
 1.156043691239876e+000	 3.514763574400809e+000	 9.079646925709808e+000
 1.121586527175943e+000	 3.525910330969096e+000	 9.045358830681535e+000
 1.087104169504203e+000	 3.536694010599568e+000	 9.012835849858190e+000
 1.052602010126764e+000	 3.547115589916470e+000	 8.981366254076621e+000
 1.018085394895963e+000	 3.557176145292468e+000	 8.950282576422815e+000
 1.371152793128081e+000	 3.463461421467788e+000	 9.455203432573596e+000
 1.336731299213884e+000	 3.476891490078979e+000	 9.358307887165742e+000
 1.302251025618533e+000	 3.489952330095787e+000	 9.279163349008286e+000
 1.267717630388178e+000	 3.502644288199015e+000	 9.217559583433145e+000
 1.233136739364325e+000	 3.514967820914653e+000	 9.171896772916632e+000
 1.198513943670795e+000	 3.526923493194636e+000	 9.132254409765446e+000
 1.163854797260017e+000	 3.538511976933652e+000	 9.096020007275911e+000
 1.129164814520327e+000	 3.549734049424570e+000	 9.062367554144496e+000
 1.094449467945860e+000	 3.560590591755095e+000	 9.030512968934097e+000
 1.059714185870493e+000	 3.571082587148281e+000	 8.999715692843990e+000
 1.024964350267184e+000	 3.581211119249587e+000	 8.969280147317072e+000
 1.380355160865667e+000	 3.486706128998200e+000	 9.478500407354563e+000
 1.345702650213483e+000	 3.500226332298184e+000	 9.378158517294963e+000
 1.310990965385763e+000	 3.513374828959480e+000	 9.296127289635178e+000
 1.276225802402121e+000	 3.526151967989605e+000	 9.232190484515312e+000
 1.241412824861386e+000	 3.538558208978484e+000	 9.185693726660590e+000
 1.206557661411701e+000	 3.550594120669679e+000	 9.147136643157642e+000
 1.171665903280343e+000	 3.562260379467235e+000	 9.112057613190617e+000
 1.136743101864962e+000	 3.573557767880753e+000	 9.079599791789420e+000
 1.101794766387843e+000	 3.584487172911278e+000	 9.048948910151108e+000
 1.066826361614632e+000	 3.595049584380677e+000	 9.019334921321494e+000
 1.031843305638912e+000	 3.605246093207198e+000	 8.990033507908684e+000
 9.630537519444204e-001	 3.364896353653301e+000	 8.877772981039026e+000
 9.303942365624410e-001	 3.374072696980329e+000	 8.856302040884110e+000
 8.977310218600831e-001	 3.382909843951724e+000	 8.834532568725653e+000
 8.650690222672622e-001	 3.391409085706569e+000	 8.812118244715723e+000
 8.324131010182233e-001	 3.399571800851111e+000	 8.788754792738384e+000
 7.997680684061285e-001	 3.407399453636346e+000	 8.764180465221772e+000
 7.671386801043791e-001	 3.414893592100732e+000	 8.738176417858865e+000
 7.345296355551679e-001	 3.422055846180586e+000	 8.710566975647256e+000
 7.019455764256671e-001	 3.428887925790747e+000	 8.681219791935986e+000
 6.693910851321567e-001	 3.435391618878011e+000	 8.650045902429614e+000
 6.368706834322875e-001	 3.441568789449906e+000	 8.616999676348005e+000
 9.699327073115912e-001	 3.388931327606469e+000	 8.877874547714875e+000
 9.370399096768675e-001	 3.398173216243544e+000	 8.853870267613658e+000
 9.041433862981303e-001	 3.407073485693827e+000	 8.830234322843513e+000
 8.712480867083653e-001	 3.415633436318824e+000	 8.806596790979771e+000
 8.383589088792042e-001	 3.423854456571968e+000	 8.782629971149401e+000
 8.054806974630456e-001	 3.431738021163193e+000	 8.758048912103801e+000
 7.726182421023856e-001	 3.439285689188370e+000	 8.732611828097008e+000
 7.397762758068605e-001	 3.446499102226226e+000	 8.706120403949528e+000
 7.069594733984072e-001	 3.453379982405272e+000	 8.678419990964120e+000
 6.741724500248497e-001	 3.459930130443356e+000	 8.649399695627031e+000
 6.414197597421077e-001	 3.466151423662343e+000	 8.618992363285722e+000
 9.768116626792683e-001	 3.412966301560131e+000	 8.880796416476798e+000
 9.436855827918899e-001	 3.422273735507152e+000	 8.854735540157581e+000
 9.105557507368421e-001	 3.431237127436225e+000	 8.829674836692453e+000
 8.774271511501816e-001	 3.439857786931272e+000	 8.805220345461137e+000
 8.443047167409266e-001	 3.448137112292918e+000	 8.781020541733819e+000
 8.111933265207117e-001	 3.456076588690030e+000	 8.756766908131688e+000
 7.780978041011291e-001	 3.463677786275902e+000	 8.732194391727930e+000
 7.450229160592582e-001	 3.470942358271658e+000	 8.707081748142597e+000
 7.119733703718011e-001	 3.477872039019489e+000	 8.681251774275559e+000
 6.789538149181261e-001	 3.484468642008292e+000	 8.654571431596937e+000
 6.459688360524208e-001	 3.490734057874272e+000	 8.626951862178306e+000
 9.836906180474517e-001	 3.437001275514286e+000	 8.886410645898289e+000
 9.503312559075080e-001	 3.446374254771155e+000	 8.858774555942167e+000
 9.169681151762193e-001	 3.455400769178916e+000	 8.832735790557820e+000
 8.836062155927114e-001	 3.464082137543914e+000	 8.807875906863224e+000
 8.502505246033907e-001	 3.472419768013962e+000	 8.783819148703302e+000
 8.169059555791279e-001	 3.480415156216863e+000	 8.760233061633334e+000
 7.835773661006105e-001	 3.488069883363327e+000	 8.736828991318481e+000
 7.502695563123619e-001	 3.495385614316883e+000	 8.713362466675640e+000
 7.169872673458493e-001	 3.502364095633400e+000	 8.689633469381004e+000
 6.837351798119852e-001	 3.509007153572822e+000	 8.665486591649529e+000
 6.505179123632263e-001	 3.515316692085695e+000	 8.640811084464504e+000
 9.905695734161415e-001	 3.461036249468935e+000	 8.894587728270068e+000
 9.569769290237222e-001	 3.470474774035552e+000	 8.865862546855855e+000
 9.233804796162610e-001	 3.479564410921900e+000	 8.839297487569617e+000
 8.897852800359546e-001	 3.488306488156749e+000	 8.814449172812475e+000
 8.561963324665962e-001	 3.496702423735099e+000	 8.790917199029915e+000
 8.226185846382935e-001	 3.504753723743688e+000	 8.768344795363722e+000
 7.890569281008294e-001	 3.512461980450646e+000	 8.746419363435388e+000
 7.555161965661713e-001	 3.519828870361902e+000	 8.724872899559406e+000
 7.220011643205513e-001	 3.526856152247003e+000	 8.703482300991363e+000
 6.885165447064278e-001	 3.533545665136944e+000	 8.682069558105876e+000
 6.550669886745246e-001	 3.539899326296611e+000	 8.660501834675982e+000
 9.974485287853375e-001	 3.485071223424078e+000	 8.905196643610127e+000
 9.636226021405323e-001	 3.494575293300343e+000	 8.875873329784877e+000
 9.297928440569677e-001	 3.503728052665179e+000	 8.849238901190814e+000
 8.959643444799109e-001	 3.512530838769778e+000	 8.824824584722894e+000
 8.621421403305434e-001	 3.520985079456330e+000	 8.802204905109086e+000
 8.283312136982085e-001	 3.529092291270506e+000	 8.780998387386619e+000
 7.945364901017857e-001	 3.536854077537856e+000	 8.760868138162577e+000
 7.607628368206859e-001	 3.544272126406711e+000	 8.741522306932827e+000
 7.270150612959075e-001	 3.551348208860298e+000	 8.722714429045507e+000
 6.932979096014529e-001	 3.558084176700660e+000	 8.704243652193792e+000
 6.596160649863155e-001	 3.564481960507018e+000	 8.685954848606253e+000
 1.004327484155040e+000	 3.509106197379714e+000	 8.918104911453733e+000
 9.702682752579384e-001	 3.518675812565526e+000	 8.888679355072464e+000
 9.362052084983391e-001	 3.527891694408750e+000	 8.862437720753983e+000
 9.021434089245810e-001	 3.536755189383001e+000	 8.838885370817042e+000
 8.680879481952318e-001	 3.545267735177653e+000	 8.817571325670166e+000
 8.340438427588731e-001	 3.553430858797317e+000	 8.798089010276359e+000
 8.000160521034795e-001	 3.561246174624960e+000	 8.780076876994256e+000
 7.660094770759065e-001	 3.568715382451315e+000	 8.763218906045109e+000
 7.320289582719179e-001	 3.575840265473287e+000	 8.747244985174941e+000
 6.980792744970613e-001	 3.582622688263967e+000	 8.731931170387062e+000
 6.641651412985992e-001	 3.589064594716919e+000	 8.717099829911378e+000
 1.011206439525248e+000	 3.533141171335845e+000	 8.933178640529690e+000
 9.769139483759403e-001	 3.542776331831105e+000	 8.904151752999573e+000
 9.426175729403755e-001	 3.552055336152616e+000	 8.878770395138883e+000
 9.083224733699642e-001	 3.560979539996417e+000	 8.856513587391076e+000
 8.740337560606618e-001	 3.569550390899069e+000	 8.836904405016588e+000
 8.397564718202875e-001	 3.577769426324121e+000	 8.819510768719519e+000
 8.054956141059108e-001	 3.585638271711956e+000	 8.803946109181636e+000
 7.712561173318328e-001	 3.593158638495712e+000	 8.789869906728178e+000
 7.370428552485824e-001	 3.600332322085968e+000	 8.776988107680367e+000
 7.028606393932527e-001	 3.607161199826867e+000	 8.765053419260656e+000
 6.687142176113755e-001	 3.613647228926312e+000	 8.753865485216705e+000
 1.018085394895963e+000	 3.557176145292468e+000	 8.950282576422815e+000
 9.835596214945382e-001	 3.566876851097076e+000	 8.922160378382054e+000
 9.490299373830770e-001	 3.576218977896776e+000	 8.898112174680021e+000
 9.145015378160609e-001	 3.585203890610027e+000	 8.877590158406994e+000
 8.799795639268335e-001	 3.593833046620580e+000	 8.860091010675456e+000
 8.454691008824512e-001	 3.602107993850920e+000	 8.845156735592310e+000
 8.109751761090794e-001	 3.610030368798847e+000	 8.832375366605923e+000
 7.765027575884643e-001	 3.617601894539902e+000	 8.821381545430871e+000
 7.420567522259008e-001	 3.624824378698343e+000	 8.811856975090011e+000
 7.076420042900276e-001	 3.631699711389361e+000	 8.803530748933405e+000
 6.732632939246444e-001	 3.638229863135198e+000	 8.796179557800349e+000
 1.024964350267184e+000	 3.581211119249587e+000	 8.969280147317072e+000
 9.902052946137315e-001	 3.590977370363441e+000	 8.942573853370957e+000
 9.554423018264432e-001	 3.600382619641227e+000	 8.920337151386038e+000
 9.206806022628710e-001	 3.609428241223829e+000	 8.901994913490158e+000
 8.859253717937469e-001	 3.618115702342183e+000	 8.887016969530954e+000
 8.511817299453643e-001	 3.626446561377711e+000	 8.874918986584930e+000
 8.164547381129858e-001	 3.634422465885629e+000	 8.865263217247232e+000
 7.817493978458019e-001	 3.642045150583884e+000	 8.857659117883017e+000
 7.470706492038737e-001	 3.649316435310409e+000	 8.851763838366868e+000
 7.124233691873848e-001	 3.656238222951445e+000	 8.847282585163882e+000
 6.778123702384060e-001	 3.662812497343578e+000	 8.843968859920169e+000
 1.031843305638912e+000	 3.605246093207198e+000	 8.990033507908684e+000
 9.968509677335214e-001	 3.615077889630200e+000	 8.965259608541803e+000
 9.618546662704745e-001	 3.624546261385974e+000	 8.945318297550660e+000
 9.268596667103948e-001	 3.633652591837827e+000	 8.929606624407393e+000
 8.918711796614018e-001	 3.642398358063881e+000	 8.917567102512402e+000
 8.568943590090273e-001	 3.650785128904496e+000	 8.908688633441232e+000
 8.219343001176299e-001	 3.658814562972306e+000	 8.902507297314481e+000
 7.869960381038450e-001	 3.666488406627660e+000	 8.898607010452549e+000
 7.520845461825005e-001	 3.673808491922170e+000	 8.896620051827510e+000
 7.172047340853255e-001	 3.680776734513124e+000	 8.896227460162329e+000
 6.823614465526605e-001	 3.687395131551449e+000	 8.897159303847992e+000
 6.368706834322875e-001	 3.441568789449906e+000	 8.616999676348005e+000
 6.043888310856980e-001	 3.447421375580705e+000	 8.529576300896629e+000
 5.719499245828054e-001	 3.452951387398861e+000	 8.490517435805455e+000
 5.395582959415579e-001	 3.458160905057221e+000	 8.453324185668061e+000
 5.072182115723980e-001	 3.463052076687238e+000	 8.418774665410719e+000
 4.749338712109144e-001	 3.467627116341299e+000	 8.387605879078224e+000
 4.427094069178871e-001	 3.471888301924911e+000	 8.360512617800453e+000
 4.105488821462863e-001	 3.475837973121045e+000	 8.338146480631691e+000
 3.784562908747207e-001	 3.479478529308901e+000	 8.321115017267610e+000
 3.464355568067561e-001	 3.482812427479280e+000	 8.309980991337575e+000
 3.144905326354376e-001	 3.485842180148714e+000	 8.305261762679884e+000
 6.414197597421077e-001	 3.466151423662343e+000	 8.618992363285722e+000
 6.087058941651441e-001	 3.472045813979897e+000	 8.522841097581388e+000
 5.760352811877797e-001	 3.477615325882537e+000	 8.492183991981598e+000
 5.434122837709488e-001	 3.482862054381337e+000	 8.462191548754946e+000
 5.108411987994552e-001	 3.487788162951553e+000	 8.433700038137506e+000
 4.783262560070001e-001	 3.492395881460230e+000	 8.407503978954649e+000
 4.458716169690847e-001	 3.496687504083629e+000	 8.384354967842056e+000
 4.134813741633441e-001	 3.500665387216742e+000	 8.364960634789988e+000
 3.811595500968069e-001	 3.504331947377193e+000	 8.349983724039763e+000
 3.489100964994940e-001	 3.507689659105719e+000	 8.340041299045266e+000
 3.167368935836879e-001	 3.510741052865397e+000	 8.335704069910735e+000
 6.459688360524208e-001	 3.490734057874272e+000	 8.626951862178306e+000
 6.130229572449885e-001	 3.496670252378494e+000	 8.521985761046906e+000
 5.801206377930676e-001	 3.502279264365547e+000	 8.499254747160919e+000
 5.472662716005791e-001	 3.507563203704741e+000	 8.476002660905378e+000
 5.144641860266878e-001	 3.512524249215126e+000	 8.453124558535297e+000
 4.817186408032074e-001	 3.517164646578412e+000	 8.431473078897344e+000
 4.490338270203598e-001	 3.521486706241609e+000	 8.411857203418451e+000
 4.164138661804455e-001	 3.525492801311734e+000	 8.395041145923981e+000
 3.838628093189125e-001	 3.529185365444834e+000	 8.381743371337642e+000
 3.513846361922368e-001	 3.532566890731576e+000	 8.372635741989745e+000
 3.189832545319382e-001	 3.535639925581587e+000	 8.368342789950008e+000
 6.505179123632263e-001	 3.515316692085695e+000	 8.640811084464504e+000
 6.173400203252304e-001	 3.521294690776494e+000	 8.527278199472528e+000
 5.842059943986689e-001	 3.526943202847890e+000	 8.511977426394813e+000
 5.511202594304484e-001	 3.532264353027429e+000	 8.494984896516206e+000
 5.180871732540955e-001	 3.537260335477958e+000	 8.477255096747047e+000
 4.851110255995359e-001	 3.541933411695844e+000	 8.459699404960409e+000
 4.521960370717122e-001	 3.546285908398853e+000	 8.443184780250538e+000
 4.193463581975900e-001	 3.550320215406021e+000	 8.428532586582682e+000
 3.865660685410371e-001	 3.554038783511820e+000	 8.416517548910070e+000
 3.538591758849843e-001	 3.557444122356851e+000	 8.407866840497604e+000
 3.212296154801886e-001	 3.560538798297287e+000	 8.403259299872287e+000
 6.550669886745246e-001	 3.539899326296611e+000	 8.660501834675982e+000
 6.216570834058705e-001	 3.545919129173898e+000	 8.538985394893246e+000
 5.882913510045833e-001	 3.551607141329567e+000	 8.530599016239426e+000
 5.549742472605570e-001	 3.556965502349404e+000	 8.519365085886616e+000
 5.217101604816784e-001	 3.561996421740048e+000	 8.506298179823537e+000
 4.885034103959856e-001	 3.566702176812526e+000	 8.492369047577368e+000
 4.553582471231421e-001	 3.571085110555359e+000	 8.478503232232177e+000
 4.222788502147781e-001	 3.575147629499604e+000	 8.465579827458459e+000
 3.892693277631811e-001	 3.578892201578153e+000	 8.454430370650263e+000
 3.563337155777367e-001	 3.582321353981544e+000	 8.445837870923425e+000
 3.234759764284389e-001	 3.585437671012494e+000	 8.440535970397779e+000
 6.596160649863155e-001	 3.564481960507018e+000	 8.685954848606253e+000
 6.259741464869081e-001	 3.570543567570702e+000	 8.560909167991701e+000
 5.923767076108115e-001	 3.576271079810580e+000	 8.555365790220943e+000
 5.588282350909050e-001	 3.581666651670666e+000	 8.549369533980043e+000
 5.253331477094367e-001	 3.586732508001397e+000	 8.540460003554298e+000
 4.918957951925567e-001	 3.591470941928460e+000	 8.529667966237557e+000
 4.585204571746493e-001	 3.595884312711128e+000	 8.517978168734645e+000
 4.252113422320096e-001	 3.599975043592481e+000	 8.506328027106465e+000
 3.919725869853442e-001	 3.603745619643832e+000	 8.495606456521932e+000
 3.588082552704939e-001	 3.607198585605653e+000	 8.486652839580042e+000
 3.257223373766892e-001	 3.610336543727210e+000	 8.480256131628583e+000
 6.641651412985992e-001	 3.589064594716919e+000	 8.717099829911378e+000
 6.302912095683438e-001	 3.595168005966912e+000	 8.601371555482658e+000
 5.964620642173529e-001	 3.600935018290926e+000	 8.586523333254702e+000
 5.626822229214921e-001	 3.606367800991212e+000	 8.585224038415346e+000
 5.289561349373702e-001	 3.611468594262003e+000	 8.579946443812007e+000
 4.952881799892492e-001	 3.616239707043643e+000	 8.571781993970758e+000
 4.616826672262341e-001	 3.620683514866161e+000	 8.561775272021489e+000
 4.281438342492845e-001	 3.624802457684652e+000	 8.550922622086137e+000
 3.946758462075265e-001	 3.628599037708859e+000	 8.540170915228170e+000
 3.612827949632559e-001	 3.632075817229181e+000	 8.530416457739763e+000
 3.279686983249396e-001	 3.635235416441434e+000	 8.522504040193244e+000
 6.687142176113755e-001	 3.613647228926312e+000	 8.753865485216705e+000
 6.346082726501774e-001	 3.619792444362524e+000	 8.647913757397628e+000
 6.005474208242082e-001	 3.625598956770607e+000	 8.624316565066929e+000
 5.665362107523185e-001	 3.631068950311045e+000	 8.627153906723194e+000
 5.325791221654787e-001	 3.636204680521868e+000	 8.624963067434141e+000
 4.986805647860629e-001	 3.641008472158078e+000	 8.618896841648249e+000
 4.648448772778961e-001	 3.645482717020455e+000	 8.610060294769605e+000
 4.310763262666027e-001	 3.649629871776120e+000	 8.599509317505326e+000
 3.973791054297283e-001	 3.653452455773232e+000	 8.588249327587548e+000
 3.637573346560226e-001	 3.656953048852127e+000	 8.577234117656426e+000
 3.302150592731899e-001	 3.660134289155166e+000	 8.567364847732211e+000
 6.732632939246444e-001	 3.638229863135198e+000	 8.796179557800349e+000
 6.389253357324087e-001	 3.644416882757539e+000	 8.700464848145833e+000
 6.046327774313762e-001	 3.650262895249622e+000	 8.668989762667732e+000
 5.703901985833841e-001	 3.655770099630165e+000	 8.675383972903191e+000
 5.362021093937626e-001	 3.660940766780990e+000	 8.675715142663309e+000
 5.020729495829980e-001	 3.665777237271762e+000	 8.671198102109969e+000
 4.680070873296354e-001	 3.670281919174012e+000	 8.662999057689969e+000
 4.340088182839644e-001	 3.674457285866882e+000	 8.652234077947751e+000
 4.000823646519490e-001	 3.678305873836951e+000	 8.639967730584372e+000
 3.662318743487941e-001	 3.681830280474491e+000	 8.627211869558966e+000
 3.324614202214402e-001	 3.685033161868407e+000	 8.614924570660895e+000
 6.778123702384060e-001	 3.662812497343578e+000	 8.843968859920169e+000
 6.432423988150381e-001	 3.669041321151957e+000	 8.758953123155903e+000
 6.087181340388583e-001	 3.674926833727972e+000	 8.720786581918372e+000
 5.742441864146889e-001	 3.680471248948570e+000	 8.730138613314340e+000
 5.398250966222218e-001	 3.685676853039371e+000	 8.732407649167184e+000
 5.054653343800544e-001	 3.690546002384696e+000	 8.728871254125268e+000
 4.711692973814524e-001	 3.695081121326833e+000	 8.720757447245008e+000
 4.369413103013694e-001	 3.699284699956939e+000	 8.709243118765789e+000
 4.027856238741890e-001	 3.703159291900017e+000	 8.695452602061094e+000
 3.687064140415705e-001	 3.706707512096273e+000	 8.680456399572037e+000
 3.347077811696906e-001	 3.709932034581156e+000	 8.665270061150473e+000
 6.823614465526605e-001	 3.687395131551449e+000	 8.897159303847992e+000
 6.475594618980655e-001	 3.693665759545780e+000	 8.823306124841764e+000
 6.128034906466536e-001	 3.699590772205656e+000	 8.779950078236668e+000
 5.780981742462332e-001	 3.705172398266263e+000	 8.791641761929354e+000
 5.434480838508562e-001	 3.710412939297010e+000	 8.795245287657714e+000
 5.088577191772321e-001	 3.715314767496883e+000	 8.792101666195212e+000
 4.743315074333467e-001	 3.719880323478916e+000	 8.783501413456621e+000
 4.398738023188180e-001	 3.724112114046291e+000	 8.770682897721361e+000
 4.054888830964485e-001	 3.728012709962431e+000	 8.754830846022939e+000
 3.711809537343516e-001	 3.731584743717474e+000	 8.737075008519163e+000
 3.369541421179410e-001	 3.734830907293413e+000	 8.718488979269267e+000
 3.144905326354376e-001	 3.485842180148714e+000	 8.305261762679884e+000
 2.826249993720412e-001	 3.488570353274702e+000	 8.275339423661471e+000
 2.508426657390410e-001	 3.490999564173347e+000	 8.246590626715165e+000
 2.191471676259094e-001	 3.493132479441893e+000	 8.219510651648047e+000
 1.875420676063168e-001	 3.494971812888549e+000	 8.194551302739567e+000
 1.560308545165391e-001	 3.496520323470751e+000	 8.172120665033678e+000
 1.246169430937960e-001	 3.497780813243908e+000	 8.152582965940670e+000
 9.330367367343619e-002	 3.498756125322376e+000	 8.136258539199881e+000
 6.209431194385016e-002	 3.499449141854330e+000	 8.123423888081140e+000
 3.099204875794980e-002	 3.499862782012172e+000	 8.114311844546027e+000
 0.000000000000000e+000	 3.500000000000000e+000	 8.109111820950087e+000
 3.167368935836879e-001	 3.510741052865397e+000	 8.335704069910735e+000
 2.846437493679849e-001	 3.513488712942027e+000	 8.307046491065732e+000
 2.526343990658300e-001	 3.515935275346863e+000	 8.279672789045005e+000
 2.207125045373336e-001	 3.518083425724269e+000	 8.254115825315015e+000
 1.888816538031205e-001	 3.519935897266799e+000	 8.230863446419356e+000
 1.571453606197248e-001	 3.521495468638728e+000	 8.210358223535689e+000
 1.255070641153455e-001	 3.522764961910145e+000	 8.192997300615630e+000
 9.397012848486894e-002	 3.523747240503367e+000	 8.179132348081255e+000
 6.253784274303029e-002	 3.524445207153342e+000	 8.169069618875161e+000
 3.121342053454722e-002	 3.524861801883700e+000	 8.163070103498610e+000
 0.000000000000000e+000	 3.525000000000000e+000	 8.161349780527642e+000
 3.189832545319382e-001	 3.535639925581587e+000	 8.368342789950008e+000
 2.866624993639287e-001	 3.538407072608955e+000	 8.340517689009703e+000
 2.544261323926189e-001	 3.540870986520065e+000	 8.314095534074101e+000
 2.222778414487579e-001	 3.543034372006406e+000	 8.289647318267955e+000
 1.902212399999242e-001	 3.544899981644873e+000	 8.267697456026930e+000
 1.582598667229104e-001	 3.546470613806582e+000	 8.248723505708359e+000
 1.263971851368951e-001	 3.547749110576305e+000	 8.233156004105702e+000
 9.463658329630166e-002	 3.548738355684315e+000	 8.221378409763354e+000
 6.298137354221041e-002	 3.549441272452334e+000	 8.213727151804818e+000
 3.143479231114464e-002	 3.549860821755225e+000	 8.210491780821521e+000
 0.000000000000000e+000	 3.549999999999999e+000	 8.211915218220593e+000
 3.212296154801886e-001	 3.560538798297287e+000	 8.403259299872287e+000
 2.886812493598724e-001	 3.563325432275487e+000	 8.375815583486622e+000
 2.562178657194078e-001	 3.565806697692955e+000	 8.349902802948041e+000
 2.238431783601821e-001	 3.567985318288303e+000	 8.326130641754071e+000
 1.915608261967279e-001	 3.569864066022773e+000	 8.305060616257205e+000
 1.593743728260961e-001	 3.571445758974317e+000	 8.287205781116196e+000
 1.272873061584447e-001	 3.572733259242388e+000	 8.273030550020586e+000
 9.530303810773438e-002	 3.573729470865220e+000	 8.262950628506115e+000
 6.342490434139052e-002	 3.574437337751307e+000	 8.257333055490111e+000
 3.165616408774206e-002	 3.574859841626743e+000	 8.256496349985087e+000
 0.000000000000000e+000	 3.574999999999999e+000	 8.260710759295126e+000
 3.234759764284389e-001	 3.585437671012494e+000	 8.440535970397779e+000
 2.906999993558162e-001	 3.588243791941620e+000	 8.413003910852783e+000
 2.580095990461968e-001	 3.590742408865532e+000	 8.387139882794296e+000
 2.254085152716064e-001	 3.592936264569963e+000	 8.363592827465618e+000
 1.929004123935316e-001	 3.594828150400499e+000	 8.342961905502149e+000
 1.604888789292818e-001	 3.596420904141930e+000	 8.325796185007789e+000
 1.281774271799942e-001	 3.597717407908395e+000	 8.312594448322868e+000
 9.596949291916714e-002	 3.598720586046082e+000	 8.303805114222216e+000
 6.386843514057067e-002	 3.599433403050261e+000	 8.299826272085614e+000
 3.187753586433948e-002	 3.599858861498256e+000	 8.301005824409847e+000
 0.000000000000000e+000	 3.600000000000000e+000	 8.307641733871170e+000
 3.257223373766892e-001	 3.610336543727210e+000	 8.480256131628583e+000
 2.927187493517600e-001	 3.613162151607358e+000	 8.452147537469962e+000
 2.598013323729857e-001	 3.615678120037797e+000	 8.425853360309096e+000
 2.269738521830306e-001	 3.617887210851384e+000	 8.402062375111068e+000
 1.942399985903353e-001	 3.619792234778049e+000	 8.381411937447794e+000
 1.616033850324674e-001	 3.621396049309423e+000	 8.364487653981584e+000
 1.290675482015437e-001	 3.622701556574323e+000	 8.351823175108805e+000
 9.663594773059987e-002	 3.623711701226900e+000	 8.343900106420193e+000
 6.431196593975078e-002	 3.624429468349195e+000	 8.341148035434571e+000
 3.209890764093690e-002	 3.624857881369766e+000	 8.343944669882180e+000
 0.000000000000000e+000	 3.625000000000000e+000	 8.352616083651588e+000
 3.279686983249396e-001	 3.635235416441434e+000	 8.522504040193244e+000
 2.947374993477037e-001	 3.638080511272698e+000	 8.493312421006959e+000
 2.615930656997746e-001	 3.640613831209749e+000	 8.466091077251649e+000
 2.285391890944548e-001	 3.642838157132567e+000	 8.441569202140249e+000
 1.955795847871390e-001	 3.644756319155425e+000	 8.420422905070581e+000
 1.627178911356531e-001	 3.646371194476795e+000	 8.403274864295979e+000
 1.299576692230933e-001	 3.647685705240175e+000	 8.390694105274916e+000
 9.730240254203262e-002	 3.648702816407676e+000	 8.383195901272954e+000
 6.475549673893091e-002	 3.649425533648111e+000	 8.381241792586190e+000
 3.232027941753433e-002	 3.649856901241271e+000	 8.385239720569210e+000
 0.000000000000000e+000	 3.650000000000000e+000	 8.395544272484274e+000
 3.302150592731899e-001	 3.660134289155166e+000	 8.567364847732211e+000
 2.967562493436475e-001	 3.662998870937642e+000	 8.536565573319962e+000
 2.633847990265636e-001	 3.665549542381390e+000	 8.507902087754847e+000
 2.301045260058791e-001	 3.667789103413511e+000	 8.482144595522147e+000
 1.969191709839427e-001	 3.669720403532627e+000	 8.460008526920371e+000
 1.638323972388388e-001	 3.671346339644046e+000	 8.442154172697199e+000
 1.308477902446428e-001	 3.672669853905949e+000	 8.429186447933176e+000
 9.796885735346539e-002	 3.673693931588408e+000	 8.421654781663348e+000
 6.519902753811104e-002	 3.674421598947007e+000	 8.420053128516702e+000
 3.254165119413175e-002	 3.674855921112770e+000	 8.424820098461591e+000
 0.000000000000000e+000	 3.675000000000000e+000	 8.436339200575072e+000
 3.324614202214402e-001	 3.685033161868407e+000	 8.614924570660895e+000
 2.987749993395912e-001	 3.687917230602189e+000	 8.581975024838409e+000
 2.651765323533525e-001	 3.690485253552716e+000	 8.551336617366841e+000
 2.316698629173033e-001	 3.692740049694216e+000	 8.523821165477107e+000
 1.982587571807463e-001	 3.694684487909653e+000	 8.500183995580670e+000
 1.649469033420244e-001	 3.696321484811176e+000	 8.481123559646056e+000
 1.317379112661924e-001	 3.697654002571646e+000	 8.467281184444007e+000
 9.863531216489810e-002	 3.698685046769097e+000	 8.459240950065400e+000
 6.564255833729117e-002	 3.699417664245885e+000	 8.457529693902018e+000
 3.276302297072916e-002	 3.699854940984265e+000	 8.462617136082086e+000
 0.000000000000000e+000	 3.699999999999999e+000	 8.474916122178319e+000
 3.347077811696906e-001	 3.709932034581156e+000	 8.665270061150473e+000
 3.007937493355350e-001	 3.712835590266338e+000	 8.629609790384412e+000
 2.669682656801414e-001	 3.715420964723729e+000	 8.596446023741640e+000
 2.332351998287276e-001	 3.717690995974684e+000	 8.566632801072606e+000
 1.995983433775501e-001	 3.719648572286506e+000	 8.540965928204273e+000
 1.660614094452101e-001	 3.721296629978185e+000	 8.520182574830798e+000
 1.326280322877419e-001	 3.722638151237267e+000	 8.504961008945010e+000
 9.930176697633084e-002	 3.723676161949741e+000	 8.495920464128746e+000
 6.608608913647129e-002	 3.724413729544744e+000	 8.493621135799014e+000
 3.298439474732658e-002	 3.724853960855755e+000	 8.498564302306779e+000
 0.000000000000000e+000	 3.724999999999999e+000	 8.511192566601856e+000
 3.369541421179410e-001	 3.734830907293413e+000	 8.718488979269267e+000
 3.028124993314788e-001	 3.737753949930092e+000	 8.679539836359817e+000
 2.687599990069305e-001	 3.740356675894433e+000	 8.643282758902274e+000
 2.348005367401518e-001	 3.742641942254912e+000	 8.610614627594933e+000
 2.009379295743538e-001	 3.744612656663184e+000	 8.582372319027876e+000
 1.671759155483958e-001	 3.746271775145075e+000	 8.559332284859613e+000
 1.335181533092915e-001	 3.747622299902811e+000	 8.542210271258414e+000
 9.996822178776361e-002	 3.748667277130346e+000	 8.531661174839094e+000
 6.652961993565144e-002	 3.749409794843583e+000	 8.528279031099409e+000
 3.320576652392401e-002	 3.749852980727242e+000	 8.532597131153160e+000
 0.000000000000000e+000	 3.750000000000000e+000	 8.545088262372016e+000
 3.750000000000000e+000	 0.000000000000000e+000	 1.052336541184029e+001
 3.749852980727241e+000	 3.320576652392414e-002	 1.055534674240759e+001
 3.749409794843583e+000	 6.652961993565168e-002	 1.058119571594814e+001
 3.748667277130346e+000	 9.996822178776336e-002	 1.060112762172425e+001
 3.747622299902811e+000	 1.335181533092914e-001	 1.061542332533735e+001
 3.746271775145075e+000	 1.671759155483958e-001	 1.062443002228330e+001
 3.744612656663185e+000	 2.009379295743539e-001	 1.062856186415764e+001
 3.742641942254912e+000	 2.348005367401521e-001	 1.062830045171362e+001
 3.740356675894433e+000	 2.687599990069302e-001	 1.062419518912552e+001
 3.737753949930092e+000	 3.028124993314787e-001	 1.061686349398389e+001
 3.734830907293414e+000	 3.369541421179410e-001	 1.060699085774789e+001
 3.775000000000000e+000	 0.000000000000000e+000	 1.052343370341401e+001
 3.774852000598727e+000	 3.342713830051917e-002	 1.055333852173560e+001
 3.774405860142423e+000	 6.697315073482224e-002	 1.057473756372140e+001
 3.773658392310948e+000	 1.006346765991745e-001	 1.058857492068055e+001
 3.772606448568355e+000	 1.344082743308024e-001	 1.059578422396813e+001
 3.771246920311963e+000	 1.682904216515211e-001	 1.059728815681333e+001
 3.769576741039862e+000	 2.022775157710703e-001	 1.059399801306838e+001
 3.767592888535142e+000	 2.363658736514571e-001	 1.058681330516757e+001
 3.765292387065134e+000	 2.705517323335629e-001	 1.057662142349092e+001
 3.762672309593844e+000	 3.048312493272240e-001	 1.056429734921920e+001
 3.759729780005671e+000	 3.392005030659454e-001	 1.055070342264697e+001
 3.800000000000000e+000	 0.000000000000000e+000	 1.052381530077814e+001
 3.799851020470218e+000	 3.364851007710944e-002	 1.055299512891007e+001
 3.799401925441280e+000	 6.741668153397368e-002	 1.057396042225026e+001
 3.798649507491594e+000	 1.013011314105425e-001	 1.058763573707735e+001
 3.797590597233974e+000	 1.352983953522363e-001	 1.059493401563543e+001
 3.796222065478973e+000	 1.694049277545255e-001	 1.059675610514274e+001
 3.794540825416714e+000	 2.036171019676120e-001	 1.059399032619536e+001
 3.792543834815608e+000	 2.379312105625235e-001	 1.058751209291950e+001
 3.790228098236149e+000	 2.723434656598830e-001	 1.057818358712506e+001
 3.787590669257994e+000	 3.068499993225723e-001	 1.056685348860187e+001
 3.784628652718419e+000	 3.414468640134583e-001	 1.055435676357497e+001
 3.824999999999999e+000	 0.000000000000000e+000	 1.052433702868268e+001
 3.824850040341712e+000	 3.386988185369495e-002	 1.055256785617165e+001
 3.824397990740157e+000	 6.786021233310595e-002	 1.057288805773939e+001
 3.823640622672282e+000	 1.019675862218672e-001	 1.058620252135334e+001
 3.822574745899673e+000	 1.361885163735932e-001	 1.059340334853010e+001
 3.821197210646104e+000	 1.705194338574090e-001	 1.059536938046495e+001
 3.819504909793741e+000	 2.049566881639791e-001	 1.059296577606371e+001
 3.817494781096314e+000	 2.394965474733515e-001	 1.058704364429465e+001
 3.815163809407477e+000	 2.741351989858904e-001	 1.057843973317308e+001
 3.812509028922540e+000	 3.088687493175237e-001	 1.056797617757536e+001
 3.809527525431660e+000	 3.436932249604792e-001	 1.055646030794941e+001
 3.850000000000000e+000	 0.000000000000000e+000	 1.052483020993614e+001
 3.849849060213212e+000	 3.409125363027569e-002	 1.055190617437002e+001
 3.849394056039055e+000	 6.830374313221913e-002	 1.057138822057563e+001
 3.848631737853014e+000	 1.026340410331487e-001	 1.058416142716072e+001
 3.847558894565447e+000	 1.370786373948730e-001	 1.059109689527114e+001
 3.846172355813355e+000	 1.716339399601717e-001	 1.059305128178401e+001
 3.844468994170942e+000	 2.062962743601716e-001	 1.059086638694330e+001
 3.842445727377257e+000	 2.410618843839409e-001	 1.058536879892085e+001
 3.840099520579115e+000	 2.759269323115853e-001	 1.057736959767648e+001
 3.837427388587484e+000	 3.108874993120782e-001	 1.056766412037030e+001
 3.834426398145392e+000	 3.459395859070087e-001	 1.055703179044533e+001
 3.875000000000000e+000	 0.000000000000000e+000	 1.052513052030672e+001
 3.874848080084717e+000	 3.431262540685167e-002	 1.055086368130175e+001
 3.874390121337971e+000	 6.874727393131318e-002	 1.056933256229774e+001
 3.873622853033790e+000	 1.033004958443871e-001	 1.058140228381383e+001
 3.872543043231299e+000	 1.379687584160757e-001	 1.058792277904410e+001
 3.871147500980726e+000	 1.727484460628136e-001	 1.058972833405902e+001
 3.869433078548318e+000	 2.076358605561895e-001	 1.058763718502293e+001
 3.867396673658440e+000	 2.426272212942919e-001	 1.058245117497657e+001
 3.865035231751068e+000	 2.777186656369676e-001	 1.057495547262063e+001
 3.862345748252824e+000	 3.129062493062356e-001	 1.056591835541038e+001
 3.859325270859617e+000	 3.481859468530463e-001	 1.055609105913206e+001
 3.900000000000000e+000	 0.000000000000000e+000	 1.052507784900454e+001
 3.899847099956226e+000	 3.453399718342289e-002	 1.054929796943649e+001
 3.899386186636904e+000	 6.919080473038806e-002	 1.056659651055954e+001
 3.898613968214608e+000	 1.039669506555822e-001	 1.057781847847959e+001
 3.897527191897228e+000	 1.388588794372014e-001	 1.058379246300601e+001
 3.896122646148219e+000	 1.738629521653345e-001	 1.058533018480806e+001
 3.894397162925869e+000	 2.089754467520327e-001	 1.058322610219489e+001
 3.892347619939861e+000	 2.441925582044043e-001	 1.057825708013479e+001
 3.889970942923333e+000	 2.795103989620373e-001	 1.057118212401343e+001
 3.887264107918563e+000	 3.149249992999961e-001	 1.056274218049870e+001
 3.884224143574332e+000	 3.504323077985923e-001	 1.055366000773626e+001
 3.924999999999999e+000	 0.000000000000000e+000	 1.052451616449545e+001
 3.924846119827740e+000	 3.475536895998933e-002	 1.054707049869810e+001
 3.924382251935859e+000	 6.963433552944384e-002	 1.056305914887148e+001
 3.923605083395470e+000	 1.046334054667341e-001	 1.057330684287006e+001
 3.922511340563233e+000	 1.397490004582499e-001	 1.057862064391683e+001
 3.921097791315832e+000	 1.749774582677347e-001	 1.057978950466366e+001
 3.919361247303594e+000	 2.103150329477013e-001	 1.057758388351665e+001
 3.917298566221521e+000	 2.457578951142783e-001	 1.057275542591033e+001
 3.914906654095910e+000	 2.813021322867944e-001	 1.056603671309485e+001
 3.912182467584696e+000	 3.169437492933596e-001	 1.055814108086278e+001
 3.909123016289540e+000	 3.526786687436464e-001	 1.054976251049360e+001
 3.949999999999999e+000	 0.000000000000000e+000	 1.052329338541075e+001
 3.949845139699260e+000	 3.497674073655101e-002	 1.054404647407673e+001
 3.949378317234833e+000	 7.007786632848050e-002	 1.055860310090889e+001
 3.948596198576375e+000	 1.052998602778429e-001	 1.056776754423780e+001
 3.947495489229316e+000	 1.406391214792214e-001	 1.057232514981023e+001
 3.946072936483568e+000	 1.760919643700140e-001	 1.057304189170465e+001
 3.944325331681494e+000	 2.116546191431953e-001	 1.057066399818670e+001
 3.942249512503419e+000	 2.473232320239136e-001	 1.056591764525977e+001
 3.939842365268800e+000	 2.830938656112390e-001	 1.055950872053841e+001
 3.937100827251228e+000	 3.189624992863262e-001	 1.055212265993251e+001
 3.934021889005238e+000	 3.549250296882090e-001	 1.054442435947442e+001
 3.974999999999999e+000	 0.000000000000000e+000	 1.052126125632810e+001
 3.974844159570782e+000	 3.519811251310792e-002	 1.054009472785952e+001
 3.974374382533824e+000	 7.052139712749800e-002	 1.055311441918617e+001
 3.973587313757323e+000	 1.059663150889084e-001	 1.056110398048465e+001
 3.972479637895477e+000	 1.415292425001158e-001	 1.056482684152595e+001
 3.971048081651422e+000	 1.772064704721724e-001	 1.056502577939800e+001
 3.969289416059570e+000	 2.129942053385146e-001	 1.056242255387968e+001
 3.967200458785555e+000	 2.488885689333105e-001	 1.055771761329081e+001
 3.964778076442002e+000	 2.848855989353709e-001	 1.055158987351301e+001
 3.962019186918155e+000	 3.209812492788958e-001	 1.054469657272982e+001
 3.958920761721430e+000	 3.571713906322798e-001	 1.053767320427447e+001
 4.000000000000000e+000	 0.000000000000000e+000	 1.051827522821073e+001
 3.999843179442312e+000	 3.541948428966008e-002	 1.053508760627767e+001
 3.999370447832837e+000	 7.096492792649639e-002	 1.054648247790544e+001
 3.998578428938315e+000	 1.066327698999308e-001	 1.055322267920408e+001
 3.997463786561714e+000	 1.424193635209332e-001	 1.055604951793445e+001
 3.996023226819399e+000	 1.783209765742101e-001	 1.055568234799304e+001
 3.994253500437819e+000	 2.143337915336594e-001	 1.055281821429400e+001
 3.992151405067931e+000	 2.504539058424689e-001	 1.054813157094511e+001
 3.989713787615519e+000	 2.866773322591902e-001	 1.054227407547997e+001
 3.986937546585482e+000	 3.229999992710685e-001	 1.053587446175649e+001
 3.983819634438112e+000	 3.594177515758590e-001	 1.052953849396714e+001
 3.734830907293414e+000	 3.369541421179410e-001	 1.060699085774789e+001
 3.731584743717474e+000	 3.711809537343518e-001	 1.062504938410342e+001
 3.728012709962431e+000	 4.054888830964487e-001	 1.064168098632296e+001
 3.724112114046291e+000	 4.398738023188177e-001	 1.065773156724935e+001
 3.719880323478916e+000	 4.743315074333465e-001	 1.067411331892081e+001
 3.715314767496883e+000	 5.088577191772322e-001	 1.069180399461908e+001
 3.710412939297010e+000	 5.434480838508564e-001	 1.071184600648352e+001
 3.705172398266262e+000	 5.780981742462336e-001	 1.073534534549246e+001
 3.699590772205656e+000	 6.128034906466535e-001	 1.076347032100863e+001
 3.693665759545779e+000	 6.475594618980652e-001	 1.073046448824467e+001
 3.687395131551449e+000	 6.823614465526605e-001	 1.067043567043202e+001
 3.759729780005671e+000	 3.392005030659454e-001	 1.055070342264697e+001
 3.756461975338673e+000	 3.736554934268418e-001	 1.056540654926076e+001
 3.752866128024844e+000	 4.081921423183813e-001	 1.057985352430202e+001
 3.748939528135643e+000	 4.428062943359137e-001	 1.059760392369435e+001
 3.744679525630999e+000	 4.774937174848721e-001	 1.062313896055230e+001
 3.740083532609068e+000	 5.122501039740349e-001	 1.064877646642433e+001
 3.735149025554648e+000	 5.470710710791199e-001	 1.067557027117585e+001
 3.729873547583952e+000	 5.819521620774205e-001	 1.070463977366888e+001
 3.724254710683340e+000	 6.168888472541159e-001	 1.073716867693839e+001
 3.718290197939601e+000	 6.518765249807942e-001	 1.070207640803957e+001
 3.711977765759320e+000	 6.869105228666610e-001	 1.065379457824041e+001
 3.784628652718419e+000	 3.414468640134583e-001	 1.055435676357497e+001
 3.781339206960455e+000	 3.761300331187450e-001	 1.056921589587702e+001
 3.777719546087910e+000	 4.108954015396414e-001	 1.058365515388952e+001
 3.773766942225699e+000	 4.457387863522611e-001	 1.059841992465642e+001
 3.769478727783819e+000	 4.806559275355832e-001	 1.061424148267204e+001
 3.764852297722004e+000	 5.156424887699671e-001	 1.063183713457058e+001
 3.759885111813030e+000	 5.506940583064662e-001	 1.065191043191399e+001
 3.754574696902358e+000	 5.858061499076545e-001	 1.067515145285975e+001
 3.748918649161690e+000	 6.209742038605992e-001	 1.070374877056597e+001
 3.742914636334020e+000	 6.561935880625283e-001	 1.066846722526281e+001
 3.736560399967698e+000	 6.914595991796617e-001	 1.063171093540779e+001
 3.809527525431660e+000	 3.436932249604792e-001	 1.055646030794941e+001
 3.806216438582819e+000	 3.786045728100612e-001	 1.057135545010139e+001
 3.802572964151630e+000	 4.135986607602288e-001	 1.058568014219258e+001
 3.798594356316461e+000	 4.486712783678600e-001	 1.060014647128912e+001
 3.794277929937377e+000	 4.838181375854795e-001	 1.061545156076610e+001
 3.789621062835688e+000	 5.190348735650283e-001	 1.063227775474794e+001
 3.784621198072152e+000	 5.543170455328953e-001	 1.065129287352642e+001
 3.779275846221477e+000	 5.896601377369352e-001	 1.067315054073590e+001
 3.773582587640705e+000	 6.250595604661032e-001	 1.069836284794312e+001
 3.767539074729034e+000	 6.605106511432674e-001	 1.065392804828167e+001
 3.761143034176585e+000	 6.960086754916621e-001	 1.061830270586793e+001
 3.834426398145392e+000	 3.459395859070087e-001	 1.055703179044533e+001
 3.831093670205765e+000	 3.810791125007904e-001	 1.057186231117686e+001
 3.827426382216002e+000	 4.163019199801439e-001	 1.058598494415620e+001
 3.823421770407928e+000	 4.516037703827104e-001	 1.060007818110548e+001
 3.819077132091671e+000	 4.869803476345613e-001	 1.061480468031852e+001
 3.814389827950121e+000	 5.224272583592186e-001	 1.063081149112102e+001
 3.809357284332017e+000	 5.579400327584075e-001	 1.064873035222959e+001
 3.803976995541309e+000	 5.935141255652625e-001	 1.066917806478529e+001
 3.798246526120385e+000	 6.291449170706281e-001	 1.068506374772124e+001
 3.792163513124647e+000	 6.648277142230117e-001	 1.064843991113953e+001
 3.785725668385978e+000	 7.005577518026629e-001	 1.062006902857002e+001
 3.859325270859617e+000	 3.481859468530463e-001	 1.055609105913206e+001
 3.855970901829293e+000	 3.835536521909328e-001	 1.057077546472260e+001
 3.852279800281028e+000	 4.190051791993862e-001	 1.058462767655542e+001
 3.848249184500101e+000	 4.545362623968124e-001	 1.059829228495062e+001
 3.843876334246703e+000	 4.901425576828284e-001	 1.061239715826931e+001
 3.839158593065305e+000	 5.258196431525382e-001	 1.062755370767068e+001
 3.834093370592623e+000	 5.615630199830025e-001	 1.064435722872969e+001
 3.828678144861857e+000	 5.973681133926371e-001	 1.066338732068922e+001
 3.822910464600732e+000	 6.332302736741742e-001	 1.067218258703634e+001
 3.816787951520856e+000	 6.691447773017615e-001	 1.064294883270425e+001
 3.810308302595879e+000	 7.051068281126635e-001	 1.062141823736906e+001
 3.884224143574332e+000	 3.504323077985923e-001	 1.055366000773626e+001
 3.880848133453403e+000	 3.860281918804883e-001	 1.056813572227324e+001
 3.877133218346707e+000	 4.217084384179560e-001	 1.058166806473163e+001
 3.873076598592977e+000	 4.574687544101659e-001	 1.059486740738973e+001
 3.868675536402474e+000	 4.933047677302810e-001	 1.060832649304583e+001
 3.863927358181238e+000	 5.292120279449866e-001	 1.062262074035615e+001
 3.858829456853972e+000	 5.651860072066807e-001	 1.063830862903725e+001
 3.853379294183119e+000	 6.012221012190580e-001	 1.065593216570435e+001
 3.847574403081743e+000	 6.373156302767409e-001	 1.065970577834412e+001
 3.841412389917662e+000	 6.734618403795164e-001	 1.063744876286128e+001
 3.834890936806286e+000	 7.096559044216639e-001	 1.062235169772976e+001
 3.909123016289540e+000	 3.526786687436464e-001	 1.054976251049360e+001
 3.905725365078095e+000	 3.885027315694568e-001	 1.056398566312865e+001
 3.901986636413041e+000	 4.244116976358535e-001	 1.057716739136427e+001
 3.897904012686559e+000	 4.604012464227708e-001	 1.058988352232214e+001
 3.893474738558979e+000	 4.964669777769188e-001	 1.060269132693573e+001
 3.888696123297920e+000	 5.326044127365643e-001	 1.061612986616043e+001
 3.883565543116061e+000	 5.688089944294416e-001	 1.063072042009419e+001
 3.878080443505094e+000	 6.050760890445258e-001	 1.064696700077821e+001
 3.872238341563422e+000	 6.414009868783283e-001	 1.064762008350916e+001
 3.866036828315065e+000	 6.777789034562765e-001	 1.063193380968839e+001
 3.859473571017202e+000	 7.142049807296647e-001	 1.062287074526476e+001
 3.934021889005238e+000	 3.549250296882090e-001	 1.054442435947442e+001
 3.930602596703371e+000	 3.909772712578384e-001	 1.055836957841202e+001
 3.926840054480028e+000	 4.271149568530782e-001	 1.057118844718802e+001
 3.922731426780846e+000	 4.633337384346273e-001	 1.058342191028087e+001
 3.918273940716221e+000	 4.996291878227420e-001	 1.059559140988885e+001
 3.913464888415352e+000	 5.359967975272711e-001	 1.060819927331103e+001
 3.908301629378892e+000	 5.724319816512853e-001	 1.062172918632686e+001
 3.902781592827783e+000	 6.089300768690403e-001	 1.063664675334372e+001
 3.896902280045765e+000	 6.454863434789369e-001	 1.063591260274754e+001
 3.890661266713064e+000	 6.820959665320419e-001	 1.062639823444955e+001
 3.884056205228624e+000	 7.187540570366653e-001	 1.062297668667928e+001
 3.958920761721430e+000	 3.571713906322798e-001	 1.053767320427447e+001
 3.955479828329226e+000	 3.934518109456330e-001	 1.055133341723893e+001
 3.951693472547667e+000	 4.298182160696303e-001	 1.056379548356965e+001
 3.947558840875840e+000	 4.662662304457353e-001	 1.057556511734350e+001
 3.943073142874203e+000	 5.027913978677507e-001	 1.058712756468519e+001
 3.938233653533534e+000	 5.393891823171072e-001	 1.059894803262442e+001
 3.933037715642466e+000	 5.760549688722120e-001	 1.061147220708343e+001
 3.927482742151185e+000	 6.127840646926016e-001	 1.062512686076307e+001
 3.921566218528775e+000	 6.495717000785660e-001	 1.062457076398710e+001
 3.915285705111661e+000	 6.864130296068124e-001	 1.062083644677776e+001
 3.908638839440555e+000	 7.233031333426659e-001	 1.062267080068019e+001
 3.983819634438112e+000	 3.594177515758590e-001	 1.052953849396714e+001
 3.980357059955668e+000	 3.959263506328409e-001	 1.054292473490513e+001
 3.976546890615960e+000	 4.325214752855101e-001	 1.055505416686332e+001
 3.972386254971537e+000	 4.691987224560948e-001	 1.056639691558391e+001
 3.967872345032922e+000	 5.059536079119448e-001	 1.057740165340872e+001
 3.963002418652467e+000	 5.427815671060725e-001	 1.058849606992518e+001
 3.957773801906783e+000	 5.796779560922217e-001	 1.060008743491769e+001
 3.952183891475304e+000	 6.166380525152101e-001	 1.061256325439246e+001
 3.946230157012450e+000	 6.536570566772162e-001	 1.061358231262619e+001
 3.939910143510855e+000	 6.907300926805884e-001	 1.061524300003859e+001
 3.933221473652993e+000	 7.278522096476667e-001	 1.062195433885097e+001
 3.687395131551449e+000	 6.823614465526605e-001	 1.067043567043202e+001
 3.680776734513125e+000	 7.172047340853256e-001	 1.069323594670655e+001
 3.673808491922170e+000	 7.520845461825008e-001	 1.071378379164677e+001
 3.666488406627660e+000	 7.869960381038449e-001	 1.073204284804638e+001
 3.658814562972306e+000	 8.219343001176298e-001	 1.074798935187523e+001
 3.650785128904496e+000	 8.568943590090273e-001	 1.076161290693089e+001
 3.642398358063882e+000	 8.918711796614021e-001	 1.077291725254455e+001
 3.633652591837826e+000	 9.268596667103950e-001	 1.078192102197088e+001
 3.624546261385975e+000	 9.618546662704742e-001	 1.078865848903724e+001
 3.615077889630201e+000	 9.968509677335213e-001	 1.079318030057963e+001
 3.605246093207198e+000	 1.031843305638912e+000	 1.079555419215180e+001
 3.711977765759320e+000	 6.869105228666610e-001	 1.065379457824041e+001
 3.705315246074803e+000	 7.219860989830625e-001	 1.067725716383355e+001
 3.698300548533930e+000	 7.570984431609740e-001	 1.069837111294163e+001
 3.690931662671435e+000	 7.922426783617844e-001	 1.071710482962658e+001
 3.683206660058982e+000	 8.274138621222201e-001	 1.073343976959004e+001
 3.675123696431280e+000	 8.626069880726867e-001	 1.074737122931936e+001
 3.666681013785578e+000	 8.978169875291034e-001	 1.075890912786141e+001
 3.657876942451824e+000	 9.330387311580154e-001	 1.076807877880110e+001
 3.648709903130721e+000	 9.682670307146521e-001	 1.077492164996633e+001
 3.639178408896959e+000	 1.003496640853508e+000	 1.077949610833304e+001
 3.629281067164810e+000	 1.038722261010886e+000	 1.078187814756224e+001
 3.736560399967698e+000	 6.914595991796617e-001	 1.063171093540779e+001
 3.729853757636888e+000	 7.267674638798090e-001	 1.065629039946900e+001
 3.722792605145995e+000	 7.621123401384855e-001	 1.067842103985615e+001
 3.715374918715418e+000	 7.974893186188110e-001	 1.069807569120209e+001
 3.707598757145765e+000	 8.328934241259659e-001	 1.071524070084351e+001
 3.699462263958071e+000	 8.683196171355897e-001	 1.072991673295514e+001
 3.690963669507182e+000	 9.037627953961568e-001	 1.074211956488980e+001
 3.682101293065626e+000	 9.392177956051155e-001	 1.075188087324689e+001
 3.672873544875174e+000	 9.746793951584587e-001	 1.075924900713707e+001
 3.663278928163325e+000	 1.010142313973292e+000	 1.076428974606142e+001
 3.653316041121927e+000	 1.045601216382847e+000	 1.076708703978187e+001
 3.761143034176585e+000	 6.960086754916621e-001	 1.061830270586793e+001
 3.754392269199381e+000	 7.315488287755653e-001	 1.063543088287736e+001
 3.747284661758370e+000	 7.671262371150364e-001	 1.065400719334502e+001
 3.739818174759607e+000	 8.027359588749251e-001	 1.067502696980554e+001
 3.731990854232656e+000	 8.383729861288674e-001	 1.069346152997038e+001
 3.723800831484869e+000	 8.740322461977362e-001	 1.070931658037446e+001
 3.715246325228692e+000	 9.097086032625616e-001	 1.072261343501055e+001
 3.706325643679236e+000	 9.453968600516960e-001	 1.073338981599204e+001
 3.697037186619333e+000	 9.810917596018941e-001	 1.074170064088344e+001
 3.687379447429296e+000	 1.016787987092874e+000	 1.074761879406124e+001
 3.677351015078551e+000	 1.052480171754797e+000	 1.075123587942535e+001
 3.785725668385978e+000	 7.005577518026629e-001	 1.062006902857002e+001
 3.778930780762281e+000	 7.363301936703310e-001	 1.063548699875579e+001
 3.771776718371052e+000	 7.721401340906254e-001	 1.064958869359994e+001
 3.764261430804003e+000	 8.079825991301263e-001	 1.066239050880571e+001
 3.756382951319652e+000	 8.438525481309243e-001	 1.067390856719941e+001
 3.748139399011674e+000	 8.797448752591266e-001	 1.068563859851714e+001
 3.739528980950109e+000	 9.156544111283187e-001	 1.070045641373620e+001
 3.730549994292652e+000	 9.515759244977564e-001	 1.071266906153099e+001
 3.721200828363199e+000	 9.875041240449581e-001	 1.072233771491962e+001
 3.711479966694873e+000	 1.023433660212254e+000	 1.072954205540833e+001
 3.701385989034681e+000	 1.059359127126733e+000	 1.073438103905408e+001
 3.810308302595879e+000	 7.051068281126635e-001	 1.062141823736906e+001
 3.803469292325589e+000	 7.411115585641065e-001	 1.063535333441765e+001
 3.796268774984041e+000	 7.771540310652531e-001	 1.064800479602307e+001
 3.788704686848607e+000	 8.132292393844147e-001	 1.065940089884719e+001
 3.780775048406756e+000	 8.493321101321366e-001	 1.066956979618642e+001
 3.772477966538485e+000	 8.854575043197607e-001	 1.067853948159672e+001
 3.763811636671433e+000	 9.216002189934274e-001	 1.068633775297679e+001
 3.754774344905874e+000	 9.577549889432973e-001	 1.069299217719664e+001
 3.745364470106770e+000	 9.939164884876511e-001	 1.070122244139213e+001
 3.735580485960059e+000	 1.030079333331432e+000	 1.071011951651339e+001
 3.725420962990317e+000	 1.066238082498657e+000	 1.071658020924243e+001
 3.834890936806286e+000	 7.096559044216639e-001	 1.062235169772976e+001
 3.828007803889303e+000	 7.458929234568915e-001	 1.063502634160062e+001
 3.820760831597337e+000	 7.821679280389193e-001	 1.064645068526077e+001
 3.813147942893418e+000	 8.184758796377905e-001	 1.065666479476853e+001
 3.805167145493967e+000	 8.548116721325045e-001	 1.066570876052369e+001
 3.796816534065303e+000	 8.911701333796380e-001	 1.067362265200888e+001
 3.788094292392663e+000	 9.275460268578878e-001	 1.068044647264567e+001
 3.778998695518902e+000	 9.639340533883180e-001	 1.068622011485915e+001
 3.769528111850048e+000	 1.000328852929973e+000	 1.069098331544531e+001
 3.759681005224847e+000	 1.036725006450407e+000	 1.069477561133584e+001
 3.749455936945461e+000	 1.073117037870568e+000	 1.069789235633370e+001
 3.859473571017202e+000	 7.142049807296647e-001	 1.062287074526476e+001
 3.852546315453426e+000	 7.506742883486862e-001	 1.063450256833570e+001
 3.845252888210939e+000	 7.871818250116243e-001	 1.064491811604023e+001
 3.837591198938435e+000	 8.237225198902530e-001	 1.065416915420346e+001
 3.829559242581285e+000	 8.602912341320280e-001	 1.066230761892085e+001
 3.821155101592128e+000	 8.968827624387593e-001	 1.066938556246246e+001
 3.812376948113800e+000	 9.334918347217001e-001	 1.067545509895158e+001
 3.803223046131738e+000	 9.701131178328188e-001	 1.068056834991800e+001
 3.793691753593033e+000	 1.006741217371923e+000	 1.068477738982790e+001
 3.783781524489245e+000	 1.043370679569180e+000	 1.068813419169272e+001
 3.773490910900110e+000	 1.079995993242467e+000	 1.069069057286077e+001
 3.884056205228624e+000	 7.187540570366653e-001	 1.062297668667928e+001
 3.877084827017956e+000	 7.554556532394905e-001	 1.063377865589995e+001
 3.869744944824850e+000	 7.921957219833682e-001	 1.064339905869954e+001
 3.862034454983661e+000	 8.289691601418032e-001	 1.065190127292324e+001
 3.853951339668710e+000	 8.657707961307067e-001	 1.065934899086338e+001
 3.845493669118960e+000	 9.025953914971242e-001	 1.066580615637165e+001
 3.836659603834844e+000	 9.394376425848642e-001	 1.067133690140880e+001
 3.827447396744379e+000	 9.762921822767998e-001	 1.067600548213808e+001
 3.817855395335724e+000	 1.013153581813502e+000	 1.067987621467212e+001
 3.807882043753248e+000	 1.050016352687751e+000	 1.068301341058354e+001
 3.797525884854265e+000	 1.086874948614353e+000	 1.068548131229231e+001
 3.908638839440555e+000	 7.233031333426659e-001	 1.062267080068019e+001
 3.901623338582893e+000	 7.602370181293046e-001	 1.063285133588420e+001
 3.894237001439066e+000	 7.972096189541506e-001	 1.064188569240727e+001
 3.886477711029093e+000	 8.342158003924406e-001	 1.064984877420332e+001
 3.878343436756242e+000	 8.712503581285412e-001	 1.065681594212273e+001
 3.869832236645799e+000	 9.083080205547327e-001	 1.066286294227728e+001
 3.860942259555794e+000	 9.453834504473802e-001	 1.066806583350776e+001
 3.851671747356828e+000	 9.824712467202609e-001	 1.067250091406813e+001
 3.842019037078121e+000	 1.019565946254710e+000	 1.067624464764251e+001
 3.831982563016857e+000	 1.056662025806120e+000	 1.067937358881404e+001
 3.821560858807927e+000	 1.093753903986227e+000	 1.068196430810703e+001
 3.933221473652993e+000	 7.278522096476667e-001	 1.062195433885097e+001
 3.926161850148238e+000	 7.650183830181283e-001	 1.063171742737078e+001
 3.918729058053593e+000	 8.022235159239719e-001	 1.064037039863679e+001
 3.910920967074733e+000	 8.394624406421654e-001	 1.064799959858887e+001
 3.902735533843881e+000	 8.767299201255313e-001	 1.065469197081000e+001
 3.894170804172645e+000	 9.140206496115850e-001	 1.066053497618664e+001
 3.885224915276652e+000	 9.513292583092481e-001	 1.066561651134079e+001
 3.875896097969084e+000	 9.886503111632025e-001	 1.067002482595374e+001
 3.866182678820226e+000	 1.025978310695547e+000	 1.067384843910537e+001
 3.856083082280073e+000	 1.063307698924287e+000	 1.067717605475618e+001
 3.845595832761096e+000	 1.100632859358089e+000	 1.068009647650239e+001
 3.605246093207198e+000	 1.031843305638912e+000	 1.079555419215180e+001
 3.595049584380677e+000	 1.066826361614633e+000	 1.081449549430495e+001
 3.584487172911277e+000	 1.101794766387843e+000	 1.083330010577645e+001
 3.573557767880753e+000	 1.136743101864962e+000	 1.085221988321555e+001
 3.562260379467235e+000	 1.171665903280343e+000	 1.087152659797995e+001
 3.550594120669679e+000	 1.206557661411701e+000	 1.089151240014662e+001
 3.538558208978485e+000	 1.241412824861386e+000	 1.091249024785528e+001
 3.526151967989605e+000	 1.276225802402121e+000	 1.091242579398719e+001
 3.513374828959480e+000	 1.310990965385763e+000	 1.090699616208634e+001
 3.500226332298183e+000	 1.345702650213483e+000	 1.090379258470925e+001
 3.486706128998200e+000	 1.380355160865667e+000	 1.090304591107516e+001
 3.629281067164810e+000	 1.038722261010886e+000	 1.078187814756224e+001
 3.619016581613070e+000	 1.073938537359064e+000	 1.080333346597627e+001
 3.608383754067449e+000	 1.109140064830154e+000	 1.082448974114478e+001
 3.597381486336913e+000	 1.144321389209950e+000	 1.084559239014397e+001
 3.586008782000778e+000	 1.179477009301036e+000	 1.086690721495289e+001
 3.574264748144659e+000	 1.214601379152982e+000	 1.088872088908787e+001
 3.562148597042228e+000	 1.249688910358818e+000	 1.091134140899035e+001
 3.549659647780074e+000	 1.284733974416420e+000	 1.090593968762113e+001
 3.536797327823013e+000	 1.319730905153324e+000	 1.090220817488473e+001
 3.523561174517189e+000	 1.354674001213380e+000	 1.090062839831502e+001
 3.509950836528365e+000	 1.389557528603505e+000	 1.090142830213761e+001
 3.653316041121927e+000	 1.045601216382847e+000	 1.076708703978187e+001
 3.642983578844875e+000	 1.081050713103668e+000	 1.079109315080771e+001
 3.632280335222947e+000	 1.116485363272793e+000	 1.081463166570909e+001
 3.621205204792322e+000	 1.151899676555394e+000	 1.083794144519251e+001
 3.609757184533504e+000	 1.187288115322284e+000	 1.086128221389831e+001
 3.597935375618768e+000	 1.222645096894885e+000	 1.088493507002525e+001
 3.585738985105053e+000	 1.257964995856909e+000	 1.090253074467687e+001
 3.573167327569588e+000	 1.293242146431385e+000	 1.089858116966364e+001
 3.560219826685567e+000	 1.328470844921530e+000	 1.089649130330999e+001
 3.546896016735199e+000	 1.363645352213865e+000	 1.089647610622450e+001
 3.533195544057530e+000	 1.398759896341848e+000	 1.089876062523102e+001
 3.677351015078551e+000	 1.052480171754797e+000	 1.075123587942535e+001
 3.666950576076089e+000	 1.088162888848445e+000	 1.077783404781370e+001
 3.656176916377769e+000	 1.123830661715762e+000	 1.080378977969317e+001
 3.645028923246980e+000	 1.159477963901295e+000	 1.082933525965359e+001
 3.633505587065415e+000	 1.195099221344086e+000	 1.085472402414912e+001
 3.621606003092005e+000	 1.230688814637408e+000	 1.088023149448404e+001
 3.609329373166961e+000	 1.266241081355659e+000	 1.089265518762181e+001
 3.596675007358150e+000	 1.301750318447017e+000	 1.089037020162486e+001
 3.583642325547142e+000	 1.337210784690379e+000	 1.088986821965932e+001
 3.570230858952213e+000	 1.372616703214940e+000	 1.089136103378191e+001
 3.556440251585695e+000	 1.407962264080697e+000	 1.089507079943609e+001
 3.701385989034681e+000	 1.059359127126733e+000	 1.073438103905408e+001
 3.690917573306717e+000	 1.095275064593396e+000	 1.076361697169624e+001
 3.680073497531918e+000	 1.131175960159060e+000	 1.079202925285676e+001
 3.668852641700889e+000	 1.167056251247652e+000	 1.081984326833254e+001
 3.657253989596510e+000	 1.202910327366441e+000	 1.084730625267788e+001
 3.645276630564371e+000	 1.238732532380554e+000	 1.087468784592686e+001
 3.632919761227950e+000	 1.274517166855068e+000	 1.088199641658429e+001
 3.620182687145758e+000	 1.310258490463315e+000	 1.088132778614640e+001
 3.607064824407738e+000	 1.345950724459871e+000	 1.088236259230109e+001
 3.593565701168235e+000	 1.381588054216606e+000	 1.088530945759948e+001
 3.579684959112860e+000	 1.417164631820050e+000	 1.089038765057760e+001
 3.725420962990317e+000	 1.066238082498657e+000	 1.071658020924243e+001
 3.714884570536753e+000	 1.102387240338519e+000	 1.074850401040332e+001
 3.703970078685392e+000	 1.138521258602688e+000	 1.077941648354283e+001
 3.692676360154048e+000	 1.174634538594465e+000	 1.080953609007950e+001
 3.681002392126787e+000	 1.210721433389350e+000	 1.083910364610840e+001
 3.668947258035864e+000	 1.246776250124320e+000	 1.086838290323953e+001
 3.656510149288022e+000	 1.282793252355136e+000	 1.087057376396961e+001
 3.643690366932412e+000	 1.318766662480280e+000	 1.087147593341649e+001
 3.630487323267354e+000	 1.354690664230006e+000	 1.087399905354343e+001
 3.616900543383260e+000	 1.390559405218861e+000	 1.087834857487142e+001
 3.602929666639025e+000	 1.426366999559909e+000	 1.088474088197451e+001
 3.749455936945461e+000	 1.073117037870568e+000	 1.069789235633370e+001
 3.738851567766202e+000	 1.109499416083815e+000	 1.073255848431983e+001
 3.727866659838193e+000	 1.145866557046645e+000	 1.076601905929985e+001
 3.716500078606456e+000	 1.182212825941734e+000	 1.079848548983925e+001
 3.704750794656250e+000	 1.218532539412813e+000	 1.083019205418848e+001
 3.692617885506486e+000	 1.254819967868708e+000	 1.085732184932177e+001
 3.680100537347176e+000	 1.291069337855863e+000	 1.085840757986627e+001
 3.667198046718112e+000	 1.327274834497911e+000	 1.086083762887679e+001
 3.653909822125992e+000	 1.363430604000785e+000	 1.086480316873879e+001
 3.640235385597291e+000	 1.399530756221705e+000	 1.087050647386812e+001
 3.626174374164190e+000	 1.435569367300273e+000	 1.087816104631516e+001
 3.773490910900110e+000	 1.079995993242467e+000	 1.069069057286077e+001
 3.762818564995062e+000	 1.116611591829284e+000	 1.072152832361664e+001
 3.751763240990317e+000	 1.153211855490931e+000	 1.075255668026261e+001
 3.740323797058115e+000	 1.189791113289460e+000	 1.078676434215137e+001
 3.728499197184896e+000	 1.226343645436830e+000	 1.082064839465854e+001
 3.716288512976234e+000	 1.262863685613718e+000	 1.084286089632356e+001
 3.703690925405412e+000	 1.299345423357249e+000	 1.084551919963576e+001
 3.690705726502859e+000	 1.335783006516208e+000	 1.084943680216338e+001
 3.677332320983649e+000	 1.372170543772207e+000	 1.085480140656908e+001
 3.663570227810326e+000	 1.408502107225139e+000	 1.086181210555784e+001
 3.649419081688355e+000	 1.444771735041142e+000	 1.087067951860728e+001
 3.797525884854265e+000	 1.086874948614353e+000	 1.068548131229231e+001
 3.786785562223331e+000	 1.123723767574926e+000	 1.071651462195762e+001
 3.775659822141769e+000	 1.160557153935546e+000	 1.074776472589864e+001
 3.764147515509023e+000	 1.197369400637642e+000	 1.077929749002643e+001
 3.752247599712727e+000	 1.234154751461400e+000	 1.081117780774623e+001
 3.739959140445111e+000	 1.270907403359349e+000	 1.082773473661968e+001
 3.727281313462729e+000	 1.307621508859294e+000	 1.083193091273303e+001
 3.714213406286651e+000	 1.344291178535172e+000	 1.083729829722714e+001
 3.700754819840327e+000	 1.380910483544272e+000	 1.084402111045936e+001
 3.686905070022366e+000	 1.417473458229163e+000	 1.085229525630621e+001
 3.672663789211519e+000	 1.453974102782516e+000	 1.086232847015533e+001
 3.821560858807927e+000	 1.093753903986227e+000	 1.068196430810703e+001
 3.810752559451014e+000	 1.130835943320741e+000	 1.071308702016476e+001
 3.799556403292546e+000	 1.167902452380491e+000	 1.074445325864099e+001
 3.787971233959183e+000	 1.204947687986281e+000	 1.077612626922921e+001
 3.775996002239742e+000	 1.241965857486524e+000	 1.080816826758703e+001
 3.763629767913117e+000	 1.278951121105601e+000	 1.081544863808303e+001
 3.750871701519130e+000	 1.315897594361998e+000	 1.081783749011625e+001
 3.737721086069491e+000	 1.352799350554802e+000	 1.082444784358180e+001
 3.724177318696026e+000	 1.389650423316981e+000	 1.083249047107015e+001
 3.710239912233413e+000	 1.426444809233777e+000	 1.084198652160588e+001
 3.695908496733685e+000	 1.463176470524395e+000	 1.085314084351954e+001
 3.845595832761096e+000	 1.100632859358089e+000	 1.068009647650239e+001
 3.834719556678107e+000	 1.137948119066728e+000	 1.071120398342649e+001
 3.823452984442649e+000	 1.175247750825766e+000	 1.074258229148231e+001
 3.811794952408592e+000	 1.212525975335376e+000	 1.077429206893148e+001
 3.799744404765942e+000	 1.249776963512203e+000	 1.080639289638134e+001
 3.787300395380251e+000	 1.286994838852475e+000	 1.080639216030904e+001
 3.774462089574614e+000	 1.324173679865361e+000	 1.080838459990981e+001
 3.761228765851377e+000	 1.361307522575099e+000	 1.081282400345813e+001
 3.747599817550746e+000	 1.398390363090333e+000	 1.082023849982135e+001
 3.733574754443465e+000	 1.435416160238980e+000	 1.083091728079123e+001
 3.719153204254849e+000	 1.472378838266780e+000	 1.084315032841433e+001
 3.486706128998200e+000	 1.380355160865667e+000	 1.090304591107516e+001
 3.472813981996224e+000	 1.414942771488917e+000	 1.091354404443925e+001
 3.458549767465619e+000	 1.449459729040826e+000	 1.092396905331923e+001
 3.443913476037222e+000	 1.483900255988308e+000	 1.093439243729525e+001
 3.428905213945839e+000	 1.518258553056113e+000	 1.094489588234308e+001
 3.413525204100325e+000	 1.552528802025695e+000	 1.095557140400711e+001
 3.397773787075000e+000	 1.586705168581185e+000	 1.096652146605998e+001
 3.381651422020273e+000	 1.620781805199965e+000	 1.097785907369524e+001
 3.365158687490438e+000	 1.654752854085250e+000	 1.098970784035732e+001
 3.348296282186655e+000	 1.688612450138004e+000	 1.100220202737406e+001
 3.331065025613314e+000	 1.722354723965393e+000	 1.101548655562437e+001
 3.509950836528365e+000	 1.389557528603505e+000	 1.090142830213761e+001
 3.495966075212821e+000	 1.424375723297864e+000	 1.090980514909727e+001
 3.481606765918415e+000	 1.459122793900348e+000	 1.091815966261752e+001
 3.466872899213523e+000	 1.493792924360984e+000	 1.092657722640232e+001
 3.451764582041180e+000	 1.528380276742684e+000	 1.093515377434295e+001
 3.436282038796304e+000	 1.562878994038781e+000	 1.094399592618450e+001
 3.420425612323706e+000	 1.597283203037965e+000	 1.095322109782816e+001
 3.404195764834802e+000	 1.631587017234134e+000	 1.096295758530842e+001
 3.387593078740911e+000	 1.665784539778523e+000	 1.097334462154331e+001
 3.370618257401203e+000	 1.699869866471439e+000	 1.098453240501988e+001
 3.353272125783427e+000	 1.733837088790756e+000	 1.099668209964564e+001
 3.533195544057530e+000	 1.398759896341848e+000	 1.089876062523102e+001
 3.519118168428428e+000	 1.433808675107226e+000	 1.090529818651270e+001
 3.504663764370251e+000	 1.468785858760214e+000	 1.091186040775368e+001
 3.489832322388910e+000	 1.503685592733951e+000	 1.091854641777935e+001
 3.474623950135680e+000	 1.538502000429517e+000	 1.092546626441350e+001
 3.459038873491527e+000	 1.573229186052117e+000	 1.093274104284929e+001
 3.443077437571767e+000	 1.607861237495004e+000	 1.094050299779824e+001
 3.426740107648815e+000	 1.642392229268590e+000	 1.094889559844737e+001
 3.410027469991016e+000	 1.676816225472134e+000	 1.095807358531689e+001
 3.392940232615552e+000	 1.711127282805278e+000	 1.096820298817645e+001
 3.375479225953534e+000	 1.745319453616616e+000	 1.097946111424851e+001
 3.556440251585695e+000	 1.407962264080697e+000	 1.089507079943609e+001
 3.542270261643044e+000	 1.443241626917004e+000	 1.090004681080648e+001
 3.527720762821125e+000	 1.478448923620425e+000	 1.090509063691632e+001
 3.512791745563388e+000	 1.513578261107214e+000	 1.091031501448404e+001
 3.497483318229335e+000	 1.548623724116612e+000	 1.091584397312267e+001
 3.481795708185998e+000	 1.583579378065704e+000	 1.092181295662631e+001
 3.465729262819184e+000	 1.618439271952301e+000	 1.092836891716864e+001
 3.449284450462312e+000	 1.653197441303335e+000	 1.093567038143504e+001
 3.432461861240755e+000	 1.687847911166081e+000	 1.094388748777375e+001
 3.415262207829704e+000	 1.722384699139524e+000	 1.095320199351959e+001
 3.397686326123631e+000	 1.756801818442972e+000	 1.096380725171654e+001
 3.579684959112860e+000	 1.417164631820050e+000	 1.089038765057760e+001
 3.565422354856672e+000	 1.452674578727196e+000	 1.089407571518818e+001
 3.550777761271038e+000	 1.488111988480979e+000	 1.089787086949582e+001
 3.535751168736951e+000	 1.523470929480768e+000	 1.090189932259599e+001
 3.520342686322147e+000	 1.558745447803968e+000	 1.090629895552590e+001
 3.504552542879714e+000	 1.593929570079541e+000	 1.091121943567678e+001
 3.488381088065955e+000	 1.629017306409859e+000	 1.091682230324422e+001
 3.471828793275291e+000	 1.664002653338367e+000	 1.092328102872941e+001
 3.454896252490127e+000	 1.698879596860366e+000	 1.093078104056894e+001
 3.437584183043659e+000	 1.733642115474177e+000	 1.093951972204185e+001
 3.419893426293720e+000	 1.768284183269824e+000	 1.094970637667741e+001
 3.602929666639025e+000	 1.426366999559909e+000	 1.088474088197451e+001
 3.588574448069307e+000	 1.462107530537802e+000	 1.088741059843703e+001
 3.573834759719991e+000	 1.497775053341878e+000	 1.089022275830360e+001
 3.558710591909605e+000	 1.533363597854615e+000	 1.089331690918368e+001
 3.543202054414117e+000	 1.568867171491587e+000	 1.089684465489227e+001
 3.527309377572676e+000	 1.604279762093628e+000	 1.090096976319715e+001
 3.511032913312080e+000	 1.639595340867676e+000	 1.090586824472318e+001
 3.494373136087754e+000	 1.674807865373687e+000	 1.091172840201586e+001
 3.477330643739132e+000	 1.709911282554987e+000	 1.091875084783435e+001
 3.459906158257415e+000	 1.744899531809236e+000	 1.092714849181658e+001
 3.442100526463804e+000	 1.779766548097172e+000	 1.093714649473715e+001
 3.626174374164190e+000	 1.435569367300273e+000	 1.087816104631516e+001
 3.611726541280953e+000	 1.471540482348824e+000	 1.088007813267221e+001
 3.596891758167983e+000	 1.507438118203121e+000	 1.088216905324440e+001
 3.581670015081345e+000	 1.543256266228756e+000	 1.088458656188824e+001
 3.566061422505243e+000	 1.578988895179467e+000	 1.088749585821049e+001
 3.550066212264883e+000	 1.614629954107966e+000	 1.089107468886025e+001
 3.533684738557561e+000	 1.650173375325751e+000	 1.089551341908821e+001
 3.516917478899702e+000	 1.685613077409295e+000	 1.090101507356530e+001
 3.499765034987770e+000	 1.720942968249945e+000	 1.090779534552239e+001
 3.482228133470974e+000	 1.756156948144701e+000	 1.091608257334781e+001
 3.464307626633878e+000	 1.791248912925016e+000	 1.092611768385893e+001
 3.649419081688355e+000	 1.444771735041142e+000	 1.087067951860728e+001
 3.634878634491609e+000	 1.480973434160260e+000	 1.087210593235459e+001
 3.619948756615013e+000	 1.517101183064708e+000	 1.087373356637722e+001
 3.604629438252175e+000	 1.553148934603190e+000	 1.087572825005159e+001
 3.588920790595527e+000	 1.589110618867609e+000	 1.087826865339526e+001
 3.572823046956338e+000	 1.624980146122555e+000	 1.088154638211227e+001
 3.556336563802396e+000	 1.660751409784085e+000	 1.088576604200837e+001
 3.539461821711133e+000	 1.696418289445192e+000	 1.089114527175685e+001
 3.522199426236039e+000	 1.731974653945240e+000	 1.089791474306779e+001
 3.504550108684335e+000	 1.767414364480573e+000	 1.090631812739099e+001
 3.486514726803943e+000	 1.802731277753356e+000	 1.091661202836447e+001
 3.672663789211519e+000	 1.453974102782516e+000	 1.086232847015533e+001
 3.658030727701275e+000	 1.490406385972112e+000	 1.086352252446596e+001
 3.643005755061083e+000	 1.526764247926639e+000	 1.086494113830265e+001
 3.627588861422094e+000	 1.563041602977917e+000	 1.086676308732100e+001
 3.611780158684968e+000	 1.599232342556013e+000	 1.086918038811874e+001
 3.595579881647038e+000	 1.635330338137394e+000	 1.087239838724314e+001
 3.578988389046586e+000	 1.671329444242679e+000	 1.087663581866224e+001
 3.562006164522048e+000	 1.707223501481376e+000	 1.088212482866944e+001
 3.544633817483943e+000	 1.743006339640873e+000	 1.088911096726464e+001
 3.526872083897499e+000	 1.778671780816851e+000	 1.089785314513487e+001
 3.508721826974002e+000	 1.814213642582192e+000	 1.090862355544167e+001
 3.695908496733685e+000	 1.463176470524395e+000	 1.085314084351954e+001
 3.681182820909950e+000	 1.499839337784378e+000	 1.085435731981330e+001
 3.666062753506191e+000	 1.536427312788914e+000	 1.085581760581890e+001
 3.650548284591099e+000	 1.572934271352937e+000	 1.085771329566448e+001
 3.634639526773566e+000	 1.609354066244679e+000	 1.086024963019554e+001
 3.618336716336984e+000	 1.645680530152484e+000	 1.086364558015252e+001
 3.601640214290131e+000	 1.681907478701532e+000	 1.086813389689798e+001
 3.584550507332447e+000	 1.718028713517848e+000	 1.087396112965097e+001
 3.567068208731479e+000	 1.754038025336841e+000	 1.088138760826153e+001
 3.549194059110464e+000	 1.789929197153535e+000	 1.089068739064074e+001
 3.530928927144053e+000	 1.825696007411524e+000	 1.090214817404817e+001
 3.719153204254849e+000	 1.472378838266780e+000	 1.084315032841433e+001
 3.704334914117635e+000	 1.509272289597060e+000	 1.084464058540929e+001
 3.689119751950341e+000	 1.546090377651535e+000	 1.084638977079058e+001
 3.673507707759193e+000	 1.582826939728250e+000	 1.084860217073587e+001
 3.657498894861322e+000	 1.619475789933607e+000	 1.085149612945329e+001
 3.641093551026176e+000	 1.656030722167824e+000	 1.085530412673698e+001
 3.624292039533033e+000	 1.692485513160644e+000	 1.086027282214998e+001
 3.607094850142330e+000	 1.728833925554609e+000	 1.086666306477862e+001
 3.589502599978649e+000	 1.765069711033148e+000	 1.087474986758158e+001
 3.571516034323234e+000	 1.801186613490626e+000	 1.088482234544014e+001
 3.553136027314097e+000	 1.837178372241353e+000	 1.089718361610608e+001
 3.331065025613314e+000	 1.722354723965393e+000	 1.101548655562437e+001
 3.313465858646516e+000	 1.755973804923333e+000	 1.102592481310355e+001
 3.295499844011498e+000	 1.789463824188730e+000	 1.104312642459115e+001
 3.277168166668326e+000	 1.822818917859585e+000	 1.106771140076891e+001
 3.258472134105683e+000	 1.856033230080492e+000	 1.110030846003934e+001
 3.239413176539813e+000	 1.889100916188957e+000	 1.110886885737068e+001
 3.219992847017981e+000	 1.922016145879749e+000	 1.108106526107455e+001
 3.200212821425362e+000	 1.954773106383973e+000	 1.106072379113577e+001
 3.180074898394475e+000	 1.987366005659461e+000	 1.104854367349425e+001
 3.159580999116347e+000	 2.019789075589026e+000	 1.104523588926459e+001
 3.138733167052782e+000	 2.052036575183095e+000	 1.105152243917054e+001
 3.353272125783427e+000	 1.733837088790756e+000	 1.099668209964564e+001
 3.335555631036250e+000	 1.767680296954858e+000	 1.101463505989970e+001
 3.317469842969797e+000	 1.801393583015249e+000	 1.103918263807220e+001
 3.299015954443869e+000	 1.834971043977251e+000	 1.107091693989846e+001
 3.280195281663736e+000	 1.868406784946424e+000	 1.111043899887198e+001
 3.261009264380423e+000	 1.901694922295855e+000	 1.109721605681630e+001
 3.241459465994842e+000	 1.934829586851615e+000	 1.107559283177902e+001
 3.221547573564735e+000	 1.967804927093015e+000	 1.106103661106998e+001
 3.201275397713506e+000	 2.000615112364274e+000	 1.105422000276753e+001
 3.180644872440122e+000	 2.033254336094089e+000	 1.105582790828605e+001
 3.159658054829465e+000	 2.065716819019625e+000	 1.106655681696651e+001
 3.375479225953534e+000	 1.745319453616616e+000	 1.097946111424851e+001
 3.357645403426167e+000	 1.779386788986964e+000	 1.100421204049743e+001
 3.339439841928447e+000	 1.813323341842405e+000	 1.103538737029384e+001
 3.320863742219913e+000	 1.847123170095580e+000	 1.107355168368524e+001
 3.301918429222424e+000	 1.880780339813014e+000	 1.110646795050995e+001
 3.282605352221780e+000	 1.914288928403380e+000	 1.108428719800612e+001
 3.262926084972539e+000	 1.947643027824043e+000	 1.106814376327915e+001
 3.242882325705017e+000	 1.980836747802526e+000	 1.105867056382860e+001
 3.222475897033497e+000	 2.013864219069431e+000	 1.105651398674711e+001
 3.201708745764888e+000	 2.046719596599342e+000	 1.106233325938653e+001
 3.180582942607150e+000	 2.079397062856160e+000	 1.107679977378578e+001
 3.397686326123631e+000	 1.756801818442972e+000	 1.096380725171654e+001
 3.379735175816265e+000	 1.791093281019651e+000	 1.099465354853924e+001
 3.361409840887453e+000	 1.825253100670198e+000	 1.103175246806199e+001
 3.342711529996462e+000	 1.859275296214572e+000	 1.107564143728637e+001
 3.323641576781748e+000	 1.893153894680265e+000	 1.108719018897518e+001
 3.304201440063882e+000	 1.926882934511530e+000	 1.107017479235495e+001
 3.284392703951075e+000	 1.960456468797033e+000	 1.105882450950536e+001
 3.264217077846207e+000	 1.993868568512505e+000	 1.105374590192558e+001
 3.243676396354447e+000	 2.027113325774932e+000	 1.105555952602769e+001
 3.222772619090644e+000	 2.060184857104785e+000	 1.106489933426365e+001
 3.201507830385834e+000	 2.093077306692701e+000	 1.108241202907849e+001
 3.419893426293720e+000	 1.768284183269824e+000	 1.094970637667741e+001
 3.401824948206546e+000	 1.802799773052920e+000	 1.098595923079330e+001
 3.383379839846811e+000	 1.837182859498628e+000	 1.102829127299608e+001
 3.364559317773515e+000	 1.871427422334228e+000	 1.107721314343785e+001
 3.345364724341706e+000	 1.905527449548174e+000	 1.106749256014336e+001
 3.325797527906732e+000	 1.939476940620305e+000	 1.105497177830726e+001
 3.305859322930448e+000	 1.973269909770586e+000	 1.104774159844757e+001
 3.285551829988306e+000	 2.006900389222952e+000	 1.104638260073040e+001
 3.264876895676356e+000	 2.040362432480778e+000	 1.105148989479370e+001
 3.243836492417388e+000	 2.073650117610419e+000	 1.106367255104942e+001
 3.222432718165519e+000	 2.106757550529247e+000	 1.108355298385573e+001
 3.442100526463804e+000	 1.779766548097172e+000	 1.093714649473715e+001
 3.423914720597010e+000	 1.814506265086770e+000	 1.097813052737531e+001
 3.405349838806521e+000	 1.849112618327695e+000	 1.102501857330924e+001
 3.386407105551071e+000	 1.883579548454547e+000	 1.106051280359632e+001
 3.367087871902299e+000	 1.917901004416744e+000	 1.104745503361668e+001
 3.347393615750326e+000	 1.952070946729707e+000	 1.103877150756209e+001
 3.327325941910659e+000	 1.986083350744701e+000	 1.103500162976623e+001
 3.306886582131312e+000	 2.019932209933868e+000	 1.103670036740812e+001
 3.286077394999225e+000	 2.053611539186969e+000	 1.104443776102606e+001
 3.264900365745122e+000	 2.087115378116242e+000	 1.105879838571552e+001
 3.243357605946203e+000	 2.120437794365798e+000	 1.108038076321977e+001
 3.464307626633878e+000	 1.791248912925016e+000	 1.092611768385893e+001
 3.446004492987656e+000	 1.826212757121202e+000	 1.097117061426924e+001
 3.427319837766585e+000	 1.861042377157399e+000	 1.102195055744316e+001
 3.408254893329133e+000	 1.895731674575529e+000	 1.103666937963357e+001
 3.388811019463529e+000	 1.930274559285973e+000	 1.102715831113522e+001
 3.368989703594667e+000	 1.964664952839736e+000	 1.102166773182776e+001
 3.348792560891706e+000	 1.998896791719378e+000	 1.102071127249523e+001
 3.328221334275228e+000	 2.032964030645252e+000	 1.102481864951570e+001
 3.307277894323051e+000	 2.066860645893502e+000	 1.103453520593187e+001
 3.285964239073846e+000	 2.100580638622255e+000	 1.105042140227076e+001
 3.264282493727888e+000	 2.134118038202354e+000	 1.107305225725861e+001
 3.486514726803943e+000	 1.802731277753356e+000	 1.091661202836447e+001
 3.468094265378485e+000	 1.837919249156214e+000	 1.096508434804506e+001
 3.449289836727001e+000	 1.872972135987741e+000	 1.101910476947484e+001
 3.430102681107698e+000	 1.907883800697174e+000	 1.101327669870334e+001
 3.410534167025391e+000	 1.942648114155861e+000	 1.100668380326049e+001
 3.390585791439755e+000	 1.977258958950389e+000	 1.100375459008260e+001
 3.370259179873592e+000	 2.011710232694617e+000	 1.100497726283249e+001
 3.349556086420052e+000	 2.045995851357105e+000	 1.101085664326982e+001
 3.328478393647839e+000	 2.080109752600381e+000	 1.102191374263137e+001
 3.307028112403561e+000	 2.114045899128458e+000	 1.103868528180449e+001
 3.285207381510571e+000	 2.147798282038917e+000	 1.106172316037763e+001
 3.508721826974002e+000	 1.814213642582192e+000	 1.090862355544167e+001
 3.490184037769495e+000	 1.849625741191809e+000	 1.095987821267559e+001
 3.471259835687771e+000	 1.884901894818718e+000	 1.099755311595788e+001
 3.451950468886766e+000	 1.920035926819483e+000	 1.099040431685432e+001
 3.432257314587890e+000	 1.955021669026409e+000	 1.098611360694442e+001
 3.412181879285589e+000	 1.989852965061668e+000	 1.098512659631968e+001
 3.391725798856314e+000	 2.024523673670419e+000	 1.098790640201457e+001
 3.370890838565784e+000	 2.059027672069426e+000	 1.099493330150068e+001
 3.349678892973585e+000	 2.093358859307605e+000	 1.100670433413542e+001
 3.328091985734264e+000	 2.127511159634852e+000	 1.102373285042714e+001
 3.306132269294255e+000	 2.161478525875483e+000	 1.104654800913769e+001
 3.530928927144053e+000	 1.825696007411524e+000	 1.090214817404817e+001
 3.512273810160687e+000	 1.861332233227984e+000	 1.095556026836029e+001
 3.493229834648894e+000	 1.896831653650335e+000	 1.097323511244998e+001
 3.473798256666338e+000	 1.932188052942454e+000	 1.096812275773396e+001
 3.453980462151023e+000	 1.967395223897617e+000	 1.096553048394467e+001
 3.433777967132169e+000	 2.002446971173574e+000	 1.096587862775387e+001
 3.413192417839874e+000	 2.037337114646784e+000	 1.096960555427142e+001
 3.392225590712425e+000	 2.072059492782216e+000	 1.097716734130557e+001
 3.370879392300290e+000	 2.106607966015173e+000	 1.098903741064453e+001
 3.349155859065959e+000	 2.140976420141436e+000	 1.100570610615624e+001
 3.327057157078940e+000	 2.175158769712056e+000	 1.102768021866525e+001
 3.553136027314097e+000	 1.837178372241353e+000	 1.089718361610608e+001
 3.534363582552064e+000	 1.873038725264742e+000	 1.095214010226816e+001
 3.515199833610370e+000	 1.908761412482587e+000	 1.095016745828032e+001
 3.495646044446416e+000	 1.944340179066090e+000	 1.094650348235108e+001
 3.475703609714793e+000	 1.979768778769484e+000	 1.094501784004950e+001
 3.455374054979496e+000	 2.015040977286106e+000	 1.094610591347108e+001
 3.434659036824272e+000	 2.050150555623710e+000	 1.095018164485779e+001
 3.413560342859975e+000	 2.085091313495475e+000	 1.095767725141568e+001
 3.392079891627955e+000	 2.119857072723085e+000	 1.096904288619922e+001
 3.370219732398642e+000	 2.154441680648209e+000	 1.098474624479441e+001
 3.347982044864625e+000	 2.188839013548634e+000	 1.100527211769733e+001
 3.138733167052782e+000	 2.052036575183095e+000	 1.105152243917054e+001
 3.117533567548996e+000	 2.084102793783212e+000	 1.103480658686318e+001
 3.095984487346924e+000	 2.115982054262759e+000	 1.103478847957449e+001
 3.074088333998507e+000	 2.147668716221342e+000	 1.103138204936990e+001
 3.051847635178519e+000	 2.179157179169301e+000	 1.102459536342236e+001
 3.029265037897612e+000	 2.210441885698607e+000	 1.101444221699026e+001
 3.006343307615602e+000	 2.241517324636550e+000	 1.100094195608026e+001
 2.983085327255383e+000	 2.272378034178562e+000	 1.098411928587730e+001
 2.959494096117997e+000	 2.303018604996550e+000	 1.096400406546126e+001
 2.935572728699535e+000	 2.333433683319122e+000	 1.094063108937618e+001
 2.911324453410707e+000	 2.363617973980084e+000	 1.091403985666231e+001
 3.159658054829465e+000	 2.065716819019625e+000	 1.106655681696651e+001
 3.138317124662376e+000	 2.097996812411230e+000	 1.103567878090218e+001
 3.116624383925715e+000	 2.130088601294634e+000	 1.101664955507655e+001
 3.094582256221773e+000	 2.161986507666774e+000	 1.101363011743271e+001
 3.072193286076493e+000	 2.193684893701391e+000	 1.100803334093954e+001
 3.049460138147258e+000	 2.225178164941071e+000	 1.099991122290615e+001
 3.026385596330288e+000	 2.256460773471950e+000	 1.098932081088643e+001
 3.002972562767960e+000	 2.287527221077428e+000	 1.097632396402153e+001
 2.979224056756658e+000	 2.318372062367228e+000	 1.096098710098833e+001
 2.955143213555779e+000	 2.348989907878144e+000	 1.094338093520731e+001
 2.930733283098773e+000	 2.379375427142877e+000	 1.092358019800705e+001
 3.180582942607150e+000	 2.079397062856160e+000	 1.107679977378578e+001
 3.159100681776744e+000	 2.111890831039068e+000	 1.104262930270772e+001
 3.137264280505466e+000	 2.144195148326173e+000	 1.101004343317112e+001
 3.115076178445952e+000	 2.176304299111745e+000	 1.099168804102480e+001
 3.092538936975307e+000	 2.208212608232925e+000	 1.098792778073043e+001
 3.069655238397657e+000	 2.239914444182912e+000	 1.098247330740017e+001
 3.046427885045616e+000	 2.271404222306690e+000	 1.097541912215316e+001
 3.022859798281050e+000	 2.302676407975629e+000	 1.096686399698050e+001
 2.998954017395681e+000	 2.333725519737263e+000	 1.095691067610349e+001
 2.974713698412216e+000	 2.364546132436579e+000	 1.094566556498858e+001
 2.950142112786840e+000	 2.395132880305170e+000	 1.093323840780296e+001
 3.201507830385834e+000	 2.093077306692701e+000	 1.108241202907849e+001
 3.179884238892103e+000	 2.125784849666726e+000	 1.104559669575083e+001
 3.157904177086178e+000	 2.158301695357377e+000	 1.101098830262020e+001
 3.135570100671041e+000	 2.190622090556254e+000	 1.097901802875846e+001
 3.112884587874963e+000	 2.222740322763901e+000	 1.096428813466792e+001
 3.089850338648807e+000	 2.254650723424129e+000	 1.096212453841238e+001
 3.066470173761587e+000	 2.286347671140771e+000	 1.095921975776920e+001
 3.042747033794652e+000	 2.317825594873165e+000	 1.095570924376305e+001
 3.018683978035067e+000	 2.349078977106659e+000	 1.095173183930774e+001
 2.994284183268845e+000	 2.380102356994429e+000	 1.094742942218933e+001
 2.969550942474911e+000	 2.410890333466961e+000	 1.094294653696468e+001
 3.222432718165519e+000	 2.106757550529247e+000	 1.108355298385573e+001
 3.200667796008453e+000	 2.139678868294204e+000	 1.104472708891684e+001
 3.178544073667850e+000	 2.172408242388246e+000	 1.100871720309079e+001
 3.156064022897041e+000	 2.204939882000303e+000	 1.097599707337880e+001
 3.133230238775460e+000	 2.237268037294321e+000	 1.094705594723746e+001
 3.110045438900709e+000	 2.269387002664723e+000	 1.093886138548492e+001
 3.086512462478198e+000	 2.301291119974192e+000	 1.094070631648410e+001
 3.062634269308765e+000	 2.332974781770036e+000	 1.094283061817951e+001
 3.038413938674816e+000	 2.364432434475414e+000	 1.094540901235946e+001
 3.013854668125669e+000	 2.395658581551693e+000	 1.094861863634377e+001
 2.988959772162985e+000	 2.426647786628250e+000	 1.095263862947003e+001
 3.243357605946203e+000	 2.120437794365798e+000	 1.108038076321977e+001
 3.221451353125792e+000	 2.153572886921502e+000	 1.104016567704239e+001
 3.199183970250482e+000	 2.186514789418779e+000	 1.100336248679373e+001
 3.176557945123952e+000	 2.219257673443890e+000	 1.097048728187978e+001
 3.153575889676799e+000	 2.251795751824183e+000	 1.094207164428152e+001
 3.130240539153362e+000	 2.284123281904694e+000	 1.091866198171233e+001
 3.106554751195452e+000	 2.316234568806955e+000	 1.091986310433208e+001
 3.082521504823393e+000	 2.348123968666242e+000	 1.092820005481582e+001
 3.058143899314926e+000	 2.379785891843527e+000	 1.093790194597576e+001
 3.033425152982683e+000	 2.411214806108370e+000	 1.094918096866172e+001
 3.008368601851061e+000	 2.442405239789038e+000	 1.096225065806755e+001
 3.264282493727888e+000	 2.134118038202354e+000	 1.107305225725861e+001
 3.242234910244121e+000	 2.167466905548621e+000	 1.103205675085289e+001
 3.219823866834076e+000	 2.200621336448978e+000	 1.099505592856730e+001
 3.197051867351773e+000	 2.233575464887016e+000	 1.096260800355904e+001
 3.173921540578977e+000	 2.266323466353488e+000	 1.093528668691412e+001
 3.150435639406766e+000	 2.298859561144042e+000	 1.091368047213764e+001
 3.126597039913347e+000	 2.331178017639058e+000	 1.089839186934805e+001
 3.102408740338531e+000	 2.363273155561783e+000	 1.091179047631631e+001
 3.077873859955401e+000	 2.395139349211001e+000	 1.092917167723764e+001
 3.052995637839890e+000	 2.426771030664460e+000	 1.094906575973129e+001
 3.027777431539140e+000	 2.458162692949324e+000	 1.097172046245707e+001
 3.285207381510571e+000	 2.147798282038917e+000	 1.106172316037763e+001
 3.263018467363441e+000	 2.181360924175559e+000	 1.102054372575588e+001
 3.240463763418629e+000	 2.214727883478840e+000	 1.098392874426504e+001
 3.217545789580505e+000	 2.247893256329681e+000	 1.095247834086841e+001
 3.194267191481998e+000	 2.280851180882235e+000	 1.092680815705802e+001
 3.170630739660923e+000	 2.313595840382766e+000	 1.090754858686634e+001
 3.146639328631884e+000	 2.346121466470502e+000	 1.089534396178111e+001
 3.122295975854181e+000	 2.378422342456659e+000	 1.089357576191700e+001
 3.097603820596237e+000	 2.410492806577833e+000	 1.091918048862307e+001
 3.072566122697291e+000	 2.442327255219966e+000	 1.094822387922022e+001
 3.047186261227222e+000	 2.473920146109110e+000	 1.098098768983257e+001
 3.306132269294255e+000	 2.161478525875483e+000	 1.104654800913769e+001
 3.283802024483750e+000	 2.195254942802317e+000	 1.100576916954095e+001
 3.261103660004143e+000	 2.228834430508366e+000	 1.097011160844508e+001
 3.238039711810148e+000	 2.262211047771884e+000	 1.094021715722550e+001
 3.214612842385859e+000	 2.295378895410425e+000	 1.091674319564617e+001
 3.190825839915830e+000	 2.328332119620868e+000	 1.090036183957502e+001
 3.166681617351064e+000	 2.361064915301286e+000	 1.089175907677903e+001
 3.142183211370345e+000	 2.393571529350870e+000	 1.089163385205792e+001
 3.117333781237435e+000	 2.425846263944024e+000	 1.090789186859559e+001
 3.092136607554884e+000	 2.457883479774885e+000	 1.094660767748739e+001
 3.066595090915306e+000	 2.489677599268394e+000	 1.098999373768304e+001
 3.327057157078940e+000	 2.175158769712056e+000	 1.102768021866525e+001
 3.304585581605049e+000	 2.209148961428895e+000	 1.098787482903437e+001
 3.281743556590617e+000	 2.242940977537558e+000	 1.095373467139206e+001
 3.258533634040701e+000	 2.276528839213626e+000	 1.092594308453051e+001
 3.234958493290562e+000	 2.309906609938059e+000	 1.090519900076598e+001
 3.211020940171490e+000	 2.343068398858346e+000	 1.089221608553388e+001
 3.186723906070885e+000	 2.376008364131412e+000	 1.088772182421787e+001
 3.162070446887021e+000	 2.408720716244415e+000	 1.089245655755128e+001
 3.137063741878996e+000	 2.441199721309576e+000	 1.090717246710594e+001
 3.111707092412668e+000	 2.473439704329218e+000	 1.094417093902004e+001
 3.086003920603393e+000	 2.505435052427177e+000	 1.098023838700888e+001
 3.347982044864625e+000	 2.188839013548634e+000	 1.100527211769733e+001
 3.325369138727341e+000	 2.223042980055294e+000	 1.096700165575427e+001
 3.302383453178052e+000	 2.257047524566414e+000	 1.093492757550058e+001
 3.279027556272166e+000	 2.290846630654907e+000	 1.090977453040114e+001
 3.255304144196106e+000	 2.324434324465135e+000	 1.089228282587327e+001
 3.231216040427900e+000	 2.357804678095201e+000	 1.088320751093199e+001
 3.206766194791349e+000	 2.390951812960879e+000	 1.088331741620060e+001
 3.181957682404208e+000	 2.423869903137296e+000	 1.089339413970423e+001
 3.156793702520920e+000	 2.456553178674487e+000	 1.091423098204440e+001
 3.131277577270648e+000	 2.488995928882965e+000	 1.094663183273110e+001
 3.105412750291483e+000	 2.521192505585459e+000	 1.093702148015387e+001
 2.911324453410707e+000	 2.363617973980084e+000	 1.091403985666231e+001
 2.886752611199269e+000	 2.393566243432211e+000	 1.092488199519959e+001
 2.861860654078760e+000	 2.423273322721160e+000	 1.094634074042561e+001
 2.836652143563399e+000	 2.452734110416955e+000	 1.097876396207743e+001
 2.811130749008874e+000	 2.481943575500790e+000	 1.102249040823593e+001
 2.785300245862961e+000	 2.510896760202158e+000	 1.103035969314737e+001
 2.759164513826918e+000	 2.539588782783472e+000	 1.097058589248116e+001
 2.732727534929508e+000	 2.568014840268935e+000	 1.092167149392244e+001
 2.705993391515634e+000	 2.596170211114460e+000	 1.088445953403450e+001
 2.678966264151707e+000	 2.624050257815533e+000	 1.085979934522045e+001
 2.651650429450000e+000	 2.651650429450000e+000	 1.084854490904095e+001
 2.930733283098773e+000	 2.379375427142877e+000	 1.092358019800705e+001
 2.905997628606329e+000	 2.409523351724013e+000	 1.094692093293790e+001
 2.880939725105363e+000	 2.439428478207633e+000	 1.098003704177350e+001
 2.855563157853521e+000	 2.469085671154231e+000	 1.102325045759474e+001
 2.829871620668864e+000	 2.498489866004878e+000	 1.107687482001370e+001
 2.803868914168815e+000	 2.527636071937260e+000	 1.102153980983153e+001
 2.777558943919312e+000	 2.556519374668874e+000	 1.096861143598426e+001
 2.750945718495975e+000	 2.585134939204087e+000	 1.092536089882942e+001
 2.724033347459338e+000	 2.613478012521847e+000	 1.089262287936689e+001
 2.696826039246255e+000	 2.641543926200947e+000	 1.087123992249832e+001
 2.669328098979750e+000	 2.669328098979750e+000	 1.086206078368495e+001
 2.950142112786840e+000	 2.395132880305170e+000	 1.093323840780296e+001
 2.925242646013206e+000	 2.425480460015402e+000	 1.096844547158407e+001
 2.900018796131630e+000	 2.455583633693764e+000	 1.101259974628282e+001
 2.874474172143181e+000	 2.485437231891217e+000	 1.106599763311157e+001
 2.848612492328293e+000	 2.515036156508704e+000	 1.106530056806310e+001
 2.822437582474045e+000	 2.544375383672111e+000	 1.101091311311917e+001
 2.795953374011047e+000	 2.573449966554016e+000	 1.096421275438585e+001
 2.769163902061778e+000	 2.602255038138947e+000	 1.092601534680492e+001
 2.742073303402402e+000	 2.630785813928895e+000	 1.089714779399892e+001
 2.714685814340219e+000	 2.659037594585950e+000	 1.087844643513860e+001
 2.687005768509000e+000	 2.687005768509000e+000	 1.087075538417435e+001
 2.969550942474911e+000	 2.410890333466961e+000	 1.094294653696468e+001
 2.944487663419903e+000	 2.441437568306380e+000	 1.098939909632032e+001
 2.919097867157557e+000	 2.471738789179554e+000	 1.104398351629090e+001
 2.893385186432377e+000	 2.501788792627911e+000	 1.109961302815296e+001
 2.867353363987166e+000	 2.531582447012270e+000	 1.104627070162063e+001
 2.841006250778652e+000	 2.561114695406711e+000	 1.099866277903382e+001
 2.814347804102123e+000	 2.590380558438898e+000	 1.095758213881849e+001
 2.787382085626915e+000	 2.619375137073518e+000	 1.092383585322596e+001
 2.760113259344826e+000	 2.648093615335601e+000	 1.089824362411248e+001
 2.732545589433598e+000	 2.676531262970544e+000	 1.088163616441599e+001
 2.704683438037750e+000	 2.704683438037750e+000	 1.087485352919609e+001
 2.988959772162985e+000	 2.426647786628250e+000	 1.095263862947003e+001
 2.963732680826416e+000	 2.457394676596947e+000	 1.100972697324345e+001
 2.938176938183147e+000	 2.487893944665003e+000	 1.107414438933267e+001
 2.912296200721112e+000	 2.518140353364315e+000	 1.107242858710043e+001
 2.886094235645479e+000	 2.548128737515575e+000	 1.102640566904328e+001
 2.859574919082636e+000	 2.577854007141061e+000	 1.098497248177565e+001
 2.832742234192540e+000	 2.607311150323519e+000	 1.094891210012046e+001
 2.805600269191387e+000	 2.636495236007798e+000	 1.091902338187525e+001
 2.778153215286610e+000	 2.665401416741968e+000	 1.089611940030047e+001
 2.750405364526391e+000	 2.694024931354727e+000	 1.088102581945758e+001
 2.722361107566000e+000	 2.722361107566000e+000	 1.087457921629220e+001
 3.008368601851061e+000	 2.442405239789038e+000	 1.096225065806755e+001
 2.982977698232747e+000	 2.473351784887102e+000	 1.102937589514164e+001
 2.957256009208400e+000	 2.504049100150113e+000	 1.108718273834587e+001
 2.931207215009381e+000	 2.534491914100428e+000	 1.104518445390513e+001
 2.904835107303235e+000	 2.564675028018620e+000	 1.100588068533573e+001
 2.878143587385996e+000	 2.594593318875161e+000	 1.097002637765114e+001
 2.851136664282297e+000	 2.624241742207880e+000	 1.093839536174860e+001
 2.823818452755195e+000	 2.653615334941789e+000	 1.091177884660546e+001
 2.796193171227755e+000	 2.682709218147996e+000	 1.089098384774723e+001
 2.768265139618600e+000	 2.711518599738501e+000	 1.087683155569920e+001
 2.740038777093750e+000	 2.740038777093750e+000	 1.087015564834840e+001
 3.027777431539140e+000	 2.458162692949324e+000	 1.097172046245707e+001
 3.002222715638894e+000	 2.489308893176847e+000	 1.104829422935710e+001
 2.976335080233315e+000	 2.520204255634879e+000	 1.105279195300074e+001
 2.950118229297189e+000	 2.550843474836250e+000	 1.101804753899280e+001
 2.923575978960431e+000	 2.581221318521404e+000	 1.098487169959375e+001
 2.896712255688731e+000	 2.611332630609010e+000	 1.095400908962110e+001
 2.869531094371395e+000	 2.641172334091981e+000	 1.092622485296354e+001
 2.842036636318339e+000	 2.670735433875489e+000	 1.090230311293955e+001
 2.814233127168260e+000	 2.700017019553682e+000	 1.088304539601716e+001
 2.786124914710225e+000	 2.729012268121865e+000	 1.086926899263198e+001
 2.757716446621000e+000	 2.757716446620999e+000	 1.086180525906384e+001
 3.047186261227222e+000	 2.473920146109110e+000	 1.098098768983257e+001
 3.021467733044860e+000	 2.505266001466179e+000	 1.104707236820701e+001
 2.995414151257892e+000	 2.536359411119305e+000	 1.101926185189079e+001
 2.969029243584533e+000	 2.567195035571781e+000	 1.099118572866764e+001
 2.942316850617070e+000	 2.597767609023927e+000	 1.096355537162551e+001
 2.915280923990842e+000	 2.628071942342609e+000	 1.093710569243895e+001
 2.887925524459833e+000	 2.658102925975822e+000	 1.091259370227547e+001
 2.860254819880818e+000	 2.687855532808900e+000	 1.089079699961003e+001
 2.832273083108124e+000	 2.717324820959029e+000	 1.087251218846942e+001
 2.803984689801263e+000	 2.746505936504818e+000	 1.085855323087058e+001
 2.775394116147749e+000	 2.775394116147750e+000	 1.084974973744751e+001
 3.066595090915306e+000	 2.489677599268394e+000	 1.098999373768304e+001
 3.040712750450644e+000	 2.521223109755101e+000	 1.100736213034450e+001
 3.014493222282131e+000	 2.552514566603390e+000	 1.098675239985929e+001
 2.987940257871414e+000	 2.583546596307021e+000	 1.096476785422992e+001
 2.961057722273150e+000	 2.614313899526189e+000	 1.094210904946062e+001
 2.933849592292329e+000	 2.644811254075957e+000	 1.091950169835356e+001
 2.906319954547613e+000	 2.675033517859402e+000	 1.089769523113878e+001
 2.878473003442633e+000	 2.704975631742019e+000	 1.087746128003952e+001
 2.850313039047349e+000	 2.734632622364035e+000	 1.085959209131507e+001
 2.821844464891718e+000	 2.763999604887362e+000	 1.084489886857336e+001
 2.793071785673999e+000	 2.793071785673999e+000	 1.083421005138432e+001
 3.086003920603393e+000	 2.505435052427177e+000	 1.098023838700888e+001
 3.059957767856244e+000	 2.537180218043611e+000	 1.096940368324922e+001
 3.033572293306033e+000	 2.568669722087134e+000	 1.095542473146141e+001
 3.006851272157832e+000	 2.599898157041971e+000	 1.093896366225922e+001
 2.979798593928671e+000	 2.630860190028191e+000	 1.092071074770796e+001
 2.952418260593193e+000	 2.661550565809055e+000	 1.090138304335147e+001
 2.924714384634734e+000	 2.691964109742721e+000	 1.088172294788462e+001
 2.896691187003782e+000	 2.722095730674849e+000	 1.086249668376572e+001
 2.868352994985935e+000	 2.751940423768701e+000	 1.084449270233238e+001
 2.839704239981586e+000	 2.781493273269495e+000	 1.082852001724298e+001
 2.810749455199750e+000	 2.810749455199749e+000	 1.081540647031205e+001
 3.105412750291483e+000	 2.521192505585459e+000	 1.093702148015387e+001
 3.079202785261663e+000	 2.553137326331711e+000	 1.093335059345520e+001
 3.052651364329597e+000	 2.584824877570536e+000	 1.092544111441067e+001
 3.025762286443788e+000	 2.616249717776630e+000	 1.091394378601193e+001
 2.998539465583634e+000	 2.647406480529932e+000	 1.089953912672519e+001
 2.970986928893433e+000	 2.678289877541903e+000	 1.088293607391516e+001
 2.943108814721196e+000	 2.708894701625782e+000	 1.086487054188100e+001
 2.914909370564268e+000	 2.739215829607388e+000	 1.084610389781270e+001
 2.886392950923881e+000	 2.769248225173028e+000	 1.082742135925538e+001
 2.857564015070872e+000	 2.798986941651220e+000	 1.080963031693422e+001
 2.828427124725000e+000	 2.828427124725000e+000	 1.079355858704775e+001
 2.651650429450000e+000	 2.651650429450000e+000	 1.084854490904095e+001
 2.624050257815533e+000	 2.678966264151706e+000	 1.080610236263170e+001
 2.596170211114461e+000	 2.705993391515634e+000	 1.076360578458528e+001
 2.568014840268935e+000	 2.732727534929508e+000	 1.072163161096970e+001
 2.539588782783472e+000	 2.759164513826918e+000	 1.068076920502816e+001
 2.510896760202157e+000	 2.785300245862960e+000	 1.064161934014975e+001
 2.481943575500790e+000	 2.811130749008874e+000	 1.061350611043691e+001
 2.452734110416955e+000	 2.836652143563399e+000	 1.059004465500819e+001
 2.423273322721160e+000	 2.861860654078760e+000	 1.056492959882999e+001
 2.393566243432212e+000	 2.886752611199269e+000	 1.053784612864486e+001
 2.363617973980084e+000	 2.911324453410707e+000	 1.050847410568966e+001
 2.669328098979750e+000	 2.669328098979750e+000	 1.086206078368495e+001
 2.641543926200946e+000	 2.696826039246255e+000	 1.081558996608922e+001
 2.613478012521847e+000	 2.724033347459337e+000	 1.076990625641292e+001
 2.585134939204086e+000	 2.750945718495975e+000	 1.072563088007336e+001
 2.556519374668874e+000	 2.777558943919311e+000	 1.068339752974053e+001
 2.527636071937259e+000	 2.803868914168815e+000	 1.064385078368393e+001
 2.498489866004878e+000	 2.829871620668864e+000	 1.060840993384751e+001
 2.469085671154231e+000	 2.855563157853522e+000	 1.058869856754148e+001
 2.439428478207632e+000	 2.880939725105363e+000	 1.056854154531824e+001
 2.409523351724013e+000	 2.905997628606329e+000	 1.054763826223416e+001
 2.379375427142877e+000	 2.930733283098773e+000	 1.052568145307808e+001
 2.687005768509000e+000	 2.687005768509000e+000	 1.087075538417435e+001
 2.659037594585950e+000	 2.714685814340219e+000	 1.082067136195190e+001
 2.630785813928895e+000	 2.742073303402402e+000	 1.077219837200907e+001
 2.602255038138947e+000	 2.769163902061777e+000	 1.072600255768044e+001
 2.573449966554016e+000	 2.795953374011047e+000	 1.068276208702891e+001
 2.544375383672111e+000	 2.822437582474046e+000	 1.064316550612961e+001
 2.515036156508704e+000	 2.848612492328293e+000	 1.060791005536137e+001
 2.485437231891216e+000	 2.874474172143180e+000	 1.058437639352926e+001
 2.455583633693764e+000	 2.900018796131629e+000	 1.056966800769919e+001
 2.425480460015402e+000	 2.925242646013206e+000	 1.055542755782879e+001
 2.395132880305170e+000	 2.950142112786840e+000	 1.054136039153763e+001
 2.704683438037750e+000	 2.704683438037750e+000	 1.087485352919609e+001
 2.676531262970543e+000	 2.732545589433597e+000	 1.082155903118854e+001
 2.648093615335602e+000	 2.760113259344826e+000	 1.077068239968455e+001
 2.619375137073518e+000	 2.787382085626915e+000	 1.072293483246006e+001
 2.590380558438898e+000	 2.814347804102123e+000	 1.067903912684650e+001
 2.561114695406711e+000	 2.841006250778652e+000	 1.063972796750365e+001
 2.531582447012270e+000	 2.867353363987166e+000	 1.060574217740022e+001
 2.501788792627911e+000	 2.893385186432378e+000	 1.057782893666476e+001
 2.471738789179555e+000	 2.919097867157557e+000	 1.056816875770718e+001
 2.441437568306380e+000	 2.944487663419903e+000	 1.056106604050849e+001
 2.410890333466960e+000	 2.969550942474911e+000	 1.055535550858455e+001
 2.722361107566000e+000	 2.722361107566000e+000	 1.087457921629220e+001
 2.694024931354727e+000	 2.750405364526391e+000	 1.081846489817261e+001
 2.665401416741969e+000	 2.778153215286610e+000	 1.076555830984619e+001
 2.636495236007799e+000	 2.805600269191388e+000	 1.071661584788696e+001
 2.607311150323519e+000	 2.832742234192540e+000	 1.067240510056057e+001
 2.577854007141061e+000	 2.859574919082636e+000	 1.063370306962905e+001
 2.548128737515575e+000	 2.886094235645479e+000	 1.060129435553552e+001
 2.518140353364315e+000	 2.912296200721112e+000	 1.057596931077460e+001
 2.487893944665004e+000	 2.938176938183148e+000	 1.056390469166687e+001
 2.457394676596946e+000	 2.963732680826416e+000	 1.056440707439793e+001
 2.426647786628250e+000	 2.988959772162985e+000	 1.056751293850418e+001
 2.740038777093750e+000	 2.740038777093750e+000	 1.087015564834840e+001
 2.711518599738501e+000	 2.768265139618600e+000	 1.081160034863699e+001
 2.682709218147995e+000	 2.796193171227754e+000	 1.075702578460653e+001
 2.653615334941789e+000	 2.823818452755196e+000	 1.070723370369937e+001
 2.624241742207880e+000	 2.851136664282297e+000	 1.066303665445539e+001
 2.594593318875161e+000	 2.878143587385995e+000	 1.062525614188314e+001
 2.564675028018620e+000	 2.904835107303235e+000	 1.059472074635486e+001
 2.534491914100429e+000	 2.931207215009382e+000	 1.057226421097668e+001
 2.504049100150112e+000	 2.957256009208400e+000	 1.055872350249189e+001
 2.473351784887102e+000	 2.982977698232746e+000	 1.056530531947164e+001
 2.442405239789038e+000	 3.008368601851061e+000	 1.057768031245533e+001
 2.757716446621000e+000	 2.757716446620999e+000	 1.086180525906384e+001
 2.729012268121864e+000	 2.786124914710225e+000	 1.080117624693799e+001
 2.700017019553682e+000	 2.814233127168259e+000	 1.074528422702410e+001
 2.670735433875489e+000	 2.842036636318339e+000	 1.069497645730079e+001
 2.641172334091982e+000	 2.869531094371395e+000	 1.065111062348475e+001
 2.611332630609010e+000	 2.896712255688730e+000	 1.061455292749377e+001
 2.581221318521404e+000	 2.923575978960431e+000	 1.058617613954999e+001
 2.550843474836251e+000	 2.950118229297189e+000	 1.056685761902089e+001
 2.520204255634879e+000	 2.976335080233315e+000	 1.055747730920242e+001
 2.489308893176847e+000	 3.002222715638894e+000	 1.056361669002053e+001
 2.458162692949325e+000	 3.027777431539140e+000	 1.058570671049349e+001
 2.775394116147749e+000	 2.775394116147750e+000	 1.084974973744751e+001
 2.746505936504817e+000	 2.803984689801263e+000	 1.078740295265986e+001
 2.717324820959029e+000	 2.832273083108124e+000	 1.073053276999051e+001
 2.687855532808899e+000	 2.860254819880818e+000	 1.068003212510829e+001
 2.658102925975822e+000	 2.887925524459834e+000	 1.063680402526346e+001
 2.628071942342609e+000	 2.915280923990842e+000	 1.060175957035957e+001
 2.597767609023927e+000	 2.942316850617070e+000	 1.057581593775430e+001
 2.567195035571781e+000	 2.969029243584532e+000	 1.055989433603391e+001
 2.536359411119304e+000	 2.995414151257892e+000	 1.055491793311385e+001
 2.505266001466179e+000	 3.021467733044860e+000	 1.056180976410735e+001
 2.473920146109110e+000	 3.047186261227222e+000	 1.059144261542758e+001
 2.793071785673999e+000	 2.793071785673999e+000	 1.083421005138432e+001
 2.763999604887362e+000	 2.821844464891717e+000	 1.077049033658834e+001
 2.734632622364035e+000	 2.850313039047350e+000	 1.071297028477994e+001
 2.704975631742019e+000	 2.878473003442633e+000	 1.066258868384949e+001
 2.675033517859402e+000	 2.906319954547613e+000	 1.062029405428685e+001
 2.644811254075957e+000	 2.933849592292329e+000	 1.058704260237034e+001
 2.614313899526189e+000	 2.961057722273150e+000	 1.056379613714589e+001
 2.583546596307021e+000	 2.987940257871413e+000	 1.055151995658932e+001
 2.552514566603390e+000	 3.014493222282131e+000	 1.055118070845365e+001
 2.521223109755101e+000	 3.040712750450644e+000	 1.056374423139224e+001
 2.489677599268394e+000	 3.066595090915306e+000	 1.059473986842918e+001
 2.810749455199750e+000	 2.810749455199749e+000	 1.081540647031205e+001
 2.781493273269495e+000	 2.839704239981586e+000	 1.075064779608197e+001
 2.751940423768702e+000	 2.868352994985934e+000	 1.069279538927618e+001
 2.722095730674848e+000	 2.896691187003782e+000	 1.064283407181076e+001
 2.691964109742721e+000	 2.924714384634734e+000	 1.060175807636860e+001
 2.661550565809055e+000	 2.952418260593193e+000	 1.057056893120610e+001
 2.630860190028191e+000	 2.979798593928671e+000	 1.055027330878264e+001
 2.599898157041970e+000	 3.006851272157832e+000	 1.054188084375658e+001
 2.568669722087133e+000	 3.033572293306033e+000	 1.054640192600022e+001
 2.537180218043611e+000	 3.059957767856244e+000	 1.056484547437492e+001
 2.505435052427177e+000	 3.086003920603393e+000	 1.059821669707645e+001
 2.828427124725000e+000	 2.828427124725000e+000	 1.079355858704775e+001
 2.798986941651219e+000	 2.857564015070872e+000	 1.072808426986647e+001
 2.769248225173028e+000	 2.886392950923880e+000	 1.067020645589109e+001
 2.739215829607388e+000	 2.914909370564268e+000	 1.062095619003829e+001
 2.708894701625783e+000	 2.943108814721196e+000	 1.058137362328690e+001
 2.678289877541903e+000	 2.970986928893433e+000	 1.055250582859369e+001
 2.647406480529932e+000	 2.998539465583634e+000	 1.053540458063728e+001
 2.616249717776630e+000	 3.025762286443787e+000	 1.053112410508552e+001
 2.584824877570536e+000	 3.052651364329597e+000	 1.054071880319063e+001
 2.553137326331711e+000	 3.079202785261663e+000	 1.056524095760548e+001
 2.521192505585459e+000	 3.105412750291483e+000	 1.060573842538282e+001
 2.363617973980084e+000	 2.911324453410707e+000	 1.050847410568966e+001
 2.333433683319122e+000	 2.935572728699535e+000	 1.043782233621094e+001
 2.303018604996550e+000	 2.959494096117997e+000	 1.038134243533283e+001
 2.272378034178562e+000	 2.983085327255383e+000	 1.033898449358479e+001
 2.241517324636550e+000	 3.006343307615601e+000	 1.031067809594935e+001
 2.210441885698607e+000	 3.029265037897612e+000	 1.029633267799203e+001
 2.179157179169300e+000	 3.051847635178518e+000	 1.029583791857196e+001
 2.147668716221342e+000	 3.074088333998506e+000	 1.030906416784210e+001
 2.115982054262759e+000	 3.095984487346924e+000	 1.033586290916293e+001
 2.084102793783212e+000	 3.117533567548997e+000	 1.037606725347357e+001
 2.052036575183095e+000	 3.138733167052782e+000	 1.027934675671293e+001
 2.379375427142877e+000	 2.930733283098773e+000	 1.052568145307808e+001
 2.348989907878144e+000	 2.955143213555779e+000	 1.047007532726003e+001
 2.318372062367228e+000	 2.979224056756658e+000	 1.042917336610355e+001
 2.287527221077428e+000	 3.002972562767960e+000	 1.040292894827416e+001
 2.256460773471950e+000	 3.026385596330287e+000	 1.039127424221306e+001
 2.225178164941071e+000	 3.049460138147258e+000	 1.039412056510007e+001
 2.193684893701392e+000	 3.072193286076492e+000	 1.041135877956360e+001
 2.161986507666774e+000	 3.094582256221773e+000	 1.044285972682562e+001
 2.130088601294634e+000	 3.116624383925715e+000	 1.048847469488141e+001
 2.097996812411230e+000	 3.138317124662376e+000	 1.040625824400891e+001
 2.065716819019625e+000	 3.159658054829465e+000	 1.024454895411345e+001
 2.395132880305170e+000	 2.950142112786840e+000	 1.054136039153763e+001
 2.364546132436579e+000	 2.974713698412216e+000	 1.050109094570930e+001
 2.333725519737264e+000	 2.998954017395681e+000	 1.047605879742464e+001
 2.302676407975629e+000	 3.022859798281050e+000	 1.046622042276338e+001
 2.271404222306690e+000	 3.046427885045616e+000	 1.047151037990174e+001
 2.239914444182912e+000	 3.069655238397657e+000	 1.049184167115558e+001
 2.208212608232925e+000	 3.092538936975307e+000	 1.052710614394332e+001
 2.176304299111745e+000	 3.115076178445951e+000	 1.057717492933437e+001
 2.144195148326173e+000	 3.137264280505467e+000	 1.051528779973379e+001
 2.111890831039068e+000	 3.159100681776744e+000	 1.036060322313004e+001
 2.079397062856160e+000	 3.180582942607150e+000	 1.021392621729981e+001
 2.410890333466960e+000	 2.969550942474911e+000	 1.055535550858455e+001
 2.380102356994429e+000	 2.994284183268845e+000	 1.053071008317343e+001
 2.349078977106659e+000	 3.018683978035067e+000	 1.052183605190742e+001
 2.317825594873165e+000	 3.042747033794653e+000	 1.052869279870893e+001
 2.286347671140771e+000	 3.066470173761587e+000	 1.055121707880923e+001
 2.254650723424129e+000	 3.089850338648807e+000	 1.058932338411970e+001
 2.222740322763901e+000	 3.112884587874964e+000	 1.064290434870082e+001
 2.190622090556255e+000	 3.135570100671041e+000	 1.060650336602569e+001
 2.158301695357377e+000	 3.157904177086178e+000	 1.045917214788468e+001
 2.125784849666726e+000	 3.179884238892103e+000	 1.031919658581009e+001
 2.093077306692701e+000	 3.201507830385834e+000	 1.018755181096836e+001
 2.426647786628250e+000	 2.988959772162985e+000	 1.056751293850418e+001
 2.395658581551693e+000	 3.013854668125669e+000	 1.055877528985615e+001
 2.364432434475413e+000	 3.038413938674816e+000	 1.056634422054009e+001
 2.332974781770036e+000	 3.062634269308767e+000	 1.059018183385070e+001
 2.301291119974192e+000	 3.086512462478199e+000	 1.063022689039116e+001
 2.269387002664723e+000	 3.110045438900708e+000	 1.068639517701940e+001
 2.237268037294321e+000	 3.133230238775461e+000	 1.067982140063169e+001
 2.204939882000303e+000	 3.156064022897041e+000	 1.054029353970584e+001
 2.172408242388246e+000	 3.178544073667851e+000	 1.040738757702969e+001
 2.139678868294204e+000	 3.200667796008453e+000	 1.028212133261876e+001
 2.106757550529247e+000	 3.222432718165518e+000	 1.016550156779108e+001
 2.442405239789038e+000	 3.008368601851061e+000	 1.057768031245533e+001
 2.411214806108369e+000	 3.033425152982682e+000	 1.058513072104735e+001
 2.379785891843528e+000	 3.058143899314927e+000	 1.060942410564311e+001
 2.348123968666241e+000	 3.082521504823392e+000	 1.065052510149337e+001
 2.316234568806955e+000	 3.106554751195452e+000	 1.070837428384046e+001
 2.284123281904694e+000	 3.130240539153362e+000	 1.073500314400386e+001
 2.251795751824183e+000	 3.153575889676799e+000	 1.060385149893131e+001
 2.219257673443891e+000	 3.176557945123951e+000	 1.047850620965183e+001
 2.186514789418780e+000	 3.199183970250483e+000	 1.036002659850341e+001
 2.153572886921501e+000	 3.221451353125791e+000	 1.024946286032857e+001
 2.120437794365798e+000	 3.243357605946203e+000	 1.014785380557773e+001
 2.458162692949325e+000	 3.027777431539140e+000	 1.058570671049349e+001
 2.426771030664461e+000	 3.052995637839891e+000	 1.060962208567801e+001
 2.395139349211001e+000	 3.077873859955400e+000	 1.065091816601901e+001
 2.363273155561783e+000	 3.102408740338531e+000	 1.070956193231501e+001
 2.331178017639058e+000	 3.126597039913347e+000	 1.077165121291691e+001
 2.298859561144042e+000	 3.150435639406766e+000	 1.064957270562015e+001
 2.266323466353488e+000	 3.173921540578977e+000	 1.053240354844584e+001
 2.233575464887016e+000	 3.197051867351772e+000	 1.042124317210301e+001
 2.200621336448977e+000	 3.219823866834076e+000	 1.031718395472801e+001
 2.167466905548620e+000	 3.242234910244121e+000	 1.022130888511320e+001
 2.134118038202355e+000	 3.264282493727888e+000	 1.013468924762409e+001
 2.473920146109110e+000	 3.047186261227222e+000	 1.059144261542758e+001
 2.442327255219966e+000	 3.072566122697290e+000	 1.063209659684128e+001
 2.410492806577833e+000	 3.097603820596236e+000	 1.069067046419804e+001
 2.378422342456658e+000	 3.122295975854182e+000	 1.076713335839998e+001
 2.346121466470502e+000	 3.146639328631884e+000	 1.067702304271450e+001
 2.313595840382766e+000	 3.170630739660922e+000	 1.056877101961518e+001
 2.280851180882235e+000	 3.194267191481998e+000	 1.046558840366698e+001
 2.247893256329681e+000	 3.217545789580505e+000	 1.036860829570720e+001
 2.214727883478839e+000	 3.240463763418629e+000	 1.027895654815937e+001
 2.181360924175558e+000	 3.263018467363440e+000	 1.019774936868162e+001
 2.147798282038917e+000	 3.285207381510571e+000	 1.012609094610403e+001
 2.489677599268394e+000	 3.066595090915306e+000	 1.059473986842918e+001
 2.457883479774885e+000	 3.092136607554884e+000	 1.065240292419233e+001
 2.425846263944025e+000	 3.117333781237435e+000	 1.072852661568737e+001
 2.393571529350869e+000	 3.142183211370345e+000	 1.068560456731006e+001
 2.361064915301287e+000	 3.166681617351064e+000	 1.058713706457156e+001
 2.328332119620868e+000	 3.190825839915830e+000	 1.049271777125684e+001
 2.295378895410425e+000	 3.214612842385859e+000	 1.040351883903794e+001
 2.262211047771884e+000	 3.238039711810147e+000	 1.032070745593806e+001
 2.228834430508366e+000	 3.261103660004143e+000	 1.024544337293156e+001
 2.195254942802317e+000	 3.283802024483750e+000	 1.017887644721638e+001
 2.161478525875483e+000	 3.306132269294256e+000	 1.012214420837074e+001
 2.505435052427177e+000	 3.086003920603393e+000	 1.059821669707645e+001
 2.473439704329218e+000	 3.111707092412669e+000	 1.067039114814451e+001
 2.441199721309576e+000	 3.137063741878996e+000	 1.067455284476472e+001
 2.408720716244414e+000	 3.162070446887020e+000	 1.058686414776103e+001
 2.376008364131412e+000	 3.186723906070886e+000	 1.050212156620785e+001
 2.343068398858345e+000	 3.211020940171488e+000	 1.042153441932260e+001
 2.309906609938059e+000	 3.234958493290562e+000	 1.034630948857757e+001
 2.276528839213626e+000	 3.258533634040700e+000	 1.027764847198739e+001
 2.242940977537558e+000	 3.281743556590617e+000	 1.021674544908087e+001
 2.209148961428895e+000	 3.304585581605049e+000	 1.016478436299439e+001
 2.175158769712056e+000	 3.327057157078940e+000	 1.012293652603942e+001
 2.521192505585459e+000	 3.105412750291483e+000	 1.060573842538282e+001
 2.488995928882964e+000	 3.131277577270647e+000	 1.064293465938850e+001
 2.456553178674486e+000	 3.156793702520920e+000	 1.056714613323435e+001
 2.423869903137295e+000	 3.181957682404208e+000	 1.049312193862020e+001
 2.390951812960879e+000	 3.206766194791349e+000	 1.042210646822610e+001
 2.357804678095201e+000	 3.231216040427900e+000	 1.035534414067734e+001
 2.324434324465135e+000	 3.255304144196106e+000	 1.029407678776863e+001
 2.290846630654907e+000	 3.279027556272165e+000	 1.023954104602390e+001
 2.257047524566414e+000	 3.302383453178052e+000	 1.019296575923636e+001
 2.223042980055295e+000	 3.325369138727341e+000	 1.015556939857108e+001
 2.188839013548634e+000	 3.347982044864625e+000	 1.012855750672875e+001
 2.052036575183095e+000	 3.138733167052782e+000	 1.027934675671293e+001
 2.019789075589026e+000	 3.159580999116348e+000	 1.014179216296854e+001
 1.987366005659461e+000	 3.180074898394475e+000	 1.001950108492152e+001
 1.954773106383973e+000	 3.200212821425363e+000	 9.913535263827848e+000
 1.922016145879748e+000	 3.219992847017981e+000	 9.824931238198866e+000
 1.889100916188957e+000	 3.239413176539813e+000	 9.754698366037427e+000
 1.856033230080492e+000	 3.258472134105683e+000	 9.713033418723475e+000
 1.822818917859585e+000	 3.277168166668327e+000	 9.695698720886051e+000
 1.789463824188730e+000	 3.295499844011498e+000	 9.695064176261527e+000
 1.755973804923333e+000	 3.313465858646516e+000	 9.710971221659849e+000
 1.722354723965393e+000	 3.331065025613313e+000	 9.743248694978442e+000
 2.065716819019625e+000	 3.159658054829465e+000	 1.024454895411345e+001
 2.033254336094089e+000	 3.180644872440123e+000	 1.012584497739048e+001
 2.000615112364274e+000	 3.201275397713506e+000	 1.002028679123427e+001
 1.967804927093015e+000	 3.221547573564735e+000	 9.928912120919462e+000
 1.934829586851615e+000	 3.241459465994842e+000	 9.852735691901291e+000
 1.901694922295856e+000	 3.261009264380424e+000	 9.792747234209818e+000
 1.868406784946424e+000	 3.280195281663736e+000	 9.752849134816858e+000
 1.834971043977251e+000	 3.299015954443868e+000	 9.740638947539024e+000
 1.801393583015249e+000	 3.317469842969797e+000	 9.742731464175632e+000
 1.767680296954858e+000	 3.335555631036250e+000	 9.758920299059495e+000
 1.733837088790757e+000	 3.353272125783427e+000	 9.788988981664568e+000
 2.079397062856160e+000	 3.180582942607150e+000	 1.021392621729981e+001
 2.046719596599342e+000	 3.201708745764888e+000	 1.011271726138039e+001
 2.013864219069431e+000	 3.222475897033497e+000	 1.002256387511290e+001
 1.980836747802525e+000	 3.242882325705017e+000	 9.944480688543260e+000
 1.947643027824043e+000	 3.262926084972539e+000	 9.879461512829877e+000
 1.914288928403380e+000	 3.282605352221780e+000	 9.828477325789532e+000
 1.880780339813014e+000	 3.301918429222424e+000	 9.792474310911665e+000
 1.847123170095580e+000	 3.320863742219913e+000	 9.782151686725994e+000
 1.813323341842404e+000	 3.339439841928448e+000	 9.786158415773999e+000
 1.779386788986964e+000	 3.357645403426167e+000	 9.801849827588928e+000
 1.745319453616616e+000	 3.375479225953533e+000	 9.828964122717661e+000
 2.093077306692701e+000	 3.201507830385834e+000	 1.018755181096836e+001
 2.060184857104785e+000	 3.222772619090644e+000	 1.010250164652232e+001
 2.027113325774932e+000	 3.243676396354447e+000	 1.002644371466521e+001
 1.993868568512505e+000	 3.264217077846208e+000	 9.960370466803958e+000
 1.960456468797033e+000	 3.284392703951076e+000	 9.905255694819694e+000
 1.926882934511530e+000	 3.304201440063883e+000	 9.862052496757629e+000
 1.893153894680265e+000	 3.323641576781748e+000	 9.831691293443901e+000
 1.859275296214572e+000	 3.342711529996462e+000	 9.820150615371670e+000
 1.825253100670198e+000	 3.361409840887453e+000	 9.825280449131782e+000
 1.791093281019651e+000	 3.379735175816265e+000	 9.839716373276607e+000
 1.756801818442972e+000	 3.397686326123631e+000	 9.863151230218886e+000
 2.106757550529247e+000	 3.222432718165518e+000	 1.016550156779108e+001
 2.073650117610419e+000	 3.243836492417388e+000	 1.009529273145612e+001
 2.040362432480778e+000	 3.264876895676356e+000	 1.003203906914805e+001
 2.006900389222952e+000	 3.285551829988306e+000	 9.976711766286579e+000
 1.973269909770586e+000	 3.305859322930449e+000	 9.930265486970354e+000
 1.939476940620305e+000	 3.325797527906732e+000	 9.893636318799970e+000
 1.905527449548174e+000	 3.345364724341706e+000	 9.867739766123627e+000
 1.871427422334229e+000	 3.364559317773515e+000	 9.854548094713083e+000
 1.837182859498628e+000	 3.383379839846811e+000	 9.860031175155571e+000
 1.802799773052920e+000	 3.401824948206546e+000	 9.872474219859829e+000
 1.768284183269824e+000	 3.419893426293720e+000	 9.891524675342259e+000
 2.120437794365798e+000	 3.243357605946203e+000	 1.014785380557773e+001
 2.087115378116242e+000	 3.264900365745122e+000	 1.009118701842395e+001
 2.053611539186969e+000	 3.286077394999225e+000	 1.003946403441372e+001
 2.019932209933868e+000	 3.306886582131313e+000	 9.993635681911769e+000
 1.986083350744701e+000	 3.327325941910659e+000	 9.954638385411313e+000
 1.952070946729707e+000	 3.347393615750327e+000	 9.923392088477732e+000
 1.917901004416744e+000	 3.367087871902299e+000	 9.900798222646253e+000
 1.883579548454547e+000	 3.386407105551073e+000	 9.887737727138324e+000
 1.849112618327695e+000	 3.405349838806522e+000	 9.890342455878878e+000
 1.814506265086770e+000	 3.423914720597010e+000	 9.900075442407186e+000
 1.779766548097172e+000	 3.442100526463804e+000	 9.914056176770959e+000
 2.134118038202355e+000	 3.264282493727888e+000	 1.013468924762409e+001
 2.100580638622255e+000	 3.285964239073846e+000	 1.009028285225754e+001
 2.066860645893503e+000	 3.307277894323052e+000	 1.004883400007079e+001
 2.032964030645252e+000	 3.328221334275228e+000	 1.001127406779693e+001
 1.998896791719378e+000	 3.348792560891706e+000	 9.978522125384384e+000
 1.964664952839736e+000	 3.368989703594667e+000	 9.951482836045745e+000
 1.930274559285973e+000	 3.388811019463529e+000	 9.931044399827814e+000
 1.895731674575529e+000	 3.408254893329133e+000	 9.918076545673214e+000
 1.861042377157399e+000	 3.427319837766585e+000	 9.916144460515971e+000
 1.826212757121202e+000	 3.446004492987656e+000	 9.922469978109254e+000
 1.791248912925016e+000	 3.464307626633877e+000	 9.930714885713146e+000
 2.147798282038917e+000	 3.285207381510571e+000	 1.012609094610403e+001
 2.114045899128458e+000	 3.307028112403561e+000	 1.009268036169689e+001
 2.080109752600382e+000	 3.328478393647839e+000	 1.006026560828132e+001
 2.045995851357105e+000	 3.349556086420052e+000	 1.002975951307802e+001
 2.011710232694617e+000	 3.370259179873592e+000	 1.000206467362875e+001
 1.977258958950389e+000	 3.390585791439756e+000	 9.978071333933416e+000
 1.942648114155861e+000	 3.410534167025391e+000	 9.958655301709275e+000
 1.907883800697174e+000	 3.430102681107697e+000	 9.944675911852162e+000
 1.872972135987740e+000	 3.449289836727001e+000	 9.937365719373227e+000
 1.837919249156214e+000	 3.468094265378485e+000	 9.939605694363710e+000
 1.802731277753356e+000	 3.486514726803944e+000	 9.941467467668563e+000
 2.161478525875483e+000	 3.306132269294256e+000	 1.012214420837074e+001
 2.127511159634852e+000	 3.328091985734265e+000	 1.009848140293745e+001
 2.093358859307605e+000	 3.349678892973584e+000	 1.007387671412337e+001
 2.059027672069426e+000	 3.370890838565784e+000	 1.004922531864932e+001
 2.024523673670419e+000	 3.391725798856314e+000	 1.002541422105505e+001
 1.989852965061668e+000	 3.412181879285589e+000	 1.000332010490381e+001
 1.955021669026409e+000	 3.432257314587890e+000	 9.983807222745778e+000
 1.920035926819483e+000	 3.451950468886766e+000	 9.967725330028650e+000
 1.884901894818718e+000	 3.471259835687771e+000	 9.955907667956671e+000
 1.849625741191809e+000	 3.490184037769495e+000	 9.951428454275227e+000
 1.814213642582192e+000	 3.508721826974003e+000	 9.946278181090300e+000
 2.175158769712056e+000	 3.327057157078940e+000	 1.012293652603942e+001
 2.140976420141436e+000	 3.349155859065959e+000	 1.010778950530779e+001
 2.106607966015173e+000	 3.370879392300290e+000	 1.008978634744885e+001
 2.072059492782216e+000	 3.392225590712425e+000	 1.006980547478123e+001
 2.037337114646783e+000	 3.413192417839874e+000	 1.004871917569578e+001
 2.002446971173574e+000	 3.433777967132169e+000	 1.002739142990488e+001
 1.967395223897617e+000	 3.453980462151022e+000	 1.000667577012042e+001
 1.932188052942454e+000	 3.473798256666338e+000	 9.987413185462215e+000
 1.896831653650335e+000	 3.493229834648894e+000	 9.970430071709753e+000
 1.861332233227984e+000	 3.512273810160688e+000	 9.957882179683567e+000
 1.825696007411525e+000	 3.530928927144053e+000	 9.945108953078062e+000
 2.188839013548634e+000	 3.347982044864625e+000	 1.012855750672875e+001
 2.154441680648210e+000	 3.370219732398643e+000	 1.012070981898398e+001
 2.119857072723086e+000	 3.392079891627955e+000	 1.010811467617178e+001
 2.085091313495474e+000	 3.413560342859974e+000	 1.009163463957724e+001
 2.050150555623710e+000	 3.434659036824271e+000	 1.007212815592069e+001
 2.015040977286106e+000	 3.455374054979496e+000	 1.005044735562601e+001
 1.979768778769484e+000	 3.475703609714792e+000	 1.002743588522180e+001
 1.944340179066090e+000	 3.495646044446416e+000	 1.000392677929014e+001
 1.908761412482587e+000	 3.515199833610370e+000	 9.980740377192831e+000
 1.873038725264741e+000	 3.534363582552064e+000	 9.958908911828065e+000
 1.837178372241353e+000	 3.553136027314097e+000	 9.937919452232885e+000
 1.722354723965393e+000	 3.331065025613313e+000	 9.743248694978442e+000
 1.688612450138004e+000	 3.348296282186655e+000	 9.757140043022044e+000
 1.654752854085250e+000	 3.365158687490438e+000	 9.763402550846255e+000
 1.620781805199965e+000	 3.381651422020275e+000	 9.761500601686247e+000
 1.586705168581185e+000	 3.397773787075000e+000	 9.750916031991418e+000
 1.552528802025695e+000	 3.413525204100325e+000	 9.731149139993987e+000
 1.518258553056114e+000	 3.428905213945840e+000	 9.701719651188984e+000
 1.483900255988309e+000	 3.443913476037222e+000	 9.662167638733521e+000
 1.449459729040825e+000	 3.458549767465619e+000	 9.612054396927556e+000
 1.414942771488917e+000	 3.472813981996224e+000	 9.550963266096494e+000
 1.380355160865667e+000	 3.486706128998200e+000	 9.478500407354563e+000
 1.733837088790757e+000	 3.353272125783427e+000	 9.788988981664568e+000
 1.699869866471438e+000	 3.370618257401203e+000	 9.790393963581499e+000
 1.665784539778524e+000	 3.387593078740911e+000	 9.785580665910784e+000
 1.631587017234133e+000	 3.404195764834802e+000	 9.774025143371969e+000
 1.597283203037965e+000	 3.420425612323706e+000	 9.755219405386987e+000
 1.562878994038781e+000	 3.436282038796304e+000	 9.728672445944937e+000
 1.528380276742684e+000	 3.451764582041180e+000	 9.693911231913299e+000
 1.493792924360984e+000	 3.466872899213522e+000	 9.650481647723080e+000
 1.459122793900348e+000	 3.481606765918416e+000	 9.597949394507793e+000
 1.424375723297864e+000	 3.495966075212821e+000	 9.535900841932243e+000
 1.389557528603505e+000	 3.509950836528365e+000	 9.463943831106800e+000
 1.745319453616616e+000	 3.375479225953533e+000	 9.828964122717661e+000
 1.711127282805278e+000	 3.392940232615552e+000	 9.818760944378417e+000
 1.676816225472134e+000	 3.410027469991017e+000	 9.803729019065438e+000
 1.642392229268590e+000	 3.426740107648814e+000	 9.783355548746641e+000
 1.607861237495004e+000	 3.443077437571767e+000	 9.757142208559182e+000
 1.573229186052117e+000	 3.459038873491527e+000	 9.724606198470807e+000
 1.538502000429517e+000	 3.474623950135680e+000	 9.685281254895198e+000
 1.503685592733952e+000	 3.489832322388910e+000	 9.638718620107412e+000
 1.468785858760214e+000	 3.504663764370250e+000	 9.584487967455063e+000
 1.433808675107226e+000	 3.519118168428429e+000	 9.522178280518387e+000
 1.398759896341848e+000	 3.533195544057530e+000	 9.451398684530231e+000
 1.756801818442972e+000	 3.397686326123631e+000	 9.863151230218886e+000
 1.722384699139524e+000	 3.415262207829704e+000	 9.842206852404418e+000
 1.687847911166081e+000	 3.432461861240755e+000	 9.817802683556497e+000
 1.653197441303334e+000	 3.449284450462311e+000	 9.789436549865034e+000
 1.618439271952301e+000	 3.465729262819184e+000	 9.756619285841133e+000
 1.583579378065703e+000	 3.481795708185998e+000	 9.718875808279133e+000
 1.548623724116612e+000	 3.497483318229334e+000	 9.675746151653378e+000
 1.513578261107214e+000	 3.512791745563388e+000	 9.626786462711289e+000
 1.478448923620424e+000	 3.527720762821125e+000	 9.571569952176647e+000
 1.443241626917003e+000	 3.542270261643044e+000	 9.509687801629921e+000
 1.407962264080697e+000	 3.556440251585694e+000	 9.440750023793216e+000
 1.768284183269824e+000	 3.419893426293720e+000	 9.891524675342259e+000
 1.733642115474177e+000	 3.437584183043659e+000	 9.860695181665420e+000
 1.698879596860366e+000	 3.454896252490127e+000	 9.827754716557610e+000
 1.664002653338367e+000	 3.471828793275292e+000	 9.792211208503675e+000
 1.629017306409859e+000	 3.488381088065955e+000	 9.753584145860829e+000
 1.593929570079541e+000	 3.504552542879714e+000	 9.711405673629766e+000
 1.558745447803969e+000	 3.520342686322147e+000	 9.665221653112912e+000
 1.523470929480768e+000	 3.535751168736953e+000	 9.614592682138278e+000
 1.488111988480978e+000	 3.550777761271039e+000	 9.559095073677574e+000
 1.452674578727196e+000	 3.565422354856672e+000	 9.498321790841027e+000
 1.417164631820050e+000	 3.579684959112860e+000	 9.431883336391927e+000
 1.779766548097172e+000	 3.442100526463804e+000	 9.914056176770959e+000
 1.744899531809236e+000	 3.459906158257415e+000	 9.874187129729625e+000
 1.709911282554987e+000	 3.477330643739131e+000	 9.833536224204460e+000
 1.674807865373687e+000	 3.494373136087755e+000	 9.791620970040750e+000
 1.639595340867676e+000	 3.511032913312080e+000	 9.747969004628454e+000
 1.604279762093628e+000	 3.527309377572676e+000	 9.702119212994145e+000
 1.568867171491587e+000	 3.543202054414117e+000	 9.653622812205319e+000
 1.533363597854616e+000	 3.558710591909605e+000	 9.602044397681302e+000
 1.497775053341877e+000	 3.573834759719990e+000	 9.546962949154153e+000
 1.462107530537802e+000	 3.588574448069307e+000	 9.487972794176962e+000
 1.426366999559909e+000	 3.602929666639025e+000	 9.424684527236520e+000
 1.791248912925016e+000	 3.464307626633877e+000	 9.930714885713146e+000
 1.756156948144701e+000	 3.482228133470974e+000	 9.882641671331227e+000
 1.720942968249945e+000	 3.499765034987769e+000	 9.835096424127915e+000
 1.685613077409295e+000	 3.516917478899702e+000	 9.787605715263716e+000
 1.650173375325751e+000	 3.533684738557561e+000	 9.739704826966372e+000
 1.614629954107966e+000	 3.550066212264883e+000	 9.690938896459016e+000
 1.578988895179467e+000	 3.566061422505243e+000	 9.640864025598933e+000
 1.543256266228757e+000	 3.581670015081346e+000	 9.589048353736159e+000
 1.507438118203120e+000	 3.596891758167982e+000	 9.535073091449412e+000
 1.471540482348824e+000	 3.611726541280953e+000	 9.478533512971250e+000
 1.435569367300273e+000	 3.626174374164190e+000	 9.419039905272594e+000
 1.802731277753356e+000	 3.486514726803944e+000	 9.941467467668563e+000
 1.767414364480573e+000	 3.504550108684335e+000	 9.886015629161308e+000
 1.731974653945240e+000	 3.522199426236039e+000	 9.832382705597491e+000
 1.696418289445191e+000	 3.539461821711133e+000	 9.780103810197021e+000
 1.660751409784085e+000	 3.556336563802396e+000	 9.728721366355867e+000
 1.624980146122555e+000	 3.572823046956338e+000	 9.677786275929622e+000
 1.589110618867609e+000	 3.588920790595527e+000	 9.626859054599072e+000
 1.553148934603190e+000	 3.604629438252175e+000	 9.575510931741164e+000
 1.517101183064707e+000	 3.619948756615012e+000	 9.523324912376570e+000
 1.480973434160260e+000	 3.634878634491609e+000	 9.469896798919598e+000
 1.444771735041142e+000	 3.649419081688354e+000	 9.414836170613549e+000
 1.814213642582192e+000	 3.508721826974003e+000	 9.946278181090300e+000
 1.778671780816851e+000	 3.526872083897497e+000	 9.884263741970594e+000
 1.743006339640873e+000	 3.544633817483943e+000	 9.825340687381072e+000
 1.707223501481376e+000	 3.562006164522048e+000	 9.769052154037741e+000
 1.671329444242679e+000	 3.578988389046586e+000	 9.714947203270771e+000
 1.635330338137394e+000	 3.595579881647038e+000	 9.662582014186169e+000
 1.599232342556013e+000	 3.611780158684968e+000	 9.611521045254515e+000
 1.563041602977918e+000	 3.627588861422092e+000	 9.561338161662956e+000
 1.526764247926639e+000	 3.643005755061083e+000	 9.511617725915887e+000
 1.490406385972112e+000	 3.658030727701275e+000	 9.461955649321691e+000
 1.453974102782516e+000	 3.672663789211519e+000	 9.411960402162148e+000
 1.825696007411525e+000	 3.530928927144053e+000	 9.945108953078062e+000
 1.789929197153535e+000	 3.549194059110465e+000	 9.877338730101839e+000
 1.754038025336842e+000	 3.567068208731479e+000	 9.813914273420803e+000
 1.718028713517848e+000	 3.584550507332447e+000	 9.754386225282175e+000
 1.681907478701532e+000	 3.601640214290131e+000	 9.698309782064518e+000
 1.645680530152484e+000	 3.618336716336984e+000	 9.645245912843768e+000
 1.609354066244679e+000	 3.634639526773566e+000	 9.594762547705066e+000
 1.572934271352937e+000	 3.650548284591098e+000	 9.546435733049286e+000
 1.536427312788914e+000	 3.666062753506191e+000	 9.499850751291605e+000
 1.499839337784378e+000	 3.681182820909950e+000	 9.454603202502298e+000
 1.463176470524395e+000	 3.695908496733685e+000	 9.410300045698737e+000
 1.837178372241353e+000	 3.553136027314097e+000	 9.937919452232885e+000
 1.801186613490626e+000	 3.571516034323234e+000	 9.865191358565587e+000
 1.765069711033149e+000	 3.589502599978649e+000	 9.798045706421577e+000
 1.728833925554609e+000	 3.607094850142331e+000	 9.736040126122676e+000
 1.692485513160644e+000	 3.624292039533032e+000	 9.678735446473763e+000
 1.656030722167824e+000	 3.641093551026176e+000	 9.625696939263614e+000
 1.619475789933607e+000	 3.657498894861323e+000	 9.576495534803826e+000
 1.582826939728251e+000	 3.673507707759193e+000	 9.530709005666864e+000
 1.546090377651534e+000	 3.689119751950341e+000	 9.487923115932578e+000
 1.509272289597059e+000	 3.704334914117636e+000	 9.447732733404386e+000
 1.472378838266780e+000	 3.719153204254850e+000	 9.409742902416401e+000
 1.380355160865667e+000	 3.486706128998200e+000	 9.478500407354563e+000
 1.345702650213483e+000	 3.500226332298184e+000	 9.378158517294963e+000
 1.310990965385763e+000	 3.513374828959480e+000	 9.296127289635178e+000
 1.276225802402121e+000	 3.526151967989605e+000	 9.232190484515312e+000
 1.241412824861386e+000	 3.538558208978484e+000	 9.185693726660590e+000
 1.206557661411701e+000	 3.550594120669679e+000	 9.147136643157642e+000
 1.171665903280343e+000	 3.562260379467235e+000	 9.112057613190617e+000
 1.136743101864962e+000	 3.573557767880753e+000	 9.079599791789420e+000
 1.101794766387843e+000	 3.584487172911278e+000	 9.048948910151108e+000
 1.066826361614632e+000	 3.595049584380677e+000	 9.019334921321494e+000
 1.031843305638912e+000	 3.605246093207198e+000	 8.990033507908684e+000
 1.389557528603505e+000	 3.509950836528365e+000	 9.463943831106800e+000
 1.354674001213380e+000	 3.523561174517189e+000	 9.371472622876368e+000
 1.319730905153325e+000	 3.536797327823012e+000	 9.296348890500184e+000
 1.284733974416420e+000	 3.549659647780074e+000	 9.238343358530784e+000
 1.249688910358818e+000	 3.562148597042228e+000	 9.197220388144569e+000
 1.214601379152982e+000	 3.574264748144659e+000	 9.165256753822609e+000
 1.179477009301037e+000	 3.586008782000778e+000	 9.135292032220621e+000
 1.144321389209951e+000	 3.597381486336912e+000	 9.106436939051831e+000
 1.109140064830153e+000	 3.608383754067450e+000	 9.077846860538406e+000
 1.073938537359064e+000	 3.619016581613070e+000	 9.048723529721414e+000
 1.038722261010886e+000	 3.629281067164810e+000	 9.018316560589804e+000
 1.398759896341848e+000	 3.533195544057530e+000	 9.451398684530231e+000
 1.363645352213865e+000	 3.546896016735199e+000	 9.366790620503133e+000
 1.328470844921530e+000	 3.560219826685568e+000	 9.298574415712757e+000
 1.293242146431385e+000	 3.573167327569589e+000	 9.246507490803477e+000
 1.257964995856909e+000	 3.585738985105054e+000	 9.210345970075073e+000
 1.222645096894885e+000	 3.597935375618769e+000	 9.185077269272684e+000
 1.187288115322284e+000	 3.609757184533504e+000	 9.160571559581113e+000
 1.151899676555395e+000	 3.621205204792322e+000	 9.135662329049454e+000
 1.116485363272793e+000	 3.632280335222947e+000	 9.109473865139133e+000
 1.081050713103668e+000	 3.642983578844875e+000	 9.081178945892075e+000
 1.045601216382847e+000	 3.653316041121927e+000	 9.050000401299114e+000
 1.407962264080697e+000	 3.556440251585694e+000	 9.440750023793216e+000
 1.372616703214941e+000	 3.570230858952214e+000	 9.364003678429461e+000
 1.337210784690379e+000	 3.583642325547142e+000	 9.302700948843324e+000
 1.301750318447017e+000	 3.596675007358150e+000	 9.256585680604268e+000
 1.266241081355659e+000	 3.609329373166961e+000	 9.225401442717779e+000
 1.230688814637408e+000	 3.621606003092005e+000	 9.206367964212467e+000
 1.195099221344086e+000	 3.633505587065414e+000	 9.187676717596933e+000
 1.159477963901295e+000	 3.645028923246981e+000	 9.167066971977249e+000
 1.123830661715762e+000	 3.656176916377770e+000	 9.143631155435626e+000
 1.088162888848445e+000	 3.666950576076089e+000	 9.116512349482639e+000
 1.052480171754797e+000	 3.677351015078551e+000	 9.084905878493800e+000
 1.417164631820050e+000	 3.579684959112860e+000	 9.431883336391927e+000
 1.381588054216606e+000	 3.593565701168235e+000	 9.363003316961223e+000
 1.345950724459871e+000	 3.607064824407739e+000	 9.308625851293837e+000
 1.310258490463315e+000	 3.620182687145757e+000	 9.268480935872303e+000
 1.274517166855068e+000	 3.632919761227950e+000	 9.242299310636756e+000
 1.238732532380554e+000	 3.645276630564371e+000	 9.228898698846466e+000
 1.202910327366441e+000	 3.657253989596509e+000	 9.216388060074559e+000
 1.167056251247652e+000	 3.668852641700889e+000	 9.200441860523897e+000
 1.131175960159060e+000	 3.680073497531919e+000	 9.180119901432146e+000
 1.095275064593396e+000	 3.690917573306717e+000	 9.154534819691884e+000
 1.059359127126733e+000	 3.701385989034681e+000	 9.122853706188078e+000
 1.426366999559909e+000	 3.602929666639025e+000	 9.424684527236520e+000
 1.390559405218861e+000	 3.616900543383259e+000	 9.363681397099764e+000
 1.354690664230007e+000	 3.630487323267354e+000	 9.316246753335699e+000
 1.318766662480280e+000	 3.643690366932413e+000	 9.282096466483532e+000
 1.282793252355136e+000	 3.656510149288022e+000	 9.260948170957491e+000
 1.246776250124320e+000	 3.668947258035864e+000	 9.252439416120733e+000
 1.210721433389350e+000	 3.681002392126788e+000	 9.246486171286428e+000
 1.174634538594466e+000	 3.692676360154049e+000	 9.235577970436307e+000
 1.138521258602688e+000	 3.703970078685392e+000	 9.218741213638035e+000
 1.102387240338519e+000	 3.714884570536753e+000	 9.195057338508502e+000
 1.066238082498657e+000	 3.725420962990318e+000	 9.163664468290039e+000
 1.435569367300273e+000	 3.626174374164190e+000	 9.419039905272594e+000
 1.399530756221705e+000	 3.640235385597289e+000	 9.365930109622044e+000
 1.363430604000785e+000	 3.653909822125991e+000	 9.325461545491912e+000
 1.327274834497910e+000	 3.667198046718112e+000	 9.297335677778548e+000
 1.291069337855863e+000	 3.680100537347176e+000	 9.281256756217639e+000
 1.254819967868708e+000	 3.692617885506485e+000	 9.276932718184725e+000
 1.218532539412814e+000	 3.704750794656250e+000	 9.277751664994625e+000
 1.182212825941735e+000	 3.716500078606457e+000	 9.272266261062777e+000
 1.145866557046644e+000	 3.727866659838192e+000	 9.259296144974510e+000
 1.109499416083815e+000	 3.738851567766201e+000	 9.237890793826715e+000
 1.073117037870568e+000	 3.749455936945461e+000	 9.207158622771846e+000
 1.444771735041142e+000	 3.649419081688354e+000	 9.414836170613549e+000
 1.408502107225139e+000	 3.663570227810325e+000	 9.369641964578191e+000
 1.372170543772207e+000	 3.677332320983648e+000	 9.336168370249110e+000
 1.335783006516208e+000	 3.690705726502858e+000	 9.314102164337500e+000
 1.299345423357249e+000	 3.703690925405412e+000	 9.303133930054559e+000
 1.262863685613718e+000	 3.716288512976234e+000	 9.302958972614890e+000
 1.226343645436830e+000	 3.728499197184897e+000	 9.309965183511533e+000
 1.189791113289461e+000	 3.740323797058116e+000	 9.310297675875196e+000
 1.153211855490931e+000	 3.751763240990319e+000	 9.296912617304360e+000
 1.116611591829284e+000	 3.762818564995061e+000	 9.251659771404258e+000
 1.079995993242467e+000	 3.773490910900110e+000	 9.202808325209460e+000
 1.453974102782516e+000	 3.672663789211519e+000	 9.411960402162148e+000
 1.417473458229163e+000	 3.686905070022366e+000	 9.374709781188015e+000
 1.380910483544273e+000	 3.700754819840327e+000	 9.348265614083680e+000
 1.344291178535171e+000	 3.714213406286652e+000	 9.332299703991538e+000
 1.307621508859294e+000	 3.727281313462730e+000	 9.326488683056541e+000
 1.270907403359349e+000	 3.739959140445111e+000	 9.330514941063251e+000
 1.234154751461400e+000	 3.752247599712728e+000	 9.336388552337787e+000
 1.197369400637643e+000	 3.764147515509024e+000	 9.309196109959437e+000
 1.160557153935546e+000	 3.775659822141769e+000	 9.275624998477191e+000
 1.123723767574925e+000	 3.786785562223331e+000	 9.237023587805540e+000
 1.086874948614353e+000	 3.797525884854265e+000	 9.194649142402701e+000
 1.463176470524395e+000	 3.695908496733685e+000	 9.410300045698737e+000
 1.426444809233777e+000	 3.710239912233413e+000	 9.381026678118580e+000
 1.389650423316982e+000	 3.724177318696026e+000	 9.361651899789402e+000
 1.352799350554802e+000	 3.737721086069491e+000	 9.351832252060280e+000
 1.315897594361998e+000	 3.750871701519130e+000	 9.348736922844319e+000
 1.278951121105601e+000	 3.763629767913117e+000	 9.319927642470640e+000
 1.241965857486524e+000	 3.775996002239742e+000	 9.300305235451116e+000
 1.204947687986281e+000	 3.787971233959182e+000	 9.279759764426924e+000
 1.167902452380490e+000	 3.799556403292545e+000	 9.252603511601594e+000
 1.130835943320740e+000	 3.810752559451013e+000	 9.220227506448163e+000
 1.093753903986227e+000	 3.821560858807927e+000	 9.183930040705821e+000
 1.472378838266780e+000	 3.719153204254850e+000	 9.409742902416401e+000
 1.435416160238980e+000	 3.733574754443465e+000	 9.388486064126539e+000
 1.398390363090334e+000	 3.747599817550745e+000	 9.376226079092458e+000
 1.361307522575099e+000	 3.761228765851378e+000	 9.341261466407870e+000
 1.324173679865361e+000	 3.774462089574614e+000	 9.307173493070783e+000
 1.286994838852475e+000	 3.787300395380251e+000	 9.281073691126942e+000
 1.249776963512203e+000	 3.799744404765943e+000	 9.263584958140539e+000
 1.212525975335377e+000	 3.811794952408592e+000	 9.249203651560020e+000
 1.175247750825765e+000	 3.823452984442649e+000	 9.228004009246652e+000
 1.137948119066728e+000	 3.834719556678107e+000	 9.201420472283459e+000
 1.100632859358089e+000	 3.845595832761096e+000	 9.170793070676949e+000
 1.031843305638912e+000	 3.605246093207198e+000	 8.990033507908684e+000
 9.968509677335214e-001	 3.615077889630200e+000	 8.965259608541803e+000
 9.618546662704745e-001	 3.624546261385974e+000	 8.945318297550660e+000
 9.268596667103948e-001	 3.633652591837827e+000	 8.929606624407393e+000
 8.918711796614018e-001	 3.642398358063881e+000	 8.917567102512402e+000
 8.568943590090273e-001	 3.650785128904496e+000	 8.908688633441232e+000
 8.219343001176299e-001	 3.658814562972306e+000	 8.902507297314481e+000
 7.869960381038450e-001	 3.666488406627660e+000	 8.898607010452549e+000
 7.520845461825005e-001	 3.673808491922170e+000	 8.896620051827510e+000
 7.172047340853255e-001	 3.680776734513124e+000	 8.896227460162329e+000
 6.823614465526605e-001	 3.687395131551449e+000	 8.897159303847992e+000
 1.038722261010886e+000	 3.629281067164810e+000	 9.018316560589804e+000
 1.003496640853508e+000	 3.639178408896960e+000	 8.991118654200870e+000
 9.682670307146524e-001	 3.648709903130721e+000	 8.966506600886374e+000
 9.330387311580148e-001	 3.657876942451823e+000	 8.943857732865480e+000
 8.978169875291034e-001	 3.666681013785578e+000	 8.922597583972339e+000
 8.626069880726867e-001	 3.675123696431280e+000	 8.902200810553731e+000
 8.274138621222203e-001	 3.683206660058982e+000	 8.882191974053809e+000
 7.922426783617848e-001	 3.690931662671435e+000	 8.862146186541585e+000
 7.570984431609736e-001	 3.698300548533930e+000	 8.841689620799297e+000
 7.219860989830624e-001	 3.705315246074803e+000	 8.820499886933673e+000
 6.869105228666611e-001	 3.711977765759321e+000	 8.798306277800357e+000
 1.045601216382847e+000	 3.653316041121927e+000	 9.050000401299114e+000
 1.010142313973292e+000	 3.663278928163324e+000	 9.020580535528964e+000
 9.746793951584590e-001	 3.672873544875174e+000	 8.991502898177224e+000
 9.392177956051151e-001	 3.682101293065625e+000	 8.962124439642880e+000
 9.037627953961567e-001	 3.690963669507182e+000	 8.931853067296666e+000
 8.683196171355896e-001	 3.699462263958071e+000	 8.900148563670554e+000
 8.328934241259661e-001	 3.707598757145765e+000	 8.866523361846303e+000
 7.974893186188113e-001	 3.715374918715417e+000	 8.830543179395413e+000
 7.621123401384853e-001	 3.722792605145996e+000	 8.791827512592937e+000
 7.267674638798087e-001	 3.729853757636888e+000	 8.750049992979928e+000
 6.914595991796617e-001	 3.736560399967698e+000	 8.704938608684442e+000
 1.052480171754797e+000	 3.677351015078551e+000	 9.084905878493800e+000
 1.016787987092874e+000	 3.687379447429296e+000	 9.053477983797981e+000
 9.810917596018945e-001	 3.697037186619333e+000	 9.020151350768140e+000
 9.453968600516957e-001	 3.706325643679235e+000	 8.984261878341217e+000
 9.097086032625616e-001	 3.715246325228693e+000	 8.945199195857805e+000
 8.740322461977363e-001	 3.723800831484869e+000	 8.902407579183500e+000
 8.383729861288674e-001	 3.731990854232656e+000	 8.855386719490614e+000
 8.027359588749252e-001	 3.739818174759607e+000	 8.803692346149306e+000
 7.671262371150359e-001	 3.747284661758370e+000	 8.746936705554241e+000
 7.315488287755649e-001	 3.754392269199381e+000	 8.705144940975080e+000
 6.960086754916622e-001	 3.761143034176585e+000	 8.680295675123210e+000
 1.059359127126733e+000	 3.701385989034681e+000	 9.122853706188078e+000
 1.023433660212254e+000	 3.711479966694873e+000	 9.089643501885076e+000
 9.875041240449586e-001	 3.721200828363198e+000	 9.052295806792653e+000
 9.515759244977561e-001	 3.730549994292652e+000	 9.010124793635809e+000
 9.156544111283184e-001	 3.739528980950109e+000	 8.962501157449376e+000
 8.797448752591266e-001	 3.748139399011674e+000	 8.908853030271672e+000
 8.438525481309244e-001	 3.756382951319652e+000	 8.859548063817815e+000
 8.079825991301267e-001	 3.764261430804004e+000	 8.817643970230483e+000
 7.721401340906250e-001	 3.771776718371052e+000	 8.781744560978268e+000
 7.363301936703308e-001	 3.778930780762282e+000	 8.752121322548856e+000
 7.005577518026629e-001	 3.785725668385978e+000	 8.728956850041460e+000
 1.066238082498657e+000	 3.725420962990318e+000	 9.163664468290039e+000
 1.030079333331432e+000	 3.735580485960057e+000	 9.128909371639834e+000
 9.939164884876516e-001	 3.745364470106771e+000	 9.087779811276338e+000
 9.577549889432969e-001	 3.754774344905874e+000	 9.037052453251782e+000
 9.216002189934274e-001	 3.763811636671434e+000	 8.984728745357788e+000
 8.854575043197607e-001	 3.772477966538485e+000	 8.936398080588154e+000
 8.493321101321368e-001	 3.780775048406757e+000	 8.892632588928990e+000
 8.132292393844149e-001	 3.788704686848607e+000	 8.853912445183763e+000
 7.771540310652526e-001	 3.796268774984041e+000	 8.820626277890332e+000
 7.411115585641064e-001	 3.803469292325590e+000	 8.793071769482419e+000
 7.051068281126635e-001	 3.810308302595879e+000	 8.771456441698007e+000
 1.073117037870568e+000	 3.749455936945461e+000	 9.207158622771846e+000
 1.036725006450407e+000	 3.759681005224847e+000	 9.155073004529763e+000
 1.000328852929973e+000	 3.769528111850049e+000	 9.102885908484266e+000
 9.639340533883177e-001	 3.778998695518903e+000	 9.052586476045125e+000
 9.275460268578878e-001	 3.788094292392663e+000	 9.004963902830005e+000
 8.911701333796380e-001	 3.796816534065304e+000	 8.960714011590410e+000
 8.548116721325048e-001	 3.805167145493967e+000	 8.920439230869421e+000
 8.184758796377906e-001	 3.813147942893417e+000	 8.884648779582404e+000
 7.821679280389191e-001	 3.820760831597336e+000	 8.853759052251958e+000
 7.458929234568915e-001	 3.828007803889304e+000	 8.828094199216524e+000
 7.096559044216639e-001	 3.834890936806286e+000	 8.807886895747611e+000
 1.079995993242467e+000	 3.773490910900110e+000	 9.202808325209460e+000
 1.043370679569180e+000	 3.783781524489244e+000	 9.155896749424295e+000
 1.006741217371923e+000	 3.793691753593033e+000	 9.109306744559502e+000
 9.701131178328185e-001	 3.803223046131738e+000	 9.063955082366876e+000
 9.334918347216998e-001	 3.812376948113800e+000	 9.020664187288810e+000
 8.968827624387593e-001	 3.821155101592128e+000	 8.980161869136841e+000
 8.602912341320280e-001	 3.829559242581284e+000	 8.943081270470302e+000
 8.237225198902534e-001	 3.837591198938436e+000	 8.909961023809505e+000
 7.871818250116240e-001	 3.845252888210939e+000	 8.881245613364923e+000
 7.506742883486861e-001	 3.852546315453426e+000	 8.857285935540437e+000
 7.142049807296647e-001	 3.859473571017202e+000	 8.838340052078859e+000
 1.086874948614353e+000	 3.797525884854265e+000	 9.194649142402701e+000
 1.050016352687752e+000	 3.807882043753248e+000	 9.153538512251636e+000
 1.013153581813503e+000	 3.817855395335725e+000	 9.112100307081132e+000
 9.762921822767995e-001	 3.827447396744380e+000	 9.071286294696932e+000
 9.394376425848640e-001	 3.836659603834843e+000	 9.031952642888086e+000
 9.025953914971243e-001	 3.845493669118960e+000	 8.994859616814630e+000
 8.657707961307070e-001	 3.853951339668710e+000	 8.960671495126814e+000
 8.289691601418034e-001	 3.862034454983661e+000	 8.929956699907233e+000
 7.921957219833679e-001	 3.869744944824850e+000	 8.903188135064946e+000
 7.554556532394906e-001	 3.877084827017957e+000	 8.880743727378507e+000
 7.187540570366653e-001	 3.884056205228624e+000	 8.862907163983902e+000
 1.093753903986227e+000	 3.821560858807927e+000	 9.183930040705821e+000
 1.056662025806120e+000	 3.831982563016857e+000	 9.148135743964595e+000
 1.019565946254710e+000	 3.842019037078121e+000	 9.111399221441776e+000
 9.824712467202608e-001	 3.851671747356828e+000	 9.074707804703083e+000
 9.453834504473798e-001	 3.860942259555793e+000	 9.038951926276388e+000
 9.083080205547327e-001	 3.869832236645799e+000	 9.004924781683661e+000
 8.712503581285412e-001	 3.878343436756241e+000	 8.973322214314909e+000
 8.342158003924408e-001	 3.886477711029093e+000	 8.944742818190900e+000
 7.972096189541502e-001	 3.894237001439067e+000	 8.919688253189381e+000
 7.602370181293044e-001	 3.901623338582893e+000	 8.898563766867685e+000
 7.233031333426661e-001	 3.908638839440555e+000	 8.881678916604850e+000
 1.100632859358089e+000	 3.845595832761096e+000	 9.170793070676949e+000
 1.063307698924287e+000	 3.856083082280073e+000	 9.139825707319353e+000
 1.025978310695547e+000	 3.866182678820226e+000	 9.107335854948664e+000
 9.886503111632020e-001	 3.875896097969085e+000	 9.074346983578803e+000
 9.513292583092478e-001	 3.885224915276651e+000	 9.041784318706684e+000
 9.140206496115850e-001	 3.894170804172645e+000	 9.010474467918231e+000
 8.767299201255315e-001	 3.902735533843882e+000	 8.981145274526298e+000
 8.394624406421656e-001	 3.910920967074734e+000	 8.954425893240794e+000
 8.022235159239715e-001	 3.918729058053593e+000	 8.930847082389612e+000
 7.650183830181282e-001	 3.926161850148238e+000	 8.910841706757056e+000
 7.278522096476668e-001	 3.933221473652993e+000	 8.894745444688594e+000
 6.823614465526605e-001	 3.687395131551449e+000	 8.897159303847992e+000
 6.475594618980655e-001	 3.693665759545780e+000	 8.823306124841764e+000
 6.128034906466536e-001	 3.699590772205656e+000	 8.779950078236668e+000
 5.780981742462332e-001	 3.705172398266263e+000	 8.791641761929354e+000
 5.434480838508562e-001	 3.710412939297010e+000	 8.795245287657714e+000
 5.088577191772321e-001	 3.715314767496883e+000	 8.792101666195212e+000
 4.743315074333467e-001	 3.719880323478916e+000	 8.783501413456621e+000
 4.398738023188180e-001	 3.724112114046291e+000	 8.770682897721361e+000
 4.054888830964485e-001	 3.728012709962431e+000	 8.754830846022939e+000
 3.711809537343516e-001	 3.731584743717474e+000	 8.737075008519163e+000
 3.369541421179410e-001	 3.734830907293413e+000	 8.718488979269267e+000
 6.869105228666611e-001	 3.711977765759321e+000	 8.798306277800357e+000
 6.518765249807942e-001	 3.718290197939601e+000	 8.706786641184021e+000
 6.168888472541161e-001	 3.724254710683340e+000	 8.630405517253285e+000
 5.819521620774202e-001	 3.729873547583952e+000	 8.613770541113510e+000
 5.470710710791198e-001	 3.735149025554649e+000	 8.587664468118842e+000
 5.122501039740348e-001	 3.740083532609068e+000	 8.553476722423811e+000
 4.774937174848724e-001	 3.744679525630999e+000	 8.512545972041737e+000
 4.428062943359139e-001	 3.748939528135642e+000	 8.466158407030907e+000
 4.081921423183810e-001	 3.752866128024844e+000	 8.461217740539942e+000
 3.736554934268416e-001	 3.756461975338673e+000	 8.473217698555406e+000
 3.392005030659454e-001	 3.759729780005672e+000	 8.486633794883083e+000
 6.914595991796617e-001	 3.736560399967698e+000	 8.704938608684442e+000
 6.561935880625281e-001	 3.742914636334019e+000	 8.595598398465191e+000
 6.209742038605993e-001	 3.748918649161690e+000	 8.487712088047866e+000
 5.858061499076541e-001	 3.754574696902358e+000	 8.484764041360632e+000
 5.506940583064660e-001	 3.759885111813030e+000	 8.490249439063764e+000
 5.156424887699670e-001	 3.764852297722003e+000	 8.495715288322881e+000
 4.806559275355834e-001	 3.769478727783819e+000	 8.501517109411870e+000
 4.457387863522613e-001	 3.773766942225699e+000	 8.507918903114028e+000
 4.108954015396412e-001	 3.777719546087911e+000	 8.515095908170684e+000
 3.761300331187448e-001	 3.781339206960455e+000	 8.523137453763205e+000
 3.414468640134582e-001	 3.784628652718419e+000	 8.532049897359190e+000
 6.960086754916622e-001	 3.761143034176585e+000	 8.680295675123210e+000
 6.605106511432675e-001	 3.767539074729034e+000	 8.608929913680708e+000
 6.250595604661036e-001	 3.773582587640705e+000	 8.540557858362732e+000
 5.896601377369348e-001	 3.779275846221478e+000	 8.545466930899174e+000
 5.543170455328952e-001	 3.784621198072152e+000	 8.549569164693896e+000
 5.190348735650283e-001	 3.789621062835687e+000	 8.553187296780997e+000
 4.838181375854797e-001	 3.794277929937377e+000	 8.556670677918403e+000
 4.486712783678602e-001	 3.798594356316461e+000	 8.560276153508156e+000
 4.135986607602287e-001	 3.802572964151630e+000	 8.564170868673092e+000
 3.786045728100609e-001	 3.806216438582819e+000	 8.568435169426198e+000
 3.436932249604792e-001	 3.809527525431660e+000	 8.573065590106596e+000
 7.005577518026629e-001	 3.785725668385978e+000	 8.728956850041460e+000
 6.648277142230121e-001	 3.792163513124647e+000	 8.665469330625454e+000
 6.291449170706286e-001	 3.798246526120384e+000	 8.604472696277668e+000
 5.935141255652624e-001	 3.803976995541310e+000	 8.601043990594420e+000
 5.579400327584075e-001	 3.809357284332017e+000	 8.603743760761313e+000
 5.224272583592184e-001	 3.814389827950121e+000	 8.605537565221479e+000
 4.869803476345614e-001	 3.819077132091672e+000	 8.606768203194891e+000
 4.516037703827107e-001	 3.823421770407929e+000	 8.607684942615096e+000
 4.163019199801437e-001	 3.827426382216003e+000	 8.608446374236006e+000
 3.810791125007904e-001	 3.831093670205766e+000	 8.609123362917233e+000
 3.459395859070087e-001	 3.834426398145392e+000	 8.609702086100993e+000
 7.051068281126635e-001	 3.810308302595879e+000	 8.771456441698007e+000
 6.691447773017617e-001	 3.816787951520856e+000	 8.715410735564097e+000
 6.332302736741743e-001	 3.822910464600731e+000	 8.661392029156476e+000
 5.973681133926367e-001	 3.828678144861858e+000	 8.651453047476116e+000
 5.615630199830025e-001	 3.834093370592623e+000	 8.652739964393392e+000
 5.258196431525382e-001	 3.839158593065305e+000	 8.652741695354333e+000
 4.901425576828286e-001	 3.843876334246704e+000	 8.651794103024548e+000
 4.545362623968127e-001	 3.848249184500100e+000	 8.650138452715707e+000
 4.190051791993861e-001	 3.852279800281029e+000	 8.647924316930558e+000
 3.835536521909326e-001	 3.855970901829293e+000	 8.645212578198878e+000
 3.481859468530463e-001	 3.859325270859617e+000	 8.641978520052479e+000
 7.096559044216639e-001	 3.834890936806286e+000	 8.807886895747611e+000
 6.734618403795165e-001	 3.841412389917662e+000	 8.758847541174497e+000
 6.373156302767410e-001	 3.847574403081744e+000	 8.711410150835681e+000
 6.012221012190578e-001	 3.853379294183118e+000	 8.696650800020683e+000
 5.651860072066806e-001	 3.858829456853971e+000	 8.696523233202825e+000
 5.292120279449868e-001	 3.863927358181238e+000	 8.694773866721606e+000
 4.933047677302811e-001	 3.868675536402473e+000	 8.691731238657631e+000
 4.574687544101661e-001	 3.873076598592977e+000	 8.687628183457090e+000
 4.217084384179559e-001	 3.877133218346708e+000	 8.682604788329316e+000
 3.860281918804882e-001	 3.880848133453403e+000	 8.676711449073750e+000
 3.504323077985923e-001	 3.884224143574332e+000	 8.669912015016692e+000
 7.142049807296647e-001	 3.859473571017202e+000	 8.838340052078859e+000
 6.777789034562769e-001	 3.866036828315065e+000	 8.795872384014157e+000
 6.414009868783286e-001	 3.872238341563422e+000	 8.754620416751131e+000
 6.050760890445256e-001	 3.878080443505093e+000	 8.736592854092342e+000
 5.688089944294413e-001	 3.883565543116061e+000	 8.735057786036501e+000
 5.326044127365643e-001	 3.888696123297920e+000	 8.731606881989295e+000
 4.964669777769190e-001	 3.893474738558979e+000	 8.726560964382477e+000
 4.604012464227710e-001	 3.897904012686559e+000	 8.720144005439673e+000
 4.244116976358532e-001	 3.901986636413041e+000	 8.712486136847009e+000
 3.885027315694566e-001	 3.905725365078096e+000	 8.703626760017697e+000
 3.526786687436464e-001	 3.909123016289539e+000	 8.693517746460149e+000
 7.187540570366653e-001	 3.884056205228624e+000	 8.862907163983902e+000
 6.820959665320421e-001	 3.890661266713064e+000	 8.826577149080878e+000
 6.454863434789370e-001	 3.896902280045765e+000	 8.791115273634507e+000
 6.089300768690401e-001	 3.902781592827782e+000	 8.771233757519440e+000
 5.724319816512852e-001	 3.908301629378893e+000	 8.768306642176949e+000
 5.359967975272713e-001	 3.913464888415352e+000	 8.763212210519365e+000
 4.996291878227421e-001	 3.918273940716222e+000	 8.756263175214141e+000
 4.633337384346276e-001	 3.922731426780847e+000	 8.747674211769317e+000
 4.271149568530779e-001	 3.926840054480027e+000	 8.737565022903805e+000
 3.909772712578382e-001	 3.930602596703370e+000	 8.725963504702724e+000
 3.549250296882090e-001	 3.934021889005239e+000	 8.712809003892923e+000
 7.233031333426661e-001	 3.908638839440555e+000	 8.881678916604850e+000
 6.864130296068128e-001	 3.915285705111661e+000	 8.851052993446759e+000
 6.495717000785661e-001	 3.921566218528774e+000	 8.820986288088696e+000
 6.127840646926014e-001	 3.927482742151186e+000	 8.800527033366121e+000
 5.760549688722118e-001	 3.933037715642467e+000	 8.796231659064507e+000
 5.393891823171073e-001	 3.938233653533534e+000	 8.789560030297634e+000
 5.027913978677507e-001	 3.943073142874203e+000	 8.780816352783614e+000
 4.662662304457357e-001	 3.947558840875840e+000	 8.770205567664064e+000
 4.298182160696302e-001	 3.951693472547667e+000	 8.757836472006812e+000
 3.934518109456329e-001	 3.955479828329227e+000	 8.743724942311648e+000
 3.571713906322799e-001	 3.958920761721430e+000	 8.727797250175394e+000
 7.278522096476668e-001	 3.933221473652993e+000	 8.894745444688594e+000
 6.907300926805886e-001	 3.939910143510855e+000	 8.869390369005840e+000
 6.536570566772164e-001	 3.946230157012450e+000	 8.844324174091970e+000
 6.166380525152096e-001	 3.952183891475303e+000	 8.824425211956116e+000
 5.796779560922215e-001	 3.957773801906784e+000	 8.818793568604896e+000
 5.427815671060725e-001	 3.963002418652466e+000	 8.810619268289207e+000
 5.059536079119449e-001	 3.967872345032923e+000	 8.800197609505998e+000
 4.691987224560952e-001	 3.972386254971538e+000	 8.787723358200585e+000
 4.325214752855099e-001	 3.976546890615961e+000	 8.773293925841193e+000
 3.959263506328407e-001	 3.980357059955667e+000	 8.756912651740850e+000
 3.594177515758589e-001	 3.983819634438112e+000	 8.738492178601078e+000
 3.369541421179410e-001	 3.734830907293413e+000	 8.718488979269267e+000
 3.028124993314788e-001	 3.737753949930092e+000	 8.679539836359817e+000
 2.687599990069305e-001	 3.740356675894433e+000	 8.643282758902274e+000
 2.348005367401518e-001	 3.742641942254912e+000	 8.610614627594933e+000
 2.009379295743538e-001	 3.744612656663184e+000	 8.582372319027876e+000
 1.671759155483958e-001	 3.746271775145075e+000	 8.559332284859613e+000
 1.335181533092915e-001	 3.747622299902811e+000	 8.542210271258414e+000
 9.996822178776361e-002	 3.748667277130346e+000	 8.531661174839094e+000
 6.652961993565144e-002	 3.749409794843583e+000	 8.528279031099409e+000
 3.320576652392401e-002	 3.749852980727242e+000	 8.532597131153160e+000
 0.000000000000000e+000	 3.750000000000000e+000	 8.545088262372016e+000
 3.392005030659454e-001	 3.759729780005672e+000	 8.486633794883083e+000
 3.048312493272241e-001	 3.762672309593844e+000	 8.481655120747544e+000
 2.705517323335631e-001	 3.765292387065135e+000	 8.480256469150664e+000
 2.363658736514568e-001	 3.767592888535141e+000	 8.482221359054393e+000
 2.022775157710701e-001	 3.769576741039862e+000	 8.487262036127374e+000
 1.682904216515211e-001	 3.771246920311963e+000	 8.495022675767014e+000
 1.344082743308025e-001	 3.772606448568355e+000	 8.505082617451855e+000
 1.006346765991747e-001	 3.773658392310948e+000	 8.516959622109905e+000
 6.697315073482200e-002	 3.774405860142423e+000	 8.530113144442002e+000
 3.342713830051906e-002	 3.774852000598727e+000	 8.543947612405104e+000
 0.000000000000000e+000	 3.775000000000000e+000	 8.557815706339204e+000
 3.414468640134582e-001	 3.784628652718419e+000	 8.532049897359190e+000
 3.068499993225725e-001	 3.787590669257995e+000	 8.523022791600106e+000
 2.723434656598832e-001	 3.790228098236149e+000	 8.517817859807090e+000
 2.379312105625233e-001	 3.792543834815608e+000	 8.516206281180637e+000
 2.036171019676119e-001	 3.794540825416714e+000	 8.517886688940546e+000
 1.694049277545255e-001	 3.796222065478974e+000	 8.522488440081304e+000
 1.352983953522364e-001	 3.797590597233975e+000	 8.529574916825832e+000
 1.013011314105427e-001	 3.798649507491593e+000	 8.538646851301509e+000
 6.741668153397343e-002	 3.799401925441281e+000	 8.549145665221220e+000
 3.364851007710933e-002	 3.799851020470218e+000	 8.560456816623912e+000
 0.000000000000000e+000	 3.800000000000000e+000	 8.571913146013253e+000
 3.436932249604792e-001	 3.809527525431660e+000	 8.573065590106596e+000
 3.088687493175238e-001	 3.812509028922540e+000	 8.560456021444079e+000
 2.741351989858907e-001	 3.815163809407477e+000	 8.551938819207587e+000
 2.394965474733513e-001	 3.817494781096314e+000	 8.547272232203925e+000
 2.049566881639790e-001	 3.819504909793741e+000	 8.546140666331022e+000
 1.705194338574090e-001	 3.821197210646104e+000	 8.548158022433205e+000
 1.361885163735933e-001	 3.822574745899673e+000	 8.552871066223593e+000
 1.019675862218674e-001	 3.823640622672282e+000	 8.559762821633504e+000
 6.786021233310573e-002	 3.824397990740158e+000	 8.568255979212506e+000
 3.386988185369484e-002	 3.824850040341713e+000	 8.577716311480755e+000
 0.000000000000000e+000	 3.824999999999999e+000	 8.587456087424620e+000
 3.459395859070087e-001	 3.834426398145392e+000	 8.609702086100993e+000
 3.108874993120783e-001	 3.837427388587484e+000	 8.593980663399176e+000
 2.759269323115856e-001	 3.840099520579116e+000	 8.582649983822074e+000
 2.410618843839407e-001	 3.842445727377258e+000	 8.575454771084694e+000
 2.062962743601715e-001	 3.844468994170943e+000	 8.572064584690427e+000
 1.716339399601717e-001	 3.846172355813355e+000	 8.572077227261135e+000
 1.370786373948731e-001	 3.847558894565447e+000	 8.575022184304121e+000
 1.026340410331490e-001	 3.848631737853014e+000	 8.580364087609187e+000
 6.830374313221890e-002	 3.849394056039055e+000	 8.587506193737612e+000
 3.409125363027557e-002	 3.849849060213211e+000	 8.595793869349100e+000
 0.000000000000000e+000	 3.850000000000000e+000	 8.604518075408238e+000
 3.481859468530463e-001	 3.859325270859617e+000	 8.641978520052479e+000
 3.129062493062357e-001	 3.862345748252824e+000	 8.623620498637061e+000
 2.777186656369678e-001	 3.865035231751069e+000	 8.609979927179220e+000
 2.426272212942916e-001	 3.867396673658439e+000	 8.600787405507829e+000
 2.076358605561894e-001	 3.869433078548318e+000	 8.595697023427805e+000
 1.727484460628136e-001	 3.871147500980726e+000	 8.594289838908626e+000
 1.379687584160758e-001	 3.872543043231299e+000	 8.596077389080648e+000
 1.033004958443873e-001	 3.873622853033789e+000	 8.600505225062481e+000
 6.874727393131293e-002	 3.874390121337970e+000	 8.606956461917411e+000
 3.431262540685155e-002	 3.874848080084716e+000	 8.614755335326503e+000
 0.000000000000000e+000	 3.875000000000000e+000	 8.623170756867769e+000
 3.504323077985923e-001	 3.884224143574332e+000	 8.669912015016692e+000
 3.149249992999961e-001	 3.887264107918561e+000	 8.649397302789865e+000
 2.795103989620376e-001	 3.889970942923332e+000	 8.633955225986414e+000
 2.441925582044041e-001	 3.892347619939861e+000	 8.623301657628716e+000
 2.089754467520326e-001	 3.894397162925869e+000	 8.617074590257495e+000
 1.738629521653346e-001	 3.896122646148220e+000	 8.614837686370999e+000
 1.388588794372014e-001	 3.897527191897228e+000	 8.616083862043945e+000
 1.039669506555825e-001	 3.898613968214609e+000	 8.620238894576803e+000
 6.919080473038783e-002	 3.899386186636904e+000	 8.626665045306593e+000
 3.453399718342276e-002	 3.899847099956226e+000	 8.634664689006133e+000
 0.000000000000000e+000	 3.900000000000000e+000	 8.643483941606789e+000
 3.526786687436464e-001	 3.909123016289539e+000	 8.693517746460149e+000
 3.169437492933597e-001	 3.912182467584696e+000	 8.671330909821000e+000
 2.813021322867946e-001	 3.914906654095911e+000	 8.654600523722770e+000
 2.457578951142780e-001	 3.917298566221521e+000	 8.643027127306626e+000
 2.103150329477012e-001	 3.919361247303594e+000	 8.636231983991962e+000
 1.749774582677347e-001	 3.921097791315833e+000	 8.633760705567541e+000
 1.397490004582500e-001	 3.922511340563233e+000	 8.635086909835037e+000
 1.046334054667344e-001	 3.923605083395470e+000	 8.639615902480349e+000
 6.963433552944359e-002	 3.924382251935859e+000	 8.646688374134564e+000
 3.475536895998920e-002	 3.924846119827740e+000	 8.655584103887899e+000
 0.000000000000000e+000	 3.924999999999999e+000	 8.665525660835177e+000
 3.549250296882090e-001	 3.934021889005239e+000	 8.712809003892923e+000
 3.189624992863263e-001	 3.937100827251227e+000	 8.689439273470232e+000
 2.830938656112391e-001	 3.939842365268800e+000	 8.671938591817257e+000
 2.473232320239134e-001	 3.942249512503419e+000	 8.659991552936898e+000
 2.116546191431952e-001	 3.944325331681494e+000	 8.653202054950112e+000
 1.760919643700140e-001	 3.946072936483568e+000	 8.651096999249040e+000
 1.406391214792215e-001	 3.947495489229316e+000	 8.653130023575841e+000
 1.052998602778431e-001	 3.948596198576375e+000	 8.658685259525008e+000
 7.007786632848025e-002	 3.949378317234833e+000	 8.667081105258783e+000
 3.497674073655088e-002	 3.949845139699259e+000	 8.677574004533184e+000
 0.000000000000000e+000	 3.949999999999999e+000	 8.689362223453701e+000
 3.571713906322799e-001	 3.958920761721430e+000	 8.727797250175394e+000
 3.209812492788959e-001	 3.962019186918155e+000	 8.703738526380315e+000
 2.848855989353711e-001	 3.964778076442002e+000	 8.685990388518235e+000
 2.488885689333103e-001	 3.967200458785556e+000	 8.674220869987506e+000
 2.129942053385145e-001	 3.969289416059570e+000	 8.668015863085975e+000
 1.772064704721725e-001	 3.971048081651423e+000	 8.666882894644536e+000
 1.415292425001159e-001	 3.972479637895476e+000	 8.670254935961005e+000
 1.059663150889087e-001	 3.973587313757323e+000	 8.677494237351061e+000
 7.052139712749775e-002	 3.974374382533824e+000	 8.687896177931233e+000
 3.519811251310778e-002	 3.974844159570782e+000	 8.700693121562940e+000
 0.000000000000000e+000	 3.974999999999999e+000	 8.715058270214671e+000
 3.594177515758589e-001	 3.983819634438112e+000	 8.738492178601078e+000
 3.229999992710687e-001	 3.986937546585482e+000	 8.714243037006233e+000
 2.866773322591905e-001	 3.989713787615519e+000	 8.696775115555271e+000
 2.504539058424687e-001	 3.992151405067931e+000	 8.685739267340606e+000
 2.143337915336593e-001	 3.994253500437819e+000	 8.680702733937659e+000
 1.783209765742101e-001	 3.996023226819399e+000	 8.681152998946422e+000
 1.424193635209333e-001	 3.997463786561714e+000	 8.686501676208739e+000
 1.066327698999310e-001	 3.998578428938315e+000	 8.696088422834396e+000
 7.096492792649614e-002	 3.999370447832837e+000	 8.709184867473530e+000
 3.541948428965995e-002	 3.999843179442312e+000	 8.724998544593333e+000
 0.000000000000000e+000	 4.000000000000000e+000	 8.742676825851570e+000
 4.000000000000000e+000	 0.000000000000000e+000	 1.051827522821073e+001
 3.999843179442312e+000	 3.541948428966008e-002	 1.053508760627767e+001
 3.999370447832837e+000	 7.096492792649639e-002	 1.054648247790544e+001
 3.998578428938315e+000	 1.066327698999308e-001	 1.055322267920408e+001
 3.997463786561714e+000	 1.424193635209332e-001	 1.055604951793445e+001
 3.996023226819399e+000	 1.783209765742101e-001	 1.055568234799304e+001
 3.994253500437819e+000	 2.143337915336594e-001	 1.055281821429400e+001
 3.992151405067931e+000	 2.504539058424689e-001	 1.054813157094511e+001
 3.989713787615519e+000	 2.866773322591902e-001	 1.054227407547997e+001
 3.986937546585482e+000	 3.229999992710685e-001	 1.053587446175649e+001
 3.983819634438112e+000	 3.594177515758590e-001	 1.052953849396714e+001
 4.025000000000000e+000	 0.000000000000000e+000	 1.050301823995746e+001
 4.024842199313842e+000	 3.564085606630336e-002	 1.052073672776121e+001
 4.024366513131858e+000	 7.140845872566287e-002	 1.053314751906413e+001
 4.023569544119328e+000	 1.072992247111839e-001	 1.054098421959751e+001
 4.022447935227990e+000	 1.433094845420294e-001	 1.054495767604090e+001
 4.020998371987436e+000	 1.794354826765600e-001	 1.054575556722962e+001
 4.019217584816155e+000	 2.156733777291350e-001	 1.054404206868278e+001
 4.017102351350426e+000	 2.520192427519619e-001	 1.054045759341136e+001
 4.014649498789190e+000	 2.884690655833327e-001	 1.053561861182440e+001
 4.011855906253005e+000	 3.250187492635375e-001	 1.053011755339558e+001
 4.008718507155041e+000	 3.616641125196922e-001	 1.052452279258002e+001
 4.050000000000000e+000	 0.000000000000000e+000	 1.048846363465779e+001
 4.049841219185373e+000	 3.586222784313369e-002	 1.050689807720443e+001
 4.049362578430878e+000	 7.185198952518471e-002	 1.052015218580857e+001
 4.048560659300342e+000	 1.079656795229416e-001	 1.052893022037895e+001
 4.047432083894265e+000	 1.441996055637604e-001	 1.053391242981965e+001
 4.045973517155471e+000	 1.805499887796554e-001	 1.053575465984036e+001
 4.044181669194492e+000	 2.170129639254472e-001	 1.053508803704578e+001
 4.042053297632920e+000	 2.535845796623626e-001	 1.053251873232684e+001
 4.039585209962861e+000	 2.902607989084342e-001	 1.052862780643007e+001
 4.036774265920530e+000	 3.270374992569963e-001	 1.052397114041904e+001
 4.033617379871969e+000	 3.639104734645255e-001	 1.051907945356416e+001
 4.074999999999999e+000	 0.000000000000000e+000	 1.047444170038267e+001
 4.074840239056903e+000	 3.608359962015106e-002	 1.049342053944828e+001
 4.074358643729899e+000	 7.229552032506183e-002	 1.050736402497775e+001
 4.073551774481353e+000	 1.086321343352040e-001	 1.051694694697946e+001
 4.072416232560542e+000	 1.450897265861261e-001	 1.052281881101696e+001
 4.070948662323509e+000	 1.816644948834962e-001	 1.052560346250530e+001
 4.069145753572830e+000	 2.183525501225959e-001	 1.052589879028090e+001
 4.067004243915415e+000	 2.551499165736712e-001	 1.052427651253125e+001
 4.064520921136532e+000	 2.920525322344943e-001	 1.052128204802046e+001
 4.061692625588053e+000	 3.290562492514447e-001	 1.051743447537788e+001
 4.058516252588897e+000	 3.661568344103587e-001	 1.051322658303276e+001
 4.100000000000000e+000	 0.000000000000000e+000	 1.046078686451806e+001
 4.099839258928435e+000	 3.630497139735547e-002	 1.048015691409458e+001
 4.099354709028920e+000	 7.273905112529436e-002	 1.049465427543938e+001
 4.098542889662367e+000	 1.092985891479710e-001	 1.050492413605265e+001
 4.097400381226816e+000	 1.459798476091267e-001	 1.051158510382580e+001
 4.095923807491546e+000	 1.827790009880826e-001	 1.051522884771115e+001
 4.094109837951166e+000	 2.196921363205812e-001	 1.051641982069403e+001
 4.091955190197909e+000	 2.567152534858873e-001	 1.051569506822088e+001
 4.089456632310204e+000	 2.938442655615133e-001	 1.051356412507853e+001
 4.086610985255576e+000	 3.310749992468828e-001	 1.051050900354669e+001
 4.083415125305826e+000	 3.684031953571920e-001	 1.050698427545500e+001
 4.125000000000000e+000	 0.000000000000000e+000	 1.044733756833119e+001
 4.124838278799966e+000	 3.652634317474693e-002	 1.046696379687679e+001
 4.124350774327941e+000	 7.318258192588219e-002	 1.048189775621031e+001
 4.123534004843379e+000	 1.099650439612427e-001	 1.049275489028608e+001
 4.122384529893092e+000	 1.468699686327621e-001	 1.050012274632713e+001
 4.120898952659583e+000	 1.838935070934145e-001	 1.050456063175723e+001
 4.119073922329502e+000	 2.210317225194031e-001	 1.050659935650178e+001
 4.116906136480403e+000	 2.582805903990113e-001	 1.050674106387738e+001
 4.114392343483875e+000	 2.956359988894912e-001	 1.050545915312681e+001
 4.111529344923100e+000	 3.330937492433104e-001	 1.050319829647741e+001
 4.108313998022755e+000	 3.706495563050253e-001	 1.050037455340268e+001
 4.150000000000000e+000	 0.000000000000000e+000	 1.043393614607056e+001
 4.149837298671496e+000	 3.674771495232542e-002	 1.045370146531887e+001
 4.149346839626961e+000	 7.362611272682534e-002	 1.046897275862058e+001
 4.148525120024392e+000	 1.106314987750191e-001	 1.048033557701484e+001
 4.147368678559367e+000	 1.477600896570322e-001	 1.048834623549306e+001
 4.145874097827618e+000	 1.850080131994918e-001	 1.049353148608637e+001
 4.144038006707839e+000	 2.223713087190614e-001	 1.049638827942455e+001
 4.141857082762897e+000	 2.598459273130429e-001	 1.049738361805416e+001
 4.139328054657547e+000	 2.974277322184279e-001	 1.049695450463589e+001
 4.136447704590624e+000	 3.351124992407279e-001	 1.049550798795490e+001
 4.133212870739683e+000	 3.728959172538585e-001	 1.049342130947500e+001
 4.175000000000000e+000	 0.000000000000000e+000	 1.042042870840958e+001
 4.174836318543028e+000	 3.696908673009096e-002	 1.044023376850195e+001
 4.174342904925982e+000	 7.406964352812387e-002	 1.045576094235209e+001
 4.173516235205405e+000	 1.112979535893001e-001	 1.046756573047748e+001
 4.172352827225644e+000	 1.486502106819371e-001	 1.047617303560343e+001
 4.170849242995654e+000	 1.861225193063147e-001	 1.048207685180171e+001
 4.169002091086175e+000	 2.237108949195564e-001	 1.048574004524029e+001
 4.166808029045392e+000	 2.614112642279824e-001	 1.048759422990132e+001
 4.164263765831218e+000	 2.992194655483236e-001	 1.048803974145100e+001
 4.161366064258147e+000	 3.371312492391351e-001	 1.048744571225339e+001
 4.158111743456611e+000	 3.751422782036917e-001	 1.048615025030961e+001
 4.199999999999999e+000	 0.000000000000000e+000	 1.040666503005298e+001
 4.199835338414558e+000	 3.719045850804355e-002	 1.042642802076793e+001
 4.199338970225004e+000	 7.451317432977773e-002	 1.044214723518997e+001
 4.198507350386417e+000	 1.119644084040858e-001	 1.045434795756302e+001
 4.197336975891918e+000	 1.495403317074768e-001	 1.046352348993297e+001
 4.195824388163693e+000	 1.872370254138830e-001	 1.047013485723612e+001
 4.193966175464511e+000	 2.250504811208879e-001	 1.047461060717567e+001
 4.191758975327885e+000	 2.629766011438295e-001	 1.047734670831447e+001
 4.189199477004890e+000	 3.010111988791780e-001	 1.047870654963221e+001
 4.186284423925671e+000	 3.391499992385318e-001	 1.047902104459813e+001
 4.183010616173539e+000	 3.773886391545250e-001	 1.047858884259346e+001
 4.224999999999999e+000	 0.000000000000000e+000	 1.039249844133357e+001
 4.224834358286089e+000	 3.741183028618317e-002	 1.041215489919714e+001
 4.224335035524025e+000	 7.495670513178691e-002	 1.042801973633316e+001
 4.223498465567432e+000	 1.126308632193762e-001	 1.044058784690409e+001
 4.222321124558195e+000	 1.504304527336513e-001	 1.045032073557404e+001
 4.220799533331729e+000	 1.883515315221968e-001	 1.045764623844850e+001
 4.218930259842849e+000	 2.263900673230559e-001	 1.046295834201708e+001
 4.216709921610381e+000	 2.645419380605845e-001	 1.046661710359920e+001
 4.214135188178561e+000	 3.028029322109914e-001	 1.046894867660771e+001
 4.211202783593194e+000	 3.411687492389183e-001	 1.047024544374082e+001
 4.207909488890469e+000	 3.796350001063583e-001	 1.047076626099028e+001
 4.250000000000000e+000	 0.000000000000000e+000	 1.037778572363489e+001
 4.249833378157620e+000	 3.763320206450985e-002	 1.039728834470415e+001
 4.249331100823047e+000	 7.540023593415146e-002	 1.041326962311750e+001
 4.248489580748444e+000	 1.132973180351712e-001	 1.042619388117857e+001
 4.247305273224471e+000	 1.513205737604606e-001	 1.043649062126548e+001
 4.245774678499766e+000	 1.894660376312561e-001	 1.044455426252602e+001
 4.243894344221186e+000	 2.277296535260605e-001	 1.045074397882939e+001
 4.241660867892875e+000	 2.661072749782472e-001	 1.045538364154706e+001
 4.239070899352234e+000	 3.045946655437636e-001	 1.045876187054541e+001
 4.236121143260720e+000	 3.431874992402945e-001	 1.046113219656174e+001
 4.232808361607396e+000	 3.818813610591916e-001	 1.046271333790596e+001
 3.983819634438112e+000	 3.594177515758590e-001	 1.052953849396714e+001
 3.980357059955668e+000	 3.959263506328409e-001	 1.054292473490513e+001
 3.976546890615960e+000	 4.325214752855101e-001	 1.055505416686332e+001
 3.972386254971537e+000	 4.691987224560948e-001	 1.056639691558391e+001
 3.967872345032922e+000	 5.059536079119448e-001	 1.057740165340872e+001
 3.963002418652467e+000	 5.427815671060725e-001	 1.058849606992518e+001
 3.957773801906783e+000	 5.796779560922217e-001	 1.060008743491769e+001
 3.952183891475304e+000	 6.166380525152101e-001	 1.061256325439246e+001
 3.946230157012450e+000	 6.536570566772162e-001	 1.061358231262619e+001
 3.939910143510855e+000	 6.907300926805884e-001	 1.061524300003859e+001
 3.933221473652993e+000	 7.278522096476667e-001	 1.062195433885097e+001
 4.008718507155041e+000	 3.616641125196922e-001	 1.052452279258002e+001
 4.005234291582396e+000	 3.984008903202551e-001	 1.053744556427606e+001
 4.001400308684580e+000	 4.352247345015535e-001	 1.054903460837135e+001
 3.997213669067587e+000	 4.721312144665802e-001	 1.055971665738796e+001
 3.992671547192009e+000	 5.091158179562314e-001	 1.056989587564382e+001
 3.987771183771772e+000	 5.461739518951022e-001	 1.057995437696417e+001
 3.982509888171469e+000	 5.833009433122727e-001	 1.059025283816512e+001
 3.976885040799777e+000	 6.204920403378413e-001	 1.060113120907555e+001
 3.970894095496459e+000	 6.577424132758768e-001	 1.060435611145171e+001
 3.964534581910347e+000	 6.950471557543668e-001	 1.061034977128829e+001
 3.957804107865683e+000	 7.324012859526673e-001	 1.062078842541117e+001
 4.033617379871969e+000	 3.639104734645255e-001	 1.051907945356416e+001
 4.030111523209127e+000	 4.008754300086695e-001	 1.053141267192309e+001
 4.026253726753200e+000	 4.379279937185969e-001	 1.054234832307164e+001
 4.022041083163638e+000	 4.750637064780655e-001	 1.055226943651092e+001
 4.017470749351095e+000	 5.122780280015181e-001	 1.056153533960216e+001
 4.012539948891079e+000	 5.495663366851321e-001	 1.057048222263432e+001
 4.007245974436156e+000	 5.869239305333237e-001	 1.057942380317301e+001
 4.001586190124251e+000	 6.243460281614731e-001	 1.058865209045590e+001
 3.995558033980466e+000	 6.618277698755375e-001	 1.059497125535451e+001
 3.989159020309840e+000	 6.993642188291455e-001	 1.060475458122026e+001
 3.982386742078373e+000	 7.369503622586678e-001	 1.061838366441530e+001
 4.058516252588897e+000	 3.661568344103587e-001	 1.051322658303276e+001
 4.054988754835856e+000	 4.033499696980837e-001	 1.052486490532370e+001
 4.051107144821818e+000	 4.406312529366403e-001	 1.053505491187782e+001
 4.046868497259687e+000	 4.779961984905507e-001	 1.054413560821746e+001
 4.042269951510182e+000	 5.154402380478047e-001	 1.055242114444275e+001
 4.037308714010385e+000	 5.529587214761617e-001	 1.056020142795376e+001
 4.031982060700842e+000	 5.905469177553746e-001	 1.056774283900570e+001
 4.026287339448724e+000	 6.282000159861044e-001	 1.057536781140881e+001
 4.020221972464475e+000	 6.659131264761979e-001	 1.058542537424499e+001
 4.013783458709330e+000	 7.036812819049237e-001	 1.059846453224042e+001
 4.006969376291065e+000	 7.414994385656684e-001	 1.061475651990536e+001
 4.083415125305826e+000	 3.684031953571920e-001	 1.050698427545500e+001
 4.079865986462586e+000	 4.058245093884980e-001	 1.051784285217119e+001
 4.075960562890438e+000	 4.433345121556837e-001	 1.052721546960480e+001
 4.071695911355738e+000	 4.809286905040360e-001	 1.053539677730072e+001
 4.067069153669269e+000	 5.186024480950915e-001	 1.054265539653903e+001
 4.062077479129690e+000	 5.563511062681913e-001	 1.054923458101693e+001
 4.056718146965530e+000	 5.941699049784259e-001	 1.055535298395952e+001
 4.050988488773198e+000	 6.320540038117360e-001	 1.056236547502054e+001
 4.044885910948482e+000	 6.699984830778581e-001	 1.057571615893206e+001
 4.038407897108822e+000	 7.079983449817023e-001	 1.059148655740169e+001
 4.031552010503756e+000	 7.460485148736690e-001	 1.060992305908740e+001
 4.108313998022755e+000	 3.706495563050253e-001	 1.050037455340268e+001
 4.104743218089316e+000	 4.082990490799123e-001	 1.051038878764071e+001
 4.100813980959058e+000	 4.460377713757270e-001	 1.051889253969892e+001
 4.096523325451788e+000	 4.838611825185213e-001	 1.052613576021784e+001
 4.091868355828354e+000	 5.217646581433781e-001	 1.053234117895710e+001
 4.086846244248997e+000	 5.597434910612210e-001	 1.053770501374981e+001
 4.081454233230216e+000	 5.977928922024768e-001	 1.054239778952553e+001
 4.075689638097673e+000	 6.359079916383678e-001	 1.054971896073928e+001
 4.069549849432490e+000	 6.740838396805191e-001	 1.056584135927784e+001
 4.063032335508314e+000	 7.123154080594807e-001	 1.058382742553591e+001
 4.056134644716447e+000	 7.505975911826697e-001	 1.060389896435698e+001
 4.133212870739683e+000	 3.728959172538585e-001	 1.049342130947500e+001
 4.129620449716046e+000	 4.107735887723266e-001	 1.050254662356163e+001
 4.125667399027677e+000	 4.487410305967704e-001	 1.051015007060454e+001
 4.121350739547837e+000	 4.867936745340066e-001	 1.051643654859410e+001
 4.116667557987442e+000	 5.249268681926648e-001	 1.052158252203744e+001
 4.111615009368302e+000	 5.631358758552508e-001	 1.052573677950532e+001
 4.106190319494902e+000	 6.014158794275279e-001	 1.052902130493178e+001
 4.100390787422146e+000	 6.397619794659991e-001	 1.053741717502284e+001
 4.094213787916497e+000	 6.781691962841794e-001	 1.055579878241887e+001
 4.087656773907807e+000	 7.166324711382593e-001	 1.057549374620024e+001
 4.080717278929137e+000	 7.551466674926702e-001	 1.059669954488972e+001
 4.158111743456611e+000	 3.751422782036917e-001	 1.048615025030961e+001
 4.154497681342774e+000	 4.132481284657408e-001	 1.049436185941584e+001
 4.150520817096297e+000	 4.514442898188139e-001	 1.050105337369827e+001
 4.146178153643887e+000	 4.897261665504918e-001	 1.050638427403817e+001
 4.141466760146528e+000	 5.280890782429515e-001	 1.051048437503323e+001
 4.136383774487609e+000	 5.665282606502805e-001	 1.051345463146374e+001
 4.130926405759589e+000	 6.050388666535790e-001	 1.051536806224102e+001
 4.125091936746621e+000	 6.436159672946306e-001	 1.052544929237175e+001
 4.118877726400505e+000	 6.822545528888399e-001	 1.054558629105143e+001
 4.112281212307298e+000	 7.209495342180373e-001	 1.056649197444588e+001
 4.105299913141828e+000	 7.596957438036709e-001	 1.058833974781562e+001
 4.183010616173539e+000	 3.773886391545250e-001	 1.047858884259346e+001
 4.179374912969506e+000	 4.157226681601551e-001	 1.048588153508624e+001
 4.175374235164916e+000	 4.541475490418572e-001	 1.049166908272541e+001
 4.171005567739937e+000	 4.926586585679771e-001	 1.049606517421411e+001
 4.166265962305615e+000	 5.312512882942381e-001	 1.049915257876189e+001
 4.161152539606915e+000	 5.699206454463102e-001	 1.050098400180453e+001
 4.155662492024274e+000	 6.086618538806299e-001	 1.050158306198063e+001
 4.149793086071094e+000	 6.474699551242622e-001	 1.051380474735167e+001
 4.143541664884514e+000	 6.863399094945004e-001	 1.053520180177785e+001
 4.136905650706790e+000	 7.252665972988159e-001	 1.055682841541646e+001
 4.129882547354518e+000	 7.642448201156715e-001	 1.057883416899421e+001
 4.207909488890469e+000	 3.796350001063583e-001	 1.047076626099028e+001
 4.204252144596236e+000	 4.181972078555695e-001	 1.047715418528268e+001
 4.200227653233535e+000	 4.568508082659006e-001	 1.048206511467671e+001
 4.195832981835988e+000	 4.955911505864624e-001	 1.048556656011778e+001
 4.191065164464702e+000	 5.344134983465247e-001	 1.048769383922739e+001
 4.185921304726221e+000	 5.733130302433399e-001	 1.048845098161758e+001
 4.180398578288962e+000	 6.122848411086811e-001	 1.048781175928280e+001
 4.174494235395567e+000	 6.513239429548936e-001	 1.050247322689932e+001
 4.168205603368522e+000	 6.904252661011610e-001	 1.052464328351171e+001
 4.161530089106282e+000	 7.295836603805944e-001	 1.054650922878317e+001
 4.154465181567210e+000	 7.687938964286721e-001	 1.056819706340716e+001
 4.232808361607396e+000	 3.818813610591916e-001	 1.046271333790596e+001
 4.229129376222968e+000	 4.206717475519838e-001	 1.046822979557658e+001
 4.225081071302157e+000	 4.595540674909441e-001	 1.047231063204586e+001
 4.220660395932038e+000	 4.985236426059477e-001	 1.047497678450830e+001
 4.215864366623790e+000	 5.375757083998116e-001	 1.047621570217357e+001
 4.210690069845527e+000	 5.767054150413699e-001	 1.047598230152350e+001
 4.205134664553649e+000	 6.159078283377322e-001	 1.047420005051363e+001
 4.199195384720043e+000	 6.551779307865254e-001	 1.049144466289969e+001
 4.192869541852530e+000	 6.945106227088215e-001	 1.051390875593927e+001
 4.186154527505775e+000	 7.339007234633730e-001	 1.053554043302335e+001
 4.179047815779902e+000	 7.733429727426728e-001	 1.055644235518410e+001
 3.933221473652993e+000	 7.278522096476667e-001	 1.062195433885097e+001
 3.926161850148238e+000	 7.650183830181283e-001	 1.063171742737078e+001
 3.918729058053593e+000	 8.022235159239719e-001	 1.064037039863679e+001
 3.910920967074733e+000	 8.394624406421654e-001	 1.064799959858887e+001
 3.902735533843881e+000	 8.767299201255313e-001	 1.065469197081000e+001
 3.894170804172645e+000	 9.140206496115850e-001	 1.066053497618664e+001
 3.885224915276652e+000	 9.513292583092481e-001	 1.066561651134079e+001
 3.875896097969084e+000	 9.886503111632025e-001	 1.067002482595374e+001
 3.866182678820226e+000	 1.025978310695547e+000	 1.067384843910537e+001
 3.856083082280073e+000	 1.063307698924287e+000	 1.067717605475618e+001
 3.845595832761096e+000	 1.100632859358089e+000	 1.068009647650239e+001
 3.957804107865683e+000	 7.324012859526673e-001	 1.062078842541117e+001
 3.950700361713788e+000	 7.697997479069519e-001	 1.062957469345640e+001
 3.943221114668281e+000	 8.072374128937929e-001	 1.063737292283597e+001
 3.935364223120499e+000	 8.447090808918899e-001	 1.064427608749194e+001
 3.927127630931612e+000	 8.822094821225209e-001	 1.065037773410018e+001
 3.918509371699555e+000	 9.197332786684371e-001	 1.065577189475267e+001
 3.909507570997550e+000	 9.572750661711155e-001	 1.066055299832292e+001
 3.900120448581363e+000	 9.948293756061437e-001	 1.066481578064434e+001
 3.890346320562340e+000	 1.032390675136383e+000	 1.066865519363473e+001
 3.880183601543291e+000	 1.069953372042453e+000	 1.067216631350424e+001
 3.869630806714263e+000	 1.107511814729950e+000	 1.067544424818755e+001
 3.982386742078373e+000	 7.369503622586678e-001	 1.061838366441530e+001
 3.975238873279343e+000	 7.745811127967659e-001	 1.062626372346715e+001
 3.967713171282988e+000	 8.122513098645752e-001	 1.063327687146170e+001
 3.959807479166307e+000	 8.499557211425273e-001	 1.063952266867176e+001
 3.951519728019422e+000	 8.876890441203553e-001	 1.064510122298151e+001
 3.942847939226587e+000	 9.254459077260456e-001	 1.065011309562222e+001
 3.933790226718623e+000	 9.632208740336313e-001	 1.065465920550429e+001
 3.924344799193880e+000	 1.001008440049605e+000	 1.065884073228392e+001
 3.914509962304769e+000	 1.038803039577591e+000	 1.066275901830785e+001
 3.904284120806908e+000	 1.076599045160823e+000	 1.066651546958340e+001
 3.893665780667924e+000	 1.114390770101823e+000	 1.067021145592475e+001
 4.006969376291065e+000	 7.414994385656684e-001	 1.061475651990536e+001
 3.999777384844903e+000	 7.793624776875702e-001	 1.062179916963287e+001
 3.992205227897715e+000	 8.172652068363189e-001	 1.062809511010691e+001
 3.984250735212159e+000	 8.552023613940772e-001	 1.063375044719976e+001
 3.975911825107308e+000	 8.931686061190344e-001	 1.063887180905510e+001
 3.967186506753740e+000	 9.311585367844105e-001	 1.064356624490827e+001
 3.958072882439873e+000	 9.691666818967953e-001	 1.064794112241673e+001
 3.948569149806640e+000	 1.007187504493586e+000	 1.065210402364828e+001
 3.938673604047511e+000	 1.045215404019170e+000	 1.065616263988028e+001
 3.928384640070924e+000	 1.083244718279393e+000	 1.066022466536678e+001
 3.917700754622081e+000	 1.121269725473710e+000	 1.066439769023528e+001
 4.031552010503756e+000	 7.460485148736690e-001	 1.060992305908740e+001
 4.024315896410468e+000	 7.841438425793651e-001	 1.061619533245214e+001
 4.016697284512461e+000	 8.222791038090240e-001	 1.062184019718795e+001
 4.008693991258054e+000	 8.604490016465400e-001	 1.062697026495201e+001
 4.000303922195272e+000	 8.986481681185579e-001	 1.063169864411118e+001
 3.991525074281016e+000	 9.368711658435318e-001	 1.063613883167709e+001
 3.982355538161299e+000	 9.751124897606078e-001	 1.064040460366605e+001
 3.972793500419638e+000	 1.013366568938087e+000	 1.064460990404128e+001
 3.962837245790567e+000	 1.051627768461120e+000	 1.064886873239978e+001
 3.952485159335338e+000	 1.089890391398166e+000	 1.065329503057108e+001
 3.941735728576730e+000	 1.128148680845609e+000	 1.065800256829963e+001
 4.056134644716447e+000	 7.505975911826697e-001	 1.060389896435698e+001
 4.048854407976037e+000	 7.889252074721501e-001	 1.060946617135084e+001
 4.041189341127226e+000	 8.272930007826903e-001	 1.061452439325303e+001
 4.033137247303994e+000	 8.656956418999159e-001	 1.061919270858493e+001
 4.024696019283315e+000	 9.041277301189258e-001	 1.062359066679009e+001
 4.015863641808413e+000	 9.425837949034094e-001	 1.062783817331335e+001
 4.006638193882901e+000	 9.810582976250684e-001	 1.063205537302079e+001
 3.997017851032876e+000	 1.019545633383107e+000	 1.063636253212726e+001
 3.987000887533940e+000	 1.058040132903442e+000	 1.064087991880352e+001
 3.976585678600152e+000	 1.096536064517142e+000	 1.064572768264003e+001
 3.965770702531872e+000	 1.135027636217520e+000	 1.065102573314965e+001
 4.080717278929137e+000	 7.551466674926702e-001	 1.059669954488972e+001
 4.073392919541611e+000	 7.937065723659253e-001	 1.060162531495547e+001
 4.065681397742011e+000	 8.323068977573183e-001	 1.060615966995414e+001
 4.057580503349977e+000	 8.709422821542041e-001	 1.061042811722257e+001
 4.049088116371435e+000	 9.096072921201380e-001	 1.061455660900230e+001
 4.040202209335932e+000	 9.482964239640432e-001	 1.061867142069121e+001
 4.030920849604678e+000	 9.870041054901769e-001	 1.062289902735307e+001
 4.021242201646355e+000	 1.025724697828648e+000	 1.062736597866122e+001
 4.011164529277626e+000	 1.064452497346135e+000	 1.063219877245753e+001
 4.000686197865364e+000	 1.103181737636319e+000	 1.063752372711413e+001
 3.989805676487509e+000	 1.141906591589444e+000	 1.064346685288989e+001
 4.105299913141828e+000	 7.596957438036709e-001	 1.058833974781562e+001
 4.097931431107191e+000	 7.984879372606913e-001	 1.059268607099722e+001
 4.090173454356815e+000	 8.373207947329071e-001	 1.059675771869659e+001
 4.082023759396002e+000	 8.761889224094052e-001	 1.060068658986782e+001
 4.073480213459632e+000	 9.150868541221949e-001	 1.060460500211812e+001
 4.064540776863573e+000	 9.540090530254336e-001	 1.060864556315968e+001
 4.055203505326632e+000	 9.929499133559337e-001	 1.061294104043788e+001
 4.045466552260073e+000	 1.031903762274709e+000	 1.061762422912076e+001
 4.035328171021626e+000	 1.070864861789199e+000	 1.062282781864091e+001
 4.024786717130976e+000	 1.109827410755699e+000	 1.062868425798695e+001
 4.013840650443639e+000	 1.148785546961380e+000	 1.063532561994693e+001
 4.129882547354518e+000	 7.642448201156715e-001	 1.057883416899421e+001
 4.122469942672774e+000	 8.032693021564474e-001	 1.058266143586254e+001
 4.114665510971639e+000	 8.423346917094579e-001	 1.058632995897974e+001
 4.106467015442071e+000	 8.814355626655193e-001	 1.058997799254881e+001
 4.097872310547907e+000	 9.205664161250964e-001	 1.059374418293598e+001
 4.088879344391335e+000	 9.597216820875801e-001	 1.059776743334994e+001
 4.079486161048761e+000	 9.988957212223389e-001	 1.060218676661673e+001
 4.069690902874030e+000	 1.038082826721289e+000	 1.060714118624418e+001
 4.059491812765941e+000	 1.077277226232634e+000	 1.061276953597696e+001
 4.048887236396987e+000	 1.116473083875281e+000	 1.061921035804889e+001
 4.037875624400262e+000	 1.155664502333329e+000	 1.062660175034549e+001
 4.154465181567210e+000	 7.687938964286721e-001	 1.056819706340716e+001
 4.147008454238363e+000	 8.080506670531940e-001	 1.057156410380443e+001
 4.139157567586481e+000	 8.473485886869693e-001	 1.057488754644153e+001
 4.130910271488186e+000	 8.866822029225459e-001	 1.057831196521170e+001
 4.122264407636262e+000	 9.260459781288420e-001	 1.058198229943911e+001
 4.113217911919220e+000	 9.654343111504832e-001	 1.058604371181193e+001
 4.103768816771067e+000	 1.004841529089392e+000	 1.059064144433109e+001
 4.093915253488230e+000	 1.044261891168389e+000	 1.059592067247830e+001
 4.083655454510570e+000	 1.083689590676441e+000	 1.060202635781349e+001
 4.072987755663395e+000	 1.123118756995065e+000	 1.060910309921855e+001
 4.061910598357380e+000	 1.162543457705291e+000	 1.061729498301031e+001
 4.179047815779902e+000	 7.733429727426728e-001	 1.055644235518410e+001
 4.171546965803959e+000	 8.128320319509310e-001	 1.055940647582875e+001
 4.163649624201344e+000	 8.523624856654427e-001	 1.056244138061912e+001
 4.155353527534343e+000	 8.919288431804857e-001	 1.056569792837011e+001
 4.146656504724693e+000	 9.315255401334327e-001	 1.056932731634890e+001
 4.137556479447227e+000	 9.711469402141428e-001	 1.057348093148734e+001
 4.128051472493549e+000	 1.010787336957094e+000	 1.057831019953133e+001
 4.118139604102669e+000	 1.050440955616010e+000	 1.058396643234005e+001
 4.107819096255514e+000	 1.090101955120619e+000	 1.059060067355453e+001
 4.097088274930205e+000	 1.129764430115052e+000	 1.059836354286253e+001
 4.085945572314992e+000	 1.169422413077266e+000	 1.060740507909253e+001
 3.845595832761096e+000	 1.100632859358089e+000	 1.068009647650239e+001
 3.834719556678107e+000	 1.137948119066728e+000	 1.071120398342649e+001
 3.823452984442649e+000	 1.175247750825766e+000	 1.074258229148231e+001
 3.811794952408592e+000	 1.212525975335376e+000	 1.077429206893148e+001
 3.799744404765942e+000	 1.249776963512203e+000	 1.080639289638134e+001
 3.787300395380251e+000	 1.286994838852475e+000	 1.080639216030904e+001
 3.774462089574614e+000	 1.324173679865361e+000	 1.080838459990981e+001
 3.761228765851377e+000	 1.361307522575099e+000	 1.081282400345813e+001
 3.747599817550746e+000	 1.398390363090333e+000	 1.082023849982135e+001
 3.733574754443465e+000	 1.435416160238980e+000	 1.083091728079123e+001
 3.719153204254849e+000	 1.472378838266780e+000	 1.084315032841433e+001
 3.869630806714263e+000	 1.107511814729950e+000	 1.067544424818755e+001
 3.858686553905200e+000	 1.145060294812716e+000	 1.070646786400043e+001
 3.847349565592751e+000	 1.182593049271040e+000	 1.073773763566936e+001
 3.835618670858001e+000	 1.220104262684471e+000	 1.076932516249332e+001
 3.823492807292140e+000	 1.257588069537881e+000	 1.079442032154043e+001
 3.810971022847386e+000	 1.295038556599349e+000	 1.079374462964862e+001
 3.798052477630097e+000	 1.332449765368725e+000	 1.079517872939081e+001
 3.784736445633263e+000	 1.369815694595396e+000	 1.079898824890907e+001
 3.771022316405465e+000	 1.407130302863685e+000	 1.080545100244618e+001
 3.756909596653517e+000	 1.444387511244183e+000	 1.081485701783794e+001
 3.742397911776015e+000	 1.481581206009164e+000	 1.082764236830656e+001
 3.893665780667924e+000	 1.114390770101823e+000	 1.067021145592475e+001
 3.882653551132883e+000	 1.152172470558531e+000	 1.070134685236677e+001
 3.871246146743528e+000	 1.189938347715985e+000	 1.073270533457948e+001
 3.859442389308159e+000	 1.227682550033110e+000	 1.076436935136846e+001
 3.847241209819154e+000	 1.265399175563005e+000	 1.078238558784397e+001
 3.834641650315390e+000	 1.303082274345601e+000	 1.078147055359183e+001
 3.821642865686497e+000	 1.340725850871429e+000	 1.078257877331293e+001
 3.808244125416103e+000	 1.378323866615026e+000	 1.078598843252711e+001
 3.794444815261164e+000	 1.415870242636394e+000	 1.079199036276666e+001
 3.780244438864563e+000	 1.453358862248796e+000	 1.080088806519358e+001
 3.765642619298180e+000	 1.490783573751044e+000	 1.081299770616207e+001
 3.917700754622081e+000	 1.121269725473710e+000	 1.066439769023528e+001
 3.906620548361152e+000	 1.159284646304173e+000	 1.069583650900236e+001
 3.895142727894979e+000	 1.197283646160600e+000	 1.072747689866380e+001
 3.883266107759067e+000	 1.235260837381292e+000	 1.075941207758348e+001
 3.870989612346986e+000	 1.273210281587576e+000	 1.077051316358731e+001
 3.858312277784268e+000	 1.311125992091232e+000	 1.076959011847264e+001
 3.845233253743815e+000	 1.349001936373474e+000	 1.077060141668045e+001
 3.831751805199895e+000	 1.386832038633990e+000	 1.077383768624454e+001
 3.817867314117842e+000	 1.424610182408460e+000	 1.077960266459794e+001
 3.803579281076603e+000	 1.462330213252820e+000	 1.078821321849537e+001
 3.788887326821345e+000	 1.499985941492418e+000	 1.079999933499841e+001
 3.941735728576730e+000	 1.128148680845609e+000	 1.065800256829963e+001
 3.930587545590011e+000	 1.166396822049642e+000	 1.068993252085927e+001
 3.919039309047104e+000	 1.204628944604886e+000	 1.072204406520738e+001
 3.907089826210726e+000	 1.242839124729018e+000	 1.075444111086048e+001
 3.894738014875633e+000	 1.281021387611592e+000	 1.075882711249778e+001
 3.881982905254017e+000	 1.319169709836242e+000	 1.075812404138858e+001
 3.868823641802051e+000	 1.357278021874860e+000	 1.075926397738420e+001
 3.855259484984642e+000	 1.395340210652287e+000	 1.076254987733917e+001
 3.841289812975500e+000	 1.433350122179882e+000	 1.076829827443198e+001
 3.826914123289639e+000	 1.471301564256254e+000	 1.077683929457358e+001
 3.812132034345510e+000	 1.509188309233287e+000	 1.078851664299089e+001
 3.965770702531872e+000	 1.135027636217520e+000	 1.065102573314965e+001
 3.954554542819460e+000	 1.173508997794938e+000	 1.068363069753221e+001
 3.942935890199904e+000	 1.211974243048843e+000	 1.071639879145548e+001
 3.930913544663134e+000	 1.250417412076288e+000	 1.074905829862417e+001
 3.918486417405095e+000	 1.288832493635055e+000	 1.074735191432127e+001
 3.905653532724638e+000	 1.327213427580630e+000	 1.074709355411699e+001
 3.892414029861204e+000	 1.365554107375587e+000	 1.074858438702324e+001
 3.878767164770343e+000	 1.403848382669918e+000	 1.075213958615104e+001
 3.864712311834136e+000	 1.442090061950661e+000	 1.075808837146061e+001
 3.850248965503670e+000	 1.480272915259099e+000	 1.076677402283667e+001
 3.835376741870674e+000	 1.518390676973651e+000	 1.077855386244603e+001
 3.989805676487509e+000	 1.141906591589444e+000	 1.064346685288989e+001
 3.978521540049498e+000	 1.180621173540061e+000	 1.067692696756445e+001
 3.966832471353379e+000	 1.219319541492470e+000	 1.071053324798827e+001
 3.954737263116293e+000	 1.257995699423101e+000	 1.073704456912660e+001
 3.942234819935373e+000	 1.296643599657964e+000	 1.073611245229160e+001
 3.929324160196132e+000	 1.335257145324397e+000	 1.073652038761262e+001
 3.916004417921276e+000	 1.373830192875655e+000	 1.073858117241966e+001
 3.902274844556996e+000	 1.412356554686883e+000	 1.074262208460465e+001
 3.888134810693753e+000	 1.450830001720796e+000	 1.074898492309657e+001
 3.873583807718696e+000	 1.489244266261354e+000	 1.075802601778400e+001
 3.858621449396840e+000	 1.527593044713509e+000	 1.077011620782282e+001
 4.013840650443639e+000	 1.148785546961380e+000	 1.063532561994693e+001
 4.002488537280124e+000	 1.187733349285011e+000	 1.066981737488655e+001
 3.990729052507526e+000	 1.226664839935768e+000	 1.070443981233350e+001
 3.978560981570202e+000	 1.265573986769458e+000	 1.072507085807684e+001
 3.965983222466468e+000	 1.304454705680320e+000	 1.072513400104999e+001
 3.952994787668497e+000	 1.343300863067542e+000	 1.072642675706222e+001
 3.939594805982265e+000	 1.382106278375064e+000	 1.072927343779749e+001
 3.925782524344604e+000	 1.420864726703181e+000	 1.073401331550289e+001
 3.911557309554348e+000	 1.459569941490288e+000	 1.074100066137406e+001
 3.896918649934715e+000	 1.498215617263019e+000	 1.075060475250610e+001
 3.881866156924004e+000	 1.536795412452863e+000	 1.076320984632689e+001
 4.037875624400262e+000	 1.155664502333329e+000	 1.062660175034549e+001
 4.026455534511339e+000	 1.194845525029789e+000	 1.066229807538214e+001
 4.014625633662350e+000	 1.234010138378737e+000	 1.069811106280741e+001
 4.002384700024860e+000	 1.273152274115358e+000	 1.071316573714269e+001
 3.989731624998377e+000	 1.312265811702121e+000	 1.071444221499605e+001
 3.976665415141733e+000	 1.351344580810065e+000	 1.071683534747285e+001
 3.963185194044173e+000	 1.390382363873814e+000	 1.072068084759819e+001
 3.949290204133165e+000	 1.429372898718813e+000	 1.072632987256035e+001
 3.934979808415923e+000	 1.468309881259137e+000	 1.073414906019223e+001
 3.920253492151731e+000	 1.507186968264094e+000	 1.074452053313136e+001
 3.905110864452169e+000	 1.545997780191711e+000	 1.075784186955499e+001
 4.061910598357380e+000	 1.162543457705291e+000	 1.061729498301031e+001
 4.050422531743143e+000	 1.201957700774393e+000	 1.065436533357575e+001
 4.038522214817848e+000	 1.241355436821377e+000	 1.069153977257419e+001
 4.026208418480270e+000	 1.280730561460802e+000	 1.070135805947892e+001
 4.013480027531105e+000	 1.320076917723369e+000	 1.070406311705233e+001
 4.000336042615841e+000	 1.359388298551968e+000	 1.070776929977186e+001
 3.986775582106998e+000	 1.398658449371905e+000	 1.071282360990608e+001
 3.972797883922680e+000	 1.437881070733778e+000	 1.071958898114563e+001
 3.958402307278478e+000	 1.477049821027342e+000	 1.072844431336641e+001
 3.943588334369740e+000	 1.516158319264580e+000	 1.073978447417998e+001
 3.928355571981333e+000	 1.555200147930054e+000	 1.075402026614614e+001
 4.085945572314992e+000	 1.169422413077266e+000	 1.060740507909253e+001
 4.074389528975536e+000	 1.209069876518825e+000	 1.064601551943746e+001
 4.062418795974019e+000	 1.248700735263687e+000	 1.068471890391520e+001
 4.050032136936430e+000	 1.288308848805790e+000	 1.068967695144819e+001
 4.037228430064649e+000	 1.327888023744063e+000	 1.069402308782541e+001
 4.024006670090824e+000	 1.367432016293249e+000	 1.069925219739749e+001
 4.010365970170742e+000	 1.406934534869337e+000	 1.070572246045894e+001
 3.996305563713150e+000	 1.446389242748077e+000	 1.071380847970328e+001
 3.981824806142011e+000	 1.485789760794904e+000	 1.072390131345419e+001
 3.966923176588746e+000	 1.525129670264476e+000	 1.073640847478769e+001
 3.951600279511499e+000	 1.564402515667893e+000	 1.075175389539797e+001
 3.719153204254849e+000	 1.472378838266780e+000	 1.084315032841433e+001
 3.704334914117635e+000	 1.509272289597060e+000	 1.084464058540929e+001
 3.689119751950341e+000	 1.546090377651535e+000	 1.084638977079058e+001
 3.673507707759193e+000	 1.582826939728250e+000	 1.084860217073587e+001
 3.657498894861322e+000	 1.619475789933607e+000	 1.085149612945329e+001
 3.641093551026176e+000	 1.656030722167824e+000	 1.085530412673698e+001
 3.624292039533033e+000	 1.692485513160644e+000	 1.086027282214998e+001
 3.607094850142330e+000	 1.728833925554609e+000	 1.086666306477862e+001
 3.589502599978649e+000	 1.765069711033148e+000	 1.087474986758158e+001
 3.571516034323234e+000	 1.801186613490626e+000	 1.088482234544014e+001
 3.553136027314097e+000	 1.837178372241353e+000	 1.089718361610608e+001
 3.742397911776015e+000	 1.481581206009164e+000	 1.082764236830656e+001
 3.727487007325320e+000	 1.518705241409741e+000	 1.082963506851155e+001
 3.712176750394489e+000	 1.555753442514154e+000	 1.083207419078876e+001
 3.696467130927288e+000	 1.592719608103564e+000	 1.083517212315004e+001
 3.680358262949079e+000	 1.629597513622535e+000	 1.083915552146577e+001
 3.663850385715369e+000	 1.666380914183165e+000	 1.084426538378621e+001
 3.646943864775933e+000	 1.703063547619757e+000	 1.085075709065588e+001
 3.629639192952212e+000	 1.739639137591369e+000	 1.085890041035252e+001
 3.611936991225818e+000	 1.776101396729453e+000	 1.086897946806284e+001
 3.593838009536003e+000	 1.812444029827717e+000	 1.088129267809218e+001
 3.575343127484140e+000	 1.848660737071182e+000	 1.089615263829711e+001
 3.765642619298180e+000	 1.490783573751044e+000	 1.081299770616207e+001
 3.750639100533996e+000	 1.528138193222007e+000	 1.081487729857357e+001
 3.735233748839598e+000	 1.565416507376430e+000	 1.081814385791681e+001
 3.719426554096293e+000	 1.602612276478584e+000	 1.082224807312711e+001
 3.703217631037676e+000	 1.639719237311201e+000	 1.082743503187142e+001
 3.686607220405314e+000	 1.676731106198254e+000	 1.083395417957225e+001
 3.669595690019477e+000	 1.713641582078609e+000	 1.084206955462548e+001
 3.652183535762613e+000	 1.750444349627840e+000	 1.085205978929444e+001
 3.634371382473355e+000	 1.787133082425423e+000	 1.086421807387081e+001
 3.616159984748968e+000	 1.823701446164401e+000	 1.087885208318987e+001
 3.597550227654190e+000	 1.860143101900514e+000	 1.089628386468072e+001
 3.788887326821345e+000	 1.499985941492418e+000	 1.079999933499841e+001
 3.773791193743661e+000	 1.537571145033858e+000	 1.080071564877235e+001
 3.758290747285668e+000	 1.575079572238361e+000	 1.080418742570720e+001
 3.742385977266211e+000	 1.612504944853311e+000	 1.080984681488850e+001
 3.726076999127117e+000	 1.649840960999605e+000	 1.081635038042204e+001
 3.709364055096013e+000	 1.687081298213093e+000	 1.082438515949518e+001
 3.692247515263667e+000	 1.724219616537203e+000	 1.083422378586145e+001
 3.674727878573526e+000	 1.761249561664025e+000	 1.084615370123163e+001
 3.656805773721258e+000	 1.798164768121055e+000	 1.086047711457838e+001
 3.638481959962131e+000	 1.834958862500678e+000	 1.087751092310285e+001
 3.619757327824249e+000	 1.871625466729350e+000	 1.089758659403557e+001
 3.812132034345510e+000	 1.509188309233287e+000	 1.078851664299089e+001
 3.796943286954317e+000	 1.547004096845295e+000	 1.078815915951430e+001
 3.781347745732699e+000	 1.584742637099948e+000	 1.079074706237795e+001
 3.765345400437040e+000	 1.622397613227745e+000	 1.079660819132102e+001
 3.748936367217401e+000	 1.659962684687746e+000	 1.080591850951779e+001
 3.732120889787467e+000	 1.697431490227682e+000	 1.081557423311059e+001
 3.714899340508502e+000	 1.734797650995538e+000	 1.082723466054431e+001
 3.697272221384958e+000	 1.772054773699921e+000	 1.084119598908143e+001
 3.679240164969529e+000	 1.809196453816351e+000	 1.085776940062574e+001
 3.660803935175493e+000	 1.846216278836551e+000	 1.087728097728621e+001
 3.641964427994314e+000	 1.883107831557690e+000	 1.088751638523619e+001
 3.835376741870674e+000	 1.518390676973651e+000	 1.077855386244603e+001
 3.820095380165963e+000	 1.556437048656317e+000	 1.077721074403055e+001
 3.804404744180690e+000	 1.594405701961191e+000	 1.077899711991607e+001
 3.788304823608781e+000	 1.632290281601885e+000	 1.078425079807719e+001
 3.771795735308528e+000	 1.670084408375627e+000	 1.079332320711282e+001
 3.754877724479676e+000	 1.707781682242020e+000	 1.080657927611839e+001
 3.737551165753983e+000	 1.745375685453613e+000	 1.082111831970586e+001
 3.719816564196904e+000	 1.782859985735529e+000	 1.083720179834544e+001
 3.701674556218166e+000	 1.820228139511309e+000	 1.085610908147586e+001
 3.683125910389052e+000	 1.857473695172016e+000	 1.087817539933841e+001
 3.664171528164389e+000	 1.894590196385535e+000	 1.087434740810034e+001
 3.858621449396840e+000	 1.527593044713509e+000	 1.077011620782282e+001
 3.843247473378598e+000	 1.565870000466923e+000	 1.076787434132566e+001
 3.827461742629643e+000	 1.604068766822089e+000	 1.076894026662861e+001
 3.811264246781434e+000	 1.642182949975733e+000	 1.077366171179567e+001
 3.794655103400497e+000	 1.680206132063246e+000	 1.078240022877496e+001
 3.777634559172637e+000	 1.718131874256107e+000	 1.079553106685964e+001
 3.760202991000109e+000	 1.755953719911430e+000	 1.081344301081815e+001
 3.742360907009368e+000	 1.793665197770850e+000	 1.083418753787512e+001
 3.724108947467171e+000	 1.831259825205930e+000	 1.085551160528256e+001
 3.705447885602809e+000	 1.868731111507075e+000	 1.088020867561151e+001
 3.686378628334472e+000	 1.906072561212882e+000	 1.086351292496301e+001
 3.881866156924004e+000	 1.536795412452863e+000	 1.076320984632689e+001
 3.866399566592226e+000	 1.575302952277115e+000	 1.076015488546576e+001
 3.850518741079557e+000	 1.613731831682644e+000	 1.076058020712478e+001
 3.834223669954998e+000	 1.652075618349287e+000	 1.076484341203237e+001
 3.817514471493309e+000	 1.690327855750602e+000	 1.077331613473158e+001
 3.800391393866355e+000	 1.728482066269945e+000	 1.078638391076106e+001
 3.782854816246879e+000	 1.766531754368986e+000	 1.080444600785949e+001
 3.764905249822348e+000	 1.804470409805882e+000	 1.082791522055148e+001
 3.746543338716543e+000	 1.842291510900214e+000	 1.085599368000750e+001
 3.727769860816763e+000	 1.879988527841727e+000	 1.087669867224762e+001
 3.708585728504561e+000	 1.917554926039734e+000	 1.085506500805808e+001
 3.905110864452169e+000	 1.545997780191711e+000	 1.075784186955499e+001
 3.889551659806843e+000	 1.584735904086892e+000	 1.075405827596374e+001
 3.873575739530430e+000	 1.623394896542854e+000	 1.075392165147363e+001
 3.857183093129475e+000	 1.661968286722549e+000	 1.075779942274926e+001
 3.840373839586965e+000	 1.700449579437697e+000	 1.076607326689649e+001
 3.823148228560824e+000	 1.738832258283531e+000	 1.077913897249428e+001
 3.805506641494295e+000	 1.777109788826284e+000	 1.079740626399415e+001
 3.787449592635845e+000	 1.815275621840626e+000	 1.082129858883940e+001
 3.768977729966282e+000	 1.853323196594162e+000	 1.085125286674941e+001
 3.750091836030915e+000	 1.891245944175974e+000	 1.086674975221903e+001
 3.730792828674659e+000	 1.929037290866090e+000	 1.084905701482805e+001
 3.928355571981333e+000	 1.555200147930054e+000	 1.075402026614614e+001
 3.912703753022449e+000	 1.594168855896254e+000	 1.074959134921564e+001
 3.896632737982265e+000	 1.633057961402721e+000	 1.074897028545669e+001
 3.880142516304864e+000	 1.671860955095518e+000	 1.075253428141488e+001
 3.863233207681463e+000	 1.710571303124530e+000	 1.076067501742552e+001
 3.845905063256048e+000	 1.749182450296868e+000	 1.077379850262716e+001
 3.828158466742356e+000	 1.787687823283323e+000	 1.079232489267650e+001
 3.809993935449857e+000	 1.826080833875083e+000	 1.081668826951068e+001
 3.791412121216387e+000	 1.864354882287772e+000	 1.084733638259788e+001
 3.772413811245263e+000	 1.902503360509814e+000	 1.085067405203072e+001
 3.752999928844765e+000	 1.940519655691950e+000	 1.084419876866111e+001
 3.951600279511499e+000	 1.564402515667893e+000	 1.075175389539797e+001
 3.935855846239047e+000	 1.603601807705202e+000	 1.074676185094534e+001
 3.919689736435062e+000	 1.642721026262243e+000	 1.074573274187056e+001
 3.903101939481164e+000	 1.681753623468193e+000	 1.074905350919522e+001
 3.886092575776805e+000	 1.720693026811101e+000	 1.075712579782703e+001
 3.868661897952027e+000	 1.759532642309954e+000	 1.077036580568567e+001
 3.850810291991064e+000	 1.798265857740103e+000	 1.078920409485341e+001
 3.832538278264387e+000	 1.836886045909252e+000	 1.081408536408994e+001
 3.813846512466861e+000	 1.875386567981046e+000	 1.084503090904455e+001
 3.794735786459811e+000	 1.913760776843248e+000	 1.083783361557333e+001
 3.775207029014879e+000	 1.952002020517314e+000	 1.083369312609453e+001
 3.553136027314097e+000	 1.837178372241353e+000	 1.089718361610608e+001
 3.534363582552064e+000	 1.873038725264742e+000	 1.095214010226816e+001
 3.515199833610370e+000	 1.908761412482587e+000	 1.095016745828032e+001
 3.495646044446416e+000	 1.944340179066090e+000	 1.094650348235108e+001
 3.475703609714793e+000	 1.979768778769484e+000	 1.094501784004950e+001
 3.455374054979496e+000	 2.015040977286106e+000	 1.094610591347108e+001
 3.434659036824272e+000	 2.050150555623710e+000	 1.095018164485779e+001
 3.413560342859975e+000	 2.085091313495475e+000	 1.095767725141568e+001
 3.392079891627955e+000	 2.119857072723085e+000	 1.096904288619922e+001
 3.370219732398642e+000	 2.154441680648209e+000	 1.098474624479441e+001
 3.347982044864625e+000	 2.188839013548634e+000	 1.100527211769733e+001
 3.575343127484140e+000	 1.848660737071182e+000	 1.089615263829711e+001
 3.556453354943440e+000	 1.884745217301496e+000	 1.093669169583597e+001
 3.537169832571846e+000	 1.920691171314831e+000	 1.093386278194472e+001
 3.517493832226493e+000	 1.956492305189702e+000	 1.093238763925933e+001
 3.497426757278562e+000	 1.992142333641312e+000	 1.093263066083235e+001
 3.476970142826822e+000	 2.027634983398575e+000	 1.093497576832799e+001
 3.456125655808669e+000	 2.062963996600547e+000	 1.093982619972060e+001
 3.434895095007523e+000	 2.098123134208612e+000	 1.094760424216937e+001
 3.413280390955621e+000	 2.133106179430840e+000	 1.095875090959035e+001
 3.391283605731326e+000	 2.167906941154782e+000	 1.097372556461082e+001
 3.368906932650309e+000	 2.202519257384963e+000	 1.099300548475807e+001
 3.597550227654190e+000	 1.860143101900514e+000	 1.089628386468072e+001
 3.578543127334634e+000	 1.896451709337664e+000	 1.091960249289878e+001
 3.559139831532968e+000	 1.932620930146416e+000	 1.091912039165569e+001
 3.539341620006065e+000	 1.968644431312608e+000	 1.091954185583165e+001
 3.519149904841695e+000	 2.004515888512400e+000	 1.092121925986926e+001
 3.498566230673402e+000	 2.040228989510295e+000	 1.092452525216274e+001
 3.477592274792229e+000	 2.075777437576643e+000	 1.092985256204481e+001
 3.456229847154164e+000	 2.111154954921037e+000	 1.093761375061322e+001
 3.434480890282325e+000	 2.146355286137931e+000	 1.094824090486708e+001
 3.412347479063020e+000	 2.181372201660762e+000	 1.096218527479016e+001
 3.389831820434993e+000	 2.216199501220790e+000	 1.097991685318914e+001
 3.619757327824249e+000	 1.871625466729350e+000	 1.089758659403557e+001
 3.600632899725644e+000	 1.908158201373246e+000	 1.090441859178782e+001
 3.581109830493738e+000	 1.944550688977346e+000	 1.090599966972096e+001
 3.561189407785134e+000	 1.980796557434805e+000	 1.090803172880720e+001
 3.540873052404193e+000	 2.016889443382751e+000	 1.091085530027469e+001
 3.520162318519235e+000	 2.052822995621266e+000	 1.091483194330405e+001
 3.499058893774951e+000	 2.088590878552000e+000	 1.092034407122083e+001
 3.477564599299897e+000	 2.124186775632751e+000	 1.092779472017225e+001
 3.455681389608072e+000	 2.159604392844361e+000	 1.093760725970771e+001
 3.433411352393724e+000	 2.194837462166150e+000	 1.095022504485212e+001
 3.410756708218677e+000	 2.229879745056114e+000	 1.096611100943572e+001
 3.641964427994314e+000	 1.883107831557690e+000	 1.088751638523619e+001
 3.622722672116472e+000	 1.919864693408242e+000	 1.089119432672715e+001
 3.603079829454155e+000	 1.956480447807618e+000	 1.089456117052877e+001
 3.583037195563698e+000	 1.992948683556295e+000	 1.089792388959241e+001
 3.562596199966056e+000	 2.029262998252362e+000	 1.090161134418417e+001
 3.541758406364323e+000	 2.065417001731487e+000	 1.090597418529354e+001
 3.520525512756837e+000	 2.101404319526616e+000	 1.091138469995202e+001
 3.498899351444720e+000	 2.137218596343754e+000	 1.091823659766226e+001
 3.476881888932859e+000	 2.172853499550128e+000	 1.092694473730568e+001
 3.454475225723438e+000	 2.208302722670944e+000	 1.093794479407009e+001
 3.431681596001361e+000	 2.243559988890935e+000	 1.095169286611619e+001
 3.664171528164389e+000	 1.894590196385535e+000	 1.087434740810034e+001
 3.644812444507119e+000	 1.931571185442651e+000	 1.087998530339694e+001
 3.625049828414218e+000	 1.968410206637234e+000	 1.088486658503031e+001
 3.604884983341758e+000	 2.005100809677078e+000	 1.088928597290748e+001
 3.584319347527286e+000	 2.041636553121236e+000	 1.089356082551127e+001
 3.563354494208663e+000	 2.078011007840959e+000	 1.089803106369737e+001
 3.541992131737885e+000	 2.114217760500491e+000	 1.090305903506337e+001
 3.520234103588635e+000	 2.150250417054045e+000	 1.090902931803557e+001
 3.498082388256686e+000	 2.186102606255233e+000	 1.091634846499027e+001
 3.475539099052162e+000	 2.221767983175147e+000	 1.092544468390274e+001
 3.452606483783046e+000	 2.257240232725254e+000	 1.093676745819870e+001
 3.686378628334472e+000	 1.906072561212882e+000	 1.086351292496301e+001
 3.666902216897582e+000	 1.943277677476475e+000	 1.087084836063660e+001
 3.647019827373930e+000	 1.980339965466193e+000	 1.087697870650582e+001
 3.626732771119317e+000	 2.017252935797153e+000	 1.088218658656600e+001
 3.606042495087878e+000	 2.054010107989371e+000	 1.088677802368919e+001
 3.584950582052259e+000	 2.090605013949682e+000	 1.089108238375621e+001
 3.563458750718094e+000	 2.127031201473626e+000	 1.089545225900385e+001
 3.541568855731642e+000	 2.163282237763625e+000	 1.090026328967815e+001
 3.519282887579553e+000	 2.199351712959676e+000	 1.090591392325872e+001
 3.496602972379896e+000	 2.235233243678757e+000	 1.091282511069943e+001
 3.473531371563731e+000	 2.270920476559069e+000	 1.092143993931590e+001
 3.708585728504561e+000	 1.917554926039734e+000	 1.085506500805808e+001
 3.688991989287863e+000	 1.954984169509711e+000	 1.086384153352380e+001
 3.668989826333287e+000	 1.992269724294494e+000	 1.087096139756079e+001
 3.648580558896370e+000	 2.029405061916520e+000	 1.087669528234052e+001
 3.627765642647836e+000	 2.066383662856767e+000	 1.088133803835581e+001
 3.606546669895108e+000	 2.103199020057653e+000	 1.088520864883801e+001
 3.584925369697467e+000	 2.139844642446019e+000	 1.088865013201341e+001
 3.562903607873741e+000	 2.176314058472495e+000	 1.089202938023493e+001
 3.540483386901463e+000	 2.212600819663458e+000	 1.089573693520225e+001
 3.517666845706641e+000	 2.248698504181774e+000	 1.090018669866747e+001
 3.494456259343415e+000	 2.284600720392382e+000	 1.090581557821214e+001
 3.730792828674659e+000	 1.929037290866090e+000	 1.084905701482805e+001
 3.711081761677962e+000	 1.966690661542362e+000	 1.085902401777226e+001
 3.690959825292291e+000	 2.004199483122140e+000	 1.086687955830079e+001
 3.670428346672918e+000	 2.041557188035180e+000	 1.087288252786844e+001
 3.649488790207160e+000	 2.078757217723425e+000	 1.087731676494286e+001
 3.628142757737210e+000	 2.115793026164877e+000	 1.088049103966047e+001
 3.606391988676003e+000	 2.152658083417674e+000	 1.088273897492675e+001
 3.584238360014931e+000	 2.189345879180652e+000	 1.088441890294137e+001
 3.561683886222414e+000	 2.225849926366578e+000	 1.088591365630993e+001
 3.538730719032396e+000	 2.262163764684199e+000	 1.088763029309063e+001
 3.515381147122099e+000	 2.298280964225193e+000	 1.088999975531752e+001
 3.752999928844765e+000	 1.940519655691950e+000	 1.084419876866111e+001
 3.733171534067878e+000	 1.978397153574426e+000	 1.085645613539325e+001
 3.712929824250943e+000	 2.016129241949128e+000	 1.086479909563620e+001
 3.692276134448962e+000	 2.053709314153131e+000	 1.087081967955547e+001
 3.671211937765847e+000	 2.091130772589344e+000	 1.087479087113164e+001
 3.649738845578567e+000	 2.128387032271351e+000	 1.087701139425106e+001
 3.627858607653701e+000	 2.165471524388587e+000	 1.087780565258772e+001
 3.605573112155213e+000	 2.202377699888097e+000	 1.087752360344034e+001
 3.582884385542403e+000	 2.239099033069035e+000	 1.087654056463431e+001
 3.559794592357162e+000	 2.275629025186031e+000	 1.087525695378845e+001
 3.536306034899783e+000	 2.311961208057501e+000	 1.087409795944356e+001
 3.775207029014879e+000	 1.952002020517314e+000	 1.083369312609453e+001
 3.755261306457614e+000	 1.990103645605905e+000	 1.085361575249271e+001
 3.734899823209242e+000	 2.028059000775460e+000	 1.086478689367026e+001
 3.714123922224505e+000	 2.065861440270376e+000	 1.087057895643535e+001
 3.692935085323902e+000	 2.103504327454526e+000	 1.087383777413990e+001
 3.671334933419178e+000	 2.140981038377075e+000	 1.087485218861440e+001
 3.649325226630563e+000	 2.178284965358760e+000	 1.087393755784905e+001
 3.626907864294587e+000	 2.215409520594833e+000	 1.087143564706422e+001
 3.604084884861436e+000	 2.252348139770831e+000	 1.086771445130431e+001
 3.580858465680938e+000	 2.289094285687272e+000	 1.086316794880634e+001
 3.557230922676468e+000	 2.325641451889307e+000	 1.085821578459556e+001
 3.347982044864625e+000	 2.188839013548634e+000	 1.100527211769733e+001
 3.325369138727341e+000	 2.223042980055294e+000	 1.096700165575427e+001
 3.302383453178052e+000	 2.257047524566414e+000	 1.093492757550058e+001
 3.279027556272166e+000	 2.290846630654907e+000	 1.090977453040114e+001
 3.255304144196106e+000	 2.324434324465135e+000	 1.089228282587327e+001
 3.231216040427900e+000	 2.357804678095201e+000	 1.088320751093199e+001
 3.206766194791349e+000	 2.390951812960879e+000	 1.088331741620060e+001
 3.181957682404208e+000	 2.423869903137296e+000	 1.089339413970423e+001
 3.156793702520920e+000	 2.456553178674487e+000	 1.091423098204440e+001
 3.131277577270648e+000	 2.488995928882965e+000	 1.094663183273110e+001
 3.105412750291483e+000	 2.521192505585459e+000	 1.093702148015387e+001
 3.368906932650309e+000	 2.202519257384963e+000	 1.099300548475807e+001
 3.346152695849630e+000	 2.236936998681402e+000	 1.095715280831845e+001
 3.323023349765487e+000	 2.271154071594951e+000	 1.092783592498124e+001
 3.299521478503630e+000	 2.305164422095855e+000	 1.090579694208695e+001
 3.275649795101650e+000	 2.338962038991882e+000	 1.089179376494982e+001
 3.251411140684310e+000	 2.372540957331743e+000	 1.088659916640000e+001
 3.226808483511812e+000	 2.405895261790065e+000	 1.089099980183805e+001
 3.201844917921395e+000	 2.439019090029943e+000	 1.090579517125527e+001
 3.176523663162844e+000	 2.471906636039226e+000	 1.093179652985730e+001
 3.150848062128626e+000	 2.504552153436617e+000	 1.095584187199402e+001
 3.124821579979573e+000	 2.536949958743739e+000	 1.090239988251583e+001
 3.389831820434993e+000	 2.216199501220790e+000	 1.097991685318914e+001
 3.366936252970930e+000	 2.250831017307106e+000	 1.094656955683229e+001
 3.343663246351960e+000	 2.285260618623185e+000	 1.092008694407797e+001
 3.320015400734183e+000	 2.319482213536602e+000	 1.090122861591934e+001
 3.295995446006352e+000	 2.353489753518526e+000	 1.089077013014567e+001
 3.271606240939970e+000	 2.387277236568283e+000	 1.088950204874230e+001
 3.246850772231634e+000	 2.420838710619349e+000	 1.089822892992658e+001
 3.221732153438071e+000	 2.454168276922789e+000	 1.091776826630899e+001
 3.196253623804405e+000	 2.487260093404263e+000	 1.094894937085654e+001
 3.170418546986411e+000	 2.520108377990668e+000	 1.093276017308627e+001
 3.144230409667659e+000	 2.552707411902517e+000	 1.088573620061353e+001
 3.410756708218677e+000	 2.229879745056114e+000	 1.096611100943572e+001
 3.387719810091239e+000	 2.264725035932409e+000	 1.093535444924657e+001
 3.364303142937474e+000	 2.299367165651117e+000	 1.091178096031555e+001
 3.340509322963825e+000	 2.333800004977146e+000	 1.089616767884355e+001
 3.316341096910214e+000	 2.368017468045067e+000	 1.088930786948301e+001
 3.291801341194878e+000	 2.402013515804821e+000	 1.089200995055495e+001
 3.266893060950814e+000	 2.435782159448731e+000	 1.090509646300175e+001
 3.241619388954234e+000	 2.469317463815833e+000	 1.092940298460140e+001
 3.215983584445602e+000	 2.502613550769600e+000	 1.095857093699350e+001
 3.189989031844004e+000	 2.535664602545118e+000	 1.091227513820288e+001
 3.163639239355744e+000	 2.568464865061795e+000	 1.087185770307298e+001
 3.431681596001361e+000	 2.243559988890935e+000	 1.095169286611619e+001
 3.408503367210559e+000	 2.278619054557308e+000	 1.092361021367169e+001
 3.384943039522027e+000	 2.313473712678746e+000	 1.090301853310067e+001
 3.361003245192558e+000	 2.348117796417488e+000	 1.089071253911338e+001
 3.336686747813234e+000	 2.382545182571506e+000	 1.088750325939375e+001
 3.311996441449033e+000	 2.416749795041357e+000	 1.089421703759069e+001
 3.286935349669350e+000	 2.450725608278211e+000	 1.091169447912154e+001
 3.261506624469884e+000	 2.484466650709074e+000	 1.094078934134940e+001
 3.235713545086438e+000	 2.517967008135234e+000	 1.093446200213146e+001
 3.209559516701404e+000	 2.551220827099967e+000	 1.089440587104558e+001
 3.183048069043826e+000	 2.584222318221571e+000	 1.086063088749119e+001
 3.452606483783046e+000	 2.257240232725254e+000	 1.093676745819870e+001
 3.429286924328888e+000	 2.292513073181805e+000	 1.091143975291842e+001
 3.405582936105619e+000	 2.327580259706072e+000	 1.089390044669528e+001
 3.381497167420379e+000	 2.362435587857628e+000	 1.088496187776680e+001
 3.357032398715414e+000	 2.397072897097844e+000	 1.088545289476779e+001
 3.332191541702438e+000	 2.431486074277891e+000	 1.089621783745127e+001
 3.306977638387247e+000	 2.465669057107790e+000	 1.091811545927465e+001
 3.281393859985023e+000	 2.499615837602515e+000	 1.095201779344822e+001
 3.255443505726912e+000	 2.533320465501167e+000	 1.091294658200358e+001
 3.229130001558612e+000	 2.566777051655214e+000	 1.087917198739385e+001
 3.202456898731904e+000	 2.599979771381846e+000	 1.085207398033581e+001
 3.473531371563731e+000	 2.270920476559069e+000	 1.092143993931590e+001
 3.450070481446228e+000	 2.306407091805899e+000	 1.089894613923574e+001
 3.426222832688253e+000	 2.341686806733097e+000	 1.088452770344373e+001
 3.401991089647289e+000	 2.376753379297564e+000	 1.087901464040951e+001
 3.377378049616752e+000	 2.411600611624079e+000	 1.088325367936085e+001
 3.352386641955091e+000	 2.446222353514424e+000	 1.089810722868837e+001
 3.327019927104500e+000	 2.480612505937467e+000	 1.092445227524417e+001
 3.301281095499650e+000	 2.514765024496154e+000	 1.092812015998110e+001
 3.275173466367022e+000	 2.548673922867399e+000	 1.089404621766948e+001
 3.248700486415626e+000	 2.582333276210859e+000	 1.086659359968100e+001
 3.221865728419981e+000	 2.615737224542619e+000	 1.084620573538505e+001
 3.494456259343415e+000	 2.284600720392382e+000	 1.090581557821214e+001
 3.470854038562576e+000	 2.320301110429591e+000	 1.088623260923789e+001
 3.446862729269925e+000	 2.355793353759819e+000	 1.087500151724344e+001
 3.422485011873289e+000	 2.391071170737299e+000	 1.087297002929368e+001
 3.397723700517249e+000	 2.426128326150212e+000	 1.088100281654703e+001
 3.372581742206992e+000	 2.460958632750953e+000	 1.089998043029608e+001
 3.347062215821112e+000	 2.495555954767242e+000	 1.093079817790704e+001
 3.321168331013763e+000	 2.529914211389992e+000	 1.090586803054104e+001
 3.294903427006771e+000	 2.564027380233930e+000	 1.087778289997486e+001
 3.268270971272449e+000	 2.597889500766904e+000	 1.085669130212406e+001
 3.241274558108055e+000	 2.631494677703892e+000	 1.084304541794001e+001
 3.515381147122099e+000	 2.298280964225193e+000	 1.088999975531752e+001
 3.491637595677935e+000	 2.334195129052880e+000	 1.087340255901253e+001
 3.467502625850638e+000	 2.369899900786238e+000	 1.086542330724869e+001
 3.442978934098379e+000	 2.405388962176831e+000	 1.086692749567978e+001
 3.418069351416905e+000	 2.440656040676242e+000	 1.087879780040158e+001
 3.392776842458142e+000	 2.475694911987481e+000	 1.090193299157872e+001
 3.367104504537082e+000	 2.510499403597115e+000	 1.091518330830073e+001
 3.341055566527366e+000	 2.545063398284028e+000	 1.088623055130742e+001
 3.314633387646158e+000	 2.579380837600758e+000	 1.086417905616513e+001
 3.287841456129079e+000	 2.613445725323347e+000	 1.084948615638521e+001
 3.260683387796125e+000	 2.647252130865662e+000	 1.084261278960072e+001
 3.536306034899783e+000	 2.311961208057501e+000	 1.087409795944356e+001
 3.512421152792304e+000	 2.348089147675766e+000	 1.086055953940257e+001
 3.488142522430389e+000	 2.384006447812355e+000	 1.085589469179784e+001
 3.463472856322557e+000	 2.419706753616161e+000	 1.086098673246943e+001
 3.438415002315720e+000	 2.455183755202171e+000	 1.087673640710027e+001
 3.412971942708541e+000	 2.490431191224007e+000	 1.090406078237830e+001
 3.387146793252410e+000	 2.525442852427087e+000	 1.089245670173349e+001
 3.360942802040456e+000	 2.560212585178262e+000	 1.086923197089075e+001
 3.334363348285181e+000	 2.594734294967886e+000	 1.085325753697410e+001
 3.307411940985515e+000	 2.629001949880189e+000	 1.084499967774193e+001
 3.280092217484194e+000	 2.663009584027932e+000	 1.084492809358275e+001
 3.557230922676468e+000	 2.325641451889307e+000	 1.085821578459556e+001
 3.533204709905683e+000	 2.361983166298250e+000	 1.084780725145461e+001
 3.508782419009181e+000	 2.398112994838169e+000	 1.084651748255504e+001
 3.483966778545826e+000	 2.434024545055289e+000	 1.085524766709823e+001
 3.458760653213694e+000	 2.469711469727998e+000	 1.087491668662235e+001
 3.433167042958189e+000	 2.505167470460532e+000	 1.089691306462102e+001
 3.407189081967098e+000	 2.540386301257156e+000	 1.087234453963415e+001
 3.380830037553034e+000	 2.575361772072695e+000	 1.085489691764728e+001
 3.354093308923843e+000	 2.610087752335312e+000	 1.084504160416843e+001
 3.326982425841761e+000	 2.644558174437430e+000	 1.084325382174539e+001
 3.299501047172259e+000	 2.678767037190700e+000	 1.085001204055208e+001
 3.105412750291483e+000	 2.521192505585459e+000	 1.093702148015387e+001
 3.079202785261663e+000	 2.553137326331711e+000	 1.093335059345520e+001
 3.052651364329597e+000	 2.584824877570536e+000	 1.092544111441067e+001
 3.025762286443788e+000	 2.616249717776630e+000	 1.091394378601193e+001
 2.998539465583634e+000	 2.647406480529932e+000	 1.089953912672519e+001
 2.970986928893433e+000	 2.678289877541903e+000	 1.088293607391516e+001
 2.943108814721196e+000	 2.708894701625782e+000	 1.086487054188100e+001
 2.914909370564268e+000	 2.739215829607388e+000	 1.084610389781270e+001
 2.886392950923881e+000	 2.769248225173028e+000	 1.082742135925538e+001
 2.857564015070872e+000	 2.798986941651220e+000	 1.080963031693422e+001
 2.828427124725000e+000	 2.828427124725000e+000	 1.079355858704775e+001
 3.124821579979573e+000	 2.536949958743739e+000	 1.090239988251583e+001
 3.098447802667084e+000	 2.569094434619900e+000	 1.090374608082233e+001
 3.071730435353171e+000	 2.600980033054108e+000	 1.090028974226412e+001
 3.044673300729765e+000	 2.632601278511519e+000	 1.089269664452171e+001
 3.017280337238636e+000	 2.663952771031953e+000	 1.088166350211346e+001
 2.989555597193735e+000	 2.695029189275061e+000	 1.086791658205075e+001
 2.961503244807746e+000	 2.725825293509172e+000	 1.085221023165262e+001
 2.933127554124876e+000	 2.756335928540261e+000	 1.083532532189343e+001
 2.904432906861986e+000	 2.786556026577674e+000	 1.081806760994305e+001
 2.875423790160358e+000	 2.816480610033235e+000	 1.080126602483113e+001
 2.846104794250500e+000	 2.846104794250500e+000	 1.078577088042928e+001
 3.144230409667659e+000	 2.552707411902517e+000	 1.088573620061353e+001
 3.117692820072692e+000	 2.585051542908685e+000	 1.087486515826811e+001
 3.090809506377104e+000	 2.617135188538358e+000	 1.087579731953913e+001
 3.063584315016250e+000	 2.648952839247163e+000	 1.087203784425548e+001
 3.036021208894278e+000	 2.680499061534792e+000	 1.086429993194350e+001
 3.008124265494786e+000	 2.711768501009096e+000	 1.085332748165057e+001
 2.979897674895137e+000	 2.742755885393480e+000	 1.083989358907701e+001
 2.951345737686393e+000	 2.773456027474087e+000	 1.082479895682506e+001
 2.922472862801051e+000	 2.803863827983302e+000	 1.080887022149675e+001
 2.893283565250835e+000	 2.833974278416246e+000	 1.079295820165297e+001
 2.863782463777000e+000	 2.863782463776999e+000	 1.077793607091383e+001
 3.163639239355744e+000	 2.568464865061795e+000	 1.087185770307298e+001
 3.136937837478489e+000	 2.601008651198063e+000	 1.085667463660349e+001
 3.109888577401392e+000	 2.633290344023286e+000	 1.085214794971354e+001
 3.082495329303243e+000	 2.665304399983560e+000	 1.085215045213375e+001
 3.054762080550558e+000	 2.697045352038451e+000	 1.084763025480025e+001
 3.026692933796586e+000	 2.728507812744004e+000	 1.083934919326379e+001
 2.998292104983366e+000	 2.759686477278709e+000	 1.082809942922716e+001
 2.969563921248820e+000	 2.790576126408869e+000	 1.081470182720179e+001
 2.940512818741076e+000	 2.821171629389907e+000	 1.080000424564207e+001
 2.911143340342301e+000	 2.851467946800253e+000	 1.078487974665058e+001
 2.881460133304500e+000	 2.881460133304500e+000	 1.077022472862221e+001
 3.183048069043826e+000	 2.584222318221571e+000	 1.086063088749119e+001
 3.156182854884472e+000	 2.616965759488034e+000	 1.084676630203585e+001
 3.128967648426040e+000	 2.649445499508894e+000	 1.083249431060388e+001
 3.101406343590746e+000	 2.681655960720713e+000	 1.083321807524131e+001
 3.073502952207474e+000	 2.713591642542929e+000	 1.083183684599965e+001
 3.045261602099134e+000	 2.745247124479786e+000	 1.082616267244636e+001
 3.016686535072434e+000	 2.776617069164856e+000	 1.081700710216964e+001
 2.987782104812156e+000	 2.807696225344604e+000	 1.080521149431065e+001
 2.958552774682061e+000	 2.838479430797494e+000	 1.079164527420917e+001
 2.929003115434757e+000	 2.868961615185254e+000	 1.077720410430270e+001
 2.899137802833000e+000	 2.899137802833000e+000	 1.076280797573607e+001
 3.202456898731904e+000	 2.599979771381846e+000	 1.085207398033581e+001
 3.175427872290643e+000	 2.632922867778599e+000	 1.083947363551519e+001
 3.148046719451044e+000	 2.665600654995181e+000	 1.082614662039810e+001
 3.120317357878754e+000	 2.698007521458619e+000	 1.081542484445861e+001
 3.092243823865031e+000	 2.730137933048226e+000	 1.081710260132421e+001
 3.063830270402432e+000	 2.761986436216443e+000	 1.081394939354859e+001
 3.035080965162342e+000	 2.793547661051924e+000	 1.080679647675266e+001
 3.006000288376402e+000	 2.824816324281296e+000	 1.079650603986806e+001
 2.976592730624005e+000	 2.855787232206059e+000	 1.078396942276593e+001
 2.946862890528204e+000	 2.886455283571249e+000	 1.077010524779395e+001
 2.916815472362500e+000	 2.916815472362500e+000	 1.075585746976875e+001
 3.221865728419981e+000	 2.615737224542619e+000	 1.084620573538505e+001
 3.194672889697001e+000	 2.648879976069759e+000	 1.083481557476594e+001
 3.167125790476407e+000	 2.681755810482147e+000	 1.082238094262584e+001
 3.139228372167272e+000	 2.714359082197278e+000	 1.080905387918553e+001
 3.110984695523225e+000	 2.746684223554342e+000	 1.080361092134630e+001
 3.082398938706478e+000	 2.778725747953974e+000	 1.080289133408894e+001
 3.053475395253089e+000	 2.810478252939912e+000	 1.079764792498009e+001
 3.024218471941557e+000	 2.841936423218941e+000	 1.078876405034415e+001
 2.994632686566910e+000	 2.873095033615605e+000	 1.077715331484279e+001
 2.964722665622640e+000	 2.903948951958240e+000	 1.076375766308992e+001
 2.934493141892999e+000	 2.934493141893000e+000	 1.074954538744084e+001
 3.241274558108055e+000	 2.631494677703892e+000	 1.084304541794001e+001
 3.213917907103547e+000	 2.664837084361511e+000	 1.083281156124886e+001
 3.186204861502127e+000	 2.697910965969791e+000	 1.082121680806904e+001
 3.158139386456297e+000	 2.730710642936693e+000	 1.080841593897006e+001
 3.129725567182059e+000	 2.763230514061278e+000	 1.079457378991108e+001
 3.100967607011273e+000	 2.795465059692380e+000	 1.079317095968905e+001
 3.071869825344674e+000	 2.827408844828819e+000	 1.078974230694698e+001
 3.042436655507622e+000	 2.859056522157542e+000	 1.078216460185057e+001
 3.012672642510774e+000	 2.890402835026131e+000	 1.077137406672423e+001
 2.982582440718066e+000	 2.921442620346226e+000	 1.075833633358447e+001
 2.952170811424500e+000	 2.952170811424500e+000	 1.074404440913503e+001
 3.260683387796125e+000	 2.647252130865662e+000	 1.084261278960072e+001
 3.233162924510279e+000	 2.680794192653857e+000	 1.083348152516900e+001
 3.205283932528204e+000	 2.714066121458115e+000	 1.082267423019979e+001
 3.177050400745831e+000	 2.747062203676860e+000	 1.081034849479693e+001
 3.148466438841530e+000	 2.779776804569033e+000	 1.079667243187201e+001
 3.119536275316816e+000	 2.812204371431659e+000	 1.078497120954683e+001
 3.090264255437100e+000	 2.844339436718645e+000	 1.078326095631302e+001
 3.060654839074597e+000	 2.876176621097097e+000	 1.077688724556760e+001
 3.030712598455597e+000	 2.907710636437636e+000	 1.076680927278351e+001
 3.000442215814482e+000	 2.938936288735206e+000	 1.075401672529533e+001
 2.969848480956999e+000	 2.969848480956999e+000	 1.073952770390624e+001
 3.280092217484194e+000	 2.663009584027932e+000	 1.084492809358275e+001
 3.252407941917199e+000	 2.696751300946797e+000	 1.083684587101576e+001
 3.224363003554640e+000	 2.730221276947117e+000	 1.082677369089952e+001
 3.195961415035872e+000	 2.763413764417782e+000	 1.081487202215874e+001
 3.167207310501641e+000	 2.796323095077607e+000	 1.080131232512592e+001
 3.138104943623110e+000	 2.828943683171814e+000	 1.078627677041591e+001
 3.108658685530364e+000	 2.861270028609391e+000	 1.077838566629172e+001
 3.078873022642481e+000	 2.893296720037607e+000	 1.077311199368904e+001
 3.048752554401381e+000	 2.925018437850121e+000	 1.076363699133799e+001
 3.018301990911889e+000	 2.956429957125182e+000	 1.075097477258525e+001
 2.987526150490500e+000	 2.987526150490500e+000	 1.073616891502380e+001
 3.299501047172259e+000	 2.678767037190700e+000	 1.085001204055208e+001
 3.271652959324307e+000	 2.712708409240331e+000	 1.084292546361334e+001
 3.243442074581433e+000	 2.746376432436798e+000	 1.083353612668227e+001
 3.214872429326423e+000	 2.779765325159458e+000	 1.082200744689658e+001
 3.185948182162389e+000	 2.812869385587000e+000	 1.080851430264790e+001
 3.156673611930151e+000	 2.845682994912844e+000	 1.079324274774524e+001
 3.127053115624468e+000	 2.878200620501057e+000	 1.077638969906727e+001
 3.097091206211275e+000	 2.910416818979073e+000	 1.077101930586290e+001
 3.066792510348125e+000	 2.942326239263588e+000	 1.076203573100377e+001
 3.036161766010286e+000	 2.973923625516154e+000	 1.074938686438718e+001
 3.005203820025000e+000	 3.005203820025000e+000	 1.073414214602399e+001
 2.828427124725000e+000	 2.828427124725000e+000	 1.079355858704775e+001
 2.798986941651219e+000	 2.857564015070872e+000	 1.072808426986647e+001
 2.769248225173028e+000	 2.886392950923880e+000	 1.067020645589109e+001
 2.739215829607388e+000	 2.914909370564268e+000	 1.062095619003829e+001
 2.708894701625783e+000	 2.943108814721196e+000	 1.058137362328690e+001
 2.678289877541903e+000	 2.970986928893433e+000	 1.055250582859369e+001
 2.647406480529932e+000	 2.998539465583634e+000	 1.053540458063728e+001
 2.616249717776630e+000	 3.025762286443787e+000	 1.053112410508552e+001
 2.584824877570536e+000	 3.052651364329597e+000	 1.054071880319063e+001
 2.553137326331711e+000	 3.079202785261663e+000	 1.056524095760548e+001
 2.521192505585459e+000	 3.105412750291483e+000	 1.060573842538282e+001
 2.846104794250500e+000	 2.846104794250500e+000	 1.078577088042928e+001
 2.816480610033235e+000	 2.875423790160357e+000	 1.072401645720491e+001
 2.786556026577674e+000	 2.904432906861986e+000	 1.067048316901013e+001
 2.756335928540261e+000	 2.933127554124876e+000	 1.062624004293051e+001
 2.725825293509172e+000	 2.961503244807746e+000	 1.059236500917286e+001
 2.695029189275062e+000	 2.989555597193736e+000	 1.056994265609104e+001
 2.663952771031954e+000	 3.017280337238637e+000	 1.056006194887678e+001
 2.632601278511519e+000	 3.044673300729766e+000	 1.056381391775044e+001
 2.600980033054107e+000	 3.071730435353172e+000	 1.058228932159587e+001
 2.569094434619901e+000	 3.098447802667084e+000	 1.061657629307364e+001
 2.536949958743739e+000	 3.124821579979572e+000	 1.066775797131464e+001
 2.863782463777000e+000	 2.863782463776999e+000	 1.077793607091383e+001
 2.833974278416246e+000	 2.893283565250835e+000	 1.072005393496647e+001
 2.803863827983302e+000	 2.922472862801051e+000	 1.067100246689285e+001
 2.773456027474087e+000	 2.951345737686393e+000	 1.063188895064665e+001
 2.742755885393480e+000	 2.979897674895137e+000	 1.060382938666086e+001
 2.711768501009095e+000	 3.008124265494786e+000	 1.058794618539635e+001
 2.680499061534792e+000	 3.036021208894278e+000	 1.058536582436577e+001
 2.648952839247162e+000	 3.063584315016250e+000	 1.059721647460826e+001
 2.617135188538357e+000	 3.090809506377103e+000	 1.062462560270122e+001
 2.585051542908685e+000	 3.117692820072692e+000	 1.066871755448567e+001
 2.552707411902518e+000	 3.144230409667660e+000	 1.061447089547451e+001
 2.881460133304500e+000	 2.881460133304500e+000	 1.077022472862221e+001
 2.851467946800252e+000	 2.911143340342301e+000	 1.071635999871027e+001
 2.821171629389907e+000	 2.940512818741075e+000	 1.067192042431729e+001
 2.790576126408868e+000	 2.969563921248820e+000	 1.063805182652946e+001
 2.759686477278708e+000	 2.998292104983366e+000	 1.061590857257137e+001
 2.728507812744004e+000	 3.026692933796586e+000	 1.060665120728318e+001
 2.697045352038451e+000	 3.054762080550558e+000	 1.061144404785643e+001
 2.665304399983561e+000	 3.082495329303243e+000	 1.063145274794653e+001
 2.633290344023287e+000	 3.109888577401393e+000	 1.066784183739176e+001
 2.601008651198063e+000	 3.136937837478489e+000	 1.065660042674049e+001
 2.568464865061795e+000	 3.163639239355744e+000	 1.056837864994651e+001
 2.899137802833000e+000	 2.899137802833000e+000	 1.076280797573607e+001
 2.868961615185253e+000	 2.929003115434757e+000	 1.071309862098307e+001
 2.838479430797494e+000	 2.958552774682060e+000	 1.067339391421337e+001
 2.807696225344605e+000	 2.987782104812157e+000	 1.064487849941784e+001
 2.776617069164856e+000	 3.016686535072434e+000	 1.062874541269029e+001
 2.745247124479786e+000	 3.045261602099134e+000	 1.062619365103197e+001
 2.713591642542929e+000	 3.073502952207475e+000	 1.063842570417166e+001
 2.681655960720712e+000	 3.101406343590744e+000	 1.066664505566262e+001
 2.649445499508894e+000	 3.128967648426040e+000	 1.069258206192451e+001
 2.616965759488034e+000	 3.156182854884472e+000	 1.061130138988410e+001
 2.584222318221571e+000	 3.183048069043826e+000	 1.053050862421091e+001
 2.916815472362500e+000	 2.916815472362500e+000	 1.075585746976875e+001
 2.886455283571249e+000	 2.946862890528204e+000	 1.071043443080449e+001
 2.855787232206061e+000	 2.976592730624005e+000	 1.067558058347660e+001
 2.824816324281295e+000	 3.006000288376402e+000	 1.065251968590468e+001
 2.793547661051924e+000	 3.035080965162342e+000	 1.064248375058807e+001
 2.761986436216443e+000	 3.063830270402431e+000	 1.064671054992983e+001
 2.730137933048226e+000	 3.092243823865031e+000	 1.066644108450609e+001
 2.698007521458619e+000	 3.120317357878755e+000	 1.070291702048755e+001
 2.665600654995181e+000	 3.148046719451045e+000	 1.064829771702764e+001
 2.632922867778599e+000	 3.175427872290642e+000	 1.057398935702763e+001
 2.599979771381846e+000	 3.202456898731905e+000	 1.050077777668516e+001
 2.934493141892999e+000	 2.934493141893000e+000	 1.074954538744084e+001
 2.903948951958240e+000	 2.964722665622640e+000	 1.070853269389377e+001
 2.873095033615605e+000	 2.994632686566909e+000	 1.067863882965583e+001
 2.841936423218941e+000	 3.024218471941557e+000	 1.066112696359717e+001
 2.810478252939913e+000	 3.053475395253089e+000	 1.065726839756601e+001
 2.778725747953974e+000	 3.082398938706477e+000	 1.066834000801728e+001
 2.746684223554341e+000	 3.110984695523225e+000	 1.069562165008943e+001
 2.714359082197279e+000	 3.139228372167272e+000	 1.068037448468037e+001
 2.681755810482146e+000	 3.167125790476407e+000	 1.061176373824540e+001
 2.648879976069758e+000	 3.194672889697001e+000	 1.054458601160628e+001
 2.615737224542619e+000	 3.221865728419981e+000	 1.047910459468728e+001
 2.952170811424500e+000	 2.952170811424500e+000	 1.074404440913503e+001
 2.921442620346225e+000	 2.982582440718066e+000	 1.070755929360691e+001
 2.890402835026131e+000	 3.012672642510772e+000	 1.068272777847857e+001
 2.859056522157541e+000	 3.042436655507622e+000	 1.067085274533799e+001
 2.827408844828819e+000	 3.071869825344675e+000	 1.067324510368233e+001
 2.795465059692380e+000	 3.100967607011272e+000	 1.069122116802978e+001
 2.763230514061278e+000	 3.129725567182059e+000	 1.070845961198464e+001
 2.730710642936692e+000	 3.158139386456296e+000	 1.064481235057357e+001
 2.697910965969791e+000	 3.186204861502127e+000	 1.058290648933760e+001
 2.664837084361510e+000	 3.213917907103546e+000	 1.052301443879408e+001
 2.631494677703891e+000	 3.241274558108055e+000	 1.046540904866033e+001
 2.969848480956999e+000	 2.969848480956999e+000	 1.073952770390624e+001
 2.938936288735207e+000	 3.000442215814482e+000	 1.070768071255458e+001
 2.907710636437637e+000	 3.030712598455597e+000	 1.068800726217905e+001
 2.876176621097097e+000	 3.060654839074597e+000	 1.068185025434709e+001
 2.844339436718645e+000	 3.090264255437100e+000	 1.069056052981288e+001
 2.812204371431660e+000	 3.119536275316816e+000	 1.071549418048425e+001
 2.779776804569033e+000	 3.148466438841531e+000	 1.067403714018908e+001
 2.747062203676861e+000	 3.177050400745830e+000	 1.061669380532026e+001
 2.714066121458115e+000	 3.205283932528205e+000	 1.056165361144616e+001
 2.680794192653857e+000	 3.233162924510279e+000	 1.050919908378543e+001
 2.647252130865662e+000	 3.260683387796125e+000	 1.045961254803191e+001
 2.987526150490500e+000	 2.987526150490500e+000	 1.073616891502380e+001
 2.956429957125182e+000	 3.018301990911889e+000	 1.070906401487275e+001
 2.925018437850121e+000	 3.048752554401380e+000	 1.069463779859567e+001
 2.893296720037606e+000	 3.078873022642481e+000	 1.069427350024606e+001
 2.861270028609391e+000	 3.108658685530364e+000	 1.070936222070393e+001
 2.828943683171814e+000	 3.138104943623109e+000	 1.070026044404454e+001
 2.796323095077607e+000	 3.167207310501641e+000	 1.064682420612278e+001
 2.763413764417782e+000	 3.195961415035872e+000	 1.059595100087365e+001
 2.730221276947116e+000	 3.224363003554640e+000	 1.054793398530276e+001
 2.696751300946797e+000	 3.252407941917199e+000	 1.050306571155791e+001
 2.663009584027932e+000	 3.280092217484194e+000	 1.046163789864055e+001
 3.005203820025000e+000	 3.005203820025000e+000	 1.073414214602399e+001
 2.973923625516154e+000	 3.036161766010285e+000	 1.071187682911891e+001
 2.942326239263588e+000	 3.066792510348125e+000	 1.070278057100609e+001
 2.910416818979071e+000	 3.097091206211275e+000	 1.070827725592863e+001
 2.878200620501058e+000	 3.127053115624469e+000	 1.072422408574905e+001
 2.845682994912843e+000	 3.156673611930151e+000	 1.067409461677430e+001
 2.812869385587000e+000	 3.185948182162389e+000	 1.062675742438674e+001
 2.779765325159459e+000	 3.214872429326423e+000	 1.058251721105544e+001
 2.746376432436797e+000	 3.243442074581434e+000	 1.054167769477021e+001
 2.712708409240331e+000	 3.271652959324307e+000	 1.050454136805497e+001
 2.678767037190700e+000	 3.299501047172260e+000	 1.047140926166484e+001
 2.521192505585459e+000	 3.105412750291483e+000	 1.060573842538282e+001
 2.488995928882964e+000	 3.131277577270647e+000	 1.064293465938850e+001
 2.456553178674486e+000	 3.156793702520920e+000	 1.056714613323435e+001
 2.423869903137295e+000	 3.181957682404208e+000	 1.049312193862020e+001
 2.390951812960879e+000	 3.206766194791349e+000	 1.042210646822610e+001
 2.357804678095201e+000	 3.231216040427900e+000	 1.035534414067734e+001
 2.324434324465135e+000	 3.255304144196106e+000	 1.029407678776863e+001
 2.290846630654907e+000	 3.279027556272165e+000	 1.023954104602390e+001
 2.257047524566414e+000	 3.302383453178052e+000	 1.019296575923636e+001
 2.223042980055295e+000	 3.325369138727341e+000	 1.015556939857108e+001
 2.188839013548634e+000	 3.347982044864625e+000	 1.012855750672875e+001
 2.536949958743739e+000	 3.124821579979572e+000	 1.066775797131464e+001
 2.504552153436617e+000	 3.150848062128625e+000	 1.058660703651133e+001
 2.471906636039226e+000	 3.176523663162843e+000	 1.052298918134064e+001
 2.439019090029943e+000	 3.201844917921395e+000	 1.046209644884804e+001
 2.405895261790065e+000	 3.226808483511813e+000	 1.040278685032329e+001
 2.372540957331742e+000	 3.251411140684310e+000	 1.034630744810407e+001
 2.338962038991882e+000	 3.275649795101650e+000	 1.029390425289518e+001
 2.305164422095856e+000	 3.299521478503630e+000	 1.024681957733650e+001
 2.271154071594951e+000	 3.323023349765487e+000	 1.020628939856361e+001
 2.236936998681402e+000	 3.346152695849630e+000	 1.017354073647004e+001
 2.202519257384963e+000	 3.368906932650309e+000	 1.014978905429483e+001
 2.552707411902518e+000	 3.144230409667660e+000	 1.061447089547451e+001
 2.520108377990668e+000	 3.170418546986411e+000	 1.054303404010452e+001
 2.487260093404263e+000	 3.196253623804405e+000	 1.048372682906746e+001
 2.454168276922788e+000	 3.221732153438071e+000	 1.043524236730220e+001
 2.420838710619349e+000	 3.246850772231634e+000	 1.038692394101051e+001
 2.387277236568283e+000	 3.271606240939970e+000	 1.034002197587203e+001
 2.353489753518525e+000	 3.295995446006352e+000	 1.029578737695108e+001
 2.319482213536602e+000	 3.320015400734183e+000	 1.025546884326851e+001
 2.285260618623185e+000	 3.343663246351960e+000	 1.022031018938856e+001
 2.250831017307107e+000	 3.366936252970930e+000	 1.019154768085473e+001
 2.216199501220790e+000	 3.389831820434993e+000	 1.017040739023007e+001
 2.568464865061795e+000	 3.163639239355744e+000	 1.056837864994651e+001
 2.535664602545119e+000	 3.189989031844004e+000	 1.050716455323917e+001
 2.502613550769600e+000	 3.215983584445602e+000	 1.045090011852508e+001
 2.469317463815832e+000	 3.241619388954234e+000	 1.041272104115163e+001
 2.435782159448731e+000	 3.266893060950813e+000	 1.037468554303067e+001
 2.402013515804821e+000	 3.291801341194877e+000	 1.033666162897891e+001
 2.368017468045067e+000	 3.316341096910215e+000	 1.029990581425827e+001
 2.333800004977147e+000	 3.340509322963826e+000	 1.026567389517234e+001
 2.299367165651117e+000	 3.364303142937474e+000	 1.023521822867910e+001
 2.264725035932409e+000	 3.387719810091239e+000	 1.020978502401189e+001
 2.229879745056114e+000	 3.410756708218677e+000	 1.019061165319489e+001
 2.584222318221571e+000	 3.183048069043826e+000	 1.053050862421091e+001
 2.551220827099967e+000	 3.209559516701404e+000	 1.047892452808906e+001
 2.517967008135234e+000	 3.235713545086438e+000	 1.043108089503328e+001
 2.484466650709074e+000	 3.261506624469885e+000	 1.039469468594086e+001
 2.450725608278212e+000	 3.286935349669351e+000	 1.036624008840213e+001
 2.416749795041357e+000	 3.311996441449034e+000	 1.033640070942899e+001
 2.382545182571506e+000	 3.336686747813235e+000	 1.030643939080347e+001
 2.348117796417489e+000	 3.361003245192557e+000	 1.027761973773973e+001
 2.313473712678746e+000	 3.384943039522027e+000	 1.025120335551968e+001
 2.278619054557308e+000	 3.408503367210559e+000	 1.022844709630465e+001
 2.243559988890935e+000	 3.431681596001361e+000	 1.021060032314463e+001
 2.599979771381846e+000	 3.202456898731905e+000	 1.050077777668516e+001
 2.566777051655214e+000	 3.229130001558612e+000	 1.045824124208033e+001
 2.533320465501168e+000	 3.255443505726912e+000	 1.041824893749793e+001
 2.499615837602515e+000	 3.281393859985023e+000	 1.038132635927556e+001
 2.465669057107791e+000	 3.306977638387247e+000	 1.036175661934974e+001
 2.431486074277891e+000	 3.332191541702438e+000	 1.033941390420301e+001
 2.397072897097844e+000	 3.357032398715414e+000	 1.031556809903598e+001
 2.362435587857628e+000	 3.381497167420379e+000	 1.029149133041574e+001
 2.327580259706072e+000	 3.405582936105621e+000	 1.026845515892576e+001
 2.292513073181805e+000	 3.429286924328888e+000	 1.024772778017022e+001
 2.257240232725254e+000	 3.452606483783046e+000	 1.023057124129038e+001
 2.615737224542619e+000	 3.221865728419981e+000	 1.047910459468728e+001
 2.582333276210860e+000	 3.248700486415626e+000	 1.044504325797430e+001
 2.548673922867399e+000	 3.275173466367023e+000	 1.041234264486470e+001
 2.514765024496154e+000	 3.301281095499650e+000	 1.038130082690817e+001
 2.480612505937467e+000	 3.327019927104500e+000	 1.036140476992517e+001
 2.446222353514423e+000	 3.352386641955090e+000	 1.034587627366219e+001
 2.411600611624079e+000	 3.377378049616752e+000	 1.032747209285397e+001
 2.376753379297564e+000	 3.401991089647289e+000	 1.030747358876168e+001
 2.341686806733097e+000	 3.426222832688254e+000	 1.028716298537613e+001
 2.306407091805899e+000	 3.450070481446227e+000	 1.026782052361171e+001
 2.270920476559069e+000	 3.473531371563730e+000	 1.025072162933828e+001
 2.631494677703891e+000	 3.241274558108055e+000	 1.046540904866033e+001
 2.597889500766904e+000	 3.268270971272449e+000	 1.043926038538428e+001
 2.564027380233929e+000	 3.294903427006771e+000	 1.041330143260509e+001
 2.529914211389991e+000	 3.321168331013764e+000	 1.038780594588741e+001
 2.495555954767242e+000	 3.347062215821112e+000	 1.036535474828744e+001
 2.460958632750953e+000	 3.372581742206992e+000	 1.035596324036933e+001
 2.426128326150212e+000	 3.397723700517249e+000	 1.034233168277052e+001
 2.391071170737299e+000	 3.422485011873289e+000	 1.032575138576892e+001
 2.355793353759818e+000	 3.446862729269924e+000	 1.030751594607446e+001
 2.320301110429590e+000	 3.470854038562576e+000	 1.028891835320501e+001
 2.284600720392382e+000	 3.494456259343415e+000	 1.027124810803755e+001
 2.647252130865662e+000	 3.260683387796125e+000	 1.045961254803191e+001
 2.613445725323347e+000	 3.287841456129079e+000	 1.044082364366694e+001
 2.579380837600759e+000	 3.314633387646157e+000	 1.042106570246265e+001
 2.545063398284027e+000	 3.341055566527366e+000	 1.040058837560438e+001
 2.510499403597115e+000	 3.367104504537082e+000	 1.037964430726007e+001
 2.475694911987481e+000	 3.392776842458142e+000	 1.036985057830894e+001
 2.440656040676242e+000	 3.418069351416904e+000	 1.036032733125252e+001
 2.405388962176831e+000	 3.442978934098378e+000	 1.034650955312584e+001
 2.369899900786238e+000	 3.467502625850638e+000	 1.032970292395145e+001
 2.334195129052880e+000	 3.491637595677935e+000	 1.031121388664136e+001
 2.298280964225193e+000	 3.515381147122099e+000	 1.029234671506609e+001
 2.663009584027932e+000	 3.280092217484194e+000	 1.046163789864055e+001
 2.629001949880189e+000	 3.307411940985516e+000	 1.044966522613111e+001
 2.594734294967886e+000	 3.334363348285180e+000	 1.043557681327339e+001
 2.560212585178261e+000	 3.360942802040456e+000	 1.041959841434636e+001
 2.525442852427085e+000	 3.387146793252410e+000	 1.040195994190587e+001
 2.490431191224007e+000	 3.412971942708540e+000	 1.038771440249022e+001
 2.455183755202171e+000	 3.438415002315720e+000	 1.038163964822498e+001
 2.419706753616161e+000	 3.463472856322557e+000	 1.036993288243987e+001
 2.384006447812355e+000	 3.488142522430389e+000	 1.035391258041864e+001
 2.348089147675766e+000	 3.512421152792304e+000	 1.033489934482459e+001
 2.311961208057501e+000	 3.536306034899784e+000	 1.031421292228117e+001
 2.678767037190700e+000	 3.299501047172260e+000	 1.047140926166484e+001
 2.644558174437429e+000	 3.326982425841761e+000	 1.046571846550966e+001
 2.610087752335312e+000	 3.354093308923843e+000	 1.045677705281592e+001
 2.575361772072694e+000	 3.380830037553033e+000	 1.044478708438721e+001
 2.540386301257157e+000	 3.407189081967098e+000	 1.042995593569086e+001
 2.505167470460533e+000	 3.433167042958189e+000	 1.041249614419114e+001
 2.469711469727998e+000	 3.458760653213694e+000	 1.040644938673408e+001
 2.434024545055289e+000	 3.483966778545826e+000	 1.039620612641630e+001
 2.398112994838169e+000	 3.508782419009181e+000	 1.038033336188349e+001
 2.361983166298250e+000	 3.533204709905684e+000	 1.036016656354107e+001
 2.325641451889307e+000	 3.557230922676468e+000	 1.033704165236113e+001
 2.188839013548634e+000	 3.347982044864625e+000	 1.012855750672875e+001
 2.154441680648210e+000	 3.370219732398643e+000	 1.012070981898398e+001
 2.119857072723086e+000	 3.392079891627955e+000	 1.010811467617178e+001
 2.085091313495474e+000	 3.413560342859974e+000	 1.009163463957724e+001
 2.050150555623710e+000	 3.434659036824271e+000	 1.007212815592069e+001
 2.015040977286106e+000	 3.455374054979496e+000	 1.005044735562601e+001
 1.979768778769484e+000	 3.475703609714792e+000	 1.002743588522180e+001
 1.944340179066090e+000	 3.495646044446416e+000	 1.000392677929014e+001
 1.908761412482587e+000	 3.515199833610370e+000	 9.980740377192831e+000
 1.873038725264741e+000	 3.534363582552064e+000	 9.958908911828065e+000
 1.837178372241353e+000	 3.553136027314097e+000	 9.937919452232885e+000
 2.202519257384963e+000	 3.368906932650309e+000	 1.014978905429483e+001
 2.167906941154782e+000	 3.391283605731326e+000	 1.013765478224340e+001
 2.133106179430840e+000	 3.413280390955621e+000	 1.012107257830102e+001
 2.098123134208612e+000	 3.434895095007524e+000	 1.010094325883295e+001
 2.062963996600547e+000	 3.456125655808669e+000	 1.007816301594443e+001
 2.027634983398576e+000	 3.476970142826822e+000	 1.005362115474946e+001
 1.992142333641311e+000	 3.497426757278562e+000	 1.002819786615755e+001
 1.956492305189702e+000	 3.517493832226492e+000	 1.000276204071888e+001
 1.920691171314830e+000	 3.537169832571846e+000	 9.978169128878731e+000
 1.884745217301497e+000	 3.556453354943440e+000	 9.955259052786005e+000
 1.848660737071182e+000	 3.575343127484140e+000	 9.934943218476136e+000
 2.216199501220790e+000	 3.389831820434993e+000	 1.017040739023007e+001
 2.181372201660762e+000	 3.412347479063020e+000	 1.015399365397974e+001
 2.146355286137931e+000	 3.434480890282324e+000	 1.013342453687061e+001
 2.111154954921036e+000	 3.456229847154164e+000	 1.010963954753598e+001
 2.075777437576643e+000	 3.477592274792229e+000	 1.008357306343674e+001
 2.040228989510295e+000	 3.498566230673402e+000	 1.005615200633086e+001
 2.004515888512400e+000	 3.519149904841695e+000	 1.002829355465260e+001
 1.968644431312608e+000	 3.539341620006065e+000	 1.000090289846894e+001
 1.932620930146416e+000	 3.559139831532969e+000	 9.974871042485745e+000
 1.896451709337664e+000	 3.578543127334634e+000	 9.951072662365936e+000
 1.860143101900514e+000	 3.597550227654190e+000	 9.930821570772514e+000
 2.229879745056114e+000	 3.410756708218677e+000	 1.019061165319489e+001
 2.194837462166150e+000	 3.433411352393724e+000	 1.016991774612688e+001
 2.159604392844361e+000	 3.455681389608071e+000	 1.014535407892114e+001
 2.124186775632751e+000	 3.477564599299897e+000	 1.011789929576663e+001
 2.088590878552000e+000	 3.499058893774952e+000	 1.008852640549254e+001
 2.052822995621267e+000	 3.520162318519236e+000	 1.005820039443272e+001
 2.016889443382751e+000	 3.540873052404194e+000	 1.002787587759659e+001
 1.980796557434805e+000	 3.561189407785133e+000	 9.998494793944271e+000
 1.944550688977346e+000	 3.581109830493739e+000	 9.970984151361801e+000
 1.908158201373246e+000	 3.600632899725644e+000	 9.946253826717332e+000
 1.871625466729350e+000	 3.619757327824249e+000	 9.925416487274704e+000
 2.243559988890935e+000	 3.431681596001361e+000	 1.021060032314463e+001
 2.208302722670944e+000	 3.454475225723438e+000	 1.018561781089408e+001
 2.172853499550128e+000	 3.476881888932858e+000	 1.015704426869577e+001
 2.137218596343753e+000	 3.498899351444720e+000	 1.012589792564207e+001
 2.101404319526616e+000	 3.520525512756837e+000	 1.009319087394860e+001
 2.065417001731487e+000	 3.541758406364323e+000	 1.005992661839921e+001
 2.029262998252363e+000	 3.562596199966057e+000	 1.002709766550127e+001
 1.992948683556296e+000	 3.583037195563699e+000	 9.995683158279721e+000
 1.956480447807618e+000	 3.603079829454155e+000	 9.966646562431906e+000
 1.919864693408242e+000	 3.622722672116473e+000	 9.940933409343197e+000
 1.883107831557690e+000	 3.641964427994314e+000	 9.919469101224905e+000
 2.257240232725254e+000	 3.452606483783046e+000	 1.023057124129038e+001
 2.221767983175147e+000	 3.475539099052162e+000	 1.020128405772744e+001
 2.186102606255234e+000	 3.498082388256686e+000	 1.016867772166392e+001
 2.150250417054045e+000	 3.520234103588635e+000	 1.013381050246661e+001
 2.114217760500491e+000	 3.541992131737884e+000	 1.009773403372456e+001
 2.078011007840959e+000	 3.563354494208663e+000	 1.006149079845356e+001
 2.041636553121236e+000	 3.584319347527285e+000	 1.002611165542097e+001
 2.005100809677078e+000	 3.604884983341758e+000	 9.992613412652172e+000
 1.968410206637234e+000	 3.625049828414220e+000	 9.961996453968276e+000
 1.931571185442651e+000	 3.644812444507119e+000	 9.935242424176842e+000
 1.894590196385535e+000	 3.664171528164389e+000	 9.913311978291882e+000
 2.270920476559069e+000	 3.473531371563730e+000	 1.025072162933828e+001
 2.235233243678757e+000	 3.496602972379897e+000	 1.021710616965810e+001
 2.199351712959677e+000	 3.519282887579554e+000	 1.018043661803885e+001
 2.163282237763625e+000	 3.541568855731642e+000	 1.014181174547917e+001
 2.127031201473626e+000	 3.563458750718094e+000	 1.010232319086269e+001
 2.090605013949681e+000	 3.584950582052259e+000	 1.006305288109330e+001
 2.054010107989371e+000	 3.606042495087878e+000	 1.002507049376762e+001
 2.017252935797153e+000	 3.626732771119316e+000	 9.989430968580354e+000
 1.980339965466192e+000	 3.647019827373930e+000	 9.957172073441567e+000
 1.943277677476475e+000	 3.666902216897582e+000	 9.929312031050738e+000
 1.906072561212882e+000	 3.686378628334472e+000	 9.906847211421239e+000
 2.284600720392382e+000	 3.494456259343415e+000	 1.027124810803755e+001
 2.248698504181774e+000	 3.517666845706641e+000	 1.023327331906323e+001
 2.212600819663458e+000	 3.540483386901463e+000	 1.019250271580911e+001
 2.176314058472493e+000	 3.562903607873740e+000	 1.015007603821451e+001
 2.139844642446020e+000	 3.584925369697467e+000	 1.010712540027871e+001
 2.103199020057654e+000	 3.606546669895108e+000	 1.006477264429161e+001
 2.066383662856767e+000	 3.627765642647836e+000	 1.002412673902458e+001
 2.029405061916520e+000	 3.648580558896368e+000	 9.986281228214176e+000
 1.992269724294494e+000	 3.668989826333287e+000	 9.952311735448880e+000
 1.954984169509711e+000	 3.688991989287863e+000	 9.923273531328329e+000
 1.917554926039734e+000	 3.708585728504561e+000	 9.900199168507836e+000
 2.298280964225193e+000	 3.515381147122099e+000	 1.029234671506609e+001
 2.262163764684199e+000	 3.538730719032396e+000	 1.024997418286396e+001
 2.225849926366577e+000	 3.561683886222412e+000	 1.020505736330484e+001
 2.189345879180651e+000	 3.584238360014931e+000	 1.015877743849430e+001
 2.152658083417674e+000	 3.606391988676003e+000	 1.011230747323573e+001
 2.115793026164877e+000	 3.628142757737210e+000	 1.006680970251299e+001
 2.078757217723425e+000	 3.649488790207160e+000	 1.002343286436360e+001
 2.041557188035180e+000	 3.670428346672918e+000	 9.983309584613513e+000
 2.004199483122139e+000	 3.690959825292292e+000	 9.947553819716084e+000
 1.966690661542362e+000	 3.711081761677962e+000	 9.917258363691794e+000
 1.929037290866090e+000	 3.730792828674659e+000	 9.893492424902144e+000
 2.311961208057501e+000	 3.536306034899784e+000	 1.031421292228117e+001
 2.275629025186031e+000	 3.559794592357162e+000	 1.026739695718400e+001
 2.239099033069035e+000	 3.582884385542403e+000	 1.021828151131783e+001
 2.202377699888097e+000	 3.605573112155213e+000	 1.016808968806380e+001
 2.165471524388587e+000	 3.627858607653701e+000	 1.011803598455293e+001
 2.128387032271351e+000	 3.649738845578567e+000	 1.006932351155062e+001
 2.091130772589344e+000	 3.671211937765847e+000	 1.002314126016878e+001
 2.053709314153131e+000	 3.692276134448962e+000	 9.980661422017166e+000
 2.016129241949128e+000	 3.712929824250944e+000	 9.943036769170860e+000
 1.978397153574426e+000	 3.733171534067878e+000	 9.911398100079428e+000
 1.940519655691950e+000	 3.752999928844765e+000	 9.890727096242797e+000
 2.325641451889307e+000	 3.557230922676468e+000	 1.033704165236113e+001
 2.289094285687273e+000	 3.580858465680938e+000	 1.028572937149061e+001
 2.252348139770831e+000	 3.604084884861436e+000	 1.023235572479377e+001
 2.215409520594833e+000	 3.626907864294587e+000	 1.017818622188806e+001
 2.178284965358760e+000	 3.649325226630563e+000	 1.012447727955988e+001
 2.140981038377075e+000	 3.671334933419178e+000	 1.007247337319341e+001
 2.103504327454525e+000	 3.692935085323902e+000	 1.002340423647149e+001
 2.065861440270377e+000	 3.714123922224504e+000	 9.978482116102114e+000
 2.028059000775460e+000	 3.734899823209243e+000	 9.938899088083836e+000
 1.990103645605905e+000	 3.755261306457614e+000	 9.915078185786127e+000
 1.952002020517314e+000	 3.775207029014879e+000	 9.915963166531562e+000
 1.837178372241353e+000	 3.553136027314097e+000	 9.937919452232885e+000
 1.801186613490626e+000	 3.571516034323234e+000	 9.865191358565587e+000
 1.765069711033149e+000	 3.589502599978649e+000	 9.798045706421577e+000
 1.728833925554609e+000	 3.607094850142331e+000	 9.736040126122676e+000
 1.692485513160644e+000	 3.624292039533032e+000	 9.678735446473763e+000
 1.656030722167824e+000	 3.641093551026176e+000	 9.625696939263614e+000
 1.619475789933607e+000	 3.657498894861323e+000	 9.576495534803826e+000
 1.582826939728251e+000	 3.673507707759193e+000	 9.530709005666864e+000
 1.546090377651534e+000	 3.689119751950341e+000	 9.487923115932578e+000
 1.509272289597059e+000	 3.704334914117636e+000	 9.447732733404386e+000
 1.472378838266780e+000	 3.719153204254850e+000	 9.409742902416401e+000
 1.848660737071182e+000	 3.575343127484140e+000	 9.934943218476136e+000
 1.812444029827717e+000	 3.593838009536003e+000	 9.868726319662207e+000
 1.776101396729454e+000	 3.611936991225818e+000	 9.808050449214417e+000
 1.739639137591368e+000	 3.629639192952213e+000	 9.752451792642013e+000
 1.703063547619757e+000	 3.646943864775932e+000	 9.701469899122806e+000
 1.666380914183164e+000	 3.663850385715369e+000	 9.654648962157502e+000
 1.629597513622535e+000	 3.680358262949078e+000	 9.611539070443843e+000
 1.592719608103564e+000	 3.696467130927287e+000	 9.571697426061771e+000
 1.555753442514154e+000	 3.712176750394490e+000	 9.534689527211732e+000
 1.518705241409741e+000	 3.727487007325320e+000	 9.500090312904806e+000
 1.481581206009164e+000	 3.742397911776015e+000	 9.467485267165678e+000
 1.860143101900514e+000	 3.597550227654190e+000	 9.930821570772514e+000
 1.823701446164401e+000	 3.616159984748968e+000	 9.871219641164290e+000
 1.787133082425423e+000	 3.634371382473355e+000	 9.817117659488739e+000
 1.750444349627840e+000	 3.652183535762612e+000	 9.768030068610104e+000
 1.713641582078610e+000	 3.669595690019477e+000	 9.723474842036747e+000
 1.676731106198254e+000	 3.686607220405314e+000	 9.682974801211943e+000
 1.639719237311201e+000	 3.703217631037676e+000	 9.646058902195986e+000
 1.602612276478584e+000	 3.719426554096293e+000	 9.612263488760204e+000
 1.565416507376429e+000	 3.735233748839598e+000	 9.581133509066358e+000
 1.528138193222007e+000	 3.750639100533996e+000	 9.550820544453291e+000
 1.490783573751044e+000	 3.765642619298180e+000	 9.487937470523635e+000
 1.871625466729350e+000	 3.619757327824249e+000	 9.925416487274704e+000
 1.834958862500679e+000	 3.638481959962132e+000	 9.872537715895927e+000
 1.798164768121055e+000	 3.656805773721259e+000	 9.825118182005031e+000
 1.761249561664024e+000	 3.674727878573526e+000	 9.782650284212592e+000
 1.724219616537203e+000	 3.692247515263667e+000	 9.744630120544054e+000
 1.687081298213093e+000	 3.709364055096013e+000	 9.710558842854882e+000
 1.649840960999605e+000	 3.726076999127117e+000	 9.679943979798310e+000
 1.612504944853311e+000	 3.742385977266211e+000	 9.652300725293957e+000
 1.575079572238360e+000	 3.758290747285667e+000	 9.611046605356936e+000
 1.537571145033858e+000	 3.773791193743661e+000	 9.552788835440619e+000
 1.499985941492418e+000	 3.788887326821345e+000	 9.491383801100835e+000
 1.883107831557690e+000	 3.641964427994314e+000	 9.919469101224905e+000
 1.846216278836551e+000	 3.660803935175493e+000	 9.872547134588913e+000
 1.809196453816351e+000	 3.679240164969528e+000	 9.831923022735786e+000
 1.772054773699920e+000	 3.697272221384957e+000	 9.796187893931686e+000
 1.734797650995538e+000	 3.714899340508502e+000	 9.764815667152721e+000
 1.697431490227682e+000	 3.732120889787467e+000	 9.737285523393334e+000
 1.659962684687746e+000	 3.748936367217401e+000	 9.713083265401826e+000
 1.622397613227745e+000	 3.765345400437040e+000	 9.666427981392300e+000
 1.584742637099947e+000	 3.781347745732699e+000	 9.613406087850358e+000
 1.547004096845295e+000	 3.796943286954317e+000	 9.556372098051368e+000
 1.509188309233287e+000	 3.812132034345510e+000	 9.496184776367935e+000
 1.894590196385535e+000	 3.664171528164389e+000	 9.913311978291882e+000
 1.857473695172016e+000	 3.683125910389052e+000	 9.871114679885706e+000
 1.820228139511309e+000	 3.701674556218166e+000	 9.837403343980173e+000
 1.782859985735529e+000	 3.719816564196905e+000	 9.808518472779461e+000
 1.745375685453613e+000	 3.737551165753983e+000	 9.783911498908362e+000
 1.707781682242020e+000	 3.754877724479676e+000	 9.758106601313017e+000
 1.670084408375627e+000	 3.771795735308528e+000	 9.716861983213647e+000
 1.632290281601885e+000	 3.788304823608780e+000	 9.669755637397273e+000
 1.594405701961191e+000	 3.804404744180690e+000	 9.617714293403854e+000
 1.556437048656317e+000	 3.820095380165963e+000	 9.561640023263996e+000
 1.518390676973651e+000	 3.835376741870674e+000	 9.502408808244727e+000
 1.906072561212882e+000	 3.686378628334472e+000	 9.906847211421239e+000
 1.868731111507075e+000	 3.705447885602808e+000	 9.868107320558893e+000
 1.831259825205930e+000	 3.724108947467171e+000	 9.841430459655530e+000
 1.793665197770849e+000	 3.742360907009368e+000	 9.819517712667514e+000
 1.755953719911430e+000	 3.760202991000109e+000	 9.795719238692739e+000
 1.718131874256107e+000	 3.777634559172637e+000	 9.762166176609002e+000
 1.680206132063246e+000	 3.794655103400498e+000	 9.721726932076738e+000
 1.642182949975733e+000	 3.811264246781434e+000	 9.675370476738149e+000
 1.604068766822089e+000	 3.827461742629643e+000	 9.624042168093599e+000
 1.565870000466923e+000	 3.843247473378598e+000	 9.568662207257079e+000
 1.527593044713509e+000	 3.858621449396840e+000	 9.510124178160645e+000
 1.917554926039734e+000	 3.708585728504561e+000	 9.900199168507836e+000
 1.879988527841727e+000	 3.727769860816763e+000	 9.863892266760331e+000
 1.842291510900214e+000	 3.746543338716541e+000	 9.843875830757744e+000
 1.804470409805881e+000	 3.764905249822348e+000	 9.827049224836017e+000
 1.766531754368986e+000	 3.782854816246879e+000	 9.802073953975752e+000
 1.728482066269945e+000	 3.800391393866355e+000	 9.769127918911819e+000
 1.690327855750602e+000	 3.817514471493310e+000	 9.729222041825299e+000
 1.652075618349288e+000	 3.834223669954998e+000	 9.683344805445243e+000
 1.613731831682643e+000	 3.850518741079555e+000	 9.632460600570488e+000
 1.575302952277115e+000	 3.866399566592225e+000	 9.577508154247649e+000
 1.536795412452863e+000	 3.881866156924004e+000	 9.519399040961602e+000
 1.929037290866090e+000	 3.730792828674659e+000	 9.893492424902144e+000
 1.891245944175973e+000	 3.750091836030914e+000	 9.859632409164538e+000
 1.853323196594162e+000	 3.768977729966281e+000	 9.851663511852346e+000
 1.815275621840626e+000	 3.787449592635845e+000	 9.836230188496574e+000
 1.777109788826284e+000	 3.805506641494296e+000	 9.811680574549625e+000
 1.738832258283531e+000	 3.823148228560824e+000	 9.779067103211743e+000
 1.700449579437697e+000	 3.840373839586965e+000	 9.739421077620893e+000
 1.661968286722549e+000	 3.857183093129475e+000	 9.693750907241824e+000
 1.623394896542854e+000	 3.873575739530430e+000	 9.643040423769012e+000
 1.584735904086892e+000	 3.889551659806843e+000	 9.588247279228209e+000
 1.545997780191711e+000	 3.905110864452169e+000	 9.530301428677431e+000
 1.940519655691950e+000	 3.752999928844765e+000	 9.890727096242797e+000
 1.902503360509814e+000	 3.772413811245263e+000	 9.875359409780284e+000
 1.864354882287772e+000	 3.791412121216387e+000	 9.864186987391040e+000
 1.826080833875083e+000	 3.809993935449858e+000	 9.849016522165396e+000
 1.787687823283323e+000	 3.828158466742356e+000	 9.824615986191692e+000
 1.749182450296868e+000	 3.845905063256049e+000	 9.792059047344514e+000
 1.710571303124530e+000	 3.863233207681463e+000	 9.752397815287701e+000
 1.671860955095518e+000	 3.880142516304862e+000	 9.706661044204306e+000
 1.633057961402721e+000	 3.896632737982265e+000	 9.655852416555927e+000
 1.594168855896254e+000	 3.912703753022449e+000	 9.600948910606416e+000
 1.555200147930054e+000	 3.928355571981333e+000	 9.542899254155467e+000
 1.952002020517314e+000	 3.775207029014879e+000	 9.915963166531562e+000
 1.913760776843248e+000	 3.794735786459811e+000	 9.896561522535867e+000
 1.875386567981046e+000	 3.813846512466861e+000	 9.880711704144634e+000
 1.836886045909252e+000	 3.832538278264387e+000	 9.865486806730223e+000
 1.798265857740103e+000	 3.850810291991064e+000	 9.840957147362865e+000
 1.759532642309953e+000	 3.868661897952027e+000	 9.808179110731228e+000
 1.720693026811101e+000	 3.886092575776806e+000	 9.768226040998975e+000
 1.681753623468193e+000	 3.903101939481164e+000	 9.722147457398704e+000
 1.642721026262243e+000	 3.919689736435062e+000	 9.670967305320193e+000
 1.603601807705202e+000	 3.935855846239047e+000	 9.615682292751801e+000
 1.564402515667893e+000	 3.951600279511499e+000	 9.557260314565902e+000
 1.472378838266780e+000	 3.719153204254850e+000	 9.409742902416401e+000
 1.435416160238980e+000	 3.733574754443465e+000	 9.388486064126539e+000
 1.398390363090334e+000	 3.747599817550745e+000	 9.376226079092458e+000
 1.361307522575099e+000	 3.761228765851378e+000	 9.341261466407870e+000
 1.324173679865361e+000	 3.774462089574614e+000	 9.307173493070783e+000
 1.286994838852475e+000	 3.787300395380251e+000	 9.281073691126942e+000
 1.249776963512203e+000	 3.799744404765943e+000	 9.263584958140539e+000
 1.212525975335377e+000	 3.811794952408592e+000	 9.249203651560020e+000
 1.175247750825765e+000	 3.823452984442649e+000	 9.228004009246652e+000
 1.137948119066728e+000	 3.834719556678107e+000	 9.201420472283459e+000
 1.100632859358089e+000	 3.845595832761096e+000	 9.170793070676949e+000
 1.481581206009164e+000	 3.742397911776015e+000	 9.467485267165678e+000
 1.444387511244183e+000	 3.756909596653516e+000	 9.434609698372944e+000
 1.407130302863686e+000	 3.771022316405464e+000	 9.388699202492902e+000
 1.369815694595395e+000	 3.784736445633263e+000	 9.348780385681058e+000
 1.332449765368725e+000	 3.798052477630096e+000	 9.315552666447017e+000
 1.295038556599349e+000	 3.810971022847385e+000	 9.289679408306775e+000
 1.257588069537881e+000	 3.823492807292140e+000	 9.271787169521952e+000
 1.220104262684472e+000	 3.835618670858000e+000	 9.259751238762851e+000
 1.182593049271040e+000	 3.847349565592752e+000	 9.241682602967014e+000
 1.145060294812716e+000	 3.858686553905200e+000	 9.218054146869791e+000
 1.107511814729950e+000	 3.869630806714263e+000	 9.190251155759139e+000
 1.490783573751044e+000	 3.765642619298180e+000	 9.487937470523635e+000
 1.453358862248797e+000	 3.780244438864562e+000	 9.439392730354118e+000
 1.415870242636395e+000	 3.794444815261164e+000	 9.395425147205438e+000
 1.378323866615026e+000	 3.808244125416103e+000	 9.356789000427586e+000
 1.340725850871429e+000	 3.821642865686497e+000	 9.324203318793055e+000
 1.303082274345601e+000	 3.834641650315390e+000	 9.298351010695587e+000
 1.265399175563005e+000	 3.847241209819155e+000	 9.279878083580773e+000
 1.227682550033110e+000	 3.859442389308159e+000	 9.268815273116740e+000
 1.189938347715984e+000	 3.871246146743527e+000	 9.253452216797262e+000
 1.152172470558531e+000	 3.882653551132882e+000	 9.232378994469428e+000
 1.114390770101823e+000	 3.893665780667925e+000	 9.207026850254783e+000
 1.499985941492418e+000	 3.788887326821345e+000	 9.491383801100835e+000
 1.462330213252820e+000	 3.803579281076603e+000	 9.445206212231261e+000
 1.424610182408461e+000	 3.817867314117842e+000	 9.402937571915984e+000
 1.386832038633989e+000	 3.831751805199896e+000	 9.365352095985704e+000
 1.349001936373474e+000	 3.845233253743816e+000	 9.333188700862555e+000
 1.311125992091232e+000	 3.858312277784268e+000	 9.307150102081863e+000
 1.273210281587576e+000	 3.870989612346985e+000	 9.287902003212432e+000
 1.235260837381292e+000	 3.883266107759067e+000	 9.276571166031806e+000
 1.197283646160599e+000	 3.895142727894979e+000	 9.263480386134548e+000
 1.159284646304173e+000	 3.906620548361152e+000	 9.244554687369149e+000
 1.121269725473710e+000	 3.917700754622081e+000	 9.221271984016555e+000
 1.509188309233287e+000	 3.812132034345510e+000	 9.496184776367935e+000
 1.471301564256254e+000	 3.826914123289639e+000	 9.452117473058916e+000
 1.433350122179882e+000	 3.841289812975499e+000	 9.411302470884879e+000
 1.395340210652287e+000	 3.855259484984642e+000	 9.374534217368490e+000
 1.357278021874860e+000	 3.868823641802051e+000	 9.342571796911821e+000
 1.319169709836242e+000	 3.881982905254017e+000	 9.316137997406971e+000
 1.281021387611593e+000	 3.894738014875633e+000	 9.295918468439863e+000
 1.242839124729018e+000	 3.907089826210725e+000	 9.283194006772003e+000
 1.204628944604885e+000	 3.919039309047104e+000	 9.271934313242396e+000
 1.166396822049642e+000	 3.930587545590012e+000	 9.254740557480124e+000
 1.128148680845609e+000	 3.941735728576730e+000	 9.233138043000912e+000
 1.518390676973651e+000	 3.835376741870674e+000	 9.502408808244727e+000
 1.480272915259099e+000	 3.850248965503670e+000	 9.460193670778255e+000
 1.442090061950661e+000	 3.864712311834137e+000	 9.420585634428967e+000
 1.403848382669918e+000	 3.878767164770343e+000	 9.384399676546400e+000
 1.365554107375587e+000	 3.892414029861205e+000	 9.352415332775543e+000
 1.327213427580630e+000	 3.905653532724638e+000	 9.325375731518061e+000
 1.288832493635056e+000	 3.918486417405096e+000	 9.303986721210153e+000
 1.250417412076288e+000	 3.930913544663135e+000	 9.288916090643594e+000
 1.211974243048843e+000	 3.942935890199906e+000	 9.278980877345530e+000
 1.173508997794938e+000	 3.954554542819460e+000	 9.263095606652415e+000
 1.135027636217520e+000	 3.965770702531872e+000	 9.242776179689431e+000
 1.527593044713509e+000	 3.858621449396840e+000	 9.510124178160645e+000
 1.489244266261353e+000	 3.873583807718694e+000	 9.469501797370967e+000
 1.450830001720796e+000	 3.888134810693752e+000	 9.430852655064349e+000
 1.412356554686882e+000	 3.902274844556997e+000	 9.395012559466716e+000
 1.373830192875655e+000	 3.916004417921276e+000	 9.362781783650584e+000
 1.335257145324396e+000	 3.929324160196132e+000	 9.334924067604652e+000
 1.296643599657965e+000	 3.942234819935373e+000	 9.312165714372753e+000
 1.257995699423101e+000	 3.954737263116293e+000	 9.295194780524939e+000
 1.219319541492470e+000	 3.966832471353379e+000	 9.284786644360073e+000
 1.180621173540061e+000	 3.978521540049497e+000	 9.269778516616476e+000
 1.141906591589444e+000	 3.989805676487508e+000	 9.250337223133194e+000
 1.536795412452863e+000	 3.881866156924004e+000	 9.519399040961602e+000
 1.498215617263019e+000	 3.896918649934715e+000	 9.480108683828233e+000
 1.459569941490289e+000	 3.911557309554347e+000	 9.442168933428514e+000
 1.420864726703181e+000	 3.925782524344604e+000	 9.406436732820660e+000
 1.382106278375064e+000	 3.939594805982265e+000	 9.373733381600099e+000
 1.343300863067541e+000	 3.952994787668497e+000	 9.344843505332106e+000
 1.304454705680320e+000	 3.965983222466468e+000	 9.320514120335066e+000
 1.265573986769458e+000	 3.978560981570202e+000	 9.301453794113899e+000
 1.226664839935768e+000	 3.990729052507527e+000	 9.289517876273926e+000
 1.187733349285011e+000	 4.002488537280124e+000	 9.274947658567607e+000
 1.148785546961380e+000	 4.013840650443639e+000	 9.255971688636260e+000
 1.545997780191711e+000	 3.905110864452169e+000	 9.530301428677431e+000
 1.507186968264094e+000	 3.920253492151730e+000	 9.492081004942028e+000
 1.468309881259137e+000	 3.934979808415923e+000	 9.454599683991093e+000
 1.429372898718812e+000	 3.949290204133165e+000	 9.418735850568790e+000
 1.390382363873814e+000	 3.963185194044173e+000	 9.385332122789638e+000
 1.351344580810065e+000	 3.976665415141734e+000	 9.355194288684620e+000
 1.312265811702122e+000	 3.989731624998379e+000	 9.329090339408893e+000
 1.273152274115359e+000	 4.002384700024861e+000	 9.307749599446638e+000
 1.234010138378737e+000	 4.014625633662349e+000	 9.293340540192419e+000
 1.194845525029788e+000	 4.026455534511339e+000	 9.278761102408144e+000
 1.155664502333329e+000	 4.037875624400262e+000	 9.259829787093461e+000
 1.555200147930054e+000	 3.928355571981333e+000	 9.542899254155467e+000
 1.516158319264580e+000	 3.943588334369741e+000	 9.505485283926445e+000
 1.477049821027342e+000	 3.958402307278478e+000	 9.468209940561774e+000
 1.437881070733778e+000	 3.972797883922680e+000	 9.431973360235013e+000
 1.398658449371905e+000	 3.986775582106998e+000	 9.397639774466352e+000
 1.359388298551968e+000	 4.000336042615841e+000	 9.366036413529724e+000
 1.320076917723369e+000	 4.013480027531105e+000	 9.337952507860795e+000
 1.280730561460803e+000	 4.026208418480270e+000	 9.314138387839176e+000
 1.241355436821376e+000	 4.038522214817848e+000	 9.296420317062418e+000
 1.201957700774393e+000	 4.050422531743143e+000	 9.281376625661356e+000
 1.162543457705291e+000	 4.061910598357380e+000	 9.262061433996539e+000
 1.564402515667893e+000	 3.951600279511499e+000	 9.557260314565902e+000
 1.525129670264477e+000	 3.966923176588746e+000	 9.520387896875835e+000
 1.485789760794904e+000	 3.981824806142011e+000	 9.483064561603786e+000
 1.446389242748077e+000	 3.996305563713150e+000	 9.446212508978016e+000
 1.406934534869337e+000	 4.010365970170742e+000	 9.410717881691998e+000
 1.367432016293249e+000	 4.024006670090824e+000	 9.377429634915799e+000
 1.327888023744064e+000	 4.037228430064649e+000	 9.347158505677855e+000
 1.288308848805791e+000	 4.050032136936430e+000	 9.320676082026191e+000
 1.248700735263687e+000	 4.062418795974020e+000	 9.298922610088948e+000
 1.209069876518824e+000	 4.074389528975535e+000	 9.282951722070861e+000
 1.169422413077266e+000	 4.085945572314992e+000	 9.262816258122516e+000
 1.100632859358089e+000	 3.845595832761096e+000	 9.170793070676949e+000
 1.063307698924287e+000	 3.856083082280073e+000	 9.139825707319353e+000
 1.025978310695547e+000	 3.866182678820226e+000	 9.107335854948664e+000
 9.886503111632020e-001	 3.875896097969085e+000	 9.074346983578803e+000
 9.513292583092478e-001	 3.885224915276651e+000	 9.041784318706684e+000
 9.140206496115850e-001	 3.894170804172645e+000	 9.010474467918231e+000
 8.767299201255315e-001	 3.902735533843882e+000	 8.981145274526298e+000
 8.394624406421656e-001	 3.910920967074734e+000	 8.954425893240794e+000
 8.022235159239715e-001	 3.918729058053593e+000	 8.930847082389612e+000
 7.650183830181282e-001	 3.926161850148238e+000	 8.910841706757056e+000
 7.278522096476668e-001	 3.933221473652993e+000	 8.894745444688594e+000
 1.107511814729950e+000	 3.869630806714263e+000	 9.190251155759139e+000
 1.069953372042454e+000	 3.880183601543291e+000	 9.161395978413463e+000
 1.032390675136383e+000	 3.890346320562340e+000	 9.130730083443739e+000
 9.948293756061433e-001	 3.900120448581363e+000	 9.099322991766123e+000
 9.572750661711154e-001	 3.909507570997550e+000	 9.068144206367059e+000
 9.197332786684372e-001	 3.918509371699555e+000	 9.038062801260955e+000
 8.822094821225213e-001	 3.927127630931612e+000	 9.009847242262516e+000
 8.447090808918900e-001	 3.935364223120498e+000	 8.984165434517941e+000
 8.072374128937925e-001	 3.943221114668281e+000	 8.961584991245204e+000
 7.697997479069518e-001	 3.950700361713788e+000	 8.942573717672351e+000
 7.324012859526674e-001	 3.957804107865683e+000	 8.927500303734032e+000
 1.114390770101823e+000	 3.893665780667925e+000	 9.207026850254783e+000
 1.076599045160822e+000	 3.904284120806908e+000	 9.180031350109640e+000
 1.038803039577591e+000	 3.914509962304769e+000	 9.150967260940806e+000
 1.001008440049604e+000	 3.924344799193880e+000	 9.120950668537027e+000
 9.632208740336311e-001	 3.933790226718624e+000	 9.090995823788065e+000
 9.254459077260457e-001	 3.942847939226587e+000	 9.062014693923462e+000
 8.876890441203557e-001	 3.951519728019421e+000	 9.034816750424827e+000
 8.499557211425274e-001	 3.959807479166306e+000	 9.010108988498383e+000
 8.122513098645748e-001	 3.967713171282988e+000	 8.988496172488205e+000
 7.745811127967657e-001	 3.975238873279342e+000	 8.970481301139085e+000
 7.369503622586678e-001	 3.982386742078373e+000	 8.956466286178312e+000
 1.121269725473710e+000	 3.917700754622081e+000	 9.221271984016555e+000
 1.083244718279394e+000	 3.928384640070924e+000	 9.195874105984219e+000
 1.045215404019170e+000	 3.938673604047511e+000	 9.168180108921554e+000
 1.007187504493585e+000	 3.948569149806639e+000	 9.139353165735759e+000
 9.691666818967955e-001	 3.958072882439874e+000	 9.110452753695746e+000
 9.311585367844106e-001	 3.967186506753740e+000	 9.082434167874844e+000
 8.931686061190346e-001	 3.975911825107308e+000	 9.056148276203778e+000
 8.552023613940775e-001	 3.984250735212159e+000	 9.032341510960601e+000
 8.172652068363187e-001	 3.992205227897716e+000	 9.011656091006595e+000
 7.793624776875701e-001	 3.999777384844903e+000	 8.994630468594217e+000
 7.414994385656684e-001	 4.006969376291065e+000	 8.981699994125226e+000
 1.128148680845609e+000	 3.941735728576730e+000	 9.233138043000912e+000
 1.089890391398167e+000	 3.952485159335339e+000	 9.209066228138230e+000
 1.051627768461121e+000	 3.962837245790567e+000	 9.182501094733517e+000
 1.013366568938086e+000	 3.972793500419637e+000	 9.154653433276364e+000
 9.751124897606076e-001	 3.982355538161299e+000	 9.126628433891863e+000
 9.368711658435319e-001	 3.991525074281015e+000	 9.099425161905304e+000
 8.986481681185581e-001	 4.000303922195272e+000	 9.073936280031754e+000
 8.604490016465405e-001	 4.008693991258054e+000	 9.050948011954715e+000
 8.222791038090236e-001	 4.016697284512461e+000	 9.031140341530067e+000
 7.841438425793649e-001	 4.024315896410467e+000	 9.015087441357352e+000
 7.460485148736690e-001	 4.031552010503755e+000	 9.003258324001292e+000
 1.135027636217520e+000	 3.965770702531872e+000	 9.242776179689431e+000
 1.096536064517142e+000	 3.976585678600152e+000	 9.219749406332765e+000
 1.058040132903442e+000	 3.987000887533941e+000	 9.194062439291040e+000
 1.019545633383107e+000	 3.997017851032875e+000	 9.166974225261500e+000
 9.810582976250684e-001	 4.006638193882902e+000	 9.139636161645170e+000
 9.425837949034094e-001	 4.015863641808413e+000	 9.113091534146699e+000
 9.041277301189261e-001	 4.024696019283316e+000	 9.088275206090884e+000
 8.656956418999160e-001	 4.033137247303993e+000	 9.066013554157626e+000
 8.272930007826900e-001	 4.041189341127226e+000	 9.047024644695513e+000
 7.889252074721500e-001	 4.048854407976037e+000	 9.031918644270617e+000
 7.505975911826697e-001	 4.056134644716447e+000	 9.021198457636730e+000
 1.141906591589444e+000	 3.989805676487508e+000	 9.250337223133194e+000
 1.103181737636320e+000	 4.000686197865364e+000	 9.228065046794553e+000
 1.064452497346135e+000	 4.011164529277626e+000	 9.202996124498142e+000
 1.025724697828648e+000	 4.021242201646355e+000	 9.176438105880530e+000
 9.870041054901767e-001	 4.030920849604678e+000	 9.149589097924716e+000
 9.482964239640432e-001	 4.040202209335932e+000	 9.123537064502097e+000
 9.096072921201384e-001	 4.049088116371435e+000	 9.099259482802555e+000
 8.709422821542044e-001	 4.057580503349976e+000	 9.077623251288085e+000
 8.323068977573177e-001	 4.065681397742011e+000	 9.059384843254524e+000
 7.937065723659252e-001	 4.073392919541612e+000	 9.045190699568616e+000
 7.551466674926702e-001	 4.080717278929137e+000	 9.035577853669050e+000
 1.148785546961380e+000	 4.013840650443639e+000	 9.255971688636260e+000
 1.109827410755699e+000	 4.024786717130976e+000	 9.234154280704910e+000
 1.070864861789199e+000	 4.035328171021625e+000	 9.209433900404322e+000
 1.031903762274708e+000	 4.045466552260072e+000	 9.183167455095516e+000
 9.929499133559335e-001	 4.055203505326632e+000	 9.156600271480343e+000
 9.540090530254335e-001	 4.064540776863572e+000	 9.130865456987872e+000
 9.150868541221949e-001	 4.073480213459632e+000	 9.106983523299075e+000
 8.761889224094058e-001	 4.082023759396003e+000	 9.085862266578374e+000
 8.373207947329068e-001	 4.090173454356815e+000	 9.068296898417316e+000
 7.984879372606911e-001	 4.097931431107191e+000	 9.054970420968330e+000
 7.596957438036709e-001	 4.105299913141828e+000	 9.046454239255375e+000
 1.155664502333329e+000	 4.037875624400262e+000	 9.259829787093461e+000
 1.116473083875282e+000	 4.048887236396987e+000	 9.238157972385757e+000
 1.077277226232635e+000	 4.059491812765941e+000	 9.213507292105069e+000
 1.038082826721289e+000	 4.069690902874031e+000	 9.187284474124146e+000
 9.988957212223386e-001	 4.079486161048761e+000	 9.160782582778030e+000
 9.597216820875802e-001	 4.088879344391336e+000	 9.135180341992252e+000
 9.205664161250965e-001	 4.097872310547908e+000	 9.111541725878984e+000
 8.814355626655196e-001	 4.106467015442072e+000	 9.090815811300763e+000
 8.423346917094572e-001	 4.114665510971639e+000	 9.073836886327282e+000
 8.032693021564474e-001	 4.122469942672775e+000	 9.061324807970266e+000
 7.642448201156715e-001	 4.129882547354518e+000	 9.053885602080818e+000
 1.162543457705291e+000	 4.061910598357380e+000	 9.262061433996539e+000
 1.123118756995066e+000	 4.072987755663395e+000	 9.240216727194667e+000
 1.083689590676441e+000	 4.083655454510569e+000	 9.215347606397398e+000
 1.044261891168389e+000	 4.093915253488230e+000	 9.188911190728097e+000
 1.004841529089392e+000	 4.103768816771066e+000	 9.162248807795129e+000
 9.654343111504832e-001	 4.113217911919220e+000	 9.136585278453742e+000
 9.260459781288423e-001	 4.122264407636261e+000	 9.113028474445709e+000
 8.866822029225463e-001	 4.130910271488186e+000	 9.092569143346180e+000
 8.473485886869692e-001	 4.139157567586482e+000	 9.076080994660439e+000
 8.080506670531938e-001	 4.147008454238363e+000	 9.064321040361980e+000
 7.687938964286722e-001	 4.154465181567210e+000	 9.057930182650464e+000
 1.169422413077266e+000	 4.085945572314992e+000	 9.262816258122516e+000
 1.129764430115052e+000	 4.097088274930204e+000	 9.240470899141723e+000
 1.090101955120620e+000	 4.107819096255514e+000	 9.215085938200200e+000
 1.050440955616010e+000	 4.118139604102670e+000	 9.188169464314552e+000
 1.010787336957094e+000	 4.128051472493549e+000	 9.161111601681839e+000
 9.711469402141429e-001	 4.137556479447227e+000	 9.135183755962490e+000
 9.315255401334329e-001	 4.146656504724693e+000	 9.111538138931087e+000
 8.919288431804859e-001	 4.155353527534343e+000	 9.091207565853051e+000
 8.523624856654425e-001	 4.163649624201344e+000	 9.075105519345156e+000
 8.128320319509309e-001	 4.171546965803958e+000	 9.064026472915419e+000
 7.733429727426728e-001	 4.179047815779902e+000	 9.058646466853663e+000
 7.278522096476668e-001	 3.933221473652993e+000	 8.894745444688594e+000
 6.907300926805886e-001	 3.939910143510855e+000	 8.869390369005840e+000
 6.536570566772164e-001	 3.946230157012450e+000	 8.844324174091970e+000
 6.166380525152096e-001	 3.952183891475303e+000	 8.824425211956116e+000
 5.796779560922215e-001	 3.957773801906784e+000	 8.818793568604896e+000
 5.427815671060725e-001	 3.963002418652466e+000	 8.810619268289207e+000
 5.059536079119449e-001	 3.967872345032923e+000	 8.800197609505998e+000
 4.691987224560952e-001	 3.972386254971538e+000	 8.787723358200585e+000
 4.325214752855099e-001	 3.976546890615961e+000	 8.773293925841193e+000
 3.959263506328407e-001	 3.980357059955667e+000	 8.756912651740850e+000
 3.594177515758589e-001	 3.983819634438112e+000	 8.738492178601078e+000
 7.324012859526674e-001	 3.957804107865683e+000	 8.927500303734032e+000
 6.950471557543670e-001	 3.964534581910347e+000	 8.907416936177114e+000
 6.577424132758770e-001	 3.970894095496459e+000	 8.887436926984000e+000
 6.204920403378411e-001	 3.976885040799776e+000	 8.869619604463255e+000
 5.833009433122726e-001	 3.982509888171469e+000	 8.863250011527809e+000
 5.461739518951021e-001	 3.987771183771772e+000	 8.854245782098058e+000
 5.091158179562316e-001	 3.992671547192009e+000	 8.842888236101988e+000
 4.721312144665805e-001	 3.997213669067587e+000	 8.829356921923417e+000
 4.352247345015533e-001	 4.001400308684579e+000	 8.813732856320913e+000
 3.984008903202549e-001	 4.005234291582396e+000	 8.796001869712985e+000
 3.616641125196922e-001	 4.008718507155041e+000	 8.776058045618079e+000
 7.369503622586678e-001	 3.982386742078373e+000	 8.956466286178312e+000
 6.993642188291456e-001	 3.989159020309839e+000	 8.941119612107073e+000
 6.618277698755376e-001	 3.995558033980466e+000	 8.925729249333692e+000
 6.243460281614728e-001	 4.001586190124251e+000	 8.910752869240630e+000
 5.869239305333236e-001	 4.007245974436156e+000	 8.903591442781151e+000
 5.495663366851321e-001	 4.012539948891078e+000	 8.893746047639327e+000
 5.122780280015182e-001	 4.017470749351095e+000	 8.881483658755478e+000
 4.750637064780657e-001	 4.022041083163638e+000	 8.866968199120727e+000
 4.379279937185968e-001	 4.026253726753200e+000	 8.850263842973403e+000
 4.008754300086693e-001	 4.030111523209127e+000	 8.831338425508722e+000
 3.639104734645255e-001	 4.033617379871969e+000	 8.810066947700355e+000
 7.414994385656684e-001	 4.006969376291065e+000	 8.981699994125226e+000
 7.036812819049239e-001	 4.013783458709330e+000	 8.970556756387968e+000
 6.659131264761982e-001	 4.020221972464474e+000	 8.959261224206452e+000
 6.282000159861042e-001	 4.026287339448725e+000	 8.948114486069393e+000
 5.905469177553745e-001	 4.031982060700842e+000	 8.939750946133257e+000
 5.529587214761617e-001	 4.037308714010385e+000	 8.929062863552298e+000
 5.154402380478049e-001	 4.042269951510182e+000	 8.915936399268372e+000
 4.779961984905510e-001	 4.046868497259687e+000	 8.900519439084443e+000
 4.406312529366401e-001	 4.051107144821819e+000	 8.882858862860097e+000
 4.033499696980836e-001	 4.054988754835856e+000	 8.862904020113518e+000
 3.661568344103588e-001	 4.058516252588897e+000	 8.840510301717384e+000
 7.460485148736690e-001	 4.031552010503755e+000	 9.003258324001292e+000
 7.079983449817026e-001	 4.038407897108823e+000	 8.995786840572103e+000
 6.699984830778585e-001	 4.044885910948482e+000	 8.988092870729917e+000
 6.320540038117358e-001	 4.050988488773197e+000	 8.980482969162599e+000
 5.941699049784256e-001	 4.056718146965529e+000	 8.971661209066616e+000
 5.563511062681912e-001	 4.062077479129690e+000	 8.960138475757223e+000
 5.186024480950916e-001	 4.067069153669269e+000	 8.946198276788664e+000
 4.809286905040363e-001	 4.071695911355738e+000	 8.929972045015489e+000
 4.433345121556834e-001	 4.075960562890439e+000	 8.911488910007302e+000
 4.058245093884980e-001	 4.079865986462586e+000	 8.890679241018630e+000
 3.684031953571920e-001	 4.083415125305826e+000	 8.867378287058520e+000
 7.505975911826697e-001	 4.056134644716447e+000	 9.021198457636730e+000
 7.123154080594807e-001	 4.063032335508314e+000	 9.016868444779089e+000
 6.740838396805190e-001	 4.069549849432490e+000	 9.012284146031472e+000
 6.359079916383675e-001	 4.075689638097673e+000	 9.007757874209663e+000
 5.977928922024768e-001	 4.081454233230216e+000	 8.999254534786694e+000
 5.597434910612210e-001	 4.086846244248997e+000	 8.986914594204208e+000
 5.217646581433783e-001	 4.091868355828354e+000	 8.972220429103057e+000
 4.838611825185215e-001	 4.096523325451788e+000	 8.955286599662944e+000
 4.460377713757269e-001	 4.100813980959058e+000	 8.936124025195293e+000
 4.082990490799122e-001	 4.104743218089316e+000	 8.914643595963362e+000
 3.706495563050253e-001	 4.108313998022754e+000	 8.890659883132337e+000
 7.551466674926702e-001	 4.080717278929137e+000	 9.035577853669050e+000
 7.166324711382593e-001	 4.087656773907806e+000	 9.033860254425603e+000
 6.781691962841796e-001	 4.094213787916498e+000	 9.031894947105769e+000
 6.397619794659990e-001	 4.100390787422146e+000	 9.030000296866959e+000
 6.014158794275277e-001	 4.106190319494902e+000	 9.022462853796421e+000
 5.631358758552507e-001	 4.111615009368303e+000	 9.009332409017013e+000
 5.249268681926650e-001	 4.116667557987442e+000	 8.993953333159805e+000
 4.867936745340067e-001	 4.121350739547837e+000	 8.976422890036456e+000
 4.487410305967702e-001	 4.125667399027678e+000	 8.956733324670502e+000
 4.107735887723265e-001	 4.129620449716046e+000	 8.934775545457727e+000
 3.728959172538585e-001	 4.133212870739683e+000	 8.910342905510648e+000
 7.596957438036709e-001	 4.105299913141828e+000	 9.046454239255375e+000
 7.209495342180375e-001	 4.112281212307298e+000	 9.046821057072965e+000
 6.822545528888403e-001	 4.118877726400506e+000	 9.046985112615037e+000
 6.436159672946303e-001	 4.125091936746619e+000	 9.047271119892526e+000
 6.050388666535788e-001	 4.130926405759588e+000	 9.041217735054996e+000
 5.665282606502805e-001	 4.136383774487609e+000	 9.027332606056675e+000
 5.280890782429517e-001	 4.141466760146528e+000	 9.011346824854408e+000
 4.897261665504921e-001	 4.146178153643888e+000	 8.993339931230725e+000
 4.514442898188136e-001	 4.150520817096297e+000	 8.973285027826135e+000
 4.132481284657408e-001	 4.154497681342776e+000	 8.951052534136585e+000
 3.751422782036917e-001	 4.158111743456611e+000	 8.926414040773947e+000
 7.642448201156715e-001	 4.129882547354518e+000	 9.053885602080818e+000
 7.252665972988160e-001	 4.136905650706790e+000	 9.055809739387016e+000
 6.863399094945006e-001	 4.143541664884513e+000	 9.057614424625273e+000
 6.474699551242620e-001	 4.149793086071095e+000	 9.059631019482438e+000
 6.086618538806298e-001	 4.155662492024274e+000	 9.055450396738122e+000
 5.699206454463102e-001	 4.161152539606915e+000	 9.040855381929269e+000
 5.312512882942383e-001	 4.166265962305615e+000	 9.024350118108421e+000
 4.926586585679774e-001	 4.171005567739938e+000	 9.005995989399240e+000
 4.541475490418570e-001	 4.175374235164916e+000	 8.985746483894262e+000
 4.157226681601550e-001	 4.179374912969506e+000	 8.963451020994054e+000
 3.773886391545250e-001	 4.183010616173539e+000	 8.938858880112315e+000
 7.687938964286722e-001	 4.154465181567210e+000	 9.057930182650464e+000
 7.295836603805946e-001	 4.161530089106282e+000	 9.060885284206096e+000
 6.904252661011612e-001	 4.168205603368522e+000	 9.063842610280499e+000
 6.513239429548935e-001	 4.174494235395568e+000	 9.067140471382087e+000
 6.122848411086810e-001	 4.180398578288962e+000	 9.065091716616170e+000
 5.733130302433399e-001	 4.185921304726221e+000	 9.049840458461038e+000
 5.344134983465251e-001	 4.191065164464702e+000	 9.032911823271160e+000
 4.955911505864627e-001	 4.195832981835988e+000	 9.014348603912209e+000
 4.568508082659004e-001	 4.200227653233536e+000	 8.994084197690219e+000
 4.181972078555694e-001	 4.204252144596237e+000	 8.971946508544454e+000
 3.796350001063584e-001	 4.207909488890468e+000	 8.947661951733359e+000
 7.733429727426728e-001	 4.179047815779902e+000	 9.058646466853663e+000
 7.339007234633732e-001	 4.186154527505775e+000	 9.062106767712352e+000
 6.945106227088217e-001	 4.192869541852530e+000	 9.065729343418342e+000
 6.551779307865252e-001	 4.199195384720043e+000	 9.069859756781717e+000
 6.159078283377321e-001	 4.205134664553649e+000	 9.070072242066207e+000
 5.767054150413697e-001	 4.210690069845527e+000	 9.054227096662373e+000
 5.375757083998120e-001	 4.215864366623790e+000	 9.036979964871794e+000
 4.985236426059480e-001	 4.220660395932039e+000	 9.018354608732610e+000
 4.595540674909438e-001	 4.225081071302157e+000	 8.998263854448426e+000
 4.206717475519837e-001	 4.229129376222966e+000	 8.976513570954106e+000
 3.818813610591916e-001	 4.232808361607396e+000	 8.952806752126548e+000
 3.594177515758589e-001	 3.983819634438112e+000	 8.738492178601078e+000
 3.229999992710687e-001	 3.986937546585482e+000	 8.714243037006233e+000
 2.866773322591905e-001	 3.989713787615519e+000	 8.696775115555271e+000
 2.504539058424687e-001	 3.992151405067931e+000	 8.685739267340606e+000
 2.143337915336593e-001	 3.994253500437819e+000	 8.680702733937659e+000
 1.783209765742101e-001	 3.996023226819399e+000	 8.681152998946422e+000
 1.424193635209333e-001	 3.997463786561714e+000	 8.686501676208739e+000
 1.066327698999310e-001	 3.998578428938315e+000	 8.696088422834396e+000
 7.096492792649614e-002	 3.999370447832837e+000	 8.709184867473530e+000
 3.541948428965995e-002	 3.999843179442312e+000	 8.724998544593333e+000
 0.000000000000000e+000	 4.000000000000000e+000	 8.742676825851570e+000
 3.616641125196922e-001	 4.008718507155041e+000	 8.776058045618079e+000
 3.250187492635377e-001	 4.011855906253005e+000	 8.752045131255215e+000
 2.884690655833330e-001	 4.014649498789190e+000	 8.734258148781523e+000
 2.520192427519617e-001	 4.017102351350427e+000	 8.722318926939964e+000
 2.156733777291349e-001	 4.019217584816156e+000	 8.715765309630021e+000
 1.794354826765600e-001	 4.020998371987436e+000	 8.714055073094007e+000
 1.433094845420295e-001	 4.022447935227990e+000	 8.716569877269212e+000
 1.072992247111841e-001	 4.023569544119328e+000	 8.722619241302112e+000
 7.140845872566262e-002	 4.024366513131858e+000	 8.731444533531043e+000
 3.564085606630323e-002	 4.024842199313843e+000	 8.742222966570715e+000
 0.000000000000000e+000	 4.025000000000000e+000	 8.754071588473094e+000
 3.639104734645255e-001	 4.033617379871969e+000	 8.810066947700355e+000
 3.270374992569964e-001	 4.036774265920530e+000	 8.786236497317125e+000
 2.902607989084344e-001	 4.039585209962862e+000	 8.768121016436643e+000
 2.535845796623624e-001	 4.042053297632919e+000	 8.755312743528579e+000
 2.170129639254471e-001	 4.044181669194493e+000	 8.747319524239059e+000
 1.805499887796554e-001	 4.045973517155472e+000	 8.743568793805988e+000
 1.441996055637605e-001	 4.047432083894266e+000	 8.743411593137678e+000
 1.079656795229418e-001	 4.048560659300342e+000	 8.746126608410320e+000
 7.185198952518444e-002	 4.049362578430879e+000	 8.750924224356828e+000
 3.586222784313356e-002	 4.049841219185373e+000	 8.756950581752788e+000
 0.000000000000000e+000	 4.050000000000000e+000	 8.763291629953203e+000
 3.661568344103588e-001	 4.058516252588897e+000	 8.840510301717384e+000
 3.290562492514448e-001	 4.061692625588052e+000	 8.816823580504444e+000
 2.920525322344945e-001	 4.064520921136532e+000	 8.798385082498939e+000
 2.551499165736709e-001	 4.067004243915415e+000	 8.784756884518023e+000
 2.183525501225958e-001	 4.069145753572829e+000	 8.775416227948558e+000
 1.816644948834962e-001	 4.070948662323509e+000	 8.769759567982494e+000
 1.450897265861263e-001	 4.072416232560541e+000	 8.767106656019568e+000
 1.086321343352042e-001	 4.073551774481353e+000	 8.766704644949458e+000
 7.229552032506161e-002	 4.074358643729899e+000	 8.767732207348734e+000
 3.608359962015094e-002	 4.074840239056904e+000	 8.769303656967681e+000
 0.000000000000000e+000	 4.074999999999999e+000	 8.770473064236992e+000
 3.684031953571920e-001	 4.083415125305826e+000	 8.867378287058520e+000
 3.310749992468829e-001	 4.086610985255576e+000	 8.843811341247086e+000
 2.938442655615136e-001	 4.089456632310205e+000	 8.825069987374015e+000
 2.567152534858871e-001	 4.091955190197909e+000	 8.810685563774060e+000
 2.196921363205811e-001	 4.094109837951166e+000	 8.800104096140688e+000
 1.827790009880826e-001	 4.095923807491546e+000	 8.792690415178836e+000
 1.459798476091268e-001	 4.097400381226817e+000	 8.787732306935716e+000
 1.092985891479713e-001	 4.098542889662366e+000	 8.784444685375267e+000
 7.273905112529411e-002	 4.099354709028921e+000	 8.781973777091093e+000
 3.630497139735534e-002	 4.099839258928435e+000	 8.779401308399828e+000
 0.000000000000000e+000	 4.100000000000000e+000	 8.775748685417474e+000
 3.706495563050253e-001	 4.108313998022754e+000	 8.890659883132337e+000
 3.330937492433106e-001	 4.111529344923100e+000	 8.867203300088965e+000
 2.956359988894915e-001	 4.114392343483876e+000	 8.848193700124231e+000
 2.582805903990110e-001	 4.116906136480403e+000	 8.833131100814947e+000
 2.210317225194030e-001	 4.119073922329502e+000	 8.821429695299033e+000
 1.838935070934145e-001	 4.120898952659582e+000	 8.812422039949345e+000
 1.468699686327622e-001	 4.122384529893093e+000	 8.805363274243236e+000
 1.099650439612430e-001	 4.123534004843380e+000	 8.799435362243157e+000
 7.318258192588194e-002	 4.124350774327941e+000	 8.793751345439981e+000
 3.652634317474679e-002	 4.124838278799965e+000	 8.787359597064043e+000
 0.000000000000000e+000	 4.125000000000000e+000	 8.779248068337120e+000
 3.728959172538585e-001	 4.133212870739683e+000	 8.910342905510648e+000
 3.351124992407280e-001	 4.136447704590624e+000	 8.887001581058016e+000
 2.974277322184281e-001	 4.139328054657547e+000	 8.867772568810347e+000
 2.598459273130427e-001	 4.141857082762898e+000	 8.852123977870168e+000
 2.223713087190614e-001	 4.144038006707839e+000	 8.839437546529648e+000
 1.850080131994918e-001	 4.145874097827619e+000	 8.829012901576244e+000
 1.477600896570323e-001	 4.147368678559368e+000	 8.820071849318021e+000
 1.106314987750194e-001	 4.148525120024393e+000	 8.811762687590839e+000
 7.362611272682511e-002	 4.149346839626961e+000	 8.803164528352365e+000
 3.674771495232530e-002	 4.149837298671496e+000	 8.793291620828654e+000
 0.000000000000000e+000	 4.150000000000000e+000	 8.781097665553290e+000
 3.751422782036917e-001	 4.158111743456611e+000	 8.926414040773947e+000
 3.371312492391351e-001	 4.161366064258147e+000	 8.903206953478007e+000
 2.992194655483239e-001	 4.164263765831219e+000	 8.883821369024552e+000
 2.614112642279822e-001	 4.166808029045393e+000	 8.867692894889022e+000
 2.237108949195563e-001	 4.169002091086175e+000	 8.854170186799911e+000
 1.861225193063147e-001	 4.170849242995655e+000	 8.842519281293424e+000
 1.486502106819372e-001	 4.172352827225643e+000	 8.831927959518398e+000
 1.112979535893004e-001	 4.173516235205406e+000	 8.821510131396847e+000
 7.406964352812362e-002	 4.174342904925982e+000	 8.810310229595704e+000
 3.696908673009083e-002	 4.174836318543028e+000	 8.797307603132477e+000
 0.000000000000000e+000	 4.175000000000000e+000	 8.781420900819768e+000
 3.773886391545250e-001	 4.183010616173539e+000	 8.938858880112315e+000
 3.391499992385319e-001	 4.186284423925672e+000	 8.915818872287165e+000
 3.010111988791782e-001	 4.189199477004890e+000	 8.896353350690076e+000
 2.629766011438293e-001	 4.191758975327886e+000	 8.879864822584713e+000
 2.250504811208877e-001	 4.193966175464512e+000	 8.865668227990231e+000
 1.872370254138830e-001	 4.195824388163692e+000	 8.852995347109253e+000
 1.495403317074769e-001	 4.197336975891918e+000	 8.840999238542636e+000
 1.119644084040861e-001	 4.198507350386419e+000	 8.828758697237078e+000
 7.451317432977747e-002	 4.199338970225004e+000	 8.815282721467764e+000
 3.719045850804342e-002	 4.199835338414558e+000	 8.799514978533324e+000
 0.000000000000000e+000	 4.199999999999999e+000	 8.780338259229726e+000
 3.796350001063584e-001	 4.207909488890468e+000	 8.947661951733359e+000
 3.411687492389183e-001	 4.211202783593194e+000	 8.924835516925288e+000
 3.028029322109916e-001	 4.214135188178561e+000	 8.905380283199362e+000
 2.645419380605842e-001	 4.216709921610382e+000	 8.888665053595144e+000
 2.263900673230558e-001	 4.218930259842849e+000	 8.873970413849353e+000
 1.883515315221968e-001	 4.220799533331729e+000	 8.860493216328063e+000
 1.504304527336514e-001	 4.222321124558194e+000	 8.847351094288854e+000
 1.126308632193765e-001	 4.223498465567431e+000	 8.833586995255336e+000
 7.495670513178664e-002	 4.224335035524025e+000	 8.818173722650837e+000
 3.741183028618303e-002	 4.224834358286088e+000	 8.800018475219245e+000
 0.000000000000000e+000	 4.224999999999999e+000	 8.777967374158372e+000
 3.818813610591916e-001	 4.232808361607396e+000	 8.952806752126548e+000
 3.431874992402947e-001	 4.236121143260720e+000	 8.930253828848423e+000
 3.045946655437639e-001	 4.239070899352234e+000	 8.910912498959030e+000
 2.661072749782468e-001	 4.241660867892875e+000	 8.894117251838084e+000
 2.277296535260604e-001	 4.243894344221186e+000	 8.879113674939307e+000
 1.894660376312561e-001	 4.245774678499766e+000	 8.865063015864998e+000
 1.513205737604607e-001	 4.247305273224471e+000	 8.851046774319601e+000
 1.132973180351715e-001	 4.248489580748445e+000	 8.836071312558280e+000
 7.540023593415120e-002	 4.249331100823047e+000	 8.819072473318057e+000
 3.763320206450971e-002	 4.249833378157621e+000	 8.798920194607650e+000
 0.000000000000000e+000	 4.250000000000000e+000	 8.774423111136978e+000
 4.250000000000000e+000	 0.000000000000000e+000	 1.037778572363489e+001
 4.249833378157620e+000	 3.763320206450985e-002	 1.039728834470415e+001
 4.249331100823047e+000	 7.540023593415146e-002	 1.041326962311750e+001
 4.248489580748444e+000	 1.132973180351712e-001	 1.042619388117857e+001
 4.247305273224471e+000	 1.513205737604606e-001	 1.043649062126548e+001
 4.245774678499766e+000	 1.894660376312561e-001	 1.044455426252602e+001
 4.243894344221186e+000	 2.277296535260605e-001	 1.045074397882939e+001
 4.241660867892875e+000	 2.661072749782472e-001	 1.045538364154706e+001
 4.239070899352234e+000	 3.045946655437636e-001	 1.045876187054541e+001
 4.236121143260720e+000	 3.431874992402945e-001	 1.046113219656174e+001
 4.232808361607396e+000	 3.818813610591916e-001	 1.046271333790596e+001
 4.275000000000000e+000	 0.000000000000000e+000	 1.041899520974827e+001
 4.274832398029148e+000	 3.785457384283890e-002	 1.043419627483867e+001
 4.274327166122059e+000	 7.584376673652557e-002	 1.044627952702057e+001
 4.273480695929435e+000	 1.139637728509879e-001	 1.045568132695489e+001
 4.272289421890708e+000	 1.522106947873084e-001	 1.046280169982674e+001
 4.270749823667742e+000	 1.905805437403758e-001	 1.046800408362087e+001
 4.268858428599435e+000	 2.290692397291523e-001	 1.047161518191725e+001
 4.266611814175251e+000	 2.676726118960291e-001	 1.047392492485924e+001
 4.264006610525748e+000	 3.063863988766921e-001	 1.047518654175082e+001
 4.261039502928045e+000	 3.452062492418692e-001	 1.047561674852290e+001
 4.257707234324079e+000	 3.841277220122707e-001	 1.047539605307243e+001
 4.300000000000000e+000	 0.000000000000000e+000	 1.045764913600307e+001
 4.299831417900671e+000	 3.807594562098566e-002	 1.046856097465201e+001
 4.299323231421049e+000	 7.628729753856345e-002	 1.047677507326325e+001
 4.298471811110385e+000	 1.146302276663430e-001	 1.048269960536643e+001
 4.297273570556867e+000	 1.531008158135985e-001	 1.048670487036362e+001
 4.295724968835596e+000	 1.916950498488709e-001	 1.048912305332672e+001
 4.293822512977509e+000	 2.304088259315823e-001	 1.049024809261716e+001
 4.291562760457388e+000	 2.692379488131417e-001	 1.049033565906249e+001
 4.288942321698952e+000	 3.081781322089743e-001	 1.048960325022106e+001
 4.285957862594973e+000	 3.472249992428511e-001	 1.048823040304436e+001
 4.282606107040270e+000	 3.863740829648416e-001	 1.048635902800317e+001
 4.324999999999999e+000	 0.000000000000000e+000	 1.049364409652326e+001
 4.324830437772191e+000	 3.829731739895016e-002	 1.050029521989765e+001
 4.324319296720021e+000	 7.673082834026511e-002	 1.050468533054666e+001
 4.323462926291289e+000	 1.152966824812367e-001	 1.050719418214113e+001
 4.322257719222951e+000	 1.539909368393309e-001	 1.050816209223237e+001
 4.320700114003333e+000	 1.928095559567414e-001	 1.050788971351438e+001
 4.318786597355409e+000	 2.317484121333504e-001	 1.050663791625103e+001
 4.316513706739286e+000	 2.708032857295852e-001	 1.050462778568497e+001
 4.313878032871841e+000	 3.099698655406102e-001	 1.050204073803601e+001
 4.310876222261504e+000	 3.492437492432403e-001	 1.049901875846875e+001
 4.307504979755969e+000	 3.886204439169040e-001	 1.049566476415957e+001
 4.350000000000000e+000	 0.000000000000000e+000	 1.052687906257958e+001
 4.349829457643704e+000	 3.851868917673237e-002	 1.052931400734741e+001
 4.349315362018976e+000	 7.717435914163061e-002	 1.052994143311962e+001
 4.348454041472150e+000	 1.159631372956689e-001	 1.052911243380782e+001
 4.347241867888956e+000	 1.548810578645055e-001	 1.052713708163323e+001
 4.345675259170945e+000	 1.939240620639871e-001	 1.052428420979909e+001
 4.343750681733135e+000	 2.330879983344565e-001	 1.052078130971084e+001
 4.341464653020945e+000	 2.723686226453594e-001	 1.051681454664415e+001
 4.338813744044418e+000	 3.117615988715999e-001	 1.051252889754645e+001
 4.335794581927638e+000	 3.512624992430367e-001	 1.050802841442307e+001
 4.332403852471177e+000	 3.908668048684583e-001	 1.050337661650284e+001
 4.374999999999999e+000	 0.000000000000000e+000	 1.055725531467101e+001
 4.374828477515215e+000	 3.874006095433233e-002	 1.055553449133380e+001
 4.374311427317912e+000	 7.761788994265988e-002	 1.055247652176309e+001
 4.373445156652968e+000	 1.166295921096397e-001	 1.054840359310184e+001
 4.372226016554885e+000	 1.557711788891225e-001	 1.054359526141497e+001
 4.370650404338438e+000	 1.950385681706083e-001	 1.053828824571944e+001
 4.368714766110685e+000	 2.344275845349007e-001	 1.053267633998533e+001
 4.366415599302367e+000	 2.739339595604644e-001	 1.052691044709276e+001
 4.363749455216683e+000	 3.135533322019433e-001	 1.052109873850909e+001
 4.360712941593376e+000	 3.532812492422404e-001	 1.051530694321050e+001
 4.357302725185893e+000	 3.931131658195044e-001	 1.050955876910816e+001
 4.400000000000000e+000	 0.000000000000000e+000	 1.049709088491687e+001
 4.399827497386720e+000	 3.896143273174999e-002	 1.050042515665969e+001
 4.399307492616827e+000	 7.806142074335290e-002	 1.050313944225159e+001
 4.398436271833743e+000	 1.172960469231490e-001	 1.050524939728470e+001
 4.397210165220737e+000	 1.566612999131817e-001	 1.050677604270261e+001
 4.395625549505810e+000	 1.961530742766048e-001	 1.050774584406120e+001
 4.393678850488062e+000	 2.357671707346830e-001	 1.050819078109698e+001
 4.391366545583549e+000	 2.754992964749001e-001	 1.050814840710454e+001
 4.388685166388635e+000	 3.153450655316404e-001	 1.050766189763399e+001
 4.385631301258717e+000	 3.552999992408514e-001	 1.050678008802995e+001
 4.382201597900116e+000	 3.953595267700419e-001	 1.050555749934669e+001
 4.425000000000000e+000	 0.000000000000000e+000	 1.044213380344774e+001
 4.424826517258218e+000	 3.918280450898538e-002	 1.044956338987830e+001
 4.424303557915724e+000	 7.850495154370979e-002	 1.045617025457174e+001
 4.423427387014476e+000	 1.179625017361969e-001	 1.046195379381542e+001
 4.422194313886513e+000	 1.575514209366833e-001	 1.046691871702484e+001
 4.420600694673061e+000	 1.972675803819767e-001	 1.047107513970429e+001
 4.418642934865264e+000	 2.371067569338034e-001	 1.047443866703254e+001
 4.416317491864494e+000	 2.770646333886667e-001	 1.047703046756153e+001
 4.413620877560275e+000	 3.171367988606913e-001	 1.047887733652509e+001
 4.410549660923660e+000	 3.573187492388697e-001	 1.048001174826439e+001
 4.407100470613848e+000	 3.976058877200713e-001	 1.048047189728889e+001
 4.449999999999999e+000	 0.000000000000000e+000	 1.039229189363688e+001
 4.449825537129715e+000	 3.940417628603850e-002	 1.040343130008615e+001
 4.449299623214602e+000	 7.894848234373043e-002	 1.041354538530609e+001
 4.448418502195165e+000	 1.186289565487833e-001	 1.042261745299528e+001
 4.447178462552209e+000	 1.584415419596271e-001	 1.043063607145922e+001
 4.445575839840191e+000	 1.983820864867240e-001	 1.043759518021389e+001
 4.443607019242291e+000	 2.384463431322619e-001	 1.044349418752469e+001
 4.441268438145198e+000	 2.786299703017640e-001	 1.044833805835613e+001
 4.438556588731602e+000	 3.189285321890960e-001	 1.045213739221481e+001
 4.435468020588207e+000	 3.593374992362953e-001	 1.045490849037742e+001
 4.431999343327089e+000	 3.998522486695924e-001	 1.045667341200681e+001
 4.474999999999999e+000	 0.000000000000000e+000	 1.034747503867060e+001
 4.474824557001205e+000	 3.962554806290932e-002	 1.036194424656106e+001
 4.474295688513459e+000	 7.939201314341488e-002	 1.037518563180880e+001
 4.473409617375811e+000	 1.192954113609082e-001	 1.038716656988785e+001
 4.472162611217830e+000	 1.593316629820132e-001	 1.039785965604883e+001
 4.470550985007201e+000	 1.994965925908466e-001	 1.040724282550940e+001
 4.468571103619143e+000	 2.397859293300585e-001	 1.041529946488449e+001
 4.466219384425665e+000	 2.801953072141921e-001	 1.042201851431815e+001
 4.463492299902617e+000	 3.207202655168542e-001	 1.042739455978549e+001
 4.460386380252356e+000	 3.613562492331280e-001	 1.043142791504100e+001
 4.456898216039838e+000	 4.020986096186052e-001	 1.043412469270077e+001
 4.500000000000000e+000	 0.000000000000000e+000	 1.030759512433122e+001
 4.499823576872690e+000	 3.984691983959790e-002	 1.032501945964855e+001
 4.499291753812299e+000	 7.983554394276311e-002	 1.034101353152754e+001
 4.498400732556415e+000	 1.199618661725717e-001	 1.035552894928578e+001
 4.497146759883374e+000	 1.602217840038417e-001	 1.036852250086691e+001
 4.495526130174089e+000	 2.006110986943446e-001	 1.037995628656375e+001
 4.493535187995821e+000	 2.411255155271932e-001	 1.038979784427922e+001
 4.491170330705895e+000	 2.817606441259510e-001	 1.039802026577331e+001
 4.488428011073320e+000	 3.225119988439664e-001	 1.040460230335006e+001
 4.485304739916110e+000	 3.633749992293683e-001	 1.040952846644594e+001
 4.481797088752097e+000	 4.043449705671097e-001	 1.041278910759078e+001
 4.232808361607396e+000	 3.818813610591916e-001	 1.046271333790596e+001
 4.229129376222968e+000	 4.206717475519838e-001	 1.046822979557658e+001
 4.225081071302157e+000	 4.595540674909441e-001	 1.047231063204586e+001
 4.220660395932038e+000	 4.985236426059477e-001	 1.047497678450830e+001
 4.215864366623790e+000	 5.375757083998116e-001	 1.047621570217357e+001
 4.210690069845527e+000	 5.767054150413699e-001	 1.047598230152350e+001
 4.205134664553649e+000	 6.159078283377322e-001	 1.047420005051363e+001
 4.199195384720043e+000	 6.551779307865254e-001	 1.049144466289969e+001
 4.192869541852530e+000	 6.945106227088215e-001	 1.051390875593927e+001
 4.186154527505775e+000	 7.339007234633730e-001	 1.053554043302335e+001
 4.179047815779902e+000	 7.733429727426728e-001	 1.055644235518410e+001
 4.257707234324079e+000	 3.841277220122707e-001	 1.047539605307243e+001
 4.254006607849405e+000	 4.231462872486892e-001	 1.047748722096351e+001
 4.249934489370448e+000	 4.622573267163141e-001	 1.047840480502411e+001
 4.245487810027736e+000	 5.014561346257856e-001	 1.047814418443351e+001
 4.240663568782507e+000	 5.407379184534669e-001	 1.047666614502817e+001
 4.235458834964459e+000	 5.800977998397743e-001	 1.047389786857429e+001
 4.229870750817964e+000	 6.195308155671542e-001	 1.046973405427069e+001
 4.223896534044159e+000	 6.590319186185139e-001	 1.048851271964321e+001
 4.217533480336205e+000	 6.985959793168148e-001	 1.051010225050665e+001
 4.210778965904968e+000	 7.382177865464500e-001	 1.053069753445964e+001
 4.203630449992338e+000	 7.778920490569271e-001	 1.055040066009342e+001
 4.282606107040270e+000	 3.863740829648416e-001	 1.048635902800317e+001
 4.278883839475262e+000	 4.256208269449768e-001	 1.048552991466862e+001
 4.274787907438089e+000	 4.649605859413375e-001	 1.048380123614713e+001
 4.270315224122728e+000	 5.043886266453285e-001	 1.048114221184754e+001
 4.265462770940488e+000	 5.439001285068594e-001	 1.047748633925598e+001
 4.260227600082641e+000	 5.834901846379283e-001	 1.047273241769761e+001
 4.254606837081538e+000	 6.231538027963179e-001	 1.046674570766616e+001
 4.248597683367563e+000	 6.628859064502164e-001	 1.048731270860079e+001
 4.242197418819215e+000	 7.026813359244741e-001	 1.050798530929678e+001
 4.235403404303566e+000	 7.425348496291238e-001	 1.052750439820195e+001
 4.228213084204269e+000	 7.824411253706887e-001	 1.054597152735370e+001
 4.307504979755969e+000	 3.886204439169040e-001	 1.049566476415957e+001
 4.303761071100537e+000	 4.280953666408464e-001	 1.049243142017106e+001
 4.299641325505075e+000	 4.676638451660142e-001	 1.048858456141980e+001
 4.295142638217016e+000	 5.073211186645764e-001	 1.048406663886103e+001
 4.290261973097732e+000	 5.470623385599891e-001	 1.047878322955102e+001
 4.284996365200072e+000	 5.868825694358318e-001	 1.047260409537628e+001
 4.279342923344370e+000	 6.267767900252236e-001	 1.046668609746677e+001
 4.273298832690252e+000	 6.667398942816329e-001	 1.048781013765896e+001
 4.266861357301559e+000	 7.067666925317988e-001	 1.050752367848315e+001
 4.260027842701565e+000	 7.468519127113943e-001	 1.052592697152509e+001
 4.252795718415691e+000	 7.869902016839576e-001	 1.054312106771533e+001
 4.332403852471177e+000	 3.908668048684583e-001	 1.050337661650284e+001
 4.328638302725228e+000	 4.305699063362981e-001	 1.049826612354397e+001
 4.324494743571407e+000	 4.703671043903442e-001	 1.049284024937239e+001
 4.319970052310598e+000	 5.102536106835296e-001	 1.048701406089079e+001
 4.315061175254238e+000	 5.502245486128563e-001	 1.048066457555557e+001
 4.309765130316756e+000	 5.902749542334850e-001	 1.047363185555651e+001
 4.304079009606459e+000	 6.303997772538713e-001	 1.046969456668699e+001
 4.297999982012226e+000	 6.705938821127633e-001	 1.048997130986180e+001
 4.291525295783236e+000	 7.108520491387893e-001	 1.050868389459738e+001
 4.284652281098967e+000	 7.511689757932618e-001	 1.052593198817881e+001
 4.277378352626607e+000	 7.915392779967340e-001	 1.054181617544649e+001
 4.357302725185893e+000	 3.931131658195044e-001	 1.050955876910816e+001
 4.353515534349339e+000	 4.330444460313320e-001	 1.050310922938042e+001
 4.349348161637088e+000	 4.730703636143275e-001	 1.049665457727407e+001
 4.344797466403474e+000	 5.131861027021878e-001	 1.049008187313670e+001
 4.339860377410006e+000	 5.533867586654604e-001	 1.048323892857597e+001
 4.334533895432689e+000	 5.936673390308876e-001	 1.047593543657752e+001
 4.328815095867808e+000	 6.340227644822606e-001	 1.047437794340046e+001
 4.322701131333488e+000	 6.744478699436078e-001	 1.049376330069224e+001
 4.316189234264249e+000	 7.149374057454456e-001	 1.051143326194761e+001
 4.309276719495773e+000	 7.554860388747262e-001	 1.052748694591710e+001
 4.301960986837014e+000	 7.960883543090176e-001	 1.054202450594681e+001
 4.382201597900116e+000	 3.953595267700419e-001	 1.050555749934669e+001
 4.378392765972867e+000	 4.355189857259480e-001	 1.050324815342525e+001
 4.374201579702113e+000	 4.757736228379642e-001	 1.050011460815743e+001
 4.369624880495647e+000	 5.161185947205511e-001	 1.049336824786074e+001
 4.364659579565039e+000	 5.565489687178018e-001	 1.048661560909213e+001
 4.359302660547873e+000	 5.970597238280400e-001	 1.047963533888762e+001
 4.353551182128414e+000	 6.376457517103920e-001	 1.048070379519828e+001
 4.347402280654035e+000	 6.783018577741661e-001	 1.049915393612760e+001
 4.340853172744595e+000	 7.190227623517677e-001	 1.051573983080664e+001
 4.333901157891982e+000	 7.598031019557877e-001	 1.053056008479346e+001
 4.326543621046915e+000	 8.006374306208084e-001	 1.054371445412443e+001
 4.407100470613848e+000	 3.976058877200713e-001	 1.048047189728889e+001
 4.403269997595813e+000	 4.379935254201460e-001	 1.047972855319791e+001
 4.399054997766486e+000	 4.784768820612543e-001	 1.047882718567726e+001
 4.394452294587114e+000	 5.190510867386193e-001	 1.047784049604725e+001
 4.389458781719333e+000	 5.597111787698805e-001	 1.047684691737235e+001
 4.384071425662305e+000	 6.004521086249417e-001	 1.047593057493388e+001
 4.378287268388279e+000	 6.412687389382651e-001	 1.048530724938679e+001
 4.372103429973867e+000	 6.821558456044385e-001	 1.050611177143930e+001
 4.365517111224276e+000	 7.231081189577551e-001	 1.052157237633952e+001
 4.358525596287595e+000	 7.641201650364460e-001	 1.053512036619208e+001
 4.351126255256309e+000	 8.051865069321068e-001	 1.054685513350585e+001
 4.431999343327089e+000	 3.998522486695924e-001	 1.045667341200681e+001
 4.428147229218177e+000	 4.404680651139264e-001	 1.045742660316210e+001
 4.423908415830206e+000	 4.811801412841976e-001	 1.045785355336824e+001
 4.419279708677876e+000	 5.219835787563928e-001	 1.045802668423472e+001
 4.414257983872892e+000	 5.628733888216964e-001	 1.045802437892491e+001
 4.408840190775990e+000	 6.038444934215930e-001	 1.045793094626665e+001
 4.403023354647401e+000	 6.448917261658800e-001	 1.046914982373035e+001
 4.396804579292986e+000	 6.860098334344249e-001	 1.049136574516579e+001
 4.390181049703291e+000	 7.271934755634086e-001	 1.051226038465709e+001
 4.383150034682610e+000	 7.684372281167010e-001	 1.053196103161863e+001
 4.375708889465193e+000	 8.097355832429123e-001	 1.055059729684283e+001
 4.456898216039838e+000	 4.020986096186052e-001	 1.043412469270077e+001
 4.453024460839959e+000	 4.429426048072887e-001	 1.043630480078805e+001
 4.448761833893272e+000	 4.838834005067942e-001	 1.043799122512843e+001
 4.444107122767933e+000	 5.249160707738714e-001	 1.043925617475245e+001
 4.439057186025712e+000	 5.660355988732495e-001	 1.044017805161157e+001
 4.433608955888926e+000	 6.072368782179941e-001	 1.044084141828389e+001
 4.427759440905781e+000	 6.485147133932370e-001	 1.045351046342295e+001
 4.421505728611392e+000	 6.898638212641249e-001	 1.047413269158386e+001
 4.414844988181640e+000	 7.312788321687278e-001	 1.049329867999312e+001
 4.407774473077028e+000	 7.727542911965529e-001	 1.051113212964988e+001
 4.400291523673573e+000	 8.142846595532255e-001	 1.052775915306716e+001
 4.481797088752097e+000	 4.043449705671097e-001	 1.041278910759078e+001
 4.477901692461161e+000	 4.454171445002335e-001	 1.041632635337830e+001
 4.473615251955685e+000	 4.865866597290443e-001	 1.041920320536910e+001
 4.468934536857284e+000	 5.278485627910551e-001	 1.042149172699498e+001
 4.463856388177794e+000	 5.691978089245400e-001	 1.042327040756026e+001
 4.458377721001112e+000	 6.106292630141444e-001	 1.042462413350004e+001
 4.452495527163421e+000	 6.521377006203358e-001	 1.043837959066044e+001
 4.446206877929084e+000	 6.937178090935396e-001	 1.045743455712326e+001
 4.439508926659324e+000	 7.353641887737125e-001	 1.047490035595103e+001
 4.432398911470851e+000	 7.770713542760019e-001	 1.049089704256403e+001
 4.424874157881446e+000	 8.188337358630459e-001	 1.050554717214190e+001
 4.179047815779902e+000	 7.733429727426728e-001	 1.055644235518410e+001
 4.171546965803959e+000	 8.128320319509310e-001	 1.055940647582875e+001
 4.163649624201344e+000	 8.523624856654427e-001	 1.056244138061912e+001
 4.155353527534343e+000	 8.919288431804857e-001	 1.056569792837011e+001
 4.146656504724693e+000	 9.315255401334327e-001	 1.056932731634890e+001
 4.137556479447227e+000	 9.711469402141428e-001	 1.057348093148734e+001
 4.128051472493549e+000	 1.010787336957094e+000	 1.057831019953133e+001
 4.118139604102669e+000	 1.050440955616010e+000	 1.058396643234005e+001
 4.107819096255514e+000	 1.090101955120619e+000	 1.059060067355453e+001
 4.097088274930205e+000	 1.129764430115052e+000	 1.059836354286253e+001
 4.085945572314992e+000	 1.169422413077266e+000	 1.060740507909253e+001
 4.203630449992338e+000	 7.778920490569271e-001	 1.055040066009342e+001
 4.196085477369345e+000	 8.176133968488740e-001	 1.055296373809700e+001
 4.188141680816043e+000	 8.573763826440791e-001	 1.055569920014338e+001
 4.179796783580376e+000	 8.971754834385506e-001	 1.055875593680265e+001
 4.171048601813031e+000	 9.370051021381152e-001	 1.056228304579760e+001
 4.161895046975168e+000	 9.768595692778664e-001	 1.056642968299851e+001
 4.152334128215989e+000	 1.016733144824837e+000	 1.057134491153464e+001
 4.142363954717085e+000	 1.056620020063654e+000	 1.057717754923966e+001
 4.131982738000447e+000	 1.096514319564807e+000	 1.058407601465510e+001
 4.121188794197010e+000	 1.136410103235041e+000	 1.059218817182244e+001
 4.109980546272603e+000	 1.176301368449240e+000	 1.060166117410057e+001
 4.228213084204269e+000	 7.824411253706887e-001	 1.054597152735370e+001
 4.220623988934317e+000	 8.223947617462386e-001	 1.054801408066530e+001
 4.212633737430396e+000	 8.623902796220805e-001	 1.055032998165417e+001
 4.204240039626114e+000	 9.024221236959534e-001	 1.055306619295286e+001
 4.195440698901107e+000	 9.424846641421384e-001	 1.055636975368065e+001
 4.186233614502861e+000	 9.825721983409623e-001	 1.056038763019845e+001
 4.176616783938171e+000	 1.022678952692014e+000	 1.056526656515933e+001
 4.166588305331214e+000	 1.062799084510823e+000	 1.057115292507639e+001
 4.156146379745046e+000	 1.102926684008645e+000	 1.057819254663634e+001
 4.145289313463413e+000	 1.143055776354834e+000	 1.058653058199345e+001
 4.134015520229721e+000	 1.183180323821201e+000	 1.059631134328432e+001
 4.252795718415691e+000	 7.869902016839576e-001	 1.054312106771533e+001
 4.245162500498869e+000	 8.271761266430252e-001	 1.054452521228666e+001
 4.237125794044403e+000	 8.674041765994475e-001	 1.054630305077659e+001
 4.228683295671557e+000	 9.076687639526941e-001	 1.054859965764687e+001
 4.219832795988922e+000	 9.479642261455015e-001	 1.055156005379413e+001
 4.210572182030301e+000	 9.882848274034306e-001	 1.055532905704287e+001
 4.200899439660092e+000	 1.028624760558625e+000	 1.056005113111208e+001
 4.190812655945056e+000	 1.068978148957520e+000	 1.056587023328190e+001
 4.180310021489308e+000	 1.109339048452132e+000	 1.057292966099288e+001
 4.169389832729409e+000	 1.149701449474428e+000	 1.058137189761674e+001
 4.158050494186345e+000	 1.190059279193150e+000	 1.059133845764253e+001
 4.277378352626607e+000	 7.915392779967340e-001	 1.054181617544649e+001
 4.269701012063006e+000	 8.319574915392335e-001	 1.054246558935772e+001
 4.261617850658065e+000	 8.724180735761798e-001	 1.054358844453183e+001
 4.253126551716705e+000	 9.129154042087730e-001	 1.054532796649786e+001
 4.244224893076472e+000	 9.534437881482050e-001	 1.054782719776306e+001
 4.234910749557492e+000	 9.939974564652715e-001	 1.055122884802185e+001
 4.225182095381759e+000	 1.034570568424671e+000	 1.055567514301593e+001
 4.215037006558611e+000	 1.075157213403744e+000	 1.056130767227617e+001
 4.204473663233235e+000	 1.115751412895269e+000	 1.056826723598349e+001
 4.193490351995003e+000	 1.156347122593826e+000	 1.057669369119137e+001
 4.182085468142476e+000	 1.196938234565087e+000	 1.058672579765788e+001
 4.301960986837014e+000	 7.960883543090176e-001	 1.054202450594681e+001
 4.294239523626727e+000	 8.367388564348637e-001	 1.054180439455746e+001
 4.286109907271380e+000	 8.774319705522771e-001	 1.054215689101152e+001
 4.277569807761561e+000	 9.181620444641898e-001	 1.054322341062651e+001
 4.268616990163762e+000	 9.589233501502488e-001	 1.054514505681773e+001
 4.259249317084431e+000	 9.997100855264841e-001	 1.054806247100166e+001
 4.249464751103164e+000	 1.040516376290151e+000	 1.055211568132686e+001
 4.239261357171881e+000	 1.081336277849494e+000	 1.055744395046784e+001
 4.228637304976828e+000	 1.122163777338055e+000	 1.056418562272351e+001
 4.217590871260192e+000	 1.162992795713027e+000	 1.057247797066682e+001
 4.206120442098111e+000	 1.203817189937011e+000	 1.058245704159733e+001
 4.326543621046915e+000	 8.006374306208084e-001	 1.054371445412443e+001
 4.318778035190028e+000	 8.415202213299152e-001	 1.054251151621427e+001
 4.310601963884349e+000	 8.824458675277399e-001	 1.054197978974521e+001
 4.302013063806120e+000	 9.234086847189446e-001	 1.054225891803858e+001
 4.293009087250787e+000	 9.644029121516327e-001	 1.054348810419125e+001
 4.283587884611121e+000	 1.005422714587069e+000	 1.054580596065162e+001
 4.273747406824311e+000	 1.046462184155065e+000	 1.054935035779890e+001
 4.263485707784863e+000	 1.087515342294771e+000	 1.055425827176596e+001
 4.252800946720086e+000	 1.128576141780491e+000	 1.056066563175147e+001
 4.241691390524975e+000	 1.169638468832031e+000	 1.056870716707230e+001
 4.230155416053255e+000	 1.210696145308922e+000	 1.057851625421155e+001
 4.351126255256309e+000	 8.051865069321068e-001	 1.054685513350585e+001
 4.343316546752915e+000	 8.463015862243891e-001	 1.054455752837229e+001
 4.335094020496972e+000	 8.874597645025674e-001	 1.054302919273302e+001
 4.326456319850386e+000	 9.286553249730370e-001	 1.054240803563382e+001
 4.317401184337552e+000	 9.698824741523567e-001	 1.054283139811385e+001
 4.307926452137561e+000	 1.011135343647027e+000	 1.054443590243265e+001
 4.298030062545202e+000	 1.052407992019414e+000	 1.054735730047561e+001
 4.287710058397559e+000	 1.093694406739574e+000	 1.055173032158272e+001
 4.276964588463008e+000	 1.134988506222576e+000	 1.055768852005099e+001
 4.265791909789358e+000	 1.176284141950839e+000	 1.056536412256534e+001
 4.254190390007903e+000	 1.217575100680821e+000	 1.057488787581721e+001
 4.375708889465193e+000	 8.097355832429123e-001	 1.055059729684283e+001
 4.367855058315383e+000	 8.510829511182845e-001	 1.054791367152977e+001
 4.359586077109249e+000	 8.924736614767607e-001	 1.054527778611790e+001
 4.350899575894356e+000	 9.339019652264679e-001	 1.054364491182130e+001
 4.341793281424052e+000	 9.753620361524212e-001	 1.054315056538036e+001
 4.332265019663749e+000	 1.016847972706356e+000	 1.054392941712568e+001
 4.322312718265833e+000	 1.058353799883198e+000	 1.054611513918758e+001
 4.311934409009967e+000	 1.099873471183904e+000	 1.054984025330813e+001
 4.301128230205594e+000	 1.141400870664311e+000	 1.055523597851026e+001
 4.289892429053334e+000	 1.182929815069449e+000	 1.056243207888324e+001
 4.278225363962058e+000	 1.224454056052707e+000	 1.057155671174744e+001
 4.400291523673573e+000	 8.142846595532255e-001	 1.052775915306716e+001
 4.392393569877434e+000	 8.558643160116016e-001	 1.053170536573124e+001
 4.384078133721181e+000	 8.974875584503188e-001	 1.053756835261024e+001
 4.375342831938033e+000	 9.391486054792365e-001	 1.054551454355128e+001
 4.366185378510290e+000	 9.808415981518260e-001	 1.054442178546853e+001
 4.356603587189687e+000	 1.022560601765058e+000	 1.054426414587850e+001
 4.346595373986204e+000	 1.064299607746415e+000	 1.054560299153609e+001
 4.336158759622090e+000	 1.106052535627761e+000	 1.054856867523801e+001
 4.325291871947847e+000	 1.147813235105695e+000	 1.055329011980170e+001
 4.313992948316907e+000	 1.189575488187861e+000	 1.055989466618164e+001
 4.302260337915721e+000	 1.231333011424581e+000	 1.056850792215577e+001
 4.424874157881446e+000	 8.188337358630459e-001	 1.050554717214190e+001
 4.416932081439071e+000	 8.606456809043407e-001	 1.050761952548632e+001
 4.408570190332767e+000	 9.025014554232427e-001	 1.051169868803661e+001
 4.399786087981418e+000	 9.443952457313434e-001	 1.051794615260548e+001
 4.390577475596269e+000	 9.863211601505711e-001	 1.052652460107368e+001
 4.380942154715376e+000	 1.028273230823133e+000	 1.053759808123999e+001
 4.370878029706319e+000	 1.070245415609068e+000	 1.054580044934386e+001
 4.360383110233927e+000	 1.112231600071145e+000	 1.054789663793769e+001
 4.349455513689765e+000	 1.154225599546729e+000	 1.055183346666581e+001
 4.338093467580077e+000	 1.196221161306078e+000	 1.055773589224505e+001
 4.326295311868889e+000	 1.238211966796443e+000	 1.056572701216006e+001
 4.085945572314992e+000	 1.169422413077266e+000	 1.060740507909253e+001
 4.074389528975536e+000	 1.209069876518825e+000	 1.064601551943746e+001
 4.062418795974019e+000	 1.248700735263687e+000	 1.068471890391520e+001
 4.050032136936430e+000	 1.288308848805790e+000	 1.068967695144819e+001
 4.037228430064649e+000	 1.327888023744063e+000	 1.069402308782541e+001
 4.024006670090824e+000	 1.367432016293249e+000	 1.069925219739749e+001
 4.010365970170742e+000	 1.406934534869337e+000	 1.070572246045894e+001
 3.996305563713150e+000	 1.446389242748077e+000	 1.071380847970328e+001
 3.981824806142011e+000	 1.485789760794904e+000	 1.072390131345419e+001
 3.966923176588746e+000	 1.525129670264476e+000	 1.073640847478769e+001
 3.951600279511499e+000	 1.564402515667893e+000	 1.075175389539797e+001
 4.109980546272603e+000	 1.176301368449240e+000	 1.060166117410057e+001
 4.098356526207931e+000	 1.216182052263254e+000	 1.064136200565655e+001
 4.086315377130201e+000	 1.256046033705988e+000	 1.067598003158417e+001
 4.073855855392611e+000	 1.295887136150756e+000	 1.068135313092922e+001
 4.060976832598230e+000	 1.335699129764719e+000	 1.068719882007929e+001
 4.047677297565866e+000	 1.375475734034469e+000	 1.069384474618049e+001
 4.033956358234573e+000	 1.415210620366680e+000	 1.070163501286816e+001
 4.019813243503739e+000	 1.454897414762255e+000	 1.071093026545819e+001
 4.005247305005702e+000	 1.494529700562308e+000	 1.072210774318127e+001
 3.990258018807951e+000	 1.534101021264173e+000	 1.073556129721217e+001
 3.974844987041911e+000	 1.573604883405484e+000	 1.075170137330554e+001
 4.134015520229721e+000	 1.183180323821201e+000	 1.059631134328432e+001
 4.122323523439744e+000	 1.223294228007851e+000	 1.063676136304533e+001
 4.110211958285729e+000	 1.263391332148599e+000	 1.066603756136919e+001
 4.097679573848086e+000	 1.303465423496135e+000	 1.067268319202944e+001
 4.084725235131073e+000	 1.343510235785849e+000	 1.067972818967126e+001
 4.071347925040157e+000	 1.383519451776188e+000	 1.068748612058633e+001
 4.057546746297664e+000	 1.423486705864506e+000	 1.069628711482597e+001
 4.043320923293615e+000	 1.463405586776860e+000	 1.070647797050707e+001
 4.028669803868731e+000	 1.503269640330041e+000	 1.071842222509581e+001
 4.013592861026560e+000	 1.543072372264059e+000	 1.073250019237971e+001
 3.998089694571819e+000	 1.582807251143084e+000	 1.074910896389773e+001
 4.158050494186345e+000	 1.190059279193150e+000	 1.059133845764253e+001
 4.146290520670970e+000	 1.230406403752616e+000	 1.063220198990550e+001
 4.134108539440599e+000	 1.270736630591519e+000	 1.065607736423421e+001
 4.121503292302855e+000	 1.311043710841926e+000	 1.066370625463657e+001
 4.108473637663178e+000	 1.351321341807455e+000	 1.067165661018150e+001
 4.095018552513700e+000	 1.391563169518405e+000	 1.068022800942982e+001
 4.081137134360011e+000	 1.431762791362815e+000	 1.068973670901739e+001
 4.066828603082779e+000	 1.471913758791889e+000	 1.070051576713528e+001
 4.052092302731094e+000	 1.512009580098101e+000	 1.071291513391202e+001
 4.036927703244575e+000	 1.552043723264134e+000	 1.072730170736682e+001
 4.021334402101221e+000	 1.592009618880696e+000	 1.074405935366116e+001
 4.182085468142476e+000	 1.196938234565087e+000	 1.058672579765788e+001
 4.170257517901614e+000	 1.237518579497549e+000	 1.062767256839299e+001
 4.158005120594816e+000	 1.278081929034749e+000	 1.064613240846764e+001
 4.145327010756917e+000	 1.318621998188129e+000	 1.065446146954879e+001
 4.132222040194549e+000	 1.359132447829537e+000	 1.066302939888939e+001
 4.118689179986494e+000	 1.399606887261122e+000	 1.067212187759073e+001
 4.104727522421620e+000	 1.440038876861605e+000	 1.068204138618880e+001
 4.090336282871229e+000	 1.480421930807344e+000	 1.069310734737093e+001
 4.075514801592792e+000	 1.520749519866489e+000	 1.070565623550834e+001
 4.060262545461995e+000	 1.561015074264399e+000	 1.072004165163166e+001
 4.044579109630118e+000	 1.601211986618317e+000	 1.073663436253408e+001
 4.206120442098111e+000	 1.203817189937011e+000	 1.058245704159733e+001
 4.194224515131673e+000	 1.244630755242650e+000	 1.062316205640781e+001
 4.181901701748377e+000	 1.285427227478289e+000	 1.063623581549974e+001
 4.169150729210273e+000	 1.326200285534745e+000	 1.064498801759154e+001
 4.155970442725177e+000	 1.366943553852094e+000	 1.065389177952484e+001
 4.142359807458537e+000	 1.407650605004338e+000	 1.066321897241185e+001
 4.128317910482487e+000	 1.448314962360878e+000	 1.067325839520333e+001
 4.113843962658969e+000	 1.488930102823224e+000	 1.068431593670655e+001
 4.098937300453828e+000	 1.529489459635205e+000	 1.069671470432280e+001
 4.083597387678821e+000	 1.569986425264854e+000	 1.071079511808893e+001
 4.067823817158510e+000	 1.610414354355949e+000	 1.072691496866478e+001
 4.230155416053255e+000	 1.210696145308922e+000	 1.057851625421155e+001
 4.218191512361147e+000	 1.251742930987919e+000	 1.061733482946992e+001
 4.205798282901285e+000	 1.292772525922139e+000	 1.062642085555208e+001
 4.192974447662923e+000	 1.333778572881773e+000	 1.063532510876450e+001
 4.179718845255071e+000	 1.374754659875128e+000	 1.064428888492608e+001
 4.166030434929832e+000	 1.415694322748053e+000	 1.065357032987913e+001
 4.151908298542612e+000	 1.456591047860634e+000	 1.066344465275343e+001
 4.137351642445993e+000	 1.497438274839530e+000	 1.067420430735285e+001
 4.122359799314200e+000	 1.538229399404250e+000	 1.068615914015520e+001
 4.106932229895052e+000	 1.578957776265498e+000	 1.069963650346612e+001
 4.091068524686397e+000	 1.619616722093591e+000	 1.071498133232618e+001
 4.254190390007903e+000	 1.217575100680821e+000	 1.057488787581721e+001
 4.242158509590039e+000	 1.258855106733357e+000	 1.060766511607498e+001
 4.229694864053536e+000	 1.300117824366298e+000	 1.061672094343434e+001
 4.216798166114867e+000	 1.341356860229214e+000	 1.062551198141744e+001
 4.203467247784223e+000	 1.382565765898636e+000	 1.063426575960709e+001
 4.189701062400376e+000	 1.423738040492267e+000	 1.064322678059212e+001
 4.175498686601996e+000	 1.464867133360872e+000	 1.065265675274418e+001
 4.160859322232307e+000	 1.505946446856262e+000	 1.066283479104338e+001
 4.145782298173908e+000	 1.546969339173621e+000	 1.067405758439996e+001
 4.130267072110688e+000	 1.587929127266332e+000	 1.068663952796989e+001
 4.114313232213778e+000	 1.628819089831244e+000	 1.070091281901958e+001
 4.278225363962058e+000	 1.224454056052707e+000	 1.057155671174744e+001
 4.266125506818345e+000	 1.265967282478963e+000	 1.059839872558479e+001
 4.253591445205132e+000	 1.307463122810768e+000	 1.060716963448289e+001
 4.240621884566103e+000	 1.348935147577067e+000	 1.061558790145386e+001
 4.227215650312640e+000	 1.390376871922621e+000	 1.062386736223872e+001
 4.213371689870171e+000	 1.431781758236980e+000	 1.063223895553330e+001
 4.199089074660639e+000	 1.473143218861593e+000	 1.064095097536049e+001
 4.184367002017906e+000	 1.514454618873418e+000	 1.065026929140744e+001
 4.169204797032951e+000	 1.555709278943321e+000	 1.066047753573154e+001
 4.153601914325729e+000	 1.596900478267356e+000	 1.067187725428940e+001
 4.137557939740653e+000	 1.638021457568906e+000	 1.068478802179975e+001
 4.302260337915721e+000	 1.231333011424581e+000	 1.056850792215577e+001
 4.290092504046069e+000	 1.273079458224736e+000	 1.058956373358578e+001
 4.277488026356076e+000	 1.314808421255548e+000	 1.059780062063541e+001
 4.264445603016635e+000	 1.356513434925334e+000	 1.060559216156138e+001
 4.250964052840319e+000	 1.398187977947081e+000	 1.061313856804648e+001
 4.237042317339218e+000	 1.439825475982193e+000	 1.062065729164394e+001
 4.222679462718540e+000	 1.481419304362795e+000	 1.062838329583009e+001
 4.207874681802794e+000	 1.522962790891000e+000	 1.063656929592830e+001
 4.192627295891330e+000	 1.564449218713350e+000	 1.064548596526430e+001
 4.176936756540174e+000	 1.605871829268569e+000	 1.065542210596279e+001
 4.160802647267024e+000	 1.647223825306579e+000	 1.066668478285166e+001
 4.326295311868889e+000	 1.238211966796443e+000	 1.056572701216006e+001
 4.314059501273209e+000	 1.280191633970678e+000	 1.058118845479366e+001
 4.301384607506363e+000	 1.322153719700637e+000	 1.058864772663647e+001
 4.288269321466461e+000	 1.364091722274012e+000	 1.059556408046766e+001
 4.274712455367262e+000	 1.405999083972017e+000	 1.060212417112848e+001
 4.260712944807515e+000	 1.447869193727904e+000	 1.060853203721418e+001
 4.246269850775702e+000	 1.489695389864481e+000	 1.061500939289464e+001
 4.231382361586969e+000	 1.531470962909008e+000	 1.062179588750282e+001
 4.216049794749047e+000	 1.573189158483706e+000	 1.062914933120693e+001
 4.200271598754028e+000	 1.614843180269973e+000	 1.063734588513132e+001
 4.184047354792891e+000	 1.656426193044263e+000	 1.064668021434792e+001
 3.951600279511499e+000	 1.564402515667893e+000	 1.075175389539797e+001
 3.935855846239047e+000	 1.603601807705202e+000	 1.074676185094534e+001
 3.919689736435062e+000	 1.642721026262243e+000	 1.074573274187056e+001
 3.903101939481164e+000	 1.681753623468193e+000	 1.074905350919522e+001
 3.886092575776805e+000	 1.720693026811101e+000	 1.075712579782703e+001
 3.868661897952027e+000	 1.759532642309954e+000	 1.077036580568567e+001
 3.850810291991064e+000	 1.798265857740103e+000	 1.078920409485341e+001
 3.832538278264387e+000	 1.836886045909252e+000	 1.081408536408994e+001
 3.813846512466861e+000	 1.875386567981046e+000	 1.084503090904455e+001
 3.794735786459811e+000	 1.913760776843248e+000	 1.083783361557333e+001
 3.775207029014879e+000	 1.952002020517314e+000	 1.083369312609453e+001
 3.974844987041911e+000	 1.573604883405484e+000	 1.075170137330554e+001
 3.959007939455936e+000	 1.613034759513854e+000	 1.074596077389389e+001
 3.942746734888186e+000	 1.652384091121428e+000	 1.074408242972885e+001
 3.926061362657818e+000	 1.691646291840493e+000	 1.074647850530664e+001
 3.908951943872515e+000	 1.730814750497264e+000	 1.075357647222203e+001
 3.891418732648381e+000	 1.769882834322603e+000	 1.076581894059810e+001
 3.873462117240142e+000	 1.808843892196424e+000	 1.078366345122714e+001
 3.855082621079272e+000	 1.847691257942943e+000	 1.080758222776631e+001
 3.836280903717666e+000	 1.886418253673829e+000	 1.082570679256595e+001
 3.817057761674656e+000	 1.925018193176184e+000	 1.081880346983733e+001
 3.797414129185245e+000	 1.963484385342178e+000	 1.081513487694055e+001
 3.998089694571819e+000	 1.582807251143084e+000	 1.074910896389773e+001
 3.982160032672422e+000	 1.622467711322332e+000	 1.074302626445723e+001
 3.965803733341005e+000	 1.662047155980281e+000	 1.074070213549818e+001
 3.949020785834266e+000	 1.701538960212334e+000	 1.074257378822696e+001
 3.931811311968122e+000	 1.740936474182872e+000	 1.074909434809727e+001
 3.914175567344729e+000	 1.780233026334631e+000	 1.076073266875861e+001
 3.896113942489314e+000	 1.819421926652086e+000	 1.077797310539628e+001
 3.877626963894351e+000	 1.858496469975969e+000	 1.080131524680981e+001
 3.858715294968766e+000	 1.897449939365970e+000	 1.080806664843056e+001
 3.839379736889895e+000	 1.936275609508532e+000	 1.080186932585025e+001
 3.819621229356107e+000	 1.974966750166537e+000	 1.079908340185774e+001
 4.021334402101221e+000	 1.592009618880696e+000	 1.074405935366116e+001
 4.005312125888501e+000	 1.631900663130633e+000	 1.073803434525006e+001
 3.988860731793518e+000	 1.671710220838803e+000	 1.073566116725693e+001
 3.971980209010511e+000	 1.711431628583718e+000	 1.073740190371833e+001
 3.954670680063623e+000	 1.751058197867925e+000	 1.074373516408027e+001
 3.936932402041073e+000	 1.790583218346036e+000	 1.075515587987868e+001
 3.918765767738582e+000	 1.829999961107088e+000	 1.077217505948549e+001
 3.900171306709628e+000	 1.869301682008328e+000	 1.079531950027016e+001
 3.881149686220161e+000	 1.908481625057469e+000	 1.079211238421118e+001
 3.861701712105531e+000	 1.947533025840291e+000	 1.078702642471829e+001
 3.841828329527464e+000	 1.986449114990393e+000	 1.078552728524915e+001
 4.044579109630118e+000	 1.601211986618317e+000	 1.073663436253408e+001
 4.028464219104175e+000	 1.641333614938760e+000	 1.073106033682293e+001
 4.011917730245727e+000	 1.681373285696994e+000	 1.072902829574649e+001
 3.994939632186549e+000	 1.721324296954644e+000	 1.073102502510264e+001
 3.977530048159018e+000	 1.761179921552422e+000	 1.073755445135056e+001
 3.959689236737413e+000	 1.800933410356820e+000	 1.074913742123474e+001
 3.941417592987946e+000	 1.840577995561431e+000	 1.076631143814269e+001
 3.922715649525100e+000	 1.880106894040022e+000	 1.078505623916320e+001
 3.903584077471855e+000	 1.919513310748325e+000	 1.077784635945170e+001
 3.884023687321564e+000	 1.958790442171462e+000	 1.077427062385459e+001
 3.864035429699317e+000	 1.997931479813745e+000	 1.077445589179873e+001
 4.067823817158510e+000	 1.610414354355949e+000	 1.072691496866478e+001
 4.051616312319444e+000	 1.650766566746712e+000	 1.072217887772130e+001
 4.034974728697631e+000	 1.691036350554854e+000	 1.072087176972379e+001
 4.017899055362382e+000	 1.731216965325112e+000	 1.072350496390272e+001
 4.000389416254310e+000	 1.771301645236366e+000	 1.073060753956673e+001
 3.982446071433747e+000	 1.811283602366981e+000	 1.074272609888066e+001
 3.964069418237406e+000	 1.851156030015116e+000	 1.076042448503843e+001
 3.945259992340768e+000	 1.890912106071049e+000	 1.077073133868783e+001
 3.926018468723842e+000	 1.930544996438538e+000	 1.076527137275359e+001
 3.906345662537991e+000	 1.970047858502044e+000	 1.076359837937042e+001
 3.886242529871669e+000	 2.009413844636593e+000	 1.076585934417754e+001
 4.091068524686397e+000	 1.619616722093591e+000	 1.071498133232618e+001
 4.074768405534308e+000	 1.660199518554488e+000	 1.071146394386063e+001
 4.058031727149230e+000	 1.700699415412381e+000	 1.071125933079041e+001
 4.040858478538012e+000	 1.741109633695123e+000	 1.071490318012069e+001
 4.023248784349496e+000	 1.781423368919754e+000	 1.072294956259153e+001
 4.005202906130077e+000	 1.821633794376520e+000	 1.073597067881876e+001
 3.986721243486961e+000	 1.861734064468140e+000	 1.075455655948448e+001
 3.967804335156631e+000	 1.901717318101411e+000	 1.075771337604007e+001
 3.948452859976127e+000	 1.941576682128110e+000	 1.075439064930273e+001
 3.928667637754816e+000	 1.981305274832037e+000	 1.075500672906674e+001
 3.908449630044514e+000	 2.020896209458937e+000	 1.075972850151013e+001
 4.114313232213778e+000	 1.628819089831244e+000	 1.070091281901958e+001
 4.097920498748768e+000	 1.669632470362090e+000	 1.069898886724477e+001
 4.081088725600525e+000	 1.710362480269579e+000	 1.070025822771901e+001
 4.063817901713436e+000	 1.751002302064675e+000	 1.070528079216793e+001
 4.046108152444578e+000	 1.791545092602588e+000	 1.071463546402271e+001
 4.027959740826403e+000	 1.831983986385438e+000	 1.072891988813129e+001
 4.009373068736611e+000	 1.872312098920506e+000	 1.074875013316722e+001
 3.990348677972690e+000	 1.912522530131107e+000	 1.074601203339286e+001
 3.970887251228708e+000	 1.952608367817038e+000	 1.074520782881894e+001
 3.950989612972036e+000	 1.992562691161443e+000	 1.074849327600228e+001
 3.930656730217855e+000	 2.032378574280777e+000	 1.075605493857061e+001
 4.137557939740653e+000	 1.638021457568906e+000	 1.068478802179975e+001
 4.121072591962822e+000	 1.679065422169517e+000	 1.068482635405336e+001
 4.104145724051513e+000	 1.720025545126444e+000	 1.068793523029680e+001
 4.086777324888655e+000	 1.760894970433769e+000	 1.069469858646035e+001
 4.068967520539554e+000	 1.801666816284866e+000	 1.070572000253767e+001
 4.050716575522725e+000	 1.842334178393734e+000	 1.072162241607366e+001
 4.032024893986358e+000	 1.882890133372213e+000	 1.073758054583776e+001
 4.012893020788947e+000	 1.923327742160137e+000	 1.073563724906546e+001
 3.993321642481584e+000	 1.963640053505324e+000	 1.073772695391181e+001
 3.973311588189652e+000	 2.003820107490259e+000	 1.074405617261549e+001
 3.952863830391693e+000	 2.043860939102113e+000	 1.075483092568027e+001
 4.160802647267024e+000	 1.647223825306579e+000	 1.066668478285166e+001
 4.144224685176470e+000	 1.688498373976768e+000	 1.066904850212294e+001
 4.127202722502195e+000	 1.729688609982978e+000	 1.067435664270506e+001
 4.109736748063670e+000	 1.770787638802406e+000	 1.068321702669195e+001
 4.091826888634428e+000	 1.811788539966590e+000	 1.069625775705872e+001
 4.073473410219042e+000	 1.852684370401407e+000	 1.071412691513103e+001
 4.054676719236199e+000	 1.893468167823261e+000	 1.072540869915801e+001
 4.035437363605398e+000	 1.934132954188501e+000	 1.072659921036842e+001
 4.015756033734755e+000	 1.974671739192967e+000	 1.073195245882681e+001
 3.995633563407664e+000	 2.015077523818487e+000	 1.074169410537879e+001
 3.975070930566027e+000	 2.055343303922946e+000	 1.075604940927883e+001
 4.184047354792891e+000	 1.656426193044263e+000	 1.064668021434792e+001
 4.167376778389714e+000	 1.697931325783844e+000	 1.065172681784539e+001
 4.150259720952576e+000	 1.739351674839182e+000	 1.065958831645262e+001
 4.132696171238480e+000	 1.780680307170585e+000	 1.067089626279941e+001
 4.114686256729197e+000	 1.821910263647759e+000	 1.068630313174637e+001
 4.096230244915354e+000	 1.863034562408459e+000	 1.070648200203976e+001
 4.077328544486139e+000	 1.904046202273650e+000	 1.071421924978009e+001
 4.057981706422046e+000	 1.944938166216198e+000	 1.071890834668723e+001
 4.038190424988224e+000	 1.985703424879969e+000	 1.072788915856645e+001
 4.017955538626072e+000	 2.026334940146126e+000	 1.074140627996423e+001
 3.997278030740859e+000	 2.066825668743275e+000	 1.075970399314340e+001
 3.775207029014879e+000	 1.952002020517314e+000	 1.083369312609453e+001
 3.755261306457614e+000	 1.990103645605905e+000	 1.085361575249271e+001
 3.734899823209242e+000	 2.028059000775460e+000	 1.086478689367026e+001
 3.714123922224505e+000	 2.065861440270376e+000	 1.087057895643535e+001
 3.692935085323902e+000	 2.103504327454526e+000	 1.087383777413990e+001
 3.671334933419178e+000	 2.140981038377075e+000	 1.087485218861440e+001
 3.649325226630563e+000	 2.178284965358760e+000	 1.087393755784905e+001
 3.626907864294587e+000	 2.215409520594833e+000	 1.087143564706422e+001
 3.604084884861436e+000	 2.252348139770831e+000	 1.086771445130431e+001
 3.580858465680938e+000	 2.289094285687272e+000	 1.086316794880634e+001
 3.557230922676468e+000	 2.325641451889307e+000	 1.085821578459556e+001
 3.797414129185245e+000	 1.963484385342178e+000	 1.081513487694055e+001
 3.777351078847552e+000	 2.001810137636888e+000	 1.083221587190777e+001
 3.756869822167703e+000	 2.039988759601311e+000	 1.084896173996854e+001
 3.735971710000170e+000	 2.078013566387165e+000	 1.085715339698829e+001
 3.714658232882046e+000	 2.115877882319285e+000	 1.085919311595730e+001
 3.692931021259852e+000	 2.153575044482422e+000	 1.085902539127812e+001
 3.670791845607464e+000	 2.191098406328612e+000	 1.085698002035615e+001
 3.648242616433983e+000	 2.228441341301310e+000	 1.085341374016895e+001
 3.625285384180478e+000	 2.265597246472443e+000	 1.084871003824645e+001
 3.601922339004716e+000	 2.302559546188415e+000	 1.084327889302508e+001
 3.578155810453152e+000	 2.339321695721108e+000	 1.083755644303084e+001
 3.819621229356107e+000	 1.974966750166537e+000	 1.079908340185774e+001
 3.799440851238083e+000	 2.013516629667467e+000	 1.081347544559660e+001
 3.778839821126840e+000	 2.051918518426859e+000	 1.082774991022289e+001
 3.757819497776587e+000	 2.090165692503750e+000	 1.084176733763727e+001
 3.736381380441008e+000	 2.128251437183941e+000	 1.084716743378457e+001
 3.714527109101399e+000	 2.166169050587767e+000	 1.084596971908286e+001
 3.692258464585284e+000	 2.203911847298560e+000	 1.084293695573069e+001
 3.669577368574334e+000	 2.241473162007985e+000	 1.083844082542674e+001
 3.646485883500498e+000	 2.278846353174354e+000	 1.083288029306063e+001
 3.622986212329488e+000	 2.316024806689955e+000	 1.082668133413698e+001
 3.599080698230837e+000	 2.353001939553409e+000	 1.082029658960823e+001
 3.841828329527464e+000	 1.986449114990393e+000	 1.078552728524915e+001
 3.821530623629203e+000	 2.025223121697641e+000	 1.079738086359010e+001
 3.800809820086653e+000	 2.063848277252102e+000	 1.080933219426020e+001
 3.779667285553756e+000	 2.102317818620132e+000	 1.082124864473097e+001
 3.758104528000788e+000	 2.140624992048494e+000	 1.083299828697901e+001
 3.736123196943818e+000	 2.178763056693108e+000	 1.083574718856637e+001
 3.713725083564023e+000	 2.216725288268604e+000	 1.083186823988599e+001
 3.690912120715638e+000	 2.254504982714857e+000	 1.082657460025149e+001
 3.667686382821499e+000	 2.292095459876561e+000	 1.082028069814799e+001
 3.644050085655257e+000	 2.329490067191892e+000	 1.081342850444741e+001
 3.620005586009521e+000	 2.366682183386207e+000	 1.080648717295246e+001
 3.864035429699317e+000	 1.997931479813745e+000	 1.077445589179873e+001
 3.843620396020914e+000	 2.036929613727413e+000	 1.078391935744300e+001
 3.822779819047143e+000	 2.075778036077042e+000	 1.079369371417443e+001
 3.801515073331677e+000	 2.114469944736309e+000	 1.080365303621722e+001
 3.779827675561385e+000	 2.152998546912943e+000	 1.081367201891588e+001
 3.757719284787112e+000	 2.191357062798446e+000	 1.082362629573419e+001
 3.735191702543681e+000	 2.229538729238746e+000	 1.082383488504126e+001
 3.712246872857897e+000	 2.267536803421926e+000	 1.081787395481653e+001
 3.688886882143479e+000	 2.305344566579065e+000	 1.081096798421773e+001
 3.665113958982019e+000	 2.342955327694226e+000	 1.080357493918395e+001
 3.640930473789205e+000	 2.380362427219501e+000	 1.079618049826119e+001
 3.886242529871669e+000	 2.009413844636593e+000	 1.076585934417754e+001
 3.865710168413219e+000	 2.048636105756780e+000	 1.077307897619040e+001
 3.844749818008309e+000	 2.087707794901678e+000	 1.078082046833313e+001
 3.823362861110349e+000	 2.126622070852284e+000	 1.078896448358891e+001
 3.801550823122800e+000	 2.165372101777289e+000	 1.079739222370962e+001
 3.779315372631277e+000	 2.203951068903780e+000	 1.080598574197431e+001
 3.756658321524258e+000	 2.242352170208985e+000	 1.081462825688498e+001
 3.733581625001110e+000	 2.280568624129191e+000	 1.081239893797578e+001
 3.710087381466440e+000	 2.318593673281867e+000	 1.080500009462106e+001
 3.686177832309777e+000	 2.356420588196958e+000	 1.079717643927005e+001
 3.661855361569890e+000	 2.394042671053293e+000	 1.078943018854575e+001
 3.908449630044514e+000	 2.020896209458937e+000	 1.075972850151013e+001
 3.887799940806113e+000	 2.060342597785744e+000	 1.076484856312385e+001
 3.866719816970153e+000	 2.099637553726011e+000	 1.077069930648337e+001
 3.845210648889776e+000	 2.138774196968054e+000	 1.077716786613171e+001
 3.823273970685031e+000	 2.177745656641532e+000	 1.078414183405553e+001
 3.800911460476317e+000	 2.216545075009111e+000	 1.079150956835737e+001
 3.778124940505752e+000	 2.255165611179321e+000	 1.079916050290544e+001
 3.754916377145277e+000	 2.293600444836655e+000	 1.080698545712973e+001
 3.731287880790379e+000	 2.331842779984966e+000	 1.080243615090124e+001
 3.707241705638529e+000	 2.369885848700087e+000	 1.079429003536767e+001
 3.682780249351574e+000	 2.407722914887582e+000	 1.078629114719331e+001
 3.930656730217855e+000	 2.032378574280777e+000	 1.075605493857061e+001
 3.909889713199599e+000	 2.072049089814303e+000	 1.075921773335474e+001
 3.888689815932672e+000	 2.111567312550039e+000	 1.076331790570137e+001
 3.867058436669952e+000	 2.150926323083621e+000	 1.076824894528019e+001
 3.844997118248081e+000	 2.190119211505671e+000	 1.077390471889922e+001
 3.822507548322229e+000	 2.229139081114439e+000	 1.078017977524505e+001
 3.799591559488166e+000	 2.267979052149753e+000	 1.078696965064023e+001
 3.776251129290399e+000	 2.306632265544315e+000	 1.079417117498831e+001
 3.752488380115298e+000	 2.345091886688362e+000	 1.080168277706516e+001
 3.728305578968275e+000	 2.383351109203613e+000	 1.079497395313902e+001
 3.703705137134258e+000	 2.421403158722369e+000	 1.078681952179803e+001
 3.952863830391693e+000	 2.043860939102113e+000	 1.075483092568027e+001
 3.931979485593676e+000	 2.083755581842459e+000	 1.075617685213394e+001
 3.910659814895868e+000	 2.123497071373763e+000	 1.075866474715304e+001
 3.888906224450881e+000	 2.163078449198984e+000	 1.076219433983835e+001
 3.866720265811948e+000	 2.202492766369706e+000	 1.076666565713740e+001
 3.844103636169014e+000	 2.241733087219764e+000	 1.077197932480604e+001
 3.821058178471498e+000	 2.280792493120282e+000	 1.077803686942690e+001
 3.797585881436475e+000	 2.319664086252172e+000	 1.078474102065624e+001
 3.773688879441198e+000	 2.358340993392056e+000	 1.079199601285843e+001
 3.749369452299018e+000	 2.396816369707536e+000	 1.079928757967907e+001
 3.724630024917941e+000	 2.435083402557653e+000	 1.079107266921141e+001
 3.975070930566027e+000	 2.055343303922946e+000	 1.075604940927883e+001
 3.954069257988343e+000	 2.095462073870210e+000	 1.075571701389823e+001
 3.932629813859740e+000	 2.135426830197184e+000	 1.075672909363326e+001
 3.910754012232562e+000	 2.175230575314143e+000	 1.075899150203075e+001
 3.888443413376632e+000	 2.214866321233638e+000	 1.076241031220027e+001
 3.865699724016673e+000	 2.254327093325085e+000	 1.076689211415002e+001
 3.842524797455749e+000	 2.293605934090909e+000	 1.077234431321945e+001
 3.818920633583504e+000	 2.332695906960226e+000	 1.077867542878041e+001
 3.794889378768076e+000	 2.371590100096046e+000	 1.078579539236649e+001
 3.770433325630755e+000	 2.410281630211857e+000	 1.079361584438168e+001
 3.745554912702627e+000	 2.448763646393434e+000	 1.079910912176420e+001
 3.997278030740859e+000	 2.066825668743275e+000	 1.075970399314340e+001
 3.976159030383603e+000	 2.107168565897559e+000	 1.075783002201509e+001
 3.954599812824289e+000	 2.147356589020302e+000	 1.075750096785403e+001
 3.932601800014995e+000	 2.187382701429100e+000	 1.075862869435199e+001
 3.910166560942136e+000	 2.227239876097467e+000	 1.076112520748114e+001
 3.887295811865205e+000	 2.266921099430403e+000	 1.076490294935704e+001
 3.863991416440920e+000	 2.306419375061632e+000	 1.076987509323789e+001
 3.840255385731489e+000	 2.345727727668478e+000	 1.077595583883213e+001
 3.816089878095935e+000	 2.384839206800335e+000	 1.078306070707420e+001
 3.791497198963488e+000	 2.423746890716576e+000	 1.079110683351953e+001
 3.766479800488311e+000	 2.462443890229713e+000	 1.080001325950306e+001
 3.557230922676468e+000	 2.325641451889307e+000	 1.085821578459556e+001
 3.533204709905683e+000	 2.361983166298250e+000	 1.084780725145461e+001
 3.508782419009181e+000	 2.398112994838169e+000	 1.084651748255504e+001
 3.483966778545826e+000	 2.434024545055289e+000	 1.085524766709823e+001
 3.458760653213694e+000	 2.469711469727998e+000	 1.087491668662235e+001
 3.433167042958189e+000	 2.505167470460532e+000	 1.089691306462102e+001
 3.407189081967098e+000	 2.540386301257156e+000	 1.087234453963415e+001
 3.380830037553034e+000	 2.575361772072695e+000	 1.085489691764728e+001
 3.354093308923843e+000	 2.610087752335312e+000	 1.084504160416843e+001
 3.326982425841761e+000	 2.644558174437430e+000	 1.084325382174539e+001
 3.299501047172259e+000	 2.678767037190700e+000	 1.085001204055208e+001
 3.578155810453152e+000	 2.339321695721108e+000	 1.083755644303084e+001
 3.553988267019065e+000	 2.375877184920824e+000	 1.083311322723823e+001
 3.529422315587982e+000	 2.412219541864152e+000	 1.083725072946171e+001
 3.504460700769116e+000	 2.448342336494647e+000	 1.085085492506280e+001
 3.479106304111708e+000	 2.484239184254102e+000	 1.087483036650387e+001
 3.453362143207897e+000	 2.519903749697368e+000	 1.087481487219991e+001
 3.427231370681873e+000	 2.555329750087556e+000	 1.085432221660843e+001
 3.400717273065733e+000	 2.590510958967459e+000	 1.084034436652024e+001
 3.373823269562664e+000	 2.625441209703058e+000	 1.083333211196397e+001
 3.346552910698207e+000	 2.660114398994963e+000	 1.083374069843808e+001
 3.318909876860575e+000	 2.694524490353718e+000	 1.084202927997717e+001
 3.599080698230837e+000	 2.353001939553409e+000	 1.082029658960823e+001
 3.574771824133441e+000	 2.389771203543980e+000	 1.082131741133871e+001
 3.550062212167763e+000	 2.426326088890771e+000	 1.083037946974621e+001
 3.524954622993362e+000	 2.462660127934669e+000	 1.084835387556963e+001
 3.499451955010642e+000	 2.498766898780868e+000	 1.087613120996956e+001
 3.473557243458482e+000	 2.534640028934829e+000	 1.085574860153965e+001
 3.447273659397470e+000	 2.570273198918516e+000	 1.083886419272171e+001
 3.420604508579188e+000	 2.605660145862692e+000	 1.082789200043358e+001
 3.393553230202165e+000	 2.640794667071146e+000	 1.082326246232137e+001
 3.366123395555250e+000	 2.675670623552684e+000	 1.082541111039172e+001
 3.338318706549391e+000	 2.710281943516740e+000	 1.083477804630388e+001
 3.620005586009521e+000	 2.366682183386207e+000	 1.080648717295246e+001
 3.595555381248813e+000	 2.403665222167719e+000	 1.081247884918298e+001
 3.570702108748524e+000	 2.440432635918028e+000	 1.082597068781750e+001
 3.545448545218561e+000	 2.476977919375354e+000	 1.084781928061313e+001
 3.519797605910497e+000	 2.513294613308291e+000	 1.085838044454388e+001
 3.493752343709943e+000	 2.549376308172915e+000	 1.083973542969402e+001
 3.467315948113888e+000	 2.585216647750037e+000	 1.082599929274932e+001
 3.440491744093401e+000	 2.620809332758390e+000	 1.081757616398944e+001
 3.413283190842348e+000	 2.656148124439577e+000	 1.081487638808899e+001
 3.385693880412889e+000	 2.691226848110592e+000	 1.081831604351889e+001
 3.357727536238708e+000	 2.726039396679764e+000	 1.082831643981311e+001
 3.640930473789205e+000	 2.380362427219501e+000	 1.079618049826119e+001
 3.616338938365180e+000	 2.417559240792040e+000	 1.080665775606163e+001
 3.591342005330266e+000	 2.454539182945925e+000	 1.082409235314838e+001
 3.565942467444719e+000	 2.491295710816703e+000	 1.084932670445456e+001
 3.540143256811271e+000	 2.527822327836374e+000	 1.084217072447290e+001
 3.513947443962280e+000	 2.564112587411626e+000	 1.082679697676808e+001
 3.487358236831126e+000	 2.600160096582118e+000	 1.081575660828201e+001
 3.460378979608368e+000	 2.635958519654555e+000	 1.080943329473720e+001
 3.433013151483213e+000	 2.671501581808350e+000	 1.080821754365048e+001
 3.405264365271124e+000	 2.706783072668689e+000	 1.081250623639875e+001
 3.377136365928527e+000	 2.741796849842790e+000	 1.082270214721279e+001
 3.661855361569890e+000	 2.394042671053293e+000	 1.078943018854575e+001
 3.637122495482541e+000	 2.431453259416944e+000	 1.080391548370439e+001
 3.611981901912987e+000	 2.468645729974458e+000	 1.082481339213081e+001
 3.586436389671830e+000	 2.505613502258716e+000	 1.084546157121670e+001
 3.560488907712968e+000	 2.542350042365117e+000	 1.082950585747055e+001
 3.534142544215492e+000	 2.578848866650963e+000	 1.081695529325961e+001
 3.507400525549186e+000	 2.615103545414763e+000	 1.080816549010259e+001
 3.480266215124092e+000	 2.651107706551187e+000	 1.080349992051779e+001
 3.452743112124757e+000	 2.686855039177465e+000	 1.080332950716654e+001
 3.424834850129956e+000	 2.722339297226972e+000	 1.080803218734374e+001
 3.396545195618846e+000	 2.757554303005819e+000	 1.081799245345421e+001
 3.682780249351574e+000	 2.407722914887582e+000	 1.078629114719331e+001
 3.657906052600898e+000	 2.445347278042430e+000	 1.080431448799477e+001
 3.632621798496690e+000	 2.482752277003630e+000	 1.082820366089069e+001
 3.606930311899896e+000	 2.519931293701393e+000	 1.083342511974164e+001
 3.580834558615584e+000	 2.556877756894518e+000	 1.082040106076514e+001
 3.554337644469579e+000	 2.593585145890925e+000	 1.081023284783201e+001
 3.527442814268066e+000	 2.630046994247966e+000	 1.080325554082260e+001
 3.500153450640571e+000	 2.666256893448285e+000	 1.079981265689865e+001
 3.472473072766985e+000	 2.702208496546922e+000	 1.080025578274040e+001
 3.444405334989382e+000	 2.737895521785442e+000	 1.080494416122535e+001
 3.415954025309669e+000	 2.773311756168852e+000	 1.081424425314565e+001
 3.703705137134258e+000	 2.421403158722369e+000	 1.078681952179803e+001
 3.678689609720249e+000	 2.459241296668499e+000	 1.080791829777944e+001
 3.653261695081372e+000	 2.496858824033440e+000	 1.083433391902423e+001
 3.627424234128919e+000	 2.534249085144733e+000	 1.082540067492399e+001
 3.601180209519121e+000	 2.571405471424580e+000	 1.081487212166564e+001
 3.574532744724543e+000	 2.608321425131512e+000	 1.080665251550175e+001
 3.547485102987768e+000	 2.644990443081732e+000	 1.080105660776839e+001
 3.520040686157808e+000	 2.681406080345850e+000	 1.079840820469558e+001
 3.492203033409893e+000	 2.717561953916722e+000	 1.079903980250989e+001
 3.463975819849408e+000	 2.753451746344102e+000	 1.080329219606839e+001
 3.435362855000992e+000	 2.789069209331887e+000	 1.081151406157891e+001
 3.724630024917941e+000	 2.435083402557653e+000	 1.079107266921141e+001
 3.699473166840595e+000	 2.473135315295151e+000	 1.081479148472865e+001
 3.673901591667034e+000	 2.510965371063888e+000	 1.083133932628908e+001
 3.647918156358897e+000	 2.548566876588737e+000	 1.082139753960885e+001
 3.621525860423578e+000	 2.585933185955301e+000	 1.081293538154809e+001
 3.594727844980382e+000	 2.623057704372725e+000	 1.080623756622391e+001
 3.567527391708289e+000	 2.659933891916058e+000	 1.080159877610725e+001
 3.539927921675801e+000	 2.696555267243883e+000	 1.079932334757806e+001
 3.511932994053483e+000	 2.732915411286863e+000	 1.079972492866883e+001
 3.483546304710028e+000	 2.769007970902949e+000	 1.080312610942325e+001
 3.454771684692816e+000	 2.804826662494924e+000	 1.080985802538436e+001
 3.745554912702627e+000	 2.448763646393434e+000	 1.079910912176420e+001
 3.720256723961937e+000	 2.487029333922384e+000	 1.082499963420725e+001
 3.694541488253677e+000	 2.525071918094974e+000	 1.082920132375130e+001
 3.668412078589830e+000	 2.562884668033404e+000	 1.082142571181075e+001
 3.641871511328957e+000	 2.600460900486682e+000	 1.081460772037905e+001
 3.614922945237098e+000	 2.637793983614563e+000	 1.080901165386043e+001
 3.587569680429633e+000	 2.674877340750946e+000	 1.080491236220367e+001
 3.559815157194549e+000	 2.711704454142382e+000	 1.080259494975499e+001
 3.531662954697752e+000	 2.748268868657348e+000	 1.080235445542084e+001
 3.503116789571245e+000	 2.784564195461981e+000	 1.080449550452427e+001
 3.474180514385142e+000	 2.820584115657964e+000	 1.080933193282870e+001
 3.766479800488311e+000	 2.462443890229713e+000	 1.080001325950306e+001
 3.741040281084275e+000	 2.500923352550201e+000	 1.083775413358640e+001
 3.715181384841300e+000	 2.539178465126699e+000	 1.083152265044370e+001
 3.688906000821719e+000	 2.577202459478736e+000	 1.082549586540330e+001
 3.662217162235255e+000	 2.614988615018722e+000	 1.081990654175457e+001
 3.635118045494690e+000	 2.652530262857026e+000	 1.081499880551600e+001
 3.607611969151798e+000	 2.689820789586394e+000	 1.081102790719731e+001
 3.579702392714054e+000	 2.726853641041348e+000	 1.080825995373744e+001
 3.551392915342705e+000	 2.763622326028175e+000	 1.080697161086793e+001
 3.522687274433059e+000	 2.800120420021205e+000	 1.080744977624302e+001
 3.493589344077969e+000	 2.836341568821007e+000	 1.080999122376951e+001
 3.299501047172259e+000	 2.678767037190700e+000	 1.085001204055208e+001
 3.271652959324307e+000	 2.712708409240331e+000	 1.084292546361334e+001
 3.243442074581433e+000	 2.746376432436798e+000	 1.083353612668227e+001
 3.214872429326423e+000	 2.779765325159458e+000	 1.082200744689658e+001
 3.185948182162389e+000	 2.812869385587000e+000	 1.080851430264790e+001
 3.156673611930151e+000	 2.845682994912844e+000	 1.079324274774524e+001
 3.127053115624468e+000	 2.878200620501057e+000	 1.077638969906727e+001
 3.097091206211275e+000	 2.910416818979073e+000	 1.077101930586290e+001
 3.066792510348125e+000	 2.942326239263588e+000	 1.076203573100377e+001
 3.036161766010286e+000	 2.973923625516154e+000	 1.074938686438718e+001
 3.005203820025000e+000	 3.005203820025000e+000	 1.073414214602399e+001
 3.318909876860575e+000	 2.694524490353718e+000	 1.084202927997717e+001
 3.290897976731710e+000	 2.728665517534071e+000	 1.083096409783751e+001
 3.262521145608556e+000	 2.762531587926649e+000	 1.081821419341108e+001
 3.233783443617327e+000	 2.796116885901280e+000	 1.080397204980297e+001
 3.204689053823507e+000	 2.829415676096524e+000	 1.078844121174024e+001
 3.175242280237567e+000	 2.862422306653998e+000	 1.077183596585184e+001
 3.145447545718942e+000	 2.895131212392854e+000	 1.075438099473400e+001
 3.115309389780423e+000	 2.927536917920682e+000	 1.074089288699276e+001
 3.084832466295199e+000	 2.959634040677222e+000	 1.073439036533133e+001
 3.054021541108976e+000	 2.991417293907330e+000	 1.072483174630438e+001
 3.022881489559751e+000	 3.022881489559750e+000	 1.071333210417554e+001
 3.338318706549391e+000	 2.710281943516740e+000	 1.083477804630388e+001
 3.310142994139513e+000	 2.744622625827627e+000	 1.082012848816883e+001
 3.281600216635980e+000	 2.778686743416163e+000	 1.080440225921099e+001
 3.252694457908432e+000	 2.812468446642638e+000	 1.078782075314452e+001
 3.223429925484727e+000	 2.845961966605489e+000	 1.077061603377724e+001
 3.193810948544984e+000	 2.879161618394527e+000	 1.075303048152337e+001
 3.163841975813316e+000	 2.912061804283989e+000	 1.073531641398543e+001
 3.133527573349372e+000	 2.944657016861628e+000	 1.071773568138462e+001
 3.102872422241972e+000	 2.976941842090219e+000	 1.070985443790154e+001
 3.071881316207268e+000	 3.008910962297920e+000	 1.070361869284472e+001
 3.040559159093999e+000	 3.040559159093999e+000	 1.069607882795508e+001
 3.357727536238708e+000	 2.726039396679764e+000	 1.082831643981311e+001
 3.329388011547718e+000	 2.760579734121002e+000	 1.081046911161858e+001
 3.300679287663705e+000	 2.794841898905339e+000	 1.079214328923674e+001
 3.271605472199738e+000	 2.828820007383533e+000	 1.077358912565246e+001
 3.242170797146046e+000	 2.862508257113895e+000	 1.075506706046491e+001
 3.212379616852402e+000	 2.895900930134435e+000	 1.073684743274475e+001
 3.182236405907591e+000	 2.928992396174468e+000	 1.071921006823294e+001
 3.151745756918121e+000	 2.961777115801909e+000	 1.070244384172104e+001
 3.120912378188446e+000	 2.994249643502574e+000	 1.068858726686411e+001
 3.089741091305159e+000	 3.026404630687927e+000	 1.068589877877589e+001
 3.058236828627750e+000	 3.058236828627750e+000	 1.068252520469675e+001
 3.377136365928527e+000	 2.741796849842790e+000	 1.082270214721279e+001
 3.348633028956324e+000	 2.776536842414193e+000	 1.080203620362809e+001
 3.319758358691729e+000	 2.810997054394176e+000	 1.078148017596746e+001
 3.290516486491244e+000	 2.845171568123966e+000	 1.076131282908268e+001
 3.260911668807467e+000	 2.879054547621742e+000	 1.074182283895615e+001
 3.230948285159820e+000	 2.912640241873717e+000	 1.072330837201067e+001
 3.200630836001766e+000	 2.945922988064285e+000	 1.070607663902145e+001
 3.169963940486670e+000	 2.978897214741524e+000	 1.069044342453030e+001
 3.138952334134619e+000	 3.011557444914291e+000	 1.067673259274076e+001
 3.107600866402650e+000	 3.043898299077347e+000	 1.067182409447064e+001
 3.075914498161000e+000	 3.075914498161000e+000	 1.067281527845369e+001
 3.396545195618846e+000	 2.757554303005819e+000	 1.081799245345421e+001
 3.367878046365330e+000	 2.792493950707203e+000	 1.079487976497075e+001
 3.338837429720058e+000	 2.827152209882677e+000	 1.077245574128314e+001
 3.309427500782953e+000	 2.861523128863934e+000	 1.075102761555784e+001
 3.279652540468988e+000	 2.895600838129032e+000	 1.073091216455238e+001
 3.249516953467239e+000	 2.929379553612376e+000	 1.071243525448251e+001
 3.219025266095842e+000	 2.962853579953444e+000	 1.069593136173981e+001
 3.188182124055020e+000	 2.996017313680476e+000	 1.068174306942023e+001
 3.156992290080493e+000	 3.028865246325366e+000	 1.067022054070315e+001
 3.125460641499740e+000	 3.061391967466183e+000	 1.066172097019469e+001
 3.093592167693749e+000	 3.093592167693749e+000	 1.066709421694883e+001
 3.415954025309669e+000	 2.773311756168852e+000	 1.081424425314565e+001
 3.387123063774741e+000	 2.808451059000032e+000	 1.078904956841869e+001
 3.357916500748686e+000	 2.843307365370840e+000	 1.076511273847033e+001
 3.328338515074862e+000	 2.877874689603440e+000	 1.074276932500010e+001
 3.298393412130610e+000	 2.912147128635764e+000	 1.072236407365383e+001
 3.268085621774659e+000	 2.946118865350410e+000	 1.070425042654895e+001
 3.237419696189817e+000	 2.979784171841943e+000	 1.068879000988664e+001
 3.206400307623169e+000	 3.013137412618762e+000	 1.067635209767169e+001
 3.175032246026067e+000	 3.046173047735802e+000	 1.066731305264013e+001
 3.143320416596433e+000	 3.078885635854434e+000	 1.066205574556864e+001
 3.111269837226000e+000	 3.111269837226000e+000	 1.066550827965252e+001
 3.435362855000992e+000	 2.789069209331887e+000	 1.081151406157891e+001
 3.406368081184549e+000	 2.824408167292675e+000	 1.078459516518351e+001
 3.376995571777615e+000	 2.859462520858666e+000	 1.075949385415974e+001
 3.347249529366973e+000	 2.894226250342483e+000	 1.073657388265098e+001
 3.317134283792334e+000	 2.928693419141936e+000	 1.071620783694887e+001
 3.286654290082080e+000	 2.962858177087821e+000	 1.069877661477431e+001
 3.255814126283694e+000	 2.996714763729783e+000	 1.068466887986946e+001
 3.224618491191120e+000	 3.030257511556385e+000	 1.067428049298232e+001
 3.193072201971343e+000	 3.063480849145600e+000	 1.066801392040416e+001
 3.161180191692723e+000	 3.096379304242100e+000	 1.066627762129415e+001
 3.128947506757750e+000	 3.128947506757750e+000	 1.066519392131100e+001
 3.454771684692816e+000	 2.804826662494924e+000	 1.080985802538436e+001
 3.425613098594761e+000	 2.840365275585138e+000	 1.078156589113987e+001
 3.396074642806846e+000	 2.875617676346153e+000	 1.075564171019865e+001
 3.366160543659284e+000	 2.910577811081063e+000	 1.073247729667467e+001
 3.335875155454158e+000	 2.945239709647550e+000	 1.071247295283284e+001
 3.305222958389500e+000	 2.979597488824607e+000	 1.069603691521952e+001
 3.274208556377471e+000	 3.013645355616964e+000	 1.068358477631629e+001
 3.242836674758870e+000	 3.047377610493343e+000	 1.067553888285928e+001
 3.211112157916316e+000	 3.080788650554756e+000	 1.067232771204426e+001
 3.179039966788615e+000	 3.113872972629181e+000	 1.067438522691229e+001
 3.146625176289000e+000	 3.146625176289000e+000	 1.066043515473026e+001
 3.474180514385142e+000	 2.820584115657964e+000	 1.080933193282870e+001
 3.444858116005373e+000	 2.856322383877417e+000	 1.078001087284055e+001
 3.415153713836379e+000	 2.891772831833303e+000	 1.075359886546050e+001
 3.385071557951797e+000	 2.926929371819181e+000	 1.073051565584180e+001
 3.354616027116084e+000	 2.961786000152606e+000	 1.071118914104752e+001
 3.323791626696921e+000	 2.996336800560770e+000	 1.069605478312090e+001
 3.292602986471148e+000	 3.030575947503486e+000	 1.068555499787948e+001
 3.261054858326421e+000	 3.064497709429636e+000	 1.068013852063578e+001
 3.229152113860990e+000	 3.098096451963273e+000	 1.068025975012469e+001
 3.196899741884107e+000	 3.131366641015677e+000	 1.068145087937121e+001
 3.164302845819750e+000	 3.164302845819750e+000	 1.066265699902088e+001
 3.493589344077969e+000	 2.836341568821007e+000	 1.080999122376951e+001
 3.464103133416387e+000	 2.872279492169516e+000	 1.077997903333085e+001
 3.434232784866212e+000	 2.907927987320115e+000	 1.075340781759411e+001
 3.403982572244511e+000	 2.943280932556834e+000	 1.073072512729037e+001
 3.373356898778110e+000	 2.978332290657103e+000	 1.071238633653268e+001
 3.342360295004344e+000	 3.013076112296310e+000	 1.069885402291315e+001
 3.310997416564726e+000	 3.047506539389349e+000	 1.069059732351285e+001
 3.279273041893773e+000	 3.081617808365265e+000	 1.068809126808703e+001
 3.247192069805366e+000	 3.115404253371150e+000	 1.069181609076611e+001
 3.214759516979199e+000	 3.148860309401589e+000	 1.068555900619004e+001
 3.181980515350000e+000	 3.181980515350000e+000	 1.067172542379898e+001
 3.005203820025000e+000	 3.005203820025000e+000	 1.073414214602399e+001
 2.973923625516154e+000	 3.036161766010285e+000	 1.071187682911891e+001
 2.942326239263588e+000	 3.066792510348125e+000	 1.070278057100609e+001
 2.910416818979071e+000	 3.097091206211275e+000	 1.070827725592863e+001
 2.878200620501058e+000	 3.127053115624469e+000	 1.072422408574905e+001
 2.845682994912843e+000	 3.156673611930151e+000	 1.067409461677430e+001
 2.812869385587000e+000	 3.185948182162389e+000	 1.062675742438674e+001
 2.779765325159459e+000	 3.214872429326423e+000	 1.058251721105544e+001
 2.746376432436797e+000	 3.243442074581434e+000	 1.054167769477021e+001
 2.712708409240331e+000	 3.271652959324307e+000	 1.050454136805497e+001
 2.678767037190700e+000	 3.299501047172260e+000	 1.047140926166484e+001
 3.022881489559751e+000	 3.022881489559750e+000	 1.071333210417554e+001
 2.991417293907329e+000	 3.054021541108976e+000	 1.069990634891444e+001
 2.959634040677222e+000	 3.084832466295199e+000	 1.069903834840104e+001
 2.927536917920681e+000	 3.115309389780423e+000	 1.071216552850452e+001
 2.895131212392853e+000	 3.145447545718942e+000	 1.068793708934730e+001
 2.862422306653998e+000	 3.175242280237567e+000	 1.064296097990693e+001
 2.829415676096524e+000	 3.204689053823507e+000	 1.060010179068859e+001
 2.796116885901280e+000	 3.233783443617327e+000	 1.055965245012454e+001
 2.762531587926648e+000	 3.262521145608556e+000	 1.052190549988854e+001
 2.728665517534071e+000	 3.290897976731710e+000	 1.048715286568953e+001
 2.694524490353718e+000	 3.318909876860575e+000	 1.045568563198084e+001
 3.040559159093999e+000	 3.040559159093999e+000	 1.069607882795508e+001
 3.008910962297920e+000	 3.071881316207268e+000	 1.069107347381447e+001
 2.976941842090219e+000	 3.102872422241972e+000	 1.069801283355652e+001
 2.944657016861627e+000	 3.133527573349372e+000	 1.069954057578449e+001
 2.912061804283990e+000	 3.163841975813316e+000	 1.065827323844380e+001
 2.879161618394527e+000	 3.193810948544984e+000	 1.061817242895418e+001
 2.845961966605489e+000	 3.223429925484727e+000	 1.057951897963402e+001
 2.812468446642638e+000	 3.252694457908431e+000	 1.054259414949011e+001
 2.778686743416162e+000	 3.281600216635980e+000	 1.050767940378407e+001
 2.744622625827627e+000	 3.310142994139513e+000	 1.047505619654929e+001
 2.710281943516740e+000	 3.338318706549391e+000	 1.044500575626130e+001
 3.058236828627750e+000	 3.058236828627750e+000	 1.068252520469675e+001
 3.026404630687927e+000	 3.089741091305159e+000	 1.068552365072202e+001
 2.994249643502575e+000	 3.120912378188445e+000	 1.069985182866963e+001
 2.961777115801909e+000	 3.151745756918122e+000	 1.067119371644618e+001
 2.928992396174468e+000	 3.182236405907591e+000	 1.063517977781074e+001
 2.895900930134435e+000	 3.212379616852402e+000	 1.059968064448169e+001
 2.862508257113895e+000	 3.242170797146047e+000	 1.056496500587075e+001
 2.828820007383534e+000	 3.271605472199738e+000	 1.053130255404756e+001
 2.794841898905339e+000	 3.300679287663704e+000	 1.049896377570830e+001
 2.760579734121003e+000	 3.329388011547718e+000	 1.046821974636014e+001
 2.726039396679764e+000	 3.357727536238708e+000	 1.043934192690347e+001
 3.075914498161000e+000	 3.075914498161000e+000	 1.067281527845369e+001
 3.043898299077347e+000	 3.107600866402649e+000	 1.068340337493427e+001
 3.011557444914291e+000	 3.138952334134619e+000	 1.068028901704380e+001
 2.978897214741524e+000	 3.169963940486671e+000	 1.064964000710860e+001
 2.945922988064285e+000	 3.200630836001766e+000	 1.061860469015670e+001
 2.912640241873717e+000	 3.230948285159820e+000	 1.058743794650756e+001
 2.879054547621743e+000	 3.260911668807467e+000	 1.055639642759334e+001
 2.845171568123966e+000	 3.290516486491244e+000	 1.052573835895597e+001
 2.810997054394177e+000	 3.319758358691731e+000	 1.049572334455778e+001
 2.776536842414193e+000	 3.348633028956324e+000	 1.046661217257912e+001
 2.741796849842790e+000	 3.377136365928527e+000	 1.043866662286545e+001
 3.093592167693749e+000	 3.093592167693749e+000	 1.066709421694883e+001
 3.061391967466183e+000	 3.125460641499740e+000	 1.068419424028173e+001
 3.028865246325367e+000	 3.156992290080494e+000	 1.066013629342904e+001
 2.996017313680475e+000	 3.188182124055019e+000	 1.063482381116136e+001
 2.962853579953444e+000	 3.219025266095841e+000	 1.060849667504268e+001
 2.929379553612376e+000	 3.249516953467239e+000	 1.058139727623225e+001
 2.895600838129033e+000	 3.279652540468989e+000	 1.055377033101328e+001
 2.861523128863935e+000	 3.309427500782953e+000	 1.052586269677341e+001
 2.827152209882678e+000	 3.338837429720058e+000	 1.049792318859833e+001
 2.792493950707203e+000	 3.367878046365331e+000	 1.047020239663056e+001
 2.757554303005820e+000	 3.396545195618847e+000	 1.044295250433574e+001
 3.111269837226000e+000	 3.111269837226000e+000	 1.066550827965252e+001
 3.078885635854434e+000	 3.143320416596433e+000	 1.066532022721455e+001
 3.046173047735802e+000	 3.175032246026067e+000	 1.064693763720056e+001
 3.013137412618761e+000	 3.206400307623170e+000	 1.062669028382413e+001
 2.979784171841943e+000	 3.237419696189817e+000	 1.060480512851706e+001
 2.946118865350409e+000	 3.268085621774659e+000	 1.058151217839128e+001
 2.912147128635763e+000	 3.298393412130610e+000	 1.055704431535856e+001
 2.877874689603441e+000	 3.328338515074862e+000	 1.053163712503084e+001
 2.843307365370841e+000	 3.357916500748686e+000	 1.050552872553998e+001
 2.808451059000031e+000	 3.387123063774740e+000	 1.047895959640719e+001
 2.773311756168852e+000	 3.415954025309669e+000	 1.045217240758467e+001
 3.128947506757750e+000	 3.128947506757750e+000	 1.066519392131100e+001
 3.096379304242098e+000	 3.161180191692723e+000	 1.065361413687281e+001
 3.063480849145600e+000	 3.193072201971341e+000	 1.064063473710885e+001
 3.030257511556384e+000	 3.224618491191119e+000	 1.062518534977865e+001
 2.996714763729783e+000	 3.255814126283694e+000	 1.060748012344078e+001
 2.962858177087820e+000	 3.286654290082079e+000	 1.058773678420631e+001
 2.928693419141936e+000	 3.317134283792334e+000	 1.056617647838166e+001
 2.894226250342483e+000	 3.347249529366971e+000	 1.054302361422722e+001
 2.859462520858665e+000	 3.376995571777615e+000	 1.051850570294802e+001
 2.824408167292675e+000	 3.406368081184549e+000	 1.049285319902519e+001
 2.789069209331887e+000	 3.435362855000992e+000	 1.046629933999039e+001
 3.146625176289000e+000	 3.146625176289000e+000	 1.066043515473026e+001
 3.113872972629181e+000	 3.179039966788615e+000	 1.064901427098833e+001
 3.080788650554756e+000	 3.211112157916316e+000	 1.064117012201485e+001
 3.047377610493343e+000	 3.242836674758871e+000	 1.063025568155455e+001
 3.013645355616964e+000	 3.274208556377471e+000	 1.061647239047574e+001
 2.979597488824608e+000	 3.305222958389499e+000	 1.060002579491079e+001
 2.945239709647550e+000	 3.335875155454158e+000	 1.058112540235606e+001
 2.910577811081063e+000	 3.366160543659283e+000	 1.055998453622926e+001
 2.875617676346153e+000	 3.396074642806847e+000	 1.053682018897745e+001
 2.840365275585138e+000	 3.425613098594761e+000	 1.051185287382344e+001
 2.804826662494924e+000	 3.454771684692816e+000	 1.048530647523242e+001
 3.164302845819750e+000	 3.164302845819750e+000	 1.066265699902088e+001
 3.131366641015677e+000	 3.196899741884106e+000	 1.065320765432320e+001
 3.098096451963273e+000	 3.229152113860990e+000	 1.064848713742322e+001
 3.064497709429635e+000	 3.261054858326420e+000	 1.064184867863983e+001
 3.030575947503486e+000	 3.292602986471148e+000	 1.063173329971051e+001
 2.996336800560770e+000	 3.323791626696921e+000	 1.061833446582777e+001
 2.961786000152606e+000	 3.354616027116084e+000	 1.060185014054210e+001
 2.926929371819180e+000	 3.385071557951795e+000	 1.058248265306005e+001
 2.891772831833303e+000	 3.415153713836379e+000	 1.056043856341795e+001
 2.856322383877417e+000	 3.444858116005373e+000	 1.053592852559769e+001
 2.820584115657964e+000	 3.474180514385142e+000	 1.050916714864636e+001
 3.181980515350000e+000	 3.181980515350000e+000	 1.067172542379898e+001
 3.148860309401589e+000	 3.214759516979199e+000	 1.066719870830277e+001
 3.115404253371151e+000	 3.247192069805366e+000	 1.066252992279770e+001
 3.081617808365265e+000	 3.279273041893773e+000	 1.065991244728745e+001
 3.047506539389349e+000	 3.310997416564727e+000	 1.065321484289843e+001
 3.013076112296310e+000	 3.342360295004343e+000	 1.064261859097861e+001
 2.978332290657103e+000	 3.373356898778110e+000	 1.062831020410406e+001
 2.943280932556834e+000	 3.403982572244511e+000	 1.061048110606144e+001
 2.907927987320115e+000	 3.434232784866213e+000	 1.058932750903741e+001
 2.872279492169515e+000	 3.464103133416387e+000	 1.056505028805993e+001
 2.836341568821007e+000	 3.493589344077969e+000	 1.053785485273349e+001
 2.678767037190700e+000	 3.299501047172260e+000	 1.047140926166484e+001
 2.644558174437429e+000	 3.326982425841761e+000	 1.046571846550966e+001
 2.610087752335312e+000	 3.354093308923843e+000	 1.045677705281592e+001
 2.575361772072694e+000	 3.380830037553033e+000	 1.044478708438721e+001
 2.540386301257157e+000	 3.407189081967098e+000	 1.042995593569086e+001
 2.505167470460533e+000	 3.433167042958189e+000	 1.041249614419114e+001
 2.469711469727998e+000	 3.458760653213694e+000	 1.040644938673408e+001
 2.434024545055289e+000	 3.483966778545826e+000	 1.039620612641630e+001
 2.398112994838169e+000	 3.508782419009181e+000	 1.038033336188349e+001
 2.361983166298250e+000	 3.533204709905684e+000	 1.036016656354107e+001
 2.325641451889307e+000	 3.557230922676468e+000	 1.033704165236113e+001
 2.694524490353718e+000	 3.318909876860575e+000	 1.045568563198084e+001
 2.660114398994962e+000	 3.346552910698207e+000	 1.044922166303356e+001
 2.625441209703059e+000	 3.373823269562664e+000	 1.043934080197004e+001
 2.590510958967459e+000	 3.400717273065733e+000	 1.042624363996704e+001
 2.555329750087555e+000	 3.427231370681872e+000	 1.041013619088307e+001
 2.519903749697367e+000	 3.453362143207897e+000	 1.039122974152507e+001
 2.484239184254103e+000	 3.479106304111708e+000	 1.037737258198162e+001
 2.448342336494647e+000	 3.504460700769116e+000	 1.036747071744370e+001
 2.412219541864151e+000	 3.529422315587982e+000	 1.035170501057312e+001
 2.375877184920824e+000	 3.553988267019066e+000	 1.033144206636696e+001
 2.339321695721108e+000	 3.578155810453152e+000	 1.030804912004941e+001
 2.710281943516740e+000	 3.338318706549391e+000	 1.044500575626130e+001
 2.675670623552684e+000	 3.366123395555250e+000	 1.043767962268747e+001
 2.640794667071147e+000	 3.393553230202165e+000	 1.042676998875759e+001
 2.605660145862692e+000	 3.420604508579189e+000	 1.041247599394225e+001
 2.570273198918516e+000	 3.447273659397471e+000	 1.039500230794596e+001
 2.534640028934828e+000	 3.473557243458482e+000	 1.037455898391986e+001
 2.498766898780867e+000	 3.499451955010643e+000	 1.035198691725153e+001
 2.462660127934669e+000	 3.524954622993361e+000	 1.034214110287915e+001
 2.426326088890771e+000	 3.550062212167763e+000	 1.032619254617820e+001
 2.389771203543980e+000	 3.574771824133441e+000	 1.030553957099117e+001
 2.353001939553409e+000	 3.599080698230837e+000	 1.028158131375281e+001
 2.726039396679764e+000	 3.357727536238708e+000	 1.043934192690347e+001
 2.691226848110592e+000	 3.385693880412889e+000	 1.043106578190452e+001
 2.656148124439577e+000	 3.413283190842348e+000	 1.041903919814020e+001
 2.620809332758390e+000	 3.440491744093401e+000	 1.040345988059239e+001
 2.585216647750037e+000	 3.467315948113888e+000	 1.038453117155987e+001
 2.549376308172915e+000	 3.493752343709943e+000	 1.036246190683148e+001
 2.513294613308291e+000	 3.519797605910497e+000	 1.033746626683073e+001
 2.476977919375355e+000	 3.545448545218562e+000	 1.032039869151732e+001
 2.440432635918028e+000	 3.570702108748525e+000	 1.030397464239229e+001
 2.403665222167719e+000	 3.595555381248814e+000	 1.028263495078617e+001
 2.366682183386207e+000	 3.620005586009521e+000	 1.025781124537204e+001
 2.741796849842790e+000	 3.377136365928527e+000	 1.043866662286545e+001
 2.706783072668689e+000	 3.405264365271124e+000	 1.042935374320737e+001
 2.671501581808350e+000	 3.433013151483212e+000	 1.041612315884821e+001
 2.635958519654555e+000	 3.460378979608368e+000	 1.039917115680463e+001
 2.600160096582119e+000	 3.487358236831126e+000	 1.037869976802164e+001
 2.564112587411626e+000	 3.513947443962280e+000	 1.035491662652080e+001
 2.527822327836374e+000	 3.540143256811272e+000	 1.032803482341433e+001
 2.491295710816703e+000	 3.565942467444719e+000	 1.030242493191090e+001
 2.454539182945924e+000	 3.591342005330265e+000	 1.028522999245048e+001
 2.417559240792040e+000	 3.616338938365180e+000	 1.026290407866591e+001
 2.380362427219501e+000	 3.640930473789204e+000	 1.023691190657464e+001
 2.757554303005820e+000	 3.396545195618847e+000	 1.044295250433574e+001
 2.722339297226972e+000	 3.424834850129955e+000	 1.043251726949161e+001
 2.686855039177465e+000	 3.452743112124757e+000	 1.041799673927293e+001
 2.651107706551186e+000	 3.480266215124091e+000	 1.039958579857073e+001
 2.615103545414763e+000	 3.507400525549186e+000	 1.037748518234131e+001
 2.578848866650963e+000	 3.534142544215492e+000	 1.035190133774489e+001
 2.542350042365117e+000	 3.560488907712968e+000	 1.032304628104586e+001
 2.505613502258716e+000	 3.586436389671829e+000	 1.029113744934577e+001
 2.468645729974459e+000	 3.611981901912988e+000	 1.027013730857081e+001
 2.431453259416943e+000	 3.637122495482540e+000	 1.024652282709878e+001
 2.394042671053293e+000	 3.661855361569890e+000	 1.021905626937300e+001
 2.773311756168852e+000	 3.415954025309669e+000	 1.045217240758467e+001
 2.737895521785443e+000	 3.444405334989383e+000	 1.044053027946950e+001
 2.702208496546922e+000	 3.472473072766984e+000	 1.042463494349899e+001
 2.666256893448285e+000	 3.500153450640572e+000	 1.040467989760343e+001
 2.630046994247966e+000	 3.527442814268066e+000	 1.038086459543778e+001
 2.593585145890925e+000	 3.554337644469579e+000	 1.035339431152694e+001
 2.556877756894519e+000	 3.580834558615584e+000	 1.032248000106966e+001
 2.519931293701393e+000	 3.606930311899896e+000	 1.028833815446397e+001
 2.482752277003631e+000	 3.632621798496690e+000	 1.025887532141528e+001
 2.445347278042431e+000	 3.657906052600898e+000	 1.023366706812032e+001
 2.407722914887582e+000	 3.682780249351574e+000	 1.020441728668295e+001
 2.789069209331887e+000	 3.435362855000992e+000	 1.046629933999039e+001
 2.753451746344101e+000	 3.463975819849408e+000	 1.045336684326852e+001
 2.717561953916722e+000	 3.492203033409893e+000	 1.043601290747123e+001
 2.681406080345851e+000	 3.520040686157808e+000	 1.041442965806746e+001
 2.644990443081732e+000	 3.547485102987768e+000	 1.038881528142949e+001
 2.608321425131512e+000	 3.574532744724543e+000	 1.035937389300192e+001
 2.571405471424580e+000	 3.601180209519120e+000	 1.032631540002733e+001
 2.534249085144733e+000	 3.627424234128919e+000	 1.028985535888339e+001
 2.496858824033439e+000	 3.653261695081372e+000	 1.025162277956863e+001
 2.459241296668499e+000	 3.678689609720248e+000	 1.022451267334554e+001
 2.421403158722368e+000	 3.703705137134258e+000	 1.019316789286300e+001
 2.804826662494924e+000	 3.454771684692816e+000	 1.048530647523242e+001
 2.769007970902948e+000	 3.483546304710028e+000	 1.047100117817806e+001
 2.732915411286864e+000	 3.511932994053482e+000	 1.045210589529077e+001
 2.696555267243883e+000	 3.539927921675801e+000	 1.042881139342077e+001
 2.659933891916058e+000	 3.567527391708290e+000	 1.040131460501649e+001
 2.623057704372724e+000	 3.594727844980382e+000	 1.036981849933477e+001
 2.585933185955301e+000	 3.621525860423578e+000	 1.033453194810732e+001
 2.548566876588737e+000	 3.647918156358897e+000	 1.029566958570950e+001
 2.510965371063888e+000	 3.673901591667035e+000	 1.025345166388540e+001
 2.473135315295151e+000	 3.699473166840596e+000	 1.021923551398055e+001
 2.435083402557653e+000	 3.724630024917941e+000	 1.018548100423570e+001
 2.820584115657964e+000	 3.474180514385142e+000	 1.050916714864636e+001
 2.784564195461982e+000	 3.503116789571245e+000	 1.049340764453879e+001
 2.748268868657348e+000	 3.531662954697752e+000	 1.047288929563516e+001
 2.711704454142381e+000	 3.559815157194549e+000	 1.044780152336169e+001
 2.674877340750945e+000	 3.587569680429633e+000	 1.041834001895020e+001
 2.637793983614562e+000	 3.614922945237098e+000	 1.038470661770837e+001
 2.600460900486682e+000	 3.641871511328956e+000	 1.034710916764641e+001
 2.562884668033405e+000	 3.668412078589829e+000	 1.030576139249835e+001
 2.525071918094973e+000	 3.694541488253677e+000	 1.026088274918367e+001
 2.487029333922384e+000	 3.720256723961937e+000	 1.021801146083418e+001
 2.448763646393434e+000	 3.745554912702627e+000	 1.018152951959151e+001
 2.836341568821007e+000	 3.493589344077969e+000	 1.053785485273349e+001
 2.800120420021204e+000	 3.522687274433059e+000	 1.052056074176899e+001
 2.763622326028175e+000	 3.551392915342705e+000	 1.049833861829801e+001
 2.726853641041347e+000	 3.579702392714053e+000	 1.047137657087772e+001
 2.689820789586394e+000	 3.607611969151798e+000	 1.043986906158757e+001
 2.652530262857026e+000	 3.635118045494689e+000	 1.040401680337865e+001
 2.614988615018723e+000	 3.662217162235256e+000	 1.036402663168112e+001
 2.577202459478736e+000	 3.688906000821718e+000	 1.032011137029957e+001
 2.539178465126699e+000	 3.715181384841301e+000	 1.027248969163351e+001
 2.500923352550201e+000	 3.741040281084275e+000	 1.022138597126964e+001
 2.462443890229713e+000	 3.766479800488312e+000	 1.024496053123460e+001
 2.325641451889307e+000	 3.557230922676468e+000	 1.033704165236113e+001
 2.289094285687273e+000	 3.580858465680938e+000	 1.028572937149061e+001
 2.252348139770831e+000	 3.604084884861436e+000	 1.023235572479377e+001
 2.215409520594833e+000	 3.626907864294587e+000	 1.017818622188806e+001
 2.178284965358760e+000	 3.649325226630563e+000	 1.012447727955988e+001
 2.140981038377075e+000	 3.671334933419178e+000	 1.007247337319341e+001
 2.103504327454525e+000	 3.692935085323902e+000	 1.002340423647149e+001
 2.065861440270377e+000	 3.714123922224504e+000	 9.978482116102114e+000
 2.028059000775460e+000	 3.734899823209243e+000	 9.938899088083836e+000
 1.990103645605905e+000	 3.755261306457614e+000	 9.915078185786127e+000
 1.952002020517314e+000	 3.775207029014879e+000	 9.915963166531562e+000
 2.339321695721108e+000	 3.578155810453152e+000	 1.030804912004941e+001
 2.302559546188415e+000	 3.601922339004716e+000	 1.025502736149664e+001
 2.265597246472444e+000	 3.625285384180478e+000	 1.019977729972088e+001
 2.228441341301310e+000	 3.648242616433984e+000	 1.014359323723815e+001
 2.191098406328612e+000	 3.670791845607464e+000	 1.008776039759117e+001
 2.153575044482423e+000	 3.692931021259852e+000	 1.003355201765889e+001
 2.115877882319285e+000	 3.714658232882046e+000	 9.982226488928143e+000
 2.078013566387165e+000	 3.735971710000169e+000	 9.935024554616920e+000
 2.039988759601311e+000	 3.756869822167703e+000	 9.908150253590963e+000
 2.001810137636888e+000	 3.777351078847552e+000	 9.908941310316489e+000
 1.963484385342178e+000	 3.797414129185244e+000	 9.902638106693406e+000
 2.353001939553409e+000	 3.599080698230837e+000	 1.028158131375281e+001
 2.316024806689954e+000	 3.622986212329489e+000	 1.022649897699823e+001
 2.278846353174354e+000	 3.646485883500497e+000	 1.016901992107015e+001
 2.241473162007985e+000	 3.669577368574334e+000	 1.011046785197512e+001
 2.203911847298559e+000	 3.692258464585284e+000	 1.005215740892960e+001
 2.166169050587767e+000	 3.714527109101399e+000	 9.995391196609026e+000
 2.128251437183941e+000	 3.736381380441009e+000	 9.941456867061755e+000
 2.090165692503751e+000	 3.757819497776587e+000	 9.911624433665828e+000
 2.051918518426859e+000	 3.778839821126840e+000	 9.912896351842251e+000
 2.013516629667467e+000	 3.799440851238082e+000	 9.906840917324450e+000
 1.974966750166537e+000	 3.819621229356107e+000	 9.893285047118047e+000
 2.366682183386207e+000	 3.620005586009521e+000	 1.025781124537204e+001
 2.329490067191891e+000	 3.644050085655256e+000	 1.020031519616427e+001
 2.292095459876561e+000	 3.667686382821499e+000	 1.014025246763412e+001
 2.254504982714857e+000	 3.690912120715639e+000	 1.007897678365354e+001
 2.216725288268604e+000	 3.713725083564024e+000	 1.001783281183777e+001
 2.178763056693108e+000	 3.736123196943818e+000	 9.958153134787169e+000
 2.140624992048494e+000	 3.758104528000788e+000	 9.924660674019245e+000
 2.102317818620132e+000	 3.779667285553756e+000	 9.926933555836731e+000
 2.063848277252102e+000	 3.800809820086653e+000	 9.921692633849730e+000
 2.025223121697641e+000	 3.821530623629203e+000	 9.908730474755712e+000
 1.986449114990393e+000	 3.841828329527464e+000	 9.887860874012338e+000
 2.380362427219501e+000	 3.640930473789204e+000	 1.023691190657464e+001
 2.342955327694226e+000	 3.665113958982019e+000	 1.017664693705008e+001
 2.305344566579066e+000	 3.688886882143479e+000	 1.011364371874670e+001
 2.267536803421926e+000	 3.712246872857897e+000	 1.004928661157602e+001
 2.229538729238746e+000	 3.735191702543681e+000	 9.984950928101290e+000
 2.191357062798446e+000	 3.757719284787112e+000	 9.946477157541974e+000
 2.152998546912944e+000	 3.779827675561386e+000	 9.950214090850047e+000
 2.114469944736310e+000	 3.801515073331678e+000	 9.946298708057956e+000
 2.075778036077042e+000	 3.822779819047144e+000	 9.934488797060059e+000
 2.036929613727413e+000	 3.843620396020915e+000	 9.914563092015612e+000
 1.997931479813745e+000	 3.864035429699317e+000	 9.886322080543394e+000
 2.394042671053293e+000	 3.661855361569890e+000	 1.021905626937300e+001
 2.356420588196958e+000	 3.686177832309777e+000	 1.015566505931495e+001
 2.318593673281868e+000	 3.710087381466440e+000	 1.008936235712465e+001
 2.280568624129192e+000	 3.733581625001111e+000	 1.002156378074320e+001
 2.242352170208985e+000	 3.756658321524258e+000	 9.976353784366770e+000
 2.203951068903780e+000	 3.779315372631278e+000	 9.981958627674894e+000
 2.165372101777289e+000	 3.801550823122800e+000	 9.979821758901036e+000
 2.126622070852283e+000	 3.823362861110350e+000	 9.969665870968168e+000
 2.087707794901678e+000	 3.844749818008310e+000	 9.951234224774471e+000
 2.048636105756780e+000	 3.865710168413219e+000	 9.924291530213019e+000
 2.009413844636593e+000	 3.886242529871669e+000	 9.888624778068259e+000
 2.407722914887582e+000	 3.682780249351574e+000	 1.020441728668295e+001
 2.369885848700086e+000	 3.707241705638530e+000	 1.013754036588119e+001
 2.331842779984966e+000	 3.731287880790379e+000	 1.006757697161250e+001
 2.293600444836655e+000	 3.754916377145277e+000	 1.001363554321859e+001
 2.255165611179321e+000	 3.778124940505752e+000	 1.002145083585003e+001
 2.216545075009111e+000	 3.800911460476316e+000	 1.002148518769230e+001
 2.177745656641532e+000	 3.823273970685031e+000	 1.001342599698552e+001
 2.138774196968055e+000	 3.845210648889775e+000	 9.996980753772801e+000
 2.099637553726010e+000	 3.866719816970152e+000	 9.971877995073458e+000
 2.060342597785744e+000	 3.887799940806113e+000	 9.937868212055115e+000
 2.020896209458937e+000	 3.908449630044514e+000	 9.894724706980918e+000
 2.421403158722368e+000	 3.703705137134258e+000	 1.019316789286300e+001
 2.383351109203613e+000	 3.728305578968275e+000	 1.012244360453683e+001
 2.345091886688362e+000	 3.752488380115298e+000	 1.005773575992273e+001
 2.306632265544314e+000	 3.776251129290399e+000	 1.006804076616951e+001
 2.267979052149753e+000	 3.799591559488166e+000	 1.007057668845113e+001
 2.229139081114439e+000	 3.822507548322229e+000	 1.006499555088336e+001
 2.190119211505671e+000	 3.844997118248081e+000	 1.005096889356097e+001
 2.150926323083621e+000	 3.867058436669951e+000	 1.002818880191160e+001
 2.111567312550038e+000	 3.888689815932671e+000	 9.996368889438676e+000
 2.072049089814303e+000	 3.909889713199599e+000	 9.955245231406840e+000
 2.032378574280778e+000	 3.930656730217856e+000	 9.904577247191305e+000
 2.435083402557653e+000	 3.724630024917941e+000	 1.018548100423570e+001
 2.396816369707536e+000	 3.749369452299018e+000	 1.011054546948423e+001
 2.358340993392056e+000	 3.773688879441198e+000	 1.012114810729653e+001
 2.319664086252171e+000	 3.797585881436474e+000	 1.012645164124137e+001
 2.280792493120282e+000	 3.821058178471498e+000	 1.012366650757887e+001
 2.241733087219764e+000	 3.844103636169014e+000	 1.011242823967111e+001
 2.202492766369706e+000	 3.866720265811948e+000	 1.009239231319977e+001
 2.163078449198984e+000	 3.888906224450881e+000	 1.006323520446785e+001
 2.123497071373763e+000	 3.910659814895868e+000	 1.002465540108459e+001
 2.083755581842459e+000	 3.931979485593676e+000	 9.976374362527977e+000
 2.043860939102113e+000	 3.952863830391693e+000	 9.918137428251383e+000
 2.448763646393434e+000	 3.745554912702627e+000	 1.018152951959151e+001
 2.410281630211857e+000	 3.770433325630755e+000	 1.018026530480431e+001
 2.371590100096047e+000	 3.794889378768076e+000	 1.018853637653501e+001
 2.332695906960225e+000	 3.818920633583504e+000	 1.018879984496997e+001
 2.293605934090909e+000	 3.842524797455749e+000	 1.018065530572360e+001
 2.254327093325085e+000	 3.865699724016673e+000	 1.016372159094390e+001
 2.214866321233638e+000	 3.888443413376632e+000	 1.013763790284285e+001
 2.175230575314143e+000	 3.910754012232561e+000	 1.010206490132915e+001
 2.135426830197184e+000	 3.932629813859740e+000	 1.005668574301047e+001
 2.095462073870210e+000	 3.954069257988343e+000	 1.000120706900068e+001
 2.055343303922946e+000	 3.975070930566027e+000	 9.935359939141655e+000
 2.462443890229713e+000	 3.766479800488312e+000	 1.024496053123460e+001
 2.423746890716576e+000	 3.791497198963489e+000	 1.025633129886319e+001
 2.384839206800335e+000	 3.816089878095935e+000	 1.025982881568904e+001
 2.345727727668478e+000	 3.840255385731489e+000	 1.025501693742249e+001
 2.306419375061632e+000	 3.863991416440919e+000	 1.024147794670487e+001
 2.266921099430403e+000	 3.887295811865205e+000	 1.021881376120918e+001
 2.227239876097467e+000	 3.910166560942135e+000	 1.018664709784514e+001
 2.187382701429100e+000	 3.932601800014995e+000	 1.014462259010941e+001
 2.147356589020302e+000	 3.954599812824290e+000	 1.009240785578421e+001
 2.107168565897559e+000	 3.976159030383603e+000	 1.002969451235942e+001
 2.066825668743274e+000	 3.997278030740858e+000	 9.956199137731415e+000
 1.952002020517314e+000	 3.775207029014879e+000	 9.915963166531562e+000
 1.913760776843248e+000	 3.794735786459811e+000	 9.896561522535867e+000
 1.875386567981046e+000	 3.813846512466861e+000	 9.880711704144634e+000
 1.836886045909252e+000	 3.832538278264387e+000	 9.865486806730223e+000
 1.798265857740103e+000	 3.850810291991064e+000	 9.840957147362865e+000
 1.759532642309953e+000	 3.868661897952027e+000	 9.808179110731228e+000
 1.720693026811101e+000	 3.886092575776806e+000	 9.768226040998975e+000
 1.681753623468193e+000	 3.903101939481164e+000	 9.722147457398704e+000
 1.642721026262243e+000	 3.919689736435062e+000	 9.670967305320193e+000
 1.603601807705202e+000	 3.935855846239047e+000	 9.615682292751801e+000
 1.564402515667893e+000	 3.951600279511499e+000	 9.557260314565902e+000
 1.963484385342178e+000	 3.797414129185244e+000	 9.902638106693406e+000
 1.925018193176184e+000	 3.817057761674655e+000	 9.878388072817977e+000
 1.886418253673830e+000	 3.836280903717665e+000	 9.858156178044439e+000
 1.847691257942943e+000	 3.855082621079272e+000	 9.841520502667594e+000
 1.808843892196424e+000	 3.873462117240140e+000	 9.817970641553792e+000
 1.769882834322603e+000	 3.891418732648380e+000	 9.786836163790808e+000
 1.730814750497264e+000	 3.908951943872516e+000	 9.749229547670295e+000
 1.691646291840493e+000	 3.926061362657818e+000	 9.706238067123499e+000
 1.652384091121428e+000	 3.942746734888187e+000	 9.658922003264969e+000
 1.613034759513854e+000	 3.959007939455937e+000	 9.608312944158401e+000
 1.573604883405484e+000	 3.974844987041912e+000	 9.555412175330455e+000
 1.974966750166537e+000	 3.819621229356107e+000	 9.893285047118047e+000
 1.936275609508532e+000	 3.839379736889895e+000	 9.864595571863697e+000
 1.897449939365971e+000	 3.858715294968765e+000	 9.840378262368700e+000
 1.858496469975968e+000	 3.877626963894351e+000	 9.821318817787933e+000
 1.819421926652086e+000	 3.896113942489314e+000	 9.798897129343059e+000
 1.780233026334630e+000	 3.914175567344729e+000	 9.769545755301129e+000
 1.740936474182872e+000	 3.931811311968122e+000	 9.734416599537100e+000
 1.701538960212335e+000	 3.949020785834266e+000	 9.694634981487152e+000
 1.662047155980281e+000	 3.965803733341005e+000	 9.651297807653444e+000
 1.622467711322332e+000	 3.982160032672422e+000	 9.605471834215196e+000
 1.582807251143084e+000	 3.998089694571819e+000	 9.558192023307045e+000
 1.986449114990393e+000	 3.841828329527464e+000	 9.887860874012338e+000
 1.947533025840291e+000	 3.861701712105530e+000	 9.855136065831063e+000
 1.908481625057469e+000	 3.881149686220162e+000	 9.827325322096435e+000
 1.869301682008328e+000	 3.900171306709628e+000	 9.804961957765679e+000
 1.829999961107088e+000	 3.918765767738582e+000	 9.783807651361308e+000
 1.790583218346036e+000	 3.936932402041073e+000	 9.756369947623600e+000
 1.751058197867925e+000	 3.954670680063622e+000	 9.723840472365685e+000
 1.711431628583719e+000	 3.971980209010510e+000	 9.687382886054129e+000
 1.671710220838802e+000	 3.988860731793519e+000	 9.648131014777666e+000
 1.631900663130633e+000	 4.005312125888501e+000	 9.607187075220597e+000
 1.592009618880696e+000	 4.021334402101220e+000	 9.565619996238839e+000
 1.997931479813745e+000	 3.864035429699317e+000	 9.886322080543394e+000
 1.958790442171462e+000	 3.884023687321564e+000	 9.849961363129374e+000
 1.919513310748325e+000	 3.903584077471854e+000	 9.818944635992619e+000
 1.880106894040022e+000	 3.922715649525100e+000	 9.793267676555047e+000
 1.840577995561431e+000	 3.941417592987946e+000	 9.772773453623042e+000
 1.800933410356819e+000	 3.959689236737412e+000	 9.747371148472571e+000
 1.761179921552422e+000	 3.977530048159018e+000	 9.717554923299117e+000
 1.721324296954645e+000	 3.994939632186549e+000	 9.684527079804434e+000
 1.681373285696993e+000	 4.011917730245727e+000	 9.649458662361312e+000
 1.641333614938760e+000	 4.028464219104175e+000	 9.613487644863501e+000
 1.601211986618317e+000	 4.044579109630118e+000	 9.577717217129411e+000
 2.009413844636593e+000	 3.886242529871669e+000	 9.888624778068259e+000
 1.970047858502044e+000	 3.906345662537992e+000	 9.849023041212085e+000
 1.930544996438539e+000	 3.926018468723842e+000	 9.815183399071586e+000
 1.890912106071049e+000	 3.945259992340768e+000	 9.787109161948907e+000
 1.851156030015116e+000	 3.964069418237406e+000	 9.765865981658703e+000
 1.811283602366981e+000	 3.982446071433747e+000	 9.742612101048028e+000
 1.771301645236366e+000	 4.000389416254310e+000	 9.715614177103642e+000
 1.731216965325113e+000	 4.017899055362383e+000	 9.686113457607430e+000
 1.691036350554853e+000	 4.034974728697631e+000	 9.655318508375954e+000
 1.650766566746712e+000	 4.051616312319444e+000	 9.624403361497969e+000
 1.610414354355949e+000	 4.067823817158510e+000	 9.594505766092537e+000
 2.020896209458937e+000	 3.908449630044514e+000	 9.894724706980918e+000
 1.981305274832037e+000	 3.928667637754816e+000	 9.852272453137998e+000
 1.941576682128110e+000	 3.948452859976126e+000	 9.815988724976206e+000
 1.901717318101411e+000	 3.967804335156631e+000	 9.785884036280825e+000
 1.861734064468140e+000	 3.986721243486961e+000	 9.763156874846528e+000
 1.821633794376520e+000	 4.005202906130077e+000	 9.742155874504771e+000
 1.781423368919754e+000	 4.023248784349496e+000	 9.718072912883979e+000
 1.741109633695123e+000	 4.040858478538012e+000	 9.692188493293122e+000
 1.700699415412381e+000	 4.058031727149230e+000	 9.665749010579438e+000
 1.660199518554488e+000	 4.074768405534308e+000	 9.639964860260573e+000
 1.619616722093591e+000	 4.091068524686397e+000	 9.616008653161487e+000
 2.032378574280778e+000	 3.930656730217856e+000	 9.904577247191305e+000
 1.992562691161443e+000	 3.950989612972036e+000	 9.859660733910134e+000
 1.952608367817038e+000	 3.970887251228706e+000	 9.821307648276520e+000
 1.912522530131106e+000	 3.990348677972691e+000	 9.789535378126722e+000
 1.872312098920506e+000	 4.009373068736611e+000	 9.764717960936597e+000
 1.831983986385438e+000	 4.027959740826404e+000	 9.746065854744654e+000
 1.791545092602588e+000	 4.046108152444578e+000	 9.724986251248783e+000
 1.751002302064675e+000	 4.063817901713436e+000	 9.702799223297431e+000
 1.710362480269578e+000	 4.081088725600523e+000	 9.680789306747910e+000
 1.669632470362090e+000	 4.097920498748767e+000	 9.660203569997488e+000
 1.628819089831244e+000	 4.114313232213777e+000	 9.642249792020101e+000
 2.043860939102113e+000	 3.952863830391693e+000	 9.918137428251383e+000
 2.003820107490259e+000	 3.973311588189652e+000	 9.871138806600881e+000
 1.963640053505324e+000	 3.993321642481583e+000	 9.831087126690953e+000
 1.923327742160136e+000	 4.012893020788947e+000	 9.798006320895709e+000
 1.882890133372213e+000	 4.032024893986358e+000	 9.771928821652370e+000
 1.842334178393734e+000	 4.050716575522725e+000	 9.754405735519210e+000
 1.801666816284866e+000	 4.068967520539554e+000	 9.736409741908975e+000
 1.760894970433770e+000	 4.086777324888655e+000	 9.717993230858541e+000
 1.720025545126444e+000	 4.104145724051513e+000	 9.700479195574134e+000
 1.679065422169517e+000	 4.121072591962822e+000	 9.685151690969310e+000
 1.638021457568906e+000	 4.137557939740653e+000	 9.673253974619380e+000
 2.055343303922946e+000	 3.975070930566027e+000	 9.935359939141655e+000
 2.015077523818487e+000	 3.995633563407664e+000	 9.886657388271813e+000
 1.974671739192968e+000	 4.015756033734754e+000	 9.845274043232966e+000
 1.934132954188500e+000	 4.035437363605398e+000	 9.811240051298425e+000
 1.893468167823261e+000	 4.054676719236199e+000	 9.784593665497496e+000
 1.852684370401407e+000	 4.073473410219042e+000	 9.767239509830478e+000
 1.811788539966590e+000	 4.091826888634428e+000	 9.752399351691510e+000
 1.770787638802406e+000	 4.109736748063669e+000	 9.737818630743178e+000
 1.729688609982978e+000	 4.127202722502196e+000	 9.724859118206258e+000
 1.688498373976768e+000	 4.144224685176470e+000	 9.714842173303120e+000
 1.647223825306579e+000	 4.160802647267024e+000	 9.709046846644892e+000
 2.066825668743274e+000	 3.997278030740858e+000	 9.956199137731415e+000
 2.026334940146127e+000	 4.017955538626073e+000	 9.906166995696262e+000
 1.985703424879969e+000	 4.038190424988225e+000	 9.863815208286152e+000
 1.944938166216198e+000	 4.057981706422046e+000	 9.829179807866426e+000
 1.904046202273650e+000	 4.077328544486139e+000	 9.802304549700189e+000
 1.863034562408458e+000	 4.096230244915353e+000	 9.784631461618476e+000
 1.821910263647759e+000	 4.114686256729197e+000	 9.773011452952980e+000
 1.780680307170585e+000	 4.132696171238480e+000	 9.762324054481873e+000
 1.739351674839182e+000	 4.150259720952576e+000	 9.753970140401663e+000
 1.697931325783844e+000	 4.167376778389715e+000	 9.749308696162842e+000
 1.656426193044263e+000	 4.184047354792892e+000	 9.749654883801883e+000
 1.564402515667893e+000	 3.951600279511499e+000	 9.557260314565902e+000
 1.525129670264477e+000	 3.966923176588746e+000	 9.520387896875835e+000
 1.485789760794904e+000	 3.981824806142011e+000	 9.483064561603786e+000
 1.446389242748077e+000	 3.996305563713150e+000	 9.446212508978016e+000
 1.406934534869337e+000	 4.010365970170742e+000	 9.410717881691998e+000
 1.367432016293249e+000	 4.024006670090824e+000	 9.377429634915799e+000
 1.327888023744064e+000	 4.037228430064649e+000	 9.347158505677855e+000
 1.288308848805791e+000	 4.050032136936430e+000	 9.320676082026191e+000
 1.248700735263687e+000	 4.062418795974020e+000	 9.298922610088948e+000
 1.209069876518824e+000	 4.074389528975535e+000	 9.282951722070861e+000
 1.169422413077266e+000	 4.085945572314992e+000	 9.262816258122516e+000
 1.573604883405484e+000	 3.974844987041912e+000	 9.555412175330455e+000
 1.534101021264173e+000	 3.990258018807951e+000	 9.524963162103852e+000
 1.494529700562309e+000	 4.005247305005702e+000	 9.493182406602363e+000
 1.454897414762255e+000	 4.019813243503740e+000	 9.461005529825073e+000
 1.415210620366680e+000	 4.033956358234573e+000	 9.429332340200624e+000
 1.375475734034469e+000	 4.047677297565866e+000	 9.399025672164642e+000
 1.335699129764719e+000	 4.060976832598230e+000	 9.370910324947039e+000
 1.295887136150757e+000	 4.073855855392611e+000	 9.345772102021821e+000
 1.256046033705988e+000	 4.086315377130202e+000	 9.324356951384974e+000
 1.216182052263253e+000	 4.098356526207932e+000	 9.309360768956031e+000
 1.176301368449240e+000	 4.109980546272603e+000	 9.291102270144592e+000
 1.582807251143084e+000	 3.998089694571819e+000	 9.558192023307045e+000
 1.543072372264059e+000	 4.013592861026560e+000	 9.533696725595220e+000
 1.503269640330041e+000	 4.028669803868731e+000	 9.507003909364661e+000
 1.463405586776859e+000	 4.043320923293615e+000	 9.479062995552441e+000
 1.423486705864506e+000	 4.057546746297664e+000	 9.450787819373209e+000
 1.383519451776188e+000	 4.071347925040158e+000	 9.423055437192295e+000
 1.343510235785849e+000	 4.084725235131073e+000	 9.396705034480167e+000
 1.303465423496135e+000	 4.097679573848086e+000	 9.372536935346671e+000
 1.263391332148598e+000	 4.110211958285729e+000	 9.351311713859877e+000
 1.223294228007851e+000	 4.122323523439744e+000	 9.336115879484993e+000
 1.183180323821201e+000	 4.134015520229720e+000	 9.319120978898345e+000
 1.592009618880696e+000	 4.021334402101220e+000	 9.565619996238839e+000
 1.552043723264134e+000	 4.036927703244576e+000	 9.546610715457190e+000
 1.512009580098102e+000	 4.052092302731094e+000	 9.524553026322586e+000
 1.471913758791888e+000	 4.066828603082779e+000	 9.500410530682361e+000
 1.431762791362814e+000	 4.081137134360013e+000	 9.475111453443825e+000
 1.391563169518405e+000	 4.095018552513700e+000	 9.449547417467938e+000
 1.351321341807455e+000	 4.108473637663178e+000	 9.424572320450437e+000
 1.311043710841926e+000	 4.121503292302855e+000	 9.401001314332715e+000
 1.270736630591518e+000	 4.134108539440599e+000	 9.379609887487153e+000
 1.230406403752616e+000	 4.146290520670970e+000	 9.363355149532241e+000
 1.190059279193150e+000	 4.158050494186345e+000	 9.347005402929902e+000
 1.601211986618317e+000	 4.044579109630118e+000	 9.577717217129411e+000
 1.561015074264399e+000	 4.060262545461995e+000	 9.563728136636556e+000
 1.520749519866489e+000	 4.075514801592793e+000	 9.545854486899987e+000
 1.480421930807344e+000	 4.090336282871230e+000	 9.525074433472433e+000
 1.440038876861605e+000	 4.104727522421621e+000	 9.502330955729940e+000
 1.399606887261122e+000	 4.118689179986494e+000	 9.478530589508667e+000
 1.359132447829537e+000	 4.132222040194547e+000	 9.454542272668356e+000
 1.318621998188130e+000	 4.145327010756917e+000	 9.431196294168933e+000
 1.278081929034748e+000	 4.158005120594816e+000	 9.409283346944806e+000
 1.237518579497549e+000	 4.170257517901614e+000	 9.391216850167968e+000
 1.196938234565087e+000	 4.182085468142475e+000	 9.374888669097349e+000
 1.610414354355949e+000	 4.067823817158510e+000	 9.594505766092537e+000
 1.569986425264854e+000	 4.083597387678821e+000	 9.585072845867106e+000
 1.529489459635206e+000	 4.098937300453828e+000	 9.570933771427450e+000
 1.488930102823224e+000	 4.113843962658969e+000	 9.553081656666041e+000
 1.448314962360878e+000	 4.128317910482487e+000	 9.532474602087373e+000
 1.407650605004338e+000	 4.142359807458538e+000	 9.510034404906868e+000
 1.366943553852095e+000	 4.155970442725177e+000	 9.486645373049253e+000
 1.326200285534746e+000	 4.169150729210274e+000	 9.463153243676802e+000
 1.285427227478289e+000	 4.181901701748378e+000	 9.440364206571827e+000
 1.244630755242650e+000	 4.194224515131674e+000	 9.419839422652597e+000
 1.203817189937011e+000	 4.206120442098112e+000	 9.402904009476016e+000
 1.619616722093591e+000	 4.091068524686397e+000	 9.616008653161487e+000
 1.578957776265498e+000	 4.106932229895052e+000	 9.610669527471178e+000
 1.538229399404250e+000	 4.122359799314200e+000	 9.599817089809562e+000
 1.497438274839530e+000	 4.137351642445993e+000	 9.584459788898879e+000
 1.456591047860634e+000	 4.151908298542613e+000	 9.565571214928886e+000
 1.415694322748053e+000	 4.166030434929833e+000	 9.544088776833604e+000
 1.374754659875128e+000	 4.179718845255070e+000	 9.520912484473909e+000
 1.333778572881774e+000	 4.192974447662922e+000	 9.496903836400280e+000
 1.292772525922138e+000	 4.205798282901284e+000	 9.472884813559688e+000
 1.251742930987919e+000	 4.218191512361147e+000	 9.449636979007524e+000
 1.210696145308922e+000	 4.230155416053254e+000	 9.431184758369506e+000
 1.628819089831244e+000	 4.114313232213777e+000	 9.642249792020101e+000
 1.587929127266333e+000	 4.130267072110688e+000	 9.640543669981376e+000
 1.546969339173622e+000	 4.145782298173907e+000	 9.632531360915529e+000
 1.505946446856261e+000	 4.160859322232307e+000	 9.619237036735994e+000
 1.464867133360872e+000	 4.175498686601997e+000	 9.601650147784865e+000
 1.423738040492267e+000	 4.189701062400376e+000	 9.580724066999736e+000
 1.382565765898636e+000	 4.203467247784224e+000	 9.557374840026812e+000
 1.341356860229215e+000	 4.216798166114867e+000	 9.532480041997786e+000
 1.300117824366298e+000	 4.229694864053538e+000	 9.506877741374350e+000
 1.258855106733357e+000	 4.242158509590039e+000	 9.481365570955761e+000
 1.217575100680821e+000	 4.254190390007903e+000	 9.459864349421691e+000
 1.638021457568906e+000	 4.137557939740653e+000	 9.673253974619380e+000
 1.596900478267356e+000	 4.153601914325729e+000	 9.674721543550461e+000
 1.555709278943322e+000	 4.169204797032950e+000	 9.669104192664408e+000
 1.514454618873417e+000	 4.184367002017907e+000	 9.657442207314217e+000
 1.473143218861592e+000	 4.199089074660639e+000	 9.640741270384233e+000
 1.431781758236980e+000	 4.213371689870171e+000	 9.619971073056496e+000
 1.390376871922621e+000	 4.227215650312640e+000	 9.596064032597187e+000
 1.348935147577068e+000	 4.240621884566104e+000	 9.569914117924487e+000
 1.307463122810768e+000	 4.253591445205132e+000	 9.542375783400631e+000
 1.265967282478963e+000	 4.266125506818345e+000	 9.514263010978477e+000
 1.224454056052708e+000	 4.278225363962058e+000	 9.489076312826395e+000
 1.647223825306579e+000	 4.160802647267024e+000	 9.709046846644892e+000
 1.605871829268570e+000	 4.176936756540175e+000	 9.713230178118318e+000
 1.564449218713350e+000	 4.192627295891330e+000	 9.709563862777907e+000
 1.522962790891000e+000	 4.207874681802794e+000	 9.699104691566367e+000
 1.481419304362795e+000	 4.222679462718541e+000	 9.682874954235512e+000
 1.439825475982193e+000	 4.237042317339218e+000	 9.661861016418348e+000
 1.398187977947081e+000	 4.250964052840319e+000	 9.637012004828616e+000
 1.356513434925333e+000	 4.264445603016635e+000	 9.609238601393153e+000
 1.314808421255547e+000	 4.277488026356075e+000	 9.579411946798791e+000
 1.273079458224736e+000	 4.290092504046069e+000	 9.548362653618248e+000
 1.231333011424581e+000	 4.302260337915721e+000	 9.518954272630447e+000
 1.656426193044263e+000	 4.184047354792892e+000	 9.749654883801883e+000
 1.614843180269973e+000	 4.200271598754027e+000	 9.756097342306816e+000
 1.573189158483706e+000	 4.216049794749046e+000	 9.753939300174798e+000
 1.531470962909008e+000	 4.231382361586969e+000	 9.744254448004723e+000
 1.489695389864481e+000	 4.246269850775701e+000	 9.728082058688534e+000
 1.447869193727904e+000	 4.260712944807515e+000	 9.706425530491844e+000
 1.405999083972017e+000	 4.274712455367262e+000	 9.680251039403576e+000
 1.364091722274012e+000	 4.288269321466461e+000	 9.650486301603221e+000
 1.322153719700637e+000	 4.301384607506363e+000	 9.618019446566622e+000
 1.280191633970678e+000	 4.314059501273208e+000	 9.583698001009070e+000
 1.238211966796443e+000	 4.326295311868889e+000	 9.549631944126636e+000
 1.169422413077266e+000	 4.085945572314992e+000	 9.262816258122516e+000
 1.129764430115052e+000	 4.097088274930204e+000	 9.240470899141723e+000
 1.090101955120620e+000	 4.107819096255514e+000	 9.215085938200200e+000
 1.050440955616010e+000	 4.118139604102670e+000	 9.188169464314552e+000
 1.010787336957094e+000	 4.128051472493549e+000	 9.161111601681839e+000
 9.711469402141429e-001	 4.137556479447227e+000	 9.135183755962490e+000
 9.315255401334329e-001	 4.146656504724693e+000	 9.111538138931087e+000
 8.919288431804859e-001	 4.155353527534343e+000	 9.091207565853051e+000
 8.523624856654425e-001	 4.163649624201344e+000	 9.075105519345156e+000
 8.128320319509309e-001	 4.171546965803958e+000	 9.064026472915419e+000
 7.733429727426728e-001	 4.179047815779902e+000	 9.058646466853663e+000
 1.176301368449240e+000	 4.109980546272603e+000	 9.291102270144592e+000
 1.136410103235041e+000	 4.121188794197010e+000	 9.270215533995616e+000
 1.096514319564808e+000	 4.131982738000447e+000	 9.245284714881917e+000
 1.056620020063653e+000	 4.142363954717085e+000	 9.217855418362614e+000
 1.016733144824837e+000	 4.152334128215989e+000	 9.189354204748117e+000
 9.768595692778667e-001	 4.161895046975169e+000	 9.161087789840650e+000
 9.370051021381155e-001	 4.171048601813031e+000	 9.134242528354566e+000
 8.971754834385509e-001	 4.179796783580375e+000	 9.109884174341202e+000
 8.573763826440788e-001	 4.188141680816043e+000	 9.088957912332170e+000
 8.176133968488739e-001	 4.196085477369345e+000	 9.072288652341147e+000
 7.778920490569271e-001	 4.203630449992339e+000	 9.060581581330776e+000
 1.183180323821201e+000	 4.134015520229720e+000	 9.319120978898345e+000
 1.143055776354833e+000	 4.145289313463412e+000	 9.298883180468186e+000
 1.102926684008646e+000	 4.156146379745046e+000	 9.273640244393832e+000
 1.062799084510823e+000	 4.166588305331214e+000	 9.244975979962259e+000
 1.022678952692014e+000	 4.176616783938171e+000	 9.214354016150418e+000
 9.825721983409622e-001	 4.186233614502861e+000	 9.183116956765874e+000
 9.424846641421387e-001	 4.195440698901107e+000	 9.152485822668840e+000
 9.024221236959535e-001	 4.204240039626113e+000	 9.123559775366005e+000
 8.623902796220803e-001	 4.212633737430396e+000	 9.097316115643176e+000
 8.223947617462384e-001	 4.220623988934316e+000	 9.074610550319715e+000
 7.824411253706887e-001	 4.228213084204269e+000	 9.056177719663333e+000
 1.190059279193150e+000	 4.158050494186345e+000	 9.347005402929902e+000
 1.149701449474428e+000	 4.169389832729408e+000	 9.326605719560183e+000
 1.109339048452133e+000	 4.180310021489308e+000	 9.300283071644934e+000
 1.068978148957520e+000	 4.190812655945056e+000	 9.269660165539683e+000
 1.028624760558625e+000	 4.200899439660094e+000	 9.236238337517074e+000
 9.882848274034307e-001	 4.210572182030302e+000	 9.201396663243404e+000
 9.479642261455018e-001	 4.219832795988921e+000	 9.166391358829543e+000
 9.076687639526946e-001	 4.228683295671557e+000	 9.132355467709131e+000
 8.674041765994472e-001	 4.237125794044403e+000	 9.100298826962682e+000
 8.271761266430249e-001	 4.245162500498869e+000	 9.071108306110302e+000
 7.869902016839576e-001	 4.252795718415691e+000	 9.045548310842396e+000
 1.196938234565087e+000	 4.182085468142475e+000	 9.374888669097349e+000
 1.156347122593826e+000	 4.193490351995003e+000	 9.353514987262724e+000
 1.115751412895269e+000	 4.204473663233235e+000	 9.325343552051512e+000
 1.075157213403743e+000	 4.215037006558612e+000	 9.292036666377967e+000
 1.034570568424671e+000	 4.225182095381759e+000	 9.255134018503870e+000
 9.939974564652714e-001	 4.234910749557492e+000	 9.216051745781392e+000
 9.534437881482052e-001	 4.244224893076473e+000	 9.176081794554330e+000
 9.129154042087735e-001	 4.253126551716706e+000	 9.136391570431094e+000
 8.724180735761793e-001	 4.261617850658064e+000	 9.098023872497260e+000
 8.319574915392334e-001	 4.269701012063005e+000	 9.061897104428676e+000
 7.915392779967340e-001	 4.277378352626607e+000	 9.028805754901311e+000
 1.203817189937011e+000	 4.206120442098112e+000	 9.402904009476016e+000
 1.162992795713028e+000	 4.217590871260192e+000	 9.379742775843369e+000
 1.122163777338056e+000	 4.228637304976828e+000	 9.348951856951379e+000
 1.081336277849493e+000	 4.239261357171881e+000	 9.312233857906788e+000
 1.040516376290151e+000	 4.249464751103165e+000	 9.271167469707457e+000
 9.997100855264841e-001	 4.259249317084431e+000	 9.227206487176543e+000
 9.589233501502491e-001	 4.268616990163762e+000	 9.181679127729762e+000
 9.181620444641900e-001	 4.277569807761560e+000	 9.135787645148849e+000
 8.774319705522766e-001	 4.286109907271379e+000	 9.090608231875024e+000
 8.367388564348636e-001	 4.294239523626726e+000	 9.047091202719875e+000
 7.960883543090176e-001	 4.301960986837015e+000	 9.006061452314432e+000
 1.210696145308922e+000	 4.230155416053254e+000	 9.431184758369506e+000
 1.169638468832031e+000	 4.241691390524976e+000	 9.405420835088121e+000
 1.128576141780491e+000	 4.252800946720085e+000	 9.371237978833282e+000
 1.087515342294771e+000	 4.263485707784863e+000	 9.330379808675509e+000
 1.046462184155065e+000	 4.273747406824311e+000	 9.284464675138768e+000
 1.005422714587069e+000	 4.283587884611121e+000	 9.234984632244542e+000
 9.644029121516329e-001	 4.293009087250787e+000	 9.183304715156455e+000
 9.234086847189448e-001	 4.302013063806120e+000	 9.130662517554118e+000
 8.824458675277391e-001	 4.310601963884349e+000	 9.078168062196033e+000
 8.415202213299152e-001	 4.318778035190028e+000	 9.026803957501249e+000
 8.006374306208084e-001	 4.326543621046915e+000	 8.977425832393697e+000
 1.217575100680821e+000	 4.254190390007903e+000	 9.459864349421691e+000
 1.176284141950838e+000	 4.265791909789358e+000	 9.430680873501574e+000
 1.134988506222576e+000	 4.276964588463007e+000	 9.392331736389162e+000
 1.093694406739574e+000	 4.287710058397558e+000	 9.346602289022254e+000
 1.052407992019414e+000	 4.298030062545201e+000	 9.295151204273303e+000
 1.011135343647027e+000	 4.307926452137560e+000	 9.239509403017301e+000
 9.698824741523568e-001	 4.317401184337551e+000	 9.181079290658825e+000
 9.286553249730376e-001	 4.326456319850386e+000	 9.121134298202314e+000
 8.874597645025671e-001	 4.335094020496972e+000	 9.060818721267653e+000
 8.463015862243888e-001	 4.343316546752914e+000	 9.001147849812206e+000
 8.051865069321068e-001	 4.351126255256308e+000	 8.943008380722606e+000
 1.224454056052708e+000	 4.278225363962058e+000	 9.489076312826395e+000
 1.182929815069449e+000	 4.289892429053334e+000	 9.455654559466490e+000
 1.141400870664311e+000	 4.301128230205595e+000	 9.412362779396096e+000
 1.099873471183904e+000	 4.311934409009968e+000	 9.361028779450370e+000
 1.058353799883197e+000	 4.322312718265831e+000	 9.303352223695480e+000
 1.016847972706357e+000	 4.332265019663750e+000	 9.240903513427870e+000
 9.753620361524213e-001	 4.341793281424052e+000	 9.175122982584556e+000
 9.339019652264682e-001	 4.350899575894357e+000	 9.107320402600543e+000
 8.924736614767602e-001	 4.359586077109249e+000	 9.038674790056549e+000
 8.510829511182841e-001	 4.367855058315384e+000	 8.970234509806440e+000
 8.097355832429123e-001	 4.375708889465194e+000	 8.910456842259684e+000
 1.231333011424581e+000	 4.302260337915721e+000	 9.518954272630447e+000
 1.189575488187862e+000	 4.313992948316907e+000	 9.480473522364466e+000
 1.147813235105695e+000	 4.325291871947846e+000	 9.431460593434611e+000
 1.106052535627761e+000	 4.336158759622090e+000	 9.373786478724719e+000
 1.064299607746415e+000	 4.346595373986204e+000	 9.309192508352551e+000
 1.022560601765058e+000	 4.356603587189687e+000	 9.239289183503146e+000
 9.808415981518260e-001	 4.366185378510290e+000	 9.165555330717190e+000
 9.391486054792371e-001	 4.375342831938033e+000	 9.093292378055446e+000
 8.974875584503186e-001	 4.384078133721181e+000	 9.114505773817090e+000
 8.558643160116015e-001	 4.392393569877434e+000	 9.126022939209843e+000
 8.142846595532254e-001	 4.400291523673573e+000	 9.127912511378874e+000
 1.238211966796443e+000	 4.326295311868889e+000	 9.549631944126636e+000
 1.196221161306078e+000	 4.338093467580077e+000	 9.505269353659365e+000
 1.154225599546729e+000	 4.349455513689764e+000	 9.449754504449578e+000
 1.112231600071145e+000	 4.360383110233927e+000	 9.385002311697392e+000
 1.070245415609067e+000	 4.370878029706319e+000	 9.312796452433453e+000
 1.028273230823133e+000	 4.380942154715376e+000	 9.305322631826275e+000
 9.863211601505714e-001	 4.390577475596269e+000	 9.335556304686188e+000
 9.443952457313436e-001	 4.399786087981417e+000	 9.354372775345381e+000
 9.025014554232422e-001	 4.408570190332767e+000	 9.361851755449045e+000
 8.606456809043406e-001	 4.416932081439071e+000	 9.358071184635865e+000
 8.188337358630459e-001	 4.424874157881446e+000	 9.343107246782193e+000
 7.733429727426728e-001	 4.179047815779902e+000	 9.058646466853663e+000
 7.339007234633732e-001	 4.186154527505775e+000	 9.062106767712352e+000
 6.945106227088217e-001	 4.192869541852530e+000	 9.065729343418342e+000
 6.551779307865252e-001	 4.199195384720043e+000	 9.069859756781717e+000
 6.159078283377321e-001	 4.205134664553649e+000	 9.070072242066207e+000
 5.767054150413697e-001	 4.210690069845527e+000	 9.054227096662373e+000
 5.375757083998120e-001	 4.215864366623790e+000	 9.036979964871794e+000
 4.985236426059480e-001	 4.220660395932039e+000	 9.018354608732610e+000
 4.595540674909438e-001	 4.225081071302157e+000	 8.998263854448426e+000
 4.206717475519837e-001	 4.229129376222966e+000	 8.976513570954106e+000
 3.818813610591916e-001	 4.232808361607396e+000	 8.952806752126548e+000
 7.778920490569271e-001	 4.203630449992339e+000	 9.060581581330776e+000
 7.382177865464501e-001	 4.210778965904968e+000	 9.057082055852581e+000
 6.985959793168153e-001	 4.217533480336205e+000	 9.055040281691094e+000
 6.590319186185135e-001	 4.223896534044159e+000	 9.054816354516833e+000
 6.195308155671541e-001	 4.229870750817963e+000	 9.053660836606658e+000
 5.800977998397743e-001	 4.235458834964458e+000	 9.034778708443321e+000
 5.407379184534670e-001	 4.240663568782507e+000	 9.015931025139317e+000
 5.014561346257858e-001	 4.245487810027735e+000	 8.997124792663195e+000
 4.622573267163138e-001	 4.249934489370448e+000	 8.978253481677987e+000
 4.231462872486891e-001	 4.254006607849405e+000	 8.959101103905203e+000
 3.841277220122707e-001	 4.257707234324079e+000	 8.939346394018248e+000
 7.824411253706887e-001	 4.228213084204269e+000	 9.056177719663333e+000
 7.425348496291238e-001	 4.235403404303565e+000	 9.045557309857195e+000
 7.026813359244744e-001	 4.242197418819215e+000	 9.037714442791312e+000
 6.628859064502161e-001	 4.248597683367562e+000	 9.033024037917253e+000
 6.231538027963176e-001	 4.254606837081536e+000	 9.030691683666145e+000
 5.834901846379285e-001	 4.260227600082640e+000	 9.009159517973922e+000
 5.439001285068597e-001	 4.265462770940489e+000	 8.989126753432696e+000
 5.043886266453288e-001	 4.270315224122728e+000	 8.970583207413448e+000
 4.649605859413373e-001	 4.274787907438089e+000	 8.953402529230914e+000
 4.256208269449765e-001	 4.278883839475261e+000	 8.937346375681281e+000
 3.863740829648416e-001	 4.282606107040270e+000	 8.922068694013788e+000
 7.869902016839576e-001	 4.252795718415691e+000	 9.045548310842396e+000
 7.468519127113944e-001	 4.260027842701565e+000	 9.027639807419426e+000
 7.067666925317991e-001	 4.266861357301558e+000	 9.013853220041796e+000
 6.667398942816325e-001	 4.273298832690252e+000	 9.004578585530396e+000
 6.267767900252235e-001	 4.279342923344370e+000	 9.000088994611357e+000
 5.868825694358320e-001	 4.284996365200073e+000	 8.977332619629436e+000
 5.470623385599893e-001	 4.290261973097732e+000	 8.956533565694702e+000
 5.073211186645767e-001	 4.295142638217016e+000	 8.938699896137250e+000
 4.676638451660140e-001	 4.299641325505075e+000	 8.923684968634339e+000
 4.280953666408461e-001	 4.303761071100536e+000	 8.911227582624724e+000
 3.886204439169041e-001	 4.307504979755969e+000	 8.900956364764530e+000
 7.915392779967340e-001	 4.277378352626607e+000	 9.028805754901311e+000
 7.511689757932621e-001	 4.284652281098968e+000	 9.003435807203879e+000
 7.108520491387896e-001	 4.291525295783235e+000	 8.983556996841006e+000
 6.705938821127631e-001	 4.297999982012227e+000	 8.969574774262398e+000
 6.303997772538712e-001	 4.304079009606460e+000	 8.961774672741804e+000
 5.902749542334850e-001	 4.309765130316754e+000	 8.939260120262993e+000
 5.502245486128563e-001	 4.315061175254239e+000	 8.918116896191183e+000
 5.102536106835299e-001	 4.319970052310598e+000	 8.901443925354320e+000
 4.703671043903441e-001	 4.324494743571407e+000	 8.889073799027022e+000
 4.305699063362979e-001	 4.328638302725230e+000	 8.880721952144290e+000
 3.908668048684583e-001	 4.332403852471176e+000	 8.875991152658314e+000
 7.960883543090176e-001	 4.301960986837015e+000	 9.006061452314432e+000
 7.554860388747265e-001	 4.309276719495773e+000	 8.973050577961713e+000
 7.149374057454458e-001	 4.316189234264248e+000	 8.946925175518086e+000
 6.744478699436075e-001	 4.322701131333488e+000	 8.928106407996463e+000
 6.340227644822606e-001	 4.328815095867808e+000	 8.916892509120324e+000
 5.936673390308876e-001	 4.334533895432689e+000	 8.894903167420267e+000
 5.533867586654606e-001	 4.339860377410007e+000	 8.873841225559000e+000
 5.131861027021881e-001	 4.344797466403474e+000	 8.858783412854010e+000
 4.730703636143274e-001	 4.349348161637087e+000	 8.849541074941770e+000
 4.330444460313317e-001	 4.353515534349339e+000	 8.845805770398965e+000
 3.931131658195043e-001	 4.357302725185893e+000	 8.847153865427050e+000
 8.006374306208084e-001	 4.326543621046915e+000	 8.977425832393697e+000
 7.598031019557878e-001	 4.333901157891983e+000	 8.936588426653071e+000
 7.190227623517680e-001	 4.340853172744595e+000	 8.904056205204169e+000
 6.783018577741659e-001	 4.347402280654034e+000	 8.880266345235549e+000
 6.376457517103917e-001	 4.353551182128414e+000	 8.865530041182703e+000
 5.970597238280400e-001	 4.359302660547872e+000	 8.844221976592845e+000
 5.565489687178020e-001	 4.364659579565039e+000	 8.823670107897726e+000
 5.161185947205512e-001	 4.369624880495647e+000	 8.810685554647854e+000
 4.757736228379639e-001	 4.374201579702113e+000	 8.805057933140930e+000
 4.355189857259478e-001	 4.378392765972867e+000	 8.824465403156394e+000
 3.953595267700419e-001	 4.382201597900117e+000	 8.846948178059577e+000
 8.051865069321068e-001	 4.351126255256308e+000	 8.943008380722606e+000
 7.641201650364461e-001	 4.358525596287595e+000	 8.894152725616484e+000
 7.231081189577555e-001	 4.365517111224277e+000	 8.855047608758824e+000
 6.821558456044382e-001	 4.372103429973867e+000	 8.826146525808019e+000
 6.412687389382651e-001	 4.378287268388280e+000	 8.836437134058253e+000
 6.004521086249417e-001	 4.384071425662305e+000	 8.860970352196597e+000
 5.597111787698806e-001	 4.389458781719333e+000	 8.876062149602646e+000
 5.190510867386197e-001	 4.394452294587114e+000	 8.889944784826241e+000
 4.784768820612541e-001	 4.399054997766486e+000	 8.902556343337425e+000
 4.379935254201459e-001	 4.403269997595814e+000	 8.913819507129640e+000
 3.976058877200713e-001	 4.407100470613849e+000	 8.923641876044023e+000
 8.097355832429123e-001	 4.375708889465194e+000	 8.910456842259684e+000
 7.684372281167010e-001	 4.383150034682610e+000	 8.929394347210693e+000
 7.271934755634087e-001	 4.390181049703290e+000	 8.949041287643496e+000
 6.860098334344247e-001	 4.396804579292988e+000	 8.969384687545006e+000
 6.448917261658799e-001	 4.403023354647401e+000	 8.990401679201337e+000
 6.038444934215930e-001	 4.408840190775990e+000	 9.001733803582820e+000
 5.628733888216966e-001	 4.414257983872890e+000	 9.002869578758286e+000
 5.219835787563931e-001	 4.419279708677876e+000	 9.003114364108907e+000
 4.811801412841973e-001	 4.423908415830206e+000	 9.002408844553296e+000
 4.404680651139261e-001	 4.428147229218177e+000	 9.000677749636898e+000
 3.998522486695924e-001	 4.431999343327089e+000	 8.997830183443776e+000
 8.142846595532254e-001	 4.400291523673573e+000	 9.127912511378874e+000
 7.727542911965530e-001	 4.407774473077029e+000	 9.130081432156151e+000
 7.312788321687278e-001	 4.414844988181641e+000	 9.133202138745775e+000
 6.898638212641248e-001	 4.421505728611392e+000	 9.137263060744099e+000
 6.485147133932367e-001	 4.427759440905782e+000	 9.142242369955609e+000
 6.072368782179939e-001	 4.433608955888925e+000	 9.140113341593574e+000
 5.660355988732496e-001	 4.439057186025711e+000	 9.127273250815762e+000
 5.249160707738717e-001	 4.444107122767933e+000	 9.113862549007006e+000
 4.838834005067940e-001	 4.448761833893272e+000	 9.099824582143173e+000
 4.429426048072886e-001	 4.453024460839959e+000	 9.085086183325842e+000
 4.020986096186051e-001	 4.456898216039838e+000	 9.069558011323913e+000
 8.188337358630459e-001	 4.424874157881446e+000	 9.343107246782193e+000
 7.770713542760024e-001	 4.432398911470850e+000	 9.328549178964666e+000
 7.353641887737129e-001	 4.439508926659324e+000	 9.315185655799734e+000
 6.937178090935393e-001	 4.446206877929084e+000	 9.303006501432668e+000
 6.521377006203357e-001	 4.452495527163421e+000	 9.291990914173644e+000
 6.106292630141446e-001	 4.458377721001112e+000	 9.276159422465858e+000
 5.691978089245402e-001	 4.463856388177795e+000	 9.249322218215291e+000
 5.278485627910554e-001	 4.468934536857286e+000	 9.222237053840562e+000
 4.865866597290441e-001	 4.473615251955685e+000	 9.194849998316986e+000
 4.454171445002333e-001	 4.477901692461161e+000	 9.167090044578703e+000
 4.043449705671096e-001	 4.481797088752095e+000	 9.138869456733531e+000
 3.818813610591916e-001	 4.232808361607396e+000	 8.952806752126548e+000
 3.431874992402947e-001	 4.236121143260720e+000	 8.930253828848423e+000
 3.045946655437639e-001	 4.239070899352234e+000	 8.910912498959030e+000
 2.661072749782468e-001	 4.241660867892875e+000	 8.894117251838084e+000
 2.277296535260604e-001	 4.243894344221186e+000	 8.879113674939307e+000
 1.894660376312561e-001	 4.245774678499766e+000	 8.865063015864998e+000
 1.513205737604607e-001	 4.247305273224471e+000	 8.851046774319601e+000
 1.132973180351715e-001	 4.248489580748445e+000	 8.836071312558280e+000
 7.540023593415120e-002	 4.249331100823047e+000	 8.819072473318057e+000
 3.763320206450971e-002	 4.249833378157621e+000	 8.798920194607650e+000
 0.000000000000000e+000	 4.250000000000000e+000	 8.774423111136978e+000
 3.841277220122707e-001	 4.257707234324079e+000	 8.939346394018248e+000
 3.452062492418693e-001	 4.261039502928045e+000	 8.921485401008772e+000
 3.063863988766923e-001	 4.264006610525749e+000	 8.907792779084010e+000
 2.676726118960288e-001	 4.266611814175250e+000	 8.897578609110832e+000
 2.290692397291523e-001	 4.268858428599435e+000	 8.890062220134823e+000
 1.905805437403758e-001	 4.270749823667742e+000	 8.884376847599116e+000
 1.522106947873085e-001	 4.272289421890708e+000	 8.879574321880080e+000
 1.139637728509881e-001	 4.273480695929435e+000	 8.874629775536169e+000
 7.584376673652529e-002	 4.274327166122059e+000	 8.868446358045068e+000
 3.785457384283875e-002	 4.274832398029149e+000	 8.859859947199944e+000
 0.000000000000000e+000	 4.275000000000000e+000	 8.847643846749373e+000
 3.863740829648416e-001	 4.282606107040270e+000	 8.922068694013788e+000
 3.472249992428512e-001	 4.285957862594974e+000	 8.909517184405077e+000
 3.081781322089745e-001	 4.288942321698952e+000	 8.902120070384823e+000
 2.692379488131415e-001	 4.291562760457388e+000	 8.899162347633853e+000
 2.304088259315822e-001	 4.293822512977510e+000	 8.899836384302754e+000
 1.916950498488709e-001	 4.295724968835596e+000	 8.903246676891923e+000
 1.531008158135986e-001	 4.297273570556868e+000	 8.908414636886306e+000
 1.146302276663433e-001	 4.298471811110384e+000	 8.914283396318655e+000
 7.628729753856317e-002	 4.299323231421051e+000	 8.919722620820787e+000
 3.807594562098553e-002	 4.299831417900672e+000	 8.923533319126280e+000
 0.000000000000000e+000	 4.300000000000000e+000	 8.924452638409342e+000
 3.886204439169041e-001	 4.307504979755969e+000	 8.900956364764530e+000
 3.492437492432404e-001	 4.310876222261504e+000	 8.894335539578991e+000
 3.099698655406105e-001	 4.313878032871843e+000	 8.893884596555056e+000
 2.708032857295849e-001	 4.316513706739285e+000	 8.898862765080700e+000
 2.317484121333502e-001	 4.318786597355409e+000	 8.908434745323671e+000
 1.928095559567414e-001	 4.320700114003333e+000	 8.921675563299033e+000
 1.539909368393310e-001	 4.322257719222951e+000	 8.937575457129615e+000
 1.152966824812370e-001	 4.323462926291288e+000	 8.955044782447301e+000
 7.673082834026486e-002	 4.324319296720024e+000	 8.972918925276204e+000
 3.829731739895002e-002	 4.324830437772191e+000	 8.989963211150997e+000
 0.000000000000000e+000	 4.324999999999999e+000	 9.004877799652736e+000
 3.908668048684583e-001	 4.332403852471176e+000	 8.875991152658314e+000
 3.512624992430367e-001	 4.335794581927638e+000	 8.875925889246766e+000
 3.117615988716001e-001	 4.338813744044420e+000	 8.883075672640207e+000
 2.723686226453592e-001	 4.341464653020945e+000	 8.896673280374708e+000
 2.330879983344563e-001	 4.343750681733136e+000	 8.915855032927313e+000
 1.939240620639871e-001	 4.345675259170945e+000	 8.939665749507272e+000
 1.548810578645057e-001	 4.347241867888957e+000	 8.967063735478273e+000
 1.159631372956692e-001	 4.348454041472150e+000	 8.996925789130923e+000
 7.717435914163033e-002	 4.349315362018977e+000	 9.028052215925230e+000
 3.851868917673224e-002	 4.349829457643704e+000	 9.059171838743277e+000
 0.000000000000000e+000	 4.350000000000000e+000	 9.088946993129499e+000
 3.931131658195043e-001	 4.357302725185893e+000	 8.847153865427050e+000
 3.532812492422405e-001	 4.360712941593376e+000	 8.854272745094271e+000
 3.135533322019435e-001	 4.363749455216683e+000	 8.869681730999083e+000
 2.739339595604641e-001	 4.366415599302365e+000	 8.892586458796069e+000
 2.344275845349006e-001	 4.368714766110686e+000	 8.922094152925467e+000
 1.950385681706083e-001	 4.370650404338438e+000	 8.957218684673851e+000
 1.557711788891227e-001	 4.372226016554885e+000	 8.996885662303908e+000
 1.166295921096400e-001	 4.373445156652969e+000	 9.039937540740811e+000
 7.761788994265960e-002	 4.374311427317911e+000	 9.085138738710914e+000
 3.874006095433218e-002	 4.374828477515214e+000	 9.131180751657166e+000
 0.000000000000000e+000	 4.374999999999999e+000	 9.176687249200381e+000
 3.953595267700419e-001	 4.382201597900117e+000	 8.846948178059577e+000
 3.552999992408514e-001	 4.385631301258716e+000	 8.868515445075460e+000
 3.153450655316407e-001	 4.388685166388635e+000	 8.892146828899687e+000
 2.754992964748999e-001	 4.391366545583549e+000	 8.917659469304518e+000
 2.357671707346829e-001	 4.393678850488063e+000	 8.944855155415306e+000
 1.961530742766049e-001	 4.395625549505810e+000	 8.973520855702230e+000
 1.566612999131819e-001	 4.397210165220737e+000	 9.003429267384680e+000
 1.172960469231493e-001	 4.398436271833745e+000	 9.034339383489213e+000
 7.806142074335265e-002	 4.399307492616828e+000	 9.065997075811346e+000
 3.896143273174985e-002	 4.399827497386719e+000	 9.098135692045911e+000
 0.000000000000000e+000	 4.400000000000000e+000	 9.130476665369963e+000
 3.976058877200713e-001	 4.407100470613849e+000	 8.923641876044023e+000
 3.573187492388698e-001	 4.410549660923660e+000	 8.932666597652851e+000
 3.171367988606916e-001	 4.413620877560275e+000	 8.943758451111009e+000
 2.770646333886664e-001	 4.416317491864493e+000	 8.956740542507424e+000
 2.371067569338033e-001	 4.418642934865265e+000	 8.971420264333338e+000
 1.972675803819767e-001	 4.420600694673062e+000	 8.987589828553437e+000
 1.575514209366834e-001	 4.422194313886511e+000	 9.005026819680497e+000
 1.179625017361972e-001	 4.423427387014477e+000	 9.023494766065287e+000
 7.850495154370950e-002	 4.424303557915724e+000	 9.042743727623050e+000
 3.918280450898524e-002	 4.424826517258219e+000	 9.062510898231674e+000
 0.000000000000000e+000	 4.425000000000000e+000	 9.082521221055885e+000
 3.998522486695924e-001	 4.431999343327089e+000	 8.997830183443776e+000
 3.593374992362954e-001	 4.435468020588207e+000	 8.994365227960948e+000
 3.189285321890961e-001	 4.438556588731601e+000	 8.992976226864847e+000
 2.786299703017637e-001	 4.441268438145198e+000	 8.993492227611991e+000
 2.384463431322618e-001	 4.443607019242291e+000	 8.995726194940302e+000
 1.983820864867240e-001	 4.445575839840192e+000	 8.999475547165783e+000
 1.584415419596272e-001	 4.447178462552208e+000	 9.004522713079741e+000
 1.186289565487836e-001	 4.448418502195166e+000	 9.010635707628900e+000
 7.894848234373017e-002	 4.449299623214603e+000	 9.017568724570037e+000
 3.940417628603835e-002	 4.449825537129714e+000	 9.025062744304393e+000
 0.000000000000000e+000	 4.449999999999999e+000	 9.032846155116223e+000
 4.020986096186051e-001	 4.456898216039838e+000	 9.069558011323913e+000
 3.613562492331282e-001	 4.460386380252357e+000	 9.053654166438838e+000
 3.207202655168545e-001	 4.463492299902615e+000	 9.039840916114164e+000
 2.801953072141918e-001	 4.466219384425667e+000	 9.027953225244726e+000
 2.397859293300584e-001	 4.468571103619143e+000	 9.017809600674573e+000
 1.994965925908466e-001	 4.470550985007201e+000	 9.009212630865433e+000
 1.593316629820133e-001	 4.472162611217828e+000	 9.001949546768875e+000
 1.192954113609085e-001	 4.473409617375810e+000	 8.995792802055036e+000
 7.939201314341458e-002	 4.474295688513459e+000	 8.990500670859259e+000
 3.962554806290918e-002	 4.474824557001202e+000	 8.985817861221479e+000
 0.000000000000000e+000	 4.474999999999999e+000	 8.981476142412156e+000
 4.043449705671096e-001	 4.481797088752095e+000	 9.138869456733531e+000
 3.633749992293684e-001	 4.485304739916109e+000	 9.110575453466929e+000
 3.225119988439666e-001	 4.488428011073319e+000	 9.084392513333292e+000
 2.817606441259506e-001	 4.491170330705894e+000	 9.060161495740481e+000
 2.411255155271930e-001	 4.493535187995821e+000	 9.037706420460985e+000
 2.006110986943447e-001	 4.495526130174090e+000	 9.016835010818179e+000
 1.602217840038418e-001	 4.497146759883373e+000	 8.997339258686194e+000
 1.199618661725720e-001	 4.498400732556415e+000	 8.978996009425806e+000
 7.983554394276284e-002	 4.499291753812300e+000	 8.961567564887009e+000
 3.984691983959775e-002	 4.499823576872690e+000	 8.944802302622477e+000
 0.000000000000000e+000	 4.500000000000000e+000	 8.928435309474592e+000
 4.500000000000000e+000	 0.000000000000000e+000	 1.030759512433122e+001
 4.499823576872690e+000	 3.984691983959790e-002	 1.032501945964855e+001
 4.499291753812299e+000	 7.983554394276311e-002	 1.034101353152754e+001
 4.498400732556415e+000	 1.199618661725717e-001	 1.035552894928578e+001
 4.497146759883374e+000	 1.602217840038417e-001	 1.036852250086691e+001
 4.495526130174089e+000	 2.006110986943446e-001	 1.037995628656375e+001
 4.493535187995821e+000	 2.411255155271932e-001	 1.038979784427922e+001
 4.491170330705895e+000	 2.817606441259510e-001	 1.039802026577331e+001
 4.488428011073320e+000	 3.225119988439664e-001	 1.040460230335006e+001
 4.485304739916110e+000	 3.633749992293683e-001	 1.040952846644594e+001
 4.481797088752097e+000	 4.043449705671097e-001	 1.041278910759078e+001
 4.525000000000000e+000	 0.000000000000000e+000	 1.032193099561532e+001
 4.524822596744175e+000	 4.006829161619294e-002	 1.033736098431623e+001
 4.524287819111140e+000	 8.027907474193370e-002	 1.035140050480536e+001
 4.523391847737016e+000	 1.206283209839829e-001	 1.036401273069726e+001
 4.522130908548917e+000	 1.611119050253527e-001	 1.037516629163414e+001
 4.520501275340979e+000	 2.017256047974699e-001	 1.038483540207564e+001
 4.518499272372498e+000	 2.424651017239095e-001	 1.039299998107804e+001
 4.516121276986123e+000	 2.833259810372560e-001	 1.039964576250123e+001
 4.513363722244021e+000	 3.243037321705991e-001	 1.040476439508743e+001
 4.510223099579862e+000	 3.653937492251135e-001	 1.040835353186515e+001
 4.506695961464353e+000	 4.065913315151141e-001	 1.041041690834129e+001
 4.550000000000000e+000	 0.000000000000000e+000	 1.033447391672025e+001
 4.549821616615666e+000	 4.028966339278321e-002	 1.034809744183711e+001
 4.549283884409996e+000	 8.072260554108510e-002	 1.036036845028665e+001
 4.548382962917662e+000	 1.212947757953508e-001	 1.037126161015805e+001
 4.547115057214538e+000	 1.620020260467866e-001	 1.038075732392800e+001
 4.545476420507988e+000	 2.028401109004743e-001	 1.038884185238619e+001
 4.543463356749350e+000	 2.438046879204513e-001	 1.039550742900146e+001
 4.541072223266592e+000	 2.848913179483225e-001	 1.040075236415616e+001
 4.538299433415035e+000	 3.260954654969191e-001	 1.040458113868373e+001
 4.535141459244013e+000	 3.674124992204619e-001	 1.040700448615383e+001
 4.531594834177102e+000	 4.088376924626270e-001	 1.040803946336033e+001
 4.574999999999999e+000	 0.000000000000000e+000	 1.034524898849792e+001
 4.574820636487161e+000	 4.051103516936872e-002	 1.035724985111965e+001
 4.574279949708873e+000	 8.116613634021740e-002	 1.036793429906430e+001
 4.573374078098351e+000	 1.219612306066755e-001	 1.037728842666308e+001
 4.572099205880235e+000	 1.628921470681435e-001	 1.038530434198803e+001
 4.570451565675120e+000	 2.039546170033579e-001	 1.039198028598167e+001
 4.568427441126377e+000	 2.451442741168184e-001	 1.039732074147779e+001
 4.566023169547297e+000	 2.864566548591504e-001	 1.040133653153057e+001
 4.563235144586362e+000	 3.278871988229265e-001	 1.040404490647687e+001
 4.560059818908559e+000	 3.694312492154132e-001	 1.040546961916762e+001
 4.556493706890342e+000	 4.110840534096479e-001	 1.040564098781557e+001
 4.600000000000000e+000	 0.000000000000000e+000	 1.035428076612949e+001
 4.599819656358659e+000	 4.073240694594946e-002	 1.036483876451604e+001
 4.599276015007772e+000	 8.160966713933057e-002	 1.037411459463261e+001
 4.598365193279084e+000	 1.226276854179570e-001	 1.038210571037842e+001
 4.597083354546009e+000	 1.637822680894232e-001	 1.038881585977467e+001
 4.595426710842369e+000	 2.050691231061205e-001	 1.039425519936657e+001
 4.593391525503580e+000	 2.464838603130109e-001	 1.039844039796608e+001
 4.590974115828240e+000	 2.880219917697399e-001	 1.040139472914201e+001
 4.588170855758003e+000	 3.296789321486214e-001	 1.040314815187263e+001
 4.584978178573501e+000	 3.714499992099676e-001	 1.040373737878755e+001
 4.581392579604074e+000	 4.133304143561773e-001	 1.040320593143817e+001
 4.624999999999999e+000	 0.000000000000000e+000	 1.036159327387331e+001
 4.624818676230165e+000	 4.095377872252544e-002	 1.037088428043172e+001
 4.624272080306688e+000	 8.205319793842462e-002	 1.037892550336303e+001
 4.623356308459858e+000	 1.232941402291954e-001	 1.038572569098803e+001
 4.622067503211861e+000	 1.646723891106260e-001	 1.039130016719299e+001
 4.620401856009741e+000	 2.061836292087624e-001	 1.039567094117137e+001
 4.618355609880956e+000	 2.478234465090287e-001	 1.039886680595528e+001
 4.615925062109422e+000	 2.895873286800908e-001	 1.040092342513239e+001
 4.613106566929955e+000	 3.314706654740037e-001	 1.040188340715364e+001
 4.609896538238842e+000	 3.734687492041251e-001	 1.040179636664908e+001
 4.606291452318299e+000	 4.155767753022150e-001	 1.040071897218319e+001
 4.650000000000000e+000	 0.000000000000000e+000	 1.036721001933700e+001
 4.649817696101674e+000	 4.117515049909665e-002	 1.037540605552838e+001
 4.649268145605621e+000	 8.249672873749950e-002	 1.038238282464178e+001
 4.648347423640677e+000	 1.239605950403905e-001	 1.038816030577123e+001
 4.647051651877790e+000	 1.655625101317516e-001	 1.039276533611568e+001
 4.645377001177234e+000	 2.072981353112834e-001	 1.039623171612751e+001
 4.643319694258506e+000	 2.491630327048719e-001	 1.039860030289886e+001
 4.640876008390843e+000	 2.911526655902032e-001	 1.039991909117057e+001
 4.638042278102219e+000	 3.332623987990734e-001	 1.040024328135904e+001
 4.634814897904581e+000	 3.754874991978856e-001	 1.039963533400887e+001
 4.631190325033014e+000	 4.178231362477610e-001	 1.039816501009462e+001
 4.675000000000000e+000	 0.000000000000000e+000	 1.037115400729168e+001
 4.674816715973187e+000	 4.139652227566309e-002	 1.037842331653522e+001
 4.674264210904576e+000	 8.294025953655530e-002	 1.038450200068239e+001
 4.673338538821540e+000	 1.246270498515425e-001	 1.038942120742103e+001
 4.672035800543796e+000	 1.664526311528002e-001	 1.039321922621281e+001
 4.670352146344847e+000	 2.084126414136835e-001	 1.039594158891502e+001
 4.668283778636232e+000	 2.505026189005405e-001	 1.039764115808747e+001
 4.665826954672503e+000	 2.927180025000771e-001	 1.039837820235805e+001
 4.662977989274797e+000	 3.350541321238305e-001	 1.039822045823213e+001
 4.659733257570715e+000	 3.775062491912492e-001	 1.039724317774431e+001
 4.656089197748221e+000	 4.200694971928152e-001	 1.039552916136707e+001
 4.699999999999999e+000	 0.000000000000000e+000	 1.037344775304523e+001
 4.699815735844708e+000	 4.161789405222478e-002	 1.037995487168334e+001
 4.699260276203549e+000	 8.338379033559194e-002	 1.038529812602488e+001
 4.698329654002444e+000	 1.252935046626512e-001	 1.038951977161287e+001
 4.697019949209880e+000	 1.673427521737716e-001	 1.039266949059549e+001
 4.695327291512582e+000	 2.095271475159629e-001	 1.039480448788731e+001
 4.693247863014131e+000	 2.518422050960345e-001	 1.039598957446180e+001
 4.690777900954401e+000	 2.942833394097125e-001	 1.039629723713767e+001
 4.687913700447686e+000	 3.368458654482751e-001	 1.039580769423360e+001
 4.684651617237247e+000	 3.795249991842158e-001	 1.039460893648053e+001
 4.680988070463921e+000	 4.223158581373777e-001	 1.039279675259719e+001
 4.725000000000000e+000	 0.000000000000000e+000	 1.037411329539108e+001
 4.724814755716230e+000	 4.183926582878168e-002	 1.038001912177708e+001
 4.724256341502540e+000	 8.382732113460945e-002	 1.038478595673354e+001
 4.723320769183393e+000	 1.259599594737167e-001	 1.038846710433317e+001
 4.722004097876039e+000	 1.682328731946661e-001	 1.039112358128043e+001
 4.720302436680437e+000	 2.106416536181213e-001	 1.039282420867766e+001
 4.718211947392206e+000	 2.531817912913539e-001	 1.039364569036783e+001
 4.715728847236537e+000	 2.958486763191094e-001	 1.039367267720523e+001
 4.712849411620889e+000	 3.386375987724070e-001	 1.039299781661778e+001
 4.709569976904174e+000	 3.815437491767853e-001	 1.039172178684051e+001
 4.705886943180112e+000	 4.245622190814485e-001	 1.038995331521739e+001
 4.750000000000000e+000	 0.000000000000000e+000	 1.037317220914808e+001
 4.749813775587761e+000	 4.206063760533384e-002	 1.037863407091587e+001
 4.749252406801552e+000	 8.427085193360784e-002	 1.038297991930411e+001
 4.748311884364385e+000	 1.266264142847391e-001	 1.038627404897638e+001
 4.746988246542277e+000	 1.691229942154834e-001	 1.038858875448188e+001
 4.745277581848414e+000	 2.117561597201589e-001	 1.039000441769181e+001
 4.743176031770457e+000	 2.545213774864986e-001	 1.039060958125666e+001
 4.740679793518913e+000	 2.974140132282679e-001	 1.039050100742387e+001
 4.737785122794405e+000	 3.404293320962264e-001	 1.038978372156962e+001
 4.734488336571500e+000	 3.835624991689580e-001	 1.038857103981357e+001
 4.730785815896796e+000	 4.268085800250276e-001	 1.038698458010548e+001
 4.481797088752097e+000	 4.043449705671097e-001	 1.041278910759078e+001
 4.477901692461161e+000	 4.454171445002335e-001	 1.041632635337830e+001
 4.473615251955685e+000	 4.865866597290443e-001	 1.041920320536910e+001
 4.468934536857284e+000	 5.278485627910551e-001	 1.042149172699498e+001
 4.463856388177794e+000	 5.691978089245400e-001	 1.042327040756026e+001
 4.458377721001112e+000	 6.106292630141444e-001	 1.042462413350004e+001
 4.452495527163421e+000	 6.521377006203358e-001	 1.043837959066044e+001
 4.446206877929084e+000	 6.937178090935396e-001	 1.045743455712326e+001
 4.439508926659324e+000	 7.353641887737125e-001	 1.047490035595103e+001
 4.432398911470851e+000	 7.770713542760019e-001	 1.049089704256403e+001
 4.424874157881446e+000	 8.188337358630459e-001	 1.050554717214190e+001
 4.506695961464353e+000	 4.065913315151141e-001	 1.041041690834129e+001
 4.502778924082358e+000	 4.478916841926803e-001	 1.041395720534134e+001
 4.498468670018098e+000	 4.892899189508039e-001	 1.041690812823942e+001
 4.493761950946638e+000	 5.307810548077605e-001	 1.041934569696563e+001
 4.488655590329879e+000	 5.723600189753691e-001	 1.042135245008628e+001
 4.483146486113297e+000	 6.140216478098557e-001	 1.042301741266071e+001
 4.477231613421060e+000	 6.557606878470222e-001	 1.043746375452590e+001
 4.470908027246774e+000	 6.975717969225734e-001	 1.045517506522112e+001
 4.464172865137007e+000	 7.394495453783541e-001	 1.047142526079902e+001
 4.457023349864672e+000	 7.813884173551499e-001	 1.048633377388706e+001
 4.449456792089316e+000	 8.233828121726123e-001	 1.050002244038673e+001
 4.531594834177102e+000	 4.088376924626270e-001	 1.040803946336033e+001
 4.527656155704141e+000	 4.503662238845501e-001	 1.041154880465833e+001
 4.523322088081165e+000	 4.919931781719293e-001	 1.041453770525994e+001
 4.518589365036693e+000	 5.337135468238041e-001	 1.041708616807505e+001
 4.513454792482697e+000	 5.755222290255383e-001	 1.041928081001174e+001
 4.507915251226233e+000	 6.174140326049386e-001	 1.042121482643966e+001
 4.501967699679440e+000	 6.593836750731418e-001	 1.043606688330973e+001
 4.495609176565180e+000	 7.014257847511327e-001	 1.045248306526959e+001
 4.488836803615358e+000	 7.435349019826434e-001	 1.046756518338719e+001
 4.481647788259091e+000	 7.857054804340988e-001	 1.048143195407473e+001
 4.474039426297694e+000	 8.279318884821644e-001	 1.049420439990405e+001
 4.556493706890342e+000	 4.110840534096479e-001	 1.040564098781557e+001
 4.552533387326506e+000	 4.528407635758423e-001	 1.040908458736415e+001
 4.548175506144884e+000	 4.946964373924208e-001	 1.041207459823134e+001
 4.543416779127454e+000	 5.366460388391861e-001	 1.041469503332536e+001
 4.538253994636254e+000	 5.786844390750475e-001	 1.041703661752355e+001
 4.532684016339916e+000	 6.208064173993930e-001	 1.041919674875003e+001
 4.526703785938562e+000	 6.630066622986948e-001	 1.043419725347128e+001
 4.520310325884299e+000	 7.052797725792170e-001	 1.044936800415731e+001
 4.513500742094372e+000	 7.476202585865805e-001	 1.046333075663290e+001
 4.506272226654104e+000	 7.900225435128486e-001	 1.047620341696991e+001
 4.498622060506580e+000	 8.324809647917016e-001	 1.048810609963827e+001
 4.581392579604074e+000	 4.133304143561773e-001	 1.040320593143817e+001
 4.577410618949450e+000	 4.553153032665570e-001	 1.040654822870866e+001
 4.573028924209256e+000	 4.973996966122780e-001	 1.040950171247648e+001
 4.568244193218922e+000	 5.395785308539063e-001	 1.041215443319843e+001
 4.563053196790550e+000	 5.818466491238972e-001	 1.041460125389147e+001
 4.557452781454350e+000	 6.241988021932194e-001	 1.041694380783168e+001
 4.551439872198428e+000	 6.666296495236814e-001	 1.043186339867637e+001
 4.545011475204132e+000	 7.091337604068270e-001	 1.044583958849050e+001
 4.538164680574053e+000	 7.517056151901649e-001	 1.045873287530912e+001
 4.530896665049717e+000	 7.943396065913994e-001	 1.047066026003177e+001
 4.523204694715974e+000	 8.370300411012241e-001	 1.048174085352937e+001
 4.606291452318299e+000	 4.155767753022150e-001	 1.040071897218319e+001
 4.602287850572980e+000	 4.577898429566946e-001	 1.040392363669146e+001
 4.597882342274283e+000	 5.001029558315012e-001	 1.040680219025854e+001
 4.593071607311094e+000	 5.425110228679648e-001	 1.040944674896716e+001
 4.587852398945581e+000	 5.850088591720870e-001	 1.041195634468207e+001
 4.582221546569533e+000	 6.275911869864177e-001	 1.041516743888280e+001
 4.576175958459033e+000	 6.702526367481011e-001	 1.042907410284568e+001
 4.569712624524680e+000	 7.129877482339619e-001	 1.044190777757358e+001
 4.562828619054401e+000	 7.557909717933975e-001	 1.045378268896729e+001
 4.555521103445927e+000	 7.986566696697511e-001	 1.046481483721108e+001
 4.547787328925875e+000	 8.415791174107322e-001	 1.047512223335079e+001
 4.631190325033014e+000	 4.178231362477610e-001	 1.039816501009462e+001
 4.627165082197091e+000	 4.602643826462549e-001	 1.040119494580508e+001
 4.622735760339963e+000	 5.028062150500903e-001	 1.040395940441177e+001
 4.617899021403972e+000	 5.454435148813617e-001	 1.040655459622264e+001
 4.612651601101352e+000	 5.881710692196168e-001	 1.040908375319163e+001
 4.606990311685467e+000	 6.309835717789875e-001	 1.041314521221526e+001
 4.600912044720382e+000	 6.738756239719543e-001	 1.042583839342760e+001
 4.594413773845941e+000	 7.168417360606222e-001	 1.043758277661619e+001
 4.587492557535411e+000	 7.598763283962775e-001	 1.044849159508842e+001
 4.580145541842733e+000	 8.029737327479041e-001	 1.045867975205523e+001
 4.572369963136282e+000	 8.461281937202254e-001	 1.046826406177845e+001
 4.656089197748221e+000	 4.200694971928152e-001	 1.039552916136707e+001
 4.652042313821781e+000	 4.627389223352377e-001	 1.039834651097912e+001
 4.647589178406296e+000	 5.055094742680454e-001	 1.040095695217647e+001
 4.642726435497553e+000	 5.483760068940968e-001	 1.040346081860896e+001
 4.637450803257858e+000	 5.913332792664869e-001	 1.040596557408975e+001
 4.631759076802149e+000	 6.343759565709292e-001	 1.041063060205162e+001
 4.625648130982473e+000	 6.774986111952410e-001	 1.042216553488665e+001
 4.619114923167915e+000	 7.206957238868077e-001	 1.043287503015817e+001
 4.612156496017089e+000	 7.639616849988052e-001	 1.044287123245398e+001
 4.604769980240135e+000	 8.072907958258577e-001	 1.045226785103453e+001
 4.596952597347198e+000	 8.506772700297042e-001	 1.046118040568216e+001
 4.680988070463921e+000	 4.223158581373777e-001	 1.039279675259719e+001
 4.676919545447057e+000	 4.652134620236433e-001	 1.039536290171754e+001
 4.672442596473283e+000	 5.082127334853662e-001	 1.039777864923073e+001
 4.667553849591841e+000	 5.513084989061704e-001	 1.040014848175797e+001
 4.662250005415101e+000	 5.944954893126971e-001	 1.040258412726577e+001
 4.656527841919582e+000	 6.377683413622425e-001	 1.040763193577768e+001
 4.650384217245303e+000	 6.811215984179608e-001	 1.041806502239995e+001
 4.643816072490604e+000	 7.245497117125186e-001	 1.042779521570444e+001
 4.636820434499433e+000	 7.680470416009809e-001	 1.043693347472828e+001
 4.629394418638134e+000	 8.116078589036125e-001	 1.044559221708150e+001
 4.621535231558619e+000	 8.552263463391679e-001	 1.045388556963102e+001
 4.705886943180112e+000	 4.245622190814485e-001	 1.038995331521739e+001
 4.701796777072913e+000	 4.676880017114715e-001	 1.039222889642203e+001
 4.697296014540922e+000	 5.109159927020530e-001	 1.039440852391162e+001
 4.692381263686833e+000	 5.542409909175822e-001	 1.039660086741656e+001
 4.687049207573082e+000	 5.976576993582475e-001	 1.039892195187061e+001
 4.681296607037764e+000	 6.411607261529279e-001	 1.040415776287351e+001
 4.675120303508878e+000	 6.847445856401142e-001	 1.041354657575373e+001
 4.668517221814007e+000	 7.284036995377544e-001	 1.042235423756185e+001
 4.661484372982444e+000	 7.721323982028043e-001	 1.043069042424474e+001
 4.654018857036731e+000	 8.159249219811683e-001	 1.043866616333526e+001
 4.646117865770552e+000	 8.597754226486175e-001	 1.044639408960519e+001
 4.730785815896796e+000	 4.268085800250276e-001	 1.038698458010548e+001
 4.726674008699353e+000	 4.701625413987225e-001	 1.038892947689479e+001
 4.722149432609216e+000	 5.136192519181058e-001	 1.039083081161899e+001
 4.717208677782531e+000	 5.571734829283322e-001	 1.039280146775945e+001
 4.711848409731801e+000	 6.008199094031381e-001	 1.039496180054668e+001
 4.706065372156695e+000	 6.445531109429850e-001	 1.040021684906886e+001
 4.699856389773195e+000	 6.883675728617011e-001	 1.040862013343245e+001
 4.693218371138125e+000	 7.322576873625162e-001	 1.041656322087076e+001
 4.686148311466118e+000	 7.762177548042752e-001	 1.042415440598816e+001
 4.678643295435926e+000	 8.202419850585251e-001	 1.043150322708349e+001
 4.670700499982989e+000	 8.643244989580522e-001	 1.043872072690602e+001
 4.424874157881446e+000	 8.188337358630459e-001	 1.050554717214190e+001
 4.416932081439071e+000	 8.606456809043407e-001	 1.050761952548632e+001
 4.408570190332767e+000	 9.025014554232427e-001	 1.051169868803661e+001
 4.399786087981418e+000	 9.443952457313434e-001	 1.051794615260548e+001
 4.390577475596269e+000	 9.863211601505711e-001	 1.052652460107368e+001
 4.380942154715376e+000	 1.028273230823133e+000	 1.053759808123999e+001
 4.370878029706319e+000	 1.070245415609068e+000	 1.054580044934386e+001
 4.360383110233927e+000	 1.112231600071145e+000	 1.054789663793769e+001
 4.349455513689765e+000	 1.154225599546729e+000	 1.055183346666581e+001
 4.338093467580077e+000	 1.196221161306078e+000	 1.055773589224505e+001
 4.326295311868889e+000	 1.238211966796443e+000	 1.056572701216006e+001
 4.449456792089316e+000	 8.233828121726123e-001	 1.050002244038673e+001
 4.441470593000705e+000	 8.654270457968737e-001	 1.050128383364478e+001
 4.433062246944354e+000	 9.075153523960031e-001	 1.050436888278154e+001
 4.424229344024801e+000	 9.496418859833248e-001	 1.050944448349689e+001
 4.414969572682244e+000	 9.918007221492236e-001	 1.051667901568929e+001
 4.405280722241064e+000	 1.033985859881143e+000	 1.052624252601209e+001
 4.395160685426433e+000	 1.076191223471678e+000	 1.053830691587924e+001
 4.384607460845764e+000	 1.118410664514506e+000	 1.055304613429806e+001
 4.373619155431682e+000	 1.160637963987752e+000	 1.056870639314428e+001
 4.362193986843246e+000	 1.202866834424291e+000	 1.057303481606945e+001
 4.350330285822056e+000	 1.245090922168304e+000	 1.057935411197348e+001
 4.474039426297694e+000	 8.279318884821644e-001	 1.049420439990405e+001
 4.466009104562758e+000	 8.702084106895727e-001	 1.049487677574216e+001
 4.457554303556283e+000	 9.125292493690713e-001	 1.049719221129900e+001
 4.448672600068478e+000	 9.548885262357172e-001	 1.050132286788190e+001
 4.439361669768483e+000	 9.972802841483512e-001	 1.050744268321964e+001
 4.429619289767003e+000	 1.039698488939652e+000	 1.051572755986573e+001
 4.419443341146805e+000	 1.082137031334772e+000	 1.052635555886098e+001
 4.408831811457884e+000	 1.124589728958293e+000	 1.053950709801186e+001
 4.397782797173934e+000	 1.167050328429105e+000	 1.055536515409673e+001
 4.386294506106820e+000	 1.209512507542697e+000	 1.057411546826915e+001
 4.374365259775718e+000	 1.251969877540177e+000	 1.059395640998301e+001
 4.498622060506580e+000	 8.324809647917016e-001	 1.048810609963827e+001
 4.490547616125227e+000	 8.749897755824375e-001	 1.048840971149951e+001
 4.482046360168561e+000	 9.175431463424479e-001	 1.049017829225549e+001
 4.473115856112449e+000	 9.601351664885212e-001	 1.049358913146132e+001
 4.463753766854984e+000	 1.002759846147954e+000	 1.049882158443970e+001
 4.453957857293191e+000	 1.045411117998660e+000	 1.050605726667309e+001
 4.443725996867436e+000	 1.088082839198348e+000	 1.051548025327160e+001
 4.433056162070295e+000	 1.130768793402506e+000	 1.052727728285188e+001
 4.421946438916522e+000	 1.173462692870788e+000	 1.054163796511690e+001
 4.410395025370796e+000	 1.216158180661293e+000	 1.055875499138362e+001
 4.398400233729874e+000	 1.258848832912064e+000	 1.057435524314105e+001
 4.523204694715974e+000	 8.370300411012241e-001	 1.048174085352937e+001
 4.515086127688112e+000	 8.797711404754689e-001	 1.048189433005672e+001
 4.506538416781186e+000	 9.225570433161329e-001	 1.048333713917301e+001
 4.497559112156714e+000	 9.653818067417361e-001	 1.048625156122254e+001
 4.488145863941748e+000	 1.008239408148032e+000	 1.049082222881721e+001
 4.478296424819630e+000	 1.051123747058167e+000	 1.049723632736011e+001
 4.468008652588325e+000	 1.094028647062409e+000	 1.050568380046836e+001
 4.457280512682991e+000	 1.136947857847147e+000	 1.051635755960823e+001
 4.446110080659444e+000	 1.179875057312801e+000	 1.052945369721096e+001
 4.434495544635175e+000	 1.222803853780082e+000	 1.054517170249316e+001
 4.422435207684522e+000	 1.265727788283963e+000	 1.055635771905194e+001
 4.547787328925875e+000	 8.415791174107322e-001	 1.047512223335079e+001
 4.539624639251415e+000	 8.845525053686660e-001	 1.047534264106937e+001
 4.531030473394155e+000	 9.275709402901259e-001	 1.047667914975719e+001
 4.522002368201274e+000	 9.706284469953628e-001	 1.047931889297235e+001
 4.512537961028774e+000	 1.013718970148584e+000	 1.048345164022373e+001
 4.502634992346319e+000	 1.056836376118173e+000	 1.048927000376997e+001
 4.492291308309473e+000	 1.099974454926952e+000	 1.049696965014746e+001
 4.481504863295973e+000	 1.143126922292215e+000	 1.050674951571877e+001
 4.470273722402700e+000	 1.186287421755143e+000	 1.051881202548749e+001
 4.458596063899961e+000	 1.229449526899063e+000	 1.053336331438076e+001
 4.446470181639666e+000	 1.272606743655874e+000	 1.054085095136934e+001
 4.572369963136282e+000	 8.461281937202254e-001	 1.046826406177845e+001
 4.564163150815135e+000	 8.893338702620293e-001	 1.046876696609270e+001
 4.555522530007471e+000	 9.325848372644270e-001	 1.047021509556990e+001
 4.546445624246128e+000	 9.758750872494004e-001	 1.047280029927185e+001
 4.536930058116062e+000	 1.019198532149612e+000	 1.047671734310653e+001
 4.526973559873261e+000	 1.062549005178678e+000	 1.048216412304694e+001
 4.516573964030878e+000	 1.105920262791978e+000	 1.048934188291567e+001
 4.505729213909241e+000	 1.149305986737708e+000	 1.049845543600447e+001
 4.494437364146294e+000	 1.192699786197815e+000	 1.050971338975233e+001
 4.482696583165150e+000	 1.236095200018235e+000	 1.052332837266036e+001
 4.470505155595303e+000	 1.279485699027798e+000	 1.052780360586194e+001
 4.596952597347198e+000	 8.506772700297042e-001	 1.046118040568216e+001
 4.588701662379272e+000	 8.941152351555588e-001	 1.046217993024206e+001
 4.580014586621130e+000	 9.375987342390362e-001	 1.046395611203294e+001
 4.570888880291276e+000	 9.811217275038490e-001	 1.046670537775859e+001
 4.561322155203613e+000	 1.024678094151114e+000	 1.047062734910427e+001
 4.551312127400451e+000	 1.068261634239683e+000	 1.047592506252142e+001
 4.540856619752543e+000	 1.111866070657487e+000	 1.048280519342094e+001
 4.529953564522796e+000	 1.155485051183629e+000	 1.049147828402277e+001
 4.518601005890221e+000	 1.199112150640817e+000	 1.050215897406221e+001
 4.506797102430744e+000	 1.242740873137600e+000	 1.051506623350837e+001
 4.494540129551432e+000	 1.286364654399735e+000	 1.051718522594776e+001
 4.621535231558619e+000	 8.552263463391679e-001	 1.045388556963102e+001
 4.613240173943826e+000	 8.988966000492542e-001	 1.045559445411948e+001
 4.604506643235138e+000	 9.426126312139539e-001	 1.045791368875111e+001
 4.595332136336720e+000	 9.863683677587093e-001	 1.046104413984129e+001
 4.585714252291426e+000	 1.030157656153092e+000	 1.046519014408975e+001
 4.575650694927891e+000	 1.073974263301186e+000	 1.047055973507734e+001
 4.565139275474467e+000	 1.117811878523479e+000	 1.047736487402163e+001
 4.554177915136639e+000	 1.161664115629977e+000	 1.048582168401606e+001
 4.542764647634484e+000	 1.205524515084149e+000	 1.049615068693074e+001
 4.530897621696742e+000	 1.249386546257156e+000	 1.050857704210636e+001
 4.518575103508055e+000	 1.293243609771683e+000	 1.050896620935234e+001
 4.646117865770552e+000	 8.597754226486175e-001	 1.044639408960519e+001
 4.637778685508796e+000	 9.036779649431156e-001	 1.044902374599660e+001
 4.628998699849491e+000	 9.476265281891795e-001	 1.045209966014208e+001
 4.619775392382458e+000	 9.916150080139811e-001	 1.045582699975358e+001
 4.610106349379503e+000	 1.035637218155545e+000	 1.046041467562402e+001
 4.599989262455583e+000	 1.079686892363189e+000	 1.046607557498406e+001
 4.589421931196649e+000	 1.123757686389955e+000	 1.047302679897396e+001
 4.578402265750768e+000	 1.167843180076751e+000	 1.048148990343330e+001
 4.566928289379082e+000	 1.211936879527810e+000	 1.049169114216298e+001
 4.554998140963142e+000	 1.256032219376903e+000	 1.050215886469457e+001
 4.542610077465175e+000	 1.300122565143645e+000	 1.050311778550805e+001
 4.670700499982989e+000	 8.643244989580522e-001	 1.043872072690602e+001
 4.662317197074184e+000	 9.084593298371435e-001	 1.044248129424436e+001
 4.653490756464190e+000	 9.526404251647136e-001	 1.044652619636250e+001
 4.644218648428491e+000	 9.968616482696640e-001	 1.045106476395326e+001
 4.634498446467842e+000	 1.041116780158473e+000	 1.045631034080674e+001
 4.624327829983526e+000	 1.085399521425691e+000	 1.046248052417570e+001
 4.613704586919089e+000	 1.129703494256913e+000	 1.046979740911901e+001
 4.602626616365184e+000	 1.174022244523953e+000	 1.047848783600346e+001
 4.591091931124016e+000	 1.218349243971801e+000	 1.048878364029503e+001
 4.579098660229949e+000	 1.262677892496843e+000	 1.049770008626029e+001
 4.566645051422785e+000	 1.307001520515620e+000	 1.049961199366709e+001
 4.326295311868889e+000	 1.238211966796443e+000	 1.056572701216006e+001
 4.314059501273209e+000	 1.280191633970678e+000	 1.058118845479366e+001
 4.301384607506363e+000	 1.322153719700637e+000	 1.058864772663647e+001
 4.288269321466461e+000	 1.364091722274012e+000	 1.059556408046766e+001
 4.274712455367262e+000	 1.405999083972017e+000	 1.060212417112848e+001
 4.260712944807515e+000	 1.447869193727904e+000	 1.060853203721418e+001
 4.246269850775702e+000	 1.489695389864481e+000	 1.061500939289464e+001
 4.231382361586969e+000	 1.531470962909008e+000	 1.062179588750282e+001
 4.216049794749047e+000	 1.573189158483706e+000	 1.062914933120693e+001
 4.200271598754028e+000	 1.614843180269973e+000	 1.063734588513132e+001
 4.184047354792891e+000	 1.656426193044263e+000	 1.064668021434792e+001
 4.350330285822056e+000	 1.245090922168304e+000	 1.057935411197348e+001
 4.338026498500345e+000	 1.287303809716620e+000	 1.058843860430898e+001
 4.325281188656641e+000	 1.329499018145727e+000	 1.059389871838044e+001
 4.312093039916264e+000	 1.371670009622690e+000	 1.059876223169425e+001
 4.298460857894163e+000	 1.413810189996952e+000	 1.060321751038311e+001
 4.284383572275750e+000	 1.455912911473615e+000	 1.060747063918883e+001
 4.269860238832774e+000	 1.497971475366166e+000	 1.061174572060788e+001
 4.254890041371023e+000	 1.539979134927016e+000	 1.061628514124698e+001
 4.239472293606604e+000	 1.581929098254062e+000	 1.062134980367177e+001
 4.223606440967679e+000	 1.623814531271376e+000	 1.062721932208172e+001
 4.207292062318510e+000	 1.665628560781946e+000	 1.063419218020207e+001
 4.374365259775718e+000	 1.251969877540177e+000	 1.059395640998301e+001
 4.361993495728061e+000	 1.294415985462394e+000	 1.059829161053996e+001
 4.349177769807554e+000	 1.336844316590506e+000	 1.060179988424529e+001
 4.335916758366730e+000	 1.379248296970956e+000	 1.060465353079592e+001
 4.322209260421725e+000	 1.421621296021412e+000	 1.060704257052785e+001
 4.308054199744611e+000	 1.463956629218827e+000	 1.060917508262073e+001
 4.293450626890412e+000	 1.506247560867369e+000	 1.061127751174128e+001
 4.278397721155549e+000	 1.548487306944598e+000	 1.061359494133211e+001
 4.262894792464511e+000	 1.590669038024090e+000	 1.061639133179567e+001
 4.246941283181525e+000	 1.632785882272589e+000	 1.061994972187438e+001
 4.230536769844139e+000	 1.674830928519619e+000	 1.062457239158573e+001
 4.398400233729874e+000	 1.258848832912064e+000	 1.057435524314105e+001
 4.385960492956355e+000	 1.301528161207999e+000	 1.059463714979053e+001
 4.373074350959102e+000	 1.344189615034976e+000	 1.061234663863468e+001
 4.359740476817858e+000	 1.386826584318810e+000	 1.061323398062220e+001
 4.345957662949947e+000	 1.429432402045397e+000	 1.061359591592598e+001
 4.331724827214101e+000	 1.472000346963540e+000	 1.061364246599692e+001
 4.317041014948612e+000	 1.514523646368089e+000	 1.061360237108827e+001
 4.301905400940546e+000	 1.556995478961755e+000	 1.061372337064474e+001
 4.286317291322765e+000	 1.599408977793790e+000	 1.061427244798179e+001
 4.270276125395565e+000	 1.641757233273613e+000	 1.061553603752275e+001
 4.253781477369779e+000	 1.684033296257282e+000	 1.061782019292111e+001
 4.422435207684522e+000	 1.265727788283963e+000	 1.055635771905194e+001
 4.409927490185231e+000	 1.308640336953436e+000	 1.057442699808546e+001
 4.396970932111286e+000	 1.351534913479136e+000	 1.059291825743699e+001
 4.383564195269647e+000	 1.394404871666250e+000	 1.061173176396328e+001
 4.369706065478828e+000	 1.437243508068906e+000	 1.062287508181316e+001
 4.355395454684218e+000	 1.480044064707754e+000	 1.062087086278603e+001
 4.340631403007379e+000	 1.522799731868327e+000	 1.061871888232400e+001
 4.325413080726016e+000	 1.565503650978486e+000	 1.061666949464118e+001
 4.309739790181369e+000	 1.608148917563162e+000	 1.061499267067575e+001
 4.293610967609801e+000	 1.650728584274447e+000	 1.061397821133732e+001
 4.277026184895429e+000	 1.693235663994934e+000	 1.061393592096106e+001
 4.446470181639666e+000	 1.272606743655874e+000	 1.054085095136934e+001
 4.433894487414683e+000	 1.315752512698706e+000	 1.055673185432770e+001
 4.420867513264104e+000	 1.358880211922986e+000	 1.057317409153100e+001
 4.407387913722100e+000	 1.401983159013279e+000	 1.059007705192718e+001
 4.393454468008369e+000	 1.445054614091939e+000	 1.060733283168530e+001
 4.379066082154961e+000	 1.488087782451469e+000	 1.062482638225747e+001
 4.364221791066709e+000	 1.531075817368083e+000	 1.062662658154909e+001
 4.348920760511957e+000	 1.574011822994792e+000	 1.062243333479146e+001
 4.333162289040321e+000	 1.616888857332206e+000	 1.061855247771583e+001
 4.316945809824232e+000	 1.659699935275091e+000	 1.061527714818789e+001
 4.300270892421088e+000	 1.702438031732576e+000	 1.061292087796918e+001
 4.470505155595303e+000	 1.279485699027798e+000	 1.052780360586194e+001
 4.457861484644715e+000	 1.322864688443807e+000	 1.054152065665697e+001
 4.444764094417560e+000	 1.366225510366526e+000	 1.055593883774505e+001
 4.431211632175215e+000	 1.409561446359894e+000	 1.057095660689035e+001
 4.417202870538570e+000	 1.452865720114496e+000	 1.058646494459292e+001
 4.402736709626333e+000	 1.496131500194685e+000	 1.060234750337535e+001
 4.387812179126605e+000	 1.539351902867356e+000	 1.061848077650737e+001
 4.372428440298370e+000	 1.582519995010672e+000	 1.063101584288016e+001
 4.356584787899623e+000	 1.625628797100923e+000	 1.062495328054293e+001
 4.340280652038858e+000	 1.668671286275547e+000	 1.061943468962830e+001
 4.323515599946758e+000	 1.711640399470208e+000	 1.061477730576537e+001
 4.494540129551432e+000	 1.286364654399735e+000	 1.051718522594776e+001
 4.481828481875328e+000	 1.329976864188740e+000	 1.052876322538859e+001
 4.468660675571649e+000	 1.373570808809755e+000	 1.054118260888234e+001
 4.455035350628992e+000	 1.417139733706098e+000	 1.055434084947474e+001
 4.440951273069429e+000	 1.460676826136578e+000	 1.056812775668413e+001
 4.426407337098330e+000	 1.504175217937402e+000	 1.058242562706882e+001
 4.411402567187063e+000	 1.547627988366147e+000	 1.059710941460578e+001
 4.395936120085256e+000	 1.591028167026127e+000	 1.061204692085549e+001
 4.380007286759272e+000	 1.634368736869311e+000	 1.062709900483032e+001
 4.363615494253677e+000	 1.677642637275812e+000	 1.062645358885142e+001
 4.346760307472438e+000	 1.720842767207830e+000	 1.061950836060391e+001
 4.518575103508055e+000	 1.293243609771683e+000	 1.050896620935234e+001
 4.505795479106517e+000	 1.337089039933506e+000	 1.051843023955131e+001
 4.492557256726375e+000	 1.380916107252676e+000	 1.052887638069003e+001
 4.478859069083431e+000	 1.424718021051889e+000	 1.054020106729831e+001
 4.464699675600949e+000	 1.468487932158184e+000	 1.055229288232014e+001
 4.450077964570954e+000	 1.512218935679619e+000	 1.056503270901797e+001
 4.434992955248088e+000	 1.555904073864455e+000	 1.057829390306599e+001
 4.419443799872613e+000	 1.599536339041156e+000	 1.059194248480945e+001
 4.403429785619270e+000	 1.643108676637371e+000	 1.060583735160842e+001
 4.386950336468694e+000	 1.686613988275887e+000	 1.061983051012375e+001
 4.370005014998127e+000	 1.730045134945440e+000	 1.062711808885343e+001
 4.542610077465175e+000	 1.300122565143645e+000	 1.050311778550805e+001
 4.529762476338289e+000	 1.344201215678103e+000	 1.051049321417005e+001
 4.516453837881738e+000	 1.388261405695286e+000	 1.051899196903010e+001
 4.502682787538535e+000	 1.432296308397268e+000	 1.052850939203868e+001
 4.488448078133128e+000	 1.476299038179315e+000	 1.053893278368990e+001
 4.473748592044207e+000	 1.520262653421338e+000	 1.055014155631897e+001
 4.458583343309677e+000	 1.564180159362281e+000	 1.056200740797090e+001
 4.442951479660441e+000	 1.608044511055760e+000	 1.057439451681963e+001
 4.426852284479617e+000	 1.651848616405103e+000	 1.058715975605671e+001
 4.410285178683902e+000	 1.695585339275773e+000	 1.060015292910758e+001
 4.393249722523829e+000	 1.739247502683042e+000	 1.061321702497090e+001
 4.566645051422785e+000	 1.307001520515620e+000	 1.049961199366709e+001
 4.553729473570638e+000	 1.351313391422532e+000	 1.050492447826603e+001
 4.540350419037734e+000	 1.395606704137587e+000	 1.051150200777098e+001
 4.526506505994300e+000	 1.439874595742233e+000	 1.051923877722095e+001
 4.512196480665969e+000	 1.484110144199970e+000	 1.052802074849876e+001
 4.497419219518086e+000	 1.528306371162558e+000	 1.053772580507837e+001
 4.482173731371831e+000	 1.572456244859625e+000	 1.054822392773009e+001
 4.466459159448741e+000	 1.616552683069939e+000	 1.055937739116490e+001
 4.450274783340313e+000	 1.660588556172508e+000	 1.057104098153812e+001
 4.433620020899308e+000	 1.704556690275469e+000	 1.058306223467025e+001
 4.416494430049541e+000	 1.748449870420633e+000	 1.059528169477944e+001
 4.184047354792891e+000	 1.656426193044263e+000	 1.064668021434792e+001
 4.167376778389714e+000	 1.697931325783844e+000	 1.065172681784539e+001
 4.150259720952576e+000	 1.739351674839182e+000	 1.065958831645262e+001
 4.132696171238480e+000	 1.780680307170585e+000	 1.067089626279941e+001
 4.114686256729197e+000	 1.821910263647759e+000	 1.068630313174637e+001
 4.096230244915354e+000	 1.863034562408459e+000	 1.070648200203976e+001
 4.077328544486139e+000	 1.904046202273650e+000	 1.071421924978009e+001
 4.057981706422046e+000	 1.944938166216198e+000	 1.071890834668723e+001
 4.038190424988224e+000	 1.985703424879969e+000	 1.072788915856645e+001
 4.017955538626072e+000	 2.026334940146126e+000	 1.074140627996423e+001
 3.997278030740859e+000	 2.066825668743275e+000	 1.075970399314340e+001
 4.207292062318510e+000	 1.665628560781946e+000	 1.063419218020207e+001
 4.190528871602665e+000	 1.707364277590921e+000	 1.064160837026631e+001
 4.173316719402627e+000	 1.749014739695385e+000	 1.065172243509861e+001
 4.155655594412936e+000	 1.790572975538764e+000	 1.066513843670527e+001
 4.137545624823596e+000	 1.832031987328928e+000	 1.068248146199058e+001
 4.118987079611292e+000	 1.873384754415510e+000	 1.070439733561227e+001
 4.099980369735707e+000	 1.914624236724039e+000	 1.070858801263774e+001
 4.080526049238336e+000	 1.955743378243896e+000	 1.071578924285320e+001
 4.060624816241361e+000	 1.996735110566970e+000	 1.072711276776176e+001
 4.040277513844186e+000	 2.037592356473766e+000	 1.074276830309890e+001
 4.019485130915437e+000	 2.078308033563603e+000	 1.076296509697395e+001
 4.230536769844139e+000	 1.674830928519619e+000	 1.062457239158573e+001
 4.213680964815437e+000	 1.716797229398172e+000	 1.063376501114592e+001
 4.196373717852327e+000	 1.758677804551920e+000	 1.064553362916328e+001
 4.178615017586889e+000	 1.800465643907400e+000	 1.066045508486933e+001
 4.160404992917361e+000	 1.842153711010651e+000	 1.067912735415738e+001
 4.141743914306484e+000	 1.883734946423183e+000	 1.069759001808022e+001
 4.122632194984438e+000	 1.925202271175087e+000	 1.070293808391480e+001
 4.103070392053720e+000	 1.966548590272260e+000	 1.071206378622590e+001
 4.083059207493538e+000	 2.007766796254614e+000	 1.072514282794957e+001
 4.062599489061308e+000	 2.048849772801994e+000	 1.074235027610876e+001
 4.041692231089015e+000	 2.089790398384435e+000	 1.076386057635657e+001
 4.253781477369779e+000	 1.684033296257282e+000	 1.061782019292111e+001
 4.236833058028028e+000	 1.726230181205598e+000	 1.062820627962733e+001
 4.219430716301676e+000	 1.768340869408785e+000	 1.064104160619927e+001
 4.201574440760344e+000	 1.810358312276495e+000	 1.065687605231443e+001
 4.183264361010494e+000	 1.852275434692931e+000	 1.067628075517006e+001
 4.164500749000932e+000	 1.894085138431479e+000	 1.069047338167298e+001
 4.145284020232332e+000	 1.935780305626794e+000	 1.069730274528252e+001
 4.125614734868195e+000	 1.977353802301289e+000	 1.070777547163017e+001
 4.105493598744756e+000	 2.018798481942899e+000	 1.072203302933117e+001
 4.084921464277438e+000	 2.060107189130810e+000	 1.074021606175562e+001
 4.063899331261593e+000	 2.101272763205771e+000	 1.076246443873559e+001
 4.277026184895429e+000	 1.693235663994934e+000	 1.061393592096106e+001
 4.259985151240440e+000	 1.735663133013200e+000	 1.062494249623804e+001
 4.242487714750675e+000	 1.778003934265982e+000	 1.063826664389768e+001
 4.224533863933292e+000	 1.820250980646047e+000	 1.065443154275015e+001
 4.206123729102991e+000	 1.862397158375764e+000	 1.067398175907617e+001
 4.187257583694635e+000	 1.904435330440397e+000	 1.068397199858400e+001
 4.167935845479390e+000	 1.946358340079160e+000	 1.069171500246392e+001
 4.148159077681762e+000	 1.988159014330985e+000	 1.070296730662693e+001
 4.127927989995017e+000	 2.029830167631828e+000	 1.071783636380587e+001
 4.107243439492581e+000	 2.071364605460215e+000	 1.073642861383819e+001
 4.086106431433171e+000	 2.112755128027612e+000	 1.075884957240702e+001
 4.300270892421088e+000	 1.702438031732576e+000	 1.061292087796918e+001
 4.283137244452671e+000	 1.745096084820976e+000	 1.062398474177143e+001
 4.265544713199322e+000	 1.787666999123511e+000	 1.063722957467888e+001
 4.247493287105740e+000	 1.830143649016057e+000	 1.065315210887850e+001
 4.228983097194856e+000	 1.872518882059152e+000	 1.067227060307117e+001
 4.210014418387591e+000	 1.914785522449936e+000	 1.067810879740007e+001
 4.190587670725612e+000	 1.956936374532185e+000	 1.068620759269179e+001
 4.170703420494421e+000	 1.998964226361346e+000	 1.069768182468237e+001
 4.150362381244316e+000	 2.040861853321399e+000	 1.071260514384417e+001
 4.129565414706734e+000	 2.082622021790209e+000	 1.073105000175856e+001
 4.108313531603750e+000	 2.124237492849956e+000	 1.075308777676575e+001
 4.323515599946758e+000	 1.711640399470208e+000	 1.061477730576537e+001
 4.306289337664721e+000	 1.754529036628928e+000	 1.062534483684955e+001
 4.288601711647619e+000	 1.797330063981370e+000	 1.063795177078045e+001
 4.270452710277685e+000	 1.840036317386525e+000	 1.065306864301250e+001
 4.251842465286088e+000	 1.882640605743095e+000	 1.066820046084040e+001
 4.232771253079803e+000	 1.925135714460097e+000	 1.067290664568274e+001
 4.213239495970997e+000	 1.967514408985869e+000	 1.068081299192621e+001
 4.193247763306173e+000	 2.009769438392374e+000	 1.069196109791252e+001
 4.172796772492658e+000	 2.051893539011612e+000	 1.070639102075186e+001
 4.151887389919897e+000	 2.093879438120791e+000	 1.072414143429634e+001
 4.130520631773328e+000	 2.135719857672803e+000	 1.074524979157711e+001
 4.346760307472438e+000	 1.720842767207830e+000	 1.061950836060391e+001
 4.329441430876592e+000	 1.763961988437055e+000	 1.062903532214157e+001
 4.311658710095564e+000	 1.806993128839561e+000	 1.064045512982357e+001
 4.293412133449130e+000	 1.849928985757451e+000	 1.065421236799560e+001
 4.274701833376684e+000	 1.892762329427593e+000	 1.066431311073787e+001
 4.255528087771272e+000	 1.935485906470881e+000	 1.066838835160002e+001
 4.235891321215544e+000	 1.978092443440212e+000	 1.067556342184047e+001
 4.215792106117018e+000	 2.020574650424067e+000	 1.068584674941879e+001
 4.195231163740042e+000	 2.062925224702469e+000	 1.069924500234829e+001
 4.174209365132069e+000	 2.105136854451962e+000	 1.071576328261994e+001
 4.152727731941906e+000	 2.147202222496155e+000	 1.073540532530920e+001
 4.370005014998127e+000	 1.730045134945440e+000	 1.062711808885343e+001
 4.352593524088284e+000	 1.773394940245357e+000	 1.063506943921362e+001
 4.334715708543159e+000	 1.816656193698083e+000	 1.064476206084007e+001
 4.316371556620072e+000	 1.859821654128835e+000	 1.065661482841103e+001
 4.297561201466650e+000	 1.902884053112646e+000	 1.066166193638570e+001
 4.278284922461995e+000	 1.945836098482287e+000	 1.066457666550597e+001
 4.258543146459256e+000	 1.988670477895215e+000	 1.067049085658397e+001
 4.238336448926953e+000	 2.031379862456427e+000	 1.067937996522976e+001
 4.217665554986465e+000	 2.073956910393967e+000	 1.069121747008035e+001
 4.196531340343253e+000	 2.116394270783720e+000	 1.070597510256347e+001
 4.174934832109484e+000	 2.158684587320011e+000	 1.072362308256104e+001
 4.393249722523829e+000	 1.739247502683042e+000	 1.061321702497090e+001
 4.375745617299795e+000	 1.782827892053834e+000	 1.064250841301971e+001
 4.357772706990403e+000	 1.826319258556935e+000	 1.065089547074300e+001
 4.339330979790511e+000	 1.869714322500677e+000	 1.066030788207011e+001
 4.320420569555981e+000	 1.913005776798254e+000	 1.066026058542055e+001
 4.301041757151972e+000	 1.956186290494314e+000	 1.066149428147024e+001
 4.281194971702131e+000	 1.999248512350876e+000	 1.066562702933051e+001
 4.260880791735981e+000	 2.042185074489453e+000	 1.067260150586412e+001
 4.240099946231929e+000	 2.084988596086108e+000	 1.068235819559318e+001
 4.218853315553446e+000	 2.127651687116068e+000	 1.069483565619643e+001
 4.197141932276062e+000	 2.170166952144371e+000	 1.070997079061989e+001
 4.416494430049541e+000	 1.748449870420633e+000	 1.059528169477944e+001
 4.398897710511125e+000	 1.792260843862486e+000	 1.062355295436900e+001
 4.380829705437297e+000	 1.835982323416121e+000	 1.065179331062120e+001
 4.362290402960451e+000	 1.879606990872977e+000	 1.066396762757348e+001
 4.343279937644680e+000	 1.923127500484417e+000	 1.066012283057635e+001
 4.323798591841205e+000	 1.966536482506963e+000	 1.065916383875913e+001
 4.303846796944172e+000	 2.009826546807197e+000	 1.066100343861972e+001
 4.283425134544102e+000	 2.052990286523145e+000	 1.066555171752814e+001
 4.262534337476436e+000	 2.096020281778892e+000	 1.067271635677756e+001
 4.241175290762651e+000	 2.138909103449004e+000	 1.068240293271228e+001
 4.219349032441642e+000	 2.181649316969236e+000	 1.069451522518004e+001
 3.997278030740859e+000	 2.066825668743275e+000	 1.075970399314340e+001
 3.976159030383603e+000	 2.107168565897559e+000	 1.075783002201509e+001
 3.954599812824289e+000	 2.147356589020302e+000	 1.075750096785403e+001
 3.932601800014995e+000	 2.187382701429100e+000	 1.075862869435199e+001
 3.910166560942136e+000	 2.227239876097467e+000	 1.076112520748114e+001
 3.887295811865205e+000	 2.266921099430403e+000	 1.076490294935704e+001
 3.863991416440920e+000	 2.306419375061632e+000	 1.076987509323789e+001
 3.840255385731489e+000	 2.345727727668478e+000	 1.077595583883213e+001
 3.816089878095935e+000	 2.384839206800335e+000	 1.078306070707420e+001
 3.791497198963488e+000	 2.423746890716576e+000	 1.079110683351953e+001
 3.766479800488311e+000	 2.462443890229713e+000	 1.080001325950306e+001
 4.019485130915437e+000	 2.078308033563603e+000	 1.076296509697395e+001
 3.998248802778659e+000	 2.118875057924907e+000	 1.075772450008638e+001
 3.976569811788677e+000	 2.159286347843419e+000	 1.075414509088019e+001
 3.954449587797304e+000	 2.199534827544055e+000	 1.075217107788836e+001
 3.931889708507547e+000	 2.239613430961295e+000	 1.075174697531921e+001
 3.908891899713674e+000	 2.279515105535722e+000	 1.075281786769813e+001
 3.885458035426050e+000	 2.319232816032355e+000	 1.075532967513627e+001
 3.861590137879450e+000	 2.358759548376729e+000	 1.075922941843576e+001
 3.837290377423783e+000	 2.398088313504623e+000	 1.076446548323070e+001
 3.812561072296218e+000	 2.437212151221294e+000	 1.077098788235493e+001
 3.787404688273996e+000	 2.476124134065992e+000	 1.077874851562310e+001
 4.041692231089015e+000	 2.089790398384435e+000	 1.076386057635657e+001
 4.020338575172714e+000	 2.130581549952659e+000	 1.075585609035683e+001
 3.998539810752065e+000	 2.171216106666840e+000	 1.074962773090165e+001
 3.976297375578612e+000	 2.211686953659215e+000	 1.074515172213300e+001
 3.953612856071957e+000	 2.251986985825227e+000	 1.074240475646496e+001
 3.930487987561142e+000	 2.292109111641043e+000	 1.074136423033247e+001
 3.906924654410178e+000	 2.332046257002981e+000	 1.074200848006132e+001
 3.882924890026412e+000	 2.371791369084783e+000	 1.074431701710589e+001
 3.858490876750631e+000	 2.411337420208613e+000	 1.074827076189244e+001
 3.833624945627947e+000	 2.450677411725616e+000	 1.075385227549896e+001
 3.808329576058680e+000	 2.489804377901773e+000	 1.076104598839912e+001
 4.063899331261593e+000	 2.101272763205771e+000	 1.076246443873559e+001
 4.042428347565767e+000	 2.142288041980814e+000	 1.075228945050128e+001
 4.020509809714452e+000	 2.183145865490565e+000	 1.074400420246046e+001
 3.998145163358921e+000	 2.223839079774579e+000	 1.073761660928508e+001
 3.975336003635368e+000	 2.264360540689263e+000	 1.073313521574202e+001
 3.952084075407610e+000	 2.304703117746367e+000	 1.073056940387385e+001
 3.928391273393306e+000	 2.344859697973511e+000	 1.072992959979858e+001
 3.904259642172373e+000	 2.384823189792640e+000	 1.073122747941146e+001
 3.879691376076479e+000	 2.424586526912307e+000	 1.073447617226451e+001
 3.854688818958677e+000	 2.464142672229539e+000	 1.073969046289414e+001
 3.829254463842364e+000	 2.503484621737058e+000	 1.074431927262134e+001
 4.086106431433171e+000	 2.112755128027612e+000	 1.075884957240702e+001
 4.064518119957823e+000	 2.153994534009374e+000	 1.074708833251296e+001
 4.042479808675838e+000	 2.195075624314593e+000	 1.073732912758820e+001
 4.019992951138230e+000	 2.235991205890145e+000	 1.072961124180837e+001
 3.997059151197778e+000	 2.276734095553401e+000	 1.072397475051634e+001
 3.973680163253078e+000	 2.317297123851696e+000	 1.072046069915702e+001
 3.949857892375436e+000	 2.357673138943944e+000	 1.071911128133224e+001
 3.925594394317334e+000	 2.397855010500301e+000	 1.071997001529487e+001
 3.900891875401327e+000	 2.437835633615703e+000	 1.072308191819525e+001
 3.875752692288405e+000	 2.477607932733065e+000	 1.072849367738880e+001
 3.850179351625048e+000	 2.517164865571844e+000	 1.072435572163025e+001
 4.108313531603750e+000	 2.124237492849956e+000	 1.075308777676575e+001
 4.086607892348878e+000	 2.165701026038337e+000	 1.074031560718127e+001
 4.064449807636225e+000	 2.207005383138925e+000	 1.072965645452261e+001
 4.041840738916539e+000	 2.248143332005916e+000	 1.072118065539717e+001
 4.018782298759190e+000	 2.289107650417644e+000	 1.071495949792475e+001
 3.995276251097546e+000	 2.329891129957026e+000	 1.071106537274516e+001
 3.971324511356565e+000	 2.370486579914279e+000	 1.070957192265058e+001
 3.946929146461295e+000	 2.410886831207763e+000	 1.071055419019711e+001
 3.922092374725175e+000	 2.451084740318802e+000	 1.071408876264539e+001
 3.896816565617135e+000	 2.491073193236195e+000	 1.072025391357749e+001
 3.871104239406733e+000	 2.530845109406134e+000	 1.070904826500659e+001
 4.130520631773328e+000	 2.135719857672803e+000	 1.074524979157711e+001
 4.108697664738933e+000	 2.177407518067704e+000	 1.073203328778012e+001
 4.086419806595614e+000	 2.218935141963562e+000	 1.072103947582024e+001
 4.063688526693849e+000	 2.260295458121890e+000	 1.071236943152385e+001
 4.040505446319600e+000	 2.301481205281990e+000	 1.070612534187040e+001
 4.016872338941014e+000	 2.342485136062361e+000	 1.070241062838887e+001
 3.992791130336694e+000	 2.383300020884518e+000	 1.070133006868679e+001
 3.968263898604257e+000	 2.423918651915029e+000	 1.070298991550125e+001
 3.943292874048022e+000	 2.464333847021603e+000	 1.070749801265807e+001
 3.917880438944865e+000	 2.504538453738926e+000	 1.071236681457453e+001
 3.892029127187417e+000	 2.544525353239926e+000	 1.069831618359756e+001
 4.152727731941906e+000	 2.147202222496155e+000	 1.073540532530920e+001
 4.130787437127987e+000	 2.189114010097476e+000	 1.072230255299609e+001
 4.108389805554000e+000	 2.230864900788501e+000	 1.071153084588806e+001
 4.085536314470158e+000	 2.272447584238068e+000	 1.070322170958379e+001
 4.062228593879011e+000	 2.313854760146438e+000	 1.069750791979368e+001
 4.038468426783481e+000	 2.355079142167698e+000	 1.069452361843822e+001
 4.014257749315822e+000	 2.396113461854660e+000	 1.069440440738988e+001
 3.989598650746218e+000	 2.436950472622099e+000	 1.069728743928273e+001
 3.964493373369870e+000	 2.477582953724108e+000	 1.070331150481127e+001
 3.938944312271593e+000	 2.518003714241261e+000	 1.070299107599737e+001
 3.912954014967101e+000	 2.558205597073220e+000	 1.069207967059169e+001
 4.174934832109484e+000	 2.158684587320011e+000	 1.072362308256104e+001
 4.152877209516043e+000	 2.200820502127651e+000	 1.071118376912503e+001
 4.130359804511387e+000	 2.242794659613744e+000	 1.070118259795556e+001
 4.107384102245466e+000	 2.284599710354449e+000	 1.069378119865276e+001
 4.083951741437423e+000	 2.326228315010992e+000	 1.068914262922712e+001
 4.060064514624950e+000	 2.367673148273040e+000	 1.068743144520982e+001
 4.035724368293952e+000	 2.408926902824705e+000	 1.068881376592115e+001
 4.010933402887178e+000	 2.449982293328970e+000	 1.069345733735471e+001
 3.985693872690719e+000	 2.490832060426315e+000	 1.070153159113438e+001
 3.960008185597324e+000	 2.531468974743198e+000	 1.069751423188940e+001
 3.933878902745785e+000	 2.571885840906018e+000	 1.069025980725430e+001
 4.197141932276062e+000	 2.170166952144371e+000	 1.070997079061989e+001
 4.174966981903096e+000	 2.212526994158230e+000	 1.069873651156370e+001
 4.152329803467773e+000	 2.254724418439292e+000	 1.069004616050793e+001
 4.129231890019774e+000	 2.296751836471034e+000	 1.068409118887108e+001
 4.105674888994832e+000	 2.338601869875647e+000	 1.068106463414213e+001
 4.081660602465419e+000	 2.380267154378384e+000	 1.068116116231042e+001
 4.057190987271081e+000	 2.421740343794653e+000	 1.068457710697122e+001
 4.032268155027139e+000	 2.463014114035645e+000	 1.069151050459779e+001
 4.006894372010566e+000	 2.504081167128225e+000	 1.070039608605648e+001
 3.981072058922053e+000	 2.544934235244737e+000	 1.069586653647591e+001
 3.954803790523469e+000	 2.585566084738318e+000	 1.069277853943352e+001
 4.219349032441642e+000	 2.181649316969236e+000	 1.069451522518004e+001
 4.197056754289153e+000	 2.224233486189214e+000	 1.068501958562304e+001
 4.174299802423162e+000	 2.266654177265144e+000	 1.067817237320048e+001
 4.151079677793083e+000	 2.308903962587823e+000	 1.067419456246817e+001
 4.127398036551244e+000	 2.350975424740408e+000	 1.067330887109532e+001
 4.103256690304887e+000	 2.392861160483732e+000	 1.067573977591879e+001
 4.078657606247210e+000	 2.434553784764504e+000	 1.068171352519359e+001
 4.053602907166101e+000	 2.476045934742123e+000	 1.069145814656356e+001
 4.028094871329415e+000	 2.517330273829839e+000	 1.069825170089264e+001
 4.002135932245784e+000	 2.558399495745880e+000	 1.069797890967386e+001
 3.975728678300154e+000	 2.599246328570120e+000	 1.069955865480804e+001
 3.766479800488311e+000	 2.462443890229713e+000	 1.080001325950306e+001
 3.741040281084275e+000	 2.500923352550201e+000	 1.083775413358640e+001
 3.715181384841300e+000	 2.539178465126699e+000	 1.083152265044370e+001
 3.688906000821719e+000	 2.577202459478736e+000	 1.082549586540330e+001
 3.662217162235255e+000	 2.614988615018722e+000	 1.081990654175457e+001
 3.635118045494690e+000	 2.652530262857026e+000	 1.081499880551600e+001
 3.607611969151798e+000	 2.689820789586394e+000	 1.081102790719731e+001
 3.579702392714054e+000	 2.726853641041348e+000	 1.080825995373744e+001
 3.551392915342705e+000	 2.763622326028175e+000	 1.080697161086793e+001
 3.522687274433059e+000	 2.800120420021205e+000	 1.080744977624302e+001
 3.493589344077969e+000	 2.836341568821007e+000	 1.080999122376951e+001
 3.787404688273996e+000	 2.476124134065992e+000	 1.077874851562310e+001
 3.761823838206611e+000	 2.514817371178015e+000	 1.081041407175676e+001
 3.735821281428924e+000	 2.553285012158413e+000	 1.081242787728035e+001
 3.709399923053605e+000	 2.591520250924044e+000	 1.080671212617579e+001
 3.682562813141554e+000	 2.629516329550723e+000	 1.080124029435030e+001
 3.655313145752280e+000	 2.667266542099426e+000	 1.079624907278065e+001
 3.627654257873963e+000	 2.704764238421754e+000	 1.079198660747454e+001
 3.599589628233558e+000	 2.742002827940190e+000	 1.078871223986387e+001
 3.571122875987657e+000	 2.778975783398840e+000	 1.078669621699659e+001
 3.542257759294872e+000	 2.815676644580224e+000	 1.078621937185187e+001
 3.512998173770796e+000	 2.852099021983801e+000	 1.078757277419657e+001
 3.808329576058680e+000	 2.489804377901773e+000	 1.076104598839912e+001
 3.782607395327954e+000	 2.528711389805241e+000	 1.078196461791520e+001
 3.756461178015566e+000	 2.567391559189468e+000	 1.079398949545360e+001
 3.729893845284539e+000	 2.605838042368645e+000	 1.079251924738447e+001
 3.702908464046931e+000	 2.644044044081984e+000	 1.078696172314941e+001
 3.675508246008995e+000	 2.682002821341078e+000	 1.078168234771984e+001
 3.647696546595306e+000	 2.719707687256372e+000	 1.077692228740819e+001
 3.619476863752306e+000	 2.757152014838323e+000	 1.077293424645951e+001
 3.590852836631927e+000	 2.794329240768847e+000	 1.076998218495662e+001
 3.561828244156089e+000	 2.831232869138651e+000	 1.076834100619758e+001
 3.532407003463121e+000	 2.867856475146093e+000	 1.076829621394855e+001
 3.829254463842364e+000	 2.503484621737058e+000	 1.074431927262134e+001
 3.803390952448300e+000	 2.542605408431881e+000	 1.075814484294821e+001
 3.777101074601228e+000	 2.581498106219867e+000	 1.077102569857179e+001
 3.750387767514517e+000	 2.620155833812537e+000	 1.078268012541242e+001
 3.723254114951389e+000	 2.658571758612506e+000	 1.077707783457214e+001
 3.695703346264835e+000	 2.696739100581980e+000	 1.077130862139229e+001
 3.667738835315829e+000	 2.734651136090251e+000	 1.076584787538117e+001
 3.639364099270299e+000	 2.772301201735746e+000	 1.076094179058329e+001
 3.610582797275516e+000	 2.809682698138192e+000	 1.075684817053938e+001
 3.581398729016709e+000	 2.846789093696489e+000	 1.075383612260452e+001
 3.551815833154945e+000	 2.883613928307883e+000	 1.075218572146847e+001
 3.850179351625048e+000	 2.517164865571844e+000	 1.072435572163025e+001
 3.824174509567652e+000	 2.556499427057932e+000	 1.073887519880674e+001
 3.797740971185911e+000	 2.595604653249608e+000	 1.075242744956375e+001
 3.770881689743538e+000	 2.634473625255720e+000	 1.076471565280711e+001
 3.743599765854925e+000	 2.673099473142290e+000	 1.077159636192732e+001
 3.715898446519798e+000	 2.711475379822133e+000	 1.076513854700295e+001
 3.687781124035530e+000	 2.749594584923389e+000	 1.075877689766467e+001
 3.659251334787534e+000	 2.787450388632457e+000	 1.075275122344081e+001
 3.630312757918424e+000	 2.825036155506876e+000	 1.074731330048924e+001
 3.600969213876734e+000	 2.862345318253735e+000	 1.074272657273585e+001
 3.571224662846269e+000	 2.899371381469173e+000	 1.073926582153443e+001
 3.871104239406733e+000	 2.530845109406134e+000	 1.070904826500659e+001
 3.844958066686008e+000	 2.570393445683397e+000	 1.072407703617795e+001
 3.818380867769611e+000	 2.609711200278689e+000	 1.073811911794684e+001
 3.791375611971606e+000	 2.648791416698197e+000	 1.075086262150328e+001
 3.763945416757542e+000	 2.687627187671335e+000	 1.076198742825010e+001
 3.736093546773887e+000	 2.726211659061535e+000	 1.076318342200711e+001
 3.707823412754411e+000	 2.764538033755788e+000	 1.075572346225903e+001
 3.679138570304015e+000	 2.802599575528459e+000	 1.074837941594795e+001
 3.650042718560651e+000	 2.840389612874898e+000	 1.074139715977516e+001
 3.620539698736161e+000	 2.877901542810390e+000	 1.073503460555735e+001
 3.590633492537089e+000	 2.915128834629961e+000	 1.072956137589917e+001
 3.892029127187417e+000	 2.544525353239926e+000	 1.069831618359756e+001
 3.865741623803371e+000	 2.584287464308273e+000	 1.071367258032556e+001
 3.839020764352334e+000	 2.623817747307115e+000	 1.072802588532241e+001
 3.811869534198717e+000	 2.663109208139963e+000	 1.074104917968435e+001
 3.784291067659237e+000	 2.702154902199640e+000	 1.075240710582757e+001
 3.756288647027098e+000	 2.740947938300189e+000	 1.076175635328824e+001
 3.727865701472470e+000	 2.779481482587446e+000	 1.075670224325580e+001
 3.699025805819738e+000	 2.817748762423748e+000	 1.074784374476011e+001
 3.669772679202196e+000	 2.855743070242260e+000	 1.073911977927279e+001
 3.640110183594993e+000	 2.893457767366452e+000	 1.073078285665720e+001
 3.610042322227410e+000	 2.930886287790248e+000	 1.072309757423166e+001
 3.912954014967101e+000	 2.558205597073220e+000	 1.069207967059169e+001
 3.886525180919736e+000	 2.598181482932562e+000	 1.070758490770549e+001
 3.859660660934076e+000	 2.637924294334882e+000	 1.072207372366237e+001
 3.832363456424874e+000	 2.677426999581023e+000	 1.073520420543997e+001
 3.804636718560013e+000	 2.716682616727206e+000	 1.074662578808898e+001
 3.776483747279435e+000	 2.755684217538093e+000	 1.075597975827749e+001
 3.747907990189709e+000	 2.794424931418365e+000	 1.076172846570168e+001
 3.718913041334707e+000	 2.832897949318328e+000	 1.075116207874983e+001
 3.689502639843060e+000	 2.871096527608962e+000	 1.074050162384184e+001
 3.659680668453228e+000	 2.909013991921924e+000	 1.072999433790852e+001
 3.629451151917229e+000	 2.946643740950033e+000	 1.071989992534920e+001
 3.933878902745785e+000	 2.571885840906018e+000	 1.069025980725430e+001
 3.907308738035108e+000	 2.612075501556264e+000	 1.070573792332772e+001
 3.880300557514837e+000	 2.652030841361991e+000	 1.072018937428872e+001
 3.852857378650074e+000	 2.691744791021373e+000	 1.073325728735373e+001
 3.824982369459867e+000	 2.731210331254034e+000	 1.074457592018355e+001
 3.796678847530896e+000	 2.770420496775247e+000	 1.075377118215815e+001
 3.767950278906125e+000	 2.809368380248543e+000	 1.076046118640583e+001
 3.738800276848919e+000	 2.848047136212198e+000	 1.075835276591586e+001
 3.709232600483243e+000	 2.886449984975001e+000	 1.074556358078396e+001
 3.679251153310866e+000	 2.924570216476806e+000	 1.073269242746177e+001
 3.648859981606546e+000	 2.962401194109317e+000	 1.071999424872956e+001
 3.954803790523469e+000	 2.585566084738318e+000	 1.069277853943352e+001
 3.928092295149484e+000	 2.625969520179377e+000	 1.070805633883694e+001
 3.900940454094618e+000	 2.666137388388442e+000	 1.072230032752029e+001
 3.873351300874320e+000	 2.706062582461015e+000	 1.073513870570691e+001
 3.845328020358802e+000	 2.745738045780124e+000	 1.074619058202597e+001
 3.816873947781481e+000	 2.785156776011651e+000	 1.075506651250558e+001
 3.787992567621723e+000	 2.824311829077982e+000	 1.076136907097854e+001
 3.758687512362374e+000	 2.863196323105357e+000	 1.076469344996403e+001
 3.728962561122744e+000	 2.901803442340380e+000	 1.075432694866704e+001
 3.698821638167910e+000	 2.940126441031095e+000	 1.073890086005490e+001
 3.668268811295363e+000	 2.978158647268101e+000	 1.072340666629235e+001
 3.975728678300154e+000	 2.599246328570120e+000	 1.069955865480804e+001
 3.948875852262866e+000	 2.639863538801905e+000	 1.071446565128524e+001
 3.921580350673420e+000	 2.680243935414237e+000	 1.072833480296239e+001
 3.893845223097611e+000	 2.720380373899949e+000	 1.074077941427599e+001
 3.865673671256816e+000	 2.760265760305475e+000	 1.075140347159212e+001
 3.837069048031190e+000	 2.799893055247307e+000	 1.075980219990690e+001
 3.808034856336499e+000	 2.839255277906680e+000	 1.076556265162694e+001
 3.778574747875074e+000	 2.878345509997806e+000	 1.076826432646323e+001
 3.748692521761566e+000	 2.917156899705098e+000	 1.076681342650234e+001
 3.718392123024357e+000	 2.955682665584794e+000	 1.074864371762943e+001
 3.687677640983678e+000	 2.993916100426382e+000	 1.073016359444002e+001
 3.493589344077969e+000	 2.836341568821007e+000	 1.080999122376951e+001
 3.464103133416387e+000	 2.872279492169516e+000	 1.077997903333085e+001
 3.434232784866212e+000	 2.907927987320115e+000	 1.075340781759411e+001
 3.403982572244511e+000	 2.943280932556834e+000	 1.073072512729037e+001
 3.373356898778110e+000	 2.978332290657103e+000	 1.071238633653268e+001
 3.342360295004344e+000	 3.013076112296310e+000	 1.069885402291315e+001
 3.310997416564726e+000	 3.047506539389349e+000	 1.069059732351285e+001
 3.279273041893773e+000	 3.081617808365265e+000	 1.068809126808703e+001
 3.247192069805366e+000	 3.115404253371150e+000	 1.069181609076611e+001
 3.214759516979199e+000	 3.148860309401589e+000	 1.068555900619004e+001
 3.181980515350000e+000	 3.181980515350000e+000	 1.067172542379898e+001
 3.512998173770796e+000	 2.852099021983801e+000	 1.078757277419657e+001
 3.483348150827399e+000	 2.888236600461318e+000	 1.075834505472329e+001
 3.453311855896036e+000	 2.924083142806598e+000	 1.073254789082892e+001
 3.422893586537202e+000	 2.959632493294133e+000	 1.071063181002302e+001
 3.392097770440096e+000	 2.994878581161231e+000	 1.069305533258530e+001
 3.360928963311704e+000	 3.029815424031474e+000	 1.068028434605799e+001
 3.329391846658214e+000	 3.064437131274841e+000	 1.067279145520842e+001
 3.297491225461001e+000	 3.098737907300539e+000	 1.067105530873770e+001
 3.265232025749580e+000	 3.132712054778697e+000	 1.067172291615290e+001
 3.232619292074088e+000	 3.166353977787205e+000	 1.066081607629698e+001
 3.199658184880000e+000	 3.199658184880000e+000	 1.064777944495714e+001
 3.532407003463121e+000	 2.867856475146093e+000	 1.076829621394855e+001
 3.502593168238003e+000	 2.904193708752715e+000	 1.073976405974556e+001
 3.472390926925538e+000	 2.940238298292760e+000	 1.071464904246399e+001
 3.441804600829647e+000	 2.975984054031186e+000	 1.069340475225975e+001
 3.410838642101900e+000	 3.011424871665177e+000	 1.067649294549922e+001
 3.379497631618938e+000	 3.046554735766512e+000	 1.066438291353934e+001
 3.347786276751621e+000	 3.081367723160253e+000	 1.065755082652792e+001
 3.315709409028185e+000	 3.115858006235766e+000	 1.065647905351313e+001
 3.283271981693775e+000	 3.150019856186225e+000	 1.065083220677080e+001
 3.250479067168972e+000	 3.183847646172816e+000	 1.064067433949162e+001
 3.217335854410000e+000	 3.217335854410000e+000	 1.062841443586289e+001
 3.551815833154945e+000	 2.883613928307883e+000	 1.075218572146847e+001
 3.521838185648202e+000	 2.920150817043707e+000	 1.072426090953786e+001
 3.491469997954719e+000	 2.956393453778600e+000	 1.069973680192030e+001
 3.460715615121846e+000	 2.992335614767994e+000	 1.067907013719730e+001
 3.429579513763525e+000	 3.027971162168943e+000	 1.066272599767343e+001
 3.398066299926047e+000	 3.063294047501425e+000	 1.065117717233671e+001
 3.366180706844948e+000	 3.098298315045585e+000	 1.064490349438143e+001
 3.333927592595323e+000	 3.132978105170950e+000	 1.064232662521155e+001
 3.301311937637951e+000	 3.167327657593731e+000	 1.063446318228960e+001
 3.268338842263851e+000	 3.201341314558423e+000	 1.062503328068113e+001
 3.235013523940000e+000	 3.235013523940000e+000	 1.061353192441800e+001
 3.571224662846269e+000	 2.899371381469173e+000	 1.073926582153443e+001
 3.541083203057994e+000	 2.936107925334290e+000	 1.071186079366603e+001
 3.510549068983578e+000	 2.972548609264119e+000	 1.068783700893072e+001
 3.479626629413799e+000	 3.008687175504555e+000	 1.066765444003465e+001
 3.448320385424968e+000	 3.044517452672528e+000	 1.065178158501234e+001
 3.416634968233030e+000	 3.080033359236213e+000	 1.064069482425971e+001
 3.384575136938195e+000	 3.115228906930835e+000	 1.063487775166398e+001
 3.352145776162415e+000	 3.150098204106087e+000	 1.062971884260461e+001
 3.319351893582104e+000	 3.184635459001217e+000	 1.062251353911163e+001
 3.286198617358724e+000	 3.218834982944023e+000	 1.061379256329445e+001
 3.252691193470001e+000	 3.252691193470001e+000	 1.060303359761284e+001
 3.590633492537089e+000	 2.915128834629961e+000	 1.072956137589917e+001
 3.560328220467381e+000	 2.952065033624467e+000	 1.070258922124508e+001
 3.529628140012117e+000	 2.988703764749317e+000	 1.067897580515312e+001
 3.498537643705506e+000	 3.025038736240870e+000	 1.065918442008115e+001
 3.467061257086232e+000	 3.061063743175933e+000	 1.064368706953382e+001
 3.435203636539888e+000	 3.096772670970875e+000	 1.063296381906068e+001
 3.402969567031362e+000	 3.132159498816006e+000	 1.062708424011742e+001
 3.370363959729464e+000	 3.167218303041180e+000	 1.062144855442768e+001
 3.337391849526239e+000	 3.201943260408684e+000	 1.061488116611435e+001
 3.304058392453593e+000	 3.236328651329619e+000	 1.060685202445734e+001
 3.270368862999999e+000	 3.270368862999999e+000	 1.059682129722666e+001
 3.610042322227410e+000	 2.930886287790248e+000	 1.072309757423166e+001
 3.579573237876362e+000	 2.968022141914240e+000	 1.069647201234927e+001
 3.548707211040334e+000	 3.004858920234193e+000	 1.067317962605423e+001
 3.517448657996967e+000	 3.041390296976938e+000	 1.065368711311908e+001
 3.485802128747313e+000	 3.077610033679156e+000	 1.063847007221550e+001
 3.453772304846619e+000	 3.113511982705412e+000	 1.062801234776962e+001
 3.421363997124448e+000	 3.149090090701097e+000	 1.062250251802997e+001
 3.388582143296465e+000	 3.184338401976227e+000	 1.061741196517929e+001
 3.355431805470352e+000	 3.219251061816131e+000	 1.061146413947628e+001
 3.321918167548457e+000	 3.253822319715210e+000	 1.060411167032309e+001
 3.288046532530000e+000	 3.288046532530000e+000	 1.059479701566668e+001
 3.629451151917229e+000	 2.946643740950033e+000	 1.071989992534920e+001
 3.598818255284934e+000	 2.983979250203605e+000	 1.069353528969763e+001
 3.567786282068231e+000	 3.021014075718749e+000	 1.067047519305366e+001
 3.536359672288182e+000	 3.057741857712763e+000	 1.065118982401134e+001
 3.504543000408214e+000	 3.094156324182198e+000	 1.063615846607080e+001
 3.472340973153226e+000	 3.130251294439822e+000	 1.062640969064304e+001
 3.439758427217453e+000	 3.166020682586108e+000	 1.062207083743196e+001
 3.406800326863423e+000	 3.201458500911230e+000	 1.061750547930467e+001
 3.373471761414447e+000	 3.236558863223558e+000	 1.061216071766902e+001
 3.339777942643316e+000	 3.271315988100797e+000	 1.060547167155315e+001
 3.305724202060000e+000	 3.305724202060000e+000	 1.059686289194050e+001
 3.648859981606546e+000	 2.962401194109317e+000	 1.071999424872956e+001
 3.618063272693102e+000	 2.999936358492565e+000	 1.069380547060490e+001
 3.586865353095805e+000	 3.037169231202984e+000	 1.067088950591888e+001
 3.555270686579151e+000	 3.074093418448340e+000	 1.065172011954510e+001
 3.523283872068934e+000	 3.110702614685061e+000	 1.063678036944579e+001
 3.490909641459706e+000	 3.146990606174107e+000	 1.062961447697362e+001
 3.458152857310378e+000	 3.182951274471037e+000	 1.062568402052751e+001
 3.425018510430335e+000	 3.218578599846186e+000	 1.062162569587798e+001
 3.391511717358520e+000	 3.253866664630963e+000	 1.061686933660897e+001
 3.357637717738170e+000	 3.288809656486378e+000	 1.061083235894181e+001
 3.323401871590000e+000	 3.323401871590000e+000	 1.060292120775722e+001
 3.668268811295363e+000	 2.978158647268101e+000	 1.072340666629235e+001
 3.637308290100862e+000	 3.015893466781117e+000	 1.069730925918806e+001
 3.605944424123059e+000	 3.053324386686897e+000	 1.067444983540145e+001
 3.574181700869874e+000	 3.090444979183671e+000	 1.065530582150249e+001
 3.542024743729475e+000	 3.127248905187742e+000	 1.064086935797126e+001
 3.509478309766061e+000	 3.163729917908267e+000	 1.063677930288512e+001
 3.476547287403223e+000	 3.199881866355886e+000	 1.063323709559787e+001
 3.443236693997201e+000	 3.235698698781098e+000	 1.062966940345344e+001
 3.409551673302575e+000	 3.271174466038350e+000	 1.062548860496304e+001
 3.375497492833019e+000	 3.306303324871954e+000	 1.062009421917996e+001
 3.341079541120000e+000	 3.341079541120000e+000	 1.061287438375227e+001
 3.687677640983678e+000	 2.993916100426382e+000	 1.073016359444002e+001
 3.656553307508218e+000	 3.031850575069264e+000	 1.070407363881879e+001
 3.625023495149993e+000	 3.069479542170490e+000	 1.068118371610585e+001
 3.593092715160351e+000	 3.106796539918756e+000	 1.066197499995031e+001
 3.560765615389833e+000	 3.143795195690242e+000	 1.065164134098080e+001
 3.528046978072291e+000	 3.180469229642301e+000	 1.064779771476700e+001
 3.494941717495987e+000	 3.216812458240656e+000	 1.064462529157833e+001
 3.461454877564024e+000	 3.252818797715965e+000	 1.064153357507898e+001
 3.427591629246608e+000	 3.288482267445716e+000	 1.063791729960262e+001
 3.393357267927863e+000	 3.323796993257525e+000	 1.063315789075250e+001
 3.358757210650000e+000	 3.358757210650000e+000	 1.062662497583143e+001
 3.181980515350000e+000	 3.181980515350000e+000	 1.067172542379898e+001
 3.148860309401589e+000	 3.214759516979199e+000	 1.066719870830277e+001
 3.115404253371151e+000	 3.247192069805366e+000	 1.066252992279770e+001
 3.081617808365265e+000	 3.279273041893773e+000	 1.065991244728745e+001
 3.047506539389349e+000	 3.310997416564727e+000	 1.065321484289843e+001
 3.013076112296310e+000	 3.342360295004343e+000	 1.064261859097861e+001
 2.978332290657103e+000	 3.373356898778110e+000	 1.062831020410406e+001
 2.943280932556834e+000	 3.403982572244511e+000	 1.061048110606144e+001
 2.907927987320115e+000	 3.434232784866213e+000	 1.058932750903741e+001
 2.872279492169515e+000	 3.464103133416387e+000	 1.056505028805993e+001
 2.836341568821007e+000	 3.493589344077969e+000	 1.053785485273349e+001
 3.199658184880000e+000	 3.199658184880000e+000	 1.064777944495714e+001
 3.166353977787205e+000	 3.232619292074087e+000	 1.064362101838538e+001
 3.132712054778697e+000	 3.265232025749580e+000	 1.063696696600483e+001
 3.098737907300538e+000	 3.297491225461001e+000	 1.063283156252072e+001
 3.064437131274841e+000	 3.329391846658215e+000	 1.062621444566590e+001
 3.029815424031474e+000	 3.360928963311704e+000	 1.061554034812788e+001
 2.994878581161231e+000	 3.392097770440096e+000	 1.060099857993881e+001
 2.959632493294133e+000	 3.422893586537202e+000	 1.058278342613109e+001
 2.924083142806598e+000	 3.453311855896037e+000	 1.056109402238262e+001
 2.888236600461318e+000	 3.483348150827398e+000	 1.053613422791960e+001
 2.852099021983801e+000	 3.512998173770796e+000	 1.050811249571832e+001
 3.217335854410000e+000	 3.217335854410000e+000	 1.062841443586289e+001
 3.183847646172816e+000	 3.250479067168972e+000	 1.062469218311570e+001
 3.150019856186225e+000	 3.283271981693775e+000	 1.061841782638292e+001
 3.115858006235766e+000	 3.315709409028184e+000	 1.061088416915358e+001
 3.081367723160253e+000	 3.347786276751621e+000	 1.060434993698574e+001
 3.046554735766512e+000	 3.379497631618938e+000	 1.059360002670340e+001
 3.011424871665177e+000	 3.410838642101901e+000	 1.057882652324306e+001
 2.975984054031187e+000	 3.441804600829646e+000	 1.056022654977934e+001
 2.940238298292759e+000	 3.472390926925538e+000	 1.053800214186975e+001
 2.904193708752715e+000	 3.502593168238004e+000	 1.051236011886427e+001
 2.867856475146093e+000	 3.532407003463121e+000	 1.048351195262071e+001
 3.235013523940000e+000	 3.235013523940000e+000	 1.061353192441800e+001
 3.201341314558423e+000	 3.268338842263850e+000	 1.061031442580194e+001
 3.167327657593731e+000	 3.301311937637950e+000	 1.060449132835996e+001
 3.132978105170949e+000	 3.333927592595323e+000	 1.059552436606556e+001
 3.098298315045584e+000	 3.366180706844948e+000	 1.058759131093931e+001
 3.063294047501425e+000	 3.398066299926047e+000	 1.057676725567504e+001
 3.027971162168943e+000	 3.429579513763525e+000	 1.056176330536878e+001
 2.992335614767994e+000	 3.460715615121845e+000	 1.054277939827432e+001
 2.956393453778600e+000	 3.491469997954719e+000	 1.052002044624827e+001
 2.920150817043706e+000	 3.521838185648203e+000	 1.049369620471194e+001
 2.883613928307883e+000	 3.551815833154945e+000	 1.046402113992690e+001
 3.252691193470001e+000	 3.252691193470001e+000	 1.060303359761284e+001
 3.218834982944023e+000	 3.286198617358724e+000	 1.060039013976557e+001
 3.184635459001219e+000	 3.319351893582104e+000	 1.059509061486822e+001
 3.150098204106087e+000	 3.352145776162416e+000	 1.058658336660575e+001
 3.115228906930835e+000	 3.384575136938195e+000	 1.057590876488890e+001
 3.080033359236213e+000	 3.416634968233030e+000	 1.056501187852953e+001
 3.044517452672528e+000	 3.448320385424968e+000	 1.054977842348503e+001
 3.008687175504555e+000	 3.479626629413798e+000	 1.053041113006021e+001
 2.972548609264119e+000	 3.510549068983579e+000	 1.050711776285593e+001
 2.936107925334290e+000	 3.541083203057994e+000	 1.048011098932860e+001
 2.899371381469173e+000	 3.571224662846268e+000	 1.044960824567318e+001
 3.270368862999999e+000	 3.270368862999999e+000	 1.059682129722666e+001
 3.236328651329619e+000	 3.304058392453593e+000	 1.059482188374634e+001
 3.201943260408684e+000	 3.337391849526239e+000	 1.059011900497112e+001
 3.167218303041179e+000	 3.370363959729463e+000	 1.058214736409621e+001
 3.132159498816006e+000	 3.402969567031361e+000	 1.057033717095452e+001
 3.096772670970875e+000	 3.435203636539887e+000	 1.055830394747275e+001
 3.061063743175933e+000	 3.467061257086232e+000	 1.054284159447473e+001
 3.025038736240870e+000	 3.498537643705505e+000	 1.052309113434705e+001
 2.988703764749316e+000	 3.529628140012117e+000	 1.049926316090004e+001
 2.952065033624467e+000	 3.560328220467380e+000	 1.047157322960004e+001
 2.915128834629961e+000	 3.590633492537090e+000	 1.044024172210672e+001
 3.288046532530000e+000	 3.288046532530000e+000	 1.059479701566668e+001
 3.253822319715210e+000	 3.321918167548457e+000	 1.059351237745549e+001
 3.219251061816132e+000	 3.355431805470353e+000	 1.058947998912861e+001
 3.184338401976227e+000	 3.388582143296467e+000	 1.058212066164358e+001
 3.149090090701098e+000	 3.421363997124448e+000	 1.057085049410845e+001
 3.113511982705411e+000	 3.453772304846619e+000	 1.055661371781894e+001
 3.077610033679155e+000	 3.485802128747312e+000	 1.054092274902848e+001
 3.041390296976939e+000	 3.517448657996968e+000	 1.052078902490732e+001
 3.004858920234194e+000	 3.548707211040334e+000	 1.049642594495566e+001
 2.968022141914239e+000	 3.579573237876362e+000	 1.046805192863017e+001
 2.930886287790248e+000	 3.610042322227410e+000	 1.043589027858314e+001
 3.305724202060000e+000	 3.305724202060000e+000	 1.059686289194050e+001
 3.271315988100795e+000	 3.339777942643316e+000	 1.059636449727183e+001
 3.236558863223558e+000	 3.373471761414446e+000	 1.059307722461431e+001
 3.201458500911229e+000	 3.406800326863423e+000	 1.058640773938862e+001
 3.166020682586108e+000	 3.439758427217453e+000	 1.057575777123383e+001
 3.130251294439821e+000	 3.472340973153225e+000	 1.056052569693409e+001
 3.094156324182199e+000	 3.504543000408214e+000	 1.054399202592759e+001
 3.057741857712761e+000	 3.536359672288181e+000	 1.052347463407165e+001
 3.021014075718749e+000	 3.567786282068231e+000	 1.049857564867235e+001
 2.983979250203605e+000	 3.598818255284934e+000	 1.046951632915771e+001
 2.946643740950033e+000	 3.629451151917229e+000	 1.043652287469191e+001
 3.323401871590000e+000	 3.323401871590000e+000	 1.060292120775722e+001
 3.288809656486377e+000	 3.357637717738170e+000	 1.060328127207492e+001
 3.253866664630964e+000	 3.391511717358519e+000	 1.060081453107898e+001
 3.218578599846186e+000	 3.425018510430335e+000	 1.059491324979785e+001
 3.182951274471037e+000	 3.458152857310378e+000	 1.058496452805508e+001
 3.146990606174107e+000	 3.490909641459706e+000	 1.057035191438868e+001
 3.110702614685061e+000	 3.523283872068934e+000	 1.055201976650997e+001
 3.074093418448340e+000	 3.555270686579151e+000	 1.053111800691604e+001
 3.037169231202984e+000	 3.586865353095806e+000	 1.050568202868169e+001
 2.999936358492564e+000	 3.618063272693102e+000	 1.047593590718283e+001
 2.962401194109317e+000	 3.648859981606546e+000	 1.044210871360125e+001
 3.341079541120000e+000	 3.341079541120000e+000	 1.061287438375227e+001
 3.306303324871953e+000	 3.375497492833018e+000	 1.061416587921076e+001
 3.271174466038349e+000	 3.409551673302574e+000	 1.061259588625486e+001
 3.235698698781097e+000	 3.443236693997201e+000	 1.060754201310463e+001
 3.199881866355886e+000	 3.476547287403222e+000	 1.059837646781449e+001
 3.163729917908266e+000	 3.509478309766061e+000	 1.058446770362646e+001
 3.127248905187742e+000	 3.542024743729475e+000	 1.056518208839546e+001
 3.090444979183671e+000	 3.574181700869873e+000	 1.054368939563375e+001
 3.053324386686897e+000	 3.605944424123060e+000	 1.051771505869836e+001
 3.015893466781116e+000	 3.637308290100862e+000	 1.048728036579634e+001
 2.978158647268101e+000	 3.668268811295363e+000	 1.045261723561416e+001
 3.358757210650000e+000	 3.358757210650000e+000	 1.062662497583143e+001
 3.323796993257525e+000	 3.393357267927863e+000	 1.062892164058470e+001
 3.288482267445717e+000	 3.427591629246607e+000	 1.062832542179562e+001
 3.252818797715964e+000	 3.461454877564024e+000	 1.062419901289426e+001
 3.216812458240656e+000	 3.494941717495988e+000	 1.061589946660078e+001
 3.180469229642301e+000	 3.528046978072291e+000	 1.060277987215595e+001
 3.143795195690242e+000	 3.560765615389833e+000	 1.058419105724034e+001
 3.106796539918756e+000	 3.593092715160352e+000	 1.056115925408478e+001
 3.069479542170489e+000	 3.625023495149993e+000	 1.053464492380742e+001
 3.031850575069263e+000	 3.656553307508218e+000	 1.050351962920347e+001
 2.993916100426382e+000	 3.687677640983678e+000	 1.046801811192814e+001
 2.836341568821007e+000	 3.493589344077969e+000	 1.053785485273349e+001
 2.800120420021204e+000	 3.522687274433059e+000	 1.052056074176899e+001
 2.763622326028175e+000	 3.551392915342705e+000	 1.049833861829801e+001
 2.726853641041347e+000	 3.579702392714053e+000	 1.047137657087772e+001
 2.689820789586394e+000	 3.607611969151798e+000	 1.043986906158757e+001
 2.652530262857026e+000	 3.635118045494689e+000	 1.040401680337865e+001
 2.614988615018723e+000	 3.662217162235256e+000	 1.036402663168112e+001
 2.577202459478736e+000	 3.688906000821718e+000	 1.032011137029957e+001
 2.539178465126699e+000	 3.715181384841301e+000	 1.027248969163351e+001
 2.500923352550201e+000	 3.741040281084275e+000	 1.022138597126964e+001
 2.462443890229713e+000	 3.766479800488312e+000	 1.024496053123460e+001
 2.852099021983801e+000	 3.512998173770796e+000	 1.050811249571832e+001
 2.815676644580223e+000	 3.542257759294872e+000	 1.048881194703355e+001
 2.778975783398841e+000	 3.571122875987657e+000	 1.046394274171897e+001
 2.742002827940190e+000	 3.599589628233558e+000	 1.043367672153314e+001
 2.704764238421754e+000	 3.627654257873963e+000	 1.039819273223696e+001
 2.667266542099426e+000	 3.655313145752280e+000	 1.035767651715028e+001
 2.629516329550723e+000	 3.682562813141554e+000	 1.031232060408159e+001
 2.591520250924044e+000	 3.709399923053606e+000	 1.026232418563653e+001
 2.553285012158413e+000	 3.735821281428924e+000	 1.020789299291990e+001
 2.514817371178015e+000	 3.761823838206612e+000	 1.019445208925193e+001
 2.476124134065992e+000	 3.787404688273996e+000	 1.023937896897726e+001
 2.867856475146093e+000	 3.532407003463121e+000	 1.048351195262071e+001
 2.831232869138651e+000	 3.561828244156089e+000	 1.046184752830311e+001
 2.794329240768847e+000	 3.590852836631926e+000	 1.043397893956533e+001
 2.757152014838323e+000	 3.619476863752307e+000	 1.040006191375235e+001
 2.719707687256372e+000	 3.647696546595306e+000	 1.036025980827723e+001
 2.682002821341078e+000	 3.675508246008995e+000	 1.031474352031686e+001
 2.644044044081984e+000	 3.702908464046931e+000	 1.026369138900234e+001
 2.605838042368645e+000	 3.729893845284539e+000	 1.020728909008530e+001
 2.567391559189468e+000	 3.756461178015566e+000	 1.017010616388870e+001
 2.528711389805241e+000	 3.782607395327954e+000	 1.020342846183150e+001
 2.489804377901773e+000	 3.808329576058680e+000	 1.023545260936245e+001
 2.883613928307883e+000	 3.551815833154945e+000	 1.046402113992690e+001
 2.846789093696489e+000	 3.581398729016709e+000	 1.043964093141396e+001
 2.809682698138191e+000	 3.610582797275515e+000	 1.040842610169638e+001
 2.772301201735745e+000	 3.639364099270299e+000	 1.037051639348959e+001
 2.734651136090251e+000	 3.667738835315829e+000	 1.032605980128905e+001
 2.696739100581980e+000	 3.695703346264835e+000	 1.027521249713905e+001
 2.658571758612506e+000	 3.723254114951389e+000	 1.021813874802431e+001
 2.620155833812537e+000	 3.750387767514517e+000	 1.015644842942832e+001
 2.581498106219867e+000	 3.777101074601228e+000	 1.018776692053423e+001
 2.542605408431881e+000	 3.803390952448300e+000	 1.021389736576346e+001
 2.503484621737058e+000	 3.829254463842364e+000	 1.023433868967316e+001
 2.899371381469173e+000	 3.571224662846268e+000	 1.044960824567318e+001
 2.862345318253735e+000	 3.600969213876733e+000	 1.042216575813708e+001
 2.825036155506875e+000	 3.630312757918423e+000	 1.038726316034177e+001
 2.787450388632457e+000	 3.659251334787535e+000	 1.034502433760689e+001
 2.749594584923389e+000	 3.687781124035531e+000	 1.029558204444913e+001
 2.711475379822133e+000	 3.715898446519798e+000	 1.023907784636029e+001
 2.673099473142290e+000	 3.743599765854926e+000	 1.017566205234245e+001
 2.634473625255721e+000	 3.770881689743539e+000	 1.018245616713454e+001
 2.595604653249607e+000	 3.797740971185911e+000	 1.020709667193312e+001
 2.556499427057932e+000	 3.824174509567651e+000	 1.022582365707463e+001
 2.517164865571844e+000	 3.850179351625048e+000	 1.023810855348395e+001
 2.915128834629961e+000	 3.590633492537090e+000	 1.044024172210672e+001
 2.877901542810389e+000	 3.620539698736160e+000	 1.040939576196376e+001
 2.840389612874899e+000	 3.650042718560650e+000	 1.037046908895642e+001
 2.802599575528457e+000	 3.679138570304013e+000	 1.032356985574146e+001
 2.764538033755787e+000	 3.707823412754410e+000	 1.026881569735197e+001
 2.726211659061535e+000	 3.736093546773887e+000	 1.020633368892342e+001
 2.687627187671335e+000	 3.763945416757542e+000	 1.018649065893186e+001
 2.648791416698197e+000	 3.791375611971605e+000	 1.021030284233701e+001
 2.609711200278690e+000	 3.818380867769612e+000	 1.022805359692334e+001
 2.570393445683396e+000	 3.844958066686008e+000	 1.023917151938104e+001
 2.530845109406134e+000	 3.871104239406732e+000	 1.024310039543962e+001
 2.930886287790248e+000	 3.610042322227410e+000	 1.043589027858314e+001
 2.893457767366452e+000	 3.640110183594993e+000	 1.040130484402700e+001
 2.855743070242261e+000	 3.669772679202195e+000	 1.035802290111232e+001
 2.817748762423749e+000	 3.699025805819739e+000	 1.030613699211270e+001
 2.779481482587447e+000	 3.727865701472469e+000	 1.024574975067602e+001
 2.740947938300188e+000	 3.756288647027098e+000	 1.019900576953813e+001
 2.702154902199640e+000	 3.784291067659237e+000	 1.022253875226501e+001
 2.663109208139963e+000	 3.811869534198717e+000	 1.023994007374238e+001
 2.623817747307115e+000	 3.839020764352334e+000	 1.025059531267747e+001
 2.584287464308273e+000	 3.865741623803370e+000	 1.025390448196342e+001
 2.544525353239926e+000	 3.892029127187417e+000	 1.024928356676485e+001
 2.946643740950033e+000	 3.629451151917229e+000	 1.043652287469191e+001
 2.909013991921924e+000	 3.659680668453228e+000	 1.039786704915392e+001
 2.871096527608962e+000	 3.689502639843060e+000	 1.034990364942584e+001
 2.832897949318328e+000	 3.718913041334707e+000	 1.029270972727151e+001
 2.794424931418365e+000	 3.747907990189709e+000	 1.022637303070016e+001
 2.755684217538092e+000	 3.776483747279435e+000	 1.024296942523457e+001
 2.716682616727207e+000	 3.804636718560013e+000	 1.026053457190292e+001
 2.677426999581023e+000	 3.832363456424874e+000	 1.027131902578844e+001
 2.637924294334881e+000	 3.859660660934076e+000	 1.027467888972053e+001
 2.598181482932562e+000	 3.886525180919735e+000	 1.026998543726291e+001
 2.558205597073221e+000	 3.912954014967101e+000	 1.025662669387550e+001
 2.962401194109317e+000	 3.648859981606546e+000	 1.044210871360125e+001
 2.924570216476806e+000	 3.679251153310866e+000	 1.039905656204412e+001
 2.886449984975001e+000	 3.709232600483242e+000	 1.034609042451935e+001
 2.848047136212198e+000	 3.738800276848918e+000	 1.028327197979347e+001
 2.809368380248543e+000	 3.767950278906126e+000	 1.027090526654479e+001
 2.770420496775246e+000	 3.796678847530895e+000	 1.028903196981832e+001
 2.731210331254034e+000	 3.824982369459867e+000	 1.030042294568938e+001
 2.691744791021373e+000	 3.852857378650074e+000	 1.030439042072577e+001
 2.652030841361991e+000	 3.880300557514837e+000	 1.030026086646841e+001
 2.612075501556264e+000	 3.907308738035108e+000	 1.028737665781815e+001
 2.571885840906018e+000	 3.933878902745785e+000	 1.026509769765560e+001
 2.978158647268101e+000	 3.668268811295363e+000	 1.045261723561416e+001
 2.940126441031095e+000	 3.698821638167910e+000	 1.040484770356929e+001
 2.901803442340381e+000	 3.728962561122744e+000	 1.034656235401571e+001
 2.863196323105356e+000	 3.758687512362373e+000	 1.030580502955935e+001
 2.824311829077981e+000	 3.787992567621723e+000	 1.032477375530605e+001
 2.785156776011651e+000	 3.816873947781481e+000	 1.033713201301657e+001
 2.745738045780124e+000	 3.845328020358802e+000	 1.034214836055824e+001
 2.706062582461016e+000	 3.873351300874320e+000	 1.033910455031573e+001
 2.666137388388442e+000	 3.900940454094619e+000	 1.032729726330490e+001
 2.625969520179377e+000	 3.928092295149483e+000	 1.030603981266489e+001
 2.585566084738318e+000	 3.954803790523470e+000	 1.027466381212208e+001
 2.993916100426382e+000	 3.687677640983678e+000	 1.046801811192814e+001
 2.955682665584793e+000	 3.718392123024356e+000	 1.041521492718982e+001
 2.917156899705098e+000	 3.748692521761566e+000	 1.035129860156469e+001
 2.878345509997805e+000	 3.778574747875074e+000	 1.036725097001923e+001
 2.839255277906680e+000	 3.808034856336499e+000	 1.038081901863674e+001
 2.799893055247307e+000	 3.837069048031190e+000	 1.038720792178600e+001
 2.760265760305475e+000	 3.865673671256816e+000	 1.038565497150473e+001
 2.720380373899950e+000	 3.893845223097610e+000	 1.037541128715923e+001
 2.680243935414236e+000	 3.921580350673420e+000	 1.035574359621408e+001
 2.639863538801905e+000	 3.948875852262866e+000	 1.032593598321762e+001
 2.599246328570120e+000	 3.975728678300154e+000	 1.028529160250036e+001
 2.462443890229713e+000	 3.766479800488312e+000	 1.024496053123460e+001
 2.423746890716576e+000	 3.791497198963489e+000	 1.025633129886319e+001
 2.384839206800335e+000	 3.816089878095935e+000	 1.025982881568904e+001
 2.345727727668478e+000	 3.840255385731489e+000	 1.025501693742249e+001
 2.306419375061632e+000	 3.863991416440919e+000	 1.024147794670487e+001
 2.266921099430403e+000	 3.887295811865205e+000	 1.021881376120918e+001
 2.227239876097467e+000	 3.910166560942135e+000	 1.018664709784514e+001
 2.187382701429100e+000	 3.932601800014995e+000	 1.014462259010941e+001
 2.147356589020302e+000	 3.954599812824290e+000	 1.009240785578421e+001
 2.107168565897559e+000	 3.976159030383603e+000	 1.002969451235942e+001
 2.066825668743274e+000	 3.997278030740858e+000	 9.956199137731415e+000
 2.476124134065992e+000	 3.787404688273996e+000	 1.023937896897726e+001
 2.437212151221294e+000	 3.812561072296217e+000	 1.024213852081901e+001
 2.398088313504623e+000	 3.837290377423782e+000	 1.023836615277092e+001
 2.358759548376729e+000	 3.861590137879451e+000	 1.022764807518338e+001
 2.319232816032355e+000	 3.885458035426049e+000	 1.020958743064747e+001
 2.279515105535722e+000	 3.908891899713674e+000	 1.018380550839015e+001
 2.239613430961295e+000	 3.931889708507546e+000	 1.014994291659261e+001
 2.199534827544056e+000	 3.954449587797303e+000	 1.010766070961434e+001
 2.159286347843419e+000	 3.976569811788677e+000	 1.005664146726603e+001
 2.118875057924907e+000	 3.998248802778659e+000	 9.996590323443272e+000
 2.078308033563603e+000	 4.019485130915437e+000	 9.927235941609986e+000
 2.489804377901773e+000	 3.808329576058680e+000	 1.023545260936245e+001
 2.450677411725615e+000	 3.833624945627947e+000	 1.023038398999174e+001
 2.411337420208613e+000	 3.858490876750630e+000	 1.022010655589959e+001
 2.371791369084783e+000	 3.882924890026412e+000	 1.020422834120798e+001
 2.332046257002981e+000	 3.906924654410177e+000	 1.018237283207142e+001
 2.292109111641043e+000	 3.930487987561142e+000	 1.015418018793742e+001
 2.251986985825227e+000	 3.953612856071957e+000	 1.011930842252527e+001
 2.211686953659216e+000	 3.976297375578613e+000	 1.007743454144603e+001
 2.171216106666839e+000	 3.998539810752065e+000	 1.002825563354601e+001
 2.130581549952659e+000	 4.020338575172714e+000	 9.971489913222179e+000
 2.089790398384435e+000	 4.041692231089016e+000	 9.906877711132674e+000
 2.503484621737058e+000	 3.829254463842364e+000	 1.023433868967316e+001
 2.464142672229539e+000	 3.854688818958676e+000	 1.022101464683612e+001
 2.424586526912307e+000	 3.879691376076478e+000	 1.020498717235958e+001
 2.384823189792641e+000	 3.904259642172373e+000	 1.018468540018719e+001
 2.344859697973511e+000	 3.928391273393308e+000	 1.015975264572839e+001
 2.304703117746368e+000	 3.952084075407610e+000	 1.012984743918677e+001
 2.264360540689263e+000	 3.975336003635369e+000	 1.009464471574684e+001
 2.223839079774579e+000	 3.998145163358921e+000	 1.005383696411375e+001
 2.183145865490564e+000	 4.020509809714451e+000	 1.000713533042512e+001
 2.142288041980814e+000	 4.042428347565767e+000	 9.954270674719702e+000
 2.101272763205771e+000	 4.063899331261593e+000	 9.894994577319798e+000
 2.517164865571844e+000	 3.850179351625048e+000	 1.023810855348395e+001
 2.477607932733066e+000	 3.875752692288406e+000	 1.021397690489152e+001
 2.437835633615703e+000	 3.900891875401327e+000	 1.019294487582907e+001
 2.397855010500300e+000	 3.925594394317334e+000	 1.016894689008920e+001
 2.357673138943943e+000	 3.949857892375436e+000	 1.014164558001259e+001
 2.317297123851696e+000	 3.973680163253078e+000	 1.011071734887422e+001
 2.276734095553401e+000	 3.997059151197778e+000	 1.007585357082770e+001
 2.235991205890146e+000	 4.019992951138231e+000	 1.003676175088912e+001
 2.195075624314593e+000	 4.042479808675838e+000	 9.993166641917002e+000
 2.153994534009374e+000	 4.064518119957823e+000	 9.944811315707485e+000
 2.112755128027612e+000	 4.086106431433171e+000	 9.891458185495162e+000
 2.530845109406134e+000	 3.871104239406732e+000	 1.024310039543962e+001
 2.491073193236195e+000	 3.896816565617135e+000	 1.020921666502291e+001
 2.451084740318802e+000	 3.922092374725174e+000	 1.018391627377457e+001
 2.410886831207764e+000	 3.946929146461295e+000	 1.015694042288184e+001
 2.370486579914279e+000	 3.971324511356565e+000	 1.012797055118652e+001
 2.329891129957026e+000	 3.995276251097546e+000	 1.009670043904414e+001
 2.289107650417644e+000	 4.018782298759190e+000	 1.006283741857597e+001
 2.248143332005916e+000	 4.041840738916538e+000	 1.002610354562330e+001
 2.207005383138925e+000	 4.064449807636226e+000	 9.986236730296440e+000
 2.165701026038338e+000	 4.086607892348878e+000	 9.942991823171639e+000
 2.124237492849956e+000	 4.108313531603750e+000	 9.896141654358885e+000
 2.544525353239926e+000	 3.892029127187417e+000	 1.024928356676485e+001
 2.504538453738926e+000	 3.917880438944866e+000	 1.020800892037674e+001
 2.464333847021603e+000	 3.943292874048022e+000	 1.017783771460717e+001
 2.423918651915029e+000	 3.968263898604256e+000	 1.014859358523136e+001
 2.383300020884518e+000	 3.992791130336694e+000	 1.011864667779316e+001
 2.342485136062361e+000	 4.016872338941014e+000	 1.008770765534739e+001
 2.301481205281990e+000	 4.040505446319600e+000	 1.005549932839683e+001
 2.260295458121890e+000	 4.063688526693848e+000	 1.002175783934439e+001
 2.218935141963561e+000	 4.086419806595613e+000	 9.986233807113756e+000
 2.177407518067704e+000	 4.108697664738933e+000	 9.948693428925150e+000
 2.135719857672804e+000	 4.130520631773328e+000	 9.908919536380585e+000
 2.558205597073221e+000	 3.912954014967101e+000	 1.025662669387550e+001
 2.518003714241260e+000	 3.938944312271593e+000	 1.021140024338425e+001
 2.477582953724108e+000	 3.964493373369870e+000	 1.017464529460918e+001
 2.436950472622098e+000	 3.989598650746217e+000	 1.014383393917907e+001
 2.396113461854660e+000	 4.014257749315822e+000	 1.011359327524739e+001
 2.355079142167699e+000	 4.038468426783482e+000	 1.008365035571497e+001
 2.313854760146438e+000	 4.062228593879011e+000	 1.005374299121770e+001
 2.272447584238069e+000	 4.085536314470157e+000	 1.002362094760553e+001
 2.230864900788501e+000	 4.108389805554000e+000	 9.993047105139276e+000
 2.189114010097476e+000	 4.130787437127987e+000	 9.961798576323787e+000
 2.147202222496156e+000	 4.152727731941907e+000	 9.929667779463269e+000
 2.571885840906018e+000	 3.933878902745785e+000	 1.026509769765560e+001
 2.531468974743198e+000	 3.960008185597324e+000	 1.021663993944266e+001
 2.490832060426316e+000	 3.985693872690718e+000	 1.017427486463968e+001
 2.449982293328969e+000	 4.010933402887178e+000	 1.014258902279620e+001
 2.408926902824705e+000	 4.035724368293952e+000	 1.011272985060005e+001
 2.367673148273040e+000	 4.060064514624950e+000	 1.008444029939311e+001
 2.326228315010992e+000	 4.083951741437423e+000	 1.005747270295832e+001
 2.284599710354450e+000	 4.107384102245465e+000	 1.003158998855617e+001
 2.242794659613744e+000	 4.130359804511387e+000	 1.000656685120332e+001
 2.200820502127651e+000	 4.152877209516042e+000	 9.982190888044181e+000
 2.158684587320011e+000	 4.174934832109484e+000	 9.958263689830709e+000
 2.585566084738318e+000	 3.954803790523470e+000	 1.027466381212208e+001
 2.544934235244737e+000	 3.981072058922053e+000	 1.022368647730956e+001
 2.504081167128226e+000	 4.006894372010565e+000	 1.017766565633326e+001
 2.463014114035644e+000	 4.032268155027139e+000	 1.014478635081804e+001
 2.421740343794653e+000	 4.057190987271081e+000	 1.011597609746818e+001
 2.380267154378384e+000	 4.081660602465419e+000	 1.008998963632643e+001
 2.338601869875647e+000	 4.105674888994832e+000	 1.006659334852574e+001
 2.296751836471034e+000	 4.129231890019774e+000	 1.004556286170921e+001
 2.254724418439292e+000	 4.152329803467775e+000	 1.002668423989825e+001
 2.212526994158230e+000	 4.174966981903096e+000	 1.000975513488492e+001
 2.170166952144371e+000	 4.197141932276062e+000	 9.994585896093048e+000
 2.599246328570120e+000	 3.975728678300154e+000	 1.028529160250036e+001
 2.558399495745880e+000	 4.002135932245784e+000	 1.023249787771518e+001
 2.517330273829839e+000	 4.028094871329415e+000	 1.018584823391119e+001
 2.476045934742123e+000	 4.053602907166102e+000	 1.015035341525804e+001
 2.434553784764504e+000	 4.078657606247210e+000	 1.012325189112545e+001
 2.392861160483732e+000	 4.103256690304888e+000	 1.010021089687644e+001
 2.350975424740408e+000	 4.127398036551245e+000	 1.008101038631465e+001
 2.308903962587824e+000	 4.151079677793084e+000	 1.006543822737897e+001
 2.266654177265143e+000	 4.174299802423162e+000	 1.005329140811106e+001
 2.224233486189214e+000	 4.197056754289153e+000	 1.004437720555276e+001
 2.181649316969235e+000	 4.219349032441642e+000	 1.003851431444718e+001
 2.066825668743274e+000	 3.997278030740858e+000	 9.956199137731415e+000
 2.026334940146127e+000	 4.017955538626073e+000	 9.906166995696262e+000
 1.985703424879969e+000	 4.038190424988225e+000	 9.863815208286152e+000
 1.944938166216198e+000	 4.057981706422046e+000	 9.829179807866426e+000
 1.904046202273650e+000	 4.077328544486139e+000	 9.802304549700189e+000
 1.863034562408458e+000	 4.096230244915353e+000	 9.784631461618476e+000
 1.821910263647759e+000	 4.114686256729197e+000	 9.773011452952980e+000
 1.780680307170585e+000	 4.132696171238480e+000	 9.762324054481873e+000
 1.739351674839182e+000	 4.150259720952576e+000	 9.753970140401663e+000
 1.697931325783844e+000	 4.167376778389715e+000	 9.749308696162842e+000
 1.656426193044263e+000	 4.184047354792892e+000	 9.749654883801883e+000
 2.078308033563603e+000	 4.019485130915437e+000	 9.927235941609986e+000
 2.037592356473766e+000	 4.040277513844186e+000	 9.886766243910138e+000
 1.996735110566970e+000	 4.060624816241361e+000	 9.851590969944585e+000
 1.955743378243896e+000	 4.080526049238337e+000	 9.821701530880862e+000
 1.914624236724039e+000	 4.099980369735707e+000	 9.797099822019632e+000
 1.873384754415510e+000	 4.118987079611292e+000	 9.778033049795786e+000
 1.832031987328928e+000	 4.137545624823596e+000	 9.766060261094467e+000
 1.790572975538764e+000	 4.155655594412936e+000	 9.752731100505935e+000
 1.749014739695385e+000	 4.173316719402627e+000	 9.739451450014139e+000
 1.707364277590921e+000	 4.190528871602666e+000	 9.727586978955165e+000
 1.665628560781946e+000	 4.207292062318510e+000	 9.718461163202308e+000
 2.089790398384435e+000	 4.041692231089016e+000	 9.906877711132674e+000
 2.048849772801994e+000	 4.062599489061308e+000	 9.875181390746013e+000
 2.007766796254614e+000	 4.083059207493538e+000	 9.846415314501281e+000
 1.966548590272259e+000	 4.103070392053720e+000	 9.820526299232560e+000
 1.925202271175087e+000	 4.122632194984438e+000	 9.797474395219407e+000
 1.883734946423183e+000	 4.141743914306483e+000	 9.777233594437954e+000
 1.842153711010652e+000	 4.160404992917361e+000	 9.762485279496254e+000
 1.800465643907401e+000	 4.178615017586891e+000	 9.745601157576985e+000
 1.758677804551919e+000	 4.196373717852327e+000	 9.726510854944106e+000
 1.716797229398172e+000	 4.213680964815437e+000	 9.706587272291133e+000
 1.674830928519619e+000	 4.230536769844139e+000	 9.687162719750742e+000
 2.101272763205771e+000	 4.063899331261593e+000	 9.894994577319798e+000
 2.060107189130810e+000	 4.084921464277438e+000	 9.871298049861471e+000
 2.018798481942900e+000	 4.105493598744757e+000	 9.848188929447069e+000
 1.977353802301289e+000	 4.125614734868196e+000	 9.825569459295377e+000
 1.935780305626794e+000	 4.145284020232332e+000	 9.803357853775571e+000
 1.894085138431479e+000	 4.164500749000931e+000	 9.781489033602769e+000
 1.852275434692931e+000	 4.183264361010493e+000	 9.762366329680301e+000
 1.810358312276495e+000	 4.201574440760342e+000	 9.741022287163860e+000
 1.768340869408785e+000	 4.219430716301676e+000	 9.715244258111390e+000
 1.726230181205598e+000	 4.236833058028028e+000	 9.686412922526101e+000
 1.684033296257282e+000	 4.253781477369778e+000	 9.655869945918026e+000
 2.112755128027612e+000	 4.086106431433171e+000	 9.891458185495162e+000
 2.071364605460215e+000	 4.107243439492581e+000	 9.875003054271366e+000
 2.029830167631828e+000	 4.127927989995016e+000	 9.856813435472336e+000
 1.988159014330985e+000	 4.148159077681763e+000	 9.836747013362299e+000
 1.946358340079160e+000	 4.167935845479390e+000	 9.814680169762280e+000
 1.904435330440397e+000	 4.187257583694634e+000	 9.790508746488067e+000
 1.862397158375764e+000	 4.206123729102990e+000	 9.765783111301991e+000
 1.820250980646048e+000	 4.224533863933293e+000	 9.739082187858662e+000
 1.778003934265982e+000	 4.242487714750674e+000	 9.705746967776006e+000
 1.735663133013200e+000	 4.259985151240440e+000	 9.667166458850845e+000
 1.693235663994934e+000	 4.277026184895429e+000	 9.624692203829367e+000
 2.124237492849956e+000	 4.108313531603750e+000	 9.896141654358885e+000
 2.082622021790209e+000	 4.129565414706734e+000	 9.886184423392196e+000
 2.040861853321399e+000	 4.150362381244316e+000	 9.872191361245418e+000
 1.998964226361346e+000	 4.170703420494422e+000	 9.853975601917790e+000
 1.956936374532185e+000	 4.190587670725612e+000	 9.831371692376239e+000
 1.914785522449936e+000	 4.210014418387591e+000	 9.804236382536498e+000
 1.872518882059152e+000	 4.228983097194856e+000	 9.772815205443754e+000
 1.830143649016057e+000	 4.247493287105740e+000	 9.739868205184306e+000
 1.787666999123510e+000	 4.265544713199322e+000	 9.698113713610033e+000
 1.745096084820976e+000	 4.283137244452671e+000	 9.648949615377253e+000
 1.702438031732576e+000	 4.300270892421088e+000	 9.593737853111687e+000
 2.135719857672804e+000	 4.130520631773328e+000	 9.908919536380585e+000
 2.093879438120791e+000	 4.151887389919897e+000	 9.904731331149561e+000
 2.051893539011612e+000	 4.172796772492658e+000	 9.894226119004626e+000
 2.009769438392373e+000	 4.193247763306173e+000	 9.877172486482218e+000
 1.967514408985869e+000	 4.213239495970997e+000	 9.853363137798944e+000
 1.925135714460097e+000	 4.232771253079803e+000	 9.822615712679715e+000
 1.882640605743095e+000	 4.251842465286088e+000	 9.784773540211917e+000
 1.840036317386526e+000	 4.270452710277686e+000	 9.743467341085557e+000
 1.797330063981369e+000	 4.288601711647618e+000	 9.692438662251101e+000
 1.754529036628928e+000	 4.306289337664721e+000	 9.631863352511219e+000
 1.711640399470208e+000	 4.323515599946758e+000	 9.563114277842255e+000
 2.147202222496156e+000	 4.152727731941907e+000	 9.929667779463269e+000
 2.105136854451962e+000	 4.174209365132070e+000	 9.930534075108941e+000
 2.062925224702469e+000	 4.195231163740040e+000	 9.922821980933360e+000
 2.020574650424067e+000	 4.215792106117017e+000	 9.906255533006537e+000
 1.978092443440212e+000	 4.235891321215544e+000	 9.880585579384286e+000
 1.935485906470881e+000	 4.255528087771273e+000	 9.845590626089892e+000
 1.892762329427593e+000	 4.274701833376684e+000	 9.801077614930446e+000
 1.849928985757451e+000	 4.293412133449130e+000	 9.749966263115672e+000
 1.806993128839560e+000	 4.311658710095563e+000	 9.688815432356753e+000
 1.763961988437054e+000	 4.329441430876592e+000	 9.616007877640131e+000
 1.720842767207830e+000	 4.346760307472438e+000	 9.532927912633088e+000
 2.158684587320011e+000	 4.174934832109484e+000	 9.958263689830709e+000
 2.116394270783720e+000	 4.196531340343253e+000	 9.963484046591706e+000
 2.073956910393968e+000	 4.217665554986464e+000	 9.957884056289231e+000
 2.031379862456427e+000	 4.238336448926953e+000	 9.941143195797030e+000
 1.988670477895215e+000	 4.258543146459256e+000	 9.912970438159229e+000
 1.945836098482286e+000	 4.278284922461995e+000	 9.873105127035185e+000
 1.902884053112646e+000	 4.297561201466650e+000	 9.821317778790816e+000
 1.859821654128836e+000	 4.316371556620072e+000	 9.759451313329704e+000
 1.816656193698082e+000	 4.334715708543159e+000	 9.687337109178396e+000
 1.773394940245357e+000	 4.352593524088284e+000	 9.601482665159889e+000
 1.730045134945440e+000	 4.370005014998127e+000	 9.503284267882615e+000
 2.170166952144371e+000	 4.197141932276062e+000	 9.994585896093048e+000
 2.127651687116068e+000	 4.218853315553446e+000	 1.000347370173966e+001
 2.084988596086108e+000	 4.240099946231929e+000	 9.999318269259243e+000
 2.042185074489452e+000	 4.260880791735981e+000	 9.981754501950411e+000
 1.999248512350876e+000	 4.281194971702131e+000	 9.950449473626208e+000
 1.956186290494314e+000	 4.301041757151972e+000	 9.905103331834658e+000
 1.913005776798254e+000	 4.320420569555981e+000	 9.845450124540680e+000
 1.869714322500677e+000	 4.339330979790511e+000	 9.772008516895697e+000
 1.826319258556935e+000	 4.357772706990403e+000	 9.688096258672541e+000
 1.782827892053834e+000	 4.375745617299795e+000	 9.594560556058616e+000
 1.739247502683042e+000	 4.393249722523829e+000	 9.632073938538243e+000
 2.181649316969235e+000	 4.219349032441642e+000	 1.003851431444718e+001
 2.138909103449004e+000	 4.241175290762651e+000	 1.005039653349361e+001
 2.096020281778892e+000	 4.262534337476436e+000	 1.004703133751427e+001
 2.052990286523145e+000	 4.283425134544102e+000	 1.002800903628027e+001
 2.009826546807197e+000	 4.303846796944171e+000	 9.992954774855781e+000
 1.966536482506964e+000	 4.323798591841205e+000	 9.941529465909742e+000
 1.923127500484418e+000	 4.343279937644681e+000	 9.873430641306490e+000
 1.879606990872978e+000	 4.362290402960451e+000	 9.788393221524936e+000
 1.835982323416120e+000	 4.380829705437297e+000	 9.736766620861578e+000
 1.792260843862487e+000	 4.398897710511126e+000	 9.772875181993005e+000
 1.748449870420633e+000	 4.416494430049542e+000	 9.801852541289215e+000
 1.656426193044263e+000	 4.184047354792892e+000	 9.749654883801883e+000
 1.614843180269973e+000	 4.200271598754027e+000	 9.756097342306816e+000
 1.573189158483706e+000	 4.216049794749046e+000	 9.753939300174798e+000
 1.531470962909008e+000	 4.231382361586969e+000	 9.744254448004723e+000
 1.489695389864481e+000	 4.246269850775701e+000	 9.728082058688534e+000
 1.447869193727904e+000	 4.260712944807515e+000	 9.706425530491844e+000
 1.405999083972017e+000	 4.274712455367262e+000	 9.680251039403576e+000
 1.364091722274012e+000	 4.288269321466461e+000	 9.650486301603221e+000
 1.322153719700637e+000	 4.301384607506363e+000	 9.618019446566622e+000
 1.280191633970678e+000	 4.314059501273208e+000	 9.583698001009070e+000
 1.238211966796443e+000	 4.326295311868889e+000	 9.549631944126636e+000
 1.665628560781946e+000	 4.207292062318510e+000	 9.718461163202308e+000
 1.623814531271376e+000	 4.223606440967679e+000	 9.710061279761508e+000
 1.581929098254062e+000	 4.239472293606605e+000	 9.692442740166452e+000
 1.539979134927016e+000	 4.254890041371023e+000	 9.666703858929601e+000
 1.497971475366166e+000	 4.269860238832774e+000	 9.633908376632814e+000
 1.455912911473615e+000	 4.284383572275750e+000	 9.595083966051380e+000
 1.413810189996953e+000	 4.298460857894164e+000	 9.551220849039158e+000
 1.371670009622691e+000	 4.312093039916263e+000	 9.503270525065068e+000
 1.329499018145727e+000	 4.325281188656642e+000	 9.452144611956779e+000
 1.287303809716620e+000	 4.338026498500345e+000	 9.398713799081188e+000
 1.245090922168304e+000	 4.350330285822056e+000	 9.344323658234000e+000
 1.674830928519619e+000	 4.230536769844139e+000	 9.687162719750742e+000
 1.632785882272589e+000	 4.246941283181525e+000	 9.663572023794425e+000
 1.590669038024091e+000	 4.262894792464511e+000	 9.630156127362131e+000
 1.548487306944598e+000	 4.278397721155550e+000	 9.588038333257259e+000
 1.506247560867369e+000	 4.293450626890412e+000	 9.538307197962480e+000
 1.463956629218827e+000	 4.308054199744612e+000	 9.482015000510792e+000
 1.421621296021413e+000	 4.322209260421725e+000	 9.420176323642307e+000
 1.379248296970957e+000	 4.335916758366730e+000	 9.353766748177682e+000
 1.336844316590506e+000	 4.349177769807553e+000	 9.283721661200026e+000
 1.294415985462393e+000	 4.361993495728061e+000	 9.210935178303870e+000
 1.251969877540177e+000	 4.374365259775718e+000	 9.136259179846304e+000
 1.684033296257282e+000	 4.253781477369778e+000	 9.655869945918026e+000
 1.641757233273613e+000	 4.270276125395566e+000	 9.616739265456454e+000
 1.599408977793790e+000	 4.286317291322766e+000	 9.567188362622812e+000
 1.556995478961755e+000	 4.301905400940547e+000	 9.508365895396699e+000
 1.514523646368089e+000	 4.317041014948612e+000	 9.441385586878388e+000
 1.472000346963540e+000	 4.331724827214101e+000	 9.367324656607567e+000
 1.429432402045397e+000	 4.345957662949947e+000	 9.287222365724684e+000
 1.386826584318810e+000	 4.359740476817858e+000	 9.202078676946234e+000
 1.344189615034976e+000	 4.373074350959102e+000	 9.112853029981595e+000
 1.301528161207999e+000	 4.385960492956356e+000	 9.145839478869918e+000
 1.258848832912064e+000	 4.398400233729873e+000	 9.197993119332342e+000
 1.693235663994934e+000	 4.277026184895429e+000	 9.624692203829367e+000
 1.650728584274448e+000	 4.293610967609801e+000	 9.569671621441479e+000
 1.608148917563162e+000	 4.309739790181370e+000	 9.503647231173176e+000
 1.565503650978485e+000	 4.325413080726016e+000	 9.427793415574312e+000
 1.522799731868327e+000	 4.340631403007379e+000	 9.343249417584904e+000
 1.480044064707754e+000	 4.355395454684218e+000	 9.251117733999148e+000
 1.437243508068906e+000	 4.369706065478828e+000	 9.152462624360693e+000
 1.394404871666251e+000	 4.383564195269647e+000	 9.142291053752460e+000
 1.351534913479135e+000	 4.396970932111286e+000	 9.185723368833143e+000
 1.308640336953436e+000	 4.409927490185231e+000	 9.226006409101800e+000
 1.265727788283963e+000	 4.422435207684523e+000	 9.263201320901128e+000
 1.702438031732576e+000	 4.300270892421088e+000	 9.593737853111687e+000
 1.659699935275092e+000	 4.316945809824232e+000	 9.522476663123102e+000
 1.616888857332206e+000	 4.333162289040322e+000	 9.439639432753868e+000
 1.574011822994792e+000	 4.348920760511958e+000	 9.346426641027984e+000
 1.531075817368083e+000	 4.364221791066709e+000	 9.244003406452155e+000
 1.488087782451469e+000	 4.379066082154962e+000	 9.175924430744125e+000
 1.445054614091940e+000	 4.393454468008369e+000	 9.213349805924617e+000
 1.401983159013279e+000	 4.407387913722100e+000	 9.246850967812533e+000
 1.358880211922985e+000	 4.420867513264106e+000	 9.276504237871944e+000
 1.315752512698706e+000	 4.433894487414682e+000	 9.302381530574060e+000
 1.272606743655874e+000	 4.446470181639666e+000	 9.324550236792891e+000
 1.711640399470208e+000	 4.323515599946758e+000	 9.563114277842255e+000
 1.668671286275546e+000	 4.340280652038856e+000	 9.475260944654632e+000
 1.625628797100923e+000	 4.356584787899623e+000	 9.375270610801231e+000
 1.582519995010671e+000	 4.372428440298371e+000	 9.264370226195002e+000
 1.539351902867356e+000	 4.387812179126605e+000	 9.273305480870848e+000
 1.496131500194685e+000	 4.402736709626333e+000	 9.302761565581722e+000
 1.452865720114497e+000	 4.417202870538569e+000	 9.327578108085081e+000
 1.409561446359895e+000	 4.431211632175214e+000	 9.347840751006984e+000
 1.366225510366525e+000	 4.444764094417558e+000	 9.363631279142442e+000
 1.322864688443807e+000	 4.457861484644716e+000	 9.375027473641236e+000
 1.279485699027798e+000	 4.470505155595302e+000	 9.382102982114288e+000
 1.720842767207830e+000	 4.346760307472438e+000	 9.532927912633088e+000
 1.677642637275812e+000	 4.363615494253677e+000	 9.428130030167413e+000
 1.634368736869311e+000	 4.380007286759271e+000	 9.357978898899606e+000
 1.591028167026127e+000	 4.395936120085256e+000	 9.386170562050907e+000
 1.547627988366146e+000	 4.411402567187063e+000	 9.408905043454857e+000
 1.504175217937402e+000	 4.426407337098329e+000	 9.426279420305269e+000
 1.460676826136578e+000	 4.440951273069429e+000	 9.438387687142249e+000
 1.417139733706099e+000	 4.455035350628992e+000	 9.445320565443087e+000
 1.373570808809755e+000	 4.468660675571651e+000	 9.447165328938963e+000
 1.329976864188740e+000	 4.481828481875327e+000	 9.444005644706088e+000
 1.286364654399735e+000	 4.494540129551433e+000	 9.435921430030071e+000
 1.730045134945440e+000	 4.370005014998127e+000	 9.503284267882615e+000
 1.686613988275887e+000	 4.386950336468694e+000	 9.489483673741042e+000
 1.643108676637371e+000	 4.403429785619270e+000	 9.512926073921243e+000
 1.599536339041156e+000	 4.419443799872612e+000	 9.530180048626471e+000
 1.555904073864455e+000	 4.434992955248088e+000	 9.541349375309659e+000
 1.512218935679620e+000	 4.450077964570956e+000	 9.546535396630032e+000
 1.468487932158185e+000	 4.464699675600949e+000	 9.545836801928170e+000
 1.424718021051890e+000	 4.478859069083432e+000	 9.539349424112865e+000
 1.380916107252676e+000	 4.492557256726376e+000	 9.527166052084986e+000
 1.337089039933505e+000	 4.505795479106518e+000	 9.509376258771480e+000
 1.293243609771684e+000	 4.518575103508055e+000	 9.486066244793502e+000
 1.739247502683042e+000	 4.393249722523829e+000	 9.632073938538243e+000
 1.695585339275773e+000	 4.410285178683903e+000	 9.652001903471451e+000
 1.651848616405103e+000	 4.426852284479617e+000	 9.665008569567693e+000
 1.608044511055760e+000	 4.442951479660441e+000	 9.671203343423805e+000
 1.564180159362281e+000	 4.458583343309677e+000	 9.670693878317275e+000
 1.520262653421339e+000	 4.473748592044207e+000	 9.663585828199771e+000
 1.476299038179315e+000	 4.488448078133128e+000	 9.649982616693411e+000
 1.432296308397268e+000	 4.502682787538533e+000	 9.629985221292959e+000
 1.388261405695286e+000	 4.516453837881736e+000	 9.603691972924512e+000
 1.344201215678103e+000	 4.529762476338287e+000	 9.571198370958962e+000
 1.300122565143645e+000	 4.542610077465175e+000	 9.532596913728071e+000
 1.748449870420633e+000	 4.416494430049542e+000	 9.801852541289215e+000
 1.704556690275469e+000	 4.433620020899308e+000	 9.811835870546149e+000
 1.660588556172508e+000	 4.450274783340313e+000	 9.814278670077410e+000
 1.616552683069939e+000	 4.466459159448743e+000	 9.809293833501439e+000
 1.572456244859625e+000	 4.482173731371831e+000	 9.796992942525785e+000
 1.528306371162558e+000	 4.497419219518086e+000	 9.777486008693913e+000
 1.484110144199970e+000	 4.512196480665969e+000	 9.750881229911965e+000
 1.439874595742234e+000	 4.526506505994299e+000	 9.717284761984510e+000
 1.395606704137587e+000	 4.540350419037734e+000	 9.676800505334652e+000
 1.351313391422532e+000	 4.553729473570638e+000	 9.629529907031897e+000
 1.307001520515620e+000	 4.566645051422786e+000	 9.575571778199373e+000
 1.238211966796443e+000	 4.326295311868889e+000	 9.549631944126636e+000
 1.196221161306078e+000	 4.338093467580077e+000	 9.505269353659365e+000
 1.154225599546729e+000	 4.349455513689764e+000	 9.449754504449578e+000
 1.112231600071145e+000	 4.360383110233927e+000	 9.385002311697392e+000
 1.070245415609067e+000	 4.370878029706319e+000	 9.312796452433453e+000
 1.028273230823133e+000	 4.380942154715376e+000	 9.305322631826275e+000
 9.863211601505714e-001	 4.390577475596269e+000	 9.335556304686188e+000
 9.443952457313436e-001	 4.399786087981417e+000	 9.354372775345381e+000
 9.025014554232422e-001	 4.408570190332767e+000	 9.361851755449045e+000
 8.606456809043406e-001	 4.416932081439071e+000	 9.358071184635865e+000
 8.188337358630459e-001	 4.424874157881446e+000	 9.343107246782193e+000
 1.245090922168304e+000	 4.350330285822056e+000	 9.344323658234000e+000
 1.202866834424291e+000	 4.362193986843245e+000	 9.279970004275329e+000
 1.160637963987752e+000	 4.373619155431682e+000	 9.207098713222617e+000
 1.118410664514505e+000	 4.384607460845763e+000	 9.242639516697951e+000
 1.076191223471678e+000	 4.395160685426433e+000	 9.284650243042925e+000
 1.033985859881143e+000	 4.405280722241064e+000	 9.316765181465080e+000
 9.918007221492238e-001	 4.414969572682244e+000	 9.339075543279144e+000
 9.496418859833251e-001	 4.424229344024799e+000	 9.351669024513031e+000
 9.075153523960025e-001	 4.433062246944354e+000	 9.354629824988930e+000
 8.654270457968732e-001	 4.441470593000706e+000	 9.348038681149273e+000
 8.233828121726124e-001	 4.449456792089316e+000	 9.331972911978303e+000
 1.251969877540177e+000	 4.374365259775718e+000	 9.136259179846304e+000
 1.209512507542697e+000	 4.386294506106817e+000	 9.185106270313474e+000
 1.167050328429106e+000	 4.397782797173934e+000	 9.232983337184360e+000
 1.124589728958293e+000	 4.408831811457885e+000	 9.272420234535085e+000
 1.082137031334772e+000	 4.419443341146804e+000	 9.303526699350377e+000
 1.039698488939652e+000	 4.429619289767003e+000	 9.326407173670388e+000
 9.972802841483516e-001	 4.439361669768482e+000	 9.341160816889870e+000
 9.548885262357177e-001	 4.448672600068478e+000	 9.347881534907479e+000
 9.125292493690708e-001	 4.457554303556283e+000	 9.346658025438765e+000
 8.702084106895723e-001	 4.466009104562757e+000	 9.337573838780209e+000
 8.279318884821645e-001	 4.474039426297694e+000	 9.320707453288122e+000
 1.258848832912064e+000	 4.398400233729873e+000	 9.197993119332342e+000
 1.216158180661293e+000	 4.410395025370794e+000	 9.238282609138405e+000
 1.173462692870789e+000	 4.421946438916520e+000	 9.272371572978930e+000
 1.130768793402506e+000	 4.433056162070294e+000	 9.299652954413178e+000
 1.088082839198348e+000	 4.443725996867436e+000	 9.320247966156536e+000
 1.045411117998660e+000	 4.453957857293191e+000	 9.334270748330800e+000
 1.002759846147954e+000	 4.463753766854984e+000	 9.341828403226922e+000
 9.601351664885216e-001	 4.473115856112448e+000	 9.343021048789598e+000
 9.175431463424475e-001	 4.482046360168563e+000	 9.337941890053225e+000
 8.749897755824373e-001	 4.490547616125227e+000	 9.326677307731234e+000
 8.324809647917018e-001	 4.498622060506580e+000	 9.309306963135683e+000
 1.265727788283963e+000	 4.422435207684523e+000	 9.263201320901128e+000
 1.222803853780082e+000	 4.434495544635175e+000	 9.288124949445438e+000
 1.179875057312801e+000	 4.446110080659443e+000	 9.308843632387212e+000
 1.136947857847147e+000	 4.457280512682990e+000	 9.324371635624523e+000
 1.094028647062408e+000	 4.468008652588325e+000	 9.334841627908798e+000
 1.051123747058167e+000	 4.478296424819630e+000	 9.340377435107952e+000
 1.008239408148032e+000	 4.488145863941748e+000	 9.341094097335036e+000
 9.653818067417367e-001	 4.497559112156714e+000	 9.337097946666233e+000
 9.225570433161322e-001	 4.506538416781186e+000	 9.328486704594145e+000
 8.797711404754686e-001	 4.515086127688112e+000	 9.315349598332999e+000
 8.370300411012241e-001	 4.523204694715973e+000	 9.297767495066292e+000
 1.272606743655874e+000	 4.446470181639666e+000	 9.324550236792891e+000
 1.229449526899063e+000	 4.458596063899961e+000	 9.334679804046827e+000
 1.186287421755143e+000	 4.470273722402702e+000	 9.342439164381203e+000
 1.143126922292214e+000	 4.481504863295973e+000	 9.346609376075652e+000
 1.099974454926952e+000	 4.492291308309474e+000	 9.347334544730256e+000
 1.056836376118173e+000	 4.502634992346319e+000	 9.344748169929153e+000
 1.013718970148585e+000	 4.512537961028775e+000	 9.338973224640123e+000
 9.706284469953630e-001	 4.522002368201274e+000	 9.330122257067302e+000
 9.275709402901251e-001	 4.531030473394154e+000	 9.318297514019362e+000
 8.845525053686659e-001	 4.539624639251416e+000	 9.303591084824612e+000
 8.415791174107322e-001	 4.547787328925875e+000	 9.286085064797337e+000
 1.279485699027798e+000	 4.470505155595302e+000	 9.382102982114288e+000
 1.236095200018235e+000	 4.482696583165149e+000	 9.377992561908187e+000
 1.192699786197815e+000	 4.494437364146294e+000	 9.373196840034684e+000
 1.149305986737708e+000	 4.505729213909241e+000	 9.366398435442825e+000
 1.105920262791978e+000	 4.516573964030878e+000	 9.357752871890789e+000
 1.062549005178678e+000	 4.526973559873260e+000	 9.347403310947966e+000
 1.019198532149612e+000	 4.536930058116062e+000	 9.335480653573432e+000
 9.758750872494005e-001	 4.546445624246128e+000	 9.322103666007592e+000
 9.325848372644264e-001	 4.555522530007470e+000	 9.307379128956024e+000
 8.893338702620292e-001	 4.564163150815134e+000	 9.291402009011932e+000
 8.461281937202254e-001	 4.572369963136283e+000	 9.274255651235148e+000
 1.286364654399735e+000	 4.494540129551433e+000	 9.435921430030071e+000
 1.242740873137600e+000	 4.506797102430743e+000	 9.418107518197918e+000
 1.199112150640817e+000	 4.518601005890221e+000	 9.401154378670274e+000
 1.155485051183629e+000	 4.529953564522797e+000	 9.383770257584615e+000
 1.111866070657487e+000	 4.540856619752544e+000	 9.366122078653378e+000
 1.068261634239683e+000	 4.551312127400450e+000	 9.348362653992711e+000
 1.024678094151114e+000	 4.561322155203613e+000	 9.330630807790636e+000
 9.811217275038495e-001	 4.570888880291277e+000	 9.313051526144870e+000
 9.375987342390358e-001	 4.580014586621130e+000	 9.295736131966146e+000
 8.941152351555585e-001	 4.588701662379271e+000	 9.278782483808609e+000
 8.506772700297042e-001	 4.596952597347197e+000	 9.262275197459232e+000
 1.293243609771684e+000	 4.518575103508055e+000	 9.486066244793502e+000
 1.249386546257156e+000	 4.530897621696742e+000	 9.455067903377525e+000
 1.205524515084149e+000	 4.542764647634485e+000	 9.426348573171916e+000
 1.161664115629977e+000	 4.554177915136640e+000	 9.398755492239260e+000
 1.117811878523479e+000	 4.565139275474467e+000	 9.372466966519049e+000
 1.073974263301186e+000	 4.575650694927892e+000	 9.347645447521936e+000
 1.030157656153092e+000	 4.585714252291426e+000	 9.324437678001001e+000
 9.863683677587096e-001	 4.595332136336720e+000	 9.302974865645778e+000
 9.426126312139533e-001	 4.604506643235137e+000	 9.283372883612058e+000
 8.988966000492540e-001	 4.613240173943826e+000	 9.265732496664054e+000
 8.552263463391679e-001	 4.621535231558619e+000	 9.250139611675186e+000
 1.300122565143645e+000	 4.542610077465175e+000	 9.532596913728071e+000
 1.256032219376904e+000	 4.554998140963141e+000	 9.488999025482954e+000
 1.211936879527810e+000	 4.566928289379082e+000	 9.448815314493876e+000
 1.167843180076751e+000	 4.578402265750768e+000	 9.411384016033034e+000
 1.123757686389954e+000	 4.589421931196648e+000	 9.376811686892435e+000
 1.079686892363189e+000	 4.599989262455583e+000	 9.345270407105092e+000
 1.035637218155545e+000	 4.610106349379503e+000	 9.316914833420956e+000
 9.916150080139813e-001	 4.619775392382458e+000	 9.291882396770250e+000
 9.476265281891790e-001	 4.628998699849491e+000	 9.270293528329521e+000
 9.036779649431154e-001	 4.637778685508796e+000	 9.252251912882644e+000
 8.597754226486175e-001	 4.646117865770551e+000	 9.237844768137190e+000
 1.307001520515620e+000	 4.566645051422786e+000	 9.575571778199373e+000
 1.262677892496843e+000	 4.579098660229949e+000	 9.519768361740644e+000
 1.218349243971802e+000	 4.591091931124016e+000	 9.468589615395713e+000
 1.174022244523952e+000	 4.602626616365185e+000	 9.421684952825352e+000
 1.129703494256913e+000	 4.613704586919090e+000	 9.379179758189613e+000
 1.085399521425690e+000	 4.624327829983526e+000	 9.341255729445884e+000
 1.041116780158473e+000	 4.634498446467843e+000	 9.308075432866051e+000
 9.968616482696642e-001	 4.644218648428491e+000	 9.279782524184883e+000
 9.526404251647134e-001	 4.653490756464190e+000	 9.256502000115216e+000
 9.084593298371433e-001	 4.662317197074184e+000	 9.238340478837992e+000
 8.643244989580522e-001	 4.670700499982988e+000	 9.225386508041533e+000
 8.188337358630459e-001	 4.424874157881446e+000	 9.343107246782193e+000
 7.770713542760024e-001	 4.432398911470850e+000	 9.328549178964666e+000
 7.353641887737129e-001	 4.439508926659324e+000	 9.315185655799734e+000
 6.937178090935393e-001	 4.446206877929084e+000	 9.303006501432668e+000
 6.521377006203357e-001	 4.452495527163421e+000	 9.291990914173644e+000
 6.106292630141446e-001	 4.458377721001112e+000	 9.276159422465858e+000
 5.691978089245402e-001	 4.463856388177795e+000	 9.249322218215291e+000
 5.278485627910554e-001	 4.468934536857286e+000	 9.222237053840562e+000
 4.865866597290441e-001	 4.473615251955685e+000	 9.194849998316986e+000
 4.454171445002333e-001	 4.477901692461161e+000	 9.167090044578703e+000
 4.043449705671096e-001	 4.481797088752095e+000	 9.138869456733531e+000
 8.233828121726124e-001	 4.449456792089316e+000	 9.331972911978303e+000
 7.813884173551501e-001	 4.457023349864672e+000	 9.317891290356883e+000
 7.394495453783545e-001	 4.464172865137007e+000	 9.304971969378293e+000
 6.975717969225731e-001	 4.470908027246774e+000	 9.293206419935338e+000
 6.557606878470220e-001	 4.477231613421060e+000	 9.282575336650575e+000
 6.140216478098556e-001	 4.483146486113297e+000	 9.268881524267410e+000
 5.723600189753694e-001	 4.488655590329879e+000	 9.243814146336836e+000
 5.307810548077608e-001	 4.493761950946637e+000	 9.218551789496759e+000
 4.892899189508035e-001	 4.498468670018098e+000	 9.193044609807135e+000
 4.478916841926801e-001	 4.502778924082358e+000	 9.167225307679331e+000
 4.065913315151142e-001	 4.506695961464353e+000	 9.141009477522633e+000
 8.279318884821645e-001	 4.474039426297694e+000	 9.320707453288122e+000
 7.857054804340988e-001	 4.481647788259090e+000	 9.307145658213322e+000
 7.435349019826437e-001	 4.488836803615357e+000	 9.294717458784254e+000
 7.014257847511325e-001	 4.495609176565181e+000	 9.283415931689554e+000
 6.593836750731416e-001	 4.501967699679441e+000	 9.273223223588818e+000
 6.174140326049386e-001	 4.507915251226232e+000	 9.261477517080680e+000
 5.755222290255385e-001	 4.513454792482698e+000	 9.238173055207305e+000
 5.337135468238045e-001	 4.518589365036694e+000	 9.214731869382810e+000
 4.919931781719292e-001	 4.523322088081166e+000	 9.191108230060474e+000
 4.503662238845498e-001	 4.527656155704141e+000	 9.167238565586242e+000
 4.088376924626270e-001	 4.531594834177102e+000	 9.143041814370237e+000
 8.324809647917018e-001	 4.498622060506580e+000	 9.309306963135683e+000
 7.900225435128486e-001	 4.506272226654105e+000	 9.296308101432532e+000
 7.476202585865805e-001	 4.513500742094372e+000	 9.284417668403345e+000
 7.052797725792167e-001	 4.520310325884299e+000	 9.273630305756674e+000
 6.630066622986947e-001	 4.526703785938562e+000	 9.263929568077257e+000
 6.208064173993930e-001	 4.532684016339916e+000	 9.253960925101582e+000
 5.786844390750477e-001	 4.538253994636254e+000	 9.232410798370497e+000
 5.366460388391863e-001	 4.543416779127455e+000	 9.210787493062535e+000
 4.946964373924205e-001	 4.548175506144885e+000	 9.189049422258631e+000
 4.528407635758420e-001	 4.552533387326506e+000	 9.167136763579801e+000
 4.110840534096479e-001	 4.556493706890342e+000	 9.144971813976627e+000
 8.370300411012241e-001	 4.523204694715973e+000	 9.297767495066292e+000
 7.943396065913998e-001	 4.530896665049719e+000	 9.285374408332075e+000
 7.517056151901652e-001	 4.538164680574053e+000	 9.274068120796303e+000
 7.091337604068266e-001	 4.545011475204132e+000	 9.263844798579850e+000
 6.666296495236811e-001	 4.551439872198428e+000	 9.254689360236153e+000
 6.241988021932194e-001	 4.557452781454349e+000	 9.246345279642016e+000
 5.818466491238974e-001	 4.563053196790550e+000	 9.226539246997627e+000
 5.395785308539065e-001	 4.568244193218922e+000	 9.206728888657080e+000
 4.973996966122779e-001	 4.573028924209257e+000	 9.186876789480849e+000
 4.553153032665570e-001	 4.577410618949452e+000	 9.166926898580009e+000
 4.133304143561772e-001	 4.581392579604075e+000	 9.146804886816986e+000
 8.415791174107322e-001	 4.547787328925875e+000	 9.286085064797337e+000
 7.986566696697515e-001	 4.555521103445926e+000	 9.274340337474902e+000
 7.557909717933976e-001	 4.562828619054400e+000	 9.263664317288697e+000
 7.129877482339616e-001	 4.569712624524679e+000	 9.254054654324975e+000
 6.702526367481011e-001	 4.576175958459034e+000	 9.245497587297429e+000
 6.275911869864177e-001	 4.582221546569534e+000	 9.237968289233745e+000
 5.850088591720872e-001	 4.587852398945581e+000	 9.220570289410851e+000
 5.425110228679650e-001	 4.593071607311093e+000	 9.202566312073163e+000
 5.001029558315010e-001	 4.597882342274283e+000	 9.184598973625640e+000
 4.577898429566945e-001	 4.602287850572979e+000	 9.166616017750812e+000
 4.155767753022150e-001	 4.606291452318299e+000	 9.148546505417698e+000
 8.461281937202254e-001	 4.572369963136283e+000	 9.274255651235148e+000
 8.029737327479043e-001	 4.580145541842733e+000	 9.263201618469275e+000
 7.598763283962778e-001	 4.587492557535412e+000	 9.253201738541774e+000
 7.168417360606217e-001	 4.594413773845941e+000	 9.244255105210758e+000
 6.738756239719542e-001	 4.600912044720382e+000	 9.236349233682267e+000
 6.309835717789875e-001	 4.606990311685467e+000	 9.229460409864130e+000
 5.881710692196170e-001	 4.612651601101351e+000	 9.214515830622272e+000
 5.454435148813620e-001	 4.617899021403971e+000	 9.198310046256131e+000
 5.028062150500900e-001	 4.622735760339963e+000	 9.182224654367264e+000
 4.602643826462547e-001	 4.627165082197090e+000	 9.166211217149424e+000
 4.178231362477610e-001	 4.631190325033014e+000	 9.150202202688307e+000
 8.506772700297042e-001	 4.596952597347197e+000	 9.262275197459232e+000
 8.072907958258579e-001	 4.604769980240135e+000	 9.251953952742927e+000
 7.639616849988057e-001	 4.612156496017090e+000	 9.242675845104964e+000
 7.206957238868073e-001	 4.619114923167915e+000	 9.234441371828163e+000
 6.774986111952407e-001	 4.625648130982472e+000	 9.227239281076315e+000
 6.343759565709292e-001	 4.631759076802148e+000	 9.221046924831894e+000
 5.913332792664872e-001	 4.637450803257858e+000	 9.208387791887626e+000
 5.483760068940971e-001	 4.642726435497554e+000	 9.193970400466975e+000
 5.055094742680453e-001	 4.647589178406296e+000	 9.179762548145687e+000
 4.627389223352376e-001	 4.652042313821782e+000	 9.165719640419068e+000
 4.200694971928152e-001	 4.656089197748221e+000	 9.151777570307031e+000
 8.552263463391679e-001	 4.621535231558619e+000	 9.250139611675186e+000
 8.116078589036128e-001	 4.629394418638134e+000	 9.240593014292591e+000
 7.680470416009811e-001	 4.636820434499433e+000	 9.232082077950780e+000
 7.245497117125181e-001	 4.643816072490604e+000	 9.224608663449654e+000
 6.811215984179607e-001	 4.650384217245303e+000	 9.218162708502382e+000
 6.377683413622425e-001	 4.656527841919581e+000	 9.212722584473992e+000
 5.944954893126973e-001	 4.662250005415101e+000	 9.202198110274324e+000
 5.513084989061706e-001	 4.667553849591840e+000	 9.189557709582473e+000
 5.082127334853660e-001	 4.672442596473283e+000	 9.177221407188755e+000
 4.652134620236431e-001	 4.676919545447056e+000	 9.165148477523372e+000
 4.223158581373777e-001	 4.680988070463921e+000	 9.153278257157721e+000
 8.597754226486175e-001	 4.646117865770551e+000	 9.237844768137190e+000
 8.159249219811684e-001	 4.654018857036731e+000	 9.229114450409625e+000
 7.721323982028044e-001	 4.661484372982442e+000	 9.221415858992751e+000
 7.284036995377543e-001	 4.668517221814007e+000	 9.214752178328626e+000
 6.847445856401141e-001	 4.675120303508878e+000	 9.209114492390938e+000
 6.411607261529279e-001	 4.681296607037764e+000	 9.204482145341494e+000
 5.976576993582478e-001	 4.687049207573082e+000	 9.195958738243135e+000
 5.542409909175825e-001	 4.692381263686833e+000	 9.185082333417505e+000
 5.109159927020528e-001	 4.697296014540922e+000	 9.174610018565440e+000
 4.676880017114714e-001	 4.701796777072913e+000	 9.164504963520932e+000
 4.245622190814485e-001	 4.705886943180112e+000	 9.154709967816501e+000
 8.643244989580522e-001	 4.670700499982988e+000	 9.225386508041533e+000
 8.202419850585254e-001	 4.678643295435927e+000	 9.217513882382830e+000
 7.762177548042755e-001	 4.686148311466118e+000	 9.210672591586913e+000
 7.322576873625158e-001	 4.693218371138126e+000	 9.204867103989390e+000
 6.883675728617010e-001	 4.699856389773195e+000	 9.200089606648287e+000
 6.445531109429850e-001	 4.706065372156695e+000	 9.196320370036069e+000
 6.008199094031385e-001	 4.711848409731801e+000	 9.189681643243077e+000
 5.571734829283327e-001	 4.717208677782532e+000	 9.180554656068823e+000
 5.136192519181055e-001	 4.722149432609216e+000	 9.171937203268968e+000
 4.701625413987223e-001	 4.726674008699353e+000	 9.163796377378676e+000
 4.268085800250276e-001	 4.730785815896795e+000	 9.156078461086194e+000
 4.043449705671096e-001	 4.481797088752095e+000	 9.138869456733531e+000
 3.633749992293684e-001	 4.485304739916109e+000	 9.110575453466929e+000
 3.225119988439666e-001	 4.488428011073319e+000	 9.084392513333292e+000
 2.817606441259506e-001	 4.491170330705894e+000	 9.060161495740481e+000
 2.411255155271930e-001	 4.493535187995821e+000	 9.037706420460985e+000
 2.006110986943447e-001	 4.495526130174090e+000	 9.016835010818179e+000
 1.602217840038418e-001	 4.497146759883373e+000	 8.997339258686194e+000
 1.199618661725720e-001	 4.498400732556415e+000	 8.978996009425806e+000
 7.983554394276284e-002	 4.499291753812300e+000	 8.961567564887009e+000
 3.984691983959775e-002	 4.499823576872690e+000	 8.944802302622477e+000
 0.000000000000000e+000	 4.500000000000000e+000	 8.928435309474592e+000
 4.065913315151142e-001	 4.506695961464353e+000	 9.141009477522633e+000
 3.653937492251137e-001	 4.510223099579862e+000	 9.114911403174846e+000
 3.243037321705993e-001	 4.513363722244021e+000	 9.090959766856798e+000
 2.833259810372557e-001	 4.516121276986122e+000	 9.068996600493177e+000
 2.424651017239094e-001	 4.518499272372497e+000	 9.048846778577227e+000
 2.017256047974699e-001	 4.520501275340979e+000	 9.030318567041007e+000
 1.611119050253528e-001	 4.522130908548917e+000	 9.013204194436753e+000
 1.206283209839831e-001	 4.523391847737017e+000	 8.997280443521674e+000
 8.027907474193338e-002	 4.524287819111140e+000	 8.982309261346574e+000
 4.006829161619280e-002	 4.524822596744175e+000	 8.968038385961995e+000
 0.000000000000000e+000	 4.525000000000000e+000	 8.954201987874555e+000
 4.088376924626270e-001	 4.531594834177102e+000	 9.143041814370237e+000
 3.674124992204621e-001	 4.535141459244013e+000	 9.119127701212156e+000
 3.260954654969194e-001	 4.538299433415035e+000	 9.097401216678255e+000
 2.848913179483222e-001	 4.541072223266592e+000	 9.077705566622230e+000
 2.438046879204512e-001	 4.543463356749351e+000	 9.059866474993582e+000
 2.028401109004743e-001	 4.545476420507987e+000	 9.043692738528064e+000
 1.620020260467867e-001	 4.547115057214537e+000	 9.028976804253913e+000
 1.212947757953511e-001	 4.548382962917662e+000	 9.015495367875401e+000
 8.072260554108483e-002	 4.549283884409997e+000	 9.003009991103632e+000
 4.028966339278307e-002	 4.549821616615666e+000	 8.991267736017342e+000
 0.000000000000000e+000	 4.550000000000000e+000	 8.980001814555553e+000
 4.110840534096479e-001	 4.556493706890342e+000	 9.144971813976627e+000
 3.694312492154133e-001	 4.560059818908559e+000	 9.123228634362670e+000
 3.278871988229268e-001	 4.563235144586363e+000	 9.103720102785587e+000
 2.864566548591501e-001	 4.566023169547295e+000	 9.086290601032596e+000
 2.451442741168182e-001	 4.568427441126377e+000	 9.070766697801453e+000
 2.039546170033579e-001	 4.570451565675120e+000	 9.056957709347513e+000
 1.628921470681436e-001	 4.572099205880234e+000	 9.044656283458355e+000
 1.219612306066758e-001	 4.573374078098350e+000	 9.033639004786590e+000
 8.116613634021710e-002	 4.574279949708876e+000	 9.023667019579339e+000
 4.051103516936858e-002	 4.574820636487162e+000	 9.014486677855965e+000
 0.000000000000000e+000	 4.574999999999999e+000	 9.005830191104662e+000
 4.133304143561772e-001	 4.581392579604075e+000	 9.146804886816986e+000
 3.714499992099677e-001	 4.584978178573502e+000	 9.127218554432220e+000
 3.296789321486217e-001	 4.588170855758004e+000	 9.109919731980314e+000
 2.880219917697396e-001	 4.590974115828240e+000	 9.094753979772715e+000
 2.464838603130108e-001	 4.593391525503579e+000	 9.081548707097499e+000
 2.050691231061205e-001	 4.595426710842369e+000	 9.070113738959750e+000
 1.637822680894234e-001	 4.597083354546010e+000	 9.060241906668617e+000
 1.226276854179574e-001	 4.598365193279084e+000	 9.051709660270037e+000
 8.160966713933031e-002	 4.599276015007772e+000	 9.044277700831902e+000
 4.073240694594931e-002	 4.599819656358660e+000	 9.037691630601579e+000
 0.000000000000000e+000	 4.600000000000000e+000	 9.031682619074474e+000
 4.155767753022150e-001	 4.606291452318299e+000	 9.148546505417698e+000
 3.734687492041253e-001	 4.609896538238842e+000	 9.131101876491311e+000
 3.314706654740040e-001	 4.613106566929956e+000	 9.116003476071764e+000
 2.895873286800905e-001	 4.615925062109422e+000	 9.103098046165677e+000
 2.478234465090286e-001	 4.618355609880955e+000	 9.092213833037384e+000
 2.061836292087624e-001	 4.620401856009741e+000	 9.083161160179737e+000
 1.646723891106261e-001	 4.622067503211863e+000	 9.075733025657906e+000
 1.232941402291957e-001	 4.623356308459859e+000	 9.069705721793111e+000
 8.205319793842432e-002	 4.624272080306686e+000	 9.064839475160994e+000
 4.095377872252528e-002	 4.624818676230165e+000	 9.060879104892146e+000
 0.000000000000000e+000	 4.624999999999999e+000	 9.057554697281278e+000
 4.178231362477610e-001	 4.631190325033014e+000	 9.150202202688307e+000
 3.754874991978857e-001	 4.634814897904579e+000	 9.134883077174393e+000
 3.332623987990737e-001	 4.638042278102219e+000	 9.121974770129562e+000
 2.911526655902029e-001	 4.640876008390843e+000	 9.111325209000800e+000
 2.491630327048718e-001	 4.643319694258506e+000	 9.102763473952562e+000
 2.072981353112834e-001	 4.645377001177234e+000	 9.096100377205163e+000
 1.655625101317517e-001	 4.647051651877790e+000	 9.091129067280042e+000
 1.239605950403908e-001	 4.648347423640677e+000	 9.087625656086182e+000
 8.249672873749922e-002	 4.649268145605621e+000	 9.085349866789404e+000
 4.117515049909649e-002	 4.649817696101675e+000	 9.084045700419772e+000
 0.000000000000000e+000	 4.650000000000000e+000	 9.083442119190517e+000
 4.200694971928152e-001	 4.656089197748221e+000	 9.151777570307031e+000
 3.775062491912493e-001	 4.659733257570714e+000	 9.138566693033845e+000
 3.350541321238309e-001	 4.662977989274798e+000	 9.127837110792154e+000
 2.927180025000769e-001	 4.665826954672504e+000	 9.119437940783238e+000
 2.505026189005404e-001	 4.668283778636232e+000	 9.113199094527378e+000
 2.084126414136835e-001	 4.670352146344848e+000	 9.108931863707724e+000
 1.664526311528003e-001	 4.672035800543796e+000	 9.106429531461972e+000
 1.246270498515428e-001	 4.673338538821540e+000	 9.105468007023287e+000
 8.294025953655498e-002	 4.674264210904576e+000	 9.105806481619149e+000
 4.139652227566294e-002	 4.674816715973188e+000	 9.107188103549630e+000
 0.000000000000000e+000	 4.675000000000000e+000	 9.109340670385979e+000
 4.223158581373777e-001	 4.680988070463921e+000	 9.153278257157721e+000
 3.795249991842159e-001	 4.684651617237246e+000	 9.142157318946371e+000
 3.368458654482753e-001	 4.687913700447686e+000	 9.133594054629377e+000
 2.942833394097122e-001	 4.690777900954401e+000	 9.127438776039313e+000
 2.518422050960344e-001	 4.693247863014131e+000	 9.123522224034348e+000
 2.095271475159629e-001	 4.695327291512582e+000	 9.121656160985522e+000
 1.673427521737718e-001	 4.697019949209878e+000	 9.121633989260300e+000
 1.252935046626515e-001	 4.698329654002444e+000	 9.123231393570460e+000
 8.338379033559164e-002	 4.699260276203551e+000	 9.126207005059085e+000
 4.161789405222462e-002	 4.699815735844708e+000	 9.130303085014774e+000
 0.000000000000000e+000	 4.699999999999999e+000	 9.135246226119902e+000
 4.245622190814485e-001	 4.705886943180112e+000	 9.154709967816501e+000
 3.815437491767854e-001	 4.709569976904174e+000	 9.145659606570030e+000
 3.386375987724072e-001	 4.712849411620889e+000	 9.139249216556957e+000
 2.958486763191092e-001	 4.715728847236538e+000	 9.135330309675839e+000
 2.531817912913537e-001	 4.718211947392206e+000	 9.133734454625492e+000
 2.106416536181213e-001	 4.720302436680438e+000	 9.134273876173920e+000
 1.682328731946662e-001	 4.722004097876039e+000	 9.136742080979619e+000
 1.259599594737171e-001	 4.723320769183392e+000	 9.140914507799110e+000
 8.382732113460913e-002	 4.724256341502541e+000	 9.146549199921612e+000
 4.183926582878153e-002	 4.724814755716230e+000	 9.153387497684205e+000
 0.000000000000000e+000	 4.725000000000000e+000	 9.161154748940797e+000
 4.268085800250276e-001	 4.730785815896795e+000	 9.156078461086194e+000
 3.835624991689582e-001	 4.734488336571500e+000	 9.149078262850004e+000
 3.404293320962267e-001	 4.737785122794405e+000	 9.144806268301062e+000
 2.974140132282676e-001	 4.740679793518913e+000	 9.143115195391101e+000
 2.545213774864985e-001	 4.743176031770457e+000	 9.143837439677590e+000
 2.117561597201589e-001	 4.745277581848414e+000	 9.146785680513014e+000
 1.691229942154836e-001	 4.746988246542276e+000	 9.151753514350105e+000
 1.266264142847394e-001	 4.748311884364385e+000	 9.158516112962300e+000
 8.427085193360755e-002	 4.749252406801554e+000	 9.166830904385730e+000
 4.206063760533369e-002	 4.749813775587760e+000	 9.176438274401434e+000
 0.000000000000000e+000	 4.750000000000000e+000	 9.187062286396103e+000
 4.750000000000000e+000	 0.000000000000000e+000	 1.037317220914808e+001
 4.749813775587761e+000	 4.206063760533384e-002	 1.037863407091587e+001
 4.749252406801552e+000	 8.427085193360784e-002	 1.038297991930411e+001
 4.748311884364385e+000	 1.266264142847391e-001	 1.038627404897638e+001
 4.746988246542277e+000	 1.691229942154834e-001	 1.038858875448188e+001
 4.745277581848414e+000	 2.117561597201589e-001	 1.039000441769181e+001
 4.743176031770457e+000	 2.545213774864986e-001	 1.039060958125666e+001
 4.740679793518913e+000	 2.974140132282679e-001	 1.039050100742387e+001
 4.737785122794405e+000	 3.404293320962264e-001	 1.038978372156962e+001
 4.734488336571500e+000	 3.835624991689580e-001	 1.038857103981357e+001
 4.730785815896796e+000	 4.268085800250276e-001	 1.038698458010548e+001
 4.775000000000001e+000	 0.000000000000000e+000	 1.036320151223272e+001
 4.774812795459289e+000	 4.228200938188836e-002	 1.036907303212865e+001
 4.774248472100565e+000	 8.471438273261578e-002	 1.037389142542557e+001
 4.773302999545376e+000	 1.272928690957831e-001	 1.037772198296433e+001
 4.771972395208514e+000	 1.700131152363393e-001	 1.038063805532733e+001
 4.770252727016390e+000	 2.128706658222569e-001	 1.038272114010838e+001
 4.768140116148707e+000	 2.558609636817307e-001	 1.038406095501926e+001
 4.765630739801289e+000	 2.989793501375455e-001	 1.038475549616581e+001
 4.762720833967920e+000	 3.422210654202020e-001	 1.038491108083970e+001
 4.759406696238825e+000	 3.855812491613292e-001	 1.038464237418907e+001
 4.755684688613478e+000	 4.290549409688527e-001	 1.038407239914988e+001
 4.800000000000001e+000	 0.000000000000000e+000	 1.035380700268694e+001
 4.799811815330812e+000	 4.250338115845243e-002	 1.036001507638627e+001
 4.799244537399557e+000	 8.515791353166197e-002	 1.036523009009413e+001
 4.798294114726322e+000	 1.279593239069134e-001	 1.036951835025689e+001
 4.796956543874674e+000	 1.709032362573494e-001	 1.037295428591801e+001
 4.795227872184246e+000	 2.139851719245966e-001	 1.037562053586271e+001
 4.793104200526780e+000	 2.572005498773120e-001	 1.037760802141203e+001
 4.790581686083425e+000	 3.005446870473001e-001	 1.037901600419145e+001
 4.787656545141124e+000	 3.440127987448029e-001	 1.037995212821343e+001
 4.784325055905753e+000	 3.875999991544943e-001	 1.038053244563026e+001
 4.780583561329669e+000	 4.313013019136611e-001	 1.038088142553260e+001
 4.825000000000000e+000	 0.000000000000000e+000	 1.034497565482813e+001
 4.824810835202331e+000	 4.272475293502601e-002	 1.035144727261319e+001
 4.824240602698530e+000	 8.560144433074646e-002	 1.035698308374186e+001
 4.823285229907229e+000	 1.286257787181301e-001	 1.036165042984398e+001
 4.821940692540756e+000	 1.717933572785135e-001	 1.036552484100616e+001
 4.820203017351980e+000	 2.150996780271781e-001	 1.036869012283294e+001
 4.818068284904680e+000	 2.585401360732425e-001	 1.037123842896612e+001
 4.815532632365324e+000	 3.021100239575318e-001	 1.037327031838029e+001
 4.812592256314012e+000	 3.458045320700288e-001	 1.037489479678658e+001
 4.809243415572285e+000	 3.896187491484532e-001	 1.037622934149409e+001
 4.805482434045368e+000	 4.335476628594529e-001	 1.037739990909797e+001
 4.850000000000000e+000	 0.000000000000000e+000	 1.033669471154448e+001
 4.849809855073845e+000	 4.294612471160915e-002	 1.034335694722653e+001
 4.849236667997485e+000	 8.604497512986921e-002	 1.034913782280351e+001
 4.848276345088090e+000	 1.292922335294333e-001	 1.035410573481608e+001
 4.846924841206762e+000	 1.726834782998319e-001	 1.035833733713059e+001
 4.845178162519593e+000	 2.162141841300012e-001	 1.036191762795803e+001
 4.843032369282406e+000	 2.598797222695223e-001	 1.036494002213661e+001
 4.840483578646983e+000	 3.036753608682405e-001	 1.036750640798843e+001
 4.837527967486590e+000	 3.475962653958800e-001	 1.036972718807478e+001
 4.834161775238419e+000	 3.916374991432062e-001	 1.037172130319249e+001
 4.830381306760575e+000	 4.357940238062281e-001	 1.037361623897367e+001
 4.875000000000000e+000	 0.000000000000000e+000	 1.032895167740849e+001
 4.874808874945352e+000	 4.316749648820179e-002	 1.033573167753365e+001
 4.874232733296419e+000	 8.648850592903019e-002	 1.034168196340868e+001
 4.873267460268909e+000	 1.299586883408228e-001	 1.034687200636169e+001
 4.871908989872691e+000	 1.735735993213043e-001	 1.035137960692981e+001
 4.870153307687087e+000	 2.173286902330660e-001	 1.035529098187719e+001
 4.867996453659956e+000	 2.612193084661514e-001	 1.035870083627879e+001
 4.865434524928405e+000	 3.052406977794263e-001	 1.036171241997226e+001
 4.862463678658855e+000	 3.493879987223564e-001	 1.036443756769507e+001
 4.859080134904157e+000	 3.936562491387530e-001	 1.036699672224218e+001
 4.855280179475290e+000	 4.380403847539867e-001	 1.036951893999935e+001
 4.900000000000000e+000	 0.000000000000000e+000	 1.032173431200139e+001
 4.899807894816859e+000	 4.338886826480400e-002	 1.032855928533201e+001
 4.899228798595335e+000	 8.693203672822945e-002	 1.033460339526720e+001
 4.898258575449684e+000	 1.306251431522988e-001	 1.033993720794849e+001
 4.896893138538543e+000	 1.744637203429310e-001	 1.034463969362927e+001
 4.895128452854458e+000	 2.184431963363725e-001	 1.034879831373349e+001
 4.892960538037332e+000	 2.625588946631297e-001	 1.035250909277827e+001
 4.890385471209588e+000	 3.068060346910890e-001	 1.035587667445521e+001
 4.887399389830808e+000	 3.511797320494579e-001	 1.035901436117963e+001
 4.883998494569497e+000	 3.956749991350937e-001	 1.036204413643554e+001
 4.880179052189514e+000	 4.402867457027287e-001	 1.036509666926460e+001
 4.925000000000000e+000	 0.000000000000000e+000	 1.031503062344085e+001
 4.924806914688357e+000	 4.361024004141571e-002	 1.032182783070365e+001
 4.924224863894231e+000	 8.737556752746696e-002	 1.032789023574071e+001
 4.923249690630416e+000	 1.312915979638611e-001	 1.033328951968172e+001
 4.921877287204318e+000	 1.753538413647117e-001	 1.033810584569658e+001
 4.920103598021710e+000	 2.195577024399207e-001	 1.034242794613566e+001
 4.917924622414534e+000	 2.638984808604573e-001	 1.034635319432938e+001
 4.915336417490530e+000	 3.083713716032288e-001	 1.034998766033274e+001
 4.912335101002447e+000	 3.529714653771846e-001	 1.035344614991700e+001
 4.908916854234440e+000	 3.976937491322283e-001	 1.035685222612795e+001
 4.905077924903247e+000	 4.425331066524542e-001	 1.036033821275237e+001
 4.949999999999999e+000	 0.000000000000000e+000	 1.030882886210478e+001
 4.949805934559854e+000	 4.383161181803696e-002	 1.031552560599812e+001
 4.949220929193109e+000	 8.781909832674277e-002	 1.032153082409381e+001
 4.948240805811104e+000	 1.319580527755098e-001	 1.032691733283358e+001
 4.946861435870015e+000	 1.762439623866466e-001	 1.033176651165851e+001
 4.945078743188839e+000	 2.206722085437106e-001	 1.033616839027260e+001
 4.942888706791562e+000	 2.652380670581341e-001	 1.034022172035665e+001
 4.940287363771237e+000	 3.099367085158457e-001	 1.034403403101039e+001
 4.937270812173773e+000	 3.547631987055365e-001	 1.034772166721636e+001
 4.933835213898987e+000	 3.997124991301568e-001	 1.035140981063777e+001
 4.929976797616488e+000	 4.447794676031630e-001	 1.035523248208403e+001
 4.975000000000000e+000	 0.000000000000000e+000	 1.030311751454438e+001
 4.974804954431343e+000	 4.405298359466774e-002	 1.030964112999640e+001
 4.974216994491966e+000	 8.826262912605680e-002	 1.031551371591869e+001
 4.973231920991751e+000	 1.326245075872450e-001	 1.032080924453746e+001
 4.971845584535635e+000	 1.771340834087357e-001	 1.032561033507451e+001
 4.970053888355849e+000	 2.217867146477423e-001	 1.033000834117520e+001
 4.967852791168413e+000	 2.665776532561602e-001	 1.033410342257445e+001
 4.965238310051703e+000	 3.115020454289394e-001	 1.033800460027035e+001
 4.962206523344788e+000	 3.565549320345135e-001	 1.034182979449041e+001
 4.958753573563137e+000	 4.017312491288793e-001	 1.034570584475479e+001
 4.954875670329236e+000	 4.470258285548553e-001	 1.034976851136271e+001
 5.000000000000000e+000	 0.000000000000000e+000	 1.029788529757984e+001
 4.999803974302830e+000	 4.427435537130806e-002	 1.030416314225029e+001
 4.999213059790807e+000	 8.870615992540913e-002	 1.030982767772688e+001
 4.998223036172354e+000	 1.332909623990665e-001	 1.031495405264146e+001
 4.996829733201179e+000	 1.780242044309789e-001	 1.031962614966082e+001
 4.995029033522738e+000	 2.229012207520156e-001	 1.032393667312026e+001
 4.992816875545091e+000	 2.679172394545357e-001	 1.032798722067960e+001
 4.990189256331933e+000	 3.130673823425104e-001	 1.033188833826203e+001
 4.987142234515491e+000	 3.583466653641159e-001	 1.033575955755273e+001
 4.983671933226891e+000	 4.037499991283957e-001	 1.033972941535345e+001
 4.979774543041494e+000	 4.492721895075311e-001	 1.034393545411117e+001
 4.730785815896796e+000	 4.268085800250276e-001	 1.038698458010548e+001
 4.726674008699353e+000	 4.701625413987225e-001	 1.038892947689479e+001
 4.722149432609216e+000	 5.136192519181058e-001	 1.039083081161899e+001
 4.717208677782531e+000	 5.571734829283322e-001	 1.039280146775945e+001
 4.711848409731801e+000	 6.008199094031381e-001	 1.039496180054668e+001
 4.706065372156695e+000	 6.445531109429850e-001	 1.040021684906886e+001
 4.699856389773195e+000	 6.883675728617011e-001	 1.040862013343245e+001
 4.693218371138125e+000	 7.322576873625162e-001	 1.041656322087076e+001
 4.686148311466118e+000	 7.762177548042752e-001	 1.042415440598816e+001
 4.678643295435926e+000	 8.202419850585251e-001	 1.043150322708349e+001
 4.670700499982989e+000	 8.643244989580522e-001	 1.043872072690602e+001
 4.755684688613478e+000	 4.290549409688527e-001	 1.038407239914988e+001
 4.751551240325787e+000	 4.726370810862668e-001	 1.038639390593464e+001
 4.747002850677490e+000	 5.163225111344948e-001	 1.038863176735135e+001
 4.742036091878186e+000	 5.601059749394566e-001	 1.039090254612343e+001
 4.736647611890442e+000	 6.039821194484362e-001	 1.039333046445885e+001
 4.730834137275503e+000	 6.479454957334772e-001	 1.039884535503551e+001
 4.724592476037334e+000	 6.919905600837464e-001	 1.040661411992704e+001
 4.717919520462004e+000	 7.361116751877541e-001	 1.041395032225110e+001
 4.710812249949480e+000	 7.803031114062359e-001	 1.042096057205522e+001
 4.703267733834722e+000	 8.245590481363794e-001	 1.042775269201062e+001
 4.695283134194934e+000	 8.688735752679868e-001	 1.043443598510903e+001
 4.780583561329669e+000	 4.313013019136611e-001	 1.038088142553260e+001
 4.776428471951631e+000	 4.751116207749754e-001	 1.038354548052827e+001
 4.771856268745071e+000	 5.190257703521903e-001	 1.038608472648719e+001
 4.766863505973048e+000	 5.630384669519912e-001	 1.038861944317142e+001
 4.761446814048191e+000	 6.071443294952085e-001	 1.039127775981490e+001
 4.755602902393323e+000	 6.513378805254688e-001	 1.039694722366714e+001
 4.749328562300383e+000	 6.956135473072753e-001	 1.040415502215074e+001
 4.742620669784687e+000	 7.399656630144201e-001	 1.041095812867212e+001
 4.735476188431549e+000	 7.843884680095280e-001	 1.041746137276737e+001
 4.727892172232125e+000	 8.288761112154274e-001	 1.042377076406259e+001
 4.719865768405383e+000	 8.734226515789357e-001	 1.042999376703521e+001
 4.805482434045368e+000	 4.335476628594529e-001	 1.037739990909797e+001
 4.801305703576881e+000	 4.775861604648483e-001	 1.038037159547714e+001
 4.796709686811962e+000	 5.217290295711926e-001	 1.038317621552584e+001
 4.791690920067119e+000	 5.659709589659360e-001	 1.038593780423728e+001
 4.786246016205046e+000	 6.103065395434554e-001	 1.038878843833468e+001
 4.780371667510148e+000	 6.547302653189593e-001	 1.039453304945475e+001
 4.774064648562337e+000	 6.992365345322879e-001	 1.040125442071383e+001
 4.767321819106181e+000	 7.438196508425139e-001	 1.040759920436785e+001
 4.760140126912325e+000	 7.884738246141514e-001	 1.041367035270577e+001
 4.752516610628136e+000	 8.331931742956691e-001	 1.041957196410041e+001
 4.744448402614344e+000	 8.779717278908998e-001	 1.042540956495915e+001
 4.830381306760575e+000	 4.357940238062281e-001	 1.037361623897367e+001
 4.826182935201540e+000	 4.800607001558854e-001	 1.037685979084299e+001
 4.821563104878160e+000	 5.244322887915016e-001	 1.037989291225155e+001
 4.816518334160396e+000	 5.689034509812907e-001	 1.038284343201018e+001
 4.811045218361012e+000	 6.134687495931764e-001	 1.038584741520765e+001
 4.805140432625982e+000	 6.581226501139490e-001	 1.039161359651511e+001
 4.798800734823201e+000	 7.028595217587843e-001	 1.039792407204809e+001
 4.792022968426482e+000	 7.476736386720355e-001	 1.040388629562726e+001
 4.784804065391810e+000	 7.925591812201062e-001	 1.040960124477520e+001
 4.777141049022752e+000	 8.375102373771044e-001	 1.041517100761056e+001
 4.769031036821811e+000	 8.825208042038785e-001	 1.042069907211351e+001
 4.855280179475290e+000	 4.380403847539867e-001	 1.036951893999935e+001
 4.851060166825605e+000	 4.825352398480867e-001	 1.037299774822311e+001
 4.846416522943666e+000	 5.271355480131171e-001	 1.037622164185430e+001
 4.841345748252882e+000	 5.718359429980557e-001	 1.037932228249989e+001
 4.835844420516085e+000	 6.166309596443722e-001	 1.038243976490141e+001
 4.829909197740824e+000	 6.615150349104378e-001	 1.038819979424137e+001
 4.823536821082973e+000	 7.064825089867645e-001	 1.039417590389869e+001
 4.816724117745589e+000	 7.515276265029854e-001	 1.039983232612619e+001
 4.809468003870002e+000	 7.966445378273926e-001	 1.040526796537531e+001
 4.801765487415977e+000	 8.418273004597336e-001	 1.041058279971458e+001
 4.793613671027784e+000	 8.870698805178717e-001	 1.041587817753621e+001
 4.880179052189514e+000	 4.402867457027287e-001	 1.036509666926460e+001
 4.875937398449081e+000	 4.850097795414525e-001	 1.036877328713985e+001
 4.871269941008482e+000	 5.298388072360395e-001	 1.037214937316951e+001
 4.866173162344577e+000	 5.747684350162309e-001	 1.037536046112550e+001
 4.860643622670264e+000	 6.197931696970424e-001	 1.037855071709843e+001
 4.854677962854673e+000	 6.649074197084256e-001	 1.038430273308686e+001
 4.848272907341651e+000	 7.101054962162283e-001	 1.039002201095385e+001
 4.841425267063504e+000	 7.553816143353630e-001	 1.039545039240214e+001
 4.834131942346900e+000	 8.007298944360103e-001	 1.040068460971957e+001
 4.826389925807810e+000	 8.461443635435569e-001	 1.040582243033146e+001
 4.818196305232266e+000	 8.916189568328796e-001	 1.041096296107549e+001
 4.905077924903247e+000	 4.425331066524542e-001	 1.036033821275237e+001
 4.900814630071965e+000	 4.874843192359823e-001	 1.036417436153988e+001
 4.896123359072603e+000	 5.325420664602684e-001	 1.036766321503217e+001
 4.891000576435481e+000	 5.777009270358166e-001	 1.037094421892336e+001
 4.885442824823554e+000	 6.229553797511870e-001	 1.037416565275663e+001
 4.879446727967530e+000	 6.682998045079126e-001	 1.037993366047723e+001
 4.873008993599238e+000	 7.137284834471758e-001	 1.038547465060778e+001
 4.866126416380227e+000	 7.592356021691689e-001	 1.039075375946698e+001
 4.858795880822505e+000	 8.048152510459594e-001	 1.039586544729690e+001
 4.851014364198249e+000	 8.504614266285735e-001	 1.040090516948729e+001
 4.842778939435253e+000	 8.961680331489021e-001	 1.040596968854689e+001
 4.929976797616488e+000	 4.447794676031630e-001	 1.035523248208403e+001
 4.925691861694258e+000	 4.899588589316765e-001	 1.035918905639972e+001
 4.920976777136034e+000	 5.352453256858037e-001	 1.036275041274154e+001
 4.915827990525591e+000	 5.806334190568120e-001	 1.036605994886982e+001
 4.910242026975950e+000	 6.261175898068060e-001	 1.036933763032082e+001
 4.904215493079395e+000	 6.716921893088987e-001	 1.037510397684651e+001
 4.897745079855732e+000	 7.173514706796073e-001	 1.038054623885189e+001
 4.890827565695758e+000	 7.630895900044026e-001	 1.038575585655249e+001
 4.883459819296819e+000	 8.089006076572398e-001	 1.039082491747072e+001
 4.875638802587297e+000	 8.547784897147842e-001	 1.039584646276722e+001
 4.867361573636751e+000	 9.007171094659396e-001	 1.040091480703720e+001
 4.954875670329236e+000	 4.470258285548553e-001	 1.034976851136271e+001
 4.950569093315958e+000	 4.924333986285350e-001	 1.035380558443347e+001
 4.945830195198775e+000	 5.379485849126460e-001	 1.035739834463237e+001
 4.940655404614911e+000	 5.835659110792179e-001	 1.036069418231492e+001
 4.935041229127454e+000	 6.292797998638995e-001	 1.036410891280993e+001
 4.928984258190267e+000	 6.750845741113840e-001	 1.036982523179271e+001
 4.922481166111133e+000	 7.209744579135221e-001	 1.037524934629001e+001
 4.915528715010096e+000	 7.669435778410640e-001	 1.038047027298428e+001
 4.908123757769840e+000	 8.129859642698519e-001	 1.038557762521084e+001
 4.900263240974951e+000	 8.590955528021886e-001	 1.039066192690427e+001
 4.891944207836753e+000	 9.052661857839915e-001	 1.039581494034985e+001
 4.979774543041494e+000	 4.492721895075311e-001	 1.034393545411117e+001
 4.975446324937067e+000	 4.949079383265578e-001	 1.034801228289942e+001
 4.970683613260823e+000	 5.406518441407948e-001	 1.035159451874902e+001
 4.965482818703437e+000	 5.864984031030339e-001	 1.035483358552308e+001
 4.959840431278067e+000	 6.324420099224676e-001	 1.035836153985631e+001
 4.953753023300148e+000	 6.784769589153683e-001	 1.036410912034868e+001
 4.947217252365444e+000	 7.245974451489210e-001	 1.036959669427296e+001
 4.940229864323243e+000	 7.707975656791538e-001	 1.037491075417939e+001
 4.932787696241570e+000	 8.170713208837953e-001	 1.038013833695316e+001
 4.924887679361214e+000	 8.634126158907869e-001	 1.038536734550076e+001
 4.916526842035265e+000	 9.098152621030583e-001	 1.039068688458703e+001
 4.670700499982989e+000	 8.643244989580522e-001	 1.043872072690602e+001
 4.662317197074184e+000	 9.084593298371435e-001	 1.044248129424436e+001
 4.653490756464190e+000	 9.526404251647136e-001	 1.044652619636250e+001
 4.644218648428491e+000	 9.968616482696640e-001	 1.045106476395326e+001
 4.634498446467842e+000	 1.041116780158473e+000	 1.045631034080674e+001
 4.624327829983526e+000	 1.085399521425691e+000	 1.046248052417570e+001
 4.613704586919089e+000	 1.129703494256913e+000	 1.046979740911901e+001
 4.602626616365184e+000	 1.174022244523953e+000	 1.047848783600346e+001
 4.591091931124016e+000	 1.218349243971801e+000	 1.048878364029503e+001
 4.579098660229949e+000	 1.262677892496843e+000	 1.049770008626029e+001
 4.566645051422785e+000	 1.307001520515620e+000	 1.049961199366709e+001
 4.695283134194934e+000	 8.688735752679868e-001	 1.043443598510903e+001
 4.686855708638989e+000	 9.132406947316664e-001	 1.043927545048545e+001
 4.677982813078237e+000	 9.576543221407282e-001	 1.044439980179329e+001
 4.668661904473816e+000	 1.002108288525803e+000	 1.045000157627318e+001
 4.658890543555444e+000	 1.046596342161823e+000	 1.045627709912820e+001
 4.648666397510717e+000	 1.091112150488570e+000	 1.046342674274638e+001
 4.637987242640787e+000	 1.135649302124196e+000	 1.047165519062117e+001
 4.626850966978887e+000	 1.180201308971414e+000	 1.048117170512714e+001
 4.615255572868284e+000	 1.224761608415978e+000	 1.049219039825779e+001
 4.603199179496159e+000	 1.269323565616884e+000	 1.050053766084693e+001
 4.590680025379892e+000	 1.313880475887600e+000	 1.050398513920984e+001
 4.719865768405383e+000	 8.734226515789357e-001	 1.042999376703521e+001
 4.711394220202210e+000	 9.180220596270136e-001	 1.043569700638068e+001
 4.702474869690624e+000	 9.626682191173959e-001	 1.044168477986164e+001
 4.693105160517438e+000	 1.007354928782444e+000	 1.044813284501221e+001
 4.683282640641308e+000	 1.052075904165542e+000	 1.045522052325710e+001
 4.673004965036161e+000	 1.096824779551707e+000	 1.046313097807483e+001
 4.662269898360744e+000	 1.141595109991644e+000	 1.047205149857976e+001
 4.651075317590875e+000	 1.186380373418968e+000	 1.048217378765733e+001
 4.639419214610887e+000	 1.231173972860196e+000	 1.049369425373504e+001
 4.627299698760771e+000	 1.275969238736935e+000	 1.050157116015355e+001
 4.614714999335491e+000	 1.320759431259581e+000	 1.050629759049312e+001
 4.744448402614344e+000	 8.779717278908998e-001	 1.042540956495915e+001
 4.735932731763849e+000	 9.228034245231848e-001	 1.043176691038283e+001
 4.726966926301361e+000	 9.676821160947169e-001	 1.043840753875455e+001
 4.717548416559353e+000	 1.012601569039586e+000	 1.044549043902963e+001
 4.707674737725433e+000	 1.057555466169631e+000	 1.045317794101154e+001
 4.697343532559855e+000	 1.102537408615102e+000	 1.046163601254149e+001
 4.686552554078959e+000	 1.147540917859256e+000	 1.047103456282844e+001
 4.675299668201152e+000	 1.192559437866616e+000	 1.048154775103211e+001
 4.663582856351827e+000	 1.237586337304456e+000	 1.049335429915555e+001
 4.651400218023791e+000	 1.282614911856996e+000	 1.050083786642245e+001
 4.638749973289582e+000	 1.327638386631561e+000	 1.050659130435269e+001
 4.769031036821811e+000	 8.825208042038785e-001	 1.042069907211351e+001
 4.760471243323902e+000	 9.275847894201803e-001	 1.042750622567747e+001
 4.751458982910444e+000	 9.726960130726908e-001	 1.043459451498548e+001
 4.741991672599561e+000	 1.017848209297229e+000	 1.044210616895840e+001
 4.732066834807823e+000	 1.063035028174090e+000	 1.045018653531944e+001
 4.721682100081798e+000	 1.108250037678753e+000	 1.045898439689717e+001
 4.710835209795434e+000	 1.153486725727034e+000	 1.046865229479268e+001
 4.699524018809713e+000	 1.198738502314355e+000	 1.047934685750007e+001
 4.687746498091099e+000	 1.243998701748758e+000	 1.049122913501200e+001
 4.675500737285211e+000	 1.289260584977068e+000	 1.049837448328551e+001
 4.662784947242169e+000	 1.334517342003541e+000	 1.050490757244975e+001
 4.793613671027784e+000	 8.870698805178717e-001	 1.041587817753621e+001
 4.785009754882376e+000	 9.323661543180003e-001	 1.042293612724102e+001
 4.775951039517873e+000	 9.777099100513179e-001	 1.043027217266792e+001
 4.766434928638065e+000	 1.023094849555374e+000	 1.043801178869821e+001
 4.756458931888474e+000	 1.068514590178917e+000	 1.044628334793363e+001
 4.746020667601993e+000	 1.113962666742662e+000	 1.045521845620234e+001
 4.735117865510166e+000	 1.159432533594977e+000	 1.046495229565393e+001
 4.723748369416560e+000	 1.204917566762189e+000	 1.047562397450980e+001
 4.711910139828708e+000	 1.250411066193100e+000	 1.048732682582818e+001
 4.699601256545038e+000	 1.295906258097151e+000	 1.049421715060031e+001
 4.686819921193249e+000	 1.341396297375522e+000	 1.050128703832669e+001
 4.818196305232266e+000	 8.916189568328796e-001	 1.041096296107549e+001
 4.809548266439266e+000	 9.371475192166445e-001	 1.041807789898901e+001
 4.800443096123647e+000	 9.827238070305986e-001	 1.042546700281143e+001
 4.790878184674864e+000	 1.028341489814021e+000	 1.043323899686270e+001
 4.780851028967387e+000	 1.073994152184114e+000	 1.044150528303330e+001
 4.770359235120436e+000	 1.119675295806828e+000	 1.045038029558446e+001
 4.759400521223157e+000	 1.165378341463086e+000	 1.045998186426414e+001
 4.747972720021696e+000	 1.211096631210116e+000	 1.047043158478137e+001
 4.736073781564651e+000	 1.256823430637485e+000	 1.048115341037105e+001
 4.723701775803269e+000	 1.302551931217243e+000	 1.048840145883220e+001
 4.710854895142822e+000	 1.348275252747503e+000	 1.049576971394075e+001
 4.842778939435253e+000	 8.961680331489021e-001	 1.040596968854689e+001
 4.834086777994573e+000	 9.419288841161130e-001	 1.041295293101110e+001
 4.824935152727766e+000	 9.877377040105320e-001	 1.042020552263891e+001
 4.815321440709956e+000	 1.033588130073170e+000	 1.042781943818266e+001
 4.805243126044563e+000	 1.079473714189681e+000	 1.043588911071565e+001
 4.794697802637132e+000	 1.125387924871252e+000	 1.044451180582012e+001
 4.783683176934406e+000	 1.171324149331358e+000	 1.045378800481902e+001
 4.772197070625118e+000	 1.217275695658136e+000	 1.046382179607093e+001
 4.760237423298931e+000	 1.263235795081910e+000	 1.047359222621227e+001
 4.747802295059902e+000	 1.309197604337347e+000	 1.048096246299821e+001
 4.734889869090889e+000	 1.355154208119483e+000	 1.048839499569409e+001
 4.867361573636751e+000	 9.007171094659396e-001	 1.040091480703720e+001
 4.858625289548295e+000	 9.467102490164057e-001	 1.040758271688985e+001
 4.849427209330234e+000	 9.927516009911185e-001	 1.041451427492472e+001
 4.839764696743343e+000	 1.038834770332819e+000	 1.042178470486675e+001
 4.829635223120001e+000	 1.084953276195618e+000	 1.042947147038187e+001
 4.819036370152078e+000	 1.131100553935933e+000	 1.043765466874785e+001
 4.807965832643914e+000	 1.177269957199797e+000	 1.044641743429889e+001
 4.796421421226826e+000	 1.223454760106248e+000	 1.045584635063954e+001
 4.784401065031545e+000	 1.269648159526378e+000	 1.046467354643867e+001
 4.771902814314941e+000	 1.315843277457460e+000	 1.047193469618849e+001
 4.758924843037452e+000	 1.362033163491464e+000	 1.047920167997811e+001
 4.891944207836753e+000	 9.052661857839915e-001	 1.039581494034985e+001
 4.883163801100436e+000	 9.514916139175227e-001	 1.040198885110056e+001
 4.873919265931045e+000	 9.977654979723585e-001	 1.040841982735263e+001
 4.864207952775024e+000	 1.044081410592970e+000	 1.041516633792110e+001
 4.854027320193703e+000	 1.090432838201923e+000	 1.042228887402092e+001
 4.843374937665274e+000	 1.136813183000871e+000	 1.042985036251790e+001
 4.832248488351680e+000	 1.183215765068400e+000	 1.043791658968513e+001
 4.820645771826822e+000	 1.229633824554455e+000	 1.044655663443648e+001
 4.808564706762494e+000	 1.276060523970886e+000	 1.045442721154286e+001
 4.796003333568383e+000	 1.322488950577584e+000	 1.046135218268005e+001
 4.782959816982506e+000	 1.368912118863444e+000	 1.046822797824911e+001
 4.916526842035265e+000	 9.098152621030583e-001	 1.039068688458703e+001
 4.907702312650993e+000	 9.562729788194643e-001	 1.039619302648875e+001
 4.898411322530204e+000	 1.002779394954252e+000	 1.040194877189309e+001
 4.888651208805000e+000	 1.049328050853623e+000	 1.040799582842940e+001
 4.878419417265667e+000	 1.095912400208599e+000	 1.041437770939483e+001
 4.867713505176722e+000	 1.142525812066066e+000	 1.042114016668439e+001
 4.856531144057706e+000	 1.189161572937169e+000	 1.042833163496016e+001
 4.844870122425104e+000	 1.235812889002754e+000	 1.043600368600700e+001
 4.832728348491778e+000	 1.282472888415437e+000	 1.044288264023811e+001
 4.820103852820230e+000	 1.329134623697718e+000	 1.044924845065709e+001
 4.806994790926056e+000	 1.375791074235425e+000	 1.045551153165163e+001
 4.566645051422785e+000	 1.307001520515620e+000	 1.049961199366709e+001
 4.553729473570638e+000	 1.351313391422532e+000	 1.050492447826603e+001
 4.540350419037734e+000	 1.395606704137587e+000	 1.051150200777098e+001
 4.526506505994300e+000	 1.439874595742233e+000	 1.051923877722095e+001
 4.512196480665969e+000	 1.484110144199970e+000	 1.052802074849876e+001
 4.497419219518086e+000	 1.528306371162558e+000	 1.053772580507837e+001
 4.482173731371831e+000	 1.572456244859625e+000	 1.054822392773009e+001
 4.466459159448741e+000	 1.616552683069939e+000	 1.055937739116490e+001
 4.450274783340313e+000	 1.660588556172508e+000	 1.057104098153812e+001
 4.433620020899308e+000	 1.704556690275469e+000	 1.058306223467025e+001
 4.416494430049541e+000	 1.748449870420633e+000	 1.059528169477944e+001
 4.590680025379892e+000	 1.313880475887600e+000	 1.050398513920984e+001
 4.577696470802579e+000	 1.358425567166879e+000	 1.050790682666986e+001
 4.564247000193416e+000	 1.402952002579742e+000	 1.051301602198282e+001
 4.550330224449836e+000	 1.447452883087015e+000	 1.051922179670667e+001
 4.535944883198662e+000	 1.491921250220426e+000	 1.052642517900893e+001
 4.521089846991900e+000	 1.536350088903590e+000	 1.053451929901340e+001
 4.505764119433992e+000	 1.580732330356816e+000	 1.054338955483024e+001
 4.489966839237115e+000	 1.625060855084026e+000	 1.055291379925824e+001
 4.473697282201146e+000	 1.669328495939906e+000	 1.056296254708752e+001
 4.456954863114908e+000	 1.713528041275270e+000	 1.057339920286878e+001
 4.439739137575500e+000	 1.757652238158466e+000	 1.058408030895218e+001
 4.614714999335491e+000	 1.320759431259581e+000	 1.050629759049312e+001
 4.601663468033124e+000	 1.365537742911231e+000	 1.050917536332582e+001
 4.588143581347830e+000	 1.410297301021918e+000	 1.051316596267210e+001
 4.574153942904254e+000	 1.455031170431841e+000	 1.051819315752847e+001
 4.559693285730408e+000	 1.499732356240961e+000	 1.052417285866938e+001
 4.544760474464951e+000	 1.544393806644744e+000	 1.053101325471884e+001
 4.529354507495598e+000	 1.589008415854183e+000	 1.053861496863980e+001
 4.513474519025167e+000	 1.633569027098352e+000	 1.054687123463759e+001
 4.497119781061903e+000	 1.678068435707619e+000	 1.055566809541325e+001
 4.480289705330702e+000	 1.722499392275472e+000	 1.056488461964140e+001
 4.462983845101943e+000	 1.766854605896794e+000	 1.057439313948432e+001
 4.638749973289582e+000	 1.327638386631561e+000	 1.050659130435269e+001
 4.625630465262270e+000	 1.372649918655588e+000	 1.050876736278680e+001
 4.612040162500976e+000	 1.417642599464112e+000	 1.051198440061149e+001
 4.597977661357555e+000	 1.462609457776710e+000	 1.051618070683482e+001
 4.583441688261202e+000	 1.507543462261573e+000	 1.052128689283933e+001
 4.568431101937241e+000	 1.552437524386020e+000	 1.052722601930347e+001
 4.552944895556653e+000	 1.597284501351727e+000	 1.053391374328381e+001
 4.536982198812894e+000	 1.642077199112920e+000	 1.054125848546165e+001
 4.520542279922586e+000	 1.686808375475648e+000	 1.054916161749794e+001
 4.503624547546691e+000	 1.731470743276073e+000	 1.055751766937893e+001
 4.486228552628871e+000	 1.776056973635617e+000	 1.056621455657296e+001
 4.662784947242169e+000	 1.334517342003541e+000	 1.050490757244975e+001
 4.649597462490021e+000	 1.379762094399950e+000	 1.050671954095185e+001
 4.635936743652853e+000	 1.424987897906325e+000	 1.050950345503541e+001
 4.621801379809735e+000	 1.470187745121623e+000	 1.051321194790376e+001
 4.607190090791048e+000	 1.515354568282263e+000	 1.051779015118440e+001
 4.592101729408772e+000	 1.560481242127419e+000	 1.052317581282421e+001
 4.576535283617155e+000	 1.605560586849447e+000	 1.052929943489707e+001
 4.560489878600299e+000	 1.650585371127729e+000	 1.053608443133502e+001
 4.543964778783195e+000	 1.695548315243992e+000	 1.054344730553447e+001
 4.526959389762876e+000	 1.740442094277074e+000	 1.055129784772789e+001
 4.509473260156283e+000	 1.785259341374934e+000	 1.055953935194985e+001
 4.686819921193249e+000	 1.341396297375522e+000	 1.050128703832669e+001
 4.673564459716376e+000	 1.386874270144317e+000	 1.050306806939075e+001
 4.659833324803467e+000	 1.432333196348558e+000	 1.050575480521801e+001
 4.645625098260800e+000	 1.477766032466580e+000	 1.050931404896016e+001
 4.630938493319944e+000	 1.523165674303032e+000	 1.051370527372006e+001
 4.615772356879539e+000	 1.568524959868940e+000	 1.051888073154377e+001
 4.600125671677105e+000	 1.613836672347344e+000	 1.052478558208548e+001
 4.583997558387379e+000	 1.659093543142780e+000	 1.053135804096349e+001
 4.567387277643730e+000	 1.704288255012652e+000	 1.053852954776666e+001
 4.550294231979255e+000	 1.749413445278476e+000	 1.054622495360948e+001
 4.532717967684180e+000	 1.794461709114747e+000	 1.055436272807281e+001
 4.710854895142822e+000	 1.348275252747503e+000	 1.049576971394075e+001
 4.697531456941334e+000	 1.393986445888689e+000	 1.049784858922986e+001
 4.683729905952809e+000	 1.439678494790811e+000	 1.050076970169654e+001
 4.669448816710744e+000	 1.485344319811581e+000	 1.050451385172293e+001
 4.654686895847891e+000	 1.530976780323879e+000	 1.050905467666999e+001
 4.639442984349548e+000	 1.576568677610583e+000	 1.051435875108870e+001
 4.623716059736505e+000	 1.622112757845418e+000	 1.052038570637314e+001
 4.607505238174135e+000	 1.667601715158070e+000	 1.052708836988099e+001
 4.590809776504189e+000	 1.713028194781626e+000	 1.053441292348804e+001
 4.573629074195829e+000	 1.758384796280277e+000	 1.054229908148307e+001
 4.555962675212561e+000	 1.803664076855054e+000	 1.055068028764802e+001
 4.734889869090889e+000	 1.355154208119483e+000	 1.048839499569409e+001
 4.721498454164894e+000	 1.401098621633065e+000	 1.049109622461525e+001
 4.707626487100888e+000	 1.447023793233083e+000	 1.049457897715307e+001
 4.693272535159571e+000	 1.492922607156626e+000	 1.049883787969200e+001
 4.678435298374886e+000	 1.538787886344804e+000	 1.050386055814612e+001
 4.663113611818793e+000	 1.584612395352348e+000	 1.050962772951119e+001
 4.647306447795349e+000	 1.630388843343668e+000	 1.051611331263597e+001
 4.631012917960569e+000	 1.676109887173602e+000	 1.052328455824588e+001
 4.614232275364576e+000	 1.721768134550916e+000	 1.053110219819280e+001
 4.596963916412597e+000	 1.767356147282478e+000	 1.053952061384521e+001
 4.579207382741428e+000	 1.812866444595856e+000	 1.054848802347142e+001
 4.758924843037452e+000	 1.362033163491464e+000	 1.047920167997811e+001
 4.745465451387058e+000	 1.408210797377446e+000	 1.048284559576766e+001
 4.731523068247697e+000	 1.454369091675374e+000	 1.048721305696636e+001
 4.717096253607278e+000	 1.500500894501714e+000	 1.049231234618412e+001
 4.702183700900934e+000	 1.546598992365807e+000	 1.049814490365649e+001
 4.686784239287278e+000	 1.592656113094236e+000	 1.050470541025816e+001
 4.670896835853643e+000	 1.638664928842095e+000	 1.051198188952207e+001
 4.654520597746678e+000	 1.684618059189374e+000	 1.051995582870395e+001
 4.637654774224886e+000	 1.730508074320521e+000	 1.052860231887382e+001
 4.620298758629560e+000	 1.776327498285080e+000	 1.053789021395594e+001
 4.602452090270778e+000	 1.822068812337153e+000	 1.054778230857799e+001
 4.782959816982506e+000	 1.368912118863444e+000	 1.046822797824911e+001
 4.769432448607826e+000	 1.415322973121832e+000	 1.047313083164404e+001
 4.755419649393240e+000	 1.461714390117685e+000	 1.047870196944562e+001
 4.740919972053868e+000	 1.508079181846846e+000	 1.048496316212648e+001
 4.725932103426031e+000	 1.554410098386889e+000	 1.049192949144706e+001
 4.710454866755004e+000	 1.600699830836247e+000	 1.049960942505079e+001
 4.694487223911384e+000	 1.646941014340699e+000	 1.050800490985946e+001
 4.678028277532466e+000	 1.693126231205388e+000	 1.051711148431586e+001
 4.661077273085121e+000	 1.739248014090443e+000	 1.052691840946234e+001
 4.643633600846719e+000	 1.785298849288081e+000	 1.053740881878444e+001
 4.625696797800613e+000	 1.831271180078945e+000	 1.054855988668795e+001
 4.806994790926056e+000	 1.375791074235425e+000	 1.045551153165163e+001
 4.793399445827198e+000	 1.422435148866224e+000	 1.046198558221907e+001
 4.779316230537516e+000	 1.469059688560016e+000	 1.046907535575725e+001
 4.764743690499341e+000	 1.515657469192023e+000	 1.047681594361635e+001
 4.749680505950178e+000	 1.562221204408048e+000	 1.048523589768324e+001
 4.734125494221968e+000	 1.608743548578379e+000	 1.049435729667762e+001
 4.718077611968574e+000	 1.655217099839479e+000	 1.050419583105162e+001
 4.701535957317930e+000	 1.701634403221643e+000	 1.051476090654680e+001
 4.684499771945284e+000	 1.747987953860679e+000	 1.052605576640455e+001
 4.666968443064072e+000	 1.794270200291483e+000	 1.053807763216635e+001
 4.648941505330933e+000	 1.840473547821232e+000	 1.055081786293971e+001
 4.416494430049541e+000	 1.748449870420633e+000	 1.059528169477944e+001
 4.398897710511125e+000	 1.792260843862486e+000	 1.062355295436900e+001
 4.380829705437297e+000	 1.835982323416121e+000	 1.065179331062120e+001
 4.362290402960451e+000	 1.879606990872977e+000	 1.066396762757348e+001
 4.343279937644680e+000	 1.923127500484417e+000	 1.066012283057635e+001
 4.323798591841205e+000	 1.966536482506963e+000	 1.065916383875913e+001
 4.303846796944172e+000	 2.009826546807197e+000	 1.066100343861972e+001
 4.283425134544102e+000	 2.052990286523145e+000	 1.066555171752814e+001
 4.262534337476436e+000	 2.096020281778892e+000	 1.067271635677756e+001
 4.241175290762651e+000	 2.138909103449004e+000	 1.068240293271228e+001
 4.219349032441642e+000	 2.181649316969236e+000	 1.069451522518004e+001
 4.439739137575500e+000	 1.757652238158466e+000	 1.058408030895218e+001
 4.422049803722750e+000	 1.801693795671522e+000	 1.061019697609017e+001
 4.403886703884518e+000	 1.845645388275808e+000	 1.063626794581188e+001
 4.385249826130742e+000	 1.889499659245882e+000	 1.065812252825132e+001
 4.366139305733747e+000	 1.933249224171266e+000	 1.066271181292822e+001
 4.346555426530812e+000	 1.976886674520361e+000	 1.065845681929210e+001
 4.326498622186580e+000	 2.020404581264306e+000	 1.065700280042970e+001
 4.305969477352577e+000	 2.063795498557647e+000	 1.065826491322778e+001
 4.284968728721273e+000	 2.107051967472487e+000	 1.066215599540305e+001
 4.263497265972151e+000	 2.150166519782733e+000	 1.066858686634976e+001
 4.241556132607472e+000	 2.193131681794851e+000	 1.067746663520192e+001
 4.462983845101943e+000	 1.766854605896794e+000	 1.057439313948432e+001
 4.445201896935138e+000	 1.811126747481146e+000	 1.059850025311008e+001
 4.426943702332747e+000	 1.855308453136171e+000	 1.062254821728887e+001
 4.408209249302242e+000	 1.899392327619536e+000	 1.064014912135136e+001
 4.388998673824184e+000	 1.943370947858931e+000	 1.065304736116030e+001
 4.369312261221915e+000	 1.987236866534630e+000	 1.066063868638220e+001
 4.349150447430568e+000	 2.030982615722334e+000	 1.065602837365919e+001
 4.328513820162675e+000	 2.074600710593102e+000	 1.065414196249795e+001
 4.307403119967730e+000	 2.118083653167060e+000	 1.065489733941900e+001
 4.285819241183235e+000	 2.161423936117456e+000	 1.065821045845200e+001
 4.263763232774805e+000	 2.204614046621467e+000	 1.066399564894195e+001
 4.486228552628871e+000	 1.776056973635617e+000	 1.056621455657296e+001
 4.468353990148293e+000	 1.820559699291361e+000	 1.058845578362648e+001
 4.450000700781981e+000	 1.864971517997210e+000	 1.061062574007115e+001
 4.431168672474952e+000	 1.909284995993943e+000	 1.062448097572135e+001
 4.411858041915995e+000	 1.953492671547413e+000	 1.063636413055734e+001
 4.392069095914511e+000	 1.997587058549771e+000	 1.064859336605852e+001
 4.371802272676131e+000	 2.041560650181279e+000	 1.065806865239557e+001
 4.351058162974390e+000	 2.085405922629511e+000	 1.065316987135490e+001
 4.329837511215814e+000	 2.129115338862615e+000	 1.065092589284729e+001
 4.308141216395904e+000	 2.172681352453174e+000	 1.065125769750600e+001
 4.285970332943644e+000	 2.216096411449083e+000	 1.065408472620719e+001
 4.509473260156283e+000	 1.785259341374934e+000	 1.055953935194985e+001
 4.491506083362213e+000	 1.829992651102166e+000	 1.058005702674405e+001
 4.473057699232222e+000	 1.874634582858924e+000	 1.060049262974307e+001
 4.454128095648871e+000	 1.919177664369100e+000	 1.061108226994192e+001
 4.434717410009177e+000	 1.963614395236711e+000	 1.062206252482744e+001
 4.414825930608602e+000	 2.007937250565786e+000	 1.063338768047413e+001
 4.394454097923272e+000	 2.052138684641143e+000	 1.064492514038570e+001
 4.373602505787726e+000	 2.096211134666875e+000	 1.065533634838533e+001
 4.352271902465517e+000	 2.140147024559147e+000	 1.065022790330347e+001
 4.330463191610154e+000	 2.183938768789886e+000	 1.064771335678164e+001
 4.308177433113985e+000	 2.227578776277698e+000	 1.064771715292457e+001
 4.532717967684180e+000	 1.794461709114747e+000	 1.055436272807281e+001
 4.514658176576894e+000	 1.839425602913561e+000	 1.057329789065623e+001
 4.496114697683470e+000	 1.884297647721313e+000	 1.059019721813167e+001
 4.477087518823996e+000	 1.929070332745008e+000	 1.059991770922867e+001
 4.457576778103729e+000	 1.973736118926827e+000	 1.061010525215314e+001
 4.437582765304186e+000	 2.018287442582672e+000	 1.062063783223387e+001
 4.417105923171991e+000	 2.062716719101926e+000	 1.063138932593506e+001
 4.396146848602681e+000	 2.107016346705192e+000	 1.064222954467230e+001
 4.374706293716842e+000	 2.151178710256660e+000	 1.065279034293024e+001
 4.352785166825989e+000	 2.195196185127593e+000	 1.064756297420908e+001
 4.330384533285831e+000	 2.239061141107313e+000	 1.064487701995838e+001
 4.555962675212561e+000	 1.803664076855054e+000	 1.055068028764802e+001
 4.537810269792344e+000	 1.848858554725545e+000	 1.056817272118893e+001
 4.519171696135725e+000	 1.893960712584378e+000	 1.058191155859148e+001
 4.500046942000333e+000	 1.938963001121667e+000	 1.059095251199764e+001
 4.480436146199654e+000	 1.983857842617759e+000	 1.060045557207011e+001
 4.460339600001269e+000	 2.028637634600432e+000	 1.061030511841093e+001
 4.439757748422287e+000	 2.073294753563626e+000	 1.062038145712559e+001
 4.418691191419258e+000	 2.117821558744463e+000	 1.063056085788053e+001
 4.397140684969789e+000	 2.162210395955152e+000	 1.064071560069932e+001
 4.375107142043407e+000	 2.206453601466296e+000	 1.065071403269230e+001
 4.352591633459181e+000	 2.250543505937929e+000	 1.064554920257609e+001
 4.579207382741428e+000	 1.812866444595856e+000	 1.054848802347142e+001
 4.560962363008558e+000	 1.858291506538120e+000	 1.056467629069310e+001
 4.542228694588986e+000	 1.903623777448119e+000	 1.057568602366085e+001
 4.523006365177878e+000	 1.948855669499078e+000	 1.058415239683990e+001
 4.503295514296950e+000	 1.993979566309508e+000	 1.059307728147344e+001
 4.483096434699841e+000	 2.038987826619063e+000	 1.060235141084105e+001
 4.462409573674160e+000	 2.083872788026245e+000	 1.061186147823084e+001
 4.441235534237453e+000	 2.128626770784688e+000	 1.062149016724645e+001
 4.419575076224358e+000	 2.173242081654624e+000	 1.063111619178572e+001
 4.397429117262409e+000	 2.217711017805993e+000	 1.064061434589784e+001
 4.374798733634036e+000	 2.262025870769545e+000	 1.064971934053972e+001
 4.602452090270778e+000	 1.822068812337153e+000	 1.054778230857799e+001
 4.584114456225539e+000	 1.867724458351285e+000	 1.056280378727383e+001
 4.565285693043254e+000	 1.913286842312534e+000	 1.057148870093653e+001
 4.545965788356632e+000	 1.958748337877239e+000	 1.057948356989091e+001
 4.526154882395620e+000	 2.004101290002073e+000	 1.058793470104791e+001
 4.505853269399911e+000	 2.049338018638567e+000	 1.059673914160830e+001
 4.485061398927612e+000	 2.094450822489782e+000	 1.060578993042910e+001
 4.463779877057269e+000	 2.139431982825867e+000	 1.061497612158751e+001
 4.442009467480550e+000	 2.184273767355075e+000	 1.062418281755235e+001
 4.419751092482993e+000	 2.228968434146685e+000	 1.063329121218226e+001
 4.397005833810392e+000	 2.273508235602161e+000	 1.064217864374613e+001
 4.625696797800613e+000	 1.831271180078945e+000	 1.054855988668795e+001
 4.607266549443284e+000	 1.877157410165040e+000	 1.056221157068835e+001
 4.588342691498530e+000	 1.922949907177626e+000	 1.056928811819794e+001
 4.568925211536596e+000	 1.968641006256151e+000	 1.057691271258058e+001
 4.549014250495659e+000	 2.014223013695456e+000	 1.058499266210750e+001
 4.528610104101475e+000	 2.059688210658944e+000	 1.059343128896854e+001
 4.507713224182639e+000	 2.105028856954237e+000	 1.060212793680584e+001
 4.486324219878704e+000	 2.150237194868000e+000	 1.061097798754108e+001
 4.464443858738362e+000	 2.195305453056506e+000	 1.061987288774951e+001
 4.442073067705160e+000	 2.240225850488372e+000	 1.062870018481182e+001
 4.419212933988254e+000	 2.284990600435776e+000	 1.063734357305189e+001
 4.648941505330933e+000	 1.840473547821232e+000	 1.055081786293971e+001
 4.630418642661795e+000	 1.886590361979385e+000	 1.056224177125592e+001
 4.611399689954812e+000	 1.932612972043392e+000	 1.056905323240252e+001
 4.591884634717767e+000	 1.978533674635814e+000	 1.057640696975101e+001
 4.571873618597071e+000	 2.024344737389655e+000	 1.058421649382958e+001
 4.551366938804532e+000	 2.070038402680193e+000	 1.059239136369506e+001
 4.530365049439246e+000	 2.115606891419611e+000	 1.060083718780592e+001
 4.508868562701760e+000	 2.161042406911087e+000	 1.060945563411896e+001
 4.486878249997798e+000	 2.206337138758916e+000	 1.061814444967473e+001
 4.464395042928913e+000	 2.251483266831054e+000	 1.062679748991512e+001
 4.441420034167620e+000	 2.296472965270393e+000	 1.063530475795351e+001
 4.219349032441642e+000	 2.181649316969236e+000	 1.069451522518004e+001
 4.197056754289153e+000	 2.224233486189214e+000	 1.068501958562304e+001
 4.174299802423162e+000	 2.266654177265144e+000	 1.067817237320048e+001
 4.151079677793083e+000	 2.308903962587823e+000	 1.067419456246817e+001
 4.127398036551244e+000	 2.350975424740408e+000	 1.067330887109532e+001
 4.103256690304887e+000	 2.392861160483732e+000	 1.067573977591879e+001
 4.078657606247210e+000	 2.434553784764504e+000	 1.068171352519359e+001
 4.053602907166101e+000	 2.476045934742123e+000	 1.069145814656356e+001
 4.028094871329415e+000	 2.517330273829839e+000	 1.069825170089264e+001
 4.002135932245784e+000	 2.558399495745880e+000	 1.069797890967386e+001
 3.975728678300154e+000	 2.599246328570120e+000	 1.069955865480804e+001
 4.241556132607472e+000	 2.193131681794851e+000	 1.067746663520192e+001
 4.219146526675409e+000	 2.235939978220896e+000	 1.066983277336908e+001
 4.196269801378700e+000	 2.278583936091637e+000	 1.066488391967410e+001
 4.172927465566493e+000	 2.321056088705192e+000	 1.066281096148234e+001
 4.149121184107708e+000	 2.363348979605680e+000	 1.066380631961221e+001
 4.124852778144358e+000	 2.405455166589521e+000	 1.066806399800080e+001
 4.100124225223292e+000	 2.447367225734718e+000	 1.067577963012723e+001
 4.074937659304964e+000	 2.489077755448880e+000	 1.068715052166050e+001
 4.049295370648115e+000	 2.530579380531644e+000	 1.069101856103010e+001
 4.023199805569314e+000	 2.571864756247123e+000	 1.069288337297210e+001
 3.996653566076591e+000	 2.612926572401926e+000	 1.069646336486755e+001
 4.263763232774805e+000	 2.204614046621467e+000	 1.066399564894195e+001
 4.241236299063069e+000	 2.247646470253574e+000	 1.065774767210143e+001
 4.218239800335544e+000	 2.290513694919111e+000	 1.065422006226217e+001
 4.194775253341109e+000	 2.333208214823516e+000	 1.065357379169856e+001
 4.170844331665272e+000	 2.375722534471873e+000	 1.065597115876562e+001
 4.146448865984831e+000	 2.418049172696184e+000	 1.066157587108999e+001
 4.121590844200274e+000	 2.460180666705753e+000	 1.067055312607617e+001
 4.096272411444629e+000	 2.502109576156395e+000	 1.068239920136657e+001
 4.070495869967517e+000	 2.543828487234132e+000	 1.068424856874676e+001
 4.044263678893447e+000	 2.585330016748963e+000	 1.068775630573493e+001
 4.017578453853528e+000	 2.626606816234234e+000	 1.069284541948881e+001
 4.285970332943644e+000	 2.216096411449083e+000	 1.065408472620719e+001
 4.263326071452134e+000	 2.259352962287246e+000	 1.064875473990817e+001
 4.240209799293691e+000	 2.302443453747564e+000	 1.064617926048028e+001
 4.216623041116926e+000	 2.345360340942796e+000	 1.064648951325175e+001
 4.192567479223943e+000	 2.388096089338987e+000	 1.064981784452261e+001
 4.168044953826307e+000	 2.430643178803724e+000	 1.065629783819847e+001
 4.143057463178162e+000	 2.472994107677610e+000	 1.066606443029351e+001
 4.117607163585097e+000	 2.515141396864667e+000	 1.067482084000876e+001
 4.091696369287622e+000	 2.557077593937303e+000	 1.067792381648113e+001
 4.065327552218183e+000	 2.598795277251401e+000	 1.068258734172880e+001
 4.038503341630969e+000	 2.640287060067045e+000	 1.068870200315619e+001
 4.308177433113985e+000	 2.227578776277698e+000	 1.064771715292457e+001
 4.285415843842603e+000	 2.271059454321914e+000	 1.064284510576874e+001
 4.262179798253142e+000	 2.314373212576999e+000	 1.064076048929861e+001
 4.238470828893949e+000	 2.357512467063032e+000	 1.064156494615804e+001
 4.214290626783716e+000	 2.400469644207023e+000	 1.064536103709361e+001
 4.189641041668788e+000	 2.443237184912142e+000	 1.065225239095215e+001
 4.164524082156950e+000	 2.485807548650289e+000	 1.066234385309780e+001
 4.138941915726369e+000	 2.528173217573695e+000	 1.066815252809101e+001
 4.112896868608430e+000	 2.570326700641155e+000	 1.067202597917898e+001
 4.086391425543521e+000	 2.612260537754436e+000	 1.067736554236573e+001
 4.059428229408913e+000	 2.653967303900358e+000	 1.068402957351525e+001
 4.330384533285831e+000	 2.239061141107313e+000	 1.064487701995838e+001
 4.307505616234475e+000	 2.282765946357576e+000	 1.064001055235160e+001
 4.284149797213895e+000	 2.326302971407414e+000	 1.063796322592523e+001
 4.260318616672175e+000	 2.369664593184222e+000	 1.063880726108712e+001
 4.236013774344592e+000	 2.412843199075978e+000	 1.064261559569543e+001
 4.211237129512270e+000	 2.455831191021434e+000	 1.064946206834411e+001
 4.185990701136643e+000	 2.498620989623790e+000	 1.065942160061486e+001
 4.160276667868444e+000	 2.541205038283482e+000	 1.066236831197180e+001
 4.134097367929940e+000	 2.583575807345691e+000	 1.066653632499832e+001
 4.107455298869463e+000	 2.625725798258069e+000	 1.067207941137906e+001
 4.080353117187359e+000	 2.667647547734174e+000	 1.067882388000952e+001
 4.352591633459181e+000	 2.250543505937929e+000	 1.064554920257609e+001
 4.329595388627752e+000	 2.294472438394234e+000	 1.064024349933854e+001
 4.306119796175953e+000	 2.338232730238807e+000	 1.063778743699383e+001
 4.282166404451602e+000	 2.381816719306368e+000	 1.063822397041694e+001
 4.257736921906572e+000	 2.425216753945855e+000	 1.064159657347456e+001
 4.232833217356756e+000	 2.468425197131603e+000	 1.064794945552630e+001
 4.207457320117240e+000	 2.511434430598112e+000	 1.065492851714191e+001
 4.181611420011322e+000	 2.554236858994026e+000	 1.065744198892843e+001
 4.155297867252153e+000	 2.596824914050908e+000	 1.066143572568665e+001
 4.128519172196008e+000	 2.639191058762300e+000	 1.066671690904991e+001
 4.101278004966307e+000	 2.681327791568492e+000	 1.067307998194697e+001
 4.374798733634036e+000	 2.262025870769545e+000	 1.064971934053972e+001
 4.351685161022432e+000	 2.306178930431887e+000	 1.064353698725677e+001
 4.328089795139316e+000	 2.350162489071184e+000	 1.064023356614182e+001
 4.304014192232235e+000	 2.393968845429471e+000	 1.063982291956095e+001
 4.279460069469656e+000	 2.437590308816654e+000	 1.064231921258510e+001
 4.254429305202245e+000	 2.481019203242649e+000	 1.064773718263801e+001
 4.228923939098740e+000	 2.524247871573257e+000	 1.065141694995042e+001
 4.202946172155001e+000	 2.567268679705326e+000	 1.065334711347878e+001
 4.176498366575069e+000	 2.610074020756808e+000	 1.065670466664213e+001
 4.149583045523155e+000	 2.652656319267127e+000	 1.066126546600048e+001
 4.122202892745759e+000	 2.695008035403313e+000	 1.066679226601604e+001
 4.397005833810392e+000	 2.273508235602161e+000	 1.064217864374613e+001
 4.373774933418516e+000	 2.317885422470535e+000	 1.064988466180103e+001
 4.350059794103981e+000	 2.362092247904539e+000	 1.064530252196472e+001
 4.325861980014071e+000	 2.406120971553529e+000	 1.064361227855809e+001
 4.301183217033842e+000	 2.449963863688372e+000	 1.064479893941582e+001
 4.276025393048738e+000	 2.493613209354572e+000	 1.064884792366978e+001
 4.250390558081142e+000	 2.537061312549223e+000	 1.064916852753899e+001
 4.224280924299484e+000	 2.580300500417384e+000	 1.065005700351167e+001
 4.197698865898687e+000	 2.623323127463390e+000	 1.065232325666988e+001
 4.170646918850905e+000	 2.666121579772553e+000	 1.065571199656918e+001
 4.143127780525714e+000	 2.708688279238637e+000	 1.065995446327109e+001
 4.419212933988254e+000	 2.284990600435776e+000	 1.063734357305189e+001
 4.395864705816003e+000	 2.329591914510178e+000	 1.064602158114950e+001
 4.372029793069951e+000	 2.374022006738874e+000	 1.065299566633386e+001
 4.347709767797110e+000	 2.418273097678542e+000	 1.064960053391636e+001
 4.322906364599133e+000	 2.462337418561012e+000	 1.064905135996119e+001
 4.297621480896234e+000	 2.506207215467371e+000	 1.065035820465639e+001
 4.271857177064447e+000	 2.549874753526011e+000	 1.064814970085443e+001
 4.245615676444769e+000	 2.593332321130198e+000	 1.064754474623228e+001
 4.218899365223009e+000	 2.636572234170655e+000	 1.064827123744410e+001
 4.191710792179257e+000	 2.679586840278577e+000	 1.065004291178262e+001
 4.164052668306169e+000	 2.722368523074463e+000	 1.065255966560552e+001
 4.441420034167620e+000	 2.296472965270393e+000	 1.063530475795351e+001
 4.417954478214896e+000	 2.341298406550817e+000	 1.064376082819931e+001
 4.393999792037223e+000	 2.385951765574191e+000	 1.065224093069365e+001
 4.369557555581356e+000	 2.430425223804512e+000	 1.065779648070113e+001
 4.344629512165527e+000	 2.474710973434573e+000	 1.065509225533120e+001
 4.319217568744735e+000	 2.518801221581046e+000	 1.065246136566670e+001
 4.293323796048657e+000	 2.562688194503620e+000	 1.064832682915923e+001
 4.266950428590860e+000	 2.606364141843771e+000	 1.064578320392924e+001
 4.240099864548035e+000	 2.649821340878603e+000	 1.064452799268636e+001
 4.212774665508213e+000	 2.693052100785198e+000	 1.064424413193842e+001
 4.184977556087130e+000	 2.736048766910793e+000	 1.064460034173086e+001
 3.975728678300154e+000	 2.599246328570120e+000	 1.069955865480804e+001
 3.948875852262866e+000	 2.639863538801905e+000	 1.071446565128524e+001
 3.921580350673420e+000	 2.680243935414237e+000	 1.072833480296239e+001
 3.893845223097611e+000	 2.720380373899949e+000	 1.074077941427599e+001
 3.865673671256816e+000	 2.760265760305475e+000	 1.075140347159212e+001
 3.837069048031190e+000	 2.799893055247307e+000	 1.075980219990690e+001
 3.808034856336499e+000	 2.839255277906680e+000	 1.076556265162694e+001
 3.778574747875074e+000	 2.878345509997806e+000	 1.076826432646323e+001
 3.748692521761566e+000	 2.917156899705098e+000	 1.076681342650234e+001
 3.718392123024357e+000	 2.955682665584794e+000	 1.074864371762943e+001
 3.687677640983678e+000	 2.993916100426382e+000	 1.073016359444002e+001
 3.996653566076591e+000	 2.612926572401926e+000	 1.069646336486755e+001
 3.969659409375954e+000	 2.653757557424342e+000	 1.070818291451476e+001
 3.942220247251891e+000	 2.694350482439861e+000	 1.071893819912985e+001
 3.914339145320547e+000	 2.734698165338652e+000	 1.072836293696044e+001
 3.886019322154460e+000	 2.774793474830546e+000	 1.073608134853475e+001
 3.857264148280524e+000	 2.814629334482651e+000	 1.074170869376985e+001
 3.828077145050906e+000	 2.854198726735049e+000	 1.074485184157361e+001
 3.798461983387418e+000	 2.893494696889920e+000	 1.074510987100669e+001
 3.768422482400056e+000	 2.932510357069496e+000	 1.074207470295851e+001
 3.737962607880508e+000	 2.971238890138200e+000	 1.072969257245766e+001
 3.707086470671743e+000	 3.009673553584413e+000	 1.070733013569230e+001
 4.017578453853528e+000	 2.626606816234234e+000	 1.069284541948881e+001
 3.990442966489449e+000	 2.667651576047185e+000	 1.070178239664386e+001
 3.962860143830686e+000	 2.708457029465810e+000	 1.070983075563356e+001
 3.934833067543730e+000	 2.749015956777603e+000	 1.071664438269942e+001
 3.906364973052286e+000	 2.789321189355799e+000	 1.072186748185415e+001
 3.877459248529986e+000	 2.829365613718122e+000	 1.072513509263108e+001
 3.848119433765391e+000	 2.869142175563498e+000	 1.072607364075212e+001
 3.818349218899807e+000	 2.908643883782081e+000	 1.072430152081178e+001
 3.788152443038567e+000	 2.947863814433914e+000	 1.071942970996204e+001
 3.757533092736663e+000	 2.986795114691609e+000	 1.071106241147186e+001
 3.726495300359807e+000	 3.025431006742444e+000	 1.068888275551137e+001
 4.038503341630969e+000	 2.640287060067045e+000	 1.068870200315619e+001
 4.011226523603352e+000	 2.681545594670439e+000	 1.069525496920056e+001
 3.983500040409804e+000	 2.722563576492080e+000	 1.070099706174282e+001
 3.955326989767160e+000	 2.763333748216801e+000	 1.070560209197679e+001
 3.926710623950293e+000	 2.803848903881234e+000	 1.070873399947488e+001
 3.897654348779572e+000	 2.844101892953717e+000	 1.071004735081019e+001
 3.868161722479959e+000	 2.884085624392029e+000	 1.070918787153213e+001
 3.838236454412243e+000	 2.923793070674288e+000	 1.070579301062456e+001
 3.807882403677097e+000	 2.963217271798351e+000	 1.069949253646127e+001
 3.777103577592825e+000	 3.002351339245025e+000	 1.068990916316096e+001
 3.745904130047871e+000	 3.041188459900474e+000	 1.067483335276653e+001
 4.059428229408913e+000	 2.653967303900358e+000	 1.068402957351525e+001
 4.032010080717662e+000	 2.695439613294097e+000	 1.068859090880499e+001
 4.004139936989243e+000	 2.736670123518673e+000	 1.069242124367858e+001
 3.975820911990837e+000	 2.777651539656246e+000	 1.069521407395301e+001
 3.947056274848481e+000	 2.818376618406850e+000	 1.069665282952555e+001
 3.917849449029285e+000	 2.858838172189440e+000	 1.069641135409723e+001
 3.888204011194607e+000	 2.899029073220639e+000	 1.069415441869583e+001
 3.858123689924724e+000	 2.938942257566541e+000	 1.068953826815789e+001
 3.827612364315648e+000	 2.978570729162809e+000	 1.068221119961431e+001
 3.796674062448990e+000	 3.017907563798445e+000	 1.067181417190982e+001
 3.765312959735935e+000	 3.056945913058504e+000	 1.065798144477578e+001
 4.080353117187359e+000	 2.667647547734174e+000	 1.067882388000952e+001
 4.052793637832379e+000	 2.709333631918165e+000	 1.068177991242349e+001
 4.024779833569005e+000	 2.750776670545589e+000	 1.068408697648641e+001
 3.996314834214761e+000	 2.791969331095936e+000	 1.068545801496068e+001
 3.967401925746852e+000	 2.832904332932649e+000	 1.068559570546171e+001
 3.938044549279125e+000	 2.873574451425288e+000	 1.068419292150980e+001
 3.908246299909336e+000	 2.913972522049331e+000	 1.068093322783759e+001
 3.878010925437250e+000	 2.954091444458838e+000	 1.067549140914360e+001
 3.847342324954219e+000	 2.993924186527288e+000	 1.066753403136538e+001
 3.816244547305160e+000	 3.033463788351871e+000	 1.065672003443043e+001
 3.784721789423999e+000	 3.072703366216536e+000	 1.064270135533031e+001
 4.101278004966307e+000	 2.681327791568492e+000	 1.067307998194697e+001
 4.073577194947506e+000	 2.723227650542639e+000	 1.067481111215566e+001
 4.045419730149089e+000	 2.764883217572826e+000	 1.067597749554618e+001
 4.016808756438932e+000	 2.806287122535875e+000	 1.067631128673990e+001
 3.987747576645405e+000	 2.847432047458629e+000	 1.067553417103207e+001
 3.958239649529091e+000	 2.888310730661264e+000	 1.067335780699647e+001
 3.928288588624146e+000	 2.928915970878104e+000	 1.066948430381260e+001
 3.897898160949821e+000	 2.969240631351181e+000	 1.066360673253605e+001
 3.867072285592810e+000	 3.009277643891787e+000	 1.065540967041462e+001
 3.835815032161337e+000	 3.049020012905301e+000	 1.064456977723551e+001
 3.804130619112063e+000	 3.088460819374566e+000	 1.063075640257482e+001
 4.122202892745759e+000	 2.695008035403313e+000	 1.066679226601604e+001
 4.094360752063038e+000	 2.737121669167521e+000	 1.066767308957106e+001
 4.066059626729495e+000	 2.778989764600386e+000	 1.066807560773098e+001
 4.037302678663349e+000	 2.820604913976060e+000	 1.066775095442286e+001
 4.008093227544139e+000	 2.861959761984790e+000	 1.066643958509333e+001
 3.978434749779182e+000	 2.903047009897365e+000	 1.066387170108829e+001
 3.948330877339037e+000	 2.943859419706958e+000	 1.065976770923283e+001
 3.917785396462439e+000	 2.984389818243570e+000	 1.065383871586186e+001
 3.886802246231421e+000	 3.024631101256305e+000	 1.064578705443239e+001
 3.855385517017517e+000	 3.064576237458736e+000	 1.063530684572992e+001
 3.823539448800127e+000	 3.104218272532597e+000	 1.062208458956542e+001
 4.143127780525714e+000	 2.708688279238637e+000	 1.065995446327109e+001
 4.115144309178978e+000	 2.751015687792811e+000	 1.066035388961159e+001
 4.086699523310224e+000	 2.793096311628269e+000	 1.066036370222808e+001
 4.057796600888015e+000	 2.834922705416493e+000	 1.065975378427650e+001
 4.028438878443055e+000	 2.876487476511133e+000	 1.065828312627922e+001
 3.998629850029400e+000	 2.917783289133592e+000	 1.065570023250020e+001
 3.968373166054009e+000	 2.958802868535892e+000	 1.065174356300849e+001
 3.937672631975101e+000	 2.999539005136004e+000	 1.064614201071044e+001
 3.906532206870053e+000	 3.039984558620845e+000	 1.063861541250945e+001
 3.874956001873704e+000	 3.080132462012177e+000	 1.062887509363254e+001
 3.842948278488191e+000	 3.119975725690628e+000	 1.061662444404480e+001
 4.164052668306169e+000	 2.722368523074463e+000	 1.065255966560552e+001
 4.135927866295327e+000	 2.764909706418508e+000	 1.065284103407443e+001
 4.107339419891274e+000	 2.807202858656473e+000	 1.065282376103350e+001
 4.078290523112927e+000	 2.849240496857172e+000	 1.065229625121162e+001
 4.048784529342152e+000	 2.891015191037657e+000	 1.065103579752868e+001
 4.018824950279744e+000	 2.932519568369946e+000	 1.064880896968423e+001
 3.988415454769062e+000	 2.973746317364908e+000	 1.064537203893353e+001
 3.957559867487810e+000	 3.014688192028483e+000	 1.064047143836062e+001
 3.926262167508706e+000	 3.055338015985404e+000	 1.063384425783496e+001
 3.894526486729895e+000	 3.095688686565624e+000	 1.062521877271716e+001
 3.862357108176255e+000	 3.135733178848658e+000	 1.061764129762754e+001
 4.184977556087130e+000	 2.736048766910793e+000	 1.064460034173086e+001
 4.156711423412083e+000	 2.778803725044614e+000	 1.064512153469083e+001
 4.127979316472649e+000	 2.821309405685001e+000	 1.064543736913181e+001
 4.098784445338088e+000	 2.863558288298099e+000	 1.064535454606686e+001
 4.069130180241431e+000	 2.905542905564365e+000	 1.064466843047828e+001
 4.039020050530216e+000	 2.947255847606427e+000	 1.064316342233609e+001
 4.008457743484196e+000	 2.988689766194005e+000	 1.064061336431353e+001
 3.977447103000564e+000	 3.029837378921009e+000	 1.063678198553837e+001
 3.945992128147378e+000	 3.070691473349985e+000	 1.063142338059392e+001
 3.914096971586092e+000	 3.111244911119074e+000	 1.062428252286102e+001
 3.881765937864321e+000	 3.151490632006690e+000	 1.062311941540702e+001
 3.687677640983678e+000	 2.993916100426382e+000	 1.073016359444002e+001
 3.656553307508218e+000	 3.031850575069264e+000	 1.070407363881879e+001
 3.625023495149993e+000	 3.069479542170490e+000	 1.068118371610585e+001
 3.593092715160351e+000	 3.106796539918756e+000	 1.066197499995031e+001
 3.560765615389833e+000	 3.143795195690242e+000	 1.065164134098080e+001
 3.528046978072291e+000	 3.180469229642301e+000	 1.064779771476700e+001
 3.494941717495987e+000	 3.216812458240656e+000	 1.064462529157833e+001
 3.461454877564024e+000	 3.252818797715965e+000	 1.064153357507898e+001
 3.427591629246608e+000	 3.288482267445716e+000	 1.063791729960262e+001
 3.393357267927863e+000	 3.323796993257525e+000	 1.063315789075250e+001
 3.358757210650000e+000	 3.358757210650000e+000	 1.062662497583143e+001
 3.707086470671743e+000	 3.009673553584413e+000	 1.070733013569230e+001
 3.675798324915369e+000	 3.047807683357208e+000	 1.068042127675854e+001
 3.644102566176765e+000	 3.085634697653921e+000	 1.065680838314424e+001
 3.612003729450705e+000	 3.123148100653718e+000	 1.063697473308684e+001
 3.579506487050102e+000	 3.160341486192652e+000	 1.063106305020583e+001
 3.546615646378458e+000	 3.197208541376272e+000	 1.062723924209983e+001
 3.513336147588712e+000	 3.233743050125384e+000	 1.062434343551570e+001
 3.479673061130822e+000	 3.269938896650809e+000	 1.062176558722352e+001
 3.445631585190633e+000	 3.305790068853073e+000	 1.061888028367847e+001
 3.411217043022704e+000	 3.341290661643094e+000	 1.061504823552207e+001
 3.376434880180000e+000	 3.376434880180000e+000	 1.060961782322817e+001
 3.726495300359807e+000	 3.025431006742444e+000	 1.068888275551137e+001
 3.695043342322521e+000	 3.063764791645150e+000	 1.066104076595953e+001
 3.663181637203538e+000	 3.101789853137353e+000	 1.063658631910653e+001
 3.630914743741059e+000	 3.139499661388680e+000	 1.062065991594318e+001
 3.598247358710370e+000	 3.176887776695062e+000	 1.061500046044979e+001
 3.565184314684625e+000	 3.213947853110243e+000	 1.061114108675522e+001
 3.531730577681437e+000	 3.250673642010113e+000	 1.060846948729810e+001
 3.497891244697621e+000	 3.287058995585653e+000	 1.060635590394599e+001
 3.463671541134656e+000	 3.323097870260429e+000	 1.060415460036547e+001
 3.429076818117546e+000	 3.358784330028662e+000	 1.060120539074534e+001
 3.394112549710000e+000	 3.394112549710000e+000	 1.059683522099446e+001
 3.745904130047871e+000	 3.041188459900474e+000	 1.067483335276653e+001
 3.714288359729673e+000	 3.079721899933094e+000	 1.064594501696401e+001
 3.682260708230310e+000	 3.117945008620785e+000	 1.062053144867300e+001
 3.649825758031414e+000	 3.155851222123643e+000	 1.060936320249643e+001
 3.616988230370638e+000	 3.193434067197471e+000	 1.060333286859874e+001
 3.583752982990791e+000	 3.230687164844214e+000	 1.059938468108391e+001
 3.550125007774159e+000	 3.267604233894841e+000	 1.059688709543515e+001
 3.516109428264420e+000	 3.304179094520496e+000	 1.059519046857545e+001
 3.481711497078680e+000	 3.340405671667785e+000	 1.059362856436068e+001
 3.446936593212385e+000	 3.376277998414230e+000	 1.059152011684837e+001
 3.411790219240000e+000	 3.411790219240000e+000	 1.058817044738549e+001
 3.765312959735935e+000	 3.056945913058504e+000	 1.065798144477578e+001
 3.733533377136824e+000	 3.095679008221037e+000	 1.063514749821476e+001
 3.701339779257081e+000	 3.134100164104216e+000	 1.061184958354756e+001
 3.668736772321768e+000	 3.172202782858605e+000	 1.060239570566894e+001
 3.635729102030907e+000	 3.209980357699882e+000	 1.059594005492464e+001
 3.602321651296959e+000	 3.247426476578185e+000	 1.059185191495319e+001
 3.568519437866884e+000	 3.284534825779570e+000	 1.058948033958778e+001
 3.534327611831219e+000	 3.321299193455340e+000	 1.058815562874356e+001
 3.499751453022703e+000	 3.357713473075141e+000	 1.058719086734433e+001
 3.464796368307228e+000	 3.393771666799799e+000	 1.058588352346295e+001
 3.429467888769999e+000	 3.429467888769999e+000	 1.058351710164039e+001
 3.784721789423999e+000	 3.072703366216536e+000	 1.064270135533031e+001
 3.752778394543975e+000	 3.111636116508981e+000	 1.062749244707952e+001
 3.720418850283854e+000	 3.150255319587647e+000	 1.060987492348984e+001
 3.687647786612123e+000	 3.188554343593568e+000	 1.059963567397883e+001
 3.654469973691175e+000	 3.226526648202291e+000	 1.059270227069087e+001
 3.620890319603124e+000	 3.264165788312155e+000	 1.058842512401567e+001
 3.586913867959608e+000	 3.301465417664299e+000	 1.058613371951302e+001
 3.552545795398018e+000	 3.338419292390185e+000	 1.058513812601786e+001
 3.517791408966728e+000	 3.375021274482496e+000	 1.058473056831352e+001
 3.482656143402068e+000	 3.411265335185366e+000	 1.058418706047273e+001
 3.447145558300000e+000	 3.447145558300000e+000	 1.058276909575193e+001
 3.804130619112063e+000	 3.088460819374566e+000	 1.063075640257482e+001
 3.772023411951127e+000	 3.127593224796924e+000	 1.061750289413422e+001
 3.739497921310627e+000	 3.166410475071080e+000	 1.061204054050198e+001
 3.706558800902476e+000	 3.204905904328530e+000	 1.060096183900135e+001
 3.673210845351445e+000	 3.243072938704702e+000	 1.059350022613710e+001
 3.639458987909292e+000	 3.280905100046127e+000	 1.058898707833727e+001
 3.605308298052332e+000	 3.318396009549028e+000	 1.058673214434741e+001
 3.570763978964817e+000	 3.355539391325028e+000	 1.058602508585240e+001
 3.535831364910751e+000	 3.392329075889852e+000	 1.058613708421188e+001
 3.500515918496910e+000	 3.428759003570936e+000	 1.058632250933324e+001
 3.464823227830000e+000	 3.464823227830000e+000	 1.058582064648807e+001
 3.823539448800127e+000	 3.104218272532597e+000	 1.062208458956542e+001
 3.791268429358279e+000	 3.143550333084867e+000	 1.061518340934646e+001
 3.758576992337398e+000	 3.182565630554511e+000	 1.061485423310712e+001
 3.725469815192830e+000	 3.221257465063492e+000	 1.060625340310860e+001
 3.691951717011711e+000	 3.259619229207110e+000	 1.059821507883021e+001
 3.658027656215458e+000	 3.297644411780099e+000	 1.059342097137140e+001
 3.623702728145057e+000	 3.335326601433757e+000	 1.059116092221648e+001
 3.588982162531615e+000	 3.372659490259871e+000	 1.059070400784444e+001
 3.553871320854773e+000	 3.409636877297208e+000	 1.059130018084468e+001
 3.518375693591751e+000	 3.446252671956504e+000	 1.059218197465641e+001
 3.482500897360000e+000	 3.482500897360000e+000	 1.059256626765651e+001
 3.842948278488191e+000	 3.119975725690628e+000	 1.061662444404480e+001
 3.810513446765430e+000	 3.159507441372810e+000	 1.061584132736416e+001
 3.777656063364171e+000	 3.198720786037943e+000	 1.061674377984580e+001
 3.744380829483184e+000	 3.237609025798454e+000	 1.061539002758068e+001
 3.710692588671981e+000	 3.276165519709522e+000	 1.060672842236808e+001
 3.676596324521625e+000	 3.314383723514069e+000	 1.060161040926748e+001
 3.642097158237780e+000	 3.352257193318485e+000	 1.059930575015941e+001
 3.607200346098414e+000	 3.389779589194716e+000	 1.059906275628631e+001
 3.571911276798798e+000	 3.426944678704564e+000	 1.060010996406916e+001
 3.536235468686593e+000	 3.463746340342071e+000	 1.060165787605001e+001
 3.500178566889999e+000	 3.500178566889999e+000	 1.060290076260382e+001
 3.862357108176255e+000	 3.135733178848658e+000	 1.061764129762754e+001
 3.829758464172582e+000	 3.175464549660754e+000	 1.061939999039015e+001
 3.796735134390942e+000	 3.214875941521374e+000	 1.062148782686355e+001
 3.763291843773539e+000	 3.253960586533416e+000	 1.062344097722145e+001
 3.729433460332249e+000	 3.292711810211932e+000	 1.061892227542411e+001
 3.695164992827791e+000	 3.331123035248041e+000	 1.061343940050160e+001
 3.660491588330504e+000	 3.369187785203213e+000	 1.061105270435725e+001
 3.625418529665213e+000	 3.406899688129559e+000	 1.061098955100232e+001
 3.589951232742822e+000	 3.444252480111921e+000	 1.061245687125051e+001
 3.554095243781433e+000	 3.481240008727640e+000	 1.061464294020322e+001
 3.517856236419999e+000	 3.517856236419999e+000	 1.061671921694041e+001
 3.881765937864321e+000	 3.151490632006690e+000	 1.062311941540702e+001
 3.849003481579734e+000	 3.191421657948697e+000	 1.062578321896376e+001
 3.815814205417716e+000	 3.231031097004806e+000	 1.062901164430503e+001
 3.782202858063893e+000	 3.270312147268379e+000	 1.063232746693406e+001
 3.748174331992518e+000	 3.309258100714341e+000	 1.063467907112024e+001
 3.713733661133959e+000	 3.347862346982013e+000	 1.062879234581837e+001
 3.678886018423229e+000	 3.386118377087943e+000	 1.062628823065443e+001
 3.643636713232013e+000	 3.424019787064404e+000	 1.062637295846040e+001
 3.607991188686845e+000	 3.461560281519278e+000	 1.062823166297418e+001
 3.571955018876275e+000	 3.498733677113209e+000	 1.063103019320960e+001
 3.535533905950000e+000	 3.535533905950000e+000	 1.063391699148409e+001
 3.358757210650000e+000	 3.358757210650000e+000	 1.062662497583143e+001
 3.323796993257525e+000	 3.393357267927863e+000	 1.062892164058470e+001
 3.288482267445717e+000	 3.427591629246607e+000	 1.062832542179562e+001
 3.252818797715964e+000	 3.461454877564024e+000	 1.062419901289426e+001
 3.216812458240656e+000	 3.494941717495988e+000	 1.061589946660078e+001
 3.180469229642301e+000	 3.528046978072291e+000	 1.060277987215595e+001
 3.143795195690242e+000	 3.560765615389833e+000	 1.058419105724034e+001
 3.106796539918756e+000	 3.593092715160352e+000	 1.056115925408478e+001
 3.069479542170489e+000	 3.625023495149993e+000	 1.053464492380742e+001
 3.031850575069263e+000	 3.656553307508218e+000	 1.050351962920347e+001
 2.993916100426382e+000	 3.687677640983678e+000	 1.046801811192814e+001
 3.376434880180000e+000	 3.376434880180000e+000	 1.060961782322817e+001
 3.341290661643093e+000	 3.411217043022703e+000	 1.061297577081856e+001
 3.305790068853073e+000	 3.445631585190631e+000	 1.061278431618298e+001
 3.269938896650808e+000	 3.479673061130823e+000	 1.060836597762571e+001
 3.233743050125384e+000	 3.513336147588712e+000	 1.059903803387794e+001
 3.197208541376273e+000	 3.546615646378458e+000	 1.058411425927974e+001
 3.160341486192652e+000	 3.579506487050102e+000	 1.056290668334669e+001
 3.123148100653718e+000	 3.612003729450705e+000	 1.053486218426326e+001
 3.085634697653921e+000	 3.644102566176766e+000	 1.050288689614600e+001
 3.047807683357207e+000	 3.675798324915369e+000	 1.046536064387846e+001
 3.009673553584413e+000	 3.707086470671743e+000	 1.042250100215531e+001
 3.394112549710000e+000	 3.394112549710000e+000	 1.059683522099446e+001
 3.358784330028662e+000	 3.429076818117545e+000	 1.060091512475818e+001
 3.323097870260429e+000	 3.463671541134656e+000	 1.060079913537126e+001
 3.287058995585653e+000	 3.497891244697622e+000	 1.059576953008685e+001
 3.250673642010113e+000	 3.531730577681437e+000	 1.058510373754478e+001
 3.213947853110243e+000	 3.565184314684625e+000	 1.056807613118680e+001
 3.176887776695062e+000	 3.598247358710370e+000	 1.054395984676880e+001
 3.139499661388681e+000	 3.630914743741060e+000	 1.051202861907713e+001
 3.101789853137353e+000	 3.663181637203538e+000	 1.047346819199897e+001
 3.063764791645150e+000	 3.695043342322521e+000	 1.042918225334287e+001
 3.025431006742444e+000	 3.726495300359807e+000	 1.037861343283632e+001
 3.411790219240000e+000	 3.411790219240000e+000	 1.058817044738549e+001
 3.376277998414230e+000	 3.446936593212386e+000	 1.059264021802474e+001
 3.340405671667785e+000	 3.481711497078680e+000	 1.059227757290395e+001
 3.304179094520497e+000	 3.516109428264421e+000	 1.058632447768739e+001
 3.267604233894842e+000	 3.550125007774160e+000	 1.057401843023223e+001
 3.230687164844214e+000	 3.583752982990791e+000	 1.055459431252417e+001
 3.193434067197472e+000	 3.616988230370639e+000	 1.052728626643845e+001
 3.155851222123643e+000	 3.649825758031414e+000	 1.049132958830744e+001
 3.117945008620784e+000	 3.682260708230310e+000	 1.044639843474052e+001
 3.079721899933094e+000	 3.714288359729672e+000	 1.039499938468806e+001
 3.041188459900474e+000	 3.745904130047871e+000	 1.033637551717746e+001
 3.429467888769999e+000	 3.429467888769999e+000	 1.058351710164039e+001
 3.393771666799799e+000	 3.464796368307228e+000	 1.058805176269910e+001
 3.357713473075141e+000	 3.499751453022703e+000	 1.058712739645765e+001
 3.321299193455340e+000	 3.534327611831218e+000	 1.057994558189975e+001
 3.284534825779571e+000	 3.568519437866885e+000	 1.056570380087671e+001
 3.247426476578186e+000	 3.602321651296958e+000	 1.054359734885573e+001
 3.209980357699882e+000	 3.635729102030906e+000	 1.051282126923817e+001
 3.172202782858606e+000	 3.668736772321768e+000	 1.047257230610182e+001
 3.134100164104216e+000	 3.701339779257082e+000	 1.042205087014942e+001
 3.095679008221037e+000	 3.733533377136823e+000	 1.036282624910723e+001
 3.056945913058505e+000	 3.765312959735935e+000	 1.033599275568912e+001
 3.447145558300000e+000	 3.447145558300000e+000	 1.058276909575193e+001
 3.411265335185366e+000	 3.482656143402068e+000	 1.058705066228438e+001
 3.375021274482497e+000	 3.517791408966727e+000	 1.058525644594127e+001
 3.338419292390183e+000	 3.552545795398019e+000	 1.057654755943692e+001
 3.301465417664299e+000	 3.586913867959607e+000	 1.056008137891733e+001
 3.264165788312155e+000	 3.620890319603124e+000	 1.053501351381816e+001
 3.226526648202291e+000	 3.654469973691175e+000	 1.050049980005366e+001
 3.188554343593566e+000	 3.687647786612121e+000	 1.045569831126261e+001
 3.150255319587648e+000	 3.720418850283854e+000	 1.039977138276564e+001
 3.111636116508981e+000	 3.752778394543975e+000	 1.033940046632377e+001
 3.072703366216536e+000	 3.784721789423999e+000	 1.034611723522192e+001
 3.464823227830000e+000	 3.464823227830000e+000	 1.058582064648807e+001
 3.428759003570936e+000	 3.500515918496910e+000	 1.058953800682278e+001
 3.392329075889854e+000	 3.535831364910751e+000	 1.058657263165327e+001
 3.355539391325027e+000	 3.570763978964816e+000	 1.057604508339430e+001
 3.318396009549028e+000	 3.605308298052332e+000	 1.055707253836475e+001
 3.280905100046127e+000	 3.639458987909291e+000	 1.052877081605781e+001
 3.243072938704701e+000	 3.673210845351444e+000	 1.049025643151877e+001
 3.204905904328530e+000	 3.706558800902475e+000	 1.044064866542833e+001
 3.166410475071079e+000	 3.739497921310626e+000	 1.037907164641699e+001
 3.127593224796923e+000	 3.772023411951127e+000	 1.035662590539022e+001
 3.088460819374566e+000	 3.804130619112063e+000	 1.035573335115438e+001
 3.482500897360000e+000	 3.482500897360000e+000	 1.059256626765651e+001
 3.446252671956504e+000	 3.518375693591751e+000	 1.059541506816104e+001
 3.409636877297208e+000	 3.553871320854773e+000	 1.059098393249524e+001
 3.372659490259871e+000	 3.588982162531616e+000	 1.057835278435673e+001
 3.335326601433757e+000	 3.623702728145057e+000	 1.055659850174611e+001
 3.297644411780098e+000	 3.658027656215457e+000	 1.052479700595642e+001
 3.259619229207111e+000	 3.691951717011712e+000	 1.048202537346338e+001
 3.221257465063493e+000	 3.725469815192830e+000	 1.042736396518452e+001
 3.182565630554511e+000	 3.758576992337399e+000	 1.037831628332723e+001
 3.143550333084867e+000	 3.791268429358279e+000	 1.037361335575959e+001
 3.104218272532596e+000	 3.823539448800127e+000	 1.036479690074198e+001
 3.500178566889999e+000	 3.500178566889999e+000	 1.060290076260382e+001
 3.463746340342071e+000	 3.536235468686592e+000	 1.060458329535945e+001
 3.426944678704565e+000	 3.571911276798797e+000	 1.059839839423941e+001
 3.389779589194716e+000	 3.607200346098415e+000	 1.058338525147200e+001
 3.352257193318486e+000	 3.642097158237780e+000	 1.055858034393026e+001
 3.314383723514069e+000	 3.676596324521625e+000	 1.052301958215290e+001
 3.276165519709521e+000	 3.710692588671980e+000	 1.047574048207518e+001
 3.237609025798454e+000	 3.744380829483184e+000	 1.041578435380752e+001
 3.198720786037942e+000	 3.777656063364171e+000	 1.039996182885355e+001
 3.159507441372810e+000	 3.810513446765430e+000	 1.038957035422655e+001
 3.119975725690628e+000	 3.842948278488191e+000	 1.037326294277264e+001
 3.517856236419999e+000	 3.517856236419999e+000	 1.061671921694041e+001
 3.481240008727641e+000	 3.554095243781433e+000	 1.061694431023922e+001
 3.444252480111921e+000	 3.589951232742822e+000	 1.060872412784853e+001
 3.406899688129559e+000	 3.625418529665214e+000	 1.059105703349199e+001
 3.369187785203214e+000	 3.660491588330505e+000	 1.056293899583787e+001
 3.331123035248041e+000	 3.695164992827792e+000	 1.052336579786853e+001
 3.292711810211932e+000	 3.729433460332249e+000	 1.047133526878516e+001
 3.253960586533416e+000	 3.763291843773537e+000	 1.043091479574324e+001
 3.214875941521374e+000	 3.796735134390943e+000	 1.042082067525550e+001
 3.175464549660754e+000	 3.829758464172582e+000	 1.040449057566789e+001
 3.135733178848659e+000	 3.862357108176256e+000	 1.038127688691288e+001
 3.535533905950000e+000	 3.535533905950000e+000	 1.063391699148409e+001
 3.498733677113209e+000	 3.571955018876275e+000	 1.063239990306347e+001
 3.461560281519278e+000	 3.607991188686845e+000	 1.062186930784610e+001
 3.424019787064404e+000	 3.643636713232013e+000	 1.060128263978256e+001
 3.386118377087943e+000	 3.678886018423229e+000	 1.056959524804007e+001
 3.347862346982013e+000	 3.713733661133959e+000	 1.052576266704242e+001
 3.309258100714341e+000	 3.748174331992518e+000	 1.046874290888647e+001
 3.270312147268379e+000	 3.782202858063893e+000	 1.045641560124850e+001
 3.231031097004806e+000	 3.815814205417716e+000	 1.044088056714440e+001
 3.191421657948698e+000	 3.849003481579734e+000	 1.041836708115890e+001
 3.151490632006690e+000	 3.881765937864321e+000	 1.038819797063734e+001
 2.993916100426382e+000	 3.687677640983678e+000	 1.046801811192814e+001
 2.955682665584793e+000	 3.718392123024356e+000	 1.041521492718982e+001
 2.917156899705098e+000	 3.748692521761566e+000	 1.035129860156469e+001
 2.878345509997805e+000	 3.778574747875074e+000	 1.036725097001923e+001
 2.839255277906680e+000	 3.808034856336499e+000	 1.038081901863674e+001
 2.799893055247307e+000	 3.837069048031190e+000	 1.038720792178600e+001
 2.760265760305475e+000	 3.865673671256816e+000	 1.038565497150473e+001
 2.720380373899950e+000	 3.893845223097610e+000	 1.037541128715923e+001
 2.680243935414236e+000	 3.921580350673420e+000	 1.035574359621408e+001
 2.639863538801905e+000	 3.948875852262866e+000	 1.032593598321762e+001
 2.599246328570120e+000	 3.975728678300154e+000	 1.028529160250036e+001
 3.009673553584413e+000	 3.707086470671743e+000	 1.042250100215531e+001
 2.971238890138199e+000	 3.737962607880507e+000	 1.035891217043339e+001
 2.932510357069496e+000	 3.768422482400055e+000	 1.034111410211979e+001
 2.893494696889920e+000	 3.798461983387418e+000	 1.035396742462218e+001
 2.854198726735048e+000	 3.828077145050905e+000	 1.036166540572408e+001
 2.814629334482651e+000	 3.857264148280524e+000	 1.036345400434733e+001
 2.774793474830546e+000	 3.886019322154459e+000	 1.035858979827181e+001
 2.734698165338653e+000	 3.914339145320546e+000	 1.034634179626513e+001
 2.694350482439861e+000	 3.942220247251892e+000	 1.032599322493213e+001
 2.653757557424342e+000	 3.969659409375954e+000	 1.029684328561565e+001
 2.612926572401926e+000	 3.996653566076591e+000	 1.025820887679038e+001
 3.025431006742444e+000	 3.726495300359807e+000	 1.037861343283632e+001
 2.986795114691609e+000	 3.757533092736663e+000	 1.032647358098998e+001
 2.947863814433914e+000	 3.788152443038567e+000	 1.033612460963731e+001
 2.908643883782081e+000	 3.818349218899807e+000	 1.034259794941615e+001
 2.869142175563498e+000	 3.848119433765391e+000	 1.034515229718061e+001
 2.829365613718121e+000	 3.877459248529986e+000	 1.034305374153120e+001
 2.789321189355799e+000	 3.906364973052286e+000	 1.033557759839826e+001
 2.749015956777603e+000	 3.934833067543729e+000	 1.032201022803209e+001
 2.708457029465810e+000	 3.962860143830687e+000	 1.030165082858670e+001
 2.667651576047185e+000	 3.990442966489449e+000	 1.027381320157487e+001
 2.626606816234234e+000	 4.017578453853528e+000	 1.023782748457887e+001
 3.041188459900474e+000	 3.745904130047871e+000	 1.033637551717746e+001
 3.002351339245025e+000	 3.777103577592825e+000	 1.032945202336536e+001
 2.963217271798352e+000	 3.807882403677097e+000	 1.033225040052984e+001
 2.923793070674288e+000	 3.838236454412244e+000	 1.033307399334990e+001
 2.884085624392029e+000	 3.868161722479959e+000	 1.033120246046244e+001
 2.844101892953717e+000	 3.897654348779572e+000	 1.032592146593484e+001
 2.803848903881234e+000	 3.926710623950293e+000	 1.031652451846675e+001
 2.763333748216802e+000	 3.955326989767160e+000	 1.030231479390994e+001
 2.722563576492080e+000	 3.983500040409804e+000	 1.028260693624127e+001
 2.681545594670438e+000	 4.011226523603352e+000	 1.025672883221099e+001
 2.640287060067045e+000	 4.038503341630969e+000	 1.022402335499263e+001
 3.056945913058505e+000	 3.765312959735935e+000	 1.033599275568912e+001
 3.017907563798445e+000	 3.796674062448990e+000	 1.033275254117894e+001
 2.978570729162810e+000	 3.827612364315648e+000	 1.032943147669483e+001
 2.938942257566540e+000	 3.858123689924723e+000	 1.032532684896565e+001
 2.899029073220639e+000	 3.888204011194608e+000	 1.031973871851256e+001
 2.858838172189439e+000	 3.917849449029285e+000	 1.031197177295000e+001
 2.818376618406850e+000	 3.947056274848481e+000	 1.030133717048806e+001
 2.777651539656245e+000	 3.975820911990836e+000	 1.028715436865136e+001
 2.736670123518674e+000	 4.004139936989244e+000	 1.026875293329611e+001
 2.695439613294097e+000	 4.032010080717662e+000	 1.024547432309148e+001
 2.653967303900358e+000	 4.059428229408913e+000	 1.021667364473148e+001
 3.072703366216536e+000	 3.784721789423999e+000	 1.034611723522192e+001
 3.033463788351870e+000	 3.816244547305160e+000	 1.033632350461711e+001
 2.993924186527289e+000	 3.847342324954219e+000	 1.032760747679464e+001
 2.954091444458838e+000	 3.878010925437250e+000	 1.031928765640948e+001
 2.913972522049332e+000	 3.908246299909337e+000	 1.031068394833792e+001
 2.873574451425288e+000	 3.938044549279125e+000	 1.030111951402452e+001
 2.832904332932649e+000	 3.967401925746852e+000	 1.028992261996713e+001
 2.791969331095936e+000	 3.996314834214760e+000	 1.027642847330409e+001
 2.750776670545588e+000	 4.024779833569006e+000	 1.025998103953092e+001
 2.709333631918164e+000	 4.052793637832379e+000	 1.023993483745480e+001
 2.667647547734174e+000	 4.080353117187359e+000	 1.021565670659202e+001
 3.088460819374566e+000	 3.804130619112063e+000	 1.035573335115438e+001
 3.049020012905300e+000	 3.835815032161337e+000	 1.034011272025985e+001
 3.009277643891787e+000	 3.867072285592808e+000	 1.032671768552279e+001
 2.969240631351180e+000	 3.897898160949821e+000	 1.031488740731903e+001
 2.928915970878104e+000	 3.928288588624146e+000	 1.030396107963035e+001
 2.888310730661264e+000	 3.958239649529090e+000	 1.029327979013037e+001
 2.847432047458628e+000	 3.987747576645405e+000	 1.028218837433426e+001
 2.806287122535875e+000	 4.016808756438931e+000	 1.027003725872383e+001
 2.764883217572826e+000	 4.045419730149088e+000	 1.025618428781967e+001
 2.723227650542639e+000	 4.073577194947505e+000	 1.023999653024936e+001
 2.681327791568492e+000	 4.101278004966307e+000	 1.022085205895495e+001
 3.104218272532596e+000	 3.823539448800127e+000	 1.036479690074198e+001
 3.064576237458737e+000	 3.855385517017518e+000	 1.034406744538560e+001
 3.024631101256306e+000	 3.886802246231421e+000	 1.032670104258791e+001
 2.984389818243570e+000	 3.917785396462439e+000	 1.031205694859273e+001
 2.943859419706957e+000	 3.948330877339037e+000	 1.029949309342935e+001
 2.903047009897364e+000	 3.978434749779182e+000	 1.028836794543051e+001
 2.861959761984790e+000	 4.008093227544139e+000	 1.027804237172875e+001
 2.820604913976060e+000	 4.037302678663349e+000	 1.026788148958926e+001
 2.778989764600386e+000	 4.066059626729496e+000	 1.025725650349364e+001
 2.737121669167521e+000	 4.094360752063039e+000	 1.024554652296322e+001
 2.695008035403313e+000	 4.122202892745759e+000	 1.023214035620173e+001
 3.119975725690628e+000	 3.842948278488191e+000	 1.037326294277264e+001
 3.080132462012176e+000	 3.874956001873703e+000	 1.034813440184236e+001
 3.039984558620846e+000	 3.906532206870053e+000	 1.032749615142553e+001
 2.999539005136003e+000	 3.937672631975102e+000	 1.031072698604486e+001
 2.958802868535893e+000	 3.968373166054009e+000	 1.029720302082545e+001
 2.917783289133592e+000	 3.998629850029400e+000	 1.028629956113771e+001
 2.876487476511133e+000	 4.028438878443054e+000	 1.027739297012241e+001
 2.834922705416493e+000	 4.057796600888015e+000	 1.026986252890145e+001
 2.793096311628267e+000	 4.086699523310224e+000	 1.026309228432993e+001
 2.751015687792810e+000	 4.115144309178978e+000	 1.025647287921659e+001
 2.708688279238637e+000	 4.143127780525714e+000	 1.024940336002768e+001
 3.135733178848659e+000	 3.862357108176256e+000	 1.038127688691288e+001
 3.095688686565623e+000	 3.894526486729895e+000	 1.035225978950084e+001
 3.055338015985406e+000	 3.926262167508705e+000	 1.032904128764707e+001
 3.014688192028483e+000	 3.957559867487810e+000	 1.031082808795026e+001
 2.973746317364908e+000	 3.988415454769062e+000	 1.029701394170261e+001
 2.932519568369945e+000	 4.018824950279744e+000	 1.028699044955854e+001
 2.891015191037657e+000	 4.048784529342152e+000	 1.028014893677103e+001
 2.849240496857172e+000	 4.078290523112926e+000	 1.027588232295065e+001
 2.807202858656473e+000	 4.107339419891274e+000	 1.027358698114321e+001
 2.764909706418508e+000	 4.135927866295328e+000	 1.027266458109005e+001
 2.722368523074464e+000	 4.164052668306170e+000	 1.027252391162002e+001
 3.151490632006690e+000	 3.881765937864321e+000	 1.038819797063734e+001
 3.111244911119075e+000	 3.914096971586092e+000	 1.035638929930381e+001
 3.070691473349985e+000	 3.945992128147378e+000	 1.033127440723552e+001
 3.029837378921009e+000	 3.977447103000565e+000	 1.031229068848301e+001
 2.988689766194005e+000	 4.008457743484196e+000	 1.029884898351841e+001
 2.947255847606426e+000	 4.039020050530216e+000	 1.029035664831599e+001
 2.905542905564364e+000	 4.069130180241432e+000	 1.028621943798224e+001
 2.863558288298099e+000	 4.098784445338088e+000	 1.028584338673405e+001
 2.821309405685000e+000	 4.127979316472649e+000	 1.028863667895986e+001
 2.778803725044614e+000	 4.156711423412083e+000	 1.029401150616317e+001
 2.736048766910793e+000	 4.184977556087130e+000	 1.030138590467059e+001
 2.599246328570120e+000	 3.975728678300154e+000	 1.028529160250036e+001
 2.558399495745880e+000	 4.002135932245784e+000	 1.023249787771518e+001
 2.517330273829839e+000	 4.028094871329415e+000	 1.018584823391119e+001
 2.476045934742123e+000	 4.053602907166102e+000	 1.015035341525804e+001
 2.434553784764504e+000	 4.078657606247210e+000	 1.012325189112545e+001
 2.392861160483732e+000	 4.103256690304888e+000	 1.010021089687644e+001
 2.350975424740408e+000	 4.127398036551245e+000	 1.008101038631465e+001
 2.308903962587824e+000	 4.151079677793084e+000	 1.006543822737897e+001
 2.266654177265143e+000	 4.174299802423162e+000	 1.005329140811106e+001
 2.224233486189214e+000	 4.197056754289153e+000	 1.004437720555276e+001
 2.181649316969235e+000	 4.219349032441642e+000	 1.003851431444718e+001
 2.612926572401926e+000	 3.996653566076591e+000	 1.025820887679038e+001
 2.571864756247123e+000	 4.023199805569313e+000	 1.021421440784584e+001
 2.530579380531644e+000	 4.049295370648115e+000	 1.017460899795387e+001
 2.489077755448880e+000	 4.074937659304963e+000	 1.014138708933209e+001
 2.447367225734718e+000	 4.100124225223292e+000	 1.011756444314297e+001
 2.405455166589521e+000	 4.124852778144358e+000	 1.009587844980519e+001
 2.363348979605680e+000	 4.149121184107708e+000	 1.007605675124635e+001
 2.321056088705193e+000	 4.172927465566493e+000	 1.005783713123614e+001
 2.278583936091637e+000	 4.196269801378701e+000	 1.004096877173441e+001
 2.235939978220896e+000	 4.219146526675410e+000	 1.002521346851868e+001
 2.193131681794851e+000	 4.241556132607472e+000	 1.001034680290258e+001
 2.626606816234234e+000	 4.017578453853528e+000	 1.023782748457887e+001
 2.585330016748962e+000	 4.044263678893447e+000	 1.020188237052866e+001
 2.543828487234133e+000	 4.070495869967516e+000	 1.016858820730491e+001
 2.502109576156395e+000	 4.096272411444630e+000	 1.013757208469379e+001
 2.460180666705753e+000	 4.121590844200274e+000	 1.011590830451962e+001
 2.418049172696184e+000	 4.146448865984830e+000	 1.009490373937292e+001
 2.375722534471873e+000	 4.170844331665272e+000	 1.007380485589129e+001
 2.333208214823517e+000	 4.194775253341109e+000	 1.005229934740566e+001
 2.290513694919110e+000	 4.218239800335543e+000	 1.003008857317876e+001
 2.247646470253574e+000	 4.241236299063070e+000	 1.000688882108154e+001
 2.204614046621467e+000	 4.263763232774805e+000	 9.982432522654285e+000
 2.640287060067045e+000	 4.038503341630969e+000	 1.022402335499263e+001
 2.598795277251401e+000	 4.065327552218183e+000	 1.019539210988881e+001
 2.557077593937302e+000	 4.091696369287622e+000	 1.016769035410397e+001
 2.515141396864667e+000	 4.117607163585098e+000	 1.014048686861367e+001
 2.472994107677610e+000	 4.143057463178161e+000	 1.011820135741156e+001
 2.430643178803725e+000	 4.168044953826307e+000	 1.009721810431284e+001
 2.388096089338987e+000	 4.192567479223944e+000	 1.007419920897553e+001
 2.345360340942797e+000	 4.216623041116926e+000	 1.004878226174377e+001
 2.302443453747564e+000	 4.240209799293691e+000	 1.002062077651627e+001
 2.259352962287246e+000	 4.263326071452134e+000	 9.989385500795640e+000
 2.216096411449083e+000	 4.285970332943644e+000	 9.954765674421440e+000
 2.653967303900358e+000	 4.059428229408913e+000	 1.021667364473148e+001
 2.612260537754436e+000	 4.086391425543521e+000	 1.019463493589337e+001
 2.570326700641156e+000	 4.112896868608430e+000	 1.017182064030350e+001
 2.528173217573696e+000	 4.138941915726369e+000	 1.014774126579688e+001
 2.485807548650290e+000	 4.164524082156951e+000	 1.012436169923575e+001
 2.443237184912141e+000	 4.189641041668788e+000	 1.010275286028622e+001
 2.400469644207022e+000	 4.214290626783716e+000	 1.007718406390236e+001
 2.357512467063031e+000	 4.238470828893948e+000	 1.004724277869885e+001
 2.314373212576998e+000	 4.262179798253141e+000	 1.001253464457199e+001
 2.271059454321914e+000	 4.285415843842602e+000	 9.972684830449973e+000
 2.227578776277698e+000	 4.308177433113985e+000	 9.927339337031709e+000
 2.667647547734174e+000	 4.080353117187359e+000	 1.021565670659202e+001
 2.625725798258069e+000	 4.107455298869463e+000	 1.019950309958636e+001
 2.583575807345691e+000	 4.134097367929940e+000	 1.018088495946839e+001
 2.541205038283481e+000	 4.160276667868444e+000	 1.015925454978738e+001
 2.498620989623790e+000	 4.185990701136644e+000	 1.013430763715043e+001
 2.455831191021434e+000	 4.211237129512269e+000	 1.011143930047402e+001
 2.412843199075978e+000	 4.236013774344592e+000	 1.008270342529885e+001
 2.369664593184222e+000	 4.260318616672175e+000	 1.004763733365517e+001
 2.326302971407413e+000	 4.284149797213895e+000	 1.000579875690448e+001
 2.282765946357576e+000	 4.307505616234475e+000	 9.956767241523716e+000
 2.239061141107313e+000	 4.330384533285831e+000	 9.900145496187603e+000
 2.681327791568492e+000	 4.101278004966307e+000	 1.022085205895495e+001
 2.639191058762300e+000	 4.128519172196009e+000	 1.020988976908149e+001
 2.596824914050908e+000	 4.155297867252152e+000	 1.019478987913276e+001
 2.554236858994026e+000	 4.181611420011321e+000	 1.017494643050794e+001
 2.511434430598112e+000	 4.207457320117239e+000	 1.014977133858782e+001
 2.468425197131604e+000	 4.232833217356756e+000	 1.012320869615031e+001
 2.425216753945855e+000	 4.257736921906573e+000	 1.009070105536235e+001
 2.381816719306369e+000	 4.282166404451602e+000	 1.004992190489892e+001
 2.338232730238807e+000	 4.306119796175953e+000	 1.000038102723620e+001
 2.294472438394234e+000	 4.329595388627752e+000	 9.941612296923745e+000
 2.250543505937929e+000	 4.352591633459181e+000	 9.873175072352350e+000
 2.695008035403313e+000	 4.122202892745759e+000	 1.023214035620173e+001
 2.652656319267128e+000	 4.149583045523155e+000	 1.022568900628643e+001
 2.610074020756808e+000	 4.176498366575068e+000	 1.021344262369420e+001
 2.567268679705326e+000	 4.202946172155001e+000	 1.019473704318455e+001
 2.524247871573256e+000	 4.228923939098740e+000	 1.016892801894887e+001
 2.481019203242650e+000	 4.254429305202246e+000	 1.013799229723838e+001
 2.437590308816653e+000	 4.279460069469656e+000	 1.010112048001343e+001
 2.393968845429471e+000	 4.304014192232235e+000	 1.005405202521954e+001
 2.350162489071183e+000	 4.328089795139315e+000	 9.996248720352742e+000
 2.306178930431887e+000	 4.351685161022433e+000	 9.927198713029586e+000
 2.262025870769545e+000	 4.374798733634035e+000	 9.846417947786469e+000
 2.708688279238637e+000	 4.143127780525714e+000	 1.024940336002768e+001
 2.666121579772554e+000	 4.170646918850905e+000	 1.024679574433215e+001
 2.623323127463390e+000	 4.197698865898687e+000	 1.023675105782628e+001
 2.580300500417384e+000	 4.224280924299485e+000	 1.021854693760642e+001
 2.537061312549223e+000	 4.250390558081143e+000	 1.019148297626228e+001
 2.493613209354573e+000	 4.276025393048738e+000	 1.015572133284979e+001
 2.449963863688373e+000	 4.301183217033843e+000	 1.011390499486252e+001
 2.406120971553529e+000	 4.325861980014071e+000	 1.005998279315972e+001
 2.362092247904538e+000	 4.350059794103981e+000	 9.993368468490283e+000
 2.317885422470535e+000	 4.373774933418515e+000	 9.913504381070416e+000
 2.273508235602161e+000	 4.397005833810392e+000	 9.914160051424581e+000
 2.722368523074464e+000	 4.164052668306170e+000	 1.027252391162002e+001
 2.679586840278577e+000	 4.191710792179257e+000	 1.027310576568292e+001
 2.636572234170655e+000	 4.218899365223009e+000	 1.026462367039120e+001
 2.593332321130198e+000	 4.245615676444770e+000	 1.024629706770987e+001
 2.549874753526011e+000	 4.271857177064447e+000	 1.021736938195938e+001
 2.506207215467371e+000	 4.297621480896234e+000	 1.017710981300297e+001
 2.462337418561012e+000	 4.322906364599133e+000	 1.012899767099654e+001
 2.418273097678543e+000	 4.347709767797111e+000	 1.006766888392614e+001
 2.374022006738874e+000	 4.372029793069950e+000	 9.991706287228690e+000
 2.329591914510179e+000	 4.395864705816004e+000	 9.982219124989866e+000
 2.284990600435776e+000	 4.419212933988255e+000	 9.979722090582383e+000
 2.736048766910793e+000	 4.184977556087130e+000	 1.030138590467059e+001
 2.693052100785198e+000	 4.212774665508213e+000	 1.030451568090301e+001
 2.649821340878603e+000	 4.240099864548034e+000	 1.029696955883509e+001
 2.606364141843770e+000	 4.266950428590860e+000	 1.027790878147460e+001
 2.562688194503621e+000	 4.293323796048657e+000	 1.024652059203315e+001
 2.518801221581046e+000	 4.319217568744734e+000	 1.020202008882130e+001
 2.474710973434573e+000	 4.344629512165527e+000	 1.014634136059201e+001
 2.430425223804512e+000	 4.369557555581356e+000	 1.007706455997284e+001
 2.385951765574191e+000	 4.393999792037224e+000	 1.005896729498535e+001
 2.341298406550817e+000	 4.417954478214896e+000	 1.005337713112250e+001
 2.296472965270393e+000	 4.441420034167621e+000	 1.004227032634686e+001
 2.181649316969235e+000	 4.219349032441642e+000	 1.003851431444718e+001
 2.138909103449004e+000	 4.241175290762651e+000	 1.005039653349361e+001
 2.096020281778892e+000	 4.262534337476436e+000	 1.004703133751427e+001
 2.052990286523145e+000	 4.283425134544102e+000	 1.002800903628027e+001
 2.009826546807197e+000	 4.303846796944171e+000	 9.992954774855781e+000
 1.966536482506964e+000	 4.323798591841205e+000	 9.941529465909742e+000
 1.923127500484418e+000	 4.343279937644681e+000	 9.873430641306490e+000
 1.879606990872978e+000	 4.362290402960451e+000	 9.788393221524936e+000
 1.835982323416120e+000	 4.380829705437297e+000	 9.736766620861578e+000
 1.792260843862487e+000	 4.398897710511126e+000	 9.772875181993005e+000
 1.748449870420633e+000	 4.416494430049542e+000	 9.801852541289215e+000
 2.193131681794851e+000	 4.241556132607472e+000	 1.001034680290258e+001
 2.150166519782733e+000	 4.263497265972152e+000	 1.000600076611804e+001
 2.107051967472487e+000	 4.284968728721272e+000	 9.986244740029349e+000
 2.063795498557646e+000	 4.305969477352578e+000	 9.950669414828258e+000
 2.020404581264306e+000	 4.326498622186580e+000	 9.898900554348453e+000
 1.976886674520360e+000	 4.346555426530812e+000	 9.830599942138779e+000
 1.933249224171266e+000	 4.366139305733747e+000	 9.745466245980520e+000
 1.889499659245882e+000	 4.385249826130742e+000	 9.718392634522086e+000
 1.845645388275808e+000	 4.403886703884519e+000	 9.751076365439754e+000
 1.801693795671522e+000	 4.422049803722750e+000	 9.778896137915234e+000
 1.757652238158466e+000	 4.439739137575500e+000	 9.799853206362908e+000
 2.204614046621467e+000	 4.263763232774805e+000	 9.982432522654285e+000
 2.161423936117456e+000	 4.285819241183235e+000	 9.962128630088452e+000
 2.118083653167060e+000	 4.307403119967731e+000	 9.926246789653476e+000
 2.074600710593102e+000	 4.328513820162675e+000	 9.874377744631502e+000
 2.030982615722333e+000	 4.349150447430567e+000	 9.806147558285455e+000
 1.987236866534630e+000	 4.369312261221915e+000	 9.721218574088741e+000
 1.943370947858931e+000	 4.388998673824185e+000	 9.715180884561192e+000
 1.899392327619537e+000	 4.408209249302242e+000	 9.740733434738942e+000
 1.855308453136171e+000	 4.426943702332746e+000	 9.763582518135161e+000
 1.811126747481146e+000	 4.445201896935138e+000	 9.783274599918174e+000
 1.766854605896794e+000	 4.462983845101943e+000	 9.796370256036521e+000
 2.216096411449083e+000	 4.285970332943644e+000	 9.954765674421440e+000
 2.172681352453174e+000	 4.308141216395904e+000	 9.918772935066532e+000
 2.129115338862615e+000	 4.329837511215812e+000	 9.867028938226195e+000
 2.085405922629511e+000	 4.351058162974391e+000	 9.799124152191562e+000
 2.041560650181279e+000	 4.371802272676131e+000	 9.714684619558804e+000
 1.997587058549771e+000	 4.392069095914510e+000	 9.722316477326613e+000
 1.953492671547413e+000	 4.411858041915995e+000	 9.744227277804983e+000
 1.909284995993943e+000	 4.431168672474952e+000	 9.761143648655375e+000
 1.864971517997210e+000	 4.450000700781982e+000	 9.774324103058978e+000
 1.820559699291361e+000	 4.468353990148293e+000	 9.786046173102029e+000
 1.776056973635617e+000	 4.486228552628871e+000	 9.791435930251952e+000
 2.227578776277698e+000	 4.308177433113985e+000	 9.927339337031709e+000
 2.183938768789886e+000	 4.330463191610154e+000	 9.875925436990851e+000
 2.140147024559148e+000	 4.352271902465517e+000	 9.808581651253714e+000
 2.096211134666874e+000	 4.373602505787726e+000	 9.724897844260443e+000
 2.052138684641143e+000	 4.394454097923273e+000	 9.739872091453522e+000
 2.007937250565785e+000	 4.414825930608601e+000	 9.757909493592424e+000
 1.963614395236711e+000	 4.434717410009177e+000	 9.771180683526987e+000
 1.919177664369100e+000	 4.454128095648869e+000	 9.779651552656366e+000
 1.874634582858924e+000	 4.473057699232222e+000	 9.783339544502308e+000
 1.829992651102166e+000	 4.491506083362213e+000	 9.787245923964910e+000
 1.785259341374934e+000	 4.509473260156284e+000	 9.785081990591314e+000
 2.239061141107313e+000	 4.330384533285831e+000	 9.900145496187603e+000
 2.195196185127593e+000	 4.352785166825989e+000	 9.833576865095385e+000
 2.151178710256661e+000	 4.374706293716842e+000	 9.750894433199461e+000
 2.107016346705191e+000	 4.396146848602682e+000	 9.767875394534185e+000
 2.062716719101926e+000	 4.417105923171991e+000	 9.781841884895655e+000
 2.018287442582672e+000	 4.437582765304187e+000	 9.791249608732754e+000
 1.973736118926827e+000	 4.457576778103730e+000	 9.796071610951051e+000
 1.929070332745009e+000	 4.477087518823997e+000	 9.796284778109277e+000
 1.884297647721313e+000	 4.496114697683471e+000	 9.791869839662649e+000
 1.839425602913561e+000	 4.514658176576894e+000	 9.786908394213132e+000
 1.794461709114746e+000	 4.532717967684179e+000	 9.777339732542522e+000
 2.250543505937929e+000	 4.352591633459181e+000	 9.873175072352350e+000
 2.206453601466296e+000	 4.375107142043407e+000	 9.792225622492902e+000
 2.162210395955153e+000	 4.397140684969789e+000	 9.806308414328345e+000
 2.117821558744462e+000	 4.418691191419257e+000	 9.816041271976300e+000
 2.073294753563626e+000	 4.439757748422287e+000	 9.821401391409784e+000
 2.028637634600432e+000	 4.460339600001269e+000	 9.822369504349819e+000
 1.983857842617759e+000	 4.480436146199654e+000	 9.818929880821795e+000
 1.938963001121667e+000	 4.500046942000331e+000	 9.811070327818364e+000
 1.893960712584378e+000	 4.519171696135725e+000	 9.798782184078887e+000
 1.848858554725545e+000	 4.537810269792345e+000	 9.785067614148721e+000
 1.803664076855054e+000	 4.555962675212561e+000	 9.768239997389484e+000
 2.262025870769545e+000	 4.374798733634035e+000	 9.846417947786469e+000
 2.217711017805993e+000	 4.397429117262409e+000	 9.855106953711852e+000
 2.173242081654625e+000	 4.419575076224358e+000	 9.860478869165036e+000
 2.128626770784688e+000	 4.441235534237453e+000	 9.861642043104393e+000
 2.083872788026245e+000	 4.462409573674162e+000	 9.858585405024135e+000
 2.038987826619063e+000	 4.483096434699841e+000	 9.851301131805482e+000
 1.993979566309508e+000	 4.503295514296951e+000	 9.839784642878643e+000
 1.948855669499078e+000	 4.523006365177878e+000	 9.824034591978215e+000
 1.903623777448118e+000	 4.542228694588987e+000	 9.804052855504944e+000
 1.858291506538120e+000	 4.560962363008559e+000	 9.781757115649256e+000
 1.812866444595856e+000	 4.579207382741427e+000	 9.757813183740137e+000
 2.273508235602161e+000	 4.397005833810392e+000	 9.914160051424581e+000
 2.228968434146685e+000	 4.419751092482993e+000	 9.915079705375772e+000
 2.184273767355075e+000	 4.442009467480548e+000	 9.911932001763374e+000
 2.139431982825867e+000	 4.463779877057269e+000	 9.904714554942339e+000
 2.094450822489782e+000	 4.485061398927612e+000	 9.893427949430871e+000
 2.049338018638567e+000	 4.505853269399911e+000	 9.878075730661575e+000
 2.004101290002073e+000	 4.526154882395619e+000	 9.858664392800426e+000
 1.958748337877239e+000	 4.545965788356631e+000	 9.835203363643590e+000
 1.913286842312534e+000	 4.565285693043253e+000	 9.807704986607316e+000
 1.867724458351285e+000	 4.584114456225539e+000	 9.777009944754358e+000
 1.822068812337153e+000	 4.602452090270778e+000	 9.746089258705069e+000
 2.284990600435776e+000	 4.419212933988255e+000	 9.979722090582383e+000
 2.240225850488372e+000	 4.442073067705161e+000	 9.972185557810269e+000
 2.195305453056506e+000	 4.464443858738362e+000	 9.960706653247703e+000
 2.150237194868000e+000	 4.486324219878704e+000	 9.945294845713145e+000
 2.105028856954237e+000	 4.507713224182639e+000	 9.925962297341281e+000
 2.059688210658944e+000	 4.528610104101474e+000	 9.902723846564351e+000
 2.014223013695456e+000	 4.549014250495659e+000	 9.875596988639099e+000
 1.968641006256151e+000	 4.568925211536594e+000	 9.844601853733041e+000
 1.922949907177625e+000	 4.588342691498529e+000	 9.809761182588201e+000
 1.877157410165040e+000	 4.607266549443284e+000	 9.771100299784269e+000
 1.831271180078945e+000	 4.625696797800614e+000	 9.733097768739228e+000
 2.296472965270393e+000	 4.441420034167621e+000	 1.004227032634686e+001
 2.251483266831054e+000	 4.464395042928913e+000	 1.002646528789298e+001
 2.206337138758916e+000	 4.486878249997798e+000	 1.000684081907345e+001
 2.161042406911087e+000	 4.508868562701761e+000	 9.983418165058994e+000
 2.115606891419611e+000	 4.530365049439245e+000	 9.956220989260267e+000
 2.070038402680193e+000	 4.551366938804532e+000	 9.925275348592406e+000
 2.024344737389655e+000	 4.571873618597071e+000	 9.890609666760318e+000
 1.978533674635815e+000	 4.591884634717767e+000	 9.852254705582219e+000
 1.932612972043392e+000	 4.611399689954811e+000	 9.810243534372130e+000
 1.886590361979385e+000	 4.630418642661794e+000	 9.764611497405031e+000
 1.840473547821232e+000	 4.648941505330933e+000	 9.718867850158297e+000
 1.748449870420633e+000	 4.416494430049542e+000	 9.801852541289215e+000
 1.704556690275469e+000	 4.433620020899308e+000	 9.811835870546149e+000
 1.660588556172508e+000	 4.450274783340313e+000	 9.814278670077410e+000
 1.616552683069939e+000	 4.466459159448743e+000	 9.809293833501439e+000
 1.572456244859625e+000	 4.482173731371831e+000	 9.796992942525785e+000
 1.528306371162558e+000	 4.497419219518086e+000	 9.777486008693913e+000
 1.484110144199970e+000	 4.512196480665969e+000	 9.750881229911965e+000
 1.439874595742234e+000	 4.526506505994299e+000	 9.717284761984510e+000
 1.395606704137587e+000	 4.540350419037734e+000	 9.676800505334652e+000
 1.351313391422532e+000	 4.553729473570638e+000	 9.629529907031897e+000
 1.307001520515620e+000	 4.566645051422786e+000	 9.575571778199373e+000
 1.757652238158466e+000	 4.439739137575500e+000	 9.799853206362908e+000
 1.713528041275271e+000	 4.456954863114908e+000	 9.802811513253902e+000
 1.669328495939905e+000	 4.473697282201146e+000	 9.799460074110115e+000
 1.625060855084024e+000	 4.489966839237116e+000	 9.789929795795647e+000
 1.580732330356815e+000	 4.505764119433992e+000	 9.774348839725947e+000
 1.536350088903590e+000	 4.521089846991899e+000	 9.752842364805160e+000
 1.491921250220426e+000	 4.535944883198664e+000	 9.725532287062205e+000
 1.447452883087016e+000	 4.550330224449835e+000	 9.692537056176072e+000
 1.402952002579742e+000	 4.564247000193416e+000	 9.653971449024379e+000
 1.358425567166879e+000	 4.577696470802579e+000	 9.609946380333673e+000
 1.313880475887600e+000	 4.590680025379892e+000	 9.560568730455836e+000
 1.766854605896794e+000	 4.462983845101943e+000	 9.796370256036521e+000
 1.722499392275472e+000	 4.480289705330701e+000	 9.792667664269178e+000
 1.678068435707619e+000	 4.497119781061904e+000	 9.783873734384262e+000
 1.633569027098352e+000	 4.513474519025167e+000	 9.770137359252820e+000
 1.589008415854182e+000	 4.529354507495599e+000	 9.751603259505288e+000
 1.544393806644744e+000	 4.544760474464952e+000	 9.728411727557152e+000
 1.499732356240960e+000	 4.559693285730408e+000	 9.700698390247631e+000
 1.455031170431841e+000	 4.574153942904255e+000	 9.668593990243929e+000
 1.410297301021917e+000	 4.588143581347830e+000	 9.632224186303521e+000
 1.365537742911231e+000	 4.601663468033123e+000	 9.591709372428831e+000
 1.320759431259581e+000	 4.614714999335489e+000	 9.547164515891286e+000
 1.776056973635617e+000	 4.486228552628871e+000	 9.791435930251952e+000
 1.731470743276074e+000	 4.503624547546692e+000	 9.781430028783261e+000
 1.686808375475648e+000	 4.520542279922586e+000	 9.767539035805083e+000
 1.642077199112920e+000	 4.536982198812895e+000	 9.749929804680075e+000
 1.597284501351727e+000	 4.552944895556654e+000	 9.728763596330392e+000
 1.552437524386020e+000	 4.568431101937240e+000	 9.704195824249780e+000
 1.507543462261574e+000	 4.583441688261202e+000	 9.676375820038935e+000
 1.462609457776710e+000	 4.597977661357555e+000	 9.645446619578582e+000
 1.417642599464111e+000	 4.612040162500976e+000	 9.611544769892072e+000
 1.372649918655588e+000	 4.625630465262271e+000	 9.574800156687257e+000
 1.327638386631561e+000	 4.638749973289583e+000	 9.535335852507998e+000
 1.785259341374934e+000	 4.509473260156284e+000	 9.785081990591314e+000
 1.740442094277075e+000	 4.526959389762877e+000	 9.769123959366066e+000
 1.695548315243992e+000	 4.543964778783195e+000	 9.750475132125489e+000
 1.650585371127729e+000	 4.560489878600298e+000	 9.729320298904828e+000
 1.605560586849447e+000	 4.576535283617154e+000	 9.705837243540072e+000
 1.560481242127419e+000	 4.592101729408770e+000	 9.680196489565187e+000
 1.515354568282264e+000	 4.607190090791048e+000	 9.652561068538530e+000
 1.470187745121624e+000	 4.621801379809735e+000	 9.623086310875738e+000
 1.424987897906324e+000	 4.635936743652854e+000	 9.591919659199736e+000
 1.379762094399950e+000	 4.649597462490021e+000	 9.559200504153974e+000
 1.334517342003541e+000	 4.662784947242169e+000	 9.525060042562430e+000
 1.794461709114746e+000	 4.532717967684179e+000	 9.777339732542522e+000
 1.749413445278476e+000	 4.550294231979255e+000	 9.755774465007814e+000
 1.704288255012651e+000	 4.567387277643729e+000	 9.732700951873166e+000
 1.659093543142779e+000	 4.583997558387379e+000	 9.708321897697335e+000
 1.613836672347344e+000	 4.600125671677105e+000	 9.682831593374308e+000
 1.568524959868940e+000	 4.615772356879540e+000	 9.656415662814325e+000
 1.523165674303032e+000	 4.630938493319944e+000	 9.629250833956730e+000
 1.477766032466580e+000	 4.645625098260799e+000	 9.601504734154101e+000
 1.432333196348558e+000	 4.659833324803467e+000	 9.573335709897901e+000
 1.386874270144317e+000	 4.673564459716376e+000	 9.544892670788190e+000
 1.341396297375522e+000	 4.686819921193250e+000	 9.516314957584273e+000
 1.803664076855054e+000	 4.555962675212561e+000	 9.768239997389484e+000
 1.758384796280277e+000	 4.573629074195829e+000	 9.741406219883702e+000
 1.713028194781627e+000	 4.590809776504190e+000	 9.714235204095981e+000
 1.667601715158070e+000	 4.607505238174136e+000	 9.686947548603868e+000
 1.622112757845418e+000	 4.623716059736503e+000	 9.659754037002282e+000
 1.576568677610583e+000	 4.639442984349548e+000	 9.632855385267868e+000
 1.530976780323879e+000	 4.654686895847889e+000	 9.606442015353839e+000
 1.485344319811581e+000	 4.669448816710744e+000	 9.580693855017552e+000
 1.439678494790811e+000	 4.683729905952811e+000	 9.555780163811022e+000
 1.393986445888689e+000	 4.697531456941334e+000	 9.531859385093080e+000
 1.348275252747503e+000	 4.710854895142822e+000	 9.509079023854206e+000
 1.812866444595856e+000	 4.579207382741427e+000	 9.757813183740137e+000
 1.767356147282479e+000	 4.596963916412597e+000	 9.726043571851843e+000
 1.721768134550916e+000	 4.614232275364574e+000	 9.695096383932652e+000
 1.676109887173601e+000	 4.631012917960568e+000	 9.665210093693405e+000
 1.630388843343668e+000	 4.647306447795351e+000	 9.636611964549530e+000
 1.584612395352348e+000	 4.663113611818793e+000	 9.609517797568429e+000
 1.538787886344805e+000	 4.678435298374887e+000	 9.584131707542438e+000
 1.492922607156626e+000	 4.693272535159570e+000	 9.560645927152994e+000
 1.447023793233082e+000	 4.707626487100887e+000	 9.539240639115699e+000
 1.401098621633065e+000	 4.721498454164895e+000	 9.520083836122257e+000
 1.355154208119483e+000	 4.734889869090891e+000	 9.503331208323923e+000
 1.822068812337153e+000	 4.602452090270778e+000	 9.746089258705069e+000
 1.776327498285080e+000	 4.620298758629560e+000	 9.709710550693531e+000
 1.730508074320522e+000	 4.637654774224886e+000	 9.675302778014434e+000
 1.684618059189374e+000	 4.654520597746678e+000	 9.643122272221271e+000
 1.638664928842095e+000	 4.670896835853642e+000	 9.613412765124339e+000
 1.592656113094236e+000	 4.686784239287280e+000	 9.586405137221103e+000
 1.546598992365808e+000	 4.702183700900934e+000	 9.562317196144171e+000
 1.500500894501714e+000	 4.717096253607278e+000	 9.541353485055490e+000
 1.454369091675374e+000	 4.731523068247697e+000	 9.523705120836876e+000
 1.408210797377446e+000	 4.745465451387059e+000	 9.509549661849727e+000
 1.362033163491464e+000	 4.758924843037452e+000	 9.499051004962826e+000
 1.831271180078945e+000	 4.625696797800614e+000	 9.733097768739228e+000
 1.785298849288082e+000	 4.643633600846719e+000	 9.692430876105162e+000
 1.739248014090443e+000	 4.661077273085121e+000	 9.654872469704015e+000
 1.693126231205387e+000	 4.678028277532466e+000	 9.620696723212397e+000
 1.646941014340698e+000	 4.694487223911383e+000	 9.590163826843256e+000
 1.600699830836247e+000	 4.710454866755005e+000	 9.563519736159813e+000
 1.554410098386889e+000	 4.725932103426031e+000	 9.540995952795550e+000
 1.508079181846847e+000	 4.740919972053868e+000	 9.522809336972859e+000
 1.461714390117684e+000	 4.755419649393240e+000	 9.509161951630556e+000
 1.415322973121832e+000	 4.769432448607827e+000	 9.500240937890460e+000
 1.368912118863444e+000	 4.782959816982506e+000	 9.496218421516364e+000
 1.840473547821232e+000	 4.648941505330933e+000	 9.718867850158297e+000
 1.794270200291483e+000	 4.666968443064073e+000	 9.674227965450339e+000
 1.747987953860680e+000	 4.684499771945285e+000	 9.633823344177239e+000
 1.701634403221643e+000	 4.701535957317928e+000	 9.597945987967025e+000
 1.655217099839479e+000	 4.718077611968575e+000	 9.566872536855930e+000
 1.608743548578379e+000	 4.734125494221968e+000	 9.540864018386525e+000
 1.562221204408049e+000	 4.749680505950178e+000	 9.520165630497534e+000
 1.515657469192024e+000	 4.764743690499341e+000	 9.505006558061764e+000
 1.469059688560015e+000	 4.779316230537515e+000	 9.495599822843007e+000
 1.422435148866224e+000	 4.793399445827199e+000	 9.492142166559408e+000
 1.375791074235425e+000	 4.806994790926056e+000	 9.494813966661612e+000
 1.307001520515620e+000	 4.566645051422786e+000	 9.575571778199373e+000
 1.262677892496843e+000	 4.579098660229949e+000	 9.519768361740644e+000
 1.218349243971802e+000	 4.591091931124016e+000	 9.468589615395713e+000
 1.174022244523952e+000	 4.602626616365185e+000	 9.421684952825352e+000
 1.129703494256913e+000	 4.613704586919090e+000	 9.379179758189613e+000
 1.085399521425690e+000	 4.624327829983526e+000	 9.341255729445884e+000
 1.041116780158473e+000	 4.634498446467843e+000	 9.308075432866051e+000
 9.968616482696642e-001	 4.644218648428491e+000	 9.279782524184883e+000
 9.526404251647134e-001	 4.653490756464190e+000	 9.256502000115216e+000
 9.084593298371433e-001	 4.662317197074184e+000	 9.238340478837992e+000
 8.643244989580522e-001	 4.670700499982988e+000	 9.225386508041533e+000
 1.313880475887600e+000	 4.590680025379892e+000	 9.560568730455836e+000
 1.269323565616884e+000	 4.603199179496159e+000	 9.512260870732973e+000
 1.224761608415979e+000	 4.615255572868285e+000	 9.467643787516980e+000
 1.180201308971413e+000	 4.626850966978888e+000	 9.426456335355066e+000
 1.135649302124196e+000	 4.637987242640786e+000	 9.388916894626510e+000
 1.091112150488570e+000	 4.648666397510717e+000	 9.355199588764913e+000
 1.046596342161823e+000	 4.658890543555444e+000	 9.325460019935633e+000
 1.002108288525804e+000	 4.668661904473817e+000	 9.299835486322275e+000
 9.576543221407279e-001	 4.677982813078235e+000	 9.278445229301839e+000
 9.132406947316660e-001	 4.686855708638988e+000	 9.261390709129145e+000
 8.688735752679867e-001	 4.695283134194933e+000	 9.248755907718364e+000
 1.320759431259581e+000	 4.614714999335489e+000	 9.547164515891286e+000
 1.275969238736935e+000	 4.627299698760772e+000	 9.506014332788270e+000
 1.231173972860197e+000	 4.639419214610888e+000	 9.467729068236931e+000
 1.186380373418968e+000	 4.651075317590875e+000	 9.431957918746905e+000
 1.141595109991643e+000	 4.662269898360744e+000	 9.399095575093641e+000
 1.096824779551707e+000	 4.673004965036161e+000	 9.369308639524338e+000
 1.052075904165542e+000	 4.683282640641307e+000	 9.342745793385904e+000
 1.007354928782444e+000	 4.693105160517438e+000	 9.319538010679338e+000
 9.626682191173955e-001	 4.702474869690625e+000	 9.299798801035104e+000
 9.180220596270133e-001	 4.711394220202210e+000	 9.283624480742740e+000
 8.734226515789358e-001	 4.719865768405385e+000	 9.271094470434814e+000
 1.327638386631561e+000	 4.638749973289583e+000	 9.535335852507998e+000
 1.282614911856997e+000	 4.651400218023791e+000	 9.501010116499469e+000
 1.237586337304457e+000	 4.663582856351826e+000	 9.468821140765769e+000
 1.192559437866615e+000	 4.675299668201150e+000	 9.438170025491141e+000
 1.147540917859256e+000	 4.686552554078961e+000	 9.409700630564888e+000
 1.102537408615102e+000	 4.697343532559854e+000	 9.383572089656772e+000
 1.057555466169631e+000	 4.707674737725433e+000	 9.359926205929625e+000
 1.012601569039586e+000	 4.717548416559352e+000	 9.338887661990629e+000
 9.676821160947164e-001	 4.726966926301362e+000	 9.320564258806716e+000
 9.228034245231843e-001	 4.735932731763849e+000	 9.305047182229144e+000
 8.779717278908999e-001	 4.744448402614344e+000	 9.292411295739703e+000
 1.334517342003541e+000	 4.662784947242169e+000	 9.525060042562430e+000
 1.289260584977069e+000	 4.675500737285212e+000	 9.497230071696880e+000
 1.243998701748758e+000	 4.687746498091098e+000	 9.470896069622960e+000
 1.198738502314355e+000	 4.699524018809712e+000	 9.445073262566977e+000
 1.153486725727034e+000	 4.710835209795433e+000	 9.420717082807432e+000
 1.108250037678753e+000	 4.721682100081797e+000	 9.397979247332264e+000
 1.063035028174089e+000	 4.732066834807822e+000	 9.376994723113793e+000
 1.017848209297230e+000	 4.741991672599561e+000	 9.357881933585377e+000
 9.726960130726905e-001	 4.751458982910444e+000	 9.340742993635921e+000
 9.275847894201801e-001	 4.760471243323902e+000	 9.325663971778793e+000
 8.825208042038785e-001	 4.769031036821811e+000	 9.312715178119007e+000
 1.341396297375522e+000	 4.686819921193250e+000	 9.516314957584273e+000
 1.295906258097151e+000	 4.699601256545038e+000	 9.494656517108716e+000
 1.250411066193101e+000	 4.711910139828708e+000	 9.473917910749126e+000
 1.204917566762189e+000	 4.723748369416562e+000	 9.452648514147882e+000
 1.159432533594977e+000	 4.735117865510166e+000	 9.432130139489622e+000
 1.113962666742662e+000	 4.746020667601992e+000	 9.412519518388121e+000
 1.068514590178917e+000	 4.756458931888473e+000	 9.393944822990568e+000
 1.023094849555375e+000	 4.766434928638065e+000	 9.376518249218304e+000
 9.777099100513177e-001	 4.775951039517873e+000	 9.360336247979118e+000
 9.323661543180000e-001	 4.785009754882377e+000	 9.345479783128884e+000
 8.870698805178715e-001	 4.793613671027785e+000	 9.332014614818011e+000
 1.348275252747503e+000	 4.710854895142822e+000	 9.509079023854206e+000
 1.302551931217244e+000	 4.723701775803268e+000	 9.493272228399425e+000
 1.256823430637485e+000	 4.736073781564651e+000	 9.477666892683429e+000
 1.211096631210115e+000	 4.747972720021696e+000	 9.460876934530397e+000
 1.165378341463085e+000	 4.759400521223156e+000	 9.443925189438625e+000
 1.119675295806828e+000	 4.770359235120436e+000	 9.427182403837410e+000
 1.073994152184115e+000	 4.780851028967388e+000	 9.410769995798253e+000
 1.028341489814022e+000	 4.790878184674862e+000	 9.394793964844586e+000
 9.827238070305978e-001	 4.800443096123647e+000	 9.379345119519700e+000
 9.371475192166442e-001	 4.809548266439267e+000	 9.364499331289171e+000
 8.916189568328796e-001	 4.818196305232266e+000	 9.350317813423986e+000
 1.355154208119483e+000	 4.734889869090891e+000	 9.503331208323923e+000
 1.309197604337347e+000	 4.747802295059902e+000	 9.493060426572349e+000
 1.263235795081911e+000	 4.760237423298930e+000	 9.482283114406560e+000
 1.217275695658135e+000	 4.772197070625118e+000	 9.469739941278162e+000
 1.171324149331358e+000	 4.783683176934406e+000	 9.456087798042439e+000
 1.125387924871252e+000	 4.794697802637133e+000	 9.441957497453309e+000
 1.079473714189682e+000	 4.805243126044564e+000	 9.427463743652014e+000
 1.033588130073170e+000	 4.815321440709956e+000	 9.412706370340578e+000
 9.877377040105315e-001	 4.824935152727767e+000	 9.397770564842489e+000
 9.419288841161128e-001	 4.834086777994572e+000	 9.382727118093435e+000
 8.961680331489021e-001	 4.842778939435253e+000	 9.367632699217900e+000
 1.362033163491464e+000	 4.758924843037452e+000	 9.499051004962826e+000
 1.315843277457460e+000	 4.771902814314941e+000	 9.494004766723759e+000
 1.269648159526378e+000	 4.784401065031544e+000	 9.487754267849338e+000
 1.223454760106248e+000	 4.796421421226827e+000	 9.479219208573753e+000
 1.177269957199797e+000	 4.807965832643913e+000	 9.468603702791341e+000
 1.131100553935933e+000	 4.819036370152078e+000	 9.456834483426675e+000
 1.084953276195618e+000	 4.829635223120002e+000	 9.444019580243978e+000
 1.038834770332819e+000	 4.839764696743343e+000	 9.430252691172470e+000
 9.927516009911181e-001	 4.849427209330234e+000	 9.415613402996842e+000
 9.467102490164057e-001	 4.858625289548296e+000	 9.400167437582784e+000
 9.007171094659395e-001	 4.867361573636750e+000	 9.383966922303369e+000
 1.368912118863444e+000	 4.782959816982506e+000	 9.496218421516364e+000
 1.322488950577584e+000	 4.796003333568383e+000	 9.496089327136017e+000
 1.276060523970887e+000	 4.808564706762494e+000	 9.494068380254815e+000
 1.229633824554454e+000	 4.820645771826822e+000	 9.489296660771002e+000
 1.183215765068400e+000	 4.832248488351680e+000	 9.481458808953679e+000
 1.136813183000870e+000	 4.843374937665274e+000	 9.471803134094264e+000
 1.090432838201924e+000	 4.854027320193703e+000	 9.460431030552302e+000
 1.044081410592971e+000	 4.864207952775024e+000	 9.447430090014720e+000
 9.977654979723580e-001	 4.873919265931046e+000	 9.432874318952324e+000
 9.514916139175227e-001	 4.883163801100436e+000	 9.416824381226455e+000
 9.052661857839915e-001	 4.891944207836753e+000	 9.399327864520682e+000
 1.375791074235425e+000	 4.806994790926056e+000	 9.494813966661612e+000
 1.329134623697719e+000	 4.820103852820232e+000	 9.499298598697925e+000
 1.282472888415437e+000	 4.832728348491778e+000	 9.501213805795453e+000
 1.235812889002754e+000	 4.844870122425104e+000	 9.499954466140697e+000
 1.189161572937169e+000	 4.856531144057705e+000	 9.494639185381402e+000
 1.142525812066066e+000	 4.867713505176722e+000	 9.486853307735071e+000
 1.095912400208599e+000	 4.878419417265667e+000	 9.476691630559056e+000
 1.049328050853623e+000	 4.888651208805000e+000	 9.464235668319711e+000
 1.002779394954251e+000	 4.898411322530205e+000	 9.449553866950661e+000
 9.562729788194642e-001	 4.907702312650993e+000	 9.432701842986214e+000
 9.098152621030583e-001	 4.916526842035265e+000	 9.413722646153351e+000
 8.643244989580522e-001	 4.670700499982988e+000	 9.225386508041533e+000
 8.202419850585254e-001	 4.678643295435927e+000	 9.217513882382830e+000
 7.762177548042755e-001	 4.686148311466118e+000	 9.210672591586913e+000
 7.322576873625158e-001	 4.693218371138126e+000	 9.204867103989390e+000
 6.883675728617010e-001	 4.699856389773195e+000	 9.200089606648287e+000
 6.445531109429850e-001	 4.706065372156695e+000	 9.196320370036069e+000
 6.008199094031385e-001	 4.711848409731801e+000	 9.189681643243077e+000
 5.571734829283327e-001	 4.717208677782532e+000	 9.180554656068823e+000
 5.136192519181055e-001	 4.722149432609216e+000	 9.171937203268968e+000
 4.701625413987223e-001	 4.726674008699353e+000	 9.163796377378676e+000
 4.268085800250276e-001	 4.730785815896795e+000	 9.156078461086194e+000
 8.688735752679867e-001	 4.695283134194933e+000	 9.248755907718364e+000
 8.245590481363796e-001	 4.703267733834722e+000	 9.239467418942974e+000
 7.803031114062362e-001	 4.710812249949480e+000	 9.231242298681266e+000
 7.361116751877538e-001	 4.717919520462003e+000	 9.224087381246195e+000
 6.919905600837462e-001	 4.724592476037333e+000	 9.217996986069204e+000
 6.479454957334770e-001	 4.730834137275505e+000	 9.212953286691572e+000
 6.039821194484363e-001	 4.736647611890442e+000	 9.205940434081601e+000
 5.601059749394569e-001	 4.742036091878187e+000	 9.196421075382004e+000
 5.163225111344945e-001	 4.747002850677489e+000	 9.187557041925103e+000
 4.726370810862667e-001	 4.751551240325788e+000	 9.179320205899856e+000
 4.290549409688527e-001	 4.755684688613479e+000	 9.171661135252130e+000
 8.734226515789358e-001	 4.719865768405385e+000	 9.271094470434814e+000
 8.288761112154275e-001	 4.727892172232124e+000	 9.260452197940039e+000
 7.843884680095284e-001	 4.735476188431549e+000	 9.250908403521764e+000
 7.399656630144197e-001	 4.742620669784688e+000	 9.242472243740554e+000
 6.956135473072752e-001	 4.749328562300383e+000	 9.235140123546763e+000
 6.513378805254688e-001	 4.755602902393324e+000	 9.228896069686661e+000
 6.071443294952086e-001	 4.761446814048191e+000	 9.221445825305608e+000
 5.630384669519916e-001	 4.766863505973046e+000	 9.211534572089237e+000
 5.190257703521901e-001	 4.771856268745071e+000	 9.202429436373224e+000
 4.751116207749753e-001	 4.776428471951631e+000	 9.194107096653420e+000
 4.313013019136611e-001	 4.780583561329669e+000	 9.186522425906485e+000
 8.779717278908999e-001	 4.744448402614344e+000	 9.292411295739703e+000
 8.331931742956691e-001	 4.752516610628134e+000	 9.280476791328622e+000
 7.884738246141516e-001	 4.760140126912325e+000	 9.269678960896719e+000
 7.438196508425135e-001	 4.767321819106181e+000	 9.260029239695495e+000
 6.992365345322877e-001	 4.774064648562337e+000	 9.251526071493991e+000
 6.547302653189593e-001	 4.780371667510148e+000	 9.244155286515211e+000
 6.103065395434555e-001	 4.786246016205046e+000	 9.236221324249877e+000
 5.659709589659362e-001	 4.791690920067119e+000	 9.225916813800115e+000
 5.217290295711923e-001	 4.796709686811960e+000	 9.216574243400102e+000
 4.775861604648481e-001	 4.801305703576880e+000	 9.208175125349168e+000
 4.335476628594530e-001	 4.805482434045368e+000	 9.200678658222836e+000
 8.825208042038785e-001	 4.769031036821811e+000	 9.312715178119007e+000
 8.375102373771048e-001	 4.777141049022752e+000	 9.299549479108970e+000
 7.925591812201065e-001	 4.784804065391811e+000	 9.287561746947935e+000
 7.476736386720354e-001	 4.792022968426481e+000	 9.276765652187628e+000
 7.028595217587842e-001	 4.798800734823201e+000	 9.267161630862482e+000
 6.581226501139491e-001	 4.805140432625983e+000	 9.258737267072394e+000
 6.134687495931768e-001	 4.811045218361013e+000	 9.250290214683608e+000
 5.689034509812911e-001	 4.816518334160397e+000	 9.239589258755016e+000
 5.244322887915013e-001	 4.821563104878159e+000	 9.230011124775711e+000
 4.800607001558850e-001	 4.826182935201539e+000	 9.221542187181248e+000
 4.357940238062281e-001	 4.830381306760575e+000	 9.214145991502003e+000
 8.870698805178715e-001	 4.793613671027785e+000	 9.332014614818011e+000
 8.418273004597338e-001	 4.801765487415977e+000	 9.317678256812950e+000
 7.966445378273929e-001	 4.809468003870001e+000	 9.304564266315500e+000
 7.515276265029854e-001	 4.816724117745588e+000	 9.292688505945735e+000
 7.064825089867642e-001	 4.823536821082972e+000	 9.282053357590144e+000
 6.615150349104378e-001	 4.829909197740824e+000	 9.272648109746870e+000
 6.166309596443723e-001	 4.835844420516084e+000	 9.263675562542858e+000
 5.718359429980561e-001	 4.841345748252881e+000	 9.252573161193551e+000
 5.271355480131169e-001	 4.846416522943665e+000	 9.242759552253634e+000
 4.825352398480866e-001	 4.851060166825606e+000	 9.234226001456854e+000
 4.380403847539867e-001	 4.855280179475290e+000	 9.226940423425184e+000
 8.916189568328796e-001	 4.818196305232266e+000	 9.350317813423986e+000
 8.461443635435570e-001	 4.826389925807810e+000	 9.334870842760978e+000
 8.007298944360106e-001	 4.834131942346899e+000	 9.320693759063870e+000
 7.553816143353628e-001	 4.841425267063504e+000	 9.307804573941317e+000
 7.101054962162282e-001	 4.848272907341652e+000	 9.296207568851475e+000
 6.649074197084257e-001	 4.854677962854673e+000	 9.285893687326643e+000
 6.197931696970425e-001	 4.860643622670265e+000	 9.276400221487529e+000
 5.747684350162314e-001	 4.866173162344577e+000	 9.264889576558719e+000
 5.298388072360390e-001	 4.871269941008480e+000	 9.254838812418436e+000
 4.850097795414523e-001	 4.875937398449082e+000	 9.246244116083062e+000
 4.402867457027287e-001	 4.880179052189514e+000	 9.239077794176906e+000
 8.961680331489021e-001	 4.842778939435253e+000	 9.367632699217900e+000
 8.504614266285739e-001	 4.851014364198250e+000	 9.351134685097753e+000
 8.048152510459596e-001	 4.858795880822506e+000	 9.335957207396996e+000
 7.592356021691685e-001	 4.866126416380228e+000	 9.322120383778318e+000
 7.137284834471757e-001	 4.873008993599236e+000	 9.309630349117617e+000
 6.682998045079127e-001	 4.879446727967530e+000	 9.298479652724867e+000
 6.229553797511871e-001	 4.885442824823553e+000	 9.288486838289101e+000
 5.777009270358168e-001	 4.891000576435481e+000	 9.276559366542394e+000
 5.325420664602679e-001	 4.896123359072603e+000	 9.266268011385396e+000
 4.874843192359822e-001	 4.900814630071966e+000	 9.257613911917126e+000
 4.425331066524542e-001	 4.905077924903247e+000	 9.250573790442445e+000
 9.007171094659395e-001	 4.867361573636750e+000	 9.383966922303369e+000
 8.547784897147843e-001	 4.875638802587297e+000	 9.366476968614910e+000
 8.089006076572401e-001	 4.883459819296819e+000	 9.350361342169888e+000
 7.630895900044020e-001	 4.890827565695757e+000	 9.335642223889318e+000
 7.173514706796069e-001	 4.897745079855731e+000	 9.322327556032700e+000
 6.716921893088989e-001	 4.904215493079394e+000	 9.310411444532388e+000
 6.261175898068063e-001	 4.910242026975950e+000	 9.299874578733625e+000
 5.806334190568124e-001	 4.915827990525591e+000	 9.287603203978183e+000
 5.352453256858034e-001	 4.920976777136034e+000	 9.277066079357802e+000
 4.899588589316763e-001	 4.925691861694258e+000	 9.268352606984919e+000
 4.447794676031630e-001	 4.929976797616488e+000	 9.261443949283985e+000
 9.052661857839915e-001	 4.891944207836753e+000	 9.399327864520682e+000
 8.590955528021887e-001	 4.900263240974951e+000	 9.380904621367961e+000
 8.129859642698522e-001	 4.908123757769840e+000	 9.363912649203996e+000
 7.669435778410637e-001	 4.915528715010096e+000	 9.348376149544887e+000
 7.209744579135220e-001	 4.922481166111133e+000	 9.334304826112959e+000
 6.750845741113839e-001	 4.928984258190266e+000	 9.321694292402540e+000
 6.292797998638997e-001	 4.935041229127454e+000	 9.310526496985716e+000
 5.835659110792182e-001	 4.940655404614911e+000	 9.298041577586456e+000
 5.379485849126456e-001	 4.945830195198774e+000	 9.287251775046828e+000
 4.924333986285348e-001	 4.950569093315958e+000	 9.278477260572151e+000
 4.470258285548553e-001	 4.954875670329237e+000	 9.271703661900066e+000
 9.098152621030583e-001	 4.916526842035265e+000	 9.413722646153351e+000
 8.634126158907872e-001	 4.924887679361214e+000	 9.394424321094657e+000
 8.170713208837958e-001	 4.932787696241570e+000	 9.376617375413005e+000
 7.707975656791535e-001	 4.940229864323243e+000	 9.360327988682549e+000
 7.245974451489209e-001	 4.947217252365443e+000	 9.345567580274986e+000
 6.784769589153683e-001	 4.953753023300147e+000	 9.332333222274768e+000
 6.324420099224679e-001	 4.959840431278068e+000	 9.320608070471325e+000
 5.864984031030343e-001	 4.965482818703439e+000	 9.307894796577276e+000
 5.406518441407947e-001	 4.970683613260823e+000	 9.296843689958870e+000
 4.949079383265576e-001	 4.975446324937067e+000	 9.288004777192834e+000
 4.492721895075311e-001	 4.979774543041494e+000	 9.281368177272155e+000
 4.268085800250276e-001	 4.730785815896795e+000	 9.156078461086194e+000
 3.835624991689582e-001	 4.734488336571500e+000	 9.149078262850004e+000
 3.404293320962267e-001	 4.737785122794405e+000	 9.144806268301062e+000
 2.974140132282676e-001	 4.740679793518913e+000	 9.143115195391101e+000
 2.545213774864985e-001	 4.743176031770457e+000	 9.143837439677590e+000
 2.117561597201589e-001	 4.745277581848414e+000	 9.146785680513014e+000
 1.691229942154836e-001	 4.746988246542276e+000	 9.151753514350105e+000
 1.266264142847394e-001	 4.748311884364385e+000	 9.158516112962300e+000
 8.427085193360755e-002	 4.749252406801554e+000	 9.166830904385730e+000
 4.206063760533369e-002	 4.749813775587760e+000	 9.176438274401434e+000
 0.000000000000000e+000	 4.750000000000000e+000	 9.187062286396103e+000
 4.290549409688527e-001	 4.755684688613479e+000	 9.171661135252130e+000
 3.855812491613293e-001	 4.759406696238825e+000	 9.164540125022718e+000
 3.422210654202023e-001	 4.762720833967920e+000	 9.159872849332357e+000
 2.989793501375452e-001	 4.765630739801289e+000	 9.157521899283751e+000
 2.558609636817305e-001	 4.768140116148707e+000	 9.157329288328613e+000
 2.128706658222569e-001	 4.770252727016390e+000	 9.159117054546933e+000
 1.700131152363395e-001	 4.771972395208514e+000	 9.162687890749387e+000
 1.272928690957834e-001	 4.773302999545376e+000	 9.167825800178802e+000
 8.471438273261547e-002	 4.774248472100564e+000	 9.174296775592978e+000
 4.228200938188822e-002	 4.774812795459289e+000	 9.181849499523084e+000
 0.000000000000000e+000	 4.775000000000001e+000	 9.190216063520630e+000
 4.313013019136611e-001	 4.780583561329669e+000	 9.186522425906485e+000
 3.875999991544945e-001	 4.784325055905754e+000	 9.179351049518937e+000
 3.440127987448031e-001	 4.787656545141123e+000	 9.174368405096276e+000
 3.005446870472999e-001	 4.790581686083426e+000	 9.171446891327872e+000
 2.572005498773117e-001	 4.793104200526780e+000	 9.170438066207394e+000
 2.139851719245966e-001	 4.795227872184246e+000	 9.171173245612671e+000
 1.709032362573495e-001	 4.796956543874674e+000	 9.173464130421994e+000
 1.279593239069137e-001	 4.798294114726324e+000	 9.177103459919902e+000
 8.515791353166169e-002	 4.799244537399557e+000	 9.181865689249380e+000
 4.250338115845228e-002	 4.799811815330811e+000	 9.187507688680224e+000
 0.000000000000000e+000	 4.800000000000001e+000	 9.193769462480194e+000
 4.335476628594530e-001	 4.805482434045368e+000	 9.200678658222836e+000
 3.896187491484534e-001	 4.809243415572285e+000	 9.193524867692009e+000
 3.458045320700291e-001	 4.812592256314011e+000	 9.188304236727102e+000
 3.021100239575316e-001	 4.815532632365324e+000	 9.184898907706460e+000
 2.585401360732423e-001	 4.818068284904680e+000	 9.183169911454126e+000
 2.150996780271780e-001	 4.820203017351980e+000	 9.182957762329592e+000
 1.717933572785137e-001	 4.821940692540757e+000	 9.184083082574759e+000
 1.286257787181304e-001	 4.823285229907229e+000	 9.186347253646163e+000
 8.560144433074615e-002	 4.824240602698530e+000	 9.189533092264922e+000
 4.272475293502587e-002	 4.824810835202332e+000	 9.193405548928054e+000
 0.000000000000000e+000	 4.825000000000000e+000	 9.197712426641537e+000
 4.357940238062281e-001	 4.830381306760575e+000	 9.214145991502003e+000
 3.916374991432063e-001	 4.834161775238420e+000	 9.207075275770398e+000
 3.475962653958803e-001	 4.837527967486588e+000	 9.201691542519496e+000
 3.036753608682403e-001	 4.840483578646984e+000	 9.197886615557611e+000
 2.598797222695222e-001	 4.843032369282405e+000	 9.195530928439606e+000
 2.162141841300012e-001	 4.845178162519593e+000	 9.194474116275620e+000
 1.726834782998320e-001	 4.846924841206762e+000	 9.194545637524103e+000
 1.292922335294336e-001	 4.848276345088089e+000	 9.195555423472522e+000
 8.604497512986886e-002	 4.849236667997482e+000	 9.197294553112767e+000
 4.294612471160900e-002	 4.849809855073845e+000	 9.199535951127949e+000
 0.000000000000000e+000	 4.850000000000000e+000	 9.202035106724608e+000
 4.380403847539867e-001	 4.855280179475290e+000	 9.226940423425184e+000
 3.936562491387531e-001	 4.859080134904158e+000	 9.220015838322427e+000
 3.493879987223567e-001	 4.862463678658854e+000	 9.214541420565428e+000
 3.052406977794260e-001	 4.865434524928404e+000	 9.210418614744810e+000
 2.612193084661512e-001	 4.867996453659956e+000	 9.207527188631280e+000
 2.173286902330660e-001	 4.870153307687087e+000	 9.205725821911422e+000
 1.735735993213044e-001	 4.871908989872691e+000	 9.204852725641908e+000
 1.299586883408231e-001	 4.873267460268909e+000	 9.204726290100231e+000
 8.648850592902987e-002	 4.874232733296418e+000	 9.205145758712325e+000
 4.316749648820165e-002	 4.874808874945355e+000	 9.205891925747366e+000
 0.000000000000000e+000	 4.875000000000000e+000	 9.206727855485921e+000
 4.402867457027287e-001	 4.880179052189514e+000	 9.239077794176906e+000
 3.956749991350939e-001	 4.883998494569498e+000	 9.232359991614933e+000
 3.511797320494583e-001	 4.887399389830808e+000	 9.226864871310362e+000
 3.068060346910887e-001	 4.890385471209587e+000	 9.222503439573197e+000
 2.625588946631296e-001	 4.892960538037332e+000	 9.219164731432516e+000
 2.184431963363725e-001	 4.895128452854459e+000	 9.216716396506786e+000
 1.744637203429311e-001	 4.896893138538542e+000	 9.215005316333773e+000
 1.306251431522991e-001	 4.898258575449684e+000	 9.213858250812045e+000
 8.693203672822913e-002	 4.899228798595334e+000	 9.213082511407567e+000
 4.338886826480384e-002	 4.899807894816859e+000	 9.212466658788216e+000
 0.000000000000000e+000	 4.900000000000000e+000	 9.211781222564474e+000
 4.425331066524542e-001	 4.905077924903247e+000	 9.250573790442445e+000
 3.976937491322284e-001	 4.908916854234440e+000	 9.244121046869728e+000
 3.529714653771849e-001	 4.912335101002447e+000	 9.238672800031567e+000
 3.083713716032285e-001	 4.915336417490530e+000	 9.234149560453423e+000
 2.638984808604571e-001	 4.917924622414534e+000	 9.230449564996439e+000
 2.195577024399207e-001	 4.920103598021710e+000	 9.227449360069414e+000
 1.753538413647119e-001	 4.921877287204317e+000	 9.225004417048258e+000
 1.312915979638614e-001	 4.923249690630415e+000	 9.222949777528593e+000
 8.737556752746666e-002	 4.924224863894231e+000	 9.221100726037532e+000
 4.361024004141555e-002	 4.924806914688358e+000	 9.219253487839321e+000
 0.000000000000000e+000	 4.925000000000000e+000	 9.217185949484788e+000
 4.447794676031630e-001	 4.929976797616488e+000	 9.261443949283985e+000
 3.997124991301571e-001	 4.933835213898987e+000	 9.255312193421164e+000
 3.547631987055368e-001	 4.937270812173773e+000	 9.249976019241441e+000
 3.099367085158453e-001	 4.940287363771237e+000	 9.245365385515184e+000
 2.652380670581340e-001	 4.942888706791560e+000	 9.241387667015060e+000
 2.206722085437106e-001	 4.945078743188839e+000	 9.237928235275712e+000
 1.762439623866468e-001	 4.946861435870015e+000	 9.234851072316197e+000
 1.319580527755102e-001	 4.948240805811105e+000	 9.231999414923569e+000
 8.781909832674244e-002	 4.949220929193108e+000	 9.229196427095527e+000
 4.383161181803680e-002	 4.949805934559853e+000	 9.226245898248459e+000
 0.000000000000000e+000	 4.949999999999999e+000	 9.222932964811264e+000
 4.470258285548553e-001	 4.954875670329237e+000	 9.271703661900066e+000
 4.017312491288794e-001	 4.958753573563137e+000	 9.265946501778796e+000
 3.565549320345138e-001	 4.962206523344788e+000	 9.260785251018172e+000
 3.115020454289392e-001	 4.965238310051703e+000	 9.256159262172051e+000
 2.665776532561601e-001	 4.967852791168413e+000	 9.251984985484681e+000
 2.217867146477423e-001	 4.970053888355850e+000	 9.248156547403786e+000
 1.771340834087358e-001	 4.971845584535635e+000	 9.244546362819021e+000
 1.326245075872453e-001	 4.973231920991751e+000	 9.241005778595715e+000
 8.826262912605648e-002	 4.974216994491966e+000	 9.237365745973985e+000
 4.405298359466758e-002	 4.974804954431344e+000	 9.233437519409790e+000
 0.000000000000000e+000	 4.975000000000000e+000	 9.229013379448759e+000
 4.492721895075311e-001	 4.979774543041494e+000	 9.281368177272155e+000
 4.037499991283959e-001	 4.983671933226891e+000	 9.276036926597866e+000
 3.583466653641162e-001	 4.987142234515491e+000	 9.271111129266673e+000
 3.130673823425100e-001	 4.990189256331933e+000	 9.266539478639407e+000
 2.679172394545356e-001	 4.992816875545092e+000	 9.262247439448229e+000
 2.229012207520157e-001	 4.995029033522739e+000	 9.258137824268406e+000
 1.780242044309790e-001	 4.996829733201179e+000	 9.254091404484944e+000
 1.332909623990669e-001	 4.998223036172353e+000	 9.249967553295768e+000
 8.870615992540883e-002	 4.999213059790806e+000	 9.245604918292028e+000
 4.427435537130790e-002	 4.999803974302830e+000	 9.240822121162731e+000
 0.000000000000000e+000	 5.000000000000000e+000	 9.235418482083997e+000
