label=Stress xy
num_items=4050

0:-3.7745586943729870e-001
1:-5.7983258521383219e-001
2:-1.5275560880061159e-001
3:3.5473447231413019e-001
4:-9.4256229762251995e-002
5:-4.9673733851268678e-002
6:9.0838542054037935e-003
7:-1.0564024945885186e-001
8:6.2745945107793277e-001
9:-2.0418041799689374e-001
10:-5.9861492337388678e-001
11:-3.9577477590267890e-001
12:7.1567731902219900e-001
13:-3.5515200869992342e-001
14:-5.7624120515934740e-001
15:1.5070026464921038e-001
16:5.9332638918301051e-001
17:1.0459648147351199e+000
18:1.5683849674725296e+000
19:1.8161058717620402e+000
20:-2.6313853523991476e-001
21:-5.8313059093638675e-001
22:-7.9154194513484055e-001
23:-5.8526072196004186e-001
24:-1.5466761161044335e-001
25:-7.4756791170869683e-002
26:-4.5116048220227112e-001
27:-7.5151168785957234e-001
28:7.9243302056775211e-001
29:1.4281243860153221e+000
30:1.2246519880009636e+000
31:5.5852560502828519e-001
32:1.8549211931979575e+000
33:1.6201522219725426e+000
34:9.3389399941772877e-001
35:3.4954917675653852e-001
36:-3.0039450871537693e-001
37:2.7053437163762545e-001
38:8.0278353309277661e-001
39:8.4478592265485086e-001
40:-7.9687862233791007e-001
41:-4.6892007787804407e-001
42:3.2220364112424565e-001
43:7.6065120095673788e-001
44:1.4234541345103524e-001
45:-1.4406941160267159e-001
46:1.5988188579201765e-001
47:5.2868335835728275e-001
48:9.4369863433087467e-002
49:-1.3389302484839424e-001
50:-8.3058286560347139e-002
51:6.9415467903453709e-002
52:6.9451711026048424e-001
53:3.8361199881186137e-001
54:9.1749381037565983e-002
55:5.0498775746796370e-002
56:8.0963593033087489e-001
57:6.6378840507370396e-001
58:3.0938447620606130e-001
59:1.5801997812022589e-001
60:6.5439246323153266e-001
61:6.5062952459678614e-001
62:4.1188908177993100e-001
63:2.7796792423649302e-001
64:1.4123724942809035e-001
65:1.7582359847135770e-001
66:8.9208557679479064e-002
67:-7.1734508764956699e-003
68:1.1100932390659921e-001
69:2.0607552628926948e-001
70:2.4035750063073430e-001
71:1.8499293319848170e-001
72:1.8286007364996837e-001
73:2.7241113351063001e-001
74:3.5832279108902038e-001
75:3.3200312890810657e-001
76:2.8487993903746456e-001
77:3.4516333614242922e-001
78:4.1217937132148863e-001
79:3.8473842538878883e-001
80:-4.6448180565274236e-002
81:-6.4605132152342079e-002
82:-1.7511432147002369e-002
83:3.3284956900192141e-002
84:1.2749826834760350e-001
85:4.8818937065451373e-002
86:1.5556801748982690e-002
87:3.8212986813536860e-002
88:2.7073325753756178e-001
89:1.6240633884556327e-001
90:7.7414915447100344e-002
91:7.4982507044900254e-002
92:3.2651700932835298e-001
93:2.1927604737742934e-001
94:1.2761994693305309e-001
95:1.1701781873415729e-001
96:5.2996512431933901e-002
97:5.9494916798322285e-002
98:2.9771161723503924e-002
99:-2.4890786053648997e-004
100:6.3377488726299031e-002
101:9.1472842175054192e-002
102:8.8822429312301804e-002
103:6.3284689608993111e-002
104:9.8507252155597705e-002
105:1.3422452854781231e-001
106:1.4644045765585606e-001
107:1.2410610609793146e-001
108:1.3624155237328617e-001
109:1.6760078750392868e-001
110:1.7893561478675496e-001
111:1.5669160345870892e-001
112:-1.1856742856074123e-002
113:-1.6935388203071517e-002
114:-2.7807003583759315e-003
115:1.1927989220618721e-002
116:4.4569774279392189e-002
117:2.2283584812311834e-002
118:1.6825819294612347e-002
119:2.5181307851649151e-002
120:1.0110161719513583e-001
121:6.6847955373262796e-002
122:4.5891363121872412e-002
123:4.7904957206270651e-002
124:1.3311023444967821e-001
125:9.5964336061744371e-002
126:6.9637011729367898e-002
127:6.8159283787555439e-002
128:1.7360336392538114e-002
129:1.8949853382769652e-002
130:1.0509631584872762e-002
131:2.2962331137959006e-003
132:3.1837062828605510e-002
133:3.7750989082404984e-002
134:3.4239198708032298e-002
135:2.6380075514629332e-002
136:5.4509260082449273e-002
137:6.2427646024337598e-002
138:6.1781129611503401e-002
139:5.3684070706935053e-002
140:7.3658492806303502e-002
141:8.0716700327697913e-002
142:7.9989901849371589e-002
143:7.1481209905669862e-002
144:-7.4227005406768648e-004
145:-2.0892089918426605e-003
146:1.4238680279688048e-003
147:4.9647927997474688e-003
148:2.1633792560646816e-002
149:1.6338498424412557e-002
150:1.5202799396152145e-002
151:1.6752205845419796e-002
152:4.7300187591354223e-002
153:3.8248171507149438e-002
154:3.2647976588536159e-002
155:3.2263240436296782e-002
156:6.4439063811719016e-002
157:5.3727760056032421e-002
158:4.5878010055407217e-002
159:4.4285045545539824e-002
160:6.1731982521364250e-003
161:6.3918874458171590e-003
162:4.2583180641096348e-003
163:2.3010095549825232e-003
164:1.7742877476777216e-002
165:1.8052128926161530e-002
166:1.6186984640912876e-002
167:1.4027546932983021e-002
168:3.3027303632447394e-002
169:3.3331209810875173e-002
170:3.1436861354320618e-002
171:2.8698526151255111e-002
172:4.4738153584817628e-002
173:4.4716362623979510e-002
174:4.2480120725835957e-002
175:3.9239470487915082e-002
176:1.6088475159784937e-003
177:1.2563087449351555e-003
178:1.8949556546467689e-003
179:2.5174744345295937e-003
180:1.2948468195891086e-002
181:1.1670610234245376e-002
182:1.1018154530875462e-002
183:1.0792196374641842e-002
184:2.6984610757600364e-002
185:2.4413513832920272e-002
186:2.2231866245066092e-002
187:2.1171744773837372e-002
188:3.7098208485035207e-002
189:3.3682504112803699e-002
190:3.0515616582449143e-002
191:2.8916665021442002e-002
192:2.6836653706562397e-003
193:2.5933117621646873e-003
194:2.0286102861596668e-003
195:1.5653237733964358e-003
196:1.0612472239127623e-002
197:1.0002227920295361e-002
198:8.8886427393742619e-003
199:8.0087807706054736e-003
200:2.0715855905888942e-002
201:1.9637311454295391e-002
202:1.7838287243578641e-002
203:1.6273940336243960e-002
204:2.8276972904910849e-002
205:2.6859729408775158e-002
206:2.4521739505602016e-002
207:2.2408522492758046e-002
208:1.3992195756292109e-003
209:1.2421740607554540e-003
210:1.1758031832988672e-003
211:1.0876045181840120e-003
212:7.5916327882247069e-003
213:6.8595817031593927e-003
214:5.8682271966134314e-003
215:4.9703468974667021e-003
216:1.5411769745675607e-002
217:1.3799099914576944e-002
218:1.1630265033308501e-002
219:9.8408161692264944e-003
220:2.1193656031737031e-002
221:1.8909352324395789e-002
222:1.5886962995075457e-002
223:1.3477750645328031e-002
224:9.8674009620908676e-004
225:7.2477827743981866e-004
226:3.3808976661494771e-004
227:8.8159402982494888e-005
228:4.4145932891048421e-003
229:3.2978757293764716e-003
230:1.7696870569968467e-003
231:5.9505463994747611e-004
232:8.8161509882538659e-003
233:6.6982721060814812e-003
234:3.5636915364874941e-003
235:8.9618279976372013e-004
236:1.2132277971595121e-002
237:9.2900958150699420e-003
238:4.9210377275631682e-003
239:1.0667147266535230e-003
240:3.8337563055159141e-001
241:-2.4703003350383912e-001
242:-4.7802292142061165e-002
243:8.6677801495102080e-001
244:-8.4546572731992409e-001
245:5.7182508146463562e-001
246:2.0201527354359476e+000
247:2.7874151653991381e+000
248:-2.7616251395323665e+000
249:2.1347000887316128e+000
250:5.3120723390497311e+000
251:5.2771884040796699e+000
252:-3.6948950538736840e+000
253:3.0114519609993353e+000
254:6.8815962369691785e+000
255:6.1535338921613407e+000
256:1.5627556796887643e+000
257:2.3110905005220794e+000
258:2.1910060722722657e+000
259:1.4403694241852323e+000
260:3.0599761457582573e+000
261:3.2388720968687199e+000
262:2.8305085267135905e+000
263:2.0491513382201894e+000
264:4.4725345012876963e+000
265:3.1100064462981529e+000
266:1.8535573473186067e+000
267:1.1926948805734174e+000
268:4.6177981543035962e+000
269:2.2055211241983610e+000
270:3.8682113118489692e-001
271:-1.1323810224212556e-001
272:9.0114224986759028e-001
273:3.1923531425194873e-001
274:2.5047730743148222e-001
275:4.5522582378447857e-001
276:1.5037635902863997e+000
277:7.5813347326929537e-001
278:3.3712676112070167e-001
279:3.4354852344110692e-001
280:9.1676486269770918e-001
281:4.9963117266485763e-001
282:1.8948547805051744e-001
283:1.7010392736822180e-001
284:-1.2515316421301706e-001
285:-1.2839195565357442e-001
286:-1.1606321111273686e-001
287:-2.9431362473238642e-002
288:5.6513044275006274e-001
289:5.9051196847945342e-001
290:4.3001810538640001e-001
291:3.3525150365951184e-001
292:4.2259938465533331e-001
293:4.8183381952617443e-001
294:4.3757165071409337e-001
295:4.0196957114777976e-001
296:2.3821594025013174e-001
297:3.3713959721066589e-001
298:3.9501411272489556e-001
299:4.0700809139917499e-001
300:5.7091463170285552e-002
301:1.9646126083446708e-001
302:3.1125240203352572e-001
303:3.4900274977158158e-001
304:3.4211411070701492e-001
305:3.8912632994699231e-001
306:4.3371230264696459e-001
307:3.9754687572047104e-001
308:4.0736100489966542e-001
309:4.3163769229335480e-001
310:4.4293639551135705e-001
311:4.0039946479830929e-001
312:4.0897743944436782e-001
313:4.1307323456267131e-001
314:4.0421018807006232e-001
315:3.7158124532001319e-001
316:3.5312243310332303e-001
317:3.5601586788485462e-001
318:3.4990406917873107e-001
319:3.3240414115005634e-001
320:3.4077032344683034e-001
321:2.3860002909720707e-001
322:1.5221889526930654e-001
323:1.4127110189142547e-001
324:3.5221833091294957e-001
325:2.6778866481870078e-001
326:1.9581580784764147e-001
327:1.8294499301298889e-001
328:3.4209255806813638e-001
329:2.8967470125570111e-001
330:2.4022537314068829e-001
331:2.2372041718240435e-001
332:3.1753571343282255e-001
333:2.8904532063040239e-001
334:2.5690800030669841e-001
335:2.3985677756227999e-001
336:1.5803685716914115e-001
337:1.8504509820934006e-001
338:1.9279428666891382e-001
339:1.6987525717872518e-001
340:1.9295687633929143e-001
341:2.0875101644894148e-001
342:2.0887202942613320e-001
343:1.8674725306313267e-001
344:2.2362952135191536e-001
345:2.2350321485640515e-001
346:2.1469212870491311e-001
347:1.9651999850145596e-001
348:2.3428943727082202e-001
349:2.2548645310198129e-001
350:2.1241816997474766e-001
351:1.9776650853885575e-001
352:1.4669177768254574e-001
353:1.0975482868682684e-001
354:8.2458396183058294e-002
355:7.9510817560633190e-002
356:1.6636433118154006e-001
357:1.3305881990171606e-001
358:1.0614666348424615e-001
359:1.0029139165937480e-001
360:1.8202000973599555e-001
361:1.5705456479689792e-001
362:1.3347414190532386e-001
363:1.2423446179017568e-001
364:1.8759551863518412e-001
365:1.6911971163715253e-001
366:1.4906669040657342e-001
367:1.3837752467888870e-001
368:8.4082885764756338e-002
369:8.9941679868465338e-002
370:8.8523351214897184e-002
371:7.9828982327324119e-002
372:1.0238837123859211e-001
373:1.0482482894532007e-001
374:1.0150952886499831e-001
375:9.2919661552193181e-002
376:1.2266831755080342e-001
377:1.1984706976652139e-001
378:1.1367740249351103e-001
379:1.0575724924981368e-001
380:1.3465178197940564e-001
381:1.2858927520247909e-001
382:1.2059160420045616e-001
383:1.1319473796982084e-001
384:7.2699630117851188e-002
385:6.1590107032345118e-002
386:5.2941301897711325e-002
387:5.0729040073151835e-002
388:8.6206499151201224e-002
389:7.5295589522554426e-002
390:6.5827179295262259e-002
391:6.2448638950215032e-002
392:1.0021792869061487e-001
393:9.0681140911609587e-002
394:8.1112302043310866e-002
395:7.6404287302146948e-002
396:1.0854934916574913e-001
397:1.0022042767549229e-001
398:9.0984241334395879e-002
399:8.5594001977801468e-002
400:5.0912823399501990e-002
401:5.0535947774756708e-002
402:4.7998227360205675e-002
403:4.4526271759535080e-002
404:6.1932559590595335e-002
405:6.0580626625154690e-002
406:5.7328708698502137e-002
407:5.3554599934682111e-002
408:7.4853717813488499e-002
409:7.2003852824871623e-002
410:6.7725261365706974e-002
411:6.3732704712941915e-002
412:8.3395828637482003e-002
413:7.9568184956286703e-002
414:7.4599679192855803e-002
415:7.0491169240124385e-002
416:4.2226911786073948e-002
417:3.8478086357325011e-002
418:3.4873617566541552e-002
419:3.2991041680025625e-002
420:5.1118800590247655e-002
421:4.7001014636746621e-002
422:4.2755549377833706e-002
423:4.0341371994339785e-002
424:6.1315671701990981e-002
425:5.7050340194267656e-002
426:5.2244424029423239e-002
427:4.9188990633249531e-002
428:6.8129070684659801e-002
429:6.3848825253518940e-002
430:5.8751270819068196e-002
431:5.5289461352884844e-002
432:3.2231643659539393e-002
433:3.0599550682587295e-002
434:2.7959402830896846e-002
435:2.5570919225120111e-002
436:3.9309652599956509e-002
437:3.7207915921806459e-002
438:3.3991162503569185e-002
439:3.1145253868175741e-002
440:4.7770115563165037e-002
441:4.5015171131086815e-002
442:4.1074457453362821e-002
443:3.7729365085106249e-002
444:5.3604701156892538e-002
445:5.0397693276105174e-002
446:4.5963295135654517e-002
447:4.2291335549821917e-002
448:2.4187779026728341e-002
449:2.1577933365192373e-002
450:1.8125928835463385e-002
451:1.5390120905304979e-002
452:2.9500079880269519e-002
453:2.6360185352460264e-002
454:2.2154142836339739e-002
455:1.8803578521471038e-002
456:3.5821051382216779e-002
457:3.2113518816003057e-002
458:2.7021575279599027e-002
459:2.2893967186915293e-002
460:4.0216448304383902e-002
461:3.6136443695219934e-002
462:3.0436582324932973e-002
463:2.5758921281612904e-002
464:1.3870349495963162e-002
465:1.0644472085987363e-002
466:5.6430756913537885e-003
467:1.1948435157263951e-003
468:1.6943601702853462e-002
469:1.3003724325999406e-002
470:6.8942755868959382e-003
471:1.4454859287678500e-003
472:2.0589284934988718e-002
473:1.5758265685947841e-002
474:8.3506760461772370e-003
475:1.7805338562757404e-003
476:2.3135313169693597e-002
477:1.7677178430576670e-002
478:9.3791732567438026e-003
479:2.0526487308330211e-003
480:-3.7724140147889509e+000
481:3.1488252688682441e+000
482:6.9550371906533881e+000
483:5.9530681638172016e+000
484:-3.1416572928378836e+000
485:2.6558960368105766e+000
486:5.5852656541321304e+000
487:4.4089622844288261e+000
488:-1.5317422134063694e+000
489:1.1994940679798201e+000
490:2.2876958723343752e+000
491:1.3530612383755427e+000
492:-3.5559748247349149e-001
493:7.9729909806594182e-002
494:-7.3515493747111735e-002
495:-6.6491004717410718e-001
496:4.2143177660461903e+000
497:1.5198882039744701e+000
498:-4.2489823093239693e-001
499:-8.2905453178777699e-001
500:2.7500080825475757e+000
501:2.3124298500694743e-001
502:-1.4742962410175466e+000
503:-1.6659111208451585e+000
504:3.4324506805576133e-001
505:-1.1292220500687900e+000
506:-2.0036641906902206e+000
507:-1.9299491028160871e+000
508:-1.0995899813476504e+000
509:-1.6841349839700355e+000
510:-1.9262320590759001e+000
511:-1.7348822113304487e+000
512:-7.2697009667637014e-001
513:-5.3210304859400659e-001
514:-3.3175079753849807e-001
515:-1.6587289776361494e-001
516:-1.4364489363304211e+000
517:-1.0235003195020957e+000
518:-6.1366280702964815e-001
519:-3.6670996009602291e-001
520:-1.6690368769306954e+000
521:-1.2125894354060152e+000
522:-7.6258691667214429e-001
523:-5.2012896458415814e-001
524:-1.5193191607114098e+000
525:-1.1458815460236091e+000
526:-7.7276298022115375e-001
527:-5.7777731116827269e-001
528:-6.1132179644138973e-002
529:1.0470507796047643e-001
530:2.4617210306669166e-001
531:2.9750169872244997e-001
532:-2.5015222822467242e-001
533:-6.5696493321482793e-002
534:1.0566521739913239e-001
535:1.8439401074940875e-001
536:-4.2250570586233099e-001
537:-2.6081381893331207e-001
538:-8.3996075306312118e-002
539:2.5948206043625452e-002
540:-5.0438206023630483e-001
541:-3.7471835320595265e-001
542:-2.1048617676207640e-001
543:-8.7863258492141647e-002
544:3.0628495035436415e-001
545:3.1561218262322716e-001
546:3.1722117470605365e-001
547:3.0825661913430946e-001
548:2.0888802617905489e-001
549:2.4111476573711191e-001
550:2.6240221355781784e-001
551:2.6496193015576808e-001
552:7.5275809978870858e-002
553:1.4495528593262438e-001
554:1.9509307183813687e-001
555:2.0725419075529714e-001
556:-2.4807144464516193e-002
557:6.7242058756151885e-002
558:1.3659866373797536e-001
559:1.5592919307038272e-001
560:2.9953457695660418e-001
561:2.8120629441559464e-001
562:2.5737283966665359e-001
563:2.4172996635548569e-001
564:2.6235255416854142e-001
565:2.5522323992930085e-001
566:2.4344723237747265e-001
567:2.3339569134292734e-001
568:2.0660167522752443e-001
569:2.0514868651774079e-001
570:2.0477725221698762e-001
571:2.0516414358205418e-001
572:1.5675579604398224e-001
573:1.5923186955866081e-001
574:1.6696385140206685e-001
575:1.7544000773404855e-001
576:2.3502063802933268e-001
577:2.2419856198789279e-001
578:2.1032831814528938e-001
579:1.9720393753077012e-001
580:2.2798620012060242e-001
581:2.1850539512589232e-001
582:2.0603091978333768e-001
583:1.9493474469534622e-001
584:2.0535308053449297e-001
585:2.0363032189893399e-001
586:1.9670920233088177e-001
587:1.8763549484059067e-001
588:1.8033002395583372e-001
589:1.8546535185152424e-001
590:1.8385697572721119e-001
591:1.7678255786085614e-001
592:1.8870525731711588e-001
593:1.7290686538335936e-001
594:1.5469269361395482e-001
595:1.4386975320040241e-001
596:1.8814140390767942e-001
597:1.7538079977002438e-001
598:1.5995508721757054e-001
599:1.4987007256667068e-001
600:1.8156706547532972e-001
601:1.7070792062127713e-001
602:1.5840202480393561e-001
603:1.5061612530488996e-001
604:1.7132758252872443e-001
605:1.6207065944092822e-001
606:1.5256103914861369e-001
607:1.4706621319011071e-001
608:1.3951281184988323e-001
609:1.3242204115911060e-001
610:1.2378307697180042e-001
611:1.1655701978745688e-001
612:1.4531911975552328e-001
613:1.3774792121918450e-001
614:1.2875947617051597e-001
615:1.2174315486630610e-001
616:1.4707290538333628e-001
617:1.4075124974966499e-001
618:1.3251226287868034e-001
619:1.2577344666242080e-001
620:1.4465474907019193e-001
621:1.3984665595074072e-001
622:1.3264435455795634e-001
623:1.2629583238264724e-001
624:1.1224152391798166e-001
625:1.0440124879738651e-001
626:9.5383077068542474e-002
627:8.9801659711130161e-002
628:1.1775901181897598e-001
629:1.1047030899984137e-001
630:1.0182234202029233e-001
631:9.6161728850289993e-002
632:1.2194798276236710e-001
633:1.1507260486886223e-001
634:1.0702085414637265e-001
635:1.0169743983799043e-001
636:1.2263928481724592e-001
637:1.1621939993446290e-001
638:1.0889922201775123e-001
639:1.0408635234377565e-001
640:8.7380186799677600e-002
641:8.3194542441878336e-002
642:7.7945520732007945e-002
643:7.3770364630001292e-002
644:9.3557178027285456e-002
645:8.9040319545175273e-002
646:8.3479734985791809e-002
647:7.9191415071125884e-002
648:9.9184402196378585e-002
649:9.4714013154227852e-002
650:8.9072701213929947e-002
651:8.4698191656602029e-002
652:1.0177989042897560e-001
653:9.7540311057554271e-002
654:9.1993436464454931e-002
655:8.7628468217851127e-002
656:7.1419606887835899e-002
657:6.7119799158758792e-002
658:6.1894058638650301e-002
659:5.8259342659499037e-002
660:7.6827409224779958e-002
661:7.2464517643393150e-002
662:6.7047742703691918e-002
663:6.3177424747716607e-002
664:8.2302811503218137e-002
665:7.7883795806743150e-002
666:7.2355596286997170e-002
667:6.8337658150860098e-002
668:8.5244563095681264e-002
669:8.0870628073530612e-002
670:7.5398407866606967e-002
671:7.1376552786348343e-002
672:5.6460359255891518e-002
673:5.3053415254354093e-002
674:4.8389329193348415e-002
675:4.4557255231697117e-002
676:6.1222969003797104e-002
677:5.7527171462574321e-002
678:5.2498442110378518e-002
679:4.8390711227267375e-002
680:6.6274148153505560e-002
681:6.2339477669473106e-002
682:5.6950378318430445e-002
683:5.2540740769504553e-002
684:6.9281704130260441e-002
685:6.5241539125199963e-002
686:5.9651594394707311e-002
687:5.5062954274179489e-002
688:4.2398590215319609e-002
689:3.8132972495023489e-002
690:3.2133818769233817e-002
691:2.7187440933689383e-002
692:4.6082815793339435e-002
693:4.1496219264097300e-002
694:3.4994176979359325e-002
695:2.9601237931328919e-002
696:5.0065116537697553e-002
697:4.5130430239657245e-002
698:3.8097372752964292e-002
699:3.2232200839684318e-002
700:5.2489381463641037e-002
701:4.7356295972002464e-002
702:4.0018901459093557e-002
703:3.3872570274477272e-002
704:2.4408500832980982e-002
705:1.8643414779649398e-002
706:9.9053068805399040e-003
707:2.2011078292228353e-003
708:2.6563910608294806e-002
709:2.0278281094444281e-002
710:1.0778214087781393e-002
711:2.4140854131820366e-003
712:2.8917981316879685e-002
713:2.2059653386790126e-002
714:1.1704517709333307e-002
715:2.5997485298009412e-003
716:3.0387689500422553e-002
717:2.3170016256864524e-002
718:1.2278867449981128e-002
719:2.7202630653505957e-003
720:5.2662844459354423e-002
721:-3.3151330520571926e-001
722:-8.7889399253800615e-001
723:-1.2957604480734799e+000
724:3.3528867133218299e-001
725:-6.6595466156439576e-001
726:-1.4432456261707931e+000
727:-1.6521267603971479e+000
728:1.1496573600987085e-001
729:-5.6574824128212009e-001
730:-1.0656273763982052e+000
731:-1.1949676706217756e+000
732:-1.7875724721564620e-001
733:-3.7305474600647393e-001
734:-5.8947135175639431e-001
735:-7.5264389600310888e-001
736:-1.5000853018771221e+000
737:-1.7442952209494060e+000
738:-1.7708230363653221e+000
739:-1.5683584003366464e+000
740:-1.6428004044693196e+000
741:-1.5921841790440123e+000
742:-1.4737792314399365e+000
743:-1.3178804711086107e+000
744:-1.1941480536019116e+000
745:-1.1913604498723551e+000
746:-1.1788704891518149e+000
747:-1.1329925946674344e+000
748:-8.4397444407809297e-001
749:-9.8452420346918912e-001
750:-1.0873063298285666e+000
751:-1.0939757646726325e+000
752:-1.3904054397146941e+000
753:-1.0802294346765393e+000
754:-7.6318366974378504e-001
755:-5.9592979556496062e-001
756:-1.2074447224546201e+000
757:-1.0041059306930802e+000
758:-7.7399260345518217e-001
759:-6.3882334922584816e-001
760:-1.0880287172361622e+000
761:-9.8313623048450438e-001
762:-8.2589895802580671e-001
763:-7.0381406786978495e-001
764:-1.0702808649266700e+000
765:-9.9924680438734748e-001
766:-8.6854831513769482e-001
767:-7.4734568330156970e-001
768:-5.3346068041525396e-001
769:-4.1890250020596642e-001
770:-2.6401804857260808e-001
771:-1.4068289937586079e-001
772:-5.8368992827766486e-001
773:-4.7979366435551080e-001
774:-3.3562270750423079e-001
775:-2.1804535633611616e-001
776:-6.4212395659550103e-001
777:-5.3049040143348203e-001
778:-3.9106992706770893e-001
779:-2.8822731140468155e-001
780:-6.7859263660997815e-001
781:-5.5860334839385617e-001
782:-4.2161614378350798e-001
783:-3.3042597687812014e-001
784:-7.4701327991497174e-002
785:2.3422977606995261e-002
786:1.0032094163744708e-001
787:1.2450240027874510e-001
788:-1.5412233829499278e-001
789:-5.5755028581698333e-002
790:2.8591201984538721e-002
791:6.2644199453405922e-002
792:-2.3520805316216511e-001
793:-1.4913359417197813e-001
794:-6.3730180685297483e-002
795:-1.7446903771252950e-002
796:-2.8632697984685535e-001
797:-2.1103836624725450e-001
798:-1.2712249684144433e-001
799:-7.3610804451055042e-002
800:1.2744323856974302e-001
801:1.3373181116975966e-001
802:1.4631586012679093e-001
803:1.5842069980926879e-001
804:7.1758829843532171e-002
805:8.8048841185890750e-002
806:1.1020277528435676e-001
807:1.2721311986601530e-001
808:1.2320097003515407e-003
809:3.2115875484071674e-002
810:6.5701556272732581e-002
811:8.6367130693899716e-002
812:-4.8864240552199401e-002
813:-9.0905176713190344e-003
814:3.0805887573987133e-002
815:5.3129956233079575e-002
816:1.6518059935835450e-001
817:1.7317771295432083e-001
818:1.7422541171185127e-001
819:1.6864453491775994e-001
820:1.3585413925114459e-001
821:1.4712726074858543e-001
822:1.5245279316345359e-001
823:1.5041834952814440e-001
824:9.5558885877822797e-002
825:1.0884534381894184e-001
826:1.1922280080913564e-001
827:1.2272184091290742e-001
828:6.2481810020499969e-002
829:7.7289872726520478e-002
830:9.1941795763260906e-002
831:9.9904204404662536e-002
832:1.6389174464705200e-001
833:1.5603797421200566e-001
834:1.4837408433385818e-001
835:1.4412184423890925e-001
836:1.4769705245969497e-001
837:1.4335939088385857e-001
838:1.3939777612688301e-001
839:1.3713720377095132e-001
840:1.2337707551305738e-001
841:1.2434723617553288e-001
842:1.2508905202413348e-001
843:1.2488589542817728e-001
844:1.0311450935180062e-001
845:1.0784847466661003e-001
846:1.1165191555222344e-001
847:1.1278369651278543e-001
848:1.4225349129789941e-001
849:1.3818247333446204e-001
850:1.3156414949499548e-001
851:1.2554353202550600e-001
852:1.3599944196331148e-001
853:1.3302814316663006e-001
854:1.2760643190671248e-001
855:1.2252296959590872e-001
856:1.2439149634869859e-001
857:1.2268564837751220e-001
858:1.1922245356359304e-001
859:1.1588767842153931e-001
860:1.1279631110616965e-001
861:1.1228931696510268e-001
862:1.1079317974657577e-001
863:1.0909055024336538e-001
864:1.2207122063687910e-001
865:1.1605111203583217e-001
866:1.0926437009731681e-001
867:1.0478034162130741e-001
868:1.1960855025575799e-001
869:1.1460120909871004e-001
870:1.0892419459354574e-001
871:1.0502813348166401e-001
872:1.1397388775100448e-001
873:1.1057622189611013e-001
874:1.0640849101498359e-001
875:1.0323264913717736e-001
876:1.0802084840925817e-001
877:1.0588521038270124e-001
878:1.0281686470375995e-001
879:1.0018961660555907e-001
880:1.0259522046526567e-001
881:9.8496002141758326e-002
882:9.3030252916941461e-002
883:8.8708409222229251e-002
884:1.0304003349645068e-001
885:9.9208372039536336e-002
886:9.3999267755763713e-002
887:8.9878497280839062e-002
888:1.0149111454407118e-001
889:9.8096624370782204e-002
890:9.3473561647343967e-002
891:8.9831456829898640e-002
892:9.8681254428509599e-002
893:9.5763321408415827e-002
894:9.1812837196208308e-002
895:8.8676767828010289e-002
896:8.6357707560251448e-002
897:8.2058640212609127e-002
898:7.6674072065949214e-002
899:7.2682676537920557e-002
900:8.7655680999861818e-002
901:8.3584424226128592e-002
902:7.8422180348819537e-002
903:7.4508602418650691e-002
904:8.7873743942786825e-002
905:8.4220811847747240e-002
906:7.9426035724175337e-002
907:7.5655429569787089e-002
908:8.6967859332195918e-002
909:8.3685313080414436e-002
910:7.9208765245838031e-002
911:7.5587700285956932e-002
912:7.0583112971738096e-002
913:6.6505753671528181e-002
914:6.0832802417591675e-002
915:5.6170746715643836e-002
916:7.2409499223681756e-002
917:6.8294944977142197e-002
918:6.2531659607026363e-002
919:5.7790335145532362e-002
920:7.3586310232987756e-002
921:6.9505580555497187e-002
922:6.3763334049448880e-002
923:5.9027594229673137e-002
924:7.3576355230400875e-002
925:6.9601502852236818e-002
926:6.3987308204040153e-002
927:5.9330945881338526e-002
928:5.3559038529534954e-002
929:4.8348543150911201e-002
930:4.0886534252291544e-002
931:3.4617305737122378e-002
932:5.5138076960702526e-002
933:4.9832927116827630e-002
934:4.2193165043261510e-002
935:3.5734399885148767e-002
936:5.6374958794550976e-002
937:5.1032491728876687e-002
938:4.3263546959215998e-002
939:3.6642079865065742e-002
940:5.6709944611628579e-002
941:5.1393641277219779e-002
942:4.3600632033172916e-002
943:3.6924767929676916e-002
944:3.1054742991885268e-002
945:2.3673408560871009e-002
946:1.2543193735392833e-002
947:2.7894678956995786e-003
948:3.2049514273671378e-002
949:2.4417689960432174e-002
950:1.2935248157755364e-002
951:2.9027132696895900e-003
952:3.2849103881972104e-002
953:2.5006705127483115e-002
954:1.3245799648865273e-002
955:3.0014198059882670e-003
956:3.3093722762821617e-002
957:2.5182978140368576e-002
958:1.3338689707095546e-002
959:3.0310105748338621e-003
960:-2.8080664141288042e-001
961:-3.1500650917154394e-001
962:-4.6240436772377053e-001
963:-6.5880229039522398e-001
964:-3.0918304989278195e-001
965:-2.8681276128425071e-001
966:-4.3733612097267199e-001
967:-6.6610262316500368e-001
968:-1.5223919122023766e-001
969:-3.0974540992092159e-001
970:-5.7348237180940875e-001
971:-7.8539929692863519e-001
972:-7.8821682988293191e-004
973:-2.9261345297825858e-001
974:-6.0348470957951039e-001
975:-7.6620474419309104e-001
976:-7.8853809629669658e-001
977:-9.7637662800245695e-001
978:-1.0980056576500294e+000
979:-1.1032505831788317e+000
980:-8.1361279062941494e-001
981:-1.0089601880624033e+000
982:-1.1084799518060140e+000
983:-1.0941169980505145e+000
984:-8.8828839191846121e-001
985:-1.0072001893036600e+000
986:-1.0413136789159161e+000
987:-1.0071353184797582e+000
988:-8.2061720441298647e-001
989:-8.7987855717416907e-001
990:-8.9555640782594037e-001
991:-8.7712325142757253e-001
992:-1.0783784696197625e+000
993:-1.0091296298673404e+000
994:-8.8367274490006475e-001
995:-7.6383439330652003e-001
996:-1.0641690457899800e+000
997:-9.9502764347919292e-001
998:-8.8080733495245034e-001
999:-7.7170137804469219e-001
1000:-9.7782707849272443e-001
1001:-9.1809482274585197e-001
1002:-8.2770923791371964e-001
1003:-7.4409875138179782e-001
1004:-8.6155125054868109e-001
1005:-8.2516521060095394e-001
1006:-7.6269316119135588e-001
1007:-7.0240870119383669e-001
1008:-6.9376567308190240e-001
1009:-5.7281199446616626e-001
1010:-4.3853095080546783e-001
1011:-3.5216949512984647e-001
1012:-7.0634135614064986e-001
1013:-5.9359950739678391e-001
1014:-4.6911692303294061e-001
1015:-3.8934487999216727e-001
1016:-6.9395126075995606e-001
1017:-6.0456871632549980e-001
1018:-4.9919973750700058e-001
1019:-4.2578351257644376e-001
1020:-6.6605831756798006e-001
1021:-5.9754993729927541e-001
1022:-5.0874964437317105e-001
1023:-4.4071371907238760e-001
1024:-3.1132885302683916e-001
1025:-2.3983917223423687e-001
1026:-1.5629975813815272e-001
1027:-1.0022046504375623e-001
1028:-3.5153985164375917e-001
1029:-2.8347273694831826e-001
1030:-2.0049872622101669e-001
1031:-1.4265296401564609e-001
1032:-3.8880345419158757e-001
1033:-3.2209720095487915e-001
1034:-2.4156203308292892e-001
1035:-1.8618372835103189e-001
1036:-4.0452332989308615e-001
1037:-3.4008435983055507e-001
1038:-2.6428766814712895e-001
1039:-2.1325397212874228e-001
1040:-7.3414238868171319e-002
1041:-3.0732268877986253e-002
1042:1.1224444959496203e-002
1043:3.4345743585948184e-002
1044:-1.1443570141715760e-001
1045:-6.9577024500597870e-002
1046:-2.5302163892803556e-002
1047:-1.9282704811275937e-004
1048:-1.5942297379845402e-001
1049:-1.1587402356489619e-001
1050:-7.0306166683939020e-002
1051:-4.2040031210718525e-002
1052:-1.8875497431922122e-001
1053:-1.4740364331455380e-001
1054:-1.0118121007575814e-001
1055:-7.0532200761414449e-002
1056:4.4050401153954144e-002
1057:6.0147647755561917e-002
1058:7.7398687291853008e-002
1059:8.7634115505943716e-002
1060:1.0831195003390580e-002
1061:2.9947557408295834e-002
1062:5.1638858036618648e-002
1063:6.5142465238421418e-002
1064:-2.8690207076678392e-002
1065:-5.5322627945128241e-003
1066:2.0446819855303007e-002
1067:3.6441672347025875e-002
1068:-5.5564825749652734e-002
1069:-3.0117398005436401e-002
1070:-2.3824370346001008e-003
1071:1.4472517353242604e-002
1072:9.2005554820070029e-002
1073:9.8380487084503351e-002
1074:1.0351261882956517e-001
1075:1.0533877937767169e-001
1076:7.1044554818832137e-002
1077:7.9728156503669656e-002
1078:8.7151289956344843e-002
1079:9.0555158465556118e-002
1080:4.3407632423427940e-002
1081:5.4131410612120637e-002
1082:6.4472281842524057e-002
1083:7.0362413119136852e-002
1084:2.1887113922697404e-002
1085:3.3921020783207252e-002
1086:4.6661237773966330e-002
1087:5.4627225145656391e-002
1088:1.0570481308715259e-001
1089:1.0601738074753038e-001
1090:1.0575878515667893e-001
1091:1.0497847152982635e-001
1092:9.1808910472891775e-002
1093:9.3878384285056918e-002
1094:9.5873502951019055e-002
1095:9.6600529892688400e-002
1096:7.3023396035265517e-002
1097:7.7497278441799350e-002
1098:8.2074377312168101e-002
1099:8.4346693422998428e-002
1100:5.8373778387223997e-002
1101:6.4514695867200850e-002
1102:7.0673558368457165e-002
1103:7.3881397417182526e-002
1104:1.0434091084406202e-001
1105:1.0282832715166156e-001
1106:1.0030128642316548e-001
1107:9.7980825489668244e-002
1108:9.6633167993532013e-002
1109:9.6150156978374784e-002
1110:9.4669324580261935e-002
1111:9.3052929906938267e-002
1112:8.5057686992633247e-002
1113:8.5776773369134224e-002
1114:8.5800275531235703e-002
1115:8.5318894423686883e-002
1116:7.5053128996200452e-002
1117:7.6711808454268740e-002
1118:7.8043752128228921e-002
1119:7.8546279850428377e-002
1120:9.6629320660420029e-002
1121:9.4035759630905241e-002
1122:9.0525096143822981e-002
1123:8.7694721868025238e-002
1124:9.2079474410404302e-002
1125:9.0192097785458628e-002
1126:8.7532364566816803e-002
1127:8.5246626543005966e-002
1128:8.4947045331094706e-002
1129:8.4078654275138359e-002
1130:8.2510651128807969e-002
1131:8.0880056314978618e-002
1132:7.8663576878493208e-002
1133:7.8572318558637791e-002
1134:7.7788019643111800e-002
1135:7.6636146733758403e-002
1136:8.6123941080883365e-002
1137:8.3042737429851785e-002
1138:7.8743704186904601e-002
1139:7.5220551193293739e-002
1140:8.3913395234189447e-002
1141:8.1201560118701416e-002
1142:7.7279583224991372e-002
1143:7.4000967969188799e-002
1144:7.9835648139981757e-002
1145:7.7624119076754095e-002
1146:7.4298922549572585e-002
1147:7.1445228559861351e-002
1148:7.5822121701842965e-002
1149:7.4042496240857486e-002
1150:7.1266026730026855e-002
1151:6.8801633028830869e-002
1152:7.3256372120409946e-002
1153:6.9370873681691980e-002
1154:6.3864437525347581e-002
1155:5.9273114614630897e-002
1156:7.2161598459282592e-002
1157:6.8495933084106272e-002
1158:6.3232447162694994e-002
1159:5.8781160006896267e-002
1160:6.9822251830807328e-002
1161:6.6516841712831953e-002
1162:6.1629866652758540e-002
1163:5.7397692277056822e-002
1164:6.7368287704169472e-002
1165:6.4370559784030695e-002
1166:5.9805261235837855e-002
1167:5.5774446900036238e-002
1168:5.6677364159861507e-002
1169:5.1390884525736265e-002
1170:4.3610967752719478e-002
1171:3.6933036501691351e-002
1172:5.6240766818661407e-002
1173:5.1036835824756356e-002
1174:4.3337661571343750e-002
1175:3.6711602325390121e-002
1176:5.4951887347439457e-002
1177:4.9916982491494108e-002
1178:4.2433260237213624e-002
1179:3.5972963526629542e-002
1180:5.3425800231839536e-002
1181:4.8576275993605457e-002
1182:4.1340366659550348e-002
1183:3.5070843545394817e-002
1184:3.3099191428284540e-002
1185:2.5185918582951234e-002
1186:1.3340168162938343e-002
1187:3.0286229427701288e-003
1188:3.2905066480781189e-002
1189:2.5044339938635033e-002
1190:1.3265655745131473e-002
1191:3.0006117934618260e-003
1192:3.2256070959152693e-002
1193:2.4563127493918580e-002
1194:1.3006650752944496e-002
1195:2.9191090202698566e-003
1196:3.1455002829137289e-002
1197:2.3955668810482087e-002
1198:1.2672385268076776e-002
1199:2.8209188353810603e-003
1200:5.4879863547673977e-002
1201:-2.5086488982689725e-001
1202:-5.3963987422677240e-001
1203:-6.6781398354853672e-001
1204:8.2583808987943999e-002
1205:-1.6723857801725747e-001
1206:-3.7710179926947901e-001
1207:-4.5864940936813120e-001
1208:2.3296581827338330e-002
1209:-9.0407546262566987e-002
1210:-1.9167204895395357e-001
1211:-2.5045982624067087e-001
1212:-4.2222873552778074e-002
1213:-8.2340316548395423e-002
1214:-1.4508057123811713e-001
1215:-2.1162509076272717e-001
1216:-7.0291654502314338e-001
1217:-7.4865648246441840e-001
1218:-7.8092661812367858e-001
1219:-7.8748482160851307e-001
1220:-4.7979543629103844e-001
1221:-5.2803927179366072e-001
1222:-6.0088394796961453e-001
1223:-6.4835285178955604e-001
1224:-2.8133570291235566e-001
1225:-3.5615023228155157e-001
1226:-4.6628929690436621e-001
1227:-5.3812064585545971e-001
1228:-2.5607221836193678e-001
1229:-3.4338576130778914e-001
1230:-4.4812322963251677e-001
1231:-5.0839942258720616e-001
1232:-7.8522179611808329e-001
1233:-7.6841841716992221e-001
1234:-7.2423509832944133e-001
1235:-6.7600898936163079e-001
1236:-6.6570387497010275e-001
1237:-6.7785490090394496e-001
1238:-6.6095995113813000e-001
1239:-6.3020964306119076e-001
1240:-5.6536599224954298e-001
1241:-5.9402033592452474e-001
1242:-5.9640075216653976e-001
1243:-5.7940235051218403e-001
1244:-5.2985366269134415e-001
1245:-5.5369678723695026e-001
1246:-5.5866564528260099e-001
1247:-5.4693173240056636e-001
1248:-6.4627066374240028e-001
1249:-5.8785431666189480e-001
1250:-5.0762409672716102e-001
1251:-4.4324865601230978e-001
1252:-6.0973062521455035e-001
1253:-5.6596769912383726e-001
1254:-4.9972150508789320e-001
1255:-4.4302148869252261e-001
1256:-5.6605045873886406e-001
1257:-5.3463147837427794e-001
1258:-4.8287079757562745e-001
1259:-4.3656645431506297e-001
1260:-5.3654528135378199e-001
1261:-5.1111599535591723e-001
1262:-4.6810527291302201e-001
1263:-4.2915106674945480e-001
1264:-4.0826083009013786e-001
1265:-3.4643966063832982e-001
1266:-2.7450815872170098e-001
1267:-2.2621825900370540e-001
1268:-4.1138462504151552e-001
1269:-3.5577319135704039e-001
1270:-2.9121624324182821e-001
1271:-2.4726050513176290e-001
1272:-4.1032225893155660e-001
1273:-3.6359568397152753e-001
1274:-3.0770723085815721e-001
1275:-2.6788889430532420e-001
1276:-4.0693623133795781e-001
1277:-3.6636540162285525e-001
1278:-3.1579534711334595e-001
1279:-2.7832714462843861e-001
1280:-2.0289685377799965e-001
1281:-1.6255362548460853e-001
1282:-1.1586317531634295e-001
1283:-8.4137805037076477e-002
1284:-2.2553934574198239e-001
1285:-1.8663700724172549e-001
1286:-1.3970263013741371e-001
1287:-1.0706432911014849e-001
1288:-2.4745637013226540e-001
1289:-2.1020593264644438e-001
1290:-1.6456435953658696e-001
1291:-1.3266434255969745e-001
1292:-2.5869612860673152e-001
1293:-2.2310364808746430e-001
1294:-1.7982629716537130e-001
1295:-1.4961666867539958e-001
1296:-6.8562899658694249e-002
1297:-4.2431795266814745e-002
1298:-1.4366418654290296e-002
1299:2.7012300267497740e-003
1300:-9.1030472811212515e-002
1301:-6.4436198908836187e-002
1302:-3.6032439459329733e-002
1303:-1.8392339685112405e-002
1304:-1.1703468267762439e-001
1305:-9.0880599930054651e-002
1306:-6.2177760370466122e-002
1307:-4.3486491786791308e-002
1308:-1.3473705137335498e-001
1309:-1.0926134708412942e-001
1310:-8.0233034229543823e-002
1311:-6.0647590023513144e-002
1312:1.0337256930271802e-002
1313:2.3120053875747976e-002
1314:3.7230590473135268e-002
1315:4.6292486380992086e-002
1316:-1.0193212085158561e-002
1317:4.0288358629462454e-003
1318:2.0356094921898799e-002
1319:3.1028936380919525e-002
1320:-3.4420407682861712e-002
1321:-1.8529729253408393e-002
1322:-1.9629116116451014e-004
1323:1.1754622279822421e-002
1324:-5.0985120320330188e-002
1325:-3.4204298799980659e-002
1326:-1.5080437646220985e-002
1327:-2.6572935070442493e-003
1328:5.0558050741441089e-002
1329:5.7446329405005658e-002
1330:6.4283905594597721e-002
1331:6.7934527925842036e-002
1332:3.6019484787976092e-002
1333:4.4019313415684089e-002
1334:5.2046049940891168e-002
1335:5.6607934580566129e-002
1336:1.7308998149434929e-002
1337:2.6369023282622511e-002
1338:3.5902367223602960e-002
1339:4.1777420923726272e-002
1340:3.1559818327586021e-003
1341:1.2894535473444414e-002
1342:2.3613610747664243e-002
1343:3.0525726941984695e-002
1344:6.9360488812478888e-002
1345:7.1561714217714137e-002
1346:7.3649819870064387e-002
1347:7.4693251176761885e-002
1348:5.8574750515562130e-002
1349:6.1834225561348703e-002
1350:6.5261518973929039e-002
1351:6.7199961648862341e-002
1352:4.4507284074526338e-002
1353:4.9110690553403030e-002
1354:5.4046427221980387e-002
1355:5.6927605406682319e-002
1356:3.3814882213203334e-002
1357:3.9323630575722690e-002
1358:4.5193724980741361e-002
1359:4.8662136809000472e-002
1360:7.5061983546454492e-002
1361:7.5358798435616325e-002
1362:7.4964618083716156e-002
1363:7.4067844079509101e-002
1364:6.7971758311231617e-002
1365:6.8922524379234282e-002
1366:6.9256679904356480e-002
1367:6.8883038545274777e-002
1368:5.8124726493170707e-002
1369:5.9839325124335097e-002
1370:6.1148446909763822e-002
1371:6.1526049910241673e-002
1372:5.0148349013555478e-002
1373:5.2434765708796106e-002
1374:5.4529355488712711e-002
1375:5.5510069205667763e-002
1376:7.3387898826267825e-002
1377:7.1865061889625950e-002
1378:6.9413550071702718e-002
1379:6.7171518872286326e-002
1380:6.8485923056100406e-002
1381:6.7479592729207408e-002
1382:6.5641898902753987e-002
1383:6.3800624443147172e-002
1384:6.1532901761219776e-002
1385:6.1225060660748537e-002
1386:6.0165467783741967e-002
1387:5.8816731927224149e-002
1388:5.5827562111406839e-002
1389:5.6037355590521587e-002
1390:5.5539280106209614e-002
1391:5.4554676660768776e-002
1392:6.5841669555329760e-002
1393:6.3011220394311548e-002
1394:5.8625906465052890e-002
1395:5.4716450678374232e-002
1396:6.2653927004079096e-002
1397:6.0133283114218714e-002
1398:5.6110014269341167e-002
1399:5.2463188257420829e-002
1400:5.7897901215408144e-002
1401:5.5789350487883686e-002
1402:5.2291198410470266e-002
1403:4.9044383350071198e-002
1404:5.3814340194831042e-002
1405:5.2043707605701768e-002
1406:4.8991131443707987e-002
1407:4.6082929633962225e-002
1408:5.2430664792613477e-002
1409:4.7702053539758801e-002
1410:4.0626119200951404e-002
1411:3.4476811241828907e-002
1412:5.0317141773523116e-002
1413:4.5850008759892896e-002
1414:3.9108731856398959e-002
1415:3.3206959300042027e-002
1416:4.7112023257155924e-002
1417:4.3035720756463808e-002
1418:3.6785722948623090e-002
1419:3.1249859898407673e-002
1420:4.4327773650807187e-002
1421:4.0573644096035782e-002
1422:3.4733245292930197e-002
1423:2.9512674175087805e-002
1424:3.0923404233696845e-002
1425:2.3546954842999360e-002
1426:1.2445705350144652e-002
1427:2.7584012628773073e-003
1428:2.9782570949340843e-002
1429:2.2670754388462985e-002
1430:1.1977545405166424e-002
1431:2.6630238099431512e-003
1432:2.8020257557899726e-002
1433:2.1319939018678929e-002
1434:1.1271709378660196e-002
1435:2.5423840985882170e-003
1436:2.6456103059680058e-002
1437:2.0121537954784264e-002
1438:1.0637541260408501e-002
1439:2.4077168782104075e-003
1440:-6.7698409116081382e-002
1441:-1.0097270177131490e-001
1442:-1.7114157362179722e-001
1443:-2.4844935213780250e-001
1444:-7.9738176193338145e-002
1445:-1.3118740436449203e-001
1446:-2.2798981376354002e-001
1447:-3.1755299683601901e-001
1448:-4.9415903038103753e-002
1449:-1.4158876523845387e-001
1450:-2.6624168726459085e-001
1451:-3.5354202686351055e-001
1452:-1.5028176408103231e-002
1453:-1.1908874202134018e-001
1454:-2.3952583429406921e-001
1455:-3.1238625648761054e-001
1456:-2.9761157576671488e-001
1457:-3.8183352177212954e-001
1458:-4.6708324163908910e-001
1459:-5.0975203754137965e-001
1460:-3.6703506924729495e-001
1461:-4.3697457949560020e-001
1462:-4.8754805170165066e-001
1463:-5.0397165556181323e-001
1464:-3.9295178407875497e-001
1465:-4.4119487872317292e-001
1466:-4.6618437568156884e-001
1467:-4.6996861608477136e-001
1468:-3.4204405906336799e-001
1469:-3.8116483205185719e-001
1470:-4.0932954318079057e-001
1471:-4.2195919607312732e-001
1472:-5.2368521764410525e-001
1473:-5.3930252674760248e-001
1474:-5.4190991455344106e-001
1475:-5.3168965611817032e-001
1476:-5.0777130063529685e-001
1477:-5.1256844916318189e-001
1478:-5.1235115338345871e-001
1479:-5.0443202566306145e-001
1480:-4.7072826515306493e-001
1481:-4.7325607620235144e-001
1482:-4.7429950338673627e-001
1483:-4.6908706613282691e-001
1484:-4.2798231184965529e-001
1485:-4.3747256245475519e-001
1486:-4.4330038748867512e-001
1487:-4.4035658751224538e-001
1488:-5.2239504538325254e-001
1489:-4.9944521984696832e-001
1490:-4.6042157289576385e-001
1491:-4.2490558571286113e-001
1492:-4.9675168050497837e-001
1493:-4.7765323308164837e-001
1494:-4.4507584710671616e-001
1495:-4.1521860399632593e-001
1496:-4.6307351960337895e-001
1497:-4.4809993059212250e-001
1498:-4.2257862197923668e-001
1499:-3.9897296646750019e-001
1500:-4.3563343807564237e-001
1501:-4.2373231489438401e-001
1502:-4.0319664133166105e-001
1503:-3.8385815797857259e-001
1504:-4.0455215573580905e-001
1505:-3.6670303912792668e-001
1506:-3.1838999891541392e-001
1507:-2.8201956649114368e-001
1508:-3.9795293769142193e-001
1509:-3.6479828863465436e-001
1510:-3.2077877218634665e-001
1511:-2.8682871908256408e-001
1512:-3.8515131113526696e-001
1513:-3.5766802054426211e-001
1514:-3.1964916210350902e-001
1515:-2.8954841977587154e-001
1516:-3.7236458195732774e-001
1517:-3.4904152753026474e-001
1518:-3.1594942760523376e-001
1519:-2.8920136450096462e-001
1520:-2.6288040158808873e-001
1521:-2.2845654848955008e-001
1522:-1.8690966919540553e-001
1523:-1.5785594710645484e-001
1524:-2.6885478031572274e-001
1525:-2.3683035365419888e-001
1526:-1.9840949812352471e-001
1527:-1.7128423123747788e-001
1528:-2.7345911914769555e-001
1529:-2.4472951360457526e-001
1530:-2.0991556408337275e-001
1531:-1.8481812309159035e-001
1532:-2.7472497910969385e-001
1533:-2.4850634709478756e-001
1534:-2.1607585451011421e-001
1535:-1.9226868373750583e-001
1536:-1.4342449107551328e-001
1537:-1.1829906829783150e-001
1538:-8.9032204355894207e-002
1539:-6.9003820384091738e-002
1540:-1.5757081133462816e-001
1541:-1.3310631715132329e-001
1542:-1.0376757764976827e-001
1543:-8.3359168841109901e-002
1544:-1.7187164375444564e-001
1545:-1.4842027233586530e-001
1546:-1.1982200669816839e-001
1547:-9.9735668483077716e-002
1548:-1.7987533633034139e-001
1549:-1.5742810023510165e-001
1550:-1.3002303889267697e-001
1551:-1.1067731093666222e-001
1552:-5.9103384881110034e-002
1553:-4.2049294940524479e-002
1554:-2.2768075693221628e-002
1555:-1.0220778032059969e-002
1556:-7.3263981100178996e-002
1557:-5.6000968305045543e-002
1558:-3.6541047584381731e-002
1559:-2.3715746946595492e-002
1560:-8.9780263545487668e-002
1561:-7.2661254707508061e-002
1562:-5.3057209602844151e-002
1563:-3.9792182755050448e-002
1564:-1.0102350596386703e-001
1565:-8.4188312425211326e-002
1566:-6.4486702428809162e-002
1567:-5.0886646343446057e-002
1568:-4.2912148717350173e-003
1569:5.8088899232766758e-003
1570:1.7178048972172795e-002
1571:2.4624803580822103e-002
1572:-1.7526992123981632e-002
1573:-6.7651347068988388e-003
1574:5.6475156003873107e-003
1575:1.3892382497343606e-002
1576:-3.3240792276334849e-002
1577:-2.1746970178517698e-002
1578:-8.3833091303157133e-003
1579:5.2818784806271299e-004
1580:-4.4102401634045878e-002
1581:-3.2231519878295166e-002
1582:-1.8470694983063442e-002
1583:-9.2785043857986828e-003
1584:2.8179336439961750e-002
1585:3.4097372126755197e-002
1586:4.0380659344640558e-002
1587:4.4129421100335180e-002
1588:1.7829746400214865e-002
1589:2.4371621485044279e-002
1590:3.1366492889312661e-002
1591:3.5657861105242022e-002
1592:4.7855703090540977e-003
1593:1.1935934261368967e-002
1594:1.9784205088653018e-002
1595:2.4799805374160443e-002
1596:-4.8619109187608570e-003
1597:2.6678569703192353e-003
1598:1.1139868609656815e-002
1599:1.6694163507241427e-002
1600:4.5769664493025927e-002
1601:4.8371473177673603e-002
1602:5.0899655909644646e-002
1603:5.2200534163518775e-002
1604:3.7607357494921979e-002
1605:4.0806959971482031e-002
1606:4.4100962212299040e-002
1607:4.5939270432832718e-002
1608:2.7162550142702281e-002
1609:3.1104115308275695e-002
1610:3.5270525273499047e-002
1611:3.7693425034802899e-002
1612:1.9350582182490056e-002
1613:2.3789762199473874e-002
1614:2.8512118755914580e-002
1615:3.1311821945142253e-002
1616:5.2675124270013411e-002
1617:5.3143070393679666e-002
1618:5.2927808737790114e-002
1619:5.2136461666797321e-002
1620:4.6671837070952557e-002
1621:4.7580258066959771e-002
1622:4.7883321414864864e-002
1623:4.7470130126814634e-002
1624:3.8707033582149046e-002
1625:4.0130133757875851e-002
1626:4.1098265340773932e-002
1627:4.1198193159605968e-002
1628:3.2517043790464800e-002
1629:3.4313954508531620e-002
1630:3.5791281744487299e-002
1631:3.6286601053533797e-002
1632:5.1496502859254570e-002
1633:4.9918158332103703e-002
1634:4.7117752728255122e-002
1635:4.4396762660051478e-002
1636:4.7031797173164150e-002
1637:4.5829347130272313e-002
1638:4.3504121250976399e-002
1639:4.1127281654748195e-002
1640:4.1035570945732847e-002
1641:4.0331349168459416e-002
1642:3.8614553923287387e-002
1643:3.6673206666917993e-002
1644:3.6332192297076682e-002
1645:3.5997435681385678e-002
1646:3.4728649160469430e-002
1647:3.3114568115244145e-002
1648:4.2737282479432245e-002
1649:3.9158054356670129e-002
1650:3.3545246026240823e-002
1651:2.8505777454629202e-002
1652:3.9642540332774458e-002
1653:3.6392251208855385e-002
1654:3.1225484075641335e-002
1655:2.6551100550495844e-002
1656:3.5411730733098189e-002
1657:3.2597469112188533e-002
1658:2.8046255713045656e-002
1659:2.3885361698998887e-002
1660:3.2025979536693470e-002
1661:2.9556670681568135e-002
1662:2.5498928457631215e-002
1663:2.1748333433187394e-002
1664:2.5550824186015009e-002
1665:1.9428572004423390e-002
1666:1.0264564093648332e-002
1667:2.3114053155918850e-003
1668:2.3802609649910270e-002
1669:1.8102915096704940e-002
1670:9.5612954645143706e-003
1671:2.1395988717833941e-003
1672:2.1427351769190590e-002
1673:1.6312026097010487e-002
1674:8.6183904532153594e-003
1675:1.9189611484861692e-003
1676:1.9520348157359122e-002
1677:1.4866344888847787e-002
1678:7.8456194168803096e-003
1679:1.7267756022514981e-003
1680:-3.8331897223361523e-004
1681:-9.5613095615435184e-002
1682:-2.0019829436426920e-001
1683:-2.6186698947410175e-001
1684:1.0147398263904322e-002
1685:-6.0223863207483283e-002
1686:-1.3402529325832782e-001
1687:-1.7939693628064410e-001
1688:1.1487123427740224e-003
1689:-3.8692380448281466e-002
1690:-8.4093369297742041e-002
1691:-1.1916205005235012e-001
1692:-1.2278223900166564e-002
1693:-4.2073253284480028e-002
1694:-8.2152109054154543e-002
1695:-1.1721738450706240e-001
1696:-2.8744103576915991e-001
1697:-3.2682469614748832e-001
1698:-3.6582292267184030e-001
1699:-3.8933690360211604e-001
1700:-2.0081462581361265e-001
1701:-2.4298162081219721e-001
1702:-2.9844259329662187e-001
1703:-3.3676046205878124e-001
1704:-1.3971584151094527e-001
1705:-1.8443411384993988e-001
1706:-2.4686932071594475e-001
1707:-2.9002862625799708e-001
1708:-1.3838170741807959e-001
1709:-1.8079594904862326e-001
1710:-2.3533589104742622e-001
1711:-2.7128948150405302e-001
1712:-4.0038346779636097e-001
1713:-4.1607904436586435e-001
1714:-4.2560816704641974e-001
1715:-4.2406979885633339e-001
1716:-3.5417551633308236e-001
1717:-3.7781506235714396e-001
1718:-3.9275112699106418e-001
1719:-3.9420892762463505e-001
1720:-3.0896653569795013e-001
1721:-3.3493069517272023e-001
1722:-3.5332378840712314e-001
1723:-3.5872637727039364e-001
1724:-2.8684837841238814e-001
1725:-3.0931231708172124e-001
1726:-3.2777266222499962e-001
1727:-3.3561382058950212e-001
1728:-4.2015608230356061e-001
1729:-4.1004915074495946e-001
1730:-3.9219052626381062e-001
1731:-3.7501684764505322e-001
1732:-3.9222311389893655e-001
1733:-3.8588522700754418e-001
1734:-3.7286143755665607e-001
1735:-3.5917195250103423e-001
1736:-3.5949391869656738e-001
1737:-3.5800141295725590e-001
1738:-3.5034363331049356e-001
1739:-3.4006735849702813e-001
1740:-3.3812011720830648e-001
1741:-3.3947607729190110e-001
1742:-3.3473802607027064e-001
1743:-3.2629765897883833e-001
1744:-3.6467656567550955e-001
1745:-3.4351486087299338e-001
1746:-3.1312453065257856e-001
1747:-2.8824468124257097e-001
1748:-3.5058276314182263e-001
1749:-3.3279396332203925e-001
1750:-3.0683480425064164e-001
1751:-2.8518007634175635e-001
1752:-3.3309406006377640e-001
1753:-3.1854929494810386e-001
1754:-2.9716361432878285e-001
1755:-2.7909084689308655e-001
1756:-3.2023808985695429e-001
1757:-3.0758531009495943e-001
1758:-2.8897487609563416e-001
1759:-2.7317570335411889e-001
1760:-2.7464979879583840e-001
1761:-2.4972778517525138e-001
1762:-2.1844659010236334e-001
1763:-1.9527803111663419e-001
1764:-2.7316718659316858e-001
1765:-2.5065350761853566e-001
1766:-2.2163722560575358e-001
1767:-1.9979293344852797e-001
1768:-2.6893809978185335e-001
1769:-2.4945181276157014e-001
1770:-2.2358069845119086e-001
1771:-2.0369320271551872e-001
1772:-2.6425098153543353e-001
1773:-2.4691836642376561e-001
1774:-2.2351639251568650e-001
1775:-2.0524925619410569e-001
1776:-1.8319646959008126e-001
1777:-1.6138862518620284e-001
1778:-1.3481358977250130e-001
1779:-1.1598226515584435e-001
1780:-1.8835607021549972e-001
1781:-1.6778452193337939e-001
1782:-1.4271136005012608e-001
1783:-1.2477502550459738e-001
1784:-1.9319016722945909e-001
1785:-1.7423858271520926e-001
1786:-1.5093952139913280e-001
1787:-1.3401993527590406e-001
1788:-1.9550854825667219e-001
1789:-1.7777849840856164e-001
1790:-1.5570638265150771e-001
1791:-1.3949004862332506e-001
1792:-1.0652184230441844e-001
1793:-8.9856750564181145e-002
1794:-7.0101610397400024e-002
1795:-5.6349589854676384e-002
1796:-1.1564923857237654e-001
1797:-9.9333367333659134e-002
1798:-7.9646522766600600e-002
1799:-6.5795827733891754e-002
1800:-1.2529363487322137e-001
1801:-1.0953147501944044e-001
1802:-9.0286132383480711e-002
1803:-7.6638902874456211e-002
1804:-1.3107180170167276e-001
1805:-1.1584127051346904e-001
1806:-9.7188874154188337e-002
1807:-8.3896330332632621e-002
1808:-4.9478022612412798e-002
1809:-3.7494170807612470e-002
1810:-2.3636247085914726e-002
1811:-1.4353264457767599e-002
1812:-5.8863712337993965e-002
1813:-4.6800025846433092e-002
1814:-3.2828291575000675e-002
1815:-2.3375452549817540e-002
1816:-6.9789512227999353e-002
1817:-5.7809336469222775e-002
1818:-4.3769300698241920e-002
1819:-3.4101588426841682e-002
1820:-7.7191552548585354e-002
1821:-6.5361451895729991e-002
1822:-5.1308811233013965e-002
1823:-4.1506061012857656e-002
1824:-9.8653963017899821e-003
1825:-2.1437479457564273e-003
1826:6.6535898358859877e-003
1827:1.2477090332397623e-002
1828:-1.8746680957227497e-002
1829:-1.0686783116412683e-002
1830:-1.3668699875552786e-003
1831:4.8664758340265036e-003
1832:-2.9297409237706816e-002
1833:-2.0877190983142734e-002
1834:-1.1069956926539752e-002
1835:-4.4741297930499524e-003
1836:-3.6599376618688825e-002
1837:-2.7997793520185107e-002
1838:-1.7971305920757814e-002
1839:-1.1204904169575614e-002
1840:1.5271716932758453e-002
1841:1.9938435397656603e-002
1842:2.4914638621567998e-002
1843:2.7896956980656699e-002
1844:7.8668697735508539e-003
1845:1.2889168193991392e-002
1846:1.8300178466135315e-002
1847:2.1621670056112999e-002
1848:-1.2898791860016456e-003
1849:4.0896187858471154e-003
1850:1.0007227891171810e-002
1851:1.3757020798843299e-002
1852:-7.9227300984464257e-003
1853:-2.3213603386065909e-003
1854:3.9495721350486426e-003
1855:8.0045623380237511e-003
1856:2.9201868958908174e-002
1857:3.1197859426896745e-002
1858:3.2947059628653352e-002
1859:3.3648642199271418e-002
1860:2.3117255820546301e-002
1861:2.5481265285395377e-002
1862:2.7711648903429777e-002
1863:2.8767640760063561e-002
1864:1.5495659859499262e-002
1865:1.8307935252837106e-002
1866:2.1095645968351558e-002
1867:2.2553491313661429e-002
1868:9.9121979053622186e-003
1869:1.3025836348533626e-002
1870:1.6179989228996078e-002
1871:1.7906919193025807e-002
1872:3.3799845195092403e-002
1873:3.3651936205989642e-002
1874:3.2613055705356352e-002
1875:3.1172604736931109e-002
1876:2.9098530041159722e-002
1877:2.9277987503578823e-002
1878:2.8660922160313171e-002
1879:2.7550809778993955e-002
1880:2.3089614313191092e-002
1881:2.3660981974911989e-002
1882:2.3578619221483122e-002
1883:2.2900976691182184e-002
1884:1.8585762611703752e-002
1885:1.9440452975576620e-002
1886:1.9757180654840552e-002
1887:1.9404133972225939e-002
1888:3.0178440169292189e-002
1889:2.7898178684627691e-002
1890:2.4109223169483898e-002
1891:2.0579243294992701e-002
1892:2.6738742140165656e-002
1893:2.4817658504147799e-002
1894:2.1530078539751467e-002
1895:1.8407299737280818e-002
1896:2.2328612834468214e-002
1897:2.0872519220107303e-002
1898:1.8223626192520086e-002
1899:1.5617603371864399e-002
1900:1.9010117404921787e-002
1901:1.7897252728729204e-002
1902:1.5719520539430883e-002
1903:1.3498834028527442e-002
1904:1.8473694616544207e-002
1905:1.4066695390643161e-002
1906:7.4113600282291470e-003
1907:1.6127017085178900e-003
1908:1.6527387387888774e-002
1909:1.2582519400171707e-002
1910:6.6220801586375083e-003
1911:1.4371096645282438e-003
1912:1.4025392452427456e-002
1913:1.0678734237702745e-002
1914:5.6282659800926029e-003
1915:1.2474241678424197e-003
1916:1.2123697693874948e-002
1917:9.2301670638390895e-003
1918:4.8662033657322495e-003
1919:1.0853748435015811e-003
1920:-1.8265057749533315e-002
1921:-5.0242994611129167e-002
1922:-9.4707364093555804e-002
1923:-1.3208648308608481e-001
1924:-2.2071973135797483e-002
1925:-6.0416271444375960e-002
1926:-1.1283572149119438e-001
1927:-1.5290470728462932e-001
1928:-1.6845950412780152e-002
1929:-6.0658074062440247e-002
1930:-1.1692314472769334e-001
1931:-1.5604824473144890e-001
1932:-9.7358935996544327e-003
1933:-5.1477673048135802e-002
1934:-1.0301911931457756e-001
1935:-1.3801022954293615e-001
1936:-1.5335100227551168e-001
1937:-1.9228186690598495e-001
1938:-2.3798136953680649e-001
1939:-2.6682235323631931e-001
1940:-1.7340279335238079e-001
1941:-2.0604978143277586e-001
1942:-2.3847446699831337e-001
1943:-2.5744577546959557e-001
1944:-1.7433917767205695e-001
1945:-2.0129202832457632e-001
1946:-2.2569093314397504e-001
1947:-2.3998993685547218e-001
1948:-1.5432508092859429e-001
1949:-1.7971582600683869e-001
1950:-2.0529706715831619e-001
1951:-2.2174327313385261e-001
1952:-2.7938607006620036e-001
1953:-2.9862165265558910e-001
1954:-3.1634545920858059e-001
1955:-3.2508227798243666e-001
1956:-2.6611577677478054e-001
1957:-2.8116979762830513e-001
1958:-2.9771682884097805e-001
1959:-3.0714532193777883e-001
1960:-2.4721466773137143e-001
1961:-2.6071305747978241e-001
1962:-2.7647345422992348e-001
1963:-2.8551922300111710e-001
1964:-2.3013359544289363e-001
1965:-2.4480774480464801e-001
1966:-2.6055048760837540e-001
1967:-2.6895656185897088e-001
1968:-3.2820944000010599e-001
1969:-3.3053764229663524e-001
1970:-3.2682063046463394e-001
1971:-3.1913738515508222e-001
1972:-3.1071279699889220e-001
1973:-3.1389482116691431e-001
1974:-3.1160149888629446e-001
1975:-3.0543990030719620e-001
1976:-2.8879448258027407e-001
1977:-2.9204990833867484e-001
1978:-2.9124724484165437e-001
1979:-2.8727926219124039e-001
1980:-2.7187455130163873e-001
1981:-2.7516058638214697e-001
1982:-2.7566592550088925e-001
1983:-2.7345166110514579e-001
1984:-3.1352003736192458e-001
1985:-3.0177343884376734e-001
1986:-2.8445844802069831e-001
1987:-2.6971028266336228e-001
1988:-3.0082277774206467e-001
1989:-2.9096889322946712e-001
1990:-2.7605317776771143e-001
1991:-2.6306867351921170e-001
1992:-2.8415482605392023e-001
1993:-2.7693734961595823e-001
1994:-2.6501655270020408e-001
1995:-2.5402110575117182e-001
1996:-2.7143479272725946e-001
1997:-2.6610453195901140e-001
1998:-2.5625305887355720e-001
1999:-2.4661690622639543e-001
2000:-2.6135672150276440e-001
2001:-2.4508305135187752e-001
2002:-2.2298003093093577e-001
2003:-2.0559617783015027e-001
2004:-2.5562682941602838e-001
2005:-2.4107741175597680e-001
2006:-2.2117686477136786e-001
2007:-2.0536168125392046e-001
2008:-2.4755280236697591e-001
2009:-2.3487048354625764e-001
2010:-2.1744761746108887e-001
2011:-2.0349005802992320e-001
2012:-2.4082084209356314e-001
2013:-2.2941758045734056e-001
2014:-2.1368780775225218e-001
2015:-2.0101740009359706e-001
2016:-1.9626978566281233e-001
2017:-1.7917846016316827e-001
2018:-1.5772317252823020e-001
2019:-1.4187060531352511e-001
2020:-1.9679891828190268e-001
2021:-1.8091517349463068e-001
2022:-1.6067158019792385e-001
2023:-1.4555679574971059e-001
2024:-1.9587359823743844e-001
2025:-1.8155579049351933e-001
2026:-1.6298487917605267e-001
2027:-1.4892897962898516e-001
2028:-1.9407092290746000e-001
2029:-1.8091288201763939e-001
2030:-1.6365680616586434e-001
2031:-1.5046184457416989e-001
2032:-1.3362651888951338e-001
2033:-1.1872347980257197e-001
2034:-1.0046452282968758e-001
2035:-8.7409356017072545e-002
2036:-1.3766690451944530e-001
2037:-1.2340435482267043e-001
2038:-1.0588135271480503e-001
2039:-9.3258479705880096e-002
2040:-1.4154354099128860e-001
2041:-1.2814143484985299e-001
2042:-1.1154667879125246e-001
2043:-9.9459698865156737e-002
2044:-1.4348428799404525e-001
2045:-1.3074840545924155e-001
2046:-1.1484287313402228e-001
2047:-1.0316081099443436e-001
2048:-8.0796195907521587e-002
2049:-6.9059599621031795e-002
2050:-5.5011337182971319e-002
2051:-4.5156953290312274e-002
2052:-8.6812552275270918e-002
2053:-7.5273033308207393e-002
2054:-6.1310403841980887e-002
2055:-5.1441908795306079e-002
2056:-9.3231107199149968e-002
2057:-8.2006575690962161e-002
2058:-6.8312947661279516e-002
2059:-5.8571793594724912e-002
2060:-9.7110500380077472e-002
2061:-8.6184695316926754e-002
2062:-7.2810970839228856e-002
2063:-6.3255721405866910e-002
2064:-4.0215068888685125e-002
2065:-3.1559265341930445e-002
2066:-2.1469043703214376e-002
2067:-1.4640184767051307e-002
2068:-4.6480599223339754e-002
2069:-3.7787189537995605e-002
2070:-2.7620453023252254e-002
2071:-2.0686112766007229e-002
2072:-5.3658714431252544e-002
2073:-4.5011718101581187e-002
2074:-3.4807467022366631e-002
2075:-2.7760912756969496e-002
2076:-5.8418159693651238e-002
2077:-4.9855618042907050e-002
2078:-3.9660649917405449e-002
2079:-3.2556953951268008e-002
2080:-1.1313957262881046e-002
2081:-5.6040138290513620e-003
2082:8.4464052072439895e-004
2083:5.0492132748575372e-003
2084:-1.7279935735603970e-002
2085:-1.1384707384452528e-002
2086:-4.6495468791250844e-003
2087:-2.1126172714602291e-004
2088:-2.4264804726152348e-002
2089:-1.8179039606277796e-002
2090:-1.1170155599972365e-002
2091:-6.5123281940562888e-003
2092:-2.9013038791609387e-002
2093:-2.2833374421461300e-002
2094:-1.5693111538912407e-002
2095:-1.0922185211982962e-002
2096:7.0365815356369082e-003
2097:1.0290649651207417e-002
2098:1.3617463247682248e-002
2099:1.5476897764052014e-002
2100:1.8995467609405022e-003
2101:5.3800472632079110e-003
2102:9.0040919456976284e-003
2103:1.1103841321348198e-002
2104:-4.2831831828203746e-003
2105:-5.6627274129937664e-004
2106:3.4010521168024469e-003
2107:5.7942155786017725e-003
2108:-8.6261311642274567e-003
2109:-4.7611746113503254e-003
2110:-5.6065803264476819e-004
2111:2.0363306837875273e-003
2112:1.6229114283591830e-002
2113:1.7231541894495314e-002
2114:1.7756819319148229e-002
2115:1.7571400983028222e-002
2116:1.1991782948898853e-002
2117:1.3262616597113579e-002
2118:1.4158459921844255e-002
2119:1.4267081590582863e-002
2120:6.8496510696035061e-003
2121:8.4438819022685050e-003
2122:9.7758915613583002e-003
2123:1.0228742736654082e-002
2124:3.2070844711902164e-003
2125:5.0206175170452189e-003
2126:6.6470530389241694e-003
2127:7.3360308290462131e-003
2128:1.7268269740478258e-002
2129:1.6330512152138717e-002
2130:1.4395622774188738e-002
2131:1.2376713943507700e-002
2132:1.4123008957619285e-002
2133:1.3497041487445849e-002
2134:1.2004225680877313e-002
2135:1.0357863337934859e-002
2136:1.0272260146210584e-002
2137:1.0023080993381828e-002
2138:9.0781245874015596e-003
2139:7.8986637537414115e-003
2140:7.5109308647489433e-003
2141:7.5303119747558095e-003
2142:6.9803841956264621e-003
2143:6.1371621997685010e-003
2144:1.1116515953054806e-002
2145:8.4617989217397934e-003
2146:4.4553710007831831e-003
2147:9.8272748734892237e-004
2148:9.3106533424924202e-003
2149:7.0930122261518959e-003
2150:3.7316131619849965e-003
2151:8.1024227720836615e-004
2152:7.1183136249049258e-003
2153:5.4408761538179105e-003
2154:2.8663302130056702e-003
2155:6.1440060310546983e-004
2156:5.5477875067846310e-003
2157:4.2545562815750103e-003
2158:2.2388682929516544e-003
2159:4.6515304666876862e-004
2160:-6.3627574568961599e-003
2161:-4.3935486013130867e-002
2162:-8.9861097289314198e-002
2163:-1.2160701137203488e-001
2164:-3.2979329379455840e-003
2165:-3.3373512122508601e-002
2166:-6.9986748718538674e-002
2167:-9.6653370628875107e-002
2168:-3.9365679560799541e-003
2169:-2.7413299705361611e-002
2170:-5.6596223464875306e-002
2171:-7.9263028585190756e-002
2172:-6.0199344372100132e-003
2173:-2.7928209376181963e-002
2174:-5.5739027414510818e-002
2175:-7.7385409527091872e-002
2176:-1.3696411233042685e-001
2177:-1.6263426418911275e-001
2178:-1.9115429911920498e-001
2179:-2.1033604209134679e-001
2180:-1.1057412328010946e-001
2181:-1.3642058788756348e-001
2182:-1.6857348917587237e-001
2183:-1.9101551730065150e-001
2184:-9.1880281203847045e-002
2185:-1.1661385129755461e-001
2186:-1.4877070481974511e-001
2187:-1.7131217695263645e-001
2188:-8.9301943380672211e-002
2189:-1.1204028448581482e-001
2190:-1.4080358664997031e-001
2191:-1.6070773453470660e-001
2192:-2.1989277898796603e-001
2193:-2.3573580913143147e-001
2194:-2.5165336166998709e-001
2195:-2.5980402165691818e-001
2196:-2.0183733326282866e-001
2197:-2.1886276820899084e-001
2198:-2.3497933271371860e-001
2199:-2.4316326463714999e-001
2200:-1.8194535474890955e-001
2201:-1.9855814217444742e-001
2202:-2.1457305569697555e-001
2203:-2.2341630174620303e-001
2204:-1.7011941089477572e-001
2205:-1.8531353635632627e-001
2206:-2.0096439415848569e-001
2207:-2.1037460085472401e-001
2208:-2.6264964461251328e-001
2209:-2.6616962149146978e-001
2210:-2.6753949876461619e-001
2211:-2.6623747920367219e-001
2212:-2.4624735742048259e-001
2213:-2.5059902306812776e-001
2214:-2.5350870150998794e-001
2215:-2.5349613817124067e-001
2216:-2.2719439053265522e-001
2217:-2.3286102052122831e-001
2218:-2.3728063432645397e-001
2219:-2.3818922761622319e-001
2220:-2.1463817683084149e-001
2221:-2.2101298170080588e-001
2222:-2.2598448421878242e-001
2223:-2.2714984081605610e-001
2224:-2.6473484852468770e-001
2225:-2.6027487922255593e-001
2226:-2.5140660041113100e-001
2227:-2.4246024974821928e-001
2228:-2.5265107541262904e-001
2229:-2.4939000190736191e-001
2230:-2.4209328078697911e-001
2231:-2.3441509336653280e-001
2232:-2.3774842122373505e-001
2233:-2.3542934557125414e-001
2234:-2.2977605349158720e-001
2235:-2.2365598324086577e-001
2236:-2.2683693085409073e-001
2237:-2.2500415007170838e-001
2238:-2.2042520042883151e-001
2239:-2.1537840171100064e-001
2240:-2.3702492817352297e-001
2241:-2.2629355909903756e-001
2242:-2.1142316024418076e-001
2243:-1.9939187545282142e-001
2244:-2.2968874962845925e-001
2245:-2.2024123102849760e-001
2246:-2.0692812886661552e-001
2247:-1.9599875486282903e-001
2248:-2.1984528698663755e-001
2249:-2.1201209733431667e-001
2250:-2.0056604969211139e-001
2251:-1.9090156874107544e-001
2252:-2.1219251419377677e-001
2253:-2.0544773818876871e-001
2254:-1.9525233625166957e-001
2255:-1.8644436301018774e-001
2256:-1.9277662835588133e-001
2257:-1.8020928496908298e-001
2258:-1.6364976952632948e-001
2259:-1.5092134079696509e-001
2260:-1.8993921515327489e-001
2261:-1.7837608667582944e-001
2262:-1.6303404263664334e-001
2263:-1.5114744652905987e-001
2264:-1.8546620124802579e-001
2265:-1.7504780304972670e-001
2266:-1.6113685390878255e-001
2267:-1.5027702878041047e-001
2268:-1.8143950656420604e-001
2269:-1.7181741424462008e-001
2270:-1.5891455854900094e-001
2271:-1.4878988098027038e-001
2272:-1.4416479811896085e-001
2273:-1.3178315144433417e-001
2274:-1.1623961784228397e-001
2275:-1.0477695858031161e-001
2276:-1.4479959656229158e-001
2277:-1.3308483092028145e-001
2278:-1.1824203731725456e-001
2279:-1.0721610737440838e-001
2280:-1.4444278905653288e-001
2281:-1.3359183123945592e-001
2282:-1.1969637254894522e-001
2283:-1.0928062621586829e-001
2284:-1.4332897060606919e-001
2285:-1.3312410604515859e-001
2286:-1.1996553498182287e-001
2287:-1.1003727494963550e-001
2288:-9.8829402976094841e-002
2289:-8.8085539135797239e-002
2290:-7.4917569607883913e-002
2291:-6.5483768619249219e-002
2292:-1.0147549555304654e-001
2293:-9.1091236661477615e-002
2294:-7.8320527706059628e-002
2295:-6.9118740511184384e-002
2296:-1.0383103020909003e-001
2297:-9.3938662051798599e-002
2298:-8.1696154452953321e-002
2299:-7.2804265816537428e-002
2300:-1.0482109610682519e-001
2301:-9.5316184783568042e-002
2302:-8.3485199191740092e-002
2303:-7.4841922388420010e-002
2304:-6.0694261543709431e-002
2305:-5.2186876216018037e-002
2306:-4.2008629401393952e-002
2307:-3.4888352626202337e-002
2308:-6.4422171398189926e-002
2309:-5.6035014933653669e-002
2310:-4.5929051406940528e-002
2311:-3.8818444087685512e-002
2312:-6.8237758661017431e-002
2313:-6.0046095835076696e-002
2314:-5.0115839712249206e-002
2315:-4.3090423820889963e-002
2316:-7.0386630567953898e-002
2317:-6.2379356915973648e-002
2318:-5.2643183651956423e-002
2319:-4.5729180864101812e-002
2320:-3.1329600823501051e-002
2321:-2.5121801968529943e-002
2322:-1.7938608923534487e-002
2323:-1.3123068865211161e-002
2324:-3.5254764404816279e-002
2325:-2.9028190329896630e-002
2326:-2.1792972970281422e-002
2327:-1.6907065701642382e-002
2328:-3.9557811907903341e-002
2329:-3.3361043161113331e-002
2330:-2.6104971451199884e-002
2331:-2.1154433699819241e-002
2332:-4.2241922733997246e-002
2333:-3.6099784238134328e-002
2334:-2.8859728143596722e-002
2335:-2.3884124576462110e-002
2336:-1.0796901261302061e-002
2337:-6.8612806423508721e-003
2338:-2.5464830045108244e-003
2339:1.4949626505087493e-004
2340:-1.4530008281418507e-002
2341:-1.0477533488755937e-002
2342:-5.9778098929215906e-003
2343:-3.1230061847770472e-003
2344:-1.8725614024859377e-002
2345:-1.4557537635812266e-002
2346:-9.8775808528574829e-003
2347:-6.8656955595082347e-003
2348:-2.1430827265742265e-002
2349:-1.7207485209768433e-002
2350:-1.2436859625080406e-002
2351:-9.3389721063956762e-003
2352:1.3752431227198963e-003
2353:3.2931752964416986e-003
2354:5.0616691492650686e-003
2355:5.8676569141394522e-003
2356:-1.8088687513957591e-003
2357:2.8188239468933900e-004
2358:2.2951058369211344e-003
2359:3.3084136633953183e-003
2360:-5.4618629013621061e-003
2361:-3.1857147449191846e-003
2362:-8.9367556536073070e-004
2363:3.6356502096108567e-004
2364:-7.8825270071669409e-003
2365:-5.4904788141284765e-003
2366:-3.0148645264754664e-003
2367:-1.5941514643585245e-003
2368:6.1090852271670788e-003
2369:6.2651317082556279e-003
2370:5.9157539727519365e-003
2371:5.2417560248571582e-003
2372:3.6689218132886880e-003
2373:4.0670467864730980e-003
2374:4.0683656564846618e-003
2375:3.6879984146374798e-003
2376:8.6518093063258814e-004
2377:1.5461554927030062e-003
2378:1.9514689525983240e-003
2379:1.9077096518849061e-003
2380:-9.9814055242492938e-004
2381:-1.2964318864517877e-004
2382:5.4239891292794714e-004
2383:7.2212584874170854e-004
2384:4.7477640137162987e-003
2385:3.6466878177452075e-003
2386:1.9125078038029757e-003
2387:3.8212320980006621e-004
2388:3.3592099944050389e-003
2389:2.5939056857811928e-003
2390:1.3563964913724802e-003
2391:2.5726734710089164e-004
2392:1.7686489224491898e-003
2393:1.3926326670427513e-003
2394:7.3459224905637346e-004
2395:1.3770293263128762e-004
2396:7.0998497424166844e-004
2397:5.9475509850835879e-004
2398:3.2216793924377140e-004
2399:5.4670470698376242e-005
2400:-7.0600790578176711e-003
2401:-2.9507171928003763e-002
2402:-5.8127850581310050e-002
2403:-7.9881742051117352e-002
2404:-7.7647337197778096e-003
2405:-3.0848677773576014e-002
2406:-6.0390919555400234e-002
2407:-8.2077681429777144e-002
2408:-6.8755607245123140e-003
2409:-2.9254307645976932e-002
2410:-5.7927264030455658e-002
2411:-7.8610682858696795e-002
2412:-5.5475698992538030e-003
2413:-2.6069768520083386e-002
2414:-5.2349302867218873e-002
2415:-7.1486948719950774e-002
2416:-9.1485469475753811e-002
2417:-1.1278985883321251e-001
2418:-1.3877832173813739e-001
2419:-1.5658378798988004e-001
2420:-9.3108895228913871e-002
2421:-1.1219123037119981e-001
2422:-1.3414004540688559e-001
2423:-1.4901749026256078e-001
2424:-8.8874365900231789e-002
2425:-1.0609674143332620e-001
2426:-1.2537127549783508e-001
2427:-1.3853436339030997e-001
2428:-8.1114016904152333e-002
2429:-9.7588757994081315e-002
2430:-1.1652152834782474e-001
2431:-1.2967096779877471e-001
2432:-1.6511172229630131e-001
2433:-1.7932610161687285e-001
2434:-1.9468587315887492e-001
2435:-2.0428784697231173e-001
2436:-1.5635939680667496e-001
2437:-1.6921560106764569e-001
2438:-1.8397784453665930e-001
2439:-1.9353480514201757e-001
2440:-1.4522592475457388e-001
2441:-1.5718942718938209e-001
2442:-1.7112923964757584e-001
2443:-1.8008832591619428e-001
2444:-1.3636028076599915e-001
2445:-1.4809493573549587e-001
2446:-1.6140030582331050e-001
2447:-1.6975057104501781e-001
2448:-2.0869020898704671e-001
2449:-2.1520176620130410e-001
2450:-2.2020870199093914e-001
2451:-2.2140920000870662e-001
2452:-1.9791477824431489e-001
2453:-2.0433728314933228e-001
2454:-2.0931246876944978e-001
2455:-2.1071003811272715e-001
2456:-1.8411162666390199e-001
2457:-1.9009779751273104e-001
2458:-1.9508091682525952e-001
2459:-1.9697179625969016e-001
2460:-1.7346158290097549e-001
2461:-1.7916590326040382e-001
2462:-1.8433699028527881e-001
2463:-1.8670986224760341e-001
2464:-2.2115605328054933e-001
2465:-2.1957649779060379e-001
2466:-2.1554090630873951e-001
2467:-2.1100587990595543e-001
2468:-2.1068269979448598e-001
2469:-2.0968557641239186e-001
2470:-2.0660522406790285e-001
2471:-2.0286215373975555e-001
2472:-1.9737696751075345e-001
2473:-1.9721919036866725e-001
2474:-1.9519724990946494e-001
2475:-1.9220966839494694e-001
2476:-1.8745342831938894e-001
2477:-1.8786295978008108e-001
2478:-1.8645707184384744e-001
2479:-1.8389411194100203e-001
2480:-2.0810359772659748e-001
2481:-2.0185513845507042e-001
2482:-1.9224808807509697e-001
2483:-1.8386440364190640e-001
2484:-2.0037668776991835e-001
2485:-1.9489450631354110e-001
2486:-1.8627958548261378e-001
2487:-1.7867014518742916e-001
2488:-1.9010486885881592e-001
2489:-1.8539645835075047e-001
2490:-1.7791982775362611e-001
2491:-1.7127219233094162e-001
2492:-1.8201724293465152e-001
2493:-1.7781839156632301e-001
2494:-1.7114539202225071e-001
2495:-1.6518612653585976e-001
2496:-1.7908171208768286e-001
2497:-1.6986998212164597e-001
2498:-1.5748265921232318e-001
2499:-1.4773180157369009e-001
2500:-1.7430841501843988e-001
2501:-1.6586178775213145e-001
2502:-1.5440865050613989e-001
2503:-1.4531890565205563e-001
2504:-1.6744669436336498e-001
2505:-1.5995670406743109e-001
2506:-1.4963974053150270e-001
2507:-1.4133908703187695e-001
2508:-1.6173958907650185e-001
2509:-1.5491849495437038e-001
2510:-1.4539226993884605e-001
2511:-1.3764690707508614e-001
2512:-1.4246060608545433e-001
2513:-1.3258999586184311e-001
2514:-1.1982221451239317e-001
2515:-1.1015674102227384e-001
2516:-1.4037934461279605e-001
2517:-1.3109915926200219e-001
2518:-1.1903572483659093e-001
2519:-1.0985467944265050e-001
2520:-1.3679353420901427e-001
2521:-1.2822442401193782e-001
2522:-1.1703003742790363e-001
2523:-1.0846301111883112e-001
2524:-1.3338345743441124e-001
2525:-1.2532917992201756e-001
2526:-1.1477347841707296e-001
2527:-1.0666466382035132e-001
2528:-1.0506678692332747e-001
2529:-9.5770193149976049e-002
2530:-8.4161252321878488e-002
2531:-7.5656352141245012e-002
2532:-1.0500131260912758e-001
2533:-9.6100762924707206e-002
2534:-8.4923787162461392e-002
2535:-7.6694965335533105e-002
2536:-1.0391568168450734e-001
2537:-9.5538883793217497e-002
2538:-8.4952181360443149e-002
2539:-7.7111953350425450e-002
2540:-1.0234836940441101e-001
2541:-9.4374887918371758e-002
2542:-8.4255885676232836e-002
2543:-7.6730836377400080e-002
2544:-7.1265782707899406e-002
2545:-6.3369951192995988e-002
2546:-5.3756296367442537e-002
2547:-4.6914502858124138e-002
2548:-7.2435450673660848e-002
2549:-6.4764093295379063e-002
2550:-5.5396191320788837e-002
2551:-4.8700582667401911e-002
2552:-7.3039362521592127e-002
2553:-6.5685647649094847e-002
2554:-5.6664831039405249e-002
2555:-5.0180767354605735e-002
2556:-7.2811301584875046e-002
2557:-6.5717001941705044e-002
2558:-5.6981866856257869e-002
2559:-5.0677981114730417e-002
2560:-4.3456730825654502e-002
2561:-3.7352112189907478e-002
2562:-3.0131224771160727e-002
2563:-2.5152364971176865e-002
2564:-4.5304069760217426e-002
2565:-3.9285474265316200e-002
2566:-3.2128365648719646e-002
2567:-2.7168384855143796e-002
2568:-4.6877248318350190e-002
2569:-4.1003951439931303e-002
2570:-3.3985181384086099e-002
2571:-2.9096033283602076e-002
2572:-4.7457605200701004e-002
2573:-4.1722932841536622e-002
2574:-3.4851287782612810e-002
2575:-3.0048149602642158e-002
2576:-2.2692660662383995e-002
2577:-1.8453058155803278e-002
2578:-1.3650703984438154e-002
2579:-1.0517679212339225e-002
2580:-2.4710436957555919e-002
2581:-2.0462714945685839e-002
2582:-1.5623915222420008e-002
2583:-1.2439355706286818e-002
2584:-2.6664550732079816e-002
2585:-2.2445436824005259e-002
2586:-1.7601111555425063e-002
2587:-1.4378153654811932e-002
2588:-2.7652686404483456e-002
2589:-2.3481749732856567e-002
2590:-1.8663901186981080e-002
2591:-1.5435115402746993e-002
2592:-9.0378015584319203e-003
2593:-6.5919950487242614e-003
2594:-4.0292494986034488e-003
2595:-2.5308892297834116e-003
2596:-1.0922620998606835e-002
2597:-8.3917505660066390e-003
2598:-5.6905936661273615e-003
2599:-4.0681936823116684e-003
2600:-1.2828810670268675e-002
2601:-1.0220387871460382e-002
2602:-7.3888721547218884e-003
2603:-5.6456527362177536e-003
2604:-1.3874238199191532e-002
2605:-1.1233938101217126e-002
2606:-8.3409469456756560e-003
2607:-6.5345327204000660e-003
2608:-1.8903494952295689e-003
2609:-9.3345797913303079e-004
2610:-1.3489223135777106e-004
2611:1.5212234752979810e-004
2612:-3.3561065304614861e-003
2613:-2.2549115036125575e-003
2614:-1.2458838580926659e-003
2615:-7.7830426924203238e-004
2616:-4.8621291859889549e-003
2617:-3.6124865715052869e-003
2618:-2.3806615775209899e-003
2619:-1.7194674813946400e-003
2620:-5.7113823986509491e-003
2621:-4.3763248032493932e-003
2622:-3.0129422150692508e-003
2623:-2.2369282515951189e-003
2624:2.0144522460281458e-004
2625:2.1172249204122552e-004
2626:1.2176461600079853e-004
2627:7.3552864198317064e-006
2628:-6.2527461056074128e-004
2629:-4.0661168720260176e-004
2630:-1.9992939217196748e-004
2631:-7.0013114070716464e-005
2632:-1.4553229450592696e-003
2633:-1.0191567263280485e-003
2634:-5.1341602215969231e-004
2635:-1.4364543755972863e-004
2636:-1.9074043732810750e-003
2637:-1.3469606204534362e-003
2638:-6.7678685427867414e-004
2639:-1.7886463761867193e-004
2640:-4.8512650879606461e-003
2641:-2.3950740937871404e-002
2642:-4.8392043358481983e-002
2643:-6.6447429593883708e-002
2644:-4.0104844846443428e-003
2645:-2.0901327320870609e-002
2646:-4.2419585881504386e-002
2647:-5.8649583364126366e-002
2648:-3.6261720451916568e-003
2649:-1.8668645132858215e-002
2650:-3.7668185548203323e-002
2651:-5.2098054429620587e-002
2652:-3.6315608013987206e-003
2653:-1.7916834830240785e-002
2654:-3.5912204673072476e-002
2655:-4.9438923129770100e-002
2656:-7.5710664374013387e-002
2657:-9.1961697396612932e-002
2658:-1.1115804365280567e-001
2659:-1.2461056562259468e-001
2660:-6.7227609575748651e-002
2661:-8.2847670634378909e-002
2662:-1.0201190434719833e-001
2663:-1.1557595055514232e-001
2664:-5.9834098564498436e-002
2665:-7.4223704504141688e-002
2666:-9.2236432315949440e-002
2667:-1.0503037182567300e-001
2668:-5.6613392757874220e-002
2669:-6.9854688133980603e-002
2670:-8.6316373414420139e-002
2671:-9.7990380164127422e-002
2672:-1.3139609797345170e-001
2673:-1.4308582051518337e-001
2674:-1.5606079628294220e-001
2675:-1.6411739814181509e-001
2676:-1.2232763149673208e-001
2677:-1.3371689285191388e-001
2678:-1.4609762588740619e-001
2679:-1.5378457708472584e-001
2680:-1.1134776422884129e-001
2681:-1.2197211580657306e-001
2682:-1.3360575683149931e-001
2683:-1.4102855015904789e-001
2684:-1.0377426456852624e-001
2685:-1.1363616848089025e-001
2686:-1.2469678236390540e-001
2687:-1.3194087262024534e-001
2688:-1.6771213057306064e-001
2689:-1.7336794272722872e-001
2690:-1.7873184312024221e-001
2691:-1.8136478780417914e-001
2692:-1.5728384276473109e-001
2693:-1.6295987287398347e-001
2694:-1.6861017599270667e-001
2695:-1.7154628637647348e-001
2696:-1.4451999201860294e-001
2697:-1.5024676098093637e-001
2698:-1.5600040488809497e-001
2699:-1.5899869004991590e-001
2700:-1.3540175043143696e-001
2701:-1.4103068957258272e-001
2702:-1.4659521363773612e-001
2703:-1.4944732736139055e-001
2704:-1.8225817304986380e-001
2705:-1.8290074173938578e-001
2706:-1.8174267837414407e-001
2707:-1.7937262277997126e-001
2708:-1.7259630591676572e-001
2709:-1.7351260190424928e-001
2710:-1.7273808538063498e-001
2711:-1.7074200292758701e-001
2712:-1.6006924622946883e-001
2713:-1.6111936991265052e-001
2714:-1.6074579494940375e-001
2715:-1.5924266147111285e-001
2716:-1.5045884053830383e-001
2717:-1.5153345473140406e-001
2718:-1.5143232839633944e-001
2719:-1.5028123969313684e-001
2720:-1.7761413644590790e-001
2721:-1.7368421122884756e-001
2722:-1.6742797329878403e-001
2723:-1.6181265673806086e-001
2724:-1.6922709823998186e-001
2725:-1.6580769544275831e-001
2726:-1.6027706888670321e-001
2727:-1.5522894834481085e-001
2728:-1.5805395303571632e-001
2729:-1.5525991499501693e-001
2730:-1.5053686523060453e-001
2731:-1.4608999905719910e-001
2732:-1.4931438250606094e-001
2733:-1.4692064587186557e-001
2734:-1.4269194778845082e-001
2735:-1.3861979799804791e-001
2736:-1.5854939250918260e-001
2737:-1.5205190994298487e-001
2738:-1.4291448698679421e-001
2739:-1.3545043678667329e-001
2740:-1.5226158252055261e-001
2741:-1.4630334234052580e-001
2742:-1.3784889072725898e-001
2743:-1.3090211507227595e-001
2744:-1.4343530884781563e-001
2745:-1.3808043369026271e-001
2746:-1.3044852346852737e-001
2747:-1.2415526435952930e-001
2748:-1.3616977589461510e-001
2749:-1.3123185158281245e-001
2750:-1.2419595059317975e-001
2751:-1.1838365342402128e-001
2752:-1.3133358159014363e-001
2753:-1.2354793517309060e-001
2754:-1.1332617383467010e-001
2755:-1.0545735975786087e-001
2756:-1.2706069107382736e-001
2757:-1.1977648964395718e-001
2758:-1.1017117907816473e-001
2759:-1.0274202402147103e-001
2760:-1.2066723637911074e-001
2761:-1.1402187191128685e-001
2762:-1.0519547518234064e-001
2763:-9.8321409514510349e-002
2764:-1.1515460082073091e-001
2765:-1.0897644560304923e-001
2766:-1.0072257640253865e-001
2767:-9.4262674010583386e-002
2768:-1.0126233015052294e-001
2769:-9.3503083667625608e-002
2770:-8.3636846523774025e-002
2771:-7.6284469160562640e-002
2772:-9.8768740393924526e-002
2773:-9.1405020943330501e-002
2774:-8.2013334939911670e-002
2775:-7.4991060364343207e-002
2776:-9.4629528628095302e-002
2777:-8.7774379744947881e-002
2778:-7.9005899235380844e-002
2779:-7.2426883134282194e-002
2780:-9.0784085481590462e-002
2781:-8.4318810516316053e-002
2782:-7.6035503020978362e-002
2783:-6.9806805765228713e-002
2784:-7.2449267901261466e-002
2785:-6.5498161149034936e-002
2786:-5.6922418367549202e-002
2787:-5.0721762465424834e-002
2788:-7.1319180942766042e-002
2789:-6.4648767127460566e-002
2790:-5.6391634631110542e-002
2791:-5.0401819814613738e-002
2792:-6.8977814274759602e-002
2793:-6.2696956301545426e-002
2794:-5.4893573680457247e-002
2795:-4.9211679636479898e-002
2796:-6.6535673337992166e-002
2797:-6.0570436635708914e-002
2798:-5.3142573455384111e-002
2799:-4.7720503999346062e-002
2800:-4.7550475903632747e-002
2801:-4.1899792179401381e-002
2802:-3.5120475796882197e-002
2803:-3.0373145564243482e-002
2804:-4.7332217601221263e-002
2805:-4.1856148352681095e-002
2806:-3.5270712788643931e-002
2807:-3.0643297266448006e-002
2808:-4.6292743666811520e-002
2809:-4.1076436340830441e-002
2810:-3.4783415935207715e-002
2811:-3.0342748656340696e-002
2812:-4.4930069160410931e-002
2813:-3.9936448613009580e-002
2814:-3.3897864062194936e-002
2815:-2.9624548892950100e-002
2816:-2.8001601459347700e-002
2817:-2.3864621325928190e-002
2818:-1.9071609084831777e-002
2819:-1.5848727485690453e-002
2820:-2.8324780123928864e-002
2821:-2.4268477929607041e-002
2822:-1.9546948815471400e-002
2823:-1.6355525913638719e-002
2824:-2.8110211527874393e-002
2825:-2.4193771994501019e-002
2826:-1.9614835593964472e-002
2827:-1.6503413406723417e-002
2828:-2.7471585171187411e-002
2829:-2.3689690695410003e-002
2830:-1.9257360198701827e-002
2831:-1.6235531707007814e-002
2832:-1.4287005459365589e-002
2833:-1.1640062646183644e-002
2834:-8.7278038182876903e-003
2835:-6.8974539890132094e-003
2836:-1.4803220745549798e-002
2837:-1.2163166963864835e-002
2838:-9.2377843197531395e-003
2839:-7.3790380971416585e-003
2840:-1.4983849080086879e-002
2841:-1.2388739300602665e-002
2842:-9.4896383246477201e-003
2843:-7.6258827089127259e-003
2844:-1.4755533446924339e-002
2845:-1.2220621137018061e-002
2846:-9.3736968567553914e-003
2847:-7.5305748608213456e-003
2848:-6.0580412933401023e-003
2849:-4.6869277117632738e-003
2850:-3.2673129788872426e-003
2851:-2.4424961018569401e-003
2852:-6.5177960227519992e-003
2853:-5.0972441164506554e-003
2854:-3.5997958243799127e-003
2855:-2.7073652791947313e-003
2856:-6.7533859385375764e-003
2857:-5.3037595927840787e-003
2858:-3.7567702653681415e-003
2859:-2.8196454152760379e-003
2860:-6.6628447665100570e-003
2861:-5.2176128355022845e-003
2862:-3.6700014615037922e-003
2863:-2.7286001383593534e-003
2864:-2.0855146117340797e-003
2865:-1.4740408257508113e-003
2866:-7.3830619078737048e-004
2867:-1.9039118197765551e-004
2868:-2.3124979685679487e-003
2869:-1.6321272974722334e-003
2870:-8.1196223703426955e-004
2871:-2.0359709490042183e-004
2872:-2.3996526626101637e-003
2873:-1.6782558222599182e-003
2874:-8.2092078912340502e-004
2875:-1.9913014094074714e-004
2876:-2.3057585879685274e-003
2877:-1.5871089813248838e-003
2878:-7.5509650747930133e-004
2879:-1.7317156897524424e-004
2880:-3.6599886464818675e-003
2881:-1.7704908149937668e-002
2882:-3.5431567129518809e-002
2883:-4.8634885046508793e-002
2884:-3.5942873767589537e-003
2885:-1.6942446853814703e-002
2886:-3.3914556759798126e-002
2887:-4.6446133114635642e-002
2888:-3.3024999326749767e-003
2889:-1.5290431271148200e-002
2890:-3.0705165966505358e-002
2891:-4.2125538251588331e-002
2892:-2.9693080595082312e-003
2893:-1.3700247823515829e-002
2894:-2.7548427813357576e-002
2895:-3.7907307810349275e-002
2896:-5.5550343932134087e-002
2897:-6.8149695471359087e-002
2898:-8.3632735346230849e-002
2899:-9.4596618052774847e-002
2900:-5.2905594296022804e-002
2901:-6.4439844074395028e-002
2902:-7.8355590269686901e-002
2903:-8.8198626111847908e-002
2904:-4.7993016324088443e-002
2905:-5.8354597043842743e-002
2906:-7.0731381711021044e-002
2907:-7.9502769797294745e-002
2908:-4.3281150838186393e-002
2909:-5.2822938902338551e-002
2910:-6.4286515888933402e-002
2911:-7.2437196237401288e-002
2912:-1.0006272966677275e-001
2913:-1.0949495206084796e-001
2914:-1.2024128638686182e-001
2915:-1.2735303051244767e-001
2916:-9.3161752264352179e-002
2917:-1.0186641644516012e-001
2918:-1.1196568980864356e-001
2919:-1.1869900757653321e-001
2920:-8.3965096518925406e-002
2921:-9.1834114740364403e-002
2922:-1.0098200103107040e-001
2923:-1.0704101375873383e-001
2924:-7.6582373630962125e-002
2925:-8.3840011400108341e-002
2926:-9.2188578069847912e-002
2927:-9.7668747940643244e-002
2928:-1.3075515764522291e-001
2929:-1.3624193389708075e-001
2930:-1.4160266725860662e-001
2931:-1.4433364048179156e-001
2932:-1.2190684540284560e-001
2933:-1.2703092699171134e-001
2934:-1.3199548507418954e-001
2935:-1.3454878050479813e-001
2936:-1.0989876643116410e-001
2937:-1.1447084680953314e-001
2938:-1.1896587907089673e-001
2939:-1.2137461391586042e-001
2940:-1.0024480956616537e-001
2941:-1.0441614716056770e-001
2942:-1.0862036751006694e-001
2943:-1.1095265859250066e-001
2944:-1.4530914304148956e-001
2945:-1.4639770302265370e-001
2946:-1.4643903467112154e-001
2947:-1.4545526170369880e-001
2948:-1.3549343797569210e-001
2949:-1.3663229110059386e-001
2950:-1.3689254528670536e-001
2951:-1.3614344143648971e-001
2952:-1.2232065832835531e-001
2953:-1.2352406241956640e-001
2954:-1.2395142696237121e-001
2955:-1.2337500406299001e-001
2956:-1.1189683039062459e-001
2957:-1.1310262388590477e-001
2958:-1.1355508890170256e-001
2959:-1.1303635719236522e-001
2960:-1.4458581979812385e-001
2961:-1.4236396807612867e-001
2962:-1.3835220152784536e-001
2963:-1.3445762445807305e-001
2964:-1.3540749892695786e-001
2965:-1.3344380246004553e-001
2966:-1.2980623669813149e-001
2967:-1.2624778248818164e-001
2968:-1.2274345051066955e-001
2969:-1.2103453838487992e-001
2970:-1.1785303847278726e-001
2971:-1.1473882281169322e-001
2972:-1.1245732921980461e-001
2973:-1.1091806884659239e-001
2974:-1.0808065671275183e-001
2975:-1.0530345230717109e-001
2976:-1.3211146091286502e-001
2977:-1.2738951401774243e-001
2978:-1.2066398001366975e-001
2979:-1.1509934483479904e-001
2980:-1.2410352443486639e-001
2981:-1.1978826161309820e-001
2982:-1.1362622883183213e-001
2983:-1.0850199947160467e-001
2984:-1.1286254900677781e-001
2985:-1.0906637007150757e-001
2986:-1.0359699736496929e-001
2987:-9.9008232570140853e-002
2988:-1.0362496676266721e-001
2989:-1.0020305475799529e-001
2990:-9.5228562615938941e-002
2991:-9.1029751354767027e-002
2992:-1.1200178325502379e-001
2993:-1.0606168428684269e-001
2994:-9.8103521825995105e-002
2995:-9.1861898056949692e-002
2996:-1.0563717201504350e-001
2997:-1.0012748096845574e-001
2998:-9.2721212201086367e-002
2999:-8.6897577798920309e-002
3000:-9.6428863161492476e-002
3001:-9.1464100432857923e-002
3002:-8.4784450100530581e-002
3003:-7.9525254711929227e-002
3004:-8.8664042492571080e-002
3005:-8.4117437235254888e-002
3006:-7.8008412210085004e-002
3007:-7.3196525382004857e-002
3008:-8.8497541601940719e-002
3009:-8.2242227932884979e-002
3010:-7.4221773960132589e-002
3011:-6.8183930331410944e-002
3012:-8.3754566265757682e-002
3013:-7.7905601644175232e-002
3014:-7.0392941045220134e-002
3015:-6.4724028464617736e-002
3016:-7.6683671968005684e-002
3017:-7.1387731607602353e-002
3018:-6.4566973427085367e-002
3019:-5.9403518815336030e-002
3020:-7.0593638404074732e-002
3021:-6.5736399266349374e-002
3022:-5.9468168071820364e-002
3023:-5.4712824511383679e-002
3024:-6.5010125832664661e-002
3025:-5.9218965572972911e-002
3026:-5.2000759682303728e-002
3027:-4.6725340109515318e-002
3028:-6.1738819913205678e-002
3029:-5.6287392703194501e-002
3030:-4.9483158518019495e-002
3031:-4.4500873376673737e-002
3032:-5.6678403451172976e-002
3033:-5.1699710599325564e-002
3034:-4.5479485388465711e-002
3035:-4.0916645723274560e-002
3036:-5.2199758405748663e-002
3037:-4.7609162058977500e-002
3038:-4.1872996988076366e-002
3039:-3.7661114806661969e-002
3040:-4.4007874467821013e-002
3041:-3.9141262165838381e-002
3042:-3.3249366395027562e-002
3043:-2.9074323410899390e-002
3044:-4.1930516891993515e-002
3045:-3.7322035909493109e-002
3046:-3.1732166767909235e-002
3047:-2.7762426653400472e-002
3048:-3.8558873001381201e-002
3049:-3.4327240272528196e-002
3050:-2.9185286014887485e-002
3051:-2.5525021656514851e-002
3052:-3.5482363143477136e-002
3053:-3.1570571546863303e-002
3054:-2.6813318316548568e-002
3055:-2.3422027021519645e-002
3056:-2.6968924978870424e-002
3057:-2.3268739333478825e-002
3058:-1.8927636126642999e-002
3059:-1.5963128910265207e-002
3060:-2.5757415073394539e-002
3061:-2.2230690287356261e-002
3062:-1.8085633054101199e-002
3063:-1.5246851545535428e-002
3064:-2.3672952576272183e-002
3065:-2.0412146489744935e-002
3066:-1.6571798184423732e-002
3067:-1.3933055878944060e-002
3068:-2.1703890718542222e-002
3069:-1.8677118184959821e-002
3070:-1.5107888993237895e-002
3071:-1.2650311124819975e-002
3072:-1.4509021282424449e-002
3073:-1.2014891345679178e-002
3074:-9.2069478123204176e-003
3075:-7.3835962343452429e-003
3076:-1.3850786944374967e-002
3077:-1.1451196916091668e-002
3078:-8.7402830020008645e-003
3079:-6.9723805690773419e-003
3080:-1.2631603445069688e-002
3081:-1.0391000739837933e-002
3082:-7.8530122169059077e-003
3083:-6.1921633078675462e-003
3084:-1.1436019075241902e-002
3085:-9.3444748474843502e-003
3086:-6.9734240229738812e-003
3087:-5.4196400568174525e-003
3088:-6.5232542312868898e-003
3089:-5.0897096143790689e-003
3090:-3.5542238808226761e-003
3091:-2.6201111418813440e-003
3092:-6.1355957301788798e-003
3093:-4.7415019690769614e-003
3094:-3.2503850467536679e-003
3095:-2.3457198944837501e-003
3096:-5.4040841590924545e-003
3097:-4.0934030399549003e-003
3098:-2.6986544610742300e-003
3099:-1.8598649191780296e-003
3100:-4.6815689442269237e-003
3101:-3.4569909494484357e-003
3102:-2.1621315273217746e-003
3103:-1.3918727907656933e-003
3104:-2.2008769830740385e-003
3105:-1.4947801496420761e-003
3106:-6.9456610943639211e-004
3107:-1.5146924541431376e-004
3108:-1.9415629057123068e-003
3109:-1.2770162350098397e-003
3110:-5.6556373491880110e-004
3111:-1.2227580094829275e-004
3112:-1.4895784460103735e-003
3113:-9.0826380768238601e-004
3114:-3.5633278816951165e-004
3115:-8.1770822836128076e-005
3116:-1.0566113317832877e-003
3117:-5.5581555578495883e-004
3118:-1.4797338519336934e-004
3119:-1.9855497696497711e-005
3120:-2.7687629795478579e-003
3121:-1.2802542148820414e-002
3122:-2.5720002433581003e-002
3123:-3.5438548575963923e-002
3124:-2.3873179007899066e-003
3125:-1.1230761498067326e-002
3126:-2.2512983516747964e-002
3127:-3.1038669501403528e-002
3128:-1.9032634265963380e-003
3129:-9.3231831039889083e-003
3130:-1.8664369143937497e-002
3131:-2.5686560749932495e-002
3132:-1.5596439632066220e-003
3133:-7.8641197235930042e-003
3134:-1.5786762553030551e-002
3135:-2.1700638178079292e-002
3136:-4.0523601611452187e-002
3137:-4.9625332978094891e-002
3138:-6.0646451643383392e-002
3139:-6.8497591429137722e-002
3140:-3.5548056128612691e-002
3141:-4.3719374898873890e-002
3142:-5.3733241791109637e-002
3143:-6.0886198028257892e-002
3144:-2.9407263366043712e-002
3145:-3.6191396650306532e-002
3146:-4.4559116295468652e-002
3147:-5.0547125693816461e-002
3148:-2.4810500346579136e-002
3149:-3.0444537788912686e-002
3150:-3.7356184400539776e-002
3151:-4.2302779240539184e-002
3152:-7.2478087544886396e-002
3153:-7.9400312991207589e-002
3154:-8.7302726406728967e-002
3155:-9.2476017244791223e-002
3156:-6.4495477553387970e-002
3157:-7.0717403151328975e-002
3158:-7.7763598834216144e-002
3159:-8.2383436797320769e-002
3160:-5.3562804731268683e-002
3161:-5.8748565177248510e-002
3162:-6.4629393598637966e-002
3163:-6.8524814807644233e-002
3164:-4.4803329753963429e-002
3165:-4.9124675340811247e-002
3166:-5.4061805759703707e-002
3167:-5.7355867148811288e-002
3168:-9.4914671018298716e-002
3169:-9.8901416477402332e-002
3170:-1.0297821724659591e-001
3171:-1.0526816566762209e-001
3172:-8.4581028004915779e-002
3173:-8.8217521394609505e-002
3174:-9.1991004173998261e-002
3175:-9.4124421552252369e-002
3176:-7.0401154642996830e-002
3177:-7.3510469010661897e-002
3178:-7.6722404649276224e-002
3179:-7.8511324917636918e-002
3180:-5.8947231262679325e-002
3181:-6.1554281430390469e-002
3182:-6.4195054373579294e-002
3183:-6.5635851883823204e-002
3184:-1.0619887185444186e-001
3185:-1.0737591249232496e-001
3186:-1.0780484054743079e-001
3187:-1.0730115358445243e-001
3188:-9.4986162906885788e-002
3189:-9.6058928323920947e-002
3190:-9.6431868329656417e-002
3191:-9.5974352151344866e-002
3192:-7.9218806714280735e-002
3193:-8.0093182060403792e-002
3194:-8.0394957446905654e-002
3195:-8.0027787078387161e-002
3196:-6.6198613283243404e-002
3197:-6.6904437602754996e-002
3198:-6.7165101516474549e-002
3199:-6.6877343011673557e-002
3200:-1.0674890481491904e-001
3201:-1.0530219519968562e-001
3202:-1.0265071802278898e-001
3203:-1.0004870716129854e-001
3204:-9.5485957003532670e-002
3205:-9.4222458701934561e-002
3206:-9.1906141142236483e-002
3207:-8.9611154836652288e-002
3208:-7.9637186429078216e-002
3209:-7.8612661519345178e-002
3210:-7.6699547548954472e-002
3211:-7.4774624671318110e-002
3212:-6.6559245212608462e-002
3213:-6.5700542195382156e-002
3214:-6.4068019328051590e-002
3215:-6.2417074862611138e-002
3216:-9.8469556854356627e-002
3217:-9.5235092743918531e-002
3218:-9.0512500507240412e-002
3219:-8.6518639482481369e-002
3220:-8.8206356193493402e-002
3221:-8.5315565013029393e-002
3222:-8.1079937272577521e-002
3223:-7.7494466489882494e-002
3224:-7.3586769773923186e-002
3225:-7.1151057699842257e-002
3226:-6.7598233047369879e-002
3227:-6.4597047442804409e-002
3228:-6.1399472396469562e-002
3229:-5.9335526114168070e-002
3230:-5.6353527554730200e-002
3231:-5.3838802987875106e-002
3232:-8.4268235256604693e-002
3233:-7.9949315292362669e-002
3234:-7.4152216045506966e-002
3235:-6.9584138196062920e-002
3236:-7.5475386343686335e-002
3237:-7.1607377126375951e-002
3238:-6.6419187348055436e-002
3239:-6.2323816818134870e-002
3240:-6.2907780675613950e-002
3241:-5.9673042052270163e-002
3242:-5.5328867256840393e-002
3243:-5.1887807227830672e-002
3244:-5.2420493705787934e-002
3245:-4.9701913170739714e-002
3246:-4.6044359590785719e-002
3247:-4.3139923914297100e-002
3248:-6.7110747455425293e-002
3249:-6.2492274232118325e-002
3250:-5.6527157278222752e-002
3251:-5.1997986614323082e-002
3252:-6.0101555854833386e-002
3253:-5.5950830479460180e-002
3254:-5.0587717355448023e-002
3255:-4.6512264679329181e-002
3256:-5.0015221830681605e-002
3257:-4.6523824716023662e-002
3258:-4.2021324926700639e-002
3259:-3.8599757833741540e-002
3260:-4.1557132809720697e-002
3261:-3.8616360229013859e-002
3262:-3.4837237184960186e-002
3263:-3.1966027030951236e-002
3264:-4.9603330728671811e-002
3265:-4.5230139296393468e-002
3266:-3.9766185439217699e-002
3267:-3.5752412012780461e-002
3268:-4.4356104721932889e-002
3269:-4.0420394251574294e-002
3270:-3.5503693486785837e-002
3271:-3.1888421842404140e-002
3272:-3.6787914053032340e-002
3273:-3.3483099372248810e-002
3274:-2.9355411620954688e-002
3275:-2.6315871610840473e-002
3276:-3.0443476180301680e-002
3277:-2.7668600063714861e-002
3278:-2.4204663876681090e-002
3279:-2.1651181880726709e-002
3280:-3.3674984078165264e-002
3281:-2.9944967309183560e-002
3282:-2.5407732989643605e-002
3283:-2.2171228046080464e-002
3284:-3.0015108592323484e-002
3285:-2.6652400921569168e-002
3286:-2.2561995536230076e-002
3287:-1.9641551643898008e-002
3288:-2.4738289763371252e-002
3289:-2.1909548849205998e-002
3290:-1.8472116701226778e-002
3291:-1.6016143153038051e-002
3292:-2.0324145401345250e-002
3293:-1.7948793152444801e-002
3294:-1.5067521841663951e-002
3295:-1.3008431705938291e-002
3296:-2.0530468818416681e-002
3297:-1.7639306853612993e-002
3298:-1.4228163908434567e-002
3299:-1.1877237766062185e-002
3300:-1.8159397178417590e-002
3301:-1.5547131603782590e-002
3302:-1.2462928156660167e-002
3303:-1.0334062493252636e-002
3304:-1.4767995379507673e-002
3305:-1.2568783893670268e-002
3306:-9.9718144902475863e-003
3307:-8.1762719167042894e-003
3308:-1.1960694095585036e-002
3309:-1.0116165507465118e-002
3310:-7.9393908760137452e-003
3311:-6.4327182511105590e-003
3312:-1.0714704175145286e-002
3313:-8.7122908784707589e-003
3314:-6.4421249641908492e-003
3315:-4.9538140836650514e-003
3316:-9.2798376896322810e-003
3317:-7.4643387934972358e-003
3318:-5.4065112396086325e-003
3319:-4.0567516544565392e-003
3320:-7.2854466666402032e-003
3321:-5.7522564648244175e-003
3322:-4.0157390441140613e-003
3323:-2.8763461545929137e-003
3324:-5.6839674154873674e-003
3325:-4.3962006077663766e-003
3326:-2.9388517405338618e-003
3327:-1.9822139198335791e-003
3328:-4.2465710258450633e-003
3329:-3.0750711858891105e-003
3330:-1.8416632067998710e-003
3331:-1.1134383769682817e-003
3332:-3.4150371552522990e-003
3333:-2.3562408738631350e-003
3334:-1.2527842227559333e-003
3335:-6.1288297584190059e-004
3336:-2.3344055968583599e-003
3337:-1.4465236725078460e-003
3338:-5.3820155594566915e-004
3339:-2.9088439388220313e-005
3340:-1.5269303582757848e-003
3341:-7.8658788167702029e-004
3342:-4.4489837972803249e-005
3343:3.5522654796854173e-004
3344:-7.9951588660665375e-004
3345:-3.4588842133134598e-004
3346:-1.8957015102438070e-005
3347:2.8948432538425420e-005
3348:-3.4335639123481734e-004
3349:1.6464259864201348e-005
3350:1.9103397443806817e-004
3351:9.3282842426169464e-005
3352:1.7589781165911508e-004
3353:4.0940247821112500e-004
3354:3.9875559138722997e-004
3355:1.3656555505712922e-004
3356:5.0743748646986527e-004
3357:6.4692653506154415e-004
3358:5.1760716920995801e-004
3359:1.6294837746848358e-004
3360:-1.3911409442908240e-003
3361:-7.0505406747989894e-003
3362:-1.4205650962997040e-002
3363:-1.9536766027091045e-002
3364:-1.0862890861975027e-003
3365:-5.3519157263169029e-003
3366:-1.0818238819128950e-002
3367:-1.4910819719294213e-002
3368:-6.2259777297431944e-004
3369:-2.8312660720223033e-003
3370:-5.6387329018864228e-003
3371:-7.7795561078556055e-003
3372:-1.3717173802315618e-004
3373:-7.1301195950802798e-004
3374:-1.2047704301522096e-003
3375:-1.5750099184468473e-003
3376:-2.2322886086263410e-002
3377:-2.7326228239114247e-002
3378:-3.3414725933488022e-002
3379:-3.7770534889302612e-002
3380:-1.7042666092548914e-002
3381:-2.0812597154243190e-002
3382:-2.5331792027011503e-002
3383:-2.8565099825968859e-002
3384:-8.9205066876303623e-003
3385:-1.0913086065062793e-002
3386:-1.3270531587336955e-002
3387:-1.4968639332155271e-002
3388:-1.8190013678916438e-003
3389:-2.2592982360625600e-003
3390:-2.8000990721071066e-003
3391:-3.2179130279282571e-003
3392:-3.9982949054269690e-002
3393:-4.3824908594250332e-002
3394:-4.8234407515073199e-002
3395:-5.1177344224736139e-002
3396:-3.0222763477684166e-002
3397:-3.3113335279636891e-002
3398:-3.6434817237642761e-002
3399:-3.8640544495393267e-002
3400:-1.5851308352823001e-002
3401:-1.7366793144548510e-002
3402:-1.9070898312756931e-002
3403:-2.0193032132767581e-002
3404:-3.4437666874786838e-003
3405:-3.7766328214852590e-003
3406:-4.0935497685788708e-003
3407:-4.3242295607061713e-003
3408:-5.2593592379217735e-002
3409:-5.4887991339605417e-002
3410:-5.7176158382924565e-002
3411:-5.8412180038088991e-002
3412:-3.9692620229113455e-002
3413:-4.1369236186502831e-002
3414:-4.3007100584699982e-002
3415:-4.3886493250213765e-002
3416:-2.0730726327654121e-002
3417:-2.1589206634737991e-002
3418:-2.2432331936337872e-002
3419:-2.2891867608848860e-002
3420:-4.4634956538621836e-003
3421:-4.7196104959452735e-003
3422:-5.0040638949684947e-003
3423:-5.1568850192280575e-003
3424:-5.8896161210126384e-002
3425:-5.9515468812152965e-002
3426:-5.9760517746980372e-002
3427:-5.9513697054201037e-002
3428:-4.4236690015424657e-002
3429:-4.4697842306548385e-002
3430:-4.4891163846820945e-002
3431:-4.4700529801097906e-002
3432:-2.3078008716871191e-002
3433:-2.3315237260584702e-002
3434:-2.3389109767755763e-002
3435:-2.3251588296947536e-002
3436:-5.2068058142669118e-003
3437:-5.2362406262376239e-003
3438:-5.1783770204530772e-003
3439:-5.0882294663846172e-003
3440:-5.9229420421448783e-002
3441:-5.8449434520989774e-002
3442:-5.6959313540628928e-002
3443:-5.5457707524969591e-002
3444:-4.4473703177947105e-002
3445:-4.3855113225800220e-002
3446:-4.2686513092370558e-002
3447:-4.1520549221904020e-002
3448:-2.3108798041212571e-002
3449:-2.2763244397130789e-002
3450:-2.2150237573981772e-002
3451:-2.1535896168143293e-002
3452:-5.0353876070591318e-003
3453:-4.9737138507680995e-003
3454:-4.9055015642903502e-003
3455:-4.7968131345944957e-003
3456:-5.4536822657095474e-002
3457:-5.2685358555676264e-002
3458:-5.0027889677090223e-002
3459:-4.7786031931015813e-002
3460:-4.0810786445358932e-002
3461:-3.9402838402652525e-002
3462:-3.7398617807462078e-002
3463:-3.5700067147941911e-002
3464:-2.1155597374004485e-002
3465:-2.0408999526694165e-002
3466:-1.9348605152116859e-002
3467:-1.8435544678374483e-002
3468:-4.7034449550069262e-003
3469:-4.5194709872757649e-003
3470:-4.2563011934053097e-003
3471:-4.0172988988152964e-003
3472:-4.6517920050751713e-002
3473:-4.4085417571555485e-002
3474:-4.0810488255036352e-002
3475:-3.8207934998375381e-002
3476:-3.4732314253322655e-002
3477:-3.2881212796333083e-002
3478:-3.0396150687465800e-002
3479:-2.8419503731879719e-002
3480:-1.7908567905550756e-002
3481:-1.6925135791716492e-002
3482:-1.5631965267088935e-002
3483:-1.4596270915630358e-002
3484:-3.8758837837429383e-003
3485:-3.6567485969171329e-003
3486:-3.4121526707620968e-003
3487:-3.1947522519419490e-003
3488:-3.6789434550789493e-002
3489:-3.4161327258996226e-002
3490:-3.0792832585606191e-002
3491:-2.8233296421438774e-002
3492:-2.7340454688220592e-002
3493:-2.5352344377357634e-002
3494:-2.2815960063039559e-002
3495:-2.0885056569568811e-002
3496:-1.4022398017319233e-002
3497:-1.2976374301410300e-002
3498:-1.1652753149757137e-002
3499:-1.0635957143295188e-002
3500:-3.0546405318205216e-003
3501:-2.8121149207577323e-003
3502:-2.5188380017436580e-003
3503:-2.2805012407772071e-003
3504:-2.6874175880438261e-002
3505:-2.4398851362269741e-002
3506:-2.1310875967760906e-002
3507:-1.9033512174441675e-002
3508:-1.9855624530521445e-002
3509:-1.7986775556564246e-002
3510:-1.5662919735389046e-002
3511:-1.3947464038796896e-002
3512:-1.0087317574850105e-002
3513:-9.1060735919330019e-003
3514:-7.9031327124232682e-003
3515:-7.0106799471483829e-003
3516:-2.1432761701140140e-003
3517:-1.9225746573791093e-003
3518:-1.6789769798674905e-003
3519:-1.4877788749112610e-003
3520:-1.7849132606609450e-002
3521:-1.5732092676701993e-002
3522:-1.3167909457689819e-002
3523:-1.1335284862020184e-002
3524:-1.3053128401526037e-002
3525:-1.1459845329138348e-002
3526:-9.5364494269378850e-003
3527:-8.1605609497230804e-003
3528:-6.5397064841324582e-003
3529:-5.7081293050132414e-003
3530:-4.7128788787177724e-003
3531:-3.9971564167974550e-003
3532:-1.3758085124258603e-003
3533:-1.1883586986269439e-003
3534:-9.7598785044069182e-004
3535:-8.1663156568854089e-004
3536:-1.0401981922559632e-002
3537:-8.7602225433184022e-003
3538:-6.8241662628965730e-003
3539:-5.4833711315407348e-003
3540:-7.4579552598832196e-003
3541:-6.2251224197552475e-003
3542:-4.7750644287431216e-003
3543:-3.7698076094859079e-003
3544:-3.6279514596248342e-003
3545:-2.9860689106140639e-003
3546:-2.2386388721899997e-003
3547:-1.7191227723312673e-003
3548:-7.2852722732217505e-004
3549:-5.8464401280918963e-004
3550:-4.2893970295938583e-004
3551:-3.1843940930338416e-004
3552:-4.8163315085200491e-003
3553:-3.6696369955052550e-003
3554:-2.3725397750901933e-003
3555:-1.5206339670970597e-003
3556:-3.2683346976480716e-003
3557:-2.4075264465471236e-003
3558:-1.4347711794338806e-003
3559:-7.9411845556348701e-004
3560:-1.4576791631899055e-003
3561:-1.0116016838549961e-003
3562:-5.0905949713380859e-004
3563:-1.7367242223188708e-004
3564:-2.5918270135945478e-004
3565:-1.6277786409649704e-004
3566:-5.6878416016251389e-005
3567:2.1339121664238834e-005
3568:-1.1149271197835289e-003
3569:-4.5851033843907968e-004
3570:1.9023948037470169e-004
3571:5.2967350680618245e-004
3572:-4.8796224094118257e-004
3573:2.0402225608570013e-006
3574:4.7208395234893668e-004
3575:7.0328985676656238e-004
3576:-1.0614127016210235e-005
3577:2.4471065988550267e-004
3578:4.7652855604329001e-004
3579:5.7931748553768393e-004
3580:6.4254611422802794e-005
3581:1.2609255309567745e-004
3582:1.7228103493137638e-004
3583:1.8790042418727842e-004
3584:6.5345160928830274e-004
3585:7.4638508212365945e-004
3586:5.6722032319610747e-004
3587:1.8038397498018751e-004
3588:7.7970226328181796e-004
3589:8.0755881263755859e-004
3590:5.8435779127219759e-004
3591:1.8869413091883189e-004
3592:6.0792290021568216e-004
3593:5.9685748304501925e-004
3594:4.1134127695341373e-004
3595:9.9553851673022200e-005
3596:1.9150103306084284e-004
3597:1.8518579254755239e-004
3598:9.5402289506561471e-005
3599:-8.7626227808401826e-005
3600:0.0000000000000000e+000
3601:0.0000000000000000e+000
3602:0.0000000000000000e+000
3603:0.0000000000000000e+000
3604:0.0000000000000000e+000
3605:0.0000000000000000e+000
3606:0.0000000000000000e+000
3607:0.0000000000000000e+000
3608:0.0000000000000000e+000
3609:0.0000000000000000e+000
3610:0.0000000000000000e+000
3611:0.0000000000000000e+000
3612:0.0000000000000000e+000
3613:0.0000000000000000e+000
3614:0.0000000000000000e+000
3615:0.0000000000000000e+000
3616:0.0000000000000000e+000
3617:0.0000000000000000e+000
3618:0.0000000000000000e+000
3619:0.0000000000000000e+000
3620:0.0000000000000000e+000
3621:0.0000000000000000e+000
3622:0.0000000000000000e+000
3623:0.0000000000000000e+000
3624:0.0000000000000000e+000
3625:0.0000000000000000e+000
3626:0.0000000000000000e+000
3627:0.0000000000000000e+000
3628:0.0000000000000000e+000
3629:0.0000000000000000e+000
3630:0.0000000000000000e+000
3631:0.0000000000000000e+000
3632:0.0000000000000000e+000
3633:0.0000000000000000e+000
3634:0.0000000000000000e+000
3635:0.0000000000000000e+000
3636:0.0000000000000000e+000
3637:0.0000000000000000e+000
3638:0.0000000000000000e+000
3639:0.0000000000000000e+000
3640:0.0000000000000000e+000
3641:0.0000000000000000e+000
3642:0.0000000000000000e+000
3643:0.0000000000000000e+000
3644:0.0000000000000000e+000
3645:0.0000000000000000e+000
3646:0.0000000000000000e+000
3647:0.0000000000000000e+000
3648:0.0000000000000000e+000
3649:0.0000000000000000e+000
3650:0.0000000000000000e+000
3651:0.0000000000000000e+000
3652:0.0000000000000000e+000
3653:0.0000000000000000e+000
3654:0.0000000000000000e+000
3655:0.0000000000000000e+000
3656:0.0000000000000000e+000
3657:0.0000000000000000e+000
3658:0.0000000000000000e+000
3659:0.0000000000000000e+000
3660:0.0000000000000000e+000
3661:0.0000000000000000e+000
3662:0.0000000000000000e+000
3663:0.0000000000000000e+000
3664:0.0000000000000000e+000
3665:0.0000000000000000e+000
3666:0.0000000000000000e+000
3667:0.0000000000000000e+000
3668:0.0000000000000000e+000
3669:0.0000000000000000e+000
3670:0.0000000000000000e+000
3671:0.0000000000000000e+000
3672:0.0000000000000000e+000
3673:0.0000000000000000e+000
3674:0.0000000000000000e+000
3675:0.0000000000000000e+000
3676:0.0000000000000000e+000
3677:0.0000000000000000e+000
3678:0.0000000000000000e+000
3679:0.0000000000000000e+000
3680:0.0000000000000000e+000
3681:0.0000000000000000e+000
3682:0.0000000000000000e+000
3683:0.0000000000000000e+000
3684:0.0000000000000000e+000
3685:0.0000000000000000e+000
3686:0.0000000000000000e+000
3687:0.0000000000000000e+000
3688:0.0000000000000000e+000
3689:0.0000000000000000e+000
3690:0.0000000000000000e+000
3691:0.0000000000000000e+000
3692:0.0000000000000000e+000
3693:0.0000000000000000e+000
3694:0.0000000000000000e+000
3695:0.0000000000000000e+000
3696:0.0000000000000000e+000
3697:0.0000000000000000e+000
3698:0.0000000000000000e+000
3699:0.0000000000000000e+000
3700:0.0000000000000000e+000
3701:0.0000000000000000e+000
3702:0.0000000000000000e+000
3703:0.0000000000000000e+000
3704:0.0000000000000000e+000
3705:0.0000000000000000e+000
3706:0.0000000000000000e+000
3707:0.0000000000000000e+000
3708:0.0000000000000000e+000
3709:0.0000000000000000e+000
3710:0.0000000000000000e+000
3711:0.0000000000000000e+000
3712:0.0000000000000000e+000
3713:0.0000000000000000e+000
3714:0.0000000000000000e+000
3715:0.0000000000000000e+000
3716:0.0000000000000000e+000
3717:0.0000000000000000e+000
3718:0.0000000000000000e+000
3719:0.0000000000000000e+000
3720:0.0000000000000000e+000
3721:0.0000000000000000e+000
3722:0.0000000000000000e+000
3723:0.0000000000000000e+000
3724:0.0000000000000000e+000
3725:0.0000000000000000e+000
3726:0.0000000000000000e+000
3727:0.0000000000000000e+000
3728:0.0000000000000000e+000
3729:0.0000000000000000e+000
3730:0.0000000000000000e+000
3731:0.0000000000000000e+000
3732:0.0000000000000000e+000
3733:0.0000000000000000e+000
3734:0.0000000000000000e+000
3735:0.0000000000000000e+000
3736:0.0000000000000000e+000
3737:0.0000000000000000e+000
3738:0.0000000000000000e+000
3739:0.0000000000000000e+000
3740:0.0000000000000000e+000
3741:0.0000000000000000e+000
3742:0.0000000000000000e+000
3743:0.0000000000000000e+000
3744:0.0000000000000000e+000
3745:0.0000000000000000e+000
3746:0.0000000000000000e+000
3747:0.0000000000000000e+000
3748:0.0000000000000000e+000
3749:0.0000000000000000e+000
3750:0.0000000000000000e+000
3751:0.0000000000000000e+000
3752:0.0000000000000000e+000
3753:0.0000000000000000e+000
3754:0.0000000000000000e+000
3755:0.0000000000000000e+000
3756:0.0000000000000000e+000
3757:0.0000000000000000e+000
3758:0.0000000000000000e+000
3759:0.0000000000000000e+000
3760:0.0000000000000000e+000
3761:0.0000000000000000e+000
3762:0.0000000000000000e+000
3763:0.0000000000000000e+000
3764:0.0000000000000000e+000
3765:0.0000000000000000e+000
3766:0.0000000000000000e+000
3767:0.0000000000000000e+000
3768:0.0000000000000000e+000
3769:0.0000000000000000e+000
3770:0.0000000000000000e+000
3771:0.0000000000000000e+000
3772:0.0000000000000000e+000
3773:0.0000000000000000e+000
3774:0.0000000000000000e+000
3775:0.0000000000000000e+000
3776:0.0000000000000000e+000
3777:0.0000000000000000e+000
3778:0.0000000000000000e+000
3779:0.0000000000000000e+000
3780:0.0000000000000000e+000
3781:0.0000000000000000e+000
3782:0.0000000000000000e+000
3783:0.0000000000000000e+000
3784:0.0000000000000000e+000
3785:0.0000000000000000e+000
3786:0.0000000000000000e+000
3787:0.0000000000000000e+000
3788:0.0000000000000000e+000
3789:0.0000000000000000e+000
3790:0.0000000000000000e+000
3791:0.0000000000000000e+000
3792:0.0000000000000000e+000
3793:0.0000000000000000e+000
3794:0.0000000000000000e+000
3795:0.0000000000000000e+000
3796:0.0000000000000000e+000
3797:0.0000000000000000e+000
3798:0.0000000000000000e+000
3799:0.0000000000000000e+000
3800:0.0000000000000000e+000
3801:0.0000000000000000e+000
3802:0.0000000000000000e+000
3803:0.0000000000000000e+000
3804:0.0000000000000000e+000
3805:0.0000000000000000e+000
3806:0.0000000000000000e+000
3807:0.0000000000000000e+000
3808:0.0000000000000000e+000
3809:0.0000000000000000e+000
3810:0.0000000000000000e+000
3811:0.0000000000000000e+000
3812:0.0000000000000000e+000
3813:0.0000000000000000e+000
3814:0.0000000000000000e+000
3815:0.0000000000000000e+000
3816:0.0000000000000000e+000
3817:0.0000000000000000e+000
3818:0.0000000000000000e+000
3819:0.0000000000000000e+000
3820:0.0000000000000000e+000
3821:0.0000000000000000e+000
3822:0.0000000000000000e+000
3823:0.0000000000000000e+000
3824:0.0000000000000000e+000
3825:0.0000000000000000e+000
3826:0.0000000000000000e+000
3827:0.0000000000000000e+000
3828:0.0000000000000000e+000
3829:0.0000000000000000e+000
3830:0.0000000000000000e+000
3831:0.0000000000000000e+000
3832:0.0000000000000000e+000
3833:0.0000000000000000e+000
3834:0.0000000000000000e+000
3835:0.0000000000000000e+000
3836:0.0000000000000000e+000
3837:0.0000000000000000e+000
3838:0.0000000000000000e+000
3839:0.0000000000000000e+000
3840:0.0000000000000000e+000
3841:0.0000000000000000e+000
3842:0.0000000000000000e+000
3843:0.0000000000000000e+000
3844:0.0000000000000000e+000
3845:0.0000000000000000e+000
3846:0.0000000000000000e+000
3847:0.0000000000000000e+000
3848:0.0000000000000000e+000
3849:0.0000000000000000e+000
3850:0.0000000000000000e+000
3851:0.0000000000000000e+000
3852:0.0000000000000000e+000
3853:0.0000000000000000e+000
3854:0.0000000000000000e+000
3855:0.0000000000000000e+000
3856:0.0000000000000000e+000
3857:0.0000000000000000e+000
3858:0.0000000000000000e+000
3859:0.0000000000000000e+000
3860:0.0000000000000000e+000
3861:0.0000000000000000e+000
3862:0.0000000000000000e+000
3863:0.0000000000000000e+000
3864:0.0000000000000000e+000
3865:0.0000000000000000e+000
3866:0.0000000000000000e+000
3867:0.0000000000000000e+000
3868:0.0000000000000000e+000
3869:0.0000000000000000e+000
3870:0.0000000000000000e+000
3871:0.0000000000000000e+000
3872:0.0000000000000000e+000
3873:0.0000000000000000e+000
3874:0.0000000000000000e+000
3875:0.0000000000000000e+000
3876:0.0000000000000000e+000
3877:0.0000000000000000e+000
3878:0.0000000000000000e+000
3879:0.0000000000000000e+000
3880:0.0000000000000000e+000
3881:0.0000000000000000e+000
3882:0.0000000000000000e+000
3883:0.0000000000000000e+000
3884:0.0000000000000000e+000
3885:0.0000000000000000e+000
3886:0.0000000000000000e+000
3887:0.0000000000000000e+000
3888:0.0000000000000000e+000
3889:0.0000000000000000e+000
3890:0.0000000000000000e+000
3891:0.0000000000000000e+000
3892:0.0000000000000000e+000
3893:0.0000000000000000e+000
3894:0.0000000000000000e+000
3895:0.0000000000000000e+000
3896:0.0000000000000000e+000
3897:0.0000000000000000e+000
3898:0.0000000000000000e+000
3899:0.0000000000000000e+000
3900:0.0000000000000000e+000
3901:0.0000000000000000e+000
3902:0.0000000000000000e+000
3903:0.0000000000000000e+000
3904:0.0000000000000000e+000
3905:0.0000000000000000e+000
3906:0.0000000000000000e+000
3907:0.0000000000000000e+000
3908:0.0000000000000000e+000
3909:0.0000000000000000e+000
3910:0.0000000000000000e+000
3911:0.0000000000000000e+000
3912:0.0000000000000000e+000
3913:0.0000000000000000e+000
3914:0.0000000000000000e+000
3915:0.0000000000000000e+000
3916:0.0000000000000000e+000
3917:0.0000000000000000e+000
3918:0.0000000000000000e+000
3919:0.0000000000000000e+000
3920:0.0000000000000000e+000
3921:0.0000000000000000e+000
3922:0.0000000000000000e+000
3923:0.0000000000000000e+000
3924:0.0000000000000000e+000
3925:0.0000000000000000e+000
3926:0.0000000000000000e+000
3927:0.0000000000000000e+000
3928:0.0000000000000000e+000
3929:0.0000000000000000e+000
3930:0.0000000000000000e+000
3931:0.0000000000000000e+000
3932:0.0000000000000000e+000
3933:0.0000000000000000e+000
3934:0.0000000000000000e+000
3935:0.0000000000000000e+000
3936:0.0000000000000000e+000
3937:0.0000000000000000e+000
3938:0.0000000000000000e+000
3939:0.0000000000000000e+000
3940:0.0000000000000000e+000
3941:0.0000000000000000e+000
3942:0.0000000000000000e+000
3943:0.0000000000000000e+000
3944:0.0000000000000000e+000
3945:0.0000000000000000e+000
3946:0.0000000000000000e+000
3947:0.0000000000000000e+000
3948:0.0000000000000000e+000
3949:0.0000000000000000e+000
3950:0.0000000000000000e+000
3951:0.0000000000000000e+000
3952:0.0000000000000000e+000
3953:0.0000000000000000e+000
3954:0.0000000000000000e+000
3955:0.0000000000000000e+000
3956:0.0000000000000000e+000
3957:0.0000000000000000e+000
3958:0.0000000000000000e+000
3959:0.0000000000000000e+000
3960:0.0000000000000000e+000
3961:0.0000000000000000e+000
3962:0.0000000000000000e+000
3963:0.0000000000000000e+000
3964:0.0000000000000000e+000
3965:0.0000000000000000e+000
3966:0.0000000000000000e+000
3967:0.0000000000000000e+000
3968:0.0000000000000000e+000
3969:0.0000000000000000e+000
3970:0.0000000000000000e+000
3971:0.0000000000000000e+000
3972:0.0000000000000000e+000
3973:0.0000000000000000e+000
3974:0.0000000000000000e+000
3975:0.0000000000000000e+000
3976:0.0000000000000000e+000
3977:0.0000000000000000e+000
3978:0.0000000000000000e+000
3979:0.0000000000000000e+000
3980:0.0000000000000000e+000
3981:0.0000000000000000e+000
3982:0.0000000000000000e+000
3983:0.0000000000000000e+000
3984:0.0000000000000000e+000
3985:0.0000000000000000e+000
3986:0.0000000000000000e+000
3987:0.0000000000000000e+000
3988:0.0000000000000000e+000
3989:0.0000000000000000e+000
3990:0.0000000000000000e+000
3991:0.0000000000000000e+000
3992:0.0000000000000000e+000
3993:0.0000000000000000e+000
3994:0.0000000000000000e+000
3995:0.0000000000000000e+000
3996:0.0000000000000000e+000
3997:0.0000000000000000e+000
3998:0.0000000000000000e+000
3999:0.0000000000000000e+000
4000:0.0000000000000000e+000
4001:0.0000000000000000e+000
4002:0.0000000000000000e+000
4003:0.0000000000000000e+000
4004:0.0000000000000000e+000
4005:0.0000000000000000e+000
4006:0.0000000000000000e+000
4007:0.0000000000000000e+000
4008:0.0000000000000000e+000
4009:0.0000000000000000e+000
4010:0.0000000000000000e+000
4011:0.0000000000000000e+000
4012:0.0000000000000000e+000
4013:0.0000000000000000e+000
4014:0.0000000000000000e+000
4015:0.0000000000000000e+000
4016:0.0000000000000000e+000
4017:0.0000000000000000e+000
4018:0.0000000000000000e+000
4019:0.0000000000000000e+000
4020:0.0000000000000000e+000
4021:0.0000000000000000e+000
4022:0.0000000000000000e+000
4023:0.0000000000000000e+000
4024:0.0000000000000000e+000
4025:0.0000000000000000e+000
4026:0.0000000000000000e+000
4027:0.0000000000000000e+000
4028:0.0000000000000000e+000
4029:0.0000000000000000e+000
4030:0.0000000000000000e+000
4031:0.0000000000000000e+000
4032:0.0000000000000000e+000
4033:0.0000000000000000e+000
4034:0.0000000000000000e+000
4035:0.0000000000000000e+000
4036:0.0000000000000000e+000
4037:0.0000000000000000e+000
4038:0.0000000000000000e+000
4039:0.0000000000000000e+000
4040:0.0000000000000000e+000
4041:0.0000000000000000e+000
4042:0.0000000000000000e+000
4043:0.0000000000000000e+000
4044:0.0000000000000000e+000
4045:0.0000000000000000e+000
4046:0.0000000000000000e+000
4047:0.0000000000000000e+000
4048:0.0000000000000000e+000
4049:0.0000000000000000e+000
4050:0.0000000000000000e+000
4051:0.0000000000000000e+000
4052:0.0000000000000000e+000
4053:0.0000000000000000e+000
4054:0.0000000000000000e+000
4055:0.0000000000000000e+000
4056:0.0000000000000000e+000
4057:0.0000000000000000e+000
4058:0.0000000000000000e+000
4059:0.0000000000000000e+000
4060:0.0000000000000000e+000
4061:0.0000000000000000e+000
4062:0.0000000000000000e+000
4063:0.0000000000000000e+000
4064:0.0000000000000000e+000
4065:0.0000000000000000e+000
4066:0.0000000000000000e+000
4067:0.0000000000000000e+000
4068:0.0000000000000000e+000
4069:0.0000000000000000e+000
4070:0.0000000000000000e+000
4071:0.0000000000000000e+000
4072:0.0000000000000000e+000
4073:0.0000000000000000e+000
4074:0.0000000000000000e+000
4075:0.0000000000000000e+000
4076:0.0000000000000000e+000
4077:0.0000000000000000e+000
4078:0.0000000000000000e+000
4079:0.0000000000000000e+000
4080:0.0000000000000000e+000
4081:0.0000000000000000e+000
4082:0.0000000000000000e+000
4083:0.0000000000000000e+000
4084:0.0000000000000000e+000
4085:0.0000000000000000e+000
4086:0.0000000000000000e+000
4087:0.0000000000000000e+000
4088:0.0000000000000000e+000
4089:0.0000000000000000e+000
4090:0.0000000000000000e+000
4091:0.0000000000000000e+000
4092:0.0000000000000000e+000
4093:0.0000000000000000e+000
4094:0.0000000000000000e+000
4095:0.0000000000000000e+000
4096:0.0000000000000000e+000
4097:0.0000000000000000e+000
4098:0.0000000000000000e+000
4099:0.0000000000000000e+000
4100:0.0000000000000000e+000
4101:0.0000000000000000e+000
4102:0.0000000000000000e+000
4103:0.0000000000000000e+000
4104:0.0000000000000000e+000
4105:0.0000000000000000e+000
4106:0.0000000000000000e+000
4107:0.0000000000000000e+000
4108:0.0000000000000000e+000
4109:0.0000000000000000e+000
4110:0.0000000000000000e+000
4111:0.0000000000000000e+000
4112:0.0000000000000000e+000
4113:0.0000000000000000e+000
4114:0.0000000000000000e+000
4115:0.0000000000000000e+000
4116:0.0000000000000000e+000
4117:0.0000000000000000e+000
4118:0.0000000000000000e+000
4119:0.0000000000000000e+000
4120:0.0000000000000000e+000
4121:0.0000000000000000e+000
4122:0.0000000000000000e+000
4123:0.0000000000000000e+000
4124:0.0000000000000000e+000
4125:0.0000000000000000e+000
4126:0.0000000000000000e+000
4127:0.0000000000000000e+000
4128:0.0000000000000000e+000
4129:0.0000000000000000e+000
4130:0.0000000000000000e+000
4131:0.0000000000000000e+000
4132:0.0000000000000000e+000
4133:0.0000000000000000e+000
4134:0.0000000000000000e+000
4135:0.0000000000000000e+000
4136:0.0000000000000000e+000
4137:0.0000000000000000e+000
4138:0.0000000000000000e+000
4139:0.0000000000000000e+000
4140:0.0000000000000000e+000
4141:0.0000000000000000e+000
4142:0.0000000000000000e+000
4143:0.0000000000000000e+000
4144:0.0000000000000000e+000
4145:0.0000000000000000e+000
4146:0.0000000000000000e+000
4147:0.0000000000000000e+000
4148:0.0000000000000000e+000
4149:0.0000000000000000e+000
4150:0.0000000000000000e+000
4151:0.0000000000000000e+000
4152:0.0000000000000000e+000
4153:0.0000000000000000e+000
4154:0.0000000000000000e+000
4155:0.0000000000000000e+000
4156:0.0000000000000000e+000
4157:0.0000000000000000e+000
4158:0.0000000000000000e+000
4159:0.0000000000000000e+000
4160:0.0000000000000000e+000
4161:0.0000000000000000e+000
4162:0.0000000000000000e+000
4163:0.0000000000000000e+000
4164:0.0000000000000000e+000
4165:0.0000000000000000e+000
4166:0.0000000000000000e+000
4167:0.0000000000000000e+000
4168:0.0000000000000000e+000
4169:0.0000000000000000e+000
4170:0.0000000000000000e+000
4171:0.0000000000000000e+000
4172:0.0000000000000000e+000
4173:0.0000000000000000e+000
4174:0.0000000000000000e+000
4175:0.0000000000000000e+000
4176:0.0000000000000000e+000
4177:0.0000000000000000e+000
4178:0.0000000000000000e+000
4179:0.0000000000000000e+000
4180:0.0000000000000000e+000
4181:0.0000000000000000e+000
4182:0.0000000000000000e+000
4183:0.0000000000000000e+000
4184:0.0000000000000000e+000
4185:0.0000000000000000e+000
4186:0.0000000000000000e+000
4187:0.0000000000000000e+000
4188:0.0000000000000000e+000
4189:0.0000000000000000e+000
4190:0.0000000000000000e+000
4191:0.0000000000000000e+000
4192:0.0000000000000000e+000
4193:0.0000000000000000e+000
4194:0.0000000000000000e+000
4195:0.0000000000000000e+000
4196:0.0000000000000000e+000
4197:0.0000000000000000e+000
4198:0.0000000000000000e+000
4199:0.0000000000000000e+000
4200:0.0000000000000000e+000
4201:0.0000000000000000e+000
4202:0.0000000000000000e+000
4203:0.0000000000000000e+000
4204:0.0000000000000000e+000
4205:0.0000000000000000e+000
4206:0.0000000000000000e+000
4207:0.0000000000000000e+000
4208:0.0000000000000000e+000
4209:0.0000000000000000e+000
4210:0.0000000000000000e+000
4211:0.0000000000000000e+000
4212:0.0000000000000000e+000
4213:0.0000000000000000e+000
4214:0.0000000000000000e+000
4215:0.0000000000000000e+000
4216:0.0000000000000000e+000
4217:0.0000000000000000e+000
4218:0.0000000000000000e+000
4219:0.0000000000000000e+000
4220:0.0000000000000000e+000
4221:0.0000000000000000e+000
4222:0.0000000000000000e+000
4223:0.0000000000000000e+000
4224:0.0000000000000000e+000
4225:0.0000000000000000e+000
4226:0.0000000000000000e+000
4227:0.0000000000000000e+000
4228:0.0000000000000000e+000
4229:0.0000000000000000e+000
4230:0.0000000000000000e+000
4231:0.0000000000000000e+000
4232:0.0000000000000000e+000
4233:0.0000000000000000e+000
4234:0.0000000000000000e+000
4235:0.0000000000000000e+000
4236:0.0000000000000000e+000
4237:0.0000000000000000e+000
4238:0.0000000000000000e+000
4239:0.0000000000000000e+000
4240:0.0000000000000000e+000
4241:0.0000000000000000e+000
4242:0.0000000000000000e+000
4243:0.0000000000000000e+000
4244:0.0000000000000000e+000
4245:0.0000000000000000e+000
4246:0.0000000000000000e+000
4247:0.0000000000000000e+000
4248:0.0000000000000000e+000
4249:0.0000000000000000e+000
4250:0.0000000000000000e+000
4251:0.0000000000000000e+000
4252:0.0000000000000000e+000
4253:0.0000000000000000e+000
4254:0.0000000000000000e+000
4255:0.0000000000000000e+000
4256:0.0000000000000000e+000
4257:0.0000000000000000e+000
4258:0.0000000000000000e+000
4259:0.0000000000000000e+000
4260:0.0000000000000000e+000
4261:0.0000000000000000e+000
4262:0.0000000000000000e+000
4263:0.0000000000000000e+000
4264:0.0000000000000000e+000
4265:0.0000000000000000e+000
4266:0.0000000000000000e+000
4267:0.0000000000000000e+000
4268:0.0000000000000000e+000
4269:0.0000000000000000e+000
4270:0.0000000000000000e+000
4271:0.0000000000000000e+000
4272:0.0000000000000000e+000
4273:0.0000000000000000e+000
4274:0.0000000000000000e+000
4275:0.0000000000000000e+000
4276:0.0000000000000000e+000
4277:0.0000000000000000e+000
4278:0.0000000000000000e+000
4279:0.0000000000000000e+000
4280:0.0000000000000000e+000
4281:0.0000000000000000e+000
4282:0.0000000000000000e+000
4283:0.0000000000000000e+000
4284:0.0000000000000000e+000
4285:0.0000000000000000e+000
4286:0.0000000000000000e+000
4287:0.0000000000000000e+000
4288:0.0000000000000000e+000
4289:0.0000000000000000e+000
4290:0.0000000000000000e+000
4291:0.0000000000000000e+000
4292:0.0000000000000000e+000
4293:0.0000000000000000e+000
4294:0.0000000000000000e+000
4295:0.0000000000000000e+000
4296:0.0000000000000000e+000
4297:0.0000000000000000e+000
4298:0.0000000000000000e+000
4299:0.0000000000000000e+000
4300:0.0000000000000000e+000
4301:0.0000000000000000e+000
4302:0.0000000000000000e+000
4303:0.0000000000000000e+000
4304:0.0000000000000000e+000
4305:0.0000000000000000e+000
4306:0.0000000000000000e+000
4307:0.0000000000000000e+000
4308:0.0000000000000000e+000
4309:0.0000000000000000e+000
4310:0.0000000000000000e+000
4311:0.0000000000000000e+000
4312:0.0000000000000000e+000
4313:0.0000000000000000e+000
4314:0.0000000000000000e+000
4315:0.0000000000000000e+000
4316:0.0000000000000000e+000
4317:0.0000000000000000e+000
4318:0.0000000000000000e+000
4319:0.0000000000000000e+000
4320:0.0000000000000000e+000
4321:0.0000000000000000e+000
4322:0.0000000000000000e+000
4323:0.0000000000000000e+000
4324:0.0000000000000000e+000
4325:0.0000000000000000e+000
4326:0.0000000000000000e+000
4327:0.0000000000000000e+000
4328:0.0000000000000000e+000
4329:0.0000000000000000e+000
4330:0.0000000000000000e+000
4331:0.0000000000000000e+000
4332:0.0000000000000000e+000
4333:0.0000000000000000e+000
4334:0.0000000000000000e+000
4335:0.0000000000000000e+000
4336:0.0000000000000000e+000
4337:0.0000000000000000e+000
4338:0.0000000000000000e+000
4339:0.0000000000000000e+000
4340:0.0000000000000000e+000
4341:0.0000000000000000e+000
4342:0.0000000000000000e+000
4343:0.0000000000000000e+000
4344:0.0000000000000000e+000
4345:0.0000000000000000e+000
4346:0.0000000000000000e+000
4347:0.0000000000000000e+000
4348:0.0000000000000000e+000
4349:0.0000000000000000e+000
4350:0.0000000000000000e+000
4351:0.0000000000000000e+000
4352:0.0000000000000000e+000
4353:0.0000000000000000e+000
4354:0.0000000000000000e+000
4355:0.0000000000000000e+000
4356:0.0000000000000000e+000
4357:0.0000000000000000e+000
4358:0.0000000000000000e+000
4359:0.0000000000000000e+000
4360:0.0000000000000000e+000
4361:0.0000000000000000e+000
4362:0.0000000000000000e+000
4363:0.0000000000000000e+000
4364:0.0000000000000000e+000
4365:0.0000000000000000e+000
4366:0.0000000000000000e+000
4367:0.0000000000000000e+000
4368:0.0000000000000000e+000
4369:0.0000000000000000e+000
4370:0.0000000000000000e+000
4371:0.0000000000000000e+000
4372:0.0000000000000000e+000
4373:0.0000000000000000e+000
4374:0.0000000000000000e+000
4375:0.0000000000000000e+000
4376:0.0000000000000000e+000
4377:0.0000000000000000e+000
4378:0.0000000000000000e+000
4379:0.0000000000000000e+000
4380:0.0000000000000000e+000
4381:0.0000000000000000e+000
4382:0.0000000000000000e+000
4383:0.0000000000000000e+000
4384:0.0000000000000000e+000
4385:0.0000000000000000e+000
4386:0.0000000000000000e+000
4387:0.0000000000000000e+000
4388:0.0000000000000000e+000
4389:0.0000000000000000e+000
4390:0.0000000000000000e+000
4391:0.0000000000000000e+000
4392:0.0000000000000000e+000
4393:0.0000000000000000e+000
4394:0.0000000000000000e+000
4395:0.0000000000000000e+000
4396:0.0000000000000000e+000
4397:0.0000000000000000e+000
4398:0.0000000000000000e+000
4399:0.0000000000000000e+000
4400:0.0000000000000000e+000
4401:0.0000000000000000e+000
4402:0.0000000000000000e+000
4403:0.0000000000000000e+000
4404:0.0000000000000000e+000
4405:0.0000000000000000e+000
4406:0.0000000000000000e+000
4407:0.0000000000000000e+000
4408:0.0000000000000000e+000
4409:0.0000000000000000e+000
4410:0.0000000000000000e+000
4411:0.0000000000000000e+000
4412:0.0000000000000000e+000
4413:0.0000000000000000e+000
4414:0.0000000000000000e+000
4415:0.0000000000000000e+000
4416:0.0000000000000000e+000
4417:0.0000000000000000e+000
4418:0.0000000000000000e+000
4419:0.0000000000000000e+000
4420:0.0000000000000000e+000
4421:0.0000000000000000e+000
4422:0.0000000000000000e+000
4423:0.0000000000000000e+000
4424:0.0000000000000000e+000
4425:0.0000000000000000e+000
4426:0.0000000000000000e+000
4427:0.0000000000000000e+000
4428:0.0000000000000000e+000
4429:0.0000000000000000e+000
4430:0.0000000000000000e+000
4431:0.0000000000000000e+000
4432:0.0000000000000000e+000
4433:0.0000000000000000e+000
4434:0.0000000000000000e+000
4435:0.0000000000000000e+000
4436:0.0000000000000000e+000
4437:0.0000000000000000e+000
4438:0.0000000000000000e+000
4439:0.0000000000000000e+000
4440:0.0000000000000000e+000
4441:0.0000000000000000e+000
4442:0.0000000000000000e+000
4443:0.0000000000000000e+000
4444:0.0000000000000000e+000
4445:0.0000000000000000e+000
4446:0.0000000000000000e+000
4447:0.0000000000000000e+000
4448:0.0000000000000000e+000
4449:0.0000000000000000e+000
4450:0.0000000000000000e+000
4451:0.0000000000000000e+000
4452:0.0000000000000000e+000
4453:0.0000000000000000e+000
4454:0.0000000000000000e+000
4455:0.0000000000000000e+000
4456:0.0000000000000000e+000
4457:0.0000000000000000e+000
4458:0.0000000000000000e+000
4459:0.0000000000000000e+000
4460:0.0000000000000000e+000
4461:0.0000000000000000e+000
4462:0.0000000000000000e+000
4463:0.0000000000000000e+000
4464:0.0000000000000000e+000
4465:0.0000000000000000e+000
4466:0.0000000000000000e+000
4467:0.0000000000000000e+000
4468:0.0000000000000000e+000
4469:0.0000000000000000e+000
4470:0.0000000000000000e+000
4471:0.0000000000000000e+000
4472:0.0000000000000000e+000
4473:0.0000000000000000e+000
4474:0.0000000000000000e+000
4475:0.0000000000000000e+000
4476:0.0000000000000000e+000
4477:0.0000000000000000e+000
4478:0.0000000000000000e+000
4479:0.0000000000000000e+000
4480:0.0000000000000000e+000
4481:0.0000000000000000e+000
4482:0.0000000000000000e+000
4483:0.0000000000000000e+000
4484:0.0000000000000000e+000
4485:0.0000000000000000e+000
4486:0.0000000000000000e+000
4487:0.0000000000000000e+000
4488:0.0000000000000000e+000
4489:0.0000000000000000e+000
4490:0.0000000000000000e+000
4491:0.0000000000000000e+000
4492:0.0000000000000000e+000
4493:0.0000000000000000e+000
4494:0.0000000000000000e+000
4495:0.0000000000000000e+000
4496:0.0000000000000000e+000
4497:0.0000000000000000e+000
4498:0.0000000000000000e+000
4499:0.0000000000000000e+000
4500:0.0000000000000000e+000
4501:0.0000000000000000e+000
4502:0.0000000000000000e+000
4503:0.0000000000000000e+000
4504:0.0000000000000000e+000
4505:0.0000000000000000e+000
4506:0.0000000000000000e+000
4507:0.0000000000000000e+000
4508:0.0000000000000000e+000
4509:0.0000000000000000e+000
4510:0.0000000000000000e+000
4511:0.0000000000000000e+000
4512:0.0000000000000000e+000
4513:0.0000000000000000e+000
4514:0.0000000000000000e+000
4515:0.0000000000000000e+000
4516:0.0000000000000000e+000
4517:0.0000000000000000e+000
4518:0.0000000000000000e+000
4519:0.0000000000000000e+000
4520:0.0000000000000000e+000
4521:0.0000000000000000e+000
4522:0.0000000000000000e+000
4523:0.0000000000000000e+000
4524:0.0000000000000000e+000
4525:0.0000000000000000e+000
4526:0.0000000000000000e+000
4527:0.0000000000000000e+000
4528:0.0000000000000000e+000
4529:0.0000000000000000e+000
4530:0.0000000000000000e+000
4531:0.0000000000000000e+000
4532:0.0000000000000000e+000
4533:0.0000000000000000e+000
4534:0.0000000000000000e+000
4535:0.0000000000000000e+000
4536:0.0000000000000000e+000
4537:0.0000000000000000e+000
4538:0.0000000000000000e+000
4539:0.0000000000000000e+000
4540:0.0000000000000000e+000
4541:0.0000000000000000e+000
4542:0.0000000000000000e+000
4543:0.0000000000000000e+000
4544:0.0000000000000000e+000
4545:0.0000000000000000e+000
4546:0.0000000000000000e+000
4547:0.0000000000000000e+000
4548:0.0000000000000000e+000
4549:0.0000000000000000e+000
4550:0.0000000000000000e+000
4551:0.0000000000000000e+000
4552:0.0000000000000000e+000
4553:0.0000000000000000e+000
4554:0.0000000000000000e+000
4555:0.0000000000000000e+000
4556:0.0000000000000000e+000
4557:0.0000000000000000e+000
4558:0.0000000000000000e+000
4559:0.0000000000000000e+000
4560:0.0000000000000000e+000
4561:0.0000000000000000e+000
4562:0.0000000000000000e+000
4563:0.0000000000000000e+000
4564:0.0000000000000000e+000
4565:0.0000000000000000e+000
4566:0.0000000000000000e+000
4567:0.0000000000000000e+000
4568:0.0000000000000000e+000
4569:0.0000000000000000e+000
4570:0.0000000000000000e+000
4571:0.0000000000000000e+000
4572:0.0000000000000000e+000
4573:0.0000000000000000e+000
4574:0.0000000000000000e+000
4575:0.0000000000000000e+000
4576:0.0000000000000000e+000
4577:0.0000000000000000e+000
4578:0.0000000000000000e+000
4579:0.0000000000000000e+000
4580:0.0000000000000000e+000
4581:0.0000000000000000e+000
4582:0.0000000000000000e+000
4583:0.0000000000000000e+000
4584:0.0000000000000000e+000
4585:0.0000000000000000e+000
4586:0.0000000000000000e+000
4587:0.0000000000000000e+000
4588:0.0000000000000000e+000
4589:0.0000000000000000e+000
4590:0.0000000000000000e+000
4591:0.0000000000000000e+000
4592:0.0000000000000000e+000
4593:0.0000000000000000e+000
4594:0.0000000000000000e+000
4595:0.0000000000000000e+000
4596:0.0000000000000000e+000
4597:0.0000000000000000e+000
4598:0.0000000000000000e+000
4599:0.0000000000000000e+000
4600:0.0000000000000000e+000
4601:0.0000000000000000e+000
4602:0.0000000000000000e+000
4603:0.0000000000000000e+000
4604:0.0000000000000000e+000
4605:0.0000000000000000e+000
4606:0.0000000000000000e+000
4607:0.0000000000000000e+000
4608:0.0000000000000000e+000
4609:0.0000000000000000e+000
4610:0.0000000000000000e+000
4611:0.0000000000000000e+000
4612:0.0000000000000000e+000
4613:0.0000000000000000e+000
4614:0.0000000000000000e+000
4615:0.0000000000000000e+000
4616:0.0000000000000000e+000
4617:0.0000000000000000e+000
4618:0.0000000000000000e+000
4619:0.0000000000000000e+000
4620:0.0000000000000000e+000
4621:0.0000000000000000e+000
4622:0.0000000000000000e+000
4623:0.0000000000000000e+000
4624:0.0000000000000000e+000
4625:0.0000000000000000e+000
4626:0.0000000000000000e+000
4627:0.0000000000000000e+000
4628:0.0000000000000000e+000
4629:0.0000000000000000e+000
4630:0.0000000000000000e+000
4631:0.0000000000000000e+000
4632:0.0000000000000000e+000
4633:0.0000000000000000e+000
4634:0.0000000000000000e+000
4635:0.0000000000000000e+000
4636:0.0000000000000000e+000
4637:0.0000000000000000e+000
4638:0.0000000000000000e+000
4639:0.0000000000000000e+000
4640:0.0000000000000000e+000
4641:0.0000000000000000e+000
4642:0.0000000000000000e+000
4643:0.0000000000000000e+000
4644:0.0000000000000000e+000
4645:0.0000000000000000e+000
4646:0.0000000000000000e+000
4647:0.0000000000000000e+000
4648:0.0000000000000000e+000
4649:0.0000000000000000e+000
4650:0.0000000000000000e+000
4651:0.0000000000000000e+000
4652:0.0000000000000000e+000
4653:0.0000000000000000e+000
4654:0.0000000000000000e+000
4655:0.0000000000000000e+000
4656:0.0000000000000000e+000
4657:0.0000000000000000e+000
4658:0.0000000000000000e+000
4659:0.0000000000000000e+000
4660:0.0000000000000000e+000
4661:0.0000000000000000e+000
4662:0.0000000000000000e+000
4663:0.0000000000000000e+000
4664:0.0000000000000000e+000
4665:0.0000000000000000e+000
4666:0.0000000000000000e+000
4667:0.0000000000000000e+000
4668:0.0000000000000000e+000
4669:0.0000000000000000e+000
4670:0.0000000000000000e+000
4671:0.0000000000000000e+000
4672:0.0000000000000000e+000
4673:0.0000000000000000e+000
4674:0.0000000000000000e+000
4675:0.0000000000000000e+000
4676:0.0000000000000000e+000
4677:0.0000000000000000e+000
4678:0.0000000000000000e+000
4679:0.0000000000000000e+000
4680:0.0000000000000000e+000
4681:0.0000000000000000e+000
4682:0.0000000000000000e+000
4683:0.0000000000000000e+000
4684:0.0000000000000000e+000
4685:0.0000000000000000e+000
4686:0.0000000000000000e+000
4687:0.0000000000000000e+000
4688:0.0000000000000000e+000
4689:0.0000000000000000e+000
4690:0.0000000000000000e+000
4691:0.0000000000000000e+000
4692:0.0000000000000000e+000
4693:0.0000000000000000e+000
4694:0.0000000000000000e+000
4695:0.0000000000000000e+000
4696:0.0000000000000000e+000
4697:0.0000000000000000e+000
4698:0.0000000000000000e+000
4699:0.0000000000000000e+000
4700:0.0000000000000000e+000
4701:0.0000000000000000e+000
4702:0.0000000000000000e+000
4703:0.0000000000000000e+000
4704:0.0000000000000000e+000
4705:0.0000000000000000e+000
4706:0.0000000000000000e+000
4707:0.0000000000000000e+000
4708:0.0000000000000000e+000
4709:0.0000000000000000e+000
4710:0.0000000000000000e+000
4711:0.0000000000000000e+000
4712:0.0000000000000000e+000
4713:0.0000000000000000e+000
4714:0.0000000000000000e+000
4715:0.0000000000000000e+000
4716:0.0000000000000000e+000
4717:0.0000000000000000e+000
4718:0.0000000000000000e+000
4719:0.0000000000000000e+000
4720:0.0000000000000000e+000
4721:0.0000000000000000e+000
4722:0.0000000000000000e+000
4723:0.0000000000000000e+000
4724:0.0000000000000000e+000
4725:0.0000000000000000e+000
4726:0.0000000000000000e+000
4727:0.0000000000000000e+000
4728:0.0000000000000000e+000
4729:0.0000000000000000e+000
4730:0.0000000000000000e+000
4731:0.0000000000000000e+000
4732:0.0000000000000000e+000
4733:0.0000000000000000e+000
4734:0.0000000000000000e+000
4735:0.0000000000000000e+000
4736:0.0000000000000000e+000
4737:0.0000000000000000e+000
4738:0.0000000000000000e+000
4739:0.0000000000000000e+000
4740:0.0000000000000000e+000
4741:0.0000000000000000e+000
4742:0.0000000000000000e+000
4743:0.0000000000000000e+000
4744:0.0000000000000000e+000
4745:0.0000000000000000e+000
4746:0.0000000000000000e+000
4747:0.0000000000000000e+000
4748:0.0000000000000000e+000
4749:0.0000000000000000e+000
4750:0.0000000000000000e+000
4751:0.0000000000000000e+000
4752:0.0000000000000000e+000
4753:0.0000000000000000e+000
4754:0.0000000000000000e+000
4755:0.0000000000000000e+000
4756:0.0000000000000000e+000
4757:0.0000000000000000e+000
4758:0.0000000000000000e+000
4759:0.0000000000000000e+000
4760:0.0000000000000000e+000
4761:0.0000000000000000e+000
4762:0.0000000000000000e+000
4763:0.0000000000000000e+000
4764:0.0000000000000000e+000
4765:0.0000000000000000e+000
4766:0.0000000000000000e+000
4767:0.0000000000000000e+000
4768:0.0000000000000000e+000
4769:0.0000000000000000e+000
4770:0.0000000000000000e+000
4771:0.0000000000000000e+000
4772:0.0000000000000000e+000
4773:0.0000000000000000e+000
4774:0.0000000000000000e+000
4775:0.0000000000000000e+000
4776:0.0000000000000000e+000
4777:0.0000000000000000e+000
4778:0.0000000000000000e+000
4779:0.0000000000000000e+000
4780:0.0000000000000000e+000
4781:0.0000000000000000e+000
4782:0.0000000000000000e+000
4783:0.0000000000000000e+000
4784:0.0000000000000000e+000
4785:0.0000000000000000e+000
4786:0.0000000000000000e+000
4787:0.0000000000000000e+000
4788:0.0000000000000000e+000
4789:0.0000000000000000e+000
4790:0.0000000000000000e+000
4791:0.0000000000000000e+000
4792:0.0000000000000000e+000
4793:0.0000000000000000e+000
4794:0.0000000000000000e+000
4795:0.0000000000000000e+000
4796:0.0000000000000000e+000
4797:0.0000000000000000e+000
4798:0.0000000000000000e+000
4799:0.0000000000000000e+000
4800:0.0000000000000000e+000
4801:0.0000000000000000e+000
4802:0.0000000000000000e+000
4803:0.0000000000000000e+000
4804:0.0000000000000000e+000
4805:0.0000000000000000e+000
4806:0.0000000000000000e+000
4807:0.0000000000000000e+000
4808:0.0000000000000000e+000
4809:0.0000000000000000e+000
4810:0.0000000000000000e+000
4811:0.0000000000000000e+000
4812:0.0000000000000000e+000
4813:0.0000000000000000e+000
4814:0.0000000000000000e+000
4815:0.0000000000000000e+000
4816:0.0000000000000000e+000
4817:0.0000000000000000e+000
4818:0.0000000000000000e+000
4819:0.0000000000000000e+000
4820:0.0000000000000000e+000
4821:0.0000000000000000e+000
4822:0.0000000000000000e+000
4823:0.0000000000000000e+000
4824:0.0000000000000000e+000
4825:0.0000000000000000e+000
4826:0.0000000000000000e+000
4827:0.0000000000000000e+000
4828:0.0000000000000000e+000
4829:0.0000000000000000e+000
4830:0.0000000000000000e+000
4831:0.0000000000000000e+000
4832:0.0000000000000000e+000
4833:0.0000000000000000e+000
4834:0.0000000000000000e+000
4835:0.0000000000000000e+000
4836:0.0000000000000000e+000
4837:0.0000000000000000e+000
4838:0.0000000000000000e+000
4839:0.0000000000000000e+000
4840:0.0000000000000000e+000
4841:0.0000000000000000e+000
4842:0.0000000000000000e+000
4843:0.0000000000000000e+000
4844:0.0000000000000000e+000
4845:0.0000000000000000e+000
4846:0.0000000000000000e+000
4847:0.0000000000000000e+000
4848:0.0000000000000000e+000
4849:0.0000000000000000e+000
4850:0.0000000000000000e+000
4851:0.0000000000000000e+000
4852:0.0000000000000000e+000
4853:0.0000000000000000e+000
4854:0.0000000000000000e+000
4855:0.0000000000000000e+000
4856:0.0000000000000000e+000
4857:0.0000000000000000e+000
4858:0.0000000000000000e+000
4859:0.0000000000000000e+000
4860:0.0000000000000000e+000
4861:0.0000000000000000e+000
4862:0.0000000000000000e+000
4863:0.0000000000000000e+000
4864:0.0000000000000000e+000
4865:0.0000000000000000e+000
4866:0.0000000000000000e+000
4867:0.0000000000000000e+000
4868:0.0000000000000000e+000
4869:0.0000000000000000e+000
4870:0.0000000000000000e+000
4871:0.0000000000000000e+000
4872:0.0000000000000000e+000
4873:0.0000000000000000e+000
4874:0.0000000000000000e+000
4875:0.0000000000000000e+000
4876:0.0000000000000000e+000
4877:0.0000000000000000e+000
4878:0.0000000000000000e+000
4879:0.0000000000000000e+000
4880:0.0000000000000000e+000
4881:0.0000000000000000e+000
4882:0.0000000000000000e+000
4883:0.0000000000000000e+000
4884:0.0000000000000000e+000
4885:0.0000000000000000e+000
4886:0.0000000000000000e+000
4887:0.0000000000000000e+000
4888:0.0000000000000000e+000
4889:0.0000000000000000e+000
4890:0.0000000000000000e+000
4891:0.0000000000000000e+000
4892:0.0000000000000000e+000
4893:0.0000000000000000e+000
4894:0.0000000000000000e+000
4895:0.0000000000000000e+000
4896:0.0000000000000000e+000
4897:0.0000000000000000e+000
4898:0.0000000000000000e+000
4899:0.0000000000000000e+000
4900:0.0000000000000000e+000
4901:0.0000000000000000e+000
4902:0.0000000000000000e+000
4903:0.0000000000000000e+000
4904:0.0000000000000000e+000
4905:0.0000000000000000e+000
4906:0.0000000000000000e+000
4907:0.0000000000000000e+000
4908:0.0000000000000000e+000
4909:0.0000000000000000e+000
4910:0.0000000000000000e+000
4911:0.0000000000000000e+000
4912:0.0000000000000000e+000
4913:0.0000000000000000e+000
4914:0.0000000000000000e+000
4915:0.0000000000000000e+000
4916:0.0000000000000000e+000
4917:0.0000000000000000e+000
4918:0.0000000000000000e+000
4919:0.0000000000000000e+000
4920:0.0000000000000000e+000
4921:0.0000000000000000e+000
4922:0.0000000000000000e+000
4923:0.0000000000000000e+000
4924:0.0000000000000000e+000
4925:0.0000000000000000e+000
4926:0.0000000000000000e+000
4927:0.0000000000000000e+000
4928:0.0000000000000000e+000
4929:0.0000000000000000e+000
4930:0.0000000000000000e+000
4931:0.0000000000000000e+000
4932:0.0000000000000000e+000
4933:0.0000000000000000e+000
4934:0.0000000000000000e+000
4935:0.0000000000000000e+000
4936:0.0000000000000000e+000
4937:0.0000000000000000e+000
4938:0.0000000000000000e+000
4939:0.0000000000000000e+000
4940:0.0000000000000000e+000
4941:0.0000000000000000e+000
4942:0.0000000000000000e+000
4943:0.0000000000000000e+000
4944:0.0000000000000000e+000
4945:0.0000000000000000e+000
4946:0.0000000000000000e+000
4947:0.0000000000000000e+000
4948:0.0000000000000000e+000
4949:0.0000000000000000e+000
4950:0.0000000000000000e+000
4951:0.0000000000000000e+000
4952:0.0000000000000000e+000
4953:0.0000000000000000e+000
4954:0.0000000000000000e+000
4955:0.0000000000000000e+000
4956:0.0000000000000000e+000
4957:0.0000000000000000e+000
4958:0.0000000000000000e+000
4959:0.0000000000000000e+000
4960:0.0000000000000000e+000
4961:0.0000000000000000e+000
4962:0.0000000000000000e+000
4963:0.0000000000000000e+000
4964:0.0000000000000000e+000
4965:0.0000000000000000e+000
4966:0.0000000000000000e+000
4967:0.0000000000000000e+000
4968:0.0000000000000000e+000
4969:0.0000000000000000e+000
4970:0.0000000000000000e+000
4971:0.0000000000000000e+000
4972:0.0000000000000000e+000
4973:0.0000000000000000e+000
4974:0.0000000000000000e+000
4975:0.0000000000000000e+000
4976:0.0000000000000000e+000
4977:0.0000000000000000e+000
4978:0.0000000000000000e+000
4979:0.0000000000000000e+000
4980:0.0000000000000000e+000
4981:0.0000000000000000e+000
4982:0.0000000000000000e+000
4983:0.0000000000000000e+000
4984:0.0000000000000000e+000
4985:0.0000000000000000e+000
4986:0.0000000000000000e+000
4987:0.0000000000000000e+000
4988:0.0000000000000000e+000
4989:0.0000000000000000e+000
4990:0.0000000000000000e+000
4991:0.0000000000000000e+000
4992:0.0000000000000000e+000
4993:0.0000000000000000e+000
4994:0.0000000000000000e+000
4995:0.0000000000000000e+000
4996:0.0000000000000000e+000
4997:0.0000000000000000e+000
4998:0.0000000000000000e+000
4999:0.0000000000000000e+000
5000:0.0000000000000000e+000
5001:0.0000000000000000e+000
5002:0.0000000000000000e+000
5003:0.0000000000000000e+000
5004:0.0000000000000000e+000
5005:0.0000000000000000e+000
5006:0.0000000000000000e+000
5007:0.0000000000000000e+000
5008:0.0000000000000000e+000
5009:0.0000000000000000e+000
5010:0.0000000000000000e+000
5011:0.0000000000000000e+000
5012:0.0000000000000000e+000
5013:0.0000000000000000e+000
5014:0.0000000000000000e+000
5015:0.0000000000000000e+000
5016:0.0000000000000000e+000
5017:0.0000000000000000e+000
5018:0.0000000000000000e+000
5019:0.0000000000000000e+000
5020:0.0000000000000000e+000
5021:0.0000000000000000e+000
5022:0.0000000000000000e+000
5023:0.0000000000000000e+000
5024:0.0000000000000000e+000
5025:0.0000000000000000e+000
5026:0.0000000000000000e+000
5027:0.0000000000000000e+000
5028:0.0000000000000000e+000
5029:0.0000000000000000e+000
5030:0.0000000000000000e+000
5031:0.0000000000000000e+000
5032:0.0000000000000000e+000
5033:0.0000000000000000e+000
5034:0.0000000000000000e+000
5035:0.0000000000000000e+000
5036:0.0000000000000000e+000
5037:0.0000000000000000e+000
5038:0.0000000000000000e+000
5039:0.0000000000000000e+000
5040:0.0000000000000000e+000
5041:0.0000000000000000e+000
5042:0.0000000000000000e+000
5043:0.0000000000000000e+000
5044:0.0000000000000000e+000
5045:0.0000000000000000e+000
5046:0.0000000000000000e+000
5047:0.0000000000000000e+000
5048:0.0000000000000000e+000
5049:0.0000000000000000e+000
5050:0.0000000000000000e+000
5051:0.0000000000000000e+000
5052:0.0000000000000000e+000
5053:0.0000000000000000e+000
5054:0.0000000000000000e+000
5055:0.0000000000000000e+000
5056:0.0000000000000000e+000
5057:0.0000000000000000e+000
5058:0.0000000000000000e+000
5059:0.0000000000000000e+000
5060:0.0000000000000000e+000
5061:0.0000000000000000e+000
5062:0.0000000000000000e+000
5063:0.0000000000000000e+000
5064:0.0000000000000000e+000
5065:0.0000000000000000e+000
5066:0.0000000000000000e+000
5067:0.0000000000000000e+000
5068:0.0000000000000000e+000
5069:0.0000000000000000e+000
5070:0.0000000000000000e+000
5071:0.0000000000000000e+000
5072:0.0000000000000000e+000
5073:0.0000000000000000e+000
5074:0.0000000000000000e+000
5075:0.0000000000000000e+000
5076:0.0000000000000000e+000
5077:0.0000000000000000e+000
5078:0.0000000000000000e+000
5079:0.0000000000000000e+000
5080:0.0000000000000000e+000
5081:0.0000000000000000e+000
5082:0.0000000000000000e+000
5083:0.0000000000000000e+000
5084:0.0000000000000000e+000
5085:0.0000000000000000e+000
5086:0.0000000000000000e+000
5087:0.0000000000000000e+000
5088:0.0000000000000000e+000
5089:0.0000000000000000e+000
5090:0.0000000000000000e+000
5091:0.0000000000000000e+000
5092:0.0000000000000000e+000
5093:0.0000000000000000e+000
5094:0.0000000000000000e+000
5095:0.0000000000000000e+000
5096:0.0000000000000000e+000
5097:0.0000000000000000e+000
5098:0.0000000000000000e+000
5099:0.0000000000000000e+000
5100:0.0000000000000000e+000
5101:0.0000000000000000e+000
5102:0.0000000000000000e+000
5103:0.0000000000000000e+000
5104:0.0000000000000000e+000
5105:0.0000000000000000e+000
5106:0.0000000000000000e+000
5107:0.0000000000000000e+000
5108:0.0000000000000000e+000
5109:0.0000000000000000e+000
5110:0.0000000000000000e+000
5111:0.0000000000000000e+000
5112:0.0000000000000000e+000
5113:0.0000000000000000e+000
5114:0.0000000000000000e+000
5115:0.0000000000000000e+000
5116:0.0000000000000000e+000
5117:0.0000000000000000e+000
5118:0.0000000000000000e+000
5119:0.0000000000000000e+000
5120:0.0000000000000000e+000
5121:0.0000000000000000e+000
5122:0.0000000000000000e+000
5123:0.0000000000000000e+000
5124:0.0000000000000000e+000
5125:0.0000000000000000e+000
5126:0.0000000000000000e+000
5127:0.0000000000000000e+000
5128:0.0000000000000000e+000
5129:0.0000000000000000e+000
5130:0.0000000000000000e+000
5131:0.0000000000000000e+000
5132:0.0000000000000000e+000
5133:0.0000000000000000e+000
5134:0.0000000000000000e+000
5135:0.0000000000000000e+000
5136:0.0000000000000000e+000
5137:0.0000000000000000e+000
5138:0.0000000000000000e+000
5139:0.0000000000000000e+000
5140:0.0000000000000000e+000
5141:0.0000000000000000e+000
5142:0.0000000000000000e+000
5143:0.0000000000000000e+000
5144:0.0000000000000000e+000
5145:0.0000000000000000e+000
5146:0.0000000000000000e+000
5147:0.0000000000000000e+000
5148:0.0000000000000000e+000
5149:0.0000000000000000e+000
5150:0.0000000000000000e+000
5151:0.0000000000000000e+000
5152:0.0000000000000000e+000
5153:0.0000000000000000e+000
5154:0.0000000000000000e+000
5155:0.0000000000000000e+000
5156:0.0000000000000000e+000
5157:0.0000000000000000e+000
5158:0.0000000000000000e+000
5159:0.0000000000000000e+000
5160:0.0000000000000000e+000
5161:0.0000000000000000e+000
5162:0.0000000000000000e+000
5163:0.0000000000000000e+000
5164:0.0000000000000000e+000
5165:0.0000000000000000e+000
5166:0.0000000000000000e+000
5167:0.0000000000000000e+000
5168:0.0000000000000000e+000
5169:0.0000000000000000e+000
5170:0.0000000000000000e+000
5171:0.0000000000000000e+000
5172:0.0000000000000000e+000
5173:0.0000000000000000e+000
5174:0.0000000000000000e+000
5175:0.0000000000000000e+000
5176:0.0000000000000000e+000
5177:0.0000000000000000e+000
5178:0.0000000000000000e+000
5179:0.0000000000000000e+000
5180:0.0000000000000000e+000
5181:0.0000000000000000e+000
5182:0.0000000000000000e+000
5183:0.0000000000000000e+000
5184:0.0000000000000000e+000
5185:0.0000000000000000e+000
5186:0.0000000000000000e+000
5187:0.0000000000000000e+000
5188:0.0000000000000000e+000
5189:0.0000000000000000e+000
5190:0.0000000000000000e+000
5191:0.0000000000000000e+000
5192:0.0000000000000000e+000
5193:0.0000000000000000e+000
5194:0.0000000000000000e+000
5195:0.0000000000000000e+000
5196:0.0000000000000000e+000
5197:0.0000000000000000e+000
5198:0.0000000000000000e+000
5199:0.0000000000000000e+000
5200:0.0000000000000000e+000
5201:0.0000000000000000e+000
5202:0.0000000000000000e+000
5203:0.0000000000000000e+000
5204:0.0000000000000000e+000
5205:0.0000000000000000e+000
5206:0.0000000000000000e+000
5207:0.0000000000000000e+000
5208:0.0000000000000000e+000
5209:0.0000000000000000e+000
5210:0.0000000000000000e+000
5211:0.0000000000000000e+000
5212:0.0000000000000000e+000
5213:0.0000000000000000e+000
5214:0.0000000000000000e+000
5215:0.0000000000000000e+000
5216:0.0000000000000000e+000
5217:0.0000000000000000e+000
5218:0.0000000000000000e+000
5219:0.0000000000000000e+000
5220:0.0000000000000000e+000
5221:0.0000000000000000e+000
5222:0.0000000000000000e+000
5223:0.0000000000000000e+000
5224:0.0000000000000000e+000
5225:0.0000000000000000e+000
5226:0.0000000000000000e+000
5227:0.0000000000000000e+000
5228:0.0000000000000000e+000
5229:0.0000000000000000e+000
5230:0.0000000000000000e+000
5231:0.0000000000000000e+000
5232:0.0000000000000000e+000
5233:0.0000000000000000e+000
5234:0.0000000000000000e+000
5235:0.0000000000000000e+000
5236:0.0000000000000000e+000
5237:0.0000000000000000e+000
5238:0.0000000000000000e+000
5239:0.0000000000000000e+000
5240:0.0000000000000000e+000
5241:0.0000000000000000e+000
5242:0.0000000000000000e+000
5243:0.0000000000000000e+000
5244:0.0000000000000000e+000
5245:0.0000000000000000e+000
5246:0.0000000000000000e+000
5247:0.0000000000000000e+000
5248:0.0000000000000000e+000
5249:0.0000000000000000e+000
5250:0.0000000000000000e+000
5251:0.0000000000000000e+000
5252:0.0000000000000000e+000
5253:0.0000000000000000e+000
5254:0.0000000000000000e+000
5255:0.0000000000000000e+000
5256:0.0000000000000000e+000
5257:0.0000000000000000e+000
5258:0.0000000000000000e+000
5259:0.0000000000000000e+000
5260:0.0000000000000000e+000
5261:0.0000000000000000e+000
5262:0.0000000000000000e+000
5263:0.0000000000000000e+000
5264:0.0000000000000000e+000
5265:0.0000000000000000e+000
5266:0.0000000000000000e+000
5267:0.0000000000000000e+000
5268:0.0000000000000000e+000
5269:0.0000000000000000e+000
5270:0.0000000000000000e+000
5271:0.0000000000000000e+000
5272:0.0000000000000000e+000
5273:0.0000000000000000e+000
5274:0.0000000000000000e+000
5275:0.0000000000000000e+000
5276:0.0000000000000000e+000
5277:0.0000000000000000e+000
5278:0.0000000000000000e+000
5279:0.0000000000000000e+000
5280:0.0000000000000000e+000
5281:0.0000000000000000e+000
5282:0.0000000000000000e+000
5283:0.0000000000000000e+000
5284:0.0000000000000000e+000
5285:0.0000000000000000e+000
5286:0.0000000000000000e+000
5287:0.0000000000000000e+000
5288:0.0000000000000000e+000
5289:0.0000000000000000e+000
5290:0.0000000000000000e+000
5291:0.0000000000000000e+000
5292:0.0000000000000000e+000
5293:0.0000000000000000e+000
5294:0.0000000000000000e+000
5295:0.0000000000000000e+000
5296:0.0000000000000000e+000
5297:0.0000000000000000e+000
5298:0.0000000000000000e+000
5299:0.0000000000000000e+000
5300:0.0000000000000000e+000
5301:0.0000000000000000e+000
5302:0.0000000000000000e+000
5303:0.0000000000000000e+000
5304:0.0000000000000000e+000
5305:0.0000000000000000e+000
5306:0.0000000000000000e+000
5307:0.0000000000000000e+000
5308:0.0000000000000000e+000
5309:0.0000000000000000e+000
5310:0.0000000000000000e+000
5311:0.0000000000000000e+000
5312:0.0000000000000000e+000
5313:0.0000000000000000e+000
5314:0.0000000000000000e+000
5315:0.0000000000000000e+000
5316:0.0000000000000000e+000
5317:0.0000000000000000e+000
5318:0.0000000000000000e+000
5319:0.0000000000000000e+000
5320:0.0000000000000000e+000
5321:0.0000000000000000e+000
5322:0.0000000000000000e+000
5323:0.0000000000000000e+000
5324:0.0000000000000000e+000
5325:0.0000000000000000e+000
5326:0.0000000000000000e+000
5327:0.0000000000000000e+000
5328:0.0000000000000000e+000
5329:0.0000000000000000e+000
5330:0.0000000000000000e+000
5331:0.0000000000000000e+000
5332:0.0000000000000000e+000
5333:0.0000000000000000e+000
5334:0.0000000000000000e+000
5335:0.0000000000000000e+000
5336:0.0000000000000000e+000
5337:0.0000000000000000e+000
5338:0.0000000000000000e+000
5339:0.0000000000000000e+000
5340:0.0000000000000000e+000
5341:0.0000000000000000e+000
5342:0.0000000000000000e+000
5343:0.0000000000000000e+000
5344:0.0000000000000000e+000
5345:0.0000000000000000e+000
5346:0.0000000000000000e+000
5347:0.0000000000000000e+000
5348:0.0000000000000000e+000
5349:0.0000000000000000e+000
5350:0.0000000000000000e+000
5351:0.0000000000000000e+000
5352:0.0000000000000000e+000
5353:0.0000000000000000e+000
5354:0.0000000000000000e+000
5355:0.0000000000000000e+000
5356:0.0000000000000000e+000
5357:0.0000000000000000e+000
5358:0.0000000000000000e+000
5359:0.0000000000000000e+000
5360:0.0000000000000000e+000
5361:0.0000000000000000e+000
5362:0.0000000000000000e+000
5363:0.0000000000000000e+000
5364:0.0000000000000000e+000
5365:0.0000000000000000e+000
5366:0.0000000000000000e+000
5367:0.0000000000000000e+000
5368:0.0000000000000000e+000
5369:0.0000000000000000e+000
5370:0.0000000000000000e+000
5371:0.0000000000000000e+000
5372:0.0000000000000000e+000
5373:0.0000000000000000e+000
5374:0.0000000000000000e+000
5375:0.0000000000000000e+000
5376:0.0000000000000000e+000
5377:0.0000000000000000e+000
5378:0.0000000000000000e+000
5379:0.0000000000000000e+000
5380:0.0000000000000000e+000
5381:0.0000000000000000e+000
5382:0.0000000000000000e+000
5383:0.0000000000000000e+000
5384:0.0000000000000000e+000
5385:0.0000000000000000e+000
5386:0.0000000000000000e+000
5387:0.0000000000000000e+000
5388:0.0000000000000000e+000
5389:0.0000000000000000e+000
5390:0.0000000000000000e+000
5391:0.0000000000000000e+000
5392:0.0000000000000000e+000
5393:0.0000000000000000e+000
5394:0.0000000000000000e+000
5395:0.0000000000000000e+000
5396:0.0000000000000000e+000
5397:0.0000000000000000e+000
5398:0.0000000000000000e+000
5399:0.0000000000000000e+000
5400:0.0000000000000000e+000
5401:0.0000000000000000e+000
5402:0.0000000000000000e+000
5403:0.0000000000000000e+000
5404:0.0000000000000000e+000
5405:0.0000000000000000e+000
5406:0.0000000000000000e+000
5407:0.0000000000000000e+000
5408:0.0000000000000000e+000
5409:0.0000000000000000e+000
5410:0.0000000000000000e+000
5411:0.0000000000000000e+000
5412:0.0000000000000000e+000
5413:0.0000000000000000e+000
5414:0.0000000000000000e+000
5415:0.0000000000000000e+000
5416:0.0000000000000000e+000
5417:0.0000000000000000e+000
5418:0.0000000000000000e+000
5419:0.0000000000000000e+000
5420:0.0000000000000000e+000
5421:0.0000000000000000e+000
5422:0.0000000000000000e+000
5423:0.0000000000000000e+000
5424:0.0000000000000000e+000
5425:0.0000000000000000e+000
5426:0.0000000000000000e+000
5427:0.0000000000000000e+000
5428:0.0000000000000000e+000
5429:0.0000000000000000e+000
5430:0.0000000000000000e+000
5431:0.0000000000000000e+000
5432:0.0000000000000000e+000
5433:0.0000000000000000e+000
5434:0.0000000000000000e+000
5435:0.0000000000000000e+000
5436:0.0000000000000000e+000
5437:0.0000000000000000e+000
5438:0.0000000000000000e+000
5439:0.0000000000000000e+000
5440:0.0000000000000000e+000
5441:0.0000000000000000e+000
5442:0.0000000000000000e+000
5443:0.0000000000000000e+000
5444:0.0000000000000000e+000
5445:0.0000000000000000e+000
5446:0.0000000000000000e+000
5447:0.0000000000000000e+000
5448:0.0000000000000000e+000
5449:0.0000000000000000e+000
5450:0.0000000000000000e+000
5451:0.0000000000000000e+000
5452:0.0000000000000000e+000
5453:0.0000000000000000e+000
5454:0.0000000000000000e+000
5455:0.0000000000000000e+000
5456:0.0000000000000000e+000
5457:0.0000000000000000e+000
5458:0.0000000000000000e+000
5459:0.0000000000000000e+000
5460:0.0000000000000000e+000
5461:0.0000000000000000e+000
5462:0.0000000000000000e+000
5463:0.0000000000000000e+000
5464:0.0000000000000000e+000
5465:0.0000000000000000e+000
5466:0.0000000000000000e+000
5467:0.0000000000000000e+000
5468:0.0000000000000000e+000
5469:0.0000000000000000e+000
5470:0.0000000000000000e+000
5471:0.0000000000000000e+000
5472:0.0000000000000000e+000
5473:0.0000000000000000e+000
5474:0.0000000000000000e+000
5475:0.0000000000000000e+000
5476:0.0000000000000000e+000
5477:0.0000000000000000e+000
5478:0.0000000000000000e+000
5479:0.0000000000000000e+000
5480:0.0000000000000000e+000
5481:0.0000000000000000e+000
5482:0.0000000000000000e+000
5483:0.0000000000000000e+000
5484:0.0000000000000000e+000
5485:0.0000000000000000e+000
5486:0.0000000000000000e+000
5487:0.0000000000000000e+000
5488:0.0000000000000000e+000
5489:0.0000000000000000e+000
5490:0.0000000000000000e+000
5491:0.0000000000000000e+000
5492:0.0000000000000000e+000
5493:0.0000000000000000e+000
5494:0.0000000000000000e+000
5495:0.0000000000000000e+000
5496:0.0000000000000000e+000
5497:0.0000000000000000e+000
5498:0.0000000000000000e+000
5499:0.0000000000000000e+000
5500:0.0000000000000000e+000
5501:0.0000000000000000e+000
5502:0.0000000000000000e+000
5503:0.0000000000000000e+000
5504:0.0000000000000000e+000
5505:0.0000000000000000e+000
5506:0.0000000000000000e+000
5507:0.0000000000000000e+000
5508:0.0000000000000000e+000
5509:0.0000000000000000e+000
5510:0.0000000000000000e+000
5511:0.0000000000000000e+000
5512:0.0000000000000000e+000
5513:0.0000000000000000e+000
5514:0.0000000000000000e+000
5515:0.0000000000000000e+000
5516:0.0000000000000000e+000
5517:0.0000000000000000e+000
5518:0.0000000000000000e+000
5519:0.0000000000000000e+000
5520:0.0000000000000000e+000
5521:0.0000000000000000e+000
5522:0.0000000000000000e+000
5523:0.0000000000000000e+000
5524:0.0000000000000000e+000
5525:0.0000000000000000e+000
5526:0.0000000000000000e+000
5527:0.0000000000000000e+000
5528:0.0000000000000000e+000
5529:0.0000000000000000e+000
5530:0.0000000000000000e+000
5531:0.0000000000000000e+000
5532:0.0000000000000000e+000
5533:0.0000000000000000e+000
5534:0.0000000000000000e+000
5535:0.0000000000000000e+000
5536:0.0000000000000000e+000
5537:0.0000000000000000e+000
5538:0.0000000000000000e+000
5539:0.0000000000000000e+000
5540:0.0000000000000000e+000
5541:0.0000000000000000e+000
5542:0.0000000000000000e+000
5543:0.0000000000000000e+000
5544:0.0000000000000000e+000
5545:0.0000000000000000e+000
5546:0.0000000000000000e+000
5547:0.0000000000000000e+000
5548:0.0000000000000000e+000
5549:0.0000000000000000e+000
5550:0.0000000000000000e+000
5551:0.0000000000000000e+000
5552:0.0000000000000000e+000
5553:0.0000000000000000e+000
5554:0.0000000000000000e+000
5555:0.0000000000000000e+000
5556:0.0000000000000000e+000
5557:0.0000000000000000e+000
5558:0.0000000000000000e+000
5559:0.0000000000000000e+000
5560:0.0000000000000000e+000
5561:0.0000000000000000e+000
5562:0.0000000000000000e+000
5563:0.0000000000000000e+000
5564:0.0000000000000000e+000
5565:0.0000000000000000e+000
5566:0.0000000000000000e+000
5567:0.0000000000000000e+000
5568:0.0000000000000000e+000
5569:0.0000000000000000e+000
5570:0.0000000000000000e+000
5571:0.0000000000000000e+000
5572:0.0000000000000000e+000
5573:0.0000000000000000e+000
5574:0.0000000000000000e+000
5575:0.0000000000000000e+000
5576:0.0000000000000000e+000
5577:0.0000000000000000e+000
5578:0.0000000000000000e+000
5579:0.0000000000000000e+000
5580:0.0000000000000000e+000
5581:0.0000000000000000e+000
5582:0.0000000000000000e+000
5583:0.0000000000000000e+000
5584:0.0000000000000000e+000
5585:0.0000000000000000e+000
5586:0.0000000000000000e+000
5587:0.0000000000000000e+000
5588:0.0000000000000000e+000
5589:0.0000000000000000e+000
5590:0.0000000000000000e+000
5591:0.0000000000000000e+000
5592:0.0000000000000000e+000
5593:0.0000000000000000e+000
5594:0.0000000000000000e+000
5595:0.0000000000000000e+000
5596:0.0000000000000000e+000
5597:0.0000000000000000e+000
5598:0.0000000000000000e+000
5599:0.0000000000000000e+000
5600:0.0000000000000000e+000
5601:0.0000000000000000e+000
5602:0.0000000000000000e+000
5603:0.0000000000000000e+000
5604:0.0000000000000000e+000
5605:0.0000000000000000e+000
5606:0.0000000000000000e+000
5607:0.0000000000000000e+000
5608:0.0000000000000000e+000
5609:0.0000000000000000e+000
5610:0.0000000000000000e+000
5611:0.0000000000000000e+000
5612:0.0000000000000000e+000
5613:0.0000000000000000e+000
5614:0.0000000000000000e+000
5615:0.0000000000000000e+000
5616:0.0000000000000000e+000
5617:0.0000000000000000e+000
5618:0.0000000000000000e+000
5619:0.0000000000000000e+000
5620:0.0000000000000000e+000
5621:0.0000000000000000e+000
5622:0.0000000000000000e+000
5623:0.0000000000000000e+000
5624:0.0000000000000000e+000
5625:0.0000000000000000e+000
5626:0.0000000000000000e+000
5627:0.0000000000000000e+000
5628:0.0000000000000000e+000
5629:0.0000000000000000e+000
5630:0.0000000000000000e+000
5631:0.0000000000000000e+000
5632:0.0000000000000000e+000
5633:0.0000000000000000e+000
5634:0.0000000000000000e+000
5635:0.0000000000000000e+000
5636:0.0000000000000000e+000
5637:0.0000000000000000e+000
5638:0.0000000000000000e+000
5639:0.0000000000000000e+000
5640:0.0000000000000000e+000
5641:0.0000000000000000e+000
5642:0.0000000000000000e+000
5643:0.0000000000000000e+000
5644:0.0000000000000000e+000
5645:0.0000000000000000e+000
5646:0.0000000000000000e+000
5647:0.0000000000000000e+000
5648:0.0000000000000000e+000
5649:0.0000000000000000e+000
5650:0.0000000000000000e+000
5651:0.0000000000000000e+000
5652:0.0000000000000000e+000
5653:0.0000000000000000e+000
5654:0.0000000000000000e+000
5655:0.0000000000000000e+000
5656:0.0000000000000000e+000
5657:0.0000000000000000e+000
5658:0.0000000000000000e+000
5659:0.0000000000000000e+000
5660:0.0000000000000000e+000
5661:0.0000000000000000e+000
5662:0.0000000000000000e+000
5663:0.0000000000000000e+000
5664:0.0000000000000000e+000
5665:0.0000000000000000e+000
5666:0.0000000000000000e+000
5667:0.0000000000000000e+000
5668:0.0000000000000000e+000
5669:0.0000000000000000e+000
5670:0.0000000000000000e+000
5671:0.0000000000000000e+000
5672:0.0000000000000000e+000
5673:0.0000000000000000e+000
5674:0.0000000000000000e+000
5675:0.0000000000000000e+000
5676:0.0000000000000000e+000
5677:0.0000000000000000e+000
5678:0.0000000000000000e+000
5679:0.0000000000000000e+000
5680:0.0000000000000000e+000
5681:0.0000000000000000e+000
5682:0.0000000000000000e+000
5683:0.0000000000000000e+000
5684:0.0000000000000000e+000
5685:0.0000000000000000e+000
5686:0.0000000000000000e+000
5687:0.0000000000000000e+000
5688:0.0000000000000000e+000
5689:0.0000000000000000e+000
5690:0.0000000000000000e+000
5691:0.0000000000000000e+000
5692:0.0000000000000000e+000
5693:0.0000000000000000e+000
5694:0.0000000000000000e+000
5695:0.0000000000000000e+000
5696:0.0000000000000000e+000
5697:0.0000000000000000e+000
5698:0.0000000000000000e+000
5699:0.0000000000000000e+000
5700:0.0000000000000000e+000
5701:0.0000000000000000e+000
5702:0.0000000000000000e+000
5703:0.0000000000000000e+000
5704:0.0000000000000000e+000
5705:0.0000000000000000e+000
5706:0.0000000000000000e+000
5707:0.0000000000000000e+000
5708:0.0000000000000000e+000
5709:0.0000000000000000e+000
5710:0.0000000000000000e+000
5711:0.0000000000000000e+000
5712:0.0000000000000000e+000
5713:0.0000000000000000e+000
5714:0.0000000000000000e+000
5715:0.0000000000000000e+000
5716:0.0000000000000000e+000
5717:0.0000000000000000e+000
5718:0.0000000000000000e+000
5719:0.0000000000000000e+000
5720:0.0000000000000000e+000
5721:0.0000000000000000e+000
5722:0.0000000000000000e+000
5723:0.0000000000000000e+000
5724:0.0000000000000000e+000
5725:0.0000000000000000e+000
5726:0.0000000000000000e+000
5727:0.0000000000000000e+000
5728:0.0000000000000000e+000
5729:0.0000000000000000e+000
5730:0.0000000000000000e+000
5731:0.0000000000000000e+000
5732:0.0000000000000000e+000
5733:0.0000000000000000e+000
5734:0.0000000000000000e+000
5735:0.0000000000000000e+000
5736:0.0000000000000000e+000
5737:0.0000000000000000e+000
5738:0.0000000000000000e+000
5739:0.0000000000000000e+000
5740:0.0000000000000000e+000
5741:0.0000000000000000e+000
5742:0.0000000000000000e+000
5743:0.0000000000000000e+000
5744:0.0000000000000000e+000
5745:0.0000000000000000e+000
5746:0.0000000000000000e+000
5747:0.0000000000000000e+000
5748:0.0000000000000000e+000
5749:0.0000000000000000e+000
5750:0.0000000000000000e+000
5751:0.0000000000000000e+000
5752:0.0000000000000000e+000
5753:0.0000000000000000e+000
5754:0.0000000000000000e+000
5755:0.0000000000000000e+000
5756:0.0000000000000000e+000
5757:0.0000000000000000e+000
5758:0.0000000000000000e+000
5759:0.0000000000000000e+000
5760:0.0000000000000000e+000
5761:0.0000000000000000e+000
5762:0.0000000000000000e+000
5763:0.0000000000000000e+000
5764:0.0000000000000000e+000
5765:0.0000000000000000e+000
5766:0.0000000000000000e+000
5767:0.0000000000000000e+000
5768:0.0000000000000000e+000
5769:0.0000000000000000e+000
5770:0.0000000000000000e+000
5771:0.0000000000000000e+000
5772:0.0000000000000000e+000
5773:0.0000000000000000e+000
5774:0.0000000000000000e+000
5775:0.0000000000000000e+000
5776:0.0000000000000000e+000
5777:0.0000000000000000e+000
5778:0.0000000000000000e+000
5779:0.0000000000000000e+000
5780:0.0000000000000000e+000
5781:0.0000000000000000e+000
5782:0.0000000000000000e+000
5783:0.0000000000000000e+000
5784:0.0000000000000000e+000
5785:0.0000000000000000e+000
5786:0.0000000000000000e+000
5787:0.0000000000000000e+000
5788:0.0000000000000000e+000
5789:0.0000000000000000e+000
5790:0.0000000000000000e+000
5791:0.0000000000000000e+000
5792:0.0000000000000000e+000
5793:0.0000000000000000e+000
5794:0.0000000000000000e+000
5795:0.0000000000000000e+000
5796:0.0000000000000000e+000
5797:0.0000000000000000e+000
5798:0.0000000000000000e+000
5799:0.0000000000000000e+000
5800:0.0000000000000000e+000
5801:0.0000000000000000e+000
5802:0.0000000000000000e+000
5803:0.0000000000000000e+000
5804:0.0000000000000000e+000
5805:0.0000000000000000e+000
5806:0.0000000000000000e+000
5807:0.0000000000000000e+000
5808:0.0000000000000000e+000
5809:0.0000000000000000e+000
5810:0.0000000000000000e+000
5811:0.0000000000000000e+000
5812:0.0000000000000000e+000
5813:0.0000000000000000e+000
5814:0.0000000000000000e+000
5815:0.0000000000000000e+000
5816:0.0000000000000000e+000
5817:0.0000000000000000e+000
5818:0.0000000000000000e+000
5819:0.0000000000000000e+000
5820:0.0000000000000000e+000
5821:0.0000000000000000e+000
5822:0.0000000000000000e+000
5823:0.0000000000000000e+000
5824:0.0000000000000000e+000
5825:0.0000000000000000e+000
5826:0.0000000000000000e+000
5827:0.0000000000000000e+000
5828:0.0000000000000000e+000
5829:0.0000000000000000e+000
5830:0.0000000000000000e+000
5831:0.0000000000000000e+000
5832:0.0000000000000000e+000
5833:0.0000000000000000e+000
5834:0.0000000000000000e+000
5835:0.0000000000000000e+000
5836:0.0000000000000000e+000
5837:0.0000000000000000e+000
5838:0.0000000000000000e+000
5839:0.0000000000000000e+000
5840:0.0000000000000000e+000
5841:0.0000000000000000e+000
5842:0.0000000000000000e+000
5843:0.0000000000000000e+000
5844:0.0000000000000000e+000
5845:0.0000000000000000e+000
5846:0.0000000000000000e+000
5847:0.0000000000000000e+000
5848:0.0000000000000000e+000
5849:0.0000000000000000e+000
5850:0.0000000000000000e+000
5851:0.0000000000000000e+000
5852:0.0000000000000000e+000
5853:0.0000000000000000e+000
5854:0.0000000000000000e+000
5855:0.0000000000000000e+000
5856:0.0000000000000000e+000
5857:0.0000000000000000e+000
5858:0.0000000000000000e+000
5859:0.0000000000000000e+000
5860:0.0000000000000000e+000
5861:0.0000000000000000e+000
5862:0.0000000000000000e+000
5863:0.0000000000000000e+000
5864:0.0000000000000000e+000
5865:0.0000000000000000e+000
5866:0.0000000000000000e+000
5867:0.0000000000000000e+000
5868:0.0000000000000000e+000
5869:0.0000000000000000e+000
5870:0.0000000000000000e+000
5871:0.0000000000000000e+000
5872:0.0000000000000000e+000
5873:0.0000000000000000e+000
5874:0.0000000000000000e+000
5875:0.0000000000000000e+000
5876:0.0000000000000000e+000
5877:0.0000000000000000e+000
5878:0.0000000000000000e+000
5879:0.0000000000000000e+000
5880:0.0000000000000000e+000
5881:0.0000000000000000e+000
5882:0.0000000000000000e+000
5883:0.0000000000000000e+000
5884:0.0000000000000000e+000
5885:0.0000000000000000e+000
5886:0.0000000000000000e+000
5887:0.0000000000000000e+000
5888:0.0000000000000000e+000
5889:0.0000000000000000e+000
5890:0.0000000000000000e+000
5891:0.0000000000000000e+000
5892:0.0000000000000000e+000
5893:0.0000000000000000e+000
5894:0.0000000000000000e+000
5895:0.0000000000000000e+000
5896:0.0000000000000000e+000
5897:0.0000000000000000e+000
5898:0.0000000000000000e+000
5899:0.0000000000000000e+000
5900:0.0000000000000000e+000
5901:0.0000000000000000e+000
5902:0.0000000000000000e+000
5903:0.0000000000000000e+000
5904:0.0000000000000000e+000
5905:0.0000000000000000e+000
5906:0.0000000000000000e+000
5907:0.0000000000000000e+000
5908:0.0000000000000000e+000
5909:0.0000000000000000e+000
5910:0.0000000000000000e+000
5911:0.0000000000000000e+000
5912:0.0000000000000000e+000
5913:0.0000000000000000e+000
5914:0.0000000000000000e+000
5915:0.0000000000000000e+000
5916:0.0000000000000000e+000
5917:0.0000000000000000e+000
5918:0.0000000000000000e+000
5919:0.0000000000000000e+000
5920:0.0000000000000000e+000
5921:0.0000000000000000e+000
5922:0.0000000000000000e+000
5923:0.0000000000000000e+000
5924:0.0000000000000000e+000
5925:0.0000000000000000e+000
5926:0.0000000000000000e+000
5927:0.0000000000000000e+000
5928:0.0000000000000000e+000
5929:0.0000000000000000e+000
5930:0.0000000000000000e+000
5931:0.0000000000000000e+000
5932:0.0000000000000000e+000
5933:0.0000000000000000e+000
5934:0.0000000000000000e+000
5935:0.0000000000000000e+000
5936:0.0000000000000000e+000
5937:0.0000000000000000e+000
5938:0.0000000000000000e+000
5939:0.0000000000000000e+000
5940:0.0000000000000000e+000
5941:0.0000000000000000e+000
5942:0.0000000000000000e+000
5943:0.0000000000000000e+000
5944:0.0000000000000000e+000
5945:0.0000000000000000e+000
5946:0.0000000000000000e+000
5947:0.0000000000000000e+000
5948:0.0000000000000000e+000
5949:0.0000000000000000e+000
5950:0.0000000000000000e+000
5951:0.0000000000000000e+000
5952:0.0000000000000000e+000
5953:0.0000000000000000e+000
5954:0.0000000000000000e+000
5955:0.0000000000000000e+000
5956:0.0000000000000000e+000
5957:0.0000000000000000e+000
5958:0.0000000000000000e+000
5959:0.0000000000000000e+000
5960:0.0000000000000000e+000
5961:0.0000000000000000e+000
5962:0.0000000000000000e+000
5963:0.0000000000000000e+000
5964:0.0000000000000000e+000
5965:0.0000000000000000e+000
5966:0.0000000000000000e+000
5967:0.0000000000000000e+000
5968:0.0000000000000000e+000
5969:0.0000000000000000e+000
5970:0.0000000000000000e+000
5971:0.0000000000000000e+000
5972:0.0000000000000000e+000
5973:0.0000000000000000e+000
5974:0.0000000000000000e+000
5975:0.0000000000000000e+000
5976:0.0000000000000000e+000
5977:0.0000000000000000e+000
5978:0.0000000000000000e+000
5979:0.0000000000000000e+000
5980:0.0000000000000000e+000
5981:0.0000000000000000e+000
5982:0.0000000000000000e+000
5983:0.0000000000000000e+000
5984:0.0000000000000000e+000
5985:0.0000000000000000e+000
5986:0.0000000000000000e+000
5987:0.0000000000000000e+000
5988:0.0000000000000000e+000
5989:0.0000000000000000e+000
5990:0.0000000000000000e+000
5991:0.0000000000000000e+000
5992:0.0000000000000000e+000
5993:0.0000000000000000e+000
5994:0.0000000000000000e+000
5995:0.0000000000000000e+000
5996:0.0000000000000000e+000
5997:0.0000000000000000e+000
5998:0.0000000000000000e+000
5999:0.0000000000000000e+000
6000:0.0000000000000000e+000
6001:0.0000000000000000e+000
6002:0.0000000000000000e+000
6003:0.0000000000000000e+000
6004:0.0000000000000000e+000
6005:0.0000000000000000e+000
6006:0.0000000000000000e+000
6007:0.0000000000000000e+000
6008:0.0000000000000000e+000
6009:0.0000000000000000e+000
6010:0.0000000000000000e+000
6011:0.0000000000000000e+000
6012:0.0000000000000000e+000
6013:0.0000000000000000e+000
6014:0.0000000000000000e+000
6015:0.0000000000000000e+000
6016:0.0000000000000000e+000
6017:0.0000000000000000e+000
6018:0.0000000000000000e+000
6019:0.0000000000000000e+000
6020:0.0000000000000000e+000
6021:0.0000000000000000e+000
6022:0.0000000000000000e+000
6023:0.0000000000000000e+000
6024:0.0000000000000000e+000
6025:0.0000000000000000e+000
6026:0.0000000000000000e+000
6027:0.0000000000000000e+000
6028:0.0000000000000000e+000
6029:0.0000000000000000e+000
6030:0.0000000000000000e+000
6031:0.0000000000000000e+000
6032:0.0000000000000000e+000
6033:0.0000000000000000e+000
6034:0.0000000000000000e+000
6035:0.0000000000000000e+000
6036:0.0000000000000000e+000
6037:0.0000000000000000e+000
6038:0.0000000000000000e+000
6039:0.0000000000000000e+000
6040:0.0000000000000000e+000
6041:0.0000000000000000e+000
6042:0.0000000000000000e+000
6043:0.0000000000000000e+000
6044:0.0000000000000000e+000
6045:0.0000000000000000e+000
6046:0.0000000000000000e+000
6047:0.0000000000000000e+000
6048:0.0000000000000000e+000
6049:0.0000000000000000e+000
6050:0.0000000000000000e+000
6051:0.0000000000000000e+000
6052:0.0000000000000000e+000
6053:0.0000000000000000e+000
6054:0.0000000000000000e+000
6055:0.0000000000000000e+000
6056:0.0000000000000000e+000
6057:0.0000000000000000e+000
6058:0.0000000000000000e+000
6059:0.0000000000000000e+000
6060:0.0000000000000000e+000
6061:0.0000000000000000e+000
6062:0.0000000000000000e+000
6063:0.0000000000000000e+000
6064:0.0000000000000000e+000
6065:0.0000000000000000e+000
6066:0.0000000000000000e+000
6067:0.0000000000000000e+000
6068:0.0000000000000000e+000
6069:0.0000000000000000e+000
6070:0.0000000000000000e+000
6071:0.0000000000000000e+000
6072:0.0000000000000000e+000
6073:0.0000000000000000e+000
6074:0.0000000000000000e+000
6075:0.0000000000000000e+000
6076:0.0000000000000000e+000
6077:0.0000000000000000e+000
6078:0.0000000000000000e+000
6079:0.0000000000000000e+000
6080:0.0000000000000000e+000
6081:0.0000000000000000e+000
6082:0.0000000000000000e+000
6083:0.0000000000000000e+000
6084:0.0000000000000000e+000
6085:0.0000000000000000e+000
6086:0.0000000000000000e+000
6087:0.0000000000000000e+000
6088:0.0000000000000000e+000
6089:0.0000000000000000e+000
6090:0.0000000000000000e+000
6091:0.0000000000000000e+000
6092:0.0000000000000000e+000
6093:0.0000000000000000e+000
6094:0.0000000000000000e+000
6095:0.0000000000000000e+000
6096:0.0000000000000000e+000
6097:0.0000000000000000e+000
6098:0.0000000000000000e+000
6099:0.0000000000000000e+000
6100:0.0000000000000000e+000
6101:0.0000000000000000e+000
6102:0.0000000000000000e+000
6103:0.0000000000000000e+000
6104:0.0000000000000000e+000
6105:0.0000000000000000e+000
6106:0.0000000000000000e+000
6107:0.0000000000000000e+000
6108:0.0000000000000000e+000
6109:0.0000000000000000e+000
6110:0.0000000000000000e+000
6111:0.0000000000000000e+000
6112:0.0000000000000000e+000
6113:0.0000000000000000e+000
6114:0.0000000000000000e+000
6115:0.0000000000000000e+000
6116:0.0000000000000000e+000
6117:0.0000000000000000e+000
6118:0.0000000000000000e+000
6119:0.0000000000000000e+000
6120:0.0000000000000000e+000
6121:0.0000000000000000e+000
6122:0.0000000000000000e+000
6123:0.0000000000000000e+000
6124:0.0000000000000000e+000
6125:0.0000000000000000e+000
6126:0.0000000000000000e+000
6127:0.0000000000000000e+000
6128:0.0000000000000000e+000
6129:0.0000000000000000e+000
6130:0.0000000000000000e+000
6131:0.0000000000000000e+000
6132:0.0000000000000000e+000
6133:0.0000000000000000e+000
6134:0.0000000000000000e+000
6135:0.0000000000000000e+000
6136:0.0000000000000000e+000
6137:0.0000000000000000e+000
6138:0.0000000000000000e+000
6139:0.0000000000000000e+000
6140:0.0000000000000000e+000
6141:0.0000000000000000e+000
6142:0.0000000000000000e+000
6143:0.0000000000000000e+000
6144:0.0000000000000000e+000
6145:0.0000000000000000e+000
6146:0.0000000000000000e+000
6147:0.0000000000000000e+000
6148:0.0000000000000000e+000
6149:0.0000000000000000e+000
6150:0.0000000000000000e+000
6151:0.0000000000000000e+000
6152:0.0000000000000000e+000
6153:0.0000000000000000e+000
6154:0.0000000000000000e+000
6155:0.0000000000000000e+000
6156:0.0000000000000000e+000
6157:0.0000000000000000e+000
6158:0.0000000000000000e+000
6159:0.0000000000000000e+000
6160:0.0000000000000000e+000
6161:0.0000000000000000e+000
6162:0.0000000000000000e+000
6163:0.0000000000000000e+000
6164:0.0000000000000000e+000
6165:0.0000000000000000e+000
6166:0.0000000000000000e+000
6167:0.0000000000000000e+000
6168:0.0000000000000000e+000
6169:0.0000000000000000e+000
6170:0.0000000000000000e+000
6171:0.0000000000000000e+000
6172:0.0000000000000000e+000
6173:0.0000000000000000e+000
6174:0.0000000000000000e+000
6175:0.0000000000000000e+000
6176:0.0000000000000000e+000
6177:0.0000000000000000e+000
6178:0.0000000000000000e+000
6179:0.0000000000000000e+000
6180:0.0000000000000000e+000
6181:0.0000000000000000e+000
6182:0.0000000000000000e+000
6183:0.0000000000000000e+000
6184:0.0000000000000000e+000
6185:0.0000000000000000e+000
6186:0.0000000000000000e+000
6187:0.0000000000000000e+000
6188:0.0000000000000000e+000
6189:0.0000000000000000e+000
6190:0.0000000000000000e+000
6191:0.0000000000000000e+000
6192:0.0000000000000000e+000
6193:0.0000000000000000e+000
6194:0.0000000000000000e+000
6195:0.0000000000000000e+000
6196:0.0000000000000000e+000
6197:0.0000000000000000e+000
6198:0.0000000000000000e+000
6199:0.0000000000000000e+000
6200:0.0000000000000000e+000
6201:0.0000000000000000e+000
6202:0.0000000000000000e+000
6203:0.0000000000000000e+000
6204:0.0000000000000000e+000
6205:0.0000000000000000e+000
6206:0.0000000000000000e+000
6207:0.0000000000000000e+000
6208:0.0000000000000000e+000
6209:0.0000000000000000e+000
6210:0.0000000000000000e+000
6211:0.0000000000000000e+000
6212:0.0000000000000000e+000
6213:0.0000000000000000e+000
6214:0.0000000000000000e+000
6215:0.0000000000000000e+000
6216:0.0000000000000000e+000
6217:0.0000000000000000e+000
6218:0.0000000000000000e+000
6219:0.0000000000000000e+000
6220:0.0000000000000000e+000
6221:0.0000000000000000e+000
6222:0.0000000000000000e+000
6223:0.0000000000000000e+000
6224:0.0000000000000000e+000
6225:0.0000000000000000e+000
6226:0.0000000000000000e+000
6227:0.0000000000000000e+000
6228:0.0000000000000000e+000
6229:0.0000000000000000e+000
6230:0.0000000000000000e+000
6231:0.0000000000000000e+000
6232:0.0000000000000000e+000
6233:0.0000000000000000e+000
6234:0.0000000000000000e+000
6235:0.0000000000000000e+000
6236:0.0000000000000000e+000
6237:0.0000000000000000e+000
6238:0.0000000000000000e+000
6239:0.0000000000000000e+000
6240:0.0000000000000000e+000
6241:0.0000000000000000e+000
6242:0.0000000000000000e+000
6243:0.0000000000000000e+000
6244:0.0000000000000000e+000
6245:0.0000000000000000e+000
6246:0.0000000000000000e+000
6247:0.0000000000000000e+000
6248:0.0000000000000000e+000
6249:0.0000000000000000e+000
6250:0.0000000000000000e+000
6251:0.0000000000000000e+000
6252:0.0000000000000000e+000
6253:0.0000000000000000e+000
6254:0.0000000000000000e+000
6255:0.0000000000000000e+000
6256:0.0000000000000000e+000
6257:0.0000000000000000e+000
6258:0.0000000000000000e+000
6259:0.0000000000000000e+000
6260:0.0000000000000000e+000
6261:0.0000000000000000e+000
6262:0.0000000000000000e+000
6263:0.0000000000000000e+000
6264:0.0000000000000000e+000
6265:0.0000000000000000e+000
6266:0.0000000000000000e+000
6267:0.0000000000000000e+000
6268:0.0000000000000000e+000
6269:0.0000000000000000e+000
6270:0.0000000000000000e+000
6271:0.0000000000000000e+000
6272:0.0000000000000000e+000
6273:0.0000000000000000e+000
6274:0.0000000000000000e+000
6275:0.0000000000000000e+000
6276:0.0000000000000000e+000
6277:0.0000000000000000e+000
6278:0.0000000000000000e+000
6279:0.0000000000000000e+000
6280:0.0000000000000000e+000
6281:0.0000000000000000e+000
6282:0.0000000000000000e+000
6283:0.0000000000000000e+000
6284:0.0000000000000000e+000
6285:0.0000000000000000e+000
6286:0.0000000000000000e+000
6287:0.0000000000000000e+000
6288:0.0000000000000000e+000
6289:0.0000000000000000e+000
6290:0.0000000000000000e+000
6291:0.0000000000000000e+000
6292:0.0000000000000000e+000
6293:0.0000000000000000e+000
6294:0.0000000000000000e+000
6295:0.0000000000000000e+000
6296:0.0000000000000000e+000
6297:0.0000000000000000e+000
6298:0.0000000000000000e+000
6299:0.0000000000000000e+000
6300:0.0000000000000000e+000
6301:0.0000000000000000e+000
6302:0.0000000000000000e+000
6303:0.0000000000000000e+000
6304:0.0000000000000000e+000
6305:0.0000000000000000e+000
6306:0.0000000000000000e+000
6307:0.0000000000000000e+000
6308:0.0000000000000000e+000
6309:0.0000000000000000e+000
6310:0.0000000000000000e+000
6311:0.0000000000000000e+000
6312:0.0000000000000000e+000
6313:0.0000000000000000e+000
6314:0.0000000000000000e+000
6315:0.0000000000000000e+000
6316:0.0000000000000000e+000
6317:0.0000000000000000e+000
6318:0.0000000000000000e+000
6319:0.0000000000000000e+000
6320:0.0000000000000000e+000
6321:0.0000000000000000e+000
6322:0.0000000000000000e+000
6323:0.0000000000000000e+000
6324:0.0000000000000000e+000
6325:0.0000000000000000e+000
6326:0.0000000000000000e+000
6327:0.0000000000000000e+000
6328:0.0000000000000000e+000
6329:0.0000000000000000e+000
6330:0.0000000000000000e+000
6331:0.0000000000000000e+000
6332:0.0000000000000000e+000
6333:0.0000000000000000e+000
6334:0.0000000000000000e+000
6335:0.0000000000000000e+000
6336:0.0000000000000000e+000
6337:0.0000000000000000e+000
6338:0.0000000000000000e+000
6339:0.0000000000000000e+000
6340:0.0000000000000000e+000
6341:0.0000000000000000e+000
6342:0.0000000000000000e+000
6343:0.0000000000000000e+000
6344:0.0000000000000000e+000
6345:0.0000000000000000e+000
6346:0.0000000000000000e+000
6347:0.0000000000000000e+000
6348:0.0000000000000000e+000
6349:0.0000000000000000e+000
6350:0.0000000000000000e+000
6351:0.0000000000000000e+000
6352:0.0000000000000000e+000
6353:0.0000000000000000e+000
6354:0.0000000000000000e+000
6355:0.0000000000000000e+000
6356:0.0000000000000000e+000
6357:0.0000000000000000e+000
6358:0.0000000000000000e+000
6359:0.0000000000000000e+000
6360:0.0000000000000000e+000
6361:0.0000000000000000e+000
6362:0.0000000000000000e+000
6363:0.0000000000000000e+000
6364:0.0000000000000000e+000
6365:0.0000000000000000e+000
6366:0.0000000000000000e+000
6367:0.0000000000000000e+000
6368:0.0000000000000000e+000
6369:0.0000000000000000e+000
6370:0.0000000000000000e+000
6371:0.0000000000000000e+000
6372:0.0000000000000000e+000
6373:0.0000000000000000e+000
6374:0.0000000000000000e+000
6375:0.0000000000000000e+000
6376:0.0000000000000000e+000
6377:0.0000000000000000e+000
6378:0.0000000000000000e+000
6379:0.0000000000000000e+000
6380:0.0000000000000000e+000
6381:0.0000000000000000e+000
6382:0.0000000000000000e+000
6383:0.0000000000000000e+000
6384:0.0000000000000000e+000
6385:0.0000000000000000e+000
6386:0.0000000000000000e+000
6387:0.0000000000000000e+000
6388:0.0000000000000000e+000
6389:0.0000000000000000e+000
6390:0.0000000000000000e+000
6391:0.0000000000000000e+000
6392:0.0000000000000000e+000
6393:0.0000000000000000e+000
6394:0.0000000000000000e+000
6395:0.0000000000000000e+000
6396:0.0000000000000000e+000
6397:0.0000000000000000e+000
6398:0.0000000000000000e+000
6399:0.0000000000000000e+000
6400:0.0000000000000000e+000
6401:0.0000000000000000e+000
6402:0.0000000000000000e+000
6403:0.0000000000000000e+000
6404:0.0000000000000000e+000
6405:0.0000000000000000e+000
6406:0.0000000000000000e+000
6407:0.0000000000000000e+000
6408:0.0000000000000000e+000
6409:0.0000000000000000e+000
6410:0.0000000000000000e+000
6411:0.0000000000000000e+000
6412:0.0000000000000000e+000
6413:0.0000000000000000e+000
6414:0.0000000000000000e+000
6415:0.0000000000000000e+000
6416:0.0000000000000000e+000
6417:0.0000000000000000e+000
6418:0.0000000000000000e+000
6419:0.0000000000000000e+000
6420:0.0000000000000000e+000
6421:0.0000000000000000e+000
6422:0.0000000000000000e+000
6423:0.0000000000000000e+000
6424:0.0000000000000000e+000
6425:0.0000000000000000e+000
6426:0.0000000000000000e+000
6427:0.0000000000000000e+000
6428:0.0000000000000000e+000
6429:0.0000000000000000e+000
6430:0.0000000000000000e+000
6431:0.0000000000000000e+000
6432:0.0000000000000000e+000
6433:0.0000000000000000e+000
6434:0.0000000000000000e+000
6435:0.0000000000000000e+000
6436:0.0000000000000000e+000
6437:0.0000000000000000e+000
6438:0.0000000000000000e+000
6439:0.0000000000000000e+000
6440:0.0000000000000000e+000
6441:0.0000000000000000e+000
6442:0.0000000000000000e+000
6443:0.0000000000000000e+000
6444:0.0000000000000000e+000
6445:0.0000000000000000e+000
6446:0.0000000000000000e+000
6447:0.0000000000000000e+000
6448:0.0000000000000000e+000
6449:0.0000000000000000e+000
6450:0.0000000000000000e+000
6451:0.0000000000000000e+000
6452:0.0000000000000000e+000
6453:0.0000000000000000e+000
6454:0.0000000000000000e+000
6455:0.0000000000000000e+000
6456:0.0000000000000000e+000
6457:0.0000000000000000e+000
6458:0.0000000000000000e+000
6459:0.0000000000000000e+000
6460:0.0000000000000000e+000
6461:0.0000000000000000e+000
6462:0.0000000000000000e+000
6463:0.0000000000000000e+000
6464:0.0000000000000000e+000
6465:0.0000000000000000e+000
6466:0.0000000000000000e+000
6467:0.0000000000000000e+000
6468:0.0000000000000000e+000
6469:0.0000000000000000e+000
6470:0.0000000000000000e+000
6471:0.0000000000000000e+000
6472:0.0000000000000000e+000
6473:0.0000000000000000e+000
6474:0.0000000000000000e+000
6475:0.0000000000000000e+000
6476:0.0000000000000000e+000
6477:0.0000000000000000e+000
6478:0.0000000000000000e+000
6479:0.0000000000000000e+000
6480:0.0000000000000000e+000
6481:0.0000000000000000e+000
6482:0.0000000000000000e+000
6483:0.0000000000000000e+000
6484:0.0000000000000000e+000
6485:0.0000000000000000e+000
6486:0.0000000000000000e+000
6487:0.0000000000000000e+000
6488:0.0000000000000000e+000
6489:0.0000000000000000e+000
6490:0.0000000000000000e+000
6491:0.0000000000000000e+000
6492:0.0000000000000000e+000
6493:0.0000000000000000e+000
6494:0.0000000000000000e+000
6495:0.0000000000000000e+000
6496:0.0000000000000000e+000
6497:0.0000000000000000e+000
6498:0.0000000000000000e+000
6499:0.0000000000000000e+000
6500:0.0000000000000000e+000
6501:0.0000000000000000e+000
6502:0.0000000000000000e+000
6503:0.0000000000000000e+000
6504:0.0000000000000000e+000
6505:0.0000000000000000e+000
6506:0.0000000000000000e+000
6507:0.0000000000000000e+000
6508:0.0000000000000000e+000
6509:0.0000000000000000e+000
6510:0.0000000000000000e+000
6511:0.0000000000000000e+000
6512:0.0000000000000000e+000
6513:0.0000000000000000e+000
6514:0.0000000000000000e+000
6515:0.0000000000000000e+000
6516:0.0000000000000000e+000
6517:0.0000000000000000e+000
6518:0.0000000000000000e+000
6519:0.0000000000000000e+000
6520:0.0000000000000000e+000
6521:0.0000000000000000e+000
6522:0.0000000000000000e+000
6523:0.0000000000000000e+000
6524:0.0000000000000000e+000
6525:0.0000000000000000e+000
6526:0.0000000000000000e+000
6527:0.0000000000000000e+000
6528:0.0000000000000000e+000
6529:0.0000000000000000e+000
6530:0.0000000000000000e+000
6531:0.0000000000000000e+000
6532:0.0000000000000000e+000
6533:0.0000000000000000e+000
6534:0.0000000000000000e+000
6535:0.0000000000000000e+000
6536:0.0000000000000000e+000
6537:0.0000000000000000e+000
6538:0.0000000000000000e+000
6539:0.0000000000000000e+000
6540:0.0000000000000000e+000
6541:0.0000000000000000e+000
6542:0.0000000000000000e+000
6543:0.0000000000000000e+000
6544:0.0000000000000000e+000
6545:0.0000000000000000e+000
6546:0.0000000000000000e+000
6547:0.0000000000000000e+000
6548:0.0000000000000000e+000
6549:0.0000000000000000e+000
6550:0.0000000000000000e+000
6551:0.0000000000000000e+000
6552:0.0000000000000000e+000
6553:0.0000000000000000e+000
6554:0.0000000000000000e+000
6555:0.0000000000000000e+000
6556:0.0000000000000000e+000
6557:0.0000000000000000e+000
6558:0.0000000000000000e+000
6559:0.0000000000000000e+000
6560:0.0000000000000000e+000
6561:0.0000000000000000e+000
6562:0.0000000000000000e+000
6563:0.0000000000000000e+000
6564:0.0000000000000000e+000
6565:0.0000000000000000e+000
6566:0.0000000000000000e+000
6567:0.0000000000000000e+000
6568:0.0000000000000000e+000
6569:0.0000000000000000e+000
6570:0.0000000000000000e+000
6571:0.0000000000000000e+000
6572:0.0000000000000000e+000
6573:0.0000000000000000e+000
6574:0.0000000000000000e+000
6575:0.0000000000000000e+000
6576:0.0000000000000000e+000
6577:0.0000000000000000e+000
6578:0.0000000000000000e+000
6579:0.0000000000000000e+000
6580:0.0000000000000000e+000
6581:0.0000000000000000e+000
6582:0.0000000000000000e+000
6583:0.0000000000000000e+000
6584:0.0000000000000000e+000
6585:0.0000000000000000e+000
6586:0.0000000000000000e+000
6587:0.0000000000000000e+000
6588:0.0000000000000000e+000
6589:0.0000000000000000e+000
6590:0.0000000000000000e+000
6591:0.0000000000000000e+000
6592:0.0000000000000000e+000
6593:0.0000000000000000e+000
6594:0.0000000000000000e+000
6595:0.0000000000000000e+000
6596:0.0000000000000000e+000
6597:0.0000000000000000e+000
6598:0.0000000000000000e+000
6599:0.0000000000000000e+000
6600:0.0000000000000000e+000
6601:0.0000000000000000e+000
6602:0.0000000000000000e+000
6603:0.0000000000000000e+000
6604:0.0000000000000000e+000
6605:0.0000000000000000e+000
6606:0.0000000000000000e+000
6607:0.0000000000000000e+000
6608:0.0000000000000000e+000
6609:0.0000000000000000e+000
6610:0.0000000000000000e+000
6611:0.0000000000000000e+000
6612:0.0000000000000000e+000
6613:0.0000000000000000e+000
6614:0.0000000000000000e+000
6615:0.0000000000000000e+000
6616:0.0000000000000000e+000
6617:0.0000000000000000e+000
6618:0.0000000000000000e+000
6619:0.0000000000000000e+000
6620:0.0000000000000000e+000
6621:0.0000000000000000e+000
6622:0.0000000000000000e+000
6623:0.0000000000000000e+000
6624:0.0000000000000000e+000
6625:0.0000000000000000e+000
6626:0.0000000000000000e+000
6627:0.0000000000000000e+000
6628:0.0000000000000000e+000
6629:0.0000000000000000e+000
6630:0.0000000000000000e+000
6631:0.0000000000000000e+000
6632:0.0000000000000000e+000
6633:0.0000000000000000e+000
6634:0.0000000000000000e+000
6635:0.0000000000000000e+000
6636:0.0000000000000000e+000
6637:0.0000000000000000e+000
6638:0.0000000000000000e+000
6639:0.0000000000000000e+000
6640:0.0000000000000000e+000
6641:0.0000000000000000e+000
6642:0.0000000000000000e+000
6643:0.0000000000000000e+000
6644:0.0000000000000000e+000
6645:0.0000000000000000e+000
6646:0.0000000000000000e+000
6647:0.0000000000000000e+000
6648:0.0000000000000000e+000
6649:0.0000000000000000e+000
6650:0.0000000000000000e+000
6651:0.0000000000000000e+000
6652:0.0000000000000000e+000
6653:0.0000000000000000e+000
6654:0.0000000000000000e+000
6655:0.0000000000000000e+000
6656:0.0000000000000000e+000
6657:0.0000000000000000e+000
6658:0.0000000000000000e+000
6659:0.0000000000000000e+000
6660:0.0000000000000000e+000
6661:0.0000000000000000e+000
6662:0.0000000000000000e+000
6663:0.0000000000000000e+000
6664:0.0000000000000000e+000
6665:0.0000000000000000e+000
6666:0.0000000000000000e+000
6667:0.0000000000000000e+000
6668:0.0000000000000000e+000
6669:0.0000000000000000e+000
6670:0.0000000000000000e+000
6671:0.0000000000000000e+000
6672:0.0000000000000000e+000
6673:0.0000000000000000e+000
6674:0.0000000000000000e+000
6675:0.0000000000000000e+000
6676:0.0000000000000000e+000
6677:0.0000000000000000e+000
6678:0.0000000000000000e+000
6679:0.0000000000000000e+000
6680:0.0000000000000000e+000
6681:0.0000000000000000e+000
6682:0.0000000000000000e+000
6683:0.0000000000000000e+000
6684:0.0000000000000000e+000
6685:0.0000000000000000e+000
6686:0.0000000000000000e+000
6687:0.0000000000000000e+000
6688:0.0000000000000000e+000
6689:0.0000000000000000e+000
6690:0.0000000000000000e+000
6691:0.0000000000000000e+000
6692:0.0000000000000000e+000
6693:0.0000000000000000e+000
6694:0.0000000000000000e+000
6695:0.0000000000000000e+000
6696:0.0000000000000000e+000
6697:0.0000000000000000e+000
6698:0.0000000000000000e+000
6699:0.0000000000000000e+000
6700:0.0000000000000000e+000
6701:0.0000000000000000e+000
6702:0.0000000000000000e+000
6703:0.0000000000000000e+000
6704:0.0000000000000000e+000
6705:0.0000000000000000e+000
6706:0.0000000000000000e+000
6707:0.0000000000000000e+000
6708:0.0000000000000000e+000
6709:0.0000000000000000e+000
6710:0.0000000000000000e+000
6711:0.0000000000000000e+000
6712:0.0000000000000000e+000
6713:0.0000000000000000e+000
6714:0.0000000000000000e+000
6715:0.0000000000000000e+000
6716:0.0000000000000000e+000
6717:0.0000000000000000e+000
6718:0.0000000000000000e+000
6719:0.0000000000000000e+000
6720:0.0000000000000000e+000
6721:0.0000000000000000e+000
6722:0.0000000000000000e+000
6723:0.0000000000000000e+000
6724:0.0000000000000000e+000
6725:0.0000000000000000e+000
6726:0.0000000000000000e+000
6727:0.0000000000000000e+000
6728:0.0000000000000000e+000
6729:0.0000000000000000e+000
6730:0.0000000000000000e+000
6731:0.0000000000000000e+000
6732:0.0000000000000000e+000
6733:0.0000000000000000e+000
6734:0.0000000000000000e+000
6735:0.0000000000000000e+000
6736:0.0000000000000000e+000
6737:0.0000000000000000e+000
6738:0.0000000000000000e+000
6739:0.0000000000000000e+000
6740:0.0000000000000000e+000
6741:0.0000000000000000e+000
6742:0.0000000000000000e+000
6743:0.0000000000000000e+000
6744:0.0000000000000000e+000
6745:0.0000000000000000e+000
6746:0.0000000000000000e+000
6747:0.0000000000000000e+000
6748:0.0000000000000000e+000
6749:0.0000000000000000e+000
6750:0.0000000000000000e+000
6751:0.0000000000000000e+000
6752:0.0000000000000000e+000
6753:0.0000000000000000e+000
6754:0.0000000000000000e+000
6755:0.0000000000000000e+000
6756:0.0000000000000000e+000
6757:0.0000000000000000e+000
6758:0.0000000000000000e+000
6759:0.0000000000000000e+000
6760:0.0000000000000000e+000
6761:0.0000000000000000e+000
6762:0.0000000000000000e+000
6763:0.0000000000000000e+000
6764:0.0000000000000000e+000
6765:0.0000000000000000e+000
6766:0.0000000000000000e+000
6767:0.0000000000000000e+000
6768:0.0000000000000000e+000
6769:0.0000000000000000e+000
6770:0.0000000000000000e+000
6771:0.0000000000000000e+000
6772:0.0000000000000000e+000
6773:0.0000000000000000e+000
6774:0.0000000000000000e+000
6775:0.0000000000000000e+000
6776:0.0000000000000000e+000
6777:0.0000000000000000e+000
6778:0.0000000000000000e+000
6779:0.0000000000000000e+000
6780:0.0000000000000000e+000
6781:0.0000000000000000e+000
6782:0.0000000000000000e+000
6783:0.0000000000000000e+000
6784:0.0000000000000000e+000
6785:0.0000000000000000e+000
6786:0.0000000000000000e+000
6787:0.0000000000000000e+000
6788:0.0000000000000000e+000
6789:0.0000000000000000e+000
6790:0.0000000000000000e+000
6791:0.0000000000000000e+000
6792:0.0000000000000000e+000
6793:0.0000000000000000e+000
6794:0.0000000000000000e+000
6795:0.0000000000000000e+000
6796:0.0000000000000000e+000
6797:0.0000000000000000e+000
6798:0.0000000000000000e+000
6799:0.0000000000000000e+000
6800:0.0000000000000000e+000
6801:0.0000000000000000e+000
6802:0.0000000000000000e+000
6803:0.0000000000000000e+000
6804:0.0000000000000000e+000
6805:0.0000000000000000e+000
6806:0.0000000000000000e+000
6807:0.0000000000000000e+000
6808:0.0000000000000000e+000
6809:0.0000000000000000e+000
6810:0.0000000000000000e+000
6811:0.0000000000000000e+000
6812:0.0000000000000000e+000
6813:0.0000000000000000e+000
6814:0.0000000000000000e+000
6815:0.0000000000000000e+000
6816:0.0000000000000000e+000
6817:0.0000000000000000e+000
6818:0.0000000000000000e+000
6819:0.0000000000000000e+000
6820:0.0000000000000000e+000
6821:0.0000000000000000e+000
6822:0.0000000000000000e+000
6823:0.0000000000000000e+000
6824:0.0000000000000000e+000
6825:0.0000000000000000e+000
6826:0.0000000000000000e+000
6827:0.0000000000000000e+000
6828:0.0000000000000000e+000
6829:0.0000000000000000e+000
6830:0.0000000000000000e+000
6831:0.0000000000000000e+000
6832:0.0000000000000000e+000
6833:0.0000000000000000e+000
6834:0.0000000000000000e+000
6835:0.0000000000000000e+000
6836:0.0000000000000000e+000
6837:0.0000000000000000e+000
6838:0.0000000000000000e+000
6839:0.0000000000000000e+000
6840:0.0000000000000000e+000
6841:0.0000000000000000e+000
6842:0.0000000000000000e+000
6843:0.0000000000000000e+000
6844:0.0000000000000000e+000
6845:0.0000000000000000e+000
6846:0.0000000000000000e+000
6847:0.0000000000000000e+000
6848:0.0000000000000000e+000
6849:0.0000000000000000e+000
6850:0.0000000000000000e+000
6851:0.0000000000000000e+000
6852:0.0000000000000000e+000
6853:0.0000000000000000e+000
6854:0.0000000000000000e+000
6855:0.0000000000000000e+000
6856:0.0000000000000000e+000
6857:0.0000000000000000e+000
6858:0.0000000000000000e+000
6859:0.0000000000000000e+000
6860:0.0000000000000000e+000
6861:0.0000000000000000e+000
6862:0.0000000000000000e+000
6863:0.0000000000000000e+000
6864:0.0000000000000000e+000
6865:0.0000000000000000e+000
6866:0.0000000000000000e+000
6867:0.0000000000000000e+000
6868:0.0000000000000000e+000
6869:0.0000000000000000e+000
6870:0.0000000000000000e+000
6871:0.0000000000000000e+000
6872:0.0000000000000000e+000
6873:0.0000000000000000e+000
6874:0.0000000000000000e+000
6875:0.0000000000000000e+000
6876:0.0000000000000000e+000
6877:0.0000000000000000e+000
6878:0.0000000000000000e+000
6879:0.0000000000000000e+000
6880:0.0000000000000000e+000
6881:0.0000000000000000e+000
6882:0.0000000000000000e+000
6883:0.0000000000000000e+000
6884:0.0000000000000000e+000
6885:0.0000000000000000e+000
6886:0.0000000000000000e+000
6887:0.0000000000000000e+000
6888:0.0000000000000000e+000
6889:0.0000000000000000e+000
6890:0.0000000000000000e+000
6891:0.0000000000000000e+000
6892:0.0000000000000000e+000
6893:0.0000000000000000e+000
6894:0.0000000000000000e+000
6895:0.0000000000000000e+000
6896:0.0000000000000000e+000
6897:0.0000000000000000e+000
6898:0.0000000000000000e+000
6899:0.0000000000000000e+000
6900:0.0000000000000000e+000
6901:0.0000000000000000e+000
6902:0.0000000000000000e+000
6903:0.0000000000000000e+000
6904:0.0000000000000000e+000
6905:0.0000000000000000e+000
6906:0.0000000000000000e+000
6907:0.0000000000000000e+000
6908:0.0000000000000000e+000
6909:0.0000000000000000e+000
6910:0.0000000000000000e+000
6911:0.0000000000000000e+000
6912:0.0000000000000000e+000
6913:0.0000000000000000e+000
6914:0.0000000000000000e+000
6915:0.0000000000000000e+000
6916:0.0000000000000000e+000
6917:0.0000000000000000e+000
6918:0.0000000000000000e+000
6919:0.0000000000000000e+000
6920:0.0000000000000000e+000
6921:0.0000000000000000e+000
6922:0.0000000000000000e+000
6923:0.0000000000000000e+000
6924:0.0000000000000000e+000
6925:0.0000000000000000e+000
6926:0.0000000000000000e+000
6927:0.0000000000000000e+000
6928:0.0000000000000000e+000
6929:0.0000000000000000e+000
6930:0.0000000000000000e+000
6931:0.0000000000000000e+000
6932:0.0000000000000000e+000
6933:0.0000000000000000e+000
6934:0.0000000000000000e+000
6935:0.0000000000000000e+000
6936:0.0000000000000000e+000
6937:0.0000000000000000e+000
6938:0.0000000000000000e+000
6939:0.0000000000000000e+000
6940:0.0000000000000000e+000
6941:0.0000000000000000e+000
6942:0.0000000000000000e+000
6943:0.0000000000000000e+000
6944:0.0000000000000000e+000
6945:0.0000000000000000e+000
6946:0.0000000000000000e+000
6947:0.0000000000000000e+000
6948:0.0000000000000000e+000
6949:0.0000000000000000e+000
6950:0.0000000000000000e+000
6951:0.0000000000000000e+000
6952:0.0000000000000000e+000
6953:0.0000000000000000e+000
6954:0.0000000000000000e+000
6955:0.0000000000000000e+000
6956:0.0000000000000000e+000
6957:0.0000000000000000e+000
6958:0.0000000000000000e+000
6959:0.0000000000000000e+000
6960:0.0000000000000000e+000
6961:0.0000000000000000e+000
6962:0.0000000000000000e+000
6963:0.0000000000000000e+000
6964:0.0000000000000000e+000
6965:0.0000000000000000e+000
6966:0.0000000000000000e+000
6967:0.0000000000000000e+000
6968:0.0000000000000000e+000
6969:0.0000000000000000e+000
6970:0.0000000000000000e+000
6971:0.0000000000000000e+000
6972:0.0000000000000000e+000
6973:0.0000000000000000e+000
6974:0.0000000000000000e+000
6975:0.0000000000000000e+000
6976:0.0000000000000000e+000
6977:0.0000000000000000e+000
6978:0.0000000000000000e+000
6979:0.0000000000000000e+000
6980:0.0000000000000000e+000
6981:0.0000000000000000e+000
6982:0.0000000000000000e+000
6983:0.0000000000000000e+000
6984:0.0000000000000000e+000
6985:0.0000000000000000e+000
6986:0.0000000000000000e+000
6987:0.0000000000000000e+000
6988:0.0000000000000000e+000
6989:0.0000000000000000e+000
6990:0.0000000000000000e+000
6991:0.0000000000000000e+000
6992:0.0000000000000000e+000
6993:0.0000000000000000e+000
6994:0.0000000000000000e+000
6995:0.0000000000000000e+000
6996:0.0000000000000000e+000
6997:0.0000000000000000e+000
6998:0.0000000000000000e+000
6999:0.0000000000000000e+000
7000:0.0000000000000000e+000
7001:0.0000000000000000e+000
7002:0.0000000000000000e+000
7003:0.0000000000000000e+000
7004:0.0000000000000000e+000
7005:0.0000000000000000e+000
7006:0.0000000000000000e+000
7007:0.0000000000000000e+000
7008:0.0000000000000000e+000
7009:0.0000000000000000e+000
7010:0.0000000000000000e+000
7011:0.0000000000000000e+000
7012:0.0000000000000000e+000
7013:0.0000000000000000e+000
7014:0.0000000000000000e+000
7015:0.0000000000000000e+000
7016:0.0000000000000000e+000
7017:0.0000000000000000e+000
7018:0.0000000000000000e+000
7019:0.0000000000000000e+000
7020:0.0000000000000000e+000
7021:0.0000000000000000e+000
7022:0.0000000000000000e+000
7023:0.0000000000000000e+000
7024:0.0000000000000000e+000
7025:0.0000000000000000e+000
7026:0.0000000000000000e+000
7027:0.0000000000000000e+000
7028:0.0000000000000000e+000
7029:0.0000000000000000e+000
7030:0.0000000000000000e+000
7031:0.0000000000000000e+000
7032:0.0000000000000000e+000
7033:0.0000000000000000e+000
7034:0.0000000000000000e+000
7035:0.0000000000000000e+000
7036:0.0000000000000000e+000
7037:0.0000000000000000e+000
7038:0.0000000000000000e+000
7039:0.0000000000000000e+000
7040:0.0000000000000000e+000
7041:0.0000000000000000e+000
7042:0.0000000000000000e+000
7043:0.0000000000000000e+000
7044:0.0000000000000000e+000
7045:0.0000000000000000e+000
7046:0.0000000000000000e+000
7047:0.0000000000000000e+000
7048:0.0000000000000000e+000
7049:0.0000000000000000e+000
7050:0.0000000000000000e+000
7051:0.0000000000000000e+000
7052:0.0000000000000000e+000
7053:0.0000000000000000e+000
7054:0.0000000000000000e+000
7055:0.0000000000000000e+000
7056:0.0000000000000000e+000
7057:0.0000000000000000e+000
7058:0.0000000000000000e+000
7059:0.0000000000000000e+000
7060:0.0000000000000000e+000
7061:0.0000000000000000e+000
7062:0.0000000000000000e+000
7063:0.0000000000000000e+000
7064:0.0000000000000000e+000
7065:0.0000000000000000e+000
7066:0.0000000000000000e+000
7067:0.0000000000000000e+000
7068:0.0000000000000000e+000
7069:0.0000000000000000e+000
7070:0.0000000000000000e+000
7071:0.0000000000000000e+000
7072:0.0000000000000000e+000
7073:0.0000000000000000e+000
7074:0.0000000000000000e+000
7075:0.0000000000000000e+000
7076:0.0000000000000000e+000
7077:0.0000000000000000e+000
7078:0.0000000000000000e+000
7079:0.0000000000000000e+000
7080:0.0000000000000000e+000
7081:0.0000000000000000e+000
7082:0.0000000000000000e+000
7083:0.0000000000000000e+000
7084:0.0000000000000000e+000
7085:0.0000000000000000e+000
7086:0.0000000000000000e+000
7087:0.0000000000000000e+000
7088:0.0000000000000000e+000
7089:0.0000000000000000e+000
7090:0.0000000000000000e+000
7091:0.0000000000000000e+000
7092:0.0000000000000000e+000
7093:0.0000000000000000e+000
7094:0.0000000000000000e+000
7095:0.0000000000000000e+000
7096:0.0000000000000000e+000
7097:0.0000000000000000e+000
7098:0.0000000000000000e+000
7099:0.0000000000000000e+000
7100:0.0000000000000000e+000
7101:0.0000000000000000e+000
7102:0.0000000000000000e+000
7103:0.0000000000000000e+000
7104:0.0000000000000000e+000
7105:0.0000000000000000e+000
7106:0.0000000000000000e+000
7107:0.0000000000000000e+000
7108:0.0000000000000000e+000
7109:0.0000000000000000e+000
7110:0.0000000000000000e+000
7111:0.0000000000000000e+000
7112:0.0000000000000000e+000
7113:0.0000000000000000e+000
7114:0.0000000000000000e+000
7115:0.0000000000000000e+000
7116:0.0000000000000000e+000
7117:0.0000000000000000e+000
7118:0.0000000000000000e+000
7119:0.0000000000000000e+000
7120:0.0000000000000000e+000
7121:0.0000000000000000e+000
7122:0.0000000000000000e+000
7123:0.0000000000000000e+000
7124:0.0000000000000000e+000
7125:0.0000000000000000e+000
7126:0.0000000000000000e+000
7127:0.0000000000000000e+000
7128:0.0000000000000000e+000
7129:0.0000000000000000e+000
7130:0.0000000000000000e+000
7131:0.0000000000000000e+000
7132:0.0000000000000000e+000
7133:0.0000000000000000e+000
7134:0.0000000000000000e+000
7135:0.0000000000000000e+000
7136:0.0000000000000000e+000
7137:0.0000000000000000e+000
7138:0.0000000000000000e+000
7139:0.0000000000000000e+000
7140:0.0000000000000000e+000
7141:0.0000000000000000e+000
7142:0.0000000000000000e+000
7143:0.0000000000000000e+000
7144:0.0000000000000000e+000
7145:0.0000000000000000e+000
7146:0.0000000000000000e+000
7147:0.0000000000000000e+000
7148:0.0000000000000000e+000
7149:0.0000000000000000e+000
7150:0.0000000000000000e+000
7151:0.0000000000000000e+000
7152:0.0000000000000000e+000
7153:0.0000000000000000e+000
7154:0.0000000000000000e+000
7155:0.0000000000000000e+000
7156:0.0000000000000000e+000
7157:0.0000000000000000e+000
7158:0.0000000000000000e+000
7159:0.0000000000000000e+000
7160:0.0000000000000000e+000
7161:0.0000000000000000e+000
7162:0.0000000000000000e+000
7163:0.0000000000000000e+000
7164:0.0000000000000000e+000
7165:0.0000000000000000e+000
7166:0.0000000000000000e+000
7167:0.0000000000000000e+000
7168:0.0000000000000000e+000
7169:0.0000000000000000e+000
7170:0.0000000000000000e+000
7171:0.0000000000000000e+000
7172:0.0000000000000000e+000
7173:0.0000000000000000e+000
7174:0.0000000000000000e+000
7175:0.0000000000000000e+000
7176:0.0000000000000000e+000
7177:0.0000000000000000e+000
7178:0.0000000000000000e+000
7179:0.0000000000000000e+000
7180:0.0000000000000000e+000
7181:0.0000000000000000e+000
7182:0.0000000000000000e+000
7183:0.0000000000000000e+000
7184:0.0000000000000000e+000
7185:0.0000000000000000e+000
7186:0.0000000000000000e+000
7187:0.0000000000000000e+000
7188:0.0000000000000000e+000
7189:0.0000000000000000e+000
7190:0.0000000000000000e+000
7191:0.0000000000000000e+000
7192:0.0000000000000000e+000
7193:0.0000000000000000e+000
7194:0.0000000000000000e+000
7195:0.0000000000000000e+000
7196:0.0000000000000000e+000
7197:0.0000000000000000e+000
7198:0.0000000000000000e+000
7199:0.0000000000000000e+000
