label=Stress xy
num_items=1017

0:-1.1836459259159122e-02
1:2.9859852437223059e-02
2:6.6202821815080956e-02
3:7.3171845888420656e-02
4:6.1052477614884651e-02
5:-8.9699343067624865e-02
6:-4.3611772773881924e-02
7:5.0250716063795281e-03
8:3.1256243618590786e-02
9:3.6294629637986513e-02
10:-1.5362974221675096e-01
11:-1.1011433933954086e-01
12:-5.6657885888949315e-02
13:-1.5402879593691018e-02
14:5.7583870422328876e-03
15:-1.5803040211368730e-01
16:-1.2778626436311569e-01
17:-8.5177785991401883e-02
18:-4.4566529562305016e-02
19:-1.7981480019957290e-02
20:-1.2682950973966511e-01
21:-1.1179581184813206e-01
22:-8.5597865925399474e-02
23:-5.4428869008815522e-02
24:-3.0287763629935786e-02
25:4.9330131173719066e-02
26:2.7570332231347468e-02
27:5.6767527061682933e-03
28:-4.3667741436048861e-03
29:-4.4162227807952748e-03
30:3.1668288229022803e-02
31:1.7551818211299485e-02
32:4.0589336684703180e-03
33:-9.0210189411606037e-04
34:6.1253414192711782e-04
35:8.9820741991874613e-03
36:5.1010893059333521e-03
37:2.5082186771783694e-03
38:3.5880736682825740e-03
39:6.4358487194852033e-03
40:-9.9278771084763649e-03
41:-4.7110461311830627e-03
42:1.9301128578207006e-03
43:7.3848741063030528e-03
44:1.0428118918743203e-02
45:-2.0671270929914620e-02
46:-9.8954222720329423e-03
47:2.0942003154911658e-03
48:9.5792214673283260e-03
49:1.2102239708940876e-02
50:-2.7041820501658822e-03
51:4.4366590810017373e-05
52:2.5081880625299328e-03
53:3.1167289870738580e-03
54:2.4662386788584091e-03
55:1.9880438112927779e-03
56:3.0352469416671250e-03
57:3.6132312359783659e-03
58:3.0556357625882522e-03
59:2.0223557734714366e-03
60:7.1805996749500821e-03
61:6.1529994280489376e-03
62:4.5794849336750869e-03
63:2.9243087523822494e-03
64:1.7470970330194513e-03
65:1.0378168366584903e-02
66:7.7708908974761853e-03
67:4.7709322787646575e-03
68:2.7432300539145310e-03
69:1.9172127593726578e-03
70:1.1415400318285992e-02
71:8.0138924853386459e-03
72:4.4564613121024802e-03
73:2.5909873122088273e-03
74:2.2892954835260497e-03
75:1.8862993279922355e-03
76:9.6100235891045352e-04
77:4.9428990524856718e-05
78:-3.3517142865700577e-04
79:-2.9500709203921139e-04
80:1.5071195765830278e-03
81:9.6100579047171198e-04
82:4.7078959728793845e-04
83:3.4839965053161452e-04
84:4.7617625800537426e-04
85:1.3986104617039010e-03
86:1.2733352141473583e-03
87:1.2032888425039193e-03
88:1.2680168819498218e-03
89:1.3896603407571742e-03
90:1.8210426201646834e-03
91:1.9568428408556749e-03
92:2.0730118568542712e-03
93:2.0909034486063620e-03
94:2.0466506884381989e-03
95:2.4145944971580486e-03
96:2.6368777485778899e-03
97:2.7457786117302935e-03
98:2.5972553478604801e-03
99:2.3479147063078872e-03
100:-2.0704484688214908e-04
101:-7.7058538784366521e-05
102:5.4694427023963101e-05
103:1.1680865020870195e-04
104:1.1921058895733602e-04
105:5.2918167596024762e-04
106:4.9502964836675711e-04
107:4.2640291911766033e-04
108:3.3565334739181680e-04
109:2.6097030503802442e-04
110:1.3718194867902702e-03
111:1.1546988209148693e-03
112:8.7668450719132840e-04
113:6.4612886003798792e-04
114:5.1595669173635811e-04
115:1.9346035474256894e-03
116:1.6027221060114915e-03
117:1.2152026893139743e-03
118:9.4472344823431323e-04
119:8.2727001672933359e-04
120:2.1581131130211460e-03
121:1.7870562060618919e-03
122:1.3821506827855776e-03
123:1.1418012352828143e-03
124:1.0722256928193774e-03
125:1.1479055972456508e-04
126:1.1284468309233033e-04
127:1.0251811672048867e-04
128:8.3305531962482950e-05
129:6.5079679419353939e-05
130:2.4178623438667380e-04
131:2.4564583843796382e-04
132:2.4523280599384660e-04
133:2.3761192801006179e-04
134:2.2826611805270539e-04
135:4.8553490757121699e-04
136:4.8119539656640739e-04
137:4.7084354469120716e-04
138:4.5574133622266951e-04
139:4.4269874950952123e-04
140:7.9794948659851685e-04
141:7.6556327193626553e-04
142:7.1620811565850184e-04
143:6.6456009173541985e-04
144:6.2797313965351443e-04
145:1.0507472071066960e-03
146:9.8780392579501139e-04
147:8.9511358231840910e-04
148:8.0180854405162471e-04
149:7.3773908722076626e-04
150:5.2472222385778590e-05
151:2.8812433132461376e-05
152:8.3298185073001620e-06
153:4.6807097713488953e-06
154:1.1861400293420846e-05
155:2.1430033283911053e-04
156:1.7578777127845980e-04
157:1.3310102656690392e-04
158:1.0670826940586605e-04
159:9.8047742035921130e-05
160:4.2418755787234876e-04
161:3.7060649391132037e-04
162:3.0518888999431443e-04
163:2.5527521176532301e-04
164:2.3009871841169833e-04
165:6.0187854595137994e-04
166:5.4116971277765502e-04
167:4.6464952980645920e-04
168:4.0284321066684183e-04
169:3.6909148451360181e-04
170:7.0472028714114706e-04
171:6.4370681103061037e-04
172:5.6628654129285141e-04
173:5.0304061703976917e-04
174:4.6799580236983211e-04
175:1.8168021091297545e-05
176:2.6844844659834825e-05
177:2.8240824526994116e-05
178:1.6195309610450091e-05
179:2.4611943150650080e-07
180:9.5854084921813092e-05
181:8.8114202842546434e-05
182:6.8055879401836709e-05
183:3.7629424564542609e-05
184:1.0894203738518365e-05
185:2.1692293033618711e-04
186:1.8420493668463777e-04
187:1.3135604740807235e-04
188:7.2639609920298844e-05
189:2.9171746150921948e-05
190:3.4667526587042383e-04
191:2.8786469613883368e-04
192:2.0059323739436791e-04
193:1.1195481362375759e-04
194:5.0639842415596245e-05
195:4.4027025579224338e-04
196:3.6300118234913476e-04
197:2.5128544450805652e-04
198:1.4127610502736364e-04
199:6.7133305105636295e-05
200:-1.0077202184204405e-01
201:-9.2917747445345159e-02
202:-7.5929541074164469e-02
203:-5.2420927591202301e-02
204:-3.2620687517659397e-02
205:-5.4692865750225604e-02
206:-5.5105861105531409e-02
207:-5.0977923976910887e-02
208:-4.1225441323620979e-02
209:-3.1333769097031818e-02
210:-8.5659092906174364e-03
211:-1.6687558309078362e-02
212:-2.4951921191703058e-02
213:-2.8903623643379880e-02
214:-2.9124095235220096e-02
215:1.2187171946145377e-02
216:1.5833837143715568e-03
217:-1.1419656680796102e-02
218:-2.1421921738737647e-02
219:-2.6528022699166872e-02
220:1.1779132176697986e-02
221:2.4835134495369798e-03
222:-9.3576791477010274e-03
223:-1.9093957994825137e-02
224:-2.4533187545593447e-02
225:-2.3717813268386585e-02
226:-1.2023891139452941e-02
227:8.1425017301033564e-04
228:8.5584518276610420e-03
229:1.0919823508604763e-02
230:-2.5520390950053696e-02
231:-1.5469311796452582e-02
232:-4.1884118891065440e-03
233:3.0069511859068120e-03
234:5.5729635432460300e-03
235:-2.6723833812556535e-02
236:-1.9121595293517382e-02
237:-1.0184191926404971e-02
238:-3.8556367443562680e-03
239:-1.0330401005251347e-03
240:-2.6220415203712821e-02
241:-2.1118224954350347e-02
242:-1.4599305752970500e-02
243:-9.2125460893871820e-03
244:-6.1845727941787811e-03
245:-2.4895870881752859e-02
246:-2.1530340549059432e-02
247:-1.6706046751225397e-02
248:-1.2005509665708031e-02
249:-8.8667126354389121e-03
250:1.0205162197782593e-02
251:7.0452476508981480e-03
252:3.8890921616794561e-03
253:2.4813332650618514e-03
254:2.5246367575782283e-03
255:5.4026249951750257e-03
256:3.7304404089238724e-03
257:2.3334367726610288e-03
258:2.1863326909297262e-03
259:2.8040752398899005e-03
260:-4.9685541835717891e-04
261:-3.0233274464239185e-04
262:4.1999529421179386e-04
263:1.6622319571704077e-03
264:2.8092734647821144e-03
265:-5.0495066417808277e-03
266:-3.3589508066676436e-03
267:-1.0601001957299197e-03
268:1.0286681088876131e-03
269:2.3343344765819939e-03
270:-7.3845329970099573e-03
271:-4.8853551132261230e-03
272:-1.8218271971214464e-03
273:5.3312137458795203e-04
274:1.7341188867639377e-03
275:2.7268380887206889e-03
276:2.8844652213097493e-03
277:2.8856088464712668e-03
278:2.6137884802341508e-03
279:2.2713213063817140e-03
280:3.0444087564306700e-03
281:2.9516867191304143e-03
282:2.6688871616373385e-03
283:2.2113647253141546e-03
284:1.7985348362103194e-03
285:3.0572546302639341e-03
286:2.7209440873617492e-03
287:2.2024893935903831e-03
288:1.6531745036033011e-03
289:1.2603253368953708e-03
290:2.5326894881377931e-03
291:2.0989905864114890e-03
292:1.5589738662940660e-03
293:1.1319596325774916e-03
294:9.0529133504201899e-04
295:1.8656753836187427e-03
296:1.4494789822098698e-03
297:1.0177566957495197e-03
298:7.9727800826242395e-04
299:7.6809866568212383e-04
300:2.0669281761395001e-03
301:1.7363896131832243e-03
302:1.3909128089135269e-03
303:1.2101041703686151e-03
304:1.1812523306636243e-03
305:1.6278738953568255e-03
306:1.4573772177003826e-03
307:1.3066509913196834e-03
308:1.2735163460921963e-03
309:1.3184579023157120e-03
310:1.1572616777350388e-03
311:1.1694421072283806e-03
312:1.2282178729672250e-03
313:1.3356470373825581e-03
314:1.4369648199111893e-03
315:8.9145502212062259e-04
316:1.0248874020166434e-03
317:1.2032151623835306e-03
318:1.3612581389513671e-03
319:1.4575269910397661e-03
320:8.2762274392768689e-04
321:1.0085606595344858e-03
322:1.2168426032956542e-03
323:1.3577631786814382e-03
324:1.4152890771092163e-03
325:1.1647905571395961e-03
326:1.0816009842069766e-03
327:9.6170090650000127e-04
328:8.4408426492217506e-04
329:7.6507815005110585e-04
330:1.3075333170024267e-03
331:1.1888625225033801e-03
332:1.0251498956971509e-03
333:8.7340121396024752e-04
334:7.7664943074649947e-04
335:1.4264668857337682e-03
336:1.2774157521935094e-03
337:1.0811428966457453e-03
338:9.1100996551744286e-04
339:8.0984949809787888e-04
340:1.4383262254957791e-03
341:1.2845386115380531e-03
342:1.0932579754762237e-03
343:9.4229324319504036e-04
344:8.6236795018421381e-04
345:1.3848994759679040e-03
346:1.2426124699010280e-03
347:1.0763187093745100e-03
348:9.6002136155767055e-04
349:9.0933222967307114e-04
350:7.2942793389998192e-04
351:6.7194283366842468e-04
352:5.9897989074687733e-04
353:5.3934801419928589e-04
354:5.0628661308220750e-04
355:7.3989700217094311e-04
356:6.9219526175226694e-04
357:6.3123186004502966e-04
358:5.8083396839141101e-04
359:5.5248918195566123e-04
360:7.7550208842615828e-04
361:7.3630119255950412e-04
362:6.8437859299458489e-04
363:6.3897166791009464e-04
364:6.1170806712368625e-04
365:8.3520198801868622e-04
366:7.9757839609628865e-04
367:7.4455787875240143e-04
368:6.9400320031993306e-04
369:6.6089724456921332e-04
370:8.8981489703555538e-04
371:8.4929012282996608e-04
372:7.8969411019051987e-04
373:7.2979838013328480e-04
374:6.8872449697711044e-04
375:4.7677023861132867e-04
376:3.9098142602832220e-04
377:2.6746720683659556e-04
378:1.4646477341962987e-04
379:6.5277775746001810e-05
380:5.2077564230855878e-04
381:4.2249253834947135e-04
382:2.8075189214299515e-04
383:1.4160623362794033e-04
384:4.8077377871171047e-05
385:5.7684039714258012e-04
386:4.6633494217379167e-04
387:3.0679860525664569e-04
388:1.4997909554086914e-04
389:4.4451109610130087e-05
390:6.2295074667173718e-04
391:5.0744161505887283e-04
392:3.4068049639321678e-04
393:1.7675804444774597e-04
394:6.6449602703526993e-05
395:6.4871879463077162e-04
396:5.3394062500556228e-04
397:3.6831992461593675e-04
398:2.0562109285866541e-04
399:9.6196046394945067e-05
400:7.4769177658846409e-03
401:-2.6989356062478883e-04
402:-1.0137917147279938e-02
403:-1.8251472744892323e-02
404:-2.2783942693801996e-02
405:-4.7057434303721648e-05
406:-4.9376740584117819e-03
407:-1.1025042588449371e-02
408:-1.5835588118537081e-02
409:-1.8386951461171013e-02
410:-6.7409142777811260e-03
411:-8.5310064600082666e-03
412:-1.0666567836685212e-02
413:-1.2224761743476781e-02
414:-1.2957065376630713e-02
415:-8.2958108007278580e-03
416:-8.2713166400542621e-03
417:-8.3381776376419553e-03
418:-8.5271266954112662e-03
419:-8.7263087180690872e-03
420:-6.4047536952126028e-03
421:-5.8800177856383751e-03
422:-5.6162427983681359e-03
423:-5.9522008603779047e-03
424:-6.5262292302528191e-03
425:-2.3140776768486825e-02
426:-2.0476958770393315e-02
427:-1.6451481885342654e-02
428:-1.2277895592697818e-02
429:-9.3427279887908776e-03
430:-1.8511387686023079e-02
431:-1.6761333572329767e-02
432:-1.4025889855234046e-02
433:-1.1085211177535650e-02
434:-8.9591483648362395e-03
435:-1.2955037061949672e-02
436:-1.2299208354069429e-02
437:-1.1095740830364272e-02
438:-9.6033846181302531e-03
439:-8.4182861425143307e-03
440:-8.8519693814525843e-03
441:-9.0005351289433305e-03
442:-8.9046200828989137e-03
443:-8.4361626204023776e-03
444:-7.9021975314286664e-03
445:-6.8851238894481323e-03
446:-7.4164574459845084e-03
447:-7.8329935774497979e-03
448:-7.8198617394517941e-03
449:-7.5640053663358874e-03
450:-7.8678689382498911e-03
451:-5.2989899404058257e-03
452:-2.2072104922919965e-03
453:8.8261915579687127e-05
454:1.1982356015468583e-03
455:-7.8020745539888470e-03
456:-5.6410452842580207e-03
457:-3.0163731275990135e-03
458:-1.0333432591673945e-03
459:-4.7859721560116138e-05
460:-7.6503268764486071e-03
461:-6.0315937002848735e-03
462:-4.0104744505211516e-03
463:-2.4045089492249292e-03
464:-1.5463743591257028e-03
465:-7.4327403784972467e-03
466:-6.2909957781662248e-03
467:-4.7777941717158127e-03
468:-3.4532577739719633e-03
469:-2.6571646136489512e-03
470:-7.2463234203049721e-03
471:-6.3927793679288154e-03
472:-5.1714727453768669e-03
473:-3.9841665795187177e-03
474:-3.1929143873980223e-03
475:1.3243263361287227e-03
476:1.0050751138545424e-03
477:7.2011794032513518e-04
478:6.5210907536950415e-04
479:7.3032644723740759e-04
480:1.3806697112451387e-04
481:1.1035109617118052e-04
482:1.8846285570334187e-04
483:4.0764035294220765e-04
484:6.3836945419028950e-04
485:-1.2794434212654649e-03
486:-9.6113227508384238e-04
487:-4.6980607551830317e-04
488:5.1464662862622329e-05
489:4.2463686707042234e-04
490:-2.3170951742003420e-03
491:-1.7488928345398751e-03
492:-9.8513193267465732e-04
493:-3.0254769088042976e-04
494:1.1693178862903393e-04
495:-2.8074197315709521e-03
496:-2.1238114300492069e-03
497:-1.2549025939346023e-03
498:-5.4305298876650132e-04
499:-1.4719116532982228e-04
500:8.1542356338024688e-04
501:9.8579183389708416e-04
502:1.1736154491534922e-03
503:1.2881589029236523e-03
504:1.3242714009149431e-03
505:7.3947137827792538e-04
506:8.4925140590108724e-04
507:9.6844333139305984e-04
508:1.0382340780149813e-03
509:1.0575067527916246e-03
510:5.3614149715792351e-04
511:5.8700349565321281e-04
512:6.4934030805055489e-04
513:6.9724393418288562e-04
514:7.2166305191966517e-04
515:2.2334846007986397e-04
516:2.5071549609654838e-04
517:3.0807015633215325e-04
518:3.8595962290611336e-04
519:4.5094825025600175e-04
520:-5.3149961089801550e-05
521:-2.1472959763327146e-05
522:6.2285888105807378e-05
523:1.9045852492622546e-04
524:3.0350553726601133e-04
525:1.2936589411253897e-03
526:1.1732041198417016e-03
527:1.0376161875170161e-03
528:9.5052145177418421e-04
529:9.1891047904139943e-04
530:1.0411170734813541e-03
531:9.8170008194279658e-04
532:9.2239196917829106e-04
533:8.9600496975049404e-04
534:8.9690238546541988e-04
535:7.2965362958391205e-04
536:7.4373697868979462e-04
537:7.7287377178167881e-04
538:8.1212817354229258e-04
539:8.4474788147934413e-04
540:4.8754118848089335e-04
541:5.5624955645796953e-04
542:6.4619054211877808e-04
543:7.2344563178513286e-04
544:7.6891231017261813e-04
545:3.6205652521602072e-04
546:4.5722145489985087e-04
547:5.7280201534084141e-04
548:6.6012459654350849e-04
549:7.0351839533776587e-04
550:9.0311898926023336e-04
551:8.5856824861157554e-04
552:7.9310406670137109e-04
553:7.2737271907678542e-04
554:6.8233250707526363e-04
555:8.8588383279349255e-04
556:8.3293526148730266e-04
557:7.5760783587875313e-04
558:6.8490638116555408e-04
559:6.3676882206559573e-04
560:8.3846649106539490e-04
561:7.8027546663628515e-04
562:7.0083597753382984e-04
563:6.2825912138706277e-04
564:5.8264105081921348e-04
565:7.6469142358739548e-04
566:7.0964260605091618e-04
567:6.3836941280067349e-04
568:5.7819551456475755e-04
569:5.4348159254356159e-04
570:6.9916656960827893e-04
571:6.5108136419088109e-04
572:5.9243997345072828e-04
573:5.4779101434067042e-04
574:5.2534118799294816e-04
575:6.4211157328374871e-04
576:5.3029515880050060e-04
577:3.6857604561367632e-04
578:2.0926116649237517e-04
579:1.0184952262665862e-04
580:5.9826190602296910e-04
581:4.9479584392627220e-04
582:3.4352775020251816e-04
583:1.9255191685306925e-04
584:8.9621301757029291e-05
585:5.4814040016800888e-04
586:4.5571167677473665e-04
587:3.1800412503108226e-04
588:1.7749609384529598e-04
589:7.9936643058865640e-05
590:5.1476545021653564e-04
591:4.3195889593299395e-04
592:3.0573953491167075e-04
593:1.7362695461824176e-04
594:8.0023498558828379e-05
595:5.0159696262662998e-04
596:4.2454804418621313e-04
597:3.0498297081963830e-04
598:1.7741270448881906e-04
599:8.5697560651841904e-05
600:-4.6973226380768668e-03
601:-4.3711144847628251e-03
602:-4.4490858896656920e-03
603:-5.1874310906693524e-03
604:-6.0710864576607806e-03
605:-1.9036786975082645e-03
606:-2.3711310727323391e-03
607:-3.4094013661844368e-03
608:-4.8680705251760974e-03
609:-6.1057310073939627e-03
610:7.4014830555200930e-04
611:-5.7803248911550799e-04
612:-2.5664004497771577e-03
613:-4.6237519024573542e-03
614:-6.0683165890815724e-03
615:1.6641395146317977e-03
616:-1.3457705293555002e-04
617:-2.5309386082755245e-03
618:-4.6448682821079845e-03
619:-5.9261445265997954e-03
620:1.3068913387239266e-03
621:-6.0725990835966978e-04
622:-2.9707374830186917e-03
623:-4.8118082456131772e-03
624:-5.7688637563041737e-03
625:-6.5154616100045679e-03
626:-7.0582905094970253e-03
627:-7.5027134194011894e-03
628:-7.5306043864936606e-03
629:-7.3103097253165638e-03
630:-6.5549727187476587e-03
631:-6.8648848391311751e-03
632:-7.0596168681968802e-03
633:-6.9464267055769852e-03
634:-6.6921979878298860e-03
635:-6.4598629052083174e-03
636:-6.4861332803302077e-03
637:-6.3993330142027502e-03
638:-6.1636569041603265e-03
639:-5.9171734939636395e-03
640:-6.1829586285121006e-03
641:-5.9938485099595125e-03
642:-5.7254766119087296e-03
643:-5.4672752177116228e-03
644:-5.2967983666582542e-03
645:-5.8894061140842514e-03
646:-5.5924398996945856e-03
647:-5.2575139452352791e-03
648:-5.0413682457558333e-03
649:-4.9620180213995248e-03
650:-7.0323755822416217e-03
651:-6.2833460489792256e-03
652:-5.1809787097090920e-03
653:-4.0720741174347427e-03
654:-3.3110677553207092e-03
655:-6.4473893876454283e-03
656:-5.8291045776390805e-03
657:-4.9146508255891947e-03
658:-3.9894446058457954e-03
659:-3.3514603188315832e-03
660:-5.7283448080907174e-03
661:-5.2733654436020452e-03
662:-4.5928595687561285e-03
663:-3.8954285345935732e-03
664:-3.4094407731076843e-03
665:-5.1728289027651309e-03
666:-4.8476945168562918e-03
667:-4.3521375572902511e-03
668:-3.8334827467804461e-03
669:-3.4660310438919752e-03
670:-4.8874417816508241e-03
671:-4.6317495680059028e-03
672:-4.2343357400180595e-03
673:-3.8096088464016991e-03
674:-3.5038766676154859e-03
675:-2.9293158886230242e-03
676:-2.2452850138594133e-03
677:-1.3852184132384648e-03
678:-6.9345490938769777e-04
679:-3.1777027478770506e-04
680:-3.0239361882136587e-03
681:-2.4213417007881710e-03
682:-1.6537593383799992e-03
683:-1.0226657297091688e-03
684:-6.7013077682545749e-04
685:-3.1510776169689906e-03
686:-2.6557222723532499e-03
687:-2.0059777872658870e-03
688:-1.4461336509767285e-03
689:-1.1154837400354483e-03
690:-3.2646482781602381e-03
691:-2.8622530235499306e-03
692:-2.3094364037992590e-03
693:-1.7999317279094157e-03
694:-1.4768878061078234e-03
695:-3.3344057247407678e-03
696:-2.9872863629326362e-03
697:-2.4886449799474022e-03
698:-2.0015011977924479e-03
699:-1.6754464631678705e-03
700:-2.2444085054949933e-04
701:-1.7171704410764882e-04
702:-5.6077394490470203e-05
703:1.0523603049597301e-04
704:2.4163825510147309e-04
705:-5.6301081349402970e-04
706:-4.4794156485690570e-04
707:-2.5694174155375737e-04
708:-3.9208844553101446e-05
709:1.2483777242390491e-04
710:-9.8911406509949776e-04
711:-7.9846561418656765e-04
712:-5.2012741812497703e-04
713:-2.4279260291147091e-04
714:-5.3982434943304177e-05
715:-1.3323914090091345e-03
716:-1.0848441555832132e-03
717:-7.4652285943709821e-04
718:-4.3694139868401374e-04
719:-2.4204807948303959e-04
720:-1.5192169435028411e-03
721:-1.2435484014581420e-03
722:-8.7998422381520053e-04
723:-5.6410058324214457e-04
724:-3.7578702525413633e-04
725:3.0690961866671135e-04
726:4.0404907271336345e-04
727:5.2067872802215049e-04
728:6.0686086574465920e-04
729:6.4821775993885672e-04
730:1.9241174202310935e-04
731:2.7852034057924171e-04
732:3.8487876334898858e-04
733:4.6778026597957072e-04
734:5.1091370086195635e-04
735:1.4539686731739429e-05
736:9.0713905275373107e-05
737:1.9113834117269869e-04
738:2.7834277378696723e-04
739:3.3029677068970780e-04
740:-1.7545827850650098e-04
741:-1.0182751416685875e-04
742:3.4860860419200773e-06
743:1.0581659982248807e-04
744:1.7398208455832723e-04
745:-3.1217190050957520e-04
746:-2.3603115831599960e-04
747:-1.2115981519400037e-04
748:-2.2809610594602994e-06
749:8.1201897705786847e-05
750:6.4531058482118872e-04
751:6.0537409985880655e-04
752:5.5811640001809189e-04
753:5.2419848631206573e-04
754:5.0870167582961966e-04
755:5.1476215767418175e-04
756:4.9588546431604812e-04
757:4.7488063798375015e-04
758:4.6176453928398946e-04
759:4.5734069648343070e-04
760:3.4455364563482511e-04
761:3.5231826571169972e-04
762:3.6360979433685636e-04
763:3.7480760945413078e-04
764:3.8240053805112234e-04
765:1.9926011363516404e-04
766:2.2867662543584732e-04
767:2.6495808127446300e-04
768:2.9316338245893885e-04
769:3.0778366074765538e-04
770:1.1435814556898023e-04
771:1.5569338471279926e-04
772:2.0484168866725388e-04
773:2.4046277947127807e-04
774:2.5701496117420014e-04
775:4.8713659833240841e-04
776:4.1183804827231229e-04
777:2.9475459481796321e-04
778:1.6956898256247158e-04
779:7.9426557065140742e-05
780:4.3873888375910592e-04
781:3.6608346068398506e-04
782:2.5432787899937117e-04
783:1.3620207276207529e-04
784:5.1875831811612456e-05
785:3.6789319998250868e-04
786:3.0234686185354377e-04
787:2.0313578344336868e-04
788:1.0009069673488460e-04
789:2.7520114451090462e-05
790:2.9707977031352435e-04
791:2.4249131290917986e-04
792:1.6146085152884230e-04
793:7.9132598099741921e-05
794:2.2166470262520898e-05
795:2.4874114814013554e-04
796:2.0384715384790856e-04
797:1.3847042584262553e-04
798:7.3527840038683243e-05
799:2.9429232871580901e-05
800:8.8666017321539575e-04
801:-9.0453204472213690e-04
802:-3.0672106287220231e-03
803:-4.6828344397661925e-03
804:-5.4717736650595327e-03
805:2.2226816451867843e-04
806:-1.1190492931312888e-03
807:-2.7435775171316362e-03
808:-3.9644228287641870e-03
809:-4.5661572921665231e-03
810:-3.9970903519162283e-04
811:-1.1947623529617094e-03
812:-2.1960119190647426e-03
813:-3.0035299865878561e-03
814:-3.4436499707601576e-03
815:-6.0460672609636624e-04
816:-9.8712503974381994e-04
817:-1.5609267127936271e-03
818:-2.1509483010394652e-03
819:-2.5631829417305818e-03
820:-5.0487198456226608e-04
821:-6.8251920690362328e-04
822:-1.0769498960097306e-03
823:-1.6309723608977471e-03
824:-2.1010059086941663e-03
825:-5.5545312665582856e-03
826:-5.2887022492034272e-03
827:-5.0105802517955347e-03
828:-4.8645575173477500e-03
829:-4.8407460970888794e-03
830:-4.6653156239410964e-03
831:-4.5925044328096031e-03
832:-4.5495702819389862e-03
833:-4.5823270021008488e-03
834:-4.6481882177556383e-03
835:-3.5831395153479040e-03
836:-3.7443960134961375e-03
837:-3.9747208079593324e-03
838:-4.1981329445240087e-03
839:-4.3467248386753789e-03
840:-2.7623921759238339e-03
841:-3.0999767339020641e-03
842:-3.5190075022629467e-03
843:-3.8485220837970861e-03
844:-4.0221050269893168e-03
845:-2.3521372868176428e-03
846:-2.7769555351877659e-03
847:-3.2762655872647225e-03
848:-3.6296510605850507e-03
849:-3.7871225038668614e-03
850:-4.7851069938142548e-03
851:-4.5445698701175969e-03
852:-4.1704161705210432e-03
853:-3.7702177799442808e-03
854:-3.4819644662712358e-03
855:-4.6112680533827608e-03
856:-4.3736202542943303e-03
857:-4.0114274204147791e-03
858:-3.6323762673329705e-03
859:-3.3638425282868133e-03
860:-4.3271248971417575e-03
861:-4.1027409540754581e-03
862:-3.7712908669501532e-03
863:-3.4364348335955454e-03
864:-3.2058108941519794e-03
865:-4.0078322023246547e-03
866:-3.8074470103268100e-03
867:-3.5224596751445010e-03
868:-3.2475187667043303e-03
869:-3.0655395219102723e-03
870:-3.7695961814384919e-03
871:-3.5917675964076499e-03
872:-3.3475415744000955e-03
873:-3.1225483509117191e-03
874:-2.9799559631056237e-03
875:-3.3230546541523857e-03
876:-2.9971540722646046e-03
877:-2.5229044858732126e-03
878:-2.0522129751356743e-03
879:-1.7328311042665448e-03
880:-3.2183373058734814e-03
881:-2.9227694388618713e-03
882:-2.4935249515383485e-03
883:-2.0685353998332440e-03
884:-1.7807629532497397e-03
885:-3.0809683044181412e-03
886:-2.8248357112483631e-03
887:-2.4541982607761102e-03
888:-2.0888362162771283e-03
889:-1.8423686359779197e-03
890:-2.9625874236352922e-03
891:-2.7399675719609459e-03
892:-2.4192642985925300e-03
893:-2.1048569015519351e-03
894:-1.8937716551878099e-03
895:-2.8926580010172442e-03
896:-2.6895202582744603e-03
897:-2.3979326336542109e-03
898:-2.1133377453182466e-03
899:-1.9230113173041761e-03
900:-1.5774573799422157e-03
901:-1.3015898614198846e-03
902:-9.4002360751280168e-04
903:-6.2885858388339014e-04
904:-4.4533060131626422e-04
905:-1.6394791361165938e-03
906:-1.3845985771145980e-03
907:-1.0468002989147515e-03
908:-7.5112579717238198e-04
909:-5.7341974264278476e-04
910:-1.7197952072594688e-03
911:-1.4930956336316034e-03
912:-1.1863657196159918e-03
913:-9.0963821372838606e-04
914:-7.3790571985781134e-04
915:-1.7876236741827668e-03
916:-1.5860722207733091e-03
917:-1.3059693926774727e-03
918:-1.0437476043820997e-03
919:-8.7495580601471782e-04
920:-1.8267670289093100e-03
921:-1.6406460563466755e-03
922:-1.3761743872367914e-03
923:-1.1213063041128162e-03
924:-9.5277995510819041e-04
925:-3.8179983094081403e-04
926:-3.0024703533444936e-04
927:-1.7698784436090089e-04
928:-4.9171459912770093e-05
929:4.0730519415037868e-05
930:-5.0650444489305248e-04
931:-4.0970247119955861e-04
932:-2.6818202424475188e-04
933:-1.2694060372281352e-04
934:-3.0649831274416405e-05
935:-6.6632894171854320e-04
936:-5.5090357751803236e-04
937:-3.8807049204473109e-04
938:-2.3259851455485747e-04
939:-1.3065935479079064e-04
940:-7.9906785897948204e-04
941:-6.6942494973476431e-04
942:-4.9173107396130932e-04
943:-3.2848038771994401e-04
944:-2.2529868610225899e-04
945:-8.7414928248779732e-04
946:-7.3732909585004730e-04
947:-5.5319432378835866e-04
948:-3.8833896117199378e-04
949:-2.8684036712405128e-04
950:7.6230296731099944e-05
951:1.1990164708253098e-04
952:1.7169769565752308e-04
953:2.0904760876059683e-04
954:2.2625235426800493e-04
955:5.7856721110074798e-06
956:4.8692240736576263e-05
957:1.0092461191454959e-04
958:1.4056036206044179e-04
959:1.6038880076381200e-04
960:-9.3404940015168192e-05
961:-5.0071963661195270e-05
962:5.0637886378704160e-06
963:5.0311318679914793e-05
964:7.5528192518250879e-05
965:-1.8788060599119724e-04
966:-1.4228349068402834e-04
967:-8.1553213627434491e-05
968:-2.8002760052770867e-05
969:4.4402801475330460e-06
970:-2.4968702996055044e-04
971:-2.0148780934308271e-04
972:-1.3539079524176704e-04
973:-7.4624090182937258e-05
974:-3.6190469750979771e-05
975:2.1969390715424647e-04
976:1.8116297572400128e-04
977:1.2517219588794882e-04
978:6.9696351510952796e-05
979:3.2108827624674764e-05
980:1.5809969194457239e-04
981:1.3272248392395933e-04
982:9.4802927876459035e-05
983:5.5983027073944956e-05
984:2.8956307386459960e-05
985:7.9178181251221829e-05
986:7.0290565496527907e-05
987:5.4774202631157006e-05
988:3.6284981747418217e-05
989:2.1950825736337113e-05
990:1.3657561426028917e-05
991:1.7964586626886146e-05
992:2.0026343992448554e-05
993:1.7042730082283373e-05
994:1.2106186434095027e-05
995:-2.3385029981786924e-05
996:-1.1960925196099711e-05
997:-6.6790677662825398e-07
998:4.1644601513871496e-06
999:3.7520768723611892e-06
1000:-4.0563006985612818e-04
1001:-5.6058434287604671e-04
1002:-9.4112621986151520e-04
1003:-1.5042470845541343e-03
1004:-1.9937022994664919e-03
1005:-2.6109598576934401e-04
1006:-4.8692270520644102e-04
1007:-9.2641894645890640e-04
1008:-1.4952163899855861e-03
1009:-1.9579344105166074e-03
1010:-1.1451200755658821e-04
1011:-4.2709770417297019e-04
1012:-9.2799392364250049e-04
1013:-1.4801722255340655e-03
1014:-1.8867112575817746e-03
1015:-4.5258953299508187e-05
1016:-4.2436990195625812e-04
1017:-9.5703616263279859e-04
1018:-1.4629653858902864e-03
1019:-1.7930917043197225e-03
1020:-4.2401998785054008e-05
1021:-4.5531541008032064e-04
1022:-9.9265135548952800e-04
1023:-1.4499724780453833e-03
1024:-1.7162916183015562e-03
1025:-2.2504142335239329e-03
1026:-2.6694262575673194e-03
1027:-3.1558370133259153e-03
1028:-3.4910979179916548e-03
1029:-3.6331899733567305e-03
1030:-2.1789709552554157e-03
1031:-2.5110038766631929e-03
1032:-2.9002759000654726e-03
1033:-3.1743269872833895e-03
1034:-3.2952649072147599e-03
1035:-2.0556460251753344e-03
1036:-2.2778850176189340e-03
1037:-2.5506479184248432e-03
1038:-2.7608035999186521e-03
1039:-2.8683405990333026e-03
1040:-1.9100918854125894e-03
1041:-2.0434259464539978e-03
1042:-2.2302692319373842e-03
1043:-2.4071190149789513e-03
1044:-2.5221440908389232e-03
1045:-1.7979227182055404e-03
1046:-1.8825481777776693e-03
1047:-2.0282954284896750e-03
1048:-2.1999780916655150e-03
1049:-2.3321195332637193e-03
1050:-3.6168790425292947e-03
1051:-3.4606711218582754e-03
1052:-3.2479582011693438e-03
1053:-3.0543023721513532e-03
1054:-2.9330087381488372e-03
1055:-3.2907417550951906e-03
1056:-3.1884832482847267e-03
1057:-3.0464637251295481e-03
1058:-2.9136262717840526e-03
1059:-2.8281901334089926e-03
1060:-2.8818295572805583e-03
1061:-2.8439374222418976e-03
1062:-2.7840070424880203e-03
1063:-2.7187979116166149e-03
1064:-2.6712346350964158e-03
1065:-2.5545368202119952e-03
1066:-2.5636167568445036e-03
1067:-2.5603035911675722e-03
1068:-2.5372508534479243e-03
1069:-2.5101661386781032e-03
1070:-2.3779336431355067e-03
1071:-2.4090950889810200e-03
1072:-2.4298084811616924e-03
1073:-2.4209072794273666e-03
1074:-2.3978121556470994e-03
1075:-2.8528850790824432e-03
1076:-2.6567278872600005e-03
1077:-2.3756774326034427e-03
1078:-2.1019940307103208e-03
1079:-1.9193339346980436e-03
1080:-2.7589784722855748e-03
1081:-2.5728466884548887e-03
1082:-2.3071253581404051e-03
1083:-2.0495412840356502e-03
1084:-1.8783176772196456e-03
1085:-2.6145725925736580e-03
1086:-2.4443159251366963e-03
1087:-2.2027908946904442e-03
1088:-1.9705309938197039e-03
1089:-1.8172488676910356e-03
1090:-2.4619776893075943e-03
1091:-2.3090152194392088e-03
1092:-2.0937645681925231e-03
1093:-1.8889069198799184e-03
1094:-1.7549853556180848e-03
1095:-2.3530680631204414e-03
1096:-2.2127308841595867e-03
1097:-2.0166165833835786e-03
1098:-1.8316654889894020e-03
1099:-1.7117802968384011e-03
1100:-1.8267972323657716e-03
1101:-1.6468588825639407e-03
1102:-1.3897943456392234e-03
1103:-1.1403765129111619e-03
1104:-9.7444760519913964e-04
1105:-1.7910676432807192e-03
1106:-1.6203653900105695e-03
1107:-1.3773374881442574e-03
1108:-1.1425641123290146e-03
1109:-9.8698488484937736e-04
1110:-1.7377131549492766e-03
1111:-1.5792346693015694e-03
1112:-1.3548560064644815e-03
1113:-1.1396219540913883e-03
1114:-9.9789720803048691e-04
1115:-1.6831314130517176e-03
1116:-1.5353300362170635e-03
1117:-1.3273357104775399e-03
1118:-1.1293760796128513e-03
1119:-9.9995915616116356e-04
1120:-1.6451533863002016e-03
1121:-1.5037544895134672e-03
1122:-1.3056472970845402e-03
1123:-1.1181826213922227e-03
1124:-9.9628176168356096e-04
1125:-8.9633439916830826e-04
1126:-7.5971812057997769e-04
1127:-5.7645855955677468e-04
1128:-4.1316367493904278e-04
1129:-3.1312445893447719e-04
1130:-9.1335845585256280e-04
1131:-7.8317036177536154e-04
1132:-6.0751465816833740e-04
1133:-4.4967318662195383e-04
1134:-3.5212234986446912e-04
1135:-9.3031917218989427e-04
1136:-8.0880006461089469e-04
1137:-6.4318932344950357e-04
1138:-4.9224373873509833e-04
1139:-3.9759250191074896e-04
1140:-9.3780918453154657e-04
1141:-8.2407445906823172e-04
1142:-6.6721328010485885e-04
1143:-5.2186818197500493e-04
1144:-4.2923194070518608e-04
1145:-9.3748206929712837e-04
1146:-8.2855485442770254e-04
1147:-6.7692424444306158e-04
1148:-5.3465927095312814e-04
1149:-4.4289073500943307e-04
1150:-2.7587809719902098e-04
1151:-2.2559065667721249e-04
1152:-1.5625252765806029e-04
1153:-9.2027033658445556e-05
1154:-5.1106395144182953e-05
1155:-3.1411141444169830e-04
1156:-2.5925992307256491e-04
1157:-1.8407666854100186e-04
1158:-1.1500243087286170e-04
1159:-7.1343201652936358e-05
1160:-3.5862445001191368e-04
1161:-2.9847071738588145e-04
1162:-2.1675068083036253e-04
1163:-1.4259874645135805e-04
1164:-9.6310450017297614e-05
1165:-3.8949990866644072e-04
1166:-3.2568550092605165e-04
1167:-2.3983256502659617e-04
1168:-1.6300681660700968e-04
1169:-1.1573101910501009e-04
1170:-4.0274797223051957e-04
1171:-3.3737700879868669e-04
1172:-2.5008307423929203e-04
1173:-1.7281270900180206e-04
1174:-1.2580581593793930e-04
1175:-3.7082842449787531e-05
1176:-2.3474463527531353e-05
1177:-9.0954521732086950e-06
1178:-1.3109371514345393e-06
1179:2.1573806593341423e-07
1180:-5.6194508256070576e-05
1181:-4.0362679101123613e-05
1182:-2.1978212018087337e-05
1183:-9.2975408355195229e-06
1184:-3.9155729905422018e-06
1185:-8.0001974331080520e-05
1186:-6.1444938517571591e-05
1187:-3.7972209465650921e-05
1188:-1.8898949134081792e-05
1189:-8.4021312507940740e-06
1190:-9.8842547070832185e-05
1191:-7.8191100900705960e-05
1192:-5.0553837690722807e-05
1193:-2.6011716027083344e-05
1194:-1.1030844427904619e-05
1195:-1.0885442257797089e-04
1196:-8.7135201099159147e-05
1197:-5.7184833665534731e-05
1198:-2.9438907346770802e-05
1199:-1.1758418029377634e-05
1200:-4.6500603028922274e-05
1201:-4.5090699979110770e-04
1202:-9.6926120390889955e-04
1203:-1.3998469680963036e-03
1204:-1.6434537778010827e-03
1205:-4.3447440729284142e-05
1206:-3.8864045535722197e-04
1207:-8.3954322658238143e-04
1208:-1.2255664921774171e-03
1209:-1.4518944828714221e-03
1210:-4.0866570452177464e-05
1211:-3.0512547085992061e-04
1212:-6.6571320369507411e-04
1213:-9.9493961289255509e-04
1214:-1.2017417795191806e-03
1215:-4.0532003523562231e-05
1216:-2.3072239239033284e-04
1217:-5.1104896335068270e-04
1218:-7.9353239268561884e-04
1219:-9.8767433789388563e-04
1220:-4.1594268753434074e-05
1221:-1.8514967009987951e-04
1222:-4.1644440402514952e-04
1223:-6.7278493063192368e-04
1224:-8.6222645144234922e-04
1225:0.0000000000000000e+00
1226:0.0000000000000000e+00
1227:0.0000000000000000e+00
1228:0.0000000000000000e+00
1229:0.0000000000000000e+00
1230:0.0000000000000000e+00
1231:0.0000000000000000e+00
1232:0.0000000000000000e+00
1233:0.0000000000000000e+00
1234:0.0000000000000000e+00
1235:0.0000000000000000e+00
1236:0.0000000000000000e+00
1237:0.0000000000000000e+00
1238:0.0000000000000000e+00
1239:0.0000000000000000e+00
1240:0.0000000000000000e+00
1241:0.0000000000000000e+00
1242:0.0000000000000000e+00
1243:0.0000000000000000e+00
1244:0.0000000000000000e+00
1245:0.0000000000000000e+00
1246:0.0000000000000000e+00
1247:0.0000000000000000e+00
1248:0.0000000000000000e+00
1249:0.0000000000000000e+00
1250:0.0000000000000000e+00
1251:0.0000000000000000e+00
1252:0.0000000000000000e+00
1253:0.0000000000000000e+00
1254:0.0000000000000000e+00
1255:0.0000000000000000e+00
1256:0.0000000000000000e+00
1257:0.0000000000000000e+00
1258:0.0000000000000000e+00
1259:0.0000000000000000e+00
1260:0.0000000000000000e+00
1261:0.0000000000000000e+00
1262:0.0000000000000000e+00
1263:0.0000000000000000e+00
1264:0.0000000000000000e+00
1265:0.0000000000000000e+00
1266:0.0000000000000000e+00
1267:0.0000000000000000e+00
1268:0.0000000000000000e+00
1269:0.0000000000000000e+00
1270:0.0000000000000000e+00
1271:0.0000000000000000e+00
1272:0.0000000000000000e+00
1273:0.0000000000000000e+00
1274:0.0000000000000000e+00
1275:0.0000000000000000e+00
1276:0.0000000000000000e+00
1277:0.0000000000000000e+00
1278:0.0000000000000000e+00
1279:0.0000000000000000e+00
1280:0.0000000000000000e+00
1281:0.0000000000000000e+00
1282:0.0000000000000000e+00
1283:0.0000000000000000e+00
1284:0.0000000000000000e+00
1285:0.0000000000000000e+00
1286:0.0000000000000000e+00
1287:0.0000000000000000e+00
1288:0.0000000000000000e+00
1289:0.0000000000000000e+00
1290:0.0000000000000000e+00
1291:0.0000000000000000e+00
1292:0.0000000000000000e+00
1293:0.0000000000000000e+00
1294:0.0000000000000000e+00
1295:0.0000000000000000e+00
1296:0.0000000000000000e+00
1297:0.0000000000000000e+00
1298:0.0000000000000000e+00
1299:0.0000000000000000e+00
1300:0.0000000000000000e+00
1301:0.0000000000000000e+00
1302:0.0000000000000000e+00
1303:0.0000000000000000e+00
1304:0.0000000000000000e+00
1305:0.0000000000000000e+00
1306:0.0000000000000000e+00
1307:0.0000000000000000e+00
1308:0.0000000000000000e+00
1309:0.0000000000000000e+00
1310:0.0000000000000000e+00
1311:0.0000000000000000e+00
1312:0.0000000000000000e+00
1313:0.0000000000000000e+00
1314:0.0000000000000000e+00
1315:0.0000000000000000e+00
1316:0.0000000000000000e+00
1317:0.0000000000000000e+00
1318:0.0000000000000000e+00
1319:0.0000000000000000e+00
1320:0.0000000000000000e+00
1321:0.0000000000000000e+00
1322:0.0000000000000000e+00
1323:0.0000000000000000e+00
1324:0.0000000000000000e+00
1325:0.0000000000000000e+00
1326:0.0000000000000000e+00
1327:0.0000000000000000e+00
1328:0.0000000000000000e+00
1329:0.0000000000000000e+00
1330:0.0000000000000000e+00
1331:0.0000000000000000e+00
1332:0.0000000000000000e+00
1333:0.0000000000000000e+00
1334:0.0000000000000000e+00
1335:0.0000000000000000e+00
1336:0.0000000000000000e+00
1337:0.0000000000000000e+00
1338:0.0000000000000000e+00
1339:0.0000000000000000e+00
1340:0.0000000000000000e+00
1341:0.0000000000000000e+00
1342:0.0000000000000000e+00
1343:0.0000000000000000e+00
1344:0.0000000000000000e+00
1345:0.0000000000000000e+00
1346:0.0000000000000000e+00
1347:0.0000000000000000e+00
1348:0.0000000000000000e+00
1349:0.0000000000000000e+00
1350:0.0000000000000000e+00
1351:0.0000000000000000e+00
1352:0.0000000000000000e+00
1353:0.0000000000000000e+00
1354:0.0000000000000000e+00
1355:0.0000000000000000e+00
1356:0.0000000000000000e+00
1357:0.0000000000000000e+00
1358:0.0000000000000000e+00
1359:0.0000000000000000e+00
1360:0.0000000000000000e+00
1361:0.0000000000000000e+00
1362:0.0000000000000000e+00
1363:0.0000000000000000e+00
1364:0.0000000000000000e+00
1365:0.0000000000000000e+00
1366:0.0000000000000000e+00
1367:0.0000000000000000e+00
1368:0.0000000000000000e+00
1369:0.0000000000000000e+00
1370:0.0000000000000000e+00
1371:0.0000000000000000e+00
1372:0.0000000000000000e+00
1373:0.0000000000000000e+00
1374:0.0000000000000000e+00
1375:0.0000000000000000e+00
1376:0.0000000000000000e+00
1377:0.0000000000000000e+00
1378:0.0000000000000000e+00
1379:0.0000000000000000e+00
1380:0.0000000000000000e+00
1381:0.0000000000000000e+00
1382:0.0000000000000000e+00
1383:0.0000000000000000e+00
1384:0.0000000000000000e+00
1385:0.0000000000000000e+00
1386:0.0000000000000000e+00
1387:0.0000000000000000e+00
1388:0.0000000000000000e+00
1389:0.0000000000000000e+00
1390:0.0000000000000000e+00
1391:0.0000000000000000e+00
1392:0.0000000000000000e+00
1393:0.0000000000000000e+00
1394:0.0000000000000000e+00
1395:0.0000000000000000e+00
1396:0.0000000000000000e+00
1397:0.0000000000000000e+00
1398:0.0000000000000000e+00
1399:0.0000000000000000e+00
1400:0.0000000000000000e+00
1401:0.0000000000000000e+00
1402:0.0000000000000000e+00
1403:0.0000000000000000e+00
1404:0.0000000000000000e+00
1405:0.0000000000000000e+00
1406:0.0000000000000000e+00
1407:0.0000000000000000e+00
1408:0.0000000000000000e+00
1409:0.0000000000000000e+00
1410:0.0000000000000000e+00
1411:0.0000000000000000e+00
1412:0.0000000000000000e+00
1413:0.0000000000000000e+00
1414:0.0000000000000000e+00
1415:0.0000000000000000e+00
1416:0.0000000000000000e+00
1417:0.0000000000000000e+00
1418:0.0000000000000000e+00
1419:0.0000000000000000e+00
1420:0.0000000000000000e+00
1421:0.0000000000000000e+00
1422:0.0000000000000000e+00
1423:0.0000000000000000e+00
1424:0.0000000000000000e+00
1425:0.0000000000000000e+00
1426:0.0000000000000000e+00
1427:0.0000000000000000e+00
1428:0.0000000000000000e+00
1429:0.0000000000000000e+00
1430:0.0000000000000000e+00
1431:0.0000000000000000e+00
1432:0.0000000000000000e+00
1433:0.0000000000000000e+00
1434:0.0000000000000000e+00
1435:0.0000000000000000e+00
1436:0.0000000000000000e+00
1437:0.0000000000000000e+00
1438:0.0000000000000000e+00
1439:0.0000000000000000e+00
1440:0.0000000000000000e+00
1441:0.0000000000000000e+00
1442:0.0000000000000000e+00
1443:0.0000000000000000e+00
1444:0.0000000000000000e+00
1445:0.0000000000000000e+00
1446:0.0000000000000000e+00
1447:0.0000000000000000e+00
1448:0.0000000000000000e+00
1449:0.0000000000000000e+00
1450:0.0000000000000000e+00
1451:0.0000000000000000e+00
1452:0.0000000000000000e+00
1453:0.0000000000000000e+00
1454:0.0000000000000000e+00
1455:0.0000000000000000e+00
1456:0.0000000000000000e+00
1457:0.0000000000000000e+00
1458:0.0000000000000000e+00
1459:0.0000000000000000e+00
1460:0.0000000000000000e+00
1461:0.0000000000000000e+00
1462:0.0000000000000000e+00
1463:0.0000000000000000e+00
1464:0.0000000000000000e+00
1465:0.0000000000000000e+00
1466:0.0000000000000000e+00
1467:0.0000000000000000e+00
1468:0.0000000000000000e+00
1469:0.0000000000000000e+00
1470:0.0000000000000000e+00
1471:0.0000000000000000e+00
1472:0.0000000000000000e+00
1473:0.0000000000000000e+00
1474:0.0000000000000000e+00
1475:0.0000000000000000e+00
1476:0.0000000000000000e+00
1477:0.0000000000000000e+00
1478:0.0000000000000000e+00
1479:0.0000000000000000e+00
1480:0.0000000000000000e+00
1481:0.0000000000000000e+00
1482:0.0000000000000000e+00
1483:0.0000000000000000e+00
1484:0.0000000000000000e+00
1485:0.0000000000000000e+00
1486:0.0000000000000000e+00
1487:0.0000000000000000e+00
1488:0.0000000000000000e+00
1489:0.0000000000000000e+00
1490:0.0000000000000000e+00
1491:0.0000000000000000e+00
1492:0.0000000000000000e+00
1493:0.0000000000000000e+00
1494:0.0000000000000000e+00
1495:0.0000000000000000e+00
1496:0.0000000000000000e+00
1497:0.0000000000000000e+00
1498:0.0000000000000000e+00
1499:0.0000000000000000e+00
1500:0.0000000000000000e+00
1501:0.0000000000000000e+00
1502:0.0000000000000000e+00
1503:0.0000000000000000e+00
1504:0.0000000000000000e+00
1505:0.0000000000000000e+00
1506:0.0000000000000000e+00
1507:0.0000000000000000e+00
1508:0.0000000000000000e+00
1509:0.0000000000000000e+00
1510:0.0000000000000000e+00
1511:0.0000000000000000e+00
1512:0.0000000000000000e+00
1513:0.0000000000000000e+00
1514:0.0000000000000000e+00
1515:0.0000000000000000e+00
1516:0.0000000000000000e+00
1517:0.0000000000000000e+00
1518:0.0000000000000000e+00
1519:0.0000000000000000e+00
1520:0.0000000000000000e+00
1521:0.0000000000000000e+00
1522:0.0000000000000000e+00
1523:0.0000000000000000e+00
1524:0.0000000000000000e+00
1525:0.0000000000000000e+00
1526:0.0000000000000000e+00
1527:0.0000000000000000e+00
1528:0.0000000000000000e+00
1529:0.0000000000000000e+00
1530:0.0000000000000000e+00
1531:0.0000000000000000e+00
1532:0.0000000000000000e+00
1533:0.0000000000000000e+00
1534:0.0000000000000000e+00
1535:0.0000000000000000e+00
1536:0.0000000000000000e+00
1537:0.0000000000000000e+00
1538:0.0000000000000000e+00
1539:0.0000000000000000e+00
1540:0.0000000000000000e+00
1541:0.0000000000000000e+00
1542:0.0000000000000000e+00
1543:0.0000000000000000e+00
1544:0.0000000000000000e+00
1545:0.0000000000000000e+00
1546:0.0000000000000000e+00
1547:0.0000000000000000e+00
1548:0.0000000000000000e+00
1549:0.0000000000000000e+00
1550:0.0000000000000000e+00
1551:0.0000000000000000e+00
1552:0.0000000000000000e+00
1553:0.0000000000000000e+00
1554:0.0000000000000000e+00
1555:0.0000000000000000e+00
1556:0.0000000000000000e+00
1557:0.0000000000000000e+00
1558:0.0000000000000000e+00
1559:0.0000000000000000e+00
1560:0.0000000000000000e+00
1561:0.0000000000000000e+00
1562:0.0000000000000000e+00
1563:0.0000000000000000e+00
1564:0.0000000000000000e+00
1565:0.0000000000000000e+00
1566:0.0000000000000000e+00
1567:0.0000000000000000e+00
1568:0.0000000000000000e+00
1569:0.0000000000000000e+00
1570:0.0000000000000000e+00
1571:0.0000000000000000e+00
1572:0.0000000000000000e+00
1573:0.0000000000000000e+00
1574:0.0000000000000000e+00
1575:0.0000000000000000e+00
1576:0.0000000000000000e+00
1577:0.0000000000000000e+00
1578:0.0000000000000000e+00
1579:0.0000000000000000e+00
1580:0.0000000000000000e+00
1581:0.0000000000000000e+00
1582:0.0000000000000000e+00
1583:0.0000000000000000e+00
1584:0.0000000000000000e+00
1585:0.0000000000000000e+00
1586:0.0000000000000000e+00
1587:0.0000000000000000e+00
1588:0.0000000000000000e+00
1589:0.0000000000000000e+00
1590:0.0000000000000000e+00
1591:0.0000000000000000e+00
1592:0.0000000000000000e+00
1593:0.0000000000000000e+00
1594:0.0000000000000000e+00
1595:0.0000000000000000e+00
1596:0.0000000000000000e+00
1597:0.0000000000000000e+00
1598:0.0000000000000000e+00
1599:0.0000000000000000e+00
1600:0.0000000000000000e+00
1601:0.0000000000000000e+00
1602:0.0000000000000000e+00
1603:0.0000000000000000e+00
1604:0.0000000000000000e+00
1605:0.0000000000000000e+00
1606:0.0000000000000000e+00
1607:0.0000000000000000e+00
1608:0.0000000000000000e+00
1609:0.0000000000000000e+00
1610:0.0000000000000000e+00
1611:0.0000000000000000e+00
1612:0.0000000000000000e+00
1613:0.0000000000000000e+00
1614:0.0000000000000000e+00
1615:0.0000000000000000e+00
1616:0.0000000000000000e+00
1617:0.0000000000000000e+00
1618:0.0000000000000000e+00
1619:0.0000000000000000e+00
1620:0.0000000000000000e+00
1621:0.0000000000000000e+00
1622:0.0000000000000000e+00
1623:0.0000000000000000e+00
1624:0.0000000000000000e+00
1625:0.0000000000000000e+00
1626:0.0000000000000000e+00
1627:0.0000000000000000e+00
1628:0.0000000000000000e+00
1629:0.0000000000000000e+00
1630:0.0000000000000000e+00
1631:0.0000000000000000e+00
1632:0.0000000000000000e+00
1633:0.0000000000000000e+00
1634:0.0000000000000000e+00
1635:0.0000000000000000e+00
1636:0.0000000000000000e+00
1637:0.0000000000000000e+00
1638:0.0000000000000000e+00
1639:0.0000000000000000e+00
1640:0.0000000000000000e+00
1641:0.0000000000000000e+00
1642:0.0000000000000000e+00
1643:0.0000000000000000e+00
1644:0.0000000000000000e+00
1645:0.0000000000000000e+00
1646:0.0000000000000000e+00
1647:0.0000000000000000e+00
1648:0.0000000000000000e+00
1649:0.0000000000000000e+00
1650:0.0000000000000000e+00
1651:0.0000000000000000e+00
1652:0.0000000000000000e+00
1653:0.0000000000000000e+00
1654:0.0000000000000000e+00
1655:0.0000000000000000e+00
1656:0.0000000000000000e+00
1657:0.0000000000000000e+00
1658:0.0000000000000000e+00
1659:0.0000000000000000e+00
1660:0.0000000000000000e+00
1661:0.0000000000000000e+00
1662:0.0000000000000000e+00
1663:0.0000000000000000e+00
1664:0.0000000000000000e+00
1665:0.0000000000000000e+00
1666:0.0000000000000000e+00
1667:0.0000000000000000e+00
1668:0.0000000000000000e+00
1669:0.0000000000000000e+00
1670:0.0000000000000000e+00
1671:0.0000000000000000e+00
1672:0.0000000000000000e+00
1673:0.0000000000000000e+00
1674:0.0000000000000000e+00
1675:0.0000000000000000e+00
1676:0.0000000000000000e+00
1677:0.0000000000000000e+00
1678:0.0000000000000000e+00
1679:0.0000000000000000e+00
1680:0.0000000000000000e+00
1681:0.0000000000000000e+00
1682:0.0000000000000000e+00
1683:0.0000000000000000e+00
1684:0.0000000000000000e+00
1685:0.0000000000000000e+00
1686:0.0000000000000000e+00
1687:0.0000000000000000e+00
1688:0.0000000000000000e+00
1689:0.0000000000000000e+00
1690:0.0000000000000000e+00
1691:0.0000000000000000e+00
1692:0.0000000000000000e+00
1693:0.0000000000000000e+00
1694:0.0000000000000000e+00
1695:0.0000000000000000e+00
1696:0.0000000000000000e+00
1697:0.0000000000000000e+00
1698:0.0000000000000000e+00
1699:0.0000000000000000e+00
1700:0.0000000000000000e+00
1701:0.0000000000000000e+00
1702:0.0000000000000000e+00
1703:0.0000000000000000e+00
1704:0.0000000000000000e+00
1705:0.0000000000000000e+00
1706:0.0000000000000000e+00
1707:0.0000000000000000e+00
1708:0.0000000000000000e+00
1709:0.0000000000000000e+00
1710:0.0000000000000000e+00
1711:0.0000000000000000e+00
1712:0.0000000000000000e+00
1713:0.0000000000000000e+00
1714:0.0000000000000000e+00
1715:0.0000000000000000e+00
1716:0.0000000000000000e+00
1717:0.0000000000000000e+00
1718:0.0000000000000000e+00
1719:0.0000000000000000e+00
1720:0.0000000000000000e+00
1721:0.0000000000000000e+00
1722:0.0000000000000000e+00
1723:0.0000000000000000e+00
1724:0.0000000000000000e+00
1725:0.0000000000000000e+00
1726:0.0000000000000000e+00
1727:0.0000000000000000e+00
1728:0.0000000000000000e+00
1729:0.0000000000000000e+00
1730:0.0000000000000000e+00
1731:0.0000000000000000e+00
1732:0.0000000000000000e+00
1733:0.0000000000000000e+00
1734:0.0000000000000000e+00
1735:0.0000000000000000e+00
1736:0.0000000000000000e+00
1737:0.0000000000000000e+00
1738:0.0000000000000000e+00
1739:0.0000000000000000e+00
1740:0.0000000000000000e+00
1741:0.0000000000000000e+00
1742:0.0000000000000000e+00
1743:0.0000000000000000e+00
1744:0.0000000000000000e+00
1745:0.0000000000000000e+00
1746:0.0000000000000000e+00
1747:0.0000000000000000e+00
1748:0.0000000000000000e+00
1749:0.0000000000000000e+00
1750:0.0000000000000000e+00
1751:0.0000000000000000e+00
1752:0.0000000000000000e+00
1753:0.0000000000000000e+00
1754:0.0000000000000000e+00
1755:0.0000000000000000e+00
1756:0.0000000000000000e+00
1757:0.0000000000000000e+00
1758:0.0000000000000000e+00
1759:0.0000000000000000e+00
1760:0.0000000000000000e+00
1761:0.0000000000000000e+00
1762:0.0000000000000000e+00
1763:0.0000000000000000e+00
1764:0.0000000000000000e+00
1765:0.0000000000000000e+00
1766:0.0000000000000000e+00
1767:0.0000000000000000e+00
1768:0.0000000000000000e+00
1769:0.0000000000000000e+00
1770:0.0000000000000000e+00
1771:0.0000000000000000e+00
1772:0.0000000000000000e+00
1773:0.0000000000000000e+00
1774:0.0000000000000000e+00
1775:0.0000000000000000e+00
1776:0.0000000000000000e+00
1777:0.0000000000000000e+00
1778:0.0000000000000000e+00
1779:0.0000000000000000e+00
1780:0.0000000000000000e+00
1781:0.0000000000000000e+00
1782:0.0000000000000000e+00
1783:0.0000000000000000e+00
1784:0.0000000000000000e+00
1785:0.0000000000000000e+00
1786:0.0000000000000000e+00
1787:0.0000000000000000e+00
1788:0.0000000000000000e+00
1789:0.0000000000000000e+00
1790:0.0000000000000000e+00
1791:0.0000000000000000e+00
1792:0.0000000000000000e+00
1793:0.0000000000000000e+00
1794:0.0000000000000000e+00
1795:0.0000000000000000e+00
1796:0.0000000000000000e+00
1797:0.0000000000000000e+00
1798:0.0000000000000000e+00
1799:0.0000000000000000e+00
1800:0.0000000000000000e+00
1801:0.0000000000000000e+00
1802:0.0000000000000000e+00
1803:0.0000000000000000e+00
1804:0.0000000000000000e+00
1805:0.0000000000000000e+00
1806:0.0000000000000000e+00
1807:0.0000000000000000e+00
1808:0.0000000000000000e+00
1809:0.0000000000000000e+00
1810:0.0000000000000000e+00
1811:0.0000000000000000e+00
1812:0.0000000000000000e+00
1813:0.0000000000000000e+00
1814:0.0000000000000000e+00
1815:0.0000000000000000e+00
1816:0.0000000000000000e+00
1817:0.0000000000000000e+00
1818:0.0000000000000000e+00
1819:0.0000000000000000e+00
1820:0.0000000000000000e+00
1821:0.0000000000000000e+00
1822:0.0000000000000000e+00
1823:0.0000000000000000e+00
1824:0.0000000000000000e+00
1825:0.0000000000000000e+00
1826:0.0000000000000000e+00
1827:0.0000000000000000e+00
1828:0.0000000000000000e+00
1829:0.0000000000000000e+00
1830:0.0000000000000000e+00
1831:0.0000000000000000e+00
1832:0.0000000000000000e+00
1833:0.0000000000000000e+00
1834:0.0000000000000000e+00
1835:0.0000000000000000e+00
1836:0.0000000000000000e+00
1837:0.0000000000000000e+00
1838:0.0000000000000000e+00
1839:0.0000000000000000e+00
1840:0.0000000000000000e+00
1841:0.0000000000000000e+00
1842:0.0000000000000000e+00
1843:0.0000000000000000e+00
1844:0.0000000000000000e+00
1845:0.0000000000000000e+00
1846:0.0000000000000000e+00
1847:0.0000000000000000e+00
1848:0.0000000000000000e+00
1849:0.0000000000000000e+00
1850:0.0000000000000000e+00
1851:0.0000000000000000e+00
1852:0.0000000000000000e+00
1853:0.0000000000000000e+00
1854:0.0000000000000000e+00
1855:0.0000000000000000e+00
1856:0.0000000000000000e+00
1857:0.0000000000000000e+00
1858:0.0000000000000000e+00
1859:0.0000000000000000e+00
1860:0.0000000000000000e+00
1861:0.0000000000000000e+00
1862:0.0000000000000000e+00
1863:0.0000000000000000e+00
1864:0.0000000000000000e+00
1865:0.0000000000000000e+00
1866:0.0000000000000000e+00
1867:0.0000000000000000e+00
1868:0.0000000000000000e+00
1869:0.0000000000000000e+00
1870:0.0000000000000000e+00
1871:0.0000000000000000e+00
1872:0.0000000000000000e+00
1873:0.0000000000000000e+00
1874:0.0000000000000000e+00
1875:0.0000000000000000e+00
1876:0.0000000000000000e+00
1877:0.0000000000000000e+00
1878:0.0000000000000000e+00
1879:0.0000000000000000e+00
1880:0.0000000000000000e+00
1881:0.0000000000000000e+00
1882:0.0000000000000000e+00
1883:0.0000000000000000e+00
1884:0.0000000000000000e+00
1885:0.0000000000000000e+00
1886:0.0000000000000000e+00
1887:0.0000000000000000e+00
1888:0.0000000000000000e+00
1889:0.0000000000000000e+00
1890:0.0000000000000000e+00
1891:0.0000000000000000e+00
1892:0.0000000000000000e+00
1893:0.0000000000000000e+00
1894:0.0000000000000000e+00
1895:0.0000000000000000e+00
1896:0.0000000000000000e+00
1897:0.0000000000000000e+00
1898:0.0000000000000000e+00
1899:0.0000000000000000e+00
1900:0.0000000000000000e+00
1901:0.0000000000000000e+00
1902:0.0000000000000000e+00
1903:0.0000000000000000e+00
1904:0.0000000000000000e+00
1905:0.0000000000000000e+00
1906:0.0000000000000000e+00
1907:0.0000000000000000e+00
1908:0.0000000000000000e+00
1909:0.0000000000000000e+00
1910:0.0000000000000000e+00
1911:0.0000000000000000e+00
1912:0.0000000000000000e+00
1913:0.0000000000000000e+00
1914:0.0000000000000000e+00
1915:0.0000000000000000e+00
1916:0.0000000000000000e+00
1917:0.0000000000000000e+00
1918:0.0000000000000000e+00
1919:0.0000000000000000e+00
1920:0.0000000000000000e+00
1921:0.0000000000000000e+00
1922:0.0000000000000000e+00
1923:0.0000000000000000e+00
1924:0.0000000000000000e+00
1925:0.0000000000000000e+00
1926:0.0000000000000000e+00
1927:0.0000000000000000e+00
1928:0.0000000000000000e+00
1929:0.0000000000000000e+00
1930:0.0000000000000000e+00
1931:0.0000000000000000e+00
1932:0.0000000000000000e+00
1933:0.0000000000000000e+00
1934:0.0000000000000000e+00
1935:0.0000000000000000e+00
1936:0.0000000000000000e+00
1937:0.0000000000000000e+00
1938:0.0000000000000000e+00
1939:0.0000000000000000e+00
1940:0.0000000000000000e+00
1941:0.0000000000000000e+00
1942:0.0000000000000000e+00
1943:0.0000000000000000e+00
1944:0.0000000000000000e+00
1945:0.0000000000000000e+00
1946:0.0000000000000000e+00
1947:0.0000000000000000e+00
1948:0.0000000000000000e+00
1949:0.0000000000000000e+00
1950:0.0000000000000000e+00
1951:0.0000000000000000e+00
1952:0.0000000000000000e+00
1953:0.0000000000000000e+00
1954:0.0000000000000000e+00
1955:0.0000000000000000e+00
1956:0.0000000000000000e+00
1957:0.0000000000000000e+00
1958:0.0000000000000000e+00
1959:0.0000000000000000e+00
1960:0.0000000000000000e+00
1961:0.0000000000000000e+00
1962:0.0000000000000000e+00
1963:0.0000000000000000e+00
1964:0.0000000000000000e+00
1965:0.0000000000000000e+00
1966:0.0000000000000000e+00
1967:0.0000000000000000e+00
1968:0.0000000000000000e+00
1969:0.0000000000000000e+00
1970:0.0000000000000000e+00
1971:0.0000000000000000e+00
1972:0.0000000000000000e+00
1973:0.0000000000000000e+00
1974:0.0000000000000000e+00
1975:0.0000000000000000e+00
1976:0.0000000000000000e+00
1977:0.0000000000000000e+00
1978:0.0000000000000000e+00
1979:0.0000000000000000e+00
1980:0.0000000000000000e+00
1981:0.0000000000000000e+00
1982:0.0000000000000000e+00
1983:0.0000000000000000e+00
1984:0.0000000000000000e+00
1985:0.0000000000000000e+00
1986:0.0000000000000000e+00
1987:0.0000000000000000e+00
1988:0.0000000000000000e+00
1989:0.0000000000000000e+00
1990:0.0000000000000000e+00
1991:0.0000000000000000e+00
1992:0.0000000000000000e+00
1993:0.0000000000000000e+00
1994:0.0000000000000000e+00
1995:0.0000000000000000e+00
1996:0.0000000000000000e+00
1997:0.0000000000000000e+00
1998:0.0000000000000000e+00
1999:0.0000000000000000e+00
2000:0.0000000000000000e+00
2001:0.0000000000000000e+00
2002:0.0000000000000000e+00
2003:0.0000000000000000e+00
2004:0.0000000000000000e+00
2005:0.0000000000000000e+00
2006:0.0000000000000000e+00
2007:0.0000000000000000e+00
2008:0.0000000000000000e+00
2009:0.0000000000000000e+00
2010:0.0000000000000000e+00
2011:0.0000000000000000e+00
2012:0.0000000000000000e+00
2013:0.0000000000000000e+00
2014:0.0000000000000000e+00
2015:0.0000000000000000e+00
2016:0.0000000000000000e+00
2017:0.0000000000000000e+00
2018:0.0000000000000000e+00
2019:0.0000000000000000e+00
2020:0.0000000000000000e+00
2021:0.0000000000000000e+00
2022:0.0000000000000000e+00
2023:0.0000000000000000e+00
2024:0.0000000000000000e+00
2025:0.0000000000000000e+00
2026:0.0000000000000000e+00
2027:0.0000000000000000e+00
2028:0.0000000000000000e+00
2029:0.0000000000000000e+00
2030:0.0000000000000000e+00
2031:0.0000000000000000e+00
2032:0.0000000000000000e+00
2033:0.0000000000000000e+00
2034:0.0000000000000000e+00
2035:0.0000000000000000e+00
2036:0.0000000000000000e+00
2037:0.0000000000000000e+00
2038:0.0000000000000000e+00
2039:0.0000000000000000e+00
2040:0.0000000000000000e+00
2041:0.0000000000000000e+00
2042:0.0000000000000000e+00
2043:0.0000000000000000e+00
2044:0.0000000000000000e+00
2045:0.0000000000000000e+00
2046:0.0000000000000000e+00
2047:0.0000000000000000e+00
2048:0.0000000000000000e+00
2049:0.0000000000000000e+00
2050:0.0000000000000000e+00
2051:0.0000000000000000e+00
2052:0.0000000000000000e+00
2053:0.0000000000000000e+00
2054:0.0000000000000000e+00
2055:0.0000000000000000e+00
2056:0.0000000000000000e+00
2057:0.0000000000000000e+00
2058:0.0000000000000000e+00
2059:0.0000000000000000e+00
2060:0.0000000000000000e+00
2061:0.0000000000000000e+00
2062:0.0000000000000000e+00
2063:0.0000000000000000e+00
2064:0.0000000000000000e+00
2065:0.0000000000000000e+00
2066:0.0000000000000000e+00
2067:0.0000000000000000e+00
2068:0.0000000000000000e+00
2069:0.0000000000000000e+00
2070:0.0000000000000000e+00
2071:0.0000000000000000e+00
2072:0.0000000000000000e+00
2073:0.0000000000000000e+00
2074:0.0000000000000000e+00
2075:0.0000000000000000e+00
2076:0.0000000000000000e+00
2077:0.0000000000000000e+00
2078:0.0000000000000000e+00
2079:0.0000000000000000e+00
2080:0.0000000000000000e+00
2081:0.0000000000000000e+00
2082:0.0000000000000000e+00
2083:0.0000000000000000e+00
2084:0.0000000000000000e+00
2085:0.0000000000000000e+00
2086:0.0000000000000000e+00
2087:0.0000000000000000e+00
2088:0.0000000000000000e+00
2089:0.0000000000000000e+00
2090:0.0000000000000000e+00
2091:0.0000000000000000e+00
2092:0.0000000000000000e+00
2093:0.0000000000000000e+00
2094:0.0000000000000000e+00
2095:0.0000000000000000e+00
2096:0.0000000000000000e+00
2097:0.0000000000000000e+00
2098:0.0000000000000000e+00
2099:0.0000000000000000e+00
2100:0.0000000000000000e+00
2101:0.0000000000000000e+00
2102:0.0000000000000000e+00
2103:0.0000000000000000e+00
2104:0.0000000000000000e+00
2105:0.0000000000000000e+00
2106:0.0000000000000000e+00
2107:0.0000000000000000e+00
2108:0.0000000000000000e+00
2109:0.0000000000000000e+00
2110:0.0000000000000000e+00
2111:0.0000000000000000e+00
2112:0.0000000000000000e+00
2113:0.0000000000000000e+00
2114:0.0000000000000000e+00
2115:0.0000000000000000e+00
2116:0.0000000000000000e+00
2117:0.0000000000000000e+00
2118:0.0000000000000000e+00
2119:0.0000000000000000e+00
2120:0.0000000000000000e+00
2121:0.0000000000000000e+00
2122:0.0000000000000000e+00
2123:0.0000000000000000e+00
2124:0.0000000000000000e+00
2125:0.0000000000000000e+00
2126:0.0000000000000000e+00
2127:0.0000000000000000e+00
2128:0.0000000000000000e+00
2129:0.0000000000000000e+00
2130:0.0000000000000000e+00
2131:0.0000000000000000e+00
2132:0.0000000000000000e+00
2133:0.0000000000000000e+00
2134:0.0000000000000000e+00
2135:0.0000000000000000e+00
2136:0.0000000000000000e+00
2137:0.0000000000000000e+00
2138:0.0000000000000000e+00
2139:0.0000000000000000e+00
2140:0.0000000000000000e+00
2141:0.0000000000000000e+00
2142:0.0000000000000000e+00
2143:0.0000000000000000e+00
2144:0.0000000000000000e+00
2145:0.0000000000000000e+00
2146:0.0000000000000000e+00
2147:0.0000000000000000e+00
2148:0.0000000000000000e+00
2149:0.0000000000000000e+00
2150:0.0000000000000000e+00
2151:0.0000000000000000e+00
2152:0.0000000000000000e+00
2153:0.0000000000000000e+00
2154:0.0000000000000000e+00
2155:0.0000000000000000e+00
2156:0.0000000000000000e+00
2157:0.0000000000000000e+00
2158:0.0000000000000000e+00
2159:0.0000000000000000e+00
2160:0.0000000000000000e+00
2161:0.0000000000000000e+00
2162:0.0000000000000000e+00
2163:0.0000000000000000e+00
2164:0.0000000000000000e+00
2165:0.0000000000000000e+00
2166:0.0000000000000000e+00
2167:0.0000000000000000e+00
2168:0.0000000000000000e+00
2169:0.0000000000000000e+00
2170:0.0000000000000000e+00
2171:0.0000000000000000e+00
2172:0.0000000000000000e+00
2173:0.0000000000000000e+00
2174:0.0000000000000000e+00
2175:0.0000000000000000e+00
2176:0.0000000000000000e+00
2177:0.0000000000000000e+00
2178:0.0000000000000000e+00
2179:0.0000000000000000e+00
2180:0.0000000000000000e+00
2181:0.0000000000000000e+00
2182:0.0000000000000000e+00
2183:0.0000000000000000e+00
2184:0.0000000000000000e+00
2185:0.0000000000000000e+00
2186:0.0000000000000000e+00
2187:0.0000000000000000e+00
2188:0.0000000000000000e+00
2189:0.0000000000000000e+00
2190:0.0000000000000000e+00
2191:0.0000000000000000e+00
2192:0.0000000000000000e+00
2193:0.0000000000000000e+00
2194:0.0000000000000000e+00
2195:0.0000000000000000e+00
2196:0.0000000000000000e+00
2197:0.0000000000000000e+00
2198:0.0000000000000000e+00
2199:0.0000000000000000e+00
2200:0.0000000000000000e+00
2201:0.0000000000000000e+00
2202:0.0000000000000000e+00
2203:0.0000000000000000e+00
2204:0.0000000000000000e+00
2205:0.0000000000000000e+00
2206:0.0000000000000000e+00
2207:0.0000000000000000e+00
2208:0.0000000000000000e+00
2209:0.0000000000000000e+00
2210:0.0000000000000000e+00
2211:0.0000000000000000e+00
2212:0.0000000000000000e+00
2213:0.0000000000000000e+00
2214:0.0000000000000000e+00
2215:0.0000000000000000e+00
2216:0.0000000000000000e+00
2217:0.0000000000000000e+00
2218:0.0000000000000000e+00
2219:0.0000000000000000e+00
2220:0.0000000000000000e+00
2221:0.0000000000000000e+00
2222:0.0000000000000000e+00
2223:0.0000000000000000e+00
2224:0.0000000000000000e+00
2225:0.0000000000000000e+00
2226:0.0000000000000000e+00
2227:0.0000000000000000e+00
2228:0.0000000000000000e+00
2229:0.0000000000000000e+00
2230:0.0000000000000000e+00
2231:0.0000000000000000e+00
2232:0.0000000000000000e+00
2233:0.0000000000000000e+00
2234:0.0000000000000000e+00
2235:0.0000000000000000e+00
2236:0.0000000000000000e+00
2237:0.0000000000000000e+00
2238:0.0000000000000000e+00
2239:0.0000000000000000e+00
2240:0.0000000000000000e+00
2241:0.0000000000000000e+00
2242:0.0000000000000000e+00
2243:0.0000000000000000e+00
2244:0.0000000000000000e+00
2245:0.0000000000000000e+00
2246:0.0000000000000000e+00
2247:0.0000000000000000e+00
2248:0.0000000000000000e+00
2249:0.0000000000000000e+00
2250:0.0000000000000000e+00
2251:0.0000000000000000e+00
2252:0.0000000000000000e+00
2253:0.0000000000000000e+00
2254:0.0000000000000000e+00
2255:0.0000000000000000e+00
2256:0.0000000000000000e+00
2257:0.0000000000000000e+00
2258:0.0000000000000000e+00
2259:0.0000000000000000e+00
2260:0.0000000000000000e+00
2261:0.0000000000000000e+00
2262:0.0000000000000000e+00
2263:0.0000000000000000e+00
2264:0.0000000000000000e+00
2265:0.0000000000000000e+00
2266:0.0000000000000000e+00
2267:0.0000000000000000e+00
2268:0.0000000000000000e+00
2269:0.0000000000000000e+00
2270:0.0000000000000000e+00
2271:0.0000000000000000e+00
2272:0.0000000000000000e+00
2273:0.0000000000000000e+00
2274:0.0000000000000000e+00
2275:0.0000000000000000e+00
2276:0.0000000000000000e+00
2277:0.0000000000000000e+00
2278:0.0000000000000000e+00
2279:0.0000000000000000e+00
2280:0.0000000000000000e+00
2281:0.0000000000000000e+00
2282:0.0000000000000000e+00
2283:0.0000000000000000e+00
2284:0.0000000000000000e+00
2285:0.0000000000000000e+00
2286:0.0000000000000000e+00
2287:0.0000000000000000e+00
2288:0.0000000000000000e+00
2289:0.0000000000000000e+00
2290:0.0000000000000000e+00
2291:0.0000000000000000e+00
2292:0.0000000000000000e+00
2293:0.0000000000000000e+00
2294:0.0000000000000000e+00
2295:0.0000000000000000e+00
2296:0.0000000000000000e+00
2297:0.0000000000000000e+00
2298:0.0000000000000000e+00
2299:0.0000000000000000e+00
2300:0.0000000000000000e+00
2301:0.0000000000000000e+00
2302:0.0000000000000000e+00
2303:0.0000000000000000e+00
2304:0.0000000000000000e+00
2305:0.0000000000000000e+00
2306:0.0000000000000000e+00
2307:0.0000000000000000e+00
2308:0.0000000000000000e+00
2309:0.0000000000000000e+00
2310:0.0000000000000000e+00
2311:0.0000000000000000e+00
2312:0.0000000000000000e+00
2313:0.0000000000000000e+00
2314:0.0000000000000000e+00
2315:0.0000000000000000e+00
2316:0.0000000000000000e+00
2317:0.0000000000000000e+00
2318:0.0000000000000000e+00
2319:0.0000000000000000e+00
2320:0.0000000000000000e+00
2321:0.0000000000000000e+00
2322:0.0000000000000000e+00
2323:0.0000000000000000e+00
2324:0.0000000000000000e+00
2325:0.0000000000000000e+00
2326:0.0000000000000000e+00
2327:0.0000000000000000e+00
2328:0.0000000000000000e+00
2329:0.0000000000000000e+00
2330:0.0000000000000000e+00
2331:0.0000000000000000e+00
2332:0.0000000000000000e+00
2333:0.0000000000000000e+00
2334:0.0000000000000000e+00
2335:0.0000000000000000e+00
2336:0.0000000000000000e+00
2337:0.0000000000000000e+00
2338:0.0000000000000000e+00
2339:0.0000000000000000e+00
2340:0.0000000000000000e+00
2341:0.0000000000000000e+00
2342:0.0000000000000000e+00
2343:0.0000000000000000e+00
2344:0.0000000000000000e+00
2345:0.0000000000000000e+00
2346:0.0000000000000000e+00
2347:0.0000000000000000e+00
2348:0.0000000000000000e+00
2349:0.0000000000000000e+00
2350:0.0000000000000000e+00
2351:0.0000000000000000e+00
2352:0.0000000000000000e+00
2353:0.0000000000000000e+00
2354:0.0000000000000000e+00
2355:0.0000000000000000e+00
2356:0.0000000000000000e+00
2357:0.0000000000000000e+00
2358:0.0000000000000000e+00
2359:0.0000000000000000e+00
2360:0.0000000000000000e+00
2361:0.0000000000000000e+00
2362:0.0000000000000000e+00
2363:0.0000000000000000e+00
2364:0.0000000000000000e+00
2365:0.0000000000000000e+00
2366:0.0000000000000000e+00
2367:0.0000000000000000e+00
2368:0.0000000000000000e+00
2369:0.0000000000000000e+00
2370:0.0000000000000000e+00
2371:0.0000000000000000e+00
2372:0.0000000000000000e+00
2373:0.0000000000000000e+00
2374:0.0000000000000000e+00
2375:0.0000000000000000e+00
2376:0.0000000000000000e+00
2377:0.0000000000000000e+00
2378:0.0000000000000000e+00
2379:0.0000000000000000e+00
2380:0.0000000000000000e+00
2381:0.0000000000000000e+00
2382:0.0000000000000000e+00
2383:0.0000000000000000e+00
2384:0.0000000000000000e+00
2385:0.0000000000000000e+00
2386:0.0000000000000000e+00
2387:0.0000000000000000e+00
2388:0.0000000000000000e+00
2389:0.0000000000000000e+00
2390:0.0000000000000000e+00
2391:0.0000000000000000e+00
2392:0.0000000000000000e+00
2393:0.0000000000000000e+00
2394:0.0000000000000000e+00
2395:0.0000000000000000e+00
2396:0.0000000000000000e+00
2397:0.0000000000000000e+00
2398:0.0000000000000000e+00
2399:0.0000000000000000e+00
2400:0.0000000000000000e+00
2401:0.0000000000000000e+00
2402:0.0000000000000000e+00
2403:0.0000000000000000e+00
2404:0.0000000000000000e+00
2405:0.0000000000000000e+00
2406:0.0000000000000000e+00
2407:0.0000000000000000e+00
2408:0.0000000000000000e+00
2409:0.0000000000000000e+00
2410:0.0000000000000000e+00
2411:0.0000000000000000e+00
2412:0.0000000000000000e+00
2413:0.0000000000000000e+00
2414:0.0000000000000000e+00
2415:0.0000000000000000e+00
2416:0.0000000000000000e+00
2417:0.0000000000000000e+00
2418:0.0000000000000000e+00
2419:0.0000000000000000e+00
2420:0.0000000000000000e+00
2421:0.0000000000000000e+00
2422:0.0000000000000000e+00
2423:0.0000000000000000e+00
2424:0.0000000000000000e+00
2425:0.0000000000000000e+00
2426:0.0000000000000000e+00
2427:0.0000000000000000e+00
2428:0.0000000000000000e+00
2429:0.0000000000000000e+00
2430:0.0000000000000000e+00
2431:0.0000000000000000e+00
2432:0.0000000000000000e+00
2433:0.0000000000000000e+00
2434:0.0000000000000000e+00
2435:0.0000000000000000e+00
2436:0.0000000000000000e+00
2437:0.0000000000000000e+00
2438:0.0000000000000000e+00
2439:0.0000000000000000e+00
2440:0.0000000000000000e+00
2441:0.0000000000000000e+00
2442:0.0000000000000000e+00
2443:0.0000000000000000e+00
2444:0.0000000000000000e+00
2445:0.0000000000000000e+00
2446:0.0000000000000000e+00
2447:0.0000000000000000e+00
2448:0.0000000000000000e+00
2449:0.0000000000000000e+00
2450:0.0000000000000000e+00
2451:0.0000000000000000e+00
2452:0.0000000000000000e+00
2453:0.0000000000000000e+00
2454:0.0000000000000000e+00
2455:0.0000000000000000e+00
2456:0.0000000000000000e+00
2457:0.0000000000000000e+00
2458:0.0000000000000000e+00
2459:0.0000000000000000e+00
2460:0.0000000000000000e+00
2461:0.0000000000000000e+00
2462:0.0000000000000000e+00
2463:0.0000000000000000e+00
2464:0.0000000000000000e+00
2465:0.0000000000000000e+00
2466:0.0000000000000000e+00
2467:0.0000000000000000e+00
2468:0.0000000000000000e+00
2469:0.0000000000000000e+00
2470:0.0000000000000000e+00
2471:0.0000000000000000e+00
2472:0.0000000000000000e+00
2473:0.0000000000000000e+00
2474:0.0000000000000000e+00
2475:0.0000000000000000e+00
2476:0.0000000000000000e+00
2477:0.0000000000000000e+00
2478:0.0000000000000000e+00
2479:0.0000000000000000e+00
2480:0.0000000000000000e+00
2481:0.0000000000000000e+00
2482:0.0000000000000000e+00
2483:0.0000000000000000e+00
2484:0.0000000000000000e+00
2485:0.0000000000000000e+00
2486:0.0000000000000000e+00
2487:0.0000000000000000e+00
2488:0.0000000000000000e+00
2489:0.0000000000000000e+00
2490:0.0000000000000000e+00
2491:0.0000000000000000e+00
2492:0.0000000000000000e+00
2493:0.0000000000000000e+00
2494:0.0000000000000000e+00
2495:0.0000000000000000e+00
2496:0.0000000000000000e+00
2497:0.0000000000000000e+00
2498:0.0000000000000000e+00
2499:0.0000000000000000e+00
2500:0.0000000000000000e+00
2501:0.0000000000000000e+00
2502:0.0000000000000000e+00
2503:0.0000000000000000e+00
2504:0.0000000000000000e+00
2505:0.0000000000000000e+00
2506:0.0000000000000000e+00
2507:0.0000000000000000e+00
2508:0.0000000000000000e+00
2509:0.0000000000000000e+00
2510:0.0000000000000000e+00
2511:0.0000000000000000e+00
2512:0.0000000000000000e+00
2513:0.0000000000000000e+00
2514:0.0000000000000000e+00
2515:0.0000000000000000e+00
2516:0.0000000000000000e+00
2517:0.0000000000000000e+00
2518:0.0000000000000000e+00
2519:0.0000000000000000e+00
2520:0.0000000000000000e+00
2521:0.0000000000000000e+00
2522:0.0000000000000000e+00
2523:0.0000000000000000e+00
2524:0.0000000000000000e+00
2525:0.0000000000000000e+00
2526:0.0000000000000000e+00
2527:0.0000000000000000e+00
2528:0.0000000000000000e+00
2529:0.0000000000000000e+00
2530:0.0000000000000000e+00
2531:0.0000000000000000e+00
2532:0.0000000000000000e+00
2533:0.0000000000000000e+00
2534:0.0000000000000000e+00
2535:0.0000000000000000e+00
2536:0.0000000000000000e+00
2537:0.0000000000000000e+00
2538:0.0000000000000000e+00
2539:0.0000000000000000e+00
2540:0.0000000000000000e+00
2541:0.0000000000000000e+00
2542:0.0000000000000000e+00
2543:0.0000000000000000e+00
2544:0.0000000000000000e+00
2545:0.0000000000000000e+00
2546:0.0000000000000000e+00
2547:0.0000000000000000e+00
2548:0.0000000000000000e+00
2549:0.0000000000000000e+00
2550:0.0000000000000000e+00
2551:0.0000000000000000e+00
2552:0.0000000000000000e+00
2553:0.0000000000000000e+00
2554:0.0000000000000000e+00
2555:0.0000000000000000e+00
2556:0.0000000000000000e+00
2557:0.0000000000000000e+00
2558:0.0000000000000000e+00
2559:0.0000000000000000e+00
2560:0.0000000000000000e+00
2561:0.0000000000000000e+00
2562:0.0000000000000000e+00
2563:0.0000000000000000e+00
2564:0.0000000000000000e+00
2565:0.0000000000000000e+00
2566:0.0000000000000000e+00
2567:0.0000000000000000e+00
2568:0.0000000000000000e+00
2569:0.0000000000000000e+00
2570:0.0000000000000000e+00
2571:0.0000000000000000e+00
2572:0.0000000000000000e+00
2573:0.0000000000000000e+00
2574:0.0000000000000000e+00
2575:0.0000000000000000e+00
2576:0.0000000000000000e+00
2577:0.0000000000000000e+00
2578:0.0000000000000000e+00
2579:0.0000000000000000e+00
2580:0.0000000000000000e+00
2581:0.0000000000000000e+00
2582:0.0000000000000000e+00
2583:0.0000000000000000e+00
2584:0.0000000000000000e+00
2585:0.0000000000000000e+00
2586:0.0000000000000000e+00
2587:0.0000000000000000e+00
2588:0.0000000000000000e+00
2589:0.0000000000000000e+00
2590:0.0000000000000000e+00
2591:0.0000000000000000e+00
2592:0.0000000000000000e+00
2593:0.0000000000000000e+00
2594:0.0000000000000000e+00
2595:0.0000000000000000e+00
2596:0.0000000000000000e+00
2597:0.0000000000000000e+00
2598:0.0000000000000000e+00
2599:0.0000000000000000e+00
2600:0.0000000000000000e+00
2601:0.0000000000000000e+00
2602:0.0000000000000000e+00
2603:0.0000000000000000e+00
2604:0.0000000000000000e+00
2605:0.0000000000000000e+00
2606:0.0000000000000000e+00
2607:0.0000000000000000e+00
2608:0.0000000000000000e+00
2609:0.0000000000000000e+00
2610:0.0000000000000000e+00
2611:0.0000000000000000e+00
2612:0.0000000000000000e+00
2613:0.0000000000000000e+00
2614:0.0000000000000000e+00
2615:0.0000000000000000e+00
2616:0.0000000000000000e+00
2617:0.0000000000000000e+00
2618:0.0000000000000000e+00
2619:0.0000000000000000e+00
2620:0.0000000000000000e+00
2621:0.0000000000000000e+00
2622:0.0000000000000000e+00
2623:0.0000000000000000e+00
2624:0.0000000000000000e+00
2625:0.0000000000000000e+00
2626:0.0000000000000000e+00
2627:0.0000000000000000e+00
2628:0.0000000000000000e+00
2629:0.0000000000000000e+00
2630:0.0000000000000000e+00
2631:0.0000000000000000e+00
2632:0.0000000000000000e+00
2633:0.0000000000000000e+00
2634:0.0000000000000000e+00
2635:0.0000000000000000e+00
2636:0.0000000000000000e+00
2637:0.0000000000000000e+00
2638:0.0000000000000000e+00
2639:0.0000000000000000e+00
2640:0.0000000000000000e+00
2641:0.0000000000000000e+00
2642:0.0000000000000000e+00
2643:0.0000000000000000e+00
2644:0.0000000000000000e+00
2645:0.0000000000000000e+00
2646:0.0000000000000000e+00
2647:0.0000000000000000e+00
2648:0.0000000000000000e+00
2649:0.0000000000000000e+00
2650:0.0000000000000000e+00
2651:0.0000000000000000e+00
2652:0.0000000000000000e+00
2653:0.0000000000000000e+00
2654:0.0000000000000000e+00
2655:0.0000000000000000e+00
2656:0.0000000000000000e+00
2657:0.0000000000000000e+00
2658:0.0000000000000000e+00
2659:0.0000000000000000e+00
2660:0.0000000000000000e+00
2661:0.0000000000000000e+00
2662:0.0000000000000000e+00
2663:0.0000000000000000e+00
2664:0.0000000000000000e+00
2665:0.0000000000000000e+00
2666:0.0000000000000000e+00
2667:0.0000000000000000e+00
2668:0.0000000000000000e+00
2669:0.0000000000000000e+00
2670:0.0000000000000000e+00
2671:0.0000000000000000e+00
2672:0.0000000000000000e+00
2673:0.0000000000000000e+00
2674:0.0000000000000000e+00
2675:0.0000000000000000e+00
2676:0.0000000000000000e+00
2677:0.0000000000000000e+00
2678:0.0000000000000000e+00
2679:0.0000000000000000e+00
2680:0.0000000000000000e+00
2681:0.0000000000000000e+00
2682:0.0000000000000000e+00
2683:0.0000000000000000e+00
2684:0.0000000000000000e+00
2685:0.0000000000000000e+00
2686:0.0000000000000000e+00
2687:0.0000000000000000e+00
2688:0.0000000000000000e+00
2689:0.0000000000000000e+00
2690:0.0000000000000000e+00
2691:0.0000000000000000e+00
2692:0.0000000000000000e+00
2693:0.0000000000000000e+00
2694:0.0000000000000000e+00
2695:0.0000000000000000e+00
2696:0.0000000000000000e+00
2697:0.0000000000000000e+00
2698:0.0000000000000000e+00
2699:0.0000000000000000e+00
2700:0.0000000000000000e+00
2701:0.0000000000000000e+00
2702:0.0000000000000000e+00
2703:0.0000000000000000e+00
2704:0.0000000000000000e+00
2705:0.0000000000000000e+00
2706:0.0000000000000000e+00
2707:0.0000000000000000e+00
2708:0.0000000000000000e+00
2709:0.0000000000000000e+00
2710:0.0000000000000000e+00
2711:0.0000000000000000e+00
2712:0.0000000000000000e+00
2713:0.0000000000000000e+00
2714:0.0000000000000000e+00
2715:0.0000000000000000e+00
2716:0.0000000000000000e+00
2717:0.0000000000000000e+00
2718:0.0000000000000000e+00
2719:0.0000000000000000e+00
2720:0.0000000000000000e+00
2721:0.0000000000000000e+00
2722:0.0000000000000000e+00
2723:0.0000000000000000e+00
2724:0.0000000000000000e+00
2725:0.0000000000000000e+00
2726:0.0000000000000000e+00
2727:0.0000000000000000e+00
2728:0.0000000000000000e+00
2729:0.0000000000000000e+00
2730:0.0000000000000000e+00
2731:0.0000000000000000e+00
2732:0.0000000000000000e+00
2733:0.0000000000000000e+00
2734:0.0000000000000000e+00
2735:0.0000000000000000e+00
2736:0.0000000000000000e+00
2737:0.0000000000000000e+00
2738:0.0000000000000000e+00
2739:0.0000000000000000e+00
2740:0.0000000000000000e+00
2741:0.0000000000000000e+00
2742:0.0000000000000000e+00
2743:0.0000000000000000e+00
2744:0.0000000000000000e+00
2745:0.0000000000000000e+00
2746:0.0000000000000000e+00
2747:0.0000000000000000e+00
2748:0.0000000000000000e+00
2749:0.0000000000000000e+00
2750:0.0000000000000000e+00
2751:0.0000000000000000e+00
2752:0.0000000000000000e+00
2753:0.0000000000000000e+00
2754:0.0000000000000000e+00
2755:0.0000000000000000e+00
2756:0.0000000000000000e+00
2757:0.0000000000000000e+00
2758:0.0000000000000000e+00
2759:0.0000000000000000e+00
2760:0.0000000000000000e+00
2761:0.0000000000000000e+00
2762:0.0000000000000000e+00
2763:0.0000000000000000e+00
2764:0.0000000000000000e+00
2765:0.0000000000000000e+00
2766:0.0000000000000000e+00
2767:0.0000000000000000e+00
2768:0.0000000000000000e+00
2769:0.0000000000000000e+00
2770:0.0000000000000000e+00
2771:0.0000000000000000e+00
2772:0.0000000000000000e+00
2773:0.0000000000000000e+00
2774:0.0000000000000000e+00
2775:0.0000000000000000e+00
2776:0.0000000000000000e+00
2777:0.0000000000000000e+00
2778:0.0000000000000000e+00
2779:0.0000000000000000e+00
2780:0.0000000000000000e+00
2781:0.0000000000000000e+00
2782:0.0000000000000000e+00
2783:0.0000000000000000e+00
2784:0.0000000000000000e+00
2785:0.0000000000000000e+00
2786:0.0000000000000000e+00
2787:0.0000000000000000e+00
2788:0.0000000000000000e+00
2789:0.0000000000000000e+00
2790:0.0000000000000000e+00
2791:0.0000000000000000e+00
2792:0.0000000000000000e+00
2793:0.0000000000000000e+00
2794:0.0000000000000000e+00
2795:0.0000000000000000e+00
2796:0.0000000000000000e+00
2797:0.0000000000000000e+00
2798:0.0000000000000000e+00
2799:0.0000000000000000e+00
2800:0.0000000000000000e+00
2801:0.0000000000000000e+00
2802:0.0000000000000000e+00
2803:0.0000000000000000e+00
2804:0.0000000000000000e+00
2805:0.0000000000000000e+00
2806:0.0000000000000000e+00
2807:0.0000000000000000e+00
2808:0.0000000000000000e+00
2809:0.0000000000000000e+00
2810:0.0000000000000000e+00
2811:0.0000000000000000e+00
2812:0.0000000000000000e+00
2813:0.0000000000000000e+00
2814:0.0000000000000000e+00
2815:0.0000000000000000e+00
2816:0.0000000000000000e+00
2817:0.0000000000000000e+00
2818:0.0000000000000000e+00
2819:0.0000000000000000e+00
2820:0.0000000000000000e+00
2821:0.0000000000000000e+00
2822:0.0000000000000000e+00
2823:0.0000000000000000e+00
2824:0.0000000000000000e+00
