label=Stress xy
num_items=4608

0:2.8368064508063947e-003
1:-1.3095854464101137e-002
2:-7.9433041496260928e-003
3:1.5887675776708556e-002
4:2.4484416262618915e-002
5:5.0201620827632952e-003
6:-5.2092945344087739e-003
7:-1.4257240441429139e-003
8:1.7493109174317324e-002
9:4.8705317643048633e-003
10:-1.0489852913097460e-002
11:-2.1413133557014848e-002
12:-1.4871440855454738e-002
13:-1.3474852361105271e-002
14:-2.1318404471200588e-002
15:-3.4738335381876755e-002
16:3.3678289596676132e-002
17:4.9769419939560307e-002
18:3.2961898125292176e-002
19:-8.8933996644722096e-003
20:4.1556817955961120e-003
21:-3.1269935416460420e-003
22:-5.5506772894570879e-002
23:-1.2851680346557079e-001
24:-1.8632577000151470e-002
25:-1.8588748507305439e-002
26:-6.8032207717578383e-002
27:-1.4386767142728660e-001
28:-2.4041978922126967e-002
29:1.0606416904140279e-002
30:1.2362859239038880e-003
31:-4.7775537553492183e-002
32:-4.1988232505187718e-002
33:-2.0995609508795965e-001
34:-6.7019785944763410e-001
35:-1.2077323317149666e+000
36:-1.6892370693993011e-001
37:-2.9437446760776576e-001
38:-6.1208324893317700e-001
39:-9.7364671510176826e-001
40:-1.9162383707240421e-001
41:-2.9120182037444131e-001
42:-4.6156481476807815e-001
43:-6.2313542688737600e-001
44:-9.9485280366636356e-002
45:-2.0192011252938485e-001
46:-2.8895045854219364e-001
47:-3.1992401533839504e-001
48:-1.5419066913800190e+000
49:-1.9531805412783159e+000
50:-2.0058633081101456e+000
51:-1.6753466121349112e+000
52:-1.1925180478086563e+000
53:-1.4447611662273683e+000
54:-1.4349403569914074e+000
55:-1.1676429684420249e+000
56:-7.0525318467829601e-001
57:-7.7176401505955250e-001
58:-7.0878213696336956e-001
59:-5.4572669570369470e-001
60:-3.0771591832672618e-001
61:-2.4854937020154316e-001
62:-1.6658072742540095e-001
63:-1.0009794656472029e-001
64:-1.3946901757980592e+000
65:-1.0692782859219212e+000
66:-1.1043025685460828e+000
67:-1.4834030088347832e+000
68:-9.6635469521309425e-001
69:-7.5522202742366951e-001
70:-7.9853393132030059e-001
71:-1.0760592033715017e+000
72:-4.4898870647300548e-001
73:-3.6894182709880452e-001
74:-3.9956002257716899e-001
75:-5.2654138306899234e-001
76:-8.4256409873550486e-002
77:-9.0871068148489401e-002
78:-9.3743519210227402e-002
79:-9.1532027026965654e-002
80:-1.7830762129870594e+000
81:-2.1192232183794366e+000
82:-2.0452729031231520e+000
83:-1.5957678235264547e+000
84:-1.2810585933554619e+000
85:-1.4773769531958263e+000
86:-1.3506304738503336e+000
87:-9.6002305978499702e-001
88:-6.1573694873593998e-001
89:-6.7660429833480440e-001
90:-5.4227759976106038e-001
91:-2.7550151519910121e-001
92:-9.7886294660501263e-002
93:-9.0950103027686149e-002
94:2.2001121949816998e-003
95:1.3805342690523484e-001
96:-1.2453732971683051e+000
97:-7.0244586310973545e-001
98:-2.4751215335450971e-001
99:-9.3073943334950157e-002
100:-7.0033890776865837e-001
101:-3.5696094801907219e-001
102:-9.7353818513072635e-002
103:-4.2781287469995891e-002
104:-1.3556813628967018e-001
105:-1.0810885071840783e-002
106:4.8402945244725867e-002
107:1.4414283013760893e-002
108:1.8513180958527470e-001
109:1.7431592725764566e-001
110:1.2167443601763690e-001
111:5.1796435573711656e-002
112:-6.7300642134459535e-002
113:-2.7115504639821927e-002
114:4.3206871841404773e-003
115:1.2323933378360675e-002
116:-3.3516598319859044e-002
117:1.4299047032657509e-002
118:4.8828926080021443e-002
119:5.3943962331119991e-002
120:1.2740023640876286e-002
121:6.8558185306833080e-002
122:1.0457612663780050e-001
123:1.0396968992436696e-001
124:4.9862527911888874e-002
125:1.1031719958103484e-001
126:1.4552249703751075e-001
127:1.3903385252626793e-001
128:1.1491857091419609e-002
129:9.5323312026819595e-003
130:7.7460831559343522e-003
131:6.9674782073843276e-003
132:5.0598384123700990e-002
133:4.4964692040426288e-002
134:3.8338986920339768e-002
135:3.3816168242903538e-002
136:9.7210870033084457e-002
137:8.8234342850172315e-002
138:7.7187550617520251e-002
139:6.9230504369561754e-002
140:1.2955639318141665e-001
141:1.1912981672533630e-001
142:1.0614541889586158e-001
143:9.6668275840387258e-002
144:6.9226086164863839e-003
145:7.0452703780969628e-003
146:6.8180819914869456e-003
147:6.3471642704749790e-003
148:3.2274395414758197e-002
149:3.0741219908711020e-002
150:2.8825125508857897e-002
151:2.7421129342167699e-002
152:6.6016638312297787e-002
153:6.1926527387908763e-002
154:5.7289521117638451e-002
155:5.4271587957980288e-002
156:9.2388169541051515e-002
157:8.6034382169147078e-002
158:7.8915409500809025e-002
159:7.4356558715604787e-002
160:5.9381108281812501e-003
161:5.1730162488573747e-003
162:4.4978787702036269e-003
163:4.2280584321505114e-003
164:2.6437173465730615e-002
165:2.4289693917163738e-002
166:2.1907624163710743e-002
167:2.0403640713982416e-002
168:5.2479582994458603e-002
169:4.8707476135543937e-002
170:4.4331880188017113e-002
171:4.1396657559697937e-002
172:7.1900801718590923e-002
173:6.7020696622826587e-002
174:6.1296166461164897e-002
175:5.7401167453571628e-002
176:4.1804730448934107e-003
177:4.0964798164913260e-003
178:3.8939405654570092e-003
179:3.6674623730132156e-003
180:1.9771970380193810e-002
181:1.8752003042951569e-002
182:1.7477049709565075e-002
183:1.6542647358564592e-002
184:4.0045141299639875e-002
185:3.7783448534377706e-002
186:3.5082494564201282e-002
187:3.3203908285181820e-002
188:5.5530287863408280e-002
189:5.2301134411305100e-002
190:4.8486685167437059e-002
191:4.5868688151863790e-002
192:3.5140627911957691e-003
193:3.2344802363068643e-003
194:2.9421202892128649e-003
195:2.7735457204690712e-003
196:1.6012593557826773e-002
197:1.4990756234536898e-002
198:1.3791839612690674e-002
199:1.2975863548536977e-002
200:3.2183057179747676e-002
201:3.0215694404345180e-002
202:2.7863865298099623e-002
203:2.6226120814429724e-002
204:4.4472150493138261e-002
205:4.1797651175356991e-002
206:3.8585084872233499e-002
207:3.6335057119188552e-002
208:2.6933281182730069e-003
209:2.5282486567875383e-003
210:2.3078851632406670e-003
211:2.1351705102798770e-003
212:1.2535284349846659e-002
213:1.1661121028494471e-002
214:1.0567866596706133e-002
215:9.7661855815769742e-003
216:2.5325068196737882e-002
217:2.3539234663004487e-002
218:2.1324697053028932e-002
219:1.9715876786437211e-002
220:3.5088508660884879e-002
221:3.2614264206551329e-002
222:2.9553808070964718e-002
223:2.7336694381466294e-002
224:2.0270613582493305e-003
225:1.8016260037313164e-003
226:1.5205209320137850e-003
227:1.3150517059492088e-003
228:9.2799823764846533e-003
229:8.2500479336741882e-003
230:6.9371835958828600e-003
231:5.9546347584247513e-003
232:1.8744790697740155e-002
233:1.6683339675582325e-002
234:1.4047972298412960e-002
235:1.2069681641828353e-002
236:2.6000427760588019e-002
237:2.3162269140333626e-002
238:1.9531402630770453e-002
239:1.6803823853001169e-002
240:1.1827365614084618e-003
241:8.7230216311529778e-004
242:4.3441248437393789e-004
243:7.3607949842292711e-005
244:5.3188697128506730e-003
245:3.8867264065894662e-003
246:1.9810269052236702e-003
247:4.9193282745799876e-004
248:1.0789517993188030e-002
249:7.9225010852738038e-003
250:4.1390911406499666e-003
251:1.2065375699020964e-003
252:1.5039314659079242e-002
253:1.1094495978925428e-002
254:5.9005627622897260e-003
255:1.8836267840258299e-003
256:-3.8634922303541507e-002
257:-2.2026962063191713e-002
258:-1.4742342751002150e-002
259:-2.0183745909349311e-002
260:-5.7689197629197796e-002
261:1.4038723254547313e-002
262:8.6305534427678771e-002
263:1.2535505262695462e-001
264:-2.8116213321680135e-002
265:1.5559037786403729e-001
266:3.6491119601975847e-001
267:5.0207145651373353e-001
268:3.6270344063312185e-002
269:3.3650852704865175e-001
270:6.9093656594010222e-001
271:9.3399937894792684e-001
272:1.0973031750014185e-003
273:6.9984404896355518e-002
274:1.0648683109632531e-001
275:9.3554118798107128e-002
276:1.6971100156003105e-001
277:2.8766315497091333e-001
278:3.9776361873398952e-001
279:4.4858392420892551e-001
280:5.6892565672656259e-001
281:6.8227848632942512e-001
282:7.9887975143072454e-001
283:8.6426442708206841e-001
284:1.0122661379415026e+000
285:1.0695036350316618e+000
286:1.1224719089382438e+000
287:1.1464292181605100e+000
288:4.7703481246956017e-002
289:-6.2367091509431247e-002
290:-1.4283485043297667e-001
291:-1.5611290919354834e-001
292:4.2215617879643696e-001
293:3.0664455551369074e-001
294:1.9403637445972613e-001
295:1.3693147136676323e-001
296:8.4988848769766634e-001
297:7.4601730748996697e-001
298:6.1592465827611664e-001
299:5.2037745694058646e-001
300:1.1311045407677327e+000
301:1.0505179889710732e+000
302:9.2576390672012243e-001
303:8.1511553998960129e-001
304:-1.2726541326698820e-001
305:-4.4137124332194223e-002
306:3.6256081028119162e-002
307:7.6362140820232766e-002
308:1.4160053636103051e-001
309:1.9751806607132430e-001
310:2.6415190117024856e-001
311:3.1037704924955661e-001
312:4.9809779270303439e-001
313:5.1702731447812555e-001
314:5.6377076503496215e-001
315:6.1649404850382628e-001
316:7.7570473231152481e-001
317:7.6514627803652679e-001
318:7.9515922630910829e-001
319:8.5172438123957805e-001
320:7.5059843384726238e-002
321:5.9645362418403361e-002
322:8.1699208299218867e-002
323:1.3091992104676989e-001
324:3.2322688305798730e-001
325:3.4388953347879209e-001
326:4.0883682369725050e-001
327:4.8773155472151208e-001
328:6.4110461795454576e-001
329:6.8516389872068906e-001
330:7.7518726021561601e-001
331:8.6912434710656283e-001
332:8.8021079321517681e-001
333:9.2405752207063818e-001
334:1.0096264254399447e+000
335:1.0969478473097936e+000
336:1.4420769907912731e-001
337:1.4681135955936636e-001
338:1.9701657023081348e-001
339:2.7137223003222899e-001
340:4.9450772389495951e-001
341:4.4041355268692828e-001
342:4.0632728115015382e-001
343:4.0817077452370126e-001
344:8.6589009353797708e-001
345:7.5581077599238766e-001
346:6.3521918182150672e-001
347:5.6044423832622337e-001
348:1.0848802748594437e+000
349:9.4567943379209984e-001
350:7.7677573862305371e-001
351:6.5706493686641487e-001
352:2.8661287406486718e-001
353:2.4097416356701692e-001
354:1.6061199459675152e-001
355:8.3063931897217613e-002
356:3.9937948167846965e-001
357:3.4101621476418764e-001
358:2.4550062253568145e-001
359:1.5744850833922214e-001
360:5.2507240250374532e-001
361:4.5003585839804039e-001
362:3.3465627416152327e-001
363:2.3282802159639898e-001
364:6.0497985444607605e-001
365:5.1710948223140063e-001
366:3.8643390569303554e-001
367:2.7399232993844369e-001
368:8.0109707289488810e-002
369:1.3663776036408698e-001
370:1.6599062316184501e-001
371:1.5445742896791587e-001
372:1.4705281573540202e-001
373:1.8728430219083861e-001
374:1.9949965182178639e-001
375:1.7799301468035000e-001
376:2.1413026237411184e-001
377:2.3845092553997932e-001
378:2.3528900875992240e-001
379:2.0612145892779410e-001
380:2.5000984166326917e-001
381:2.6623744875554994e-001
382:2.5664130916204181e-001
383:2.2570382692797802e-001
384:1.4343413566852334e-001
385:1.3261052529131201e-001
386:1.1923341741857173e-001
387:1.0955132499218878e-001
388:1.6453843724023523e-001
389:1.5304368440322819e-001
390:1.3930690137053814e-001
391:1.2974460712192135e-001
392:1.9090801924450679e-001
393:1.7849002327869340e-001
394:1.6422187341241665e-001
395:1.5476829268928385e-001
396:2.1022552011160422e-001
397:1.9706343175849400e-001
398:1.8234042744884310e-001
399:1.7293369497597208e-001
400:1.0493951252669635e-001
401:9.7558033361647839e-002
402:8.9252608212539053e-002
403:8.3902742053526283e-002
404:1.2484828630977646e-001
405:1.1610740491968589e-001
406:1.0613629699037855e-001
407:9.9592516122676972e-002
408:1.4953037581009390e-001
409:1.3917456210100290e-001
410:1.2723727286665013e-001
411:1.1929447467481563e-001
412:1.6745665551391334e-001
413:1.5598472222825793e-001
414:1.4269916613097144e-001
415:1.3380573587892200e-001
416:8.1122749179638742e-002
417:7.5773755004569607e-002
418:6.9489643421300665e-002
419:6.5205753886606183e-002
420:9.6308534627977227e-002
421:9.0258284173010697e-002
422:8.3158395985929071e-002
423:7.8325262791150110e-002
424:1.1541158643814867e-001
425:1.0850782656158901e-001
426:1.0042373218331595e-001
427:9.4935423584824027e-002
428:1.2950877506667768e-001
429:1.2199793107942522e-001
430:1.1322092847965978e-001
431:1.0727754839028854e-001
432:6.3109908452622474e-002
433:5.9429061535088930e-002
434:5.5086281319439850e-002
435:5.2110101823598161e-002
436:7.5899398687059569e-002
437:7.1521236061421578e-002
438:6.6348826497821603e-002
439:6.2798227966816084e-002
440:9.2109124431462963e-002
441:8.6872867584402283e-002
442:8.0685487963169558e-002
443:7.6437141048857932e-002
444:1.0416744299132191e-001
445:9.8313133444684148e-002
446:9.1399540566675180e-002
447:8.6656037625723284e-002
448:5.0530650256270168e-002
449:4.7514908864411828e-002
450:4.3887374555579187e-002
451:4.1342486463518895e-002
452:6.0917742025879205e-002
453:5.7334637009481430e-002
454:5.3018529857116962e-002
455:4.9985495467539547e-002
456:7.4187681917585652e-002
457:6.9901911370483849e-002
458:6.4736447604413244e-002
459:6.1104104173715632e-002
460:8.4142015681024959e-002
461:7.9346496225622842e-002
462:7.3567630731254233e-002
463:6.9504755719282538e-002
464:3.9927158921486919e-002
465:3.7111169128663017e-002
466:3.3627542736280276e-002
467:3.1103498781865829e-002
468:4.8286718751184281e-002
469:4.4887212608901848e-002
470:4.0675232866755569e-002
471:3.7618215997563965e-002
472:5.9055846811325266e-002
473:5.4933770369028613e-002
474:4.9822058118672068e-002
475:4.6108416016985600e-002
476:6.7204230369378587e-002
477:6.2558045820805250e-002
478:5.6795491387705010e-002
479:5.2608284614423809e-002
480:2.9580882902169595e-002
481:2.6344336729161796e-002
482:2.2202272012749550e-002
483:1.9089467573045422e-002
484:3.5767716321558764e-002
485:3.1825746876992321e-002
486:2.6777638766456974e-002
487:2.2981388139858616e-002
488:4.3853512339110758e-002
489:3.9040200043794139e-002
490:3.2873938597807288e-002
491:2.8235019078629187e-002
492:5.0061355829242350e-002
493:4.4617789639128005e-002
494:3.7643559843931466e-002
495:3.2396363514605654e-002
496:1.7074906051405256e-002
497:1.2570832803508231e-002
498:6.6414876699705267e-003
499:2.0564969523963464e-003
500:2.0521682572809289e-002
501:1.5017125952632302e-002
502:7.7651768302409363e-003
503:2.1532563415266439e-003
504:2.5228253764696749e-002
505:1.8495892821201433e-002
506:9.6194921306815701e-003
507:2.7452621535554870e-003
508:2.8996157053229853e-002
509:2.1382184279192782e-002
510:1.1338273765790797e-002
511:3.5559855592690553e-003
512:9.6247722078336650e-002
513:4.6976283681081388e-001
514:9.0722425084326785e-001
515:1.2042915840903121e+000
516:4.0274918872580823e-001
517:8.2560041829078568e-001
518:1.2871808542758392e+000
519:1.5718840027053298e+000
520:1.2032465736754407e+000
521:1.4713912262364974e+000
522:1.6786066893766454e+000
523:1.7281016001564204e+000
524:2.1238236076266586e+000
525:2.1054831950751787e+000
526:1.8986648216090931e+000
527:1.5999743676262708e+000
528:1.2798425727132960e+000
529:1.2804107860526717e+000
530:1.2647419555100674e+000
531:1.2401550689684508e+000
532:1.6133780835842035e+000
533:1.5197898182151286e+000
534:1.3915839458942256e+000
535:1.2886460607308032e+000
536:1.6879871889078644e+000
537:1.5511144439727291e+000
538:1.3798872178510491e+000
539:1.2542865908034808e+000
540:1.4688196082923786e+000
541:1.3597527764252360e+000
542:1.2351153706316493e+000
543:1.1531261367387153e+000
544:1.2157888023364893e+000
545:1.1462276519929158e+000
546:1.0326453344220921e+000
547:9.2809670931886579e-001
548:1.2459648061726387e+000
549:1.1871434474582860e+000
550:1.1005553983408387e+000
551:1.0266463628297475e+000
552:1.2092500641260859e+000
553:1.1657198231193435e+000
554:1.1160200877515354e+000
555:1.0833658490811602e+000
556:1.1227942129507889e+000
557:1.0919638593717573e+000
558:1.0718157700988995e+000
559:1.0717612168191515e+000
560:8.8812515700474459e-001
561:8.7280596797016685e-001
562:9.0157024541891095e-001
563:9.6098205375021395e-001
564:1.0002204115355371e+000
565:9.9831761748476466e-001
566:1.0414686994079430e+000
567:1.1095175745091088e+000
568:1.0756939055699033e+000
569:1.0940732421000876e+000
570:1.1596189242990360e+000
571:1.2417142413349767e+000
572:1.0792915984938500e+000
573:1.1153449181603206e+000
574:1.2008323684005673e+000
575:1.2958223403588482e+000
576:9.8886080244539010e-001
577:1.0250912300572907e+000
578:1.0997757538247597e+000
579:1.1780288650295121e+000
580:1.1343377620550883e+000
581:1.1520275140914729e+000
582:1.2031438052227521e+000
583:1.2638099642197018e+000
584:1.2631954074778360e+000
585:1.2563625280460819e+000
586:1.2762953931277068e+000
587:1.3136832633150315e+000
588:1.3152436981798232e+000
589:1.2893608732692061e+000
590:1.2850610507092510e+000
591:1.3043526987854295e+000
592:1.1614573407054445e+000
593:1.0130194020851506e+000
594:8.2778759344715969e-001
595:6.9228460448904805e-001
596:1.2407552962983521e+000
597:1.0828968201737388e+000
598:8.7964160938886815e-001
599:7.2593117351201430e-001
600:1.2844230982913538e+000
601:1.1230619166241025e+000
602:9.0775769197061373e-001
603:7.3908008759361665e-001
604:1.2720633014000979e+000
605:1.1147533771544178e+000
606:8.9900268060502919e-001
607:7.2558942423518613e-001
608:6.3468376276871707e-001
609:5.4312096722632208e-001
610:4.0623881709629422e-001
611:2.8797563856526853e-001
612:6.6407330031803946e-001
613:5.7434995947502065e-001
614:4.3320632809991499e-001
615:3.0657129124789656e-001
616:6.7580217921427133e-001
617:5.9520600371386312e-001
618:4.5727943453303288e-001
619:3.2644865113864474e-001
620:6.6439178238456664e-001
621:5.9594713900609331e-001
622:4.6721346987058032e-001
623:3.3832290557774725e-001
624:2.6089139134589007e-001
625:2.7314435444424900e-001
626:2.6135328819849130e-001
627:2.3102585769857706e-001
628:2.7336487499994927e-001
629:2.7680897338464916e-001
630:2.6062458939928607e-001
631:2.3237152847796966e-001
632:2.8721708476470309e-001
633:2.7980640997317158e-001
634:2.5872282253909962e-001
635:2.3381456994591374e-001
636:2.9597758526561019e-001
637:2.8073654682315324e-001
638:2.5653631228058899e-001
639:2.3468093032874637e-001
640:2.1606460248178053e-001
641:2.0303659832564214e-001
642:1.8863882511283847e-001
643:1.7959655359026797e-001
644:2.1905023734538259e-001
645:2.0713269493455583e-001
646:1.9423181905427317e-001
647:1.8637367233828797e-001
648:2.2270380214834823e-001
649:2.1186258497609128e-001
650:2.0042871113307176e-001
651:1.9374299937949582e-001
652:2.2531869878498342e-001
653:2.1501691352693800e-001
654:2.0433490255237646e-001
655:1.9826228577428223e-001
656:1.7415833042602596e-001
657:1.6240803681107777e-001
658:1.4876812986072679e-001
659:1.3960987725975582e-001
660:1.8129140063125390e-001
661:1.6964112012648649e-001
662:1.5605689000003856e-001
663:1.4688397101815495e-001
664:1.8908625571369680e-001
665:1.7779303046737302e-001
666:1.6457704851054242e-001
667:1.5561156007656482e-001
668:1.9390188049083937e-001
669:1.8305597038224028e-001
670:1.7034879740785810e-001
671:1.6171594462050998e-001
672:1.3520071903952885e-001
673:1.2754071137247622e-001
674:1.1859475938756962e-001
675:1.1254156129722544e-001
676:1.4247204310165251e-001
677:1.3484662086297763e-001
678:1.2594295652501908e-001
679:1.1991999553212444e-001
680:1.5126473031423843e-001
681:1.4371574175985238e-001
682:1.3490810096142253e-001
683:1.2895590029526297e-001
684:1.5747167319452451e-001
685:1.5000526403013065e-001
686:1.4130252959577322e-001
687:1.3542855998867781e-001
688:1.0934332710360727e-001
689:1.0326834748172301e-001
690:9.6093124756587905e-002
691:9.1169240786203948e-002
692:1.1667224635220094e-001
693:1.1039017235840207e-001
694:1.0296321637476651e-001
695:9.7860546103615276e-002
696:1.2566758352325122e-001
697:1.1917420556945671e-001
698:1.1149565128780065e-001
699:1.0621861118420479e-001
700:1.3212757234077707e-001
701:1.2551738195885637e-001
702:1.1770488714324881e-001
703:1.1233934268267637e-001
704:8.8553403321103605e-002
705:8.3552260599599540e-002
706:7.7522159074599667e-002
707:7.3279788854181127e-002
708:9.5129258954979937e-002
709:8.9871018970186914e-002
710:8.3517768594534553e-002
711:7.9037142355087672e-002
712:1.0336547565990802e-001
713:9.7820915071206008e-002
714:9.1110132954572987e-002
715:8.6367768673388287e-002
716:1.0941487606671396e-001
717:1.0368851329711251e-001
718:9.6752821385482302e-002
719:9.1847496167656681e-002
720:7.0868797940521921e-002
721:6.5985469036384137e-002
722:5.9925655410884140e-002
723:5.5519925840509340e-002
724:7.6466503686183865e-002
725:7.1222410881437756e-002
726:6.4704519884452749e-002
727:5.9957369667013878e-002
728:8.3615494748089145e-002
729:7.7951643027670978e-002
730:7.0902547841009189e-002
731:6.5760876251975298e-002
732:8.8976442207256645e-002
733:8.3029908012046461e-002
734:7.5624609909604096e-002
735:7.0219599099322155e-002
736:5.2834792745419371e-002
737:4.7087771439586389e-002
738:3.9721936470152722e-002
739:3.4177905612794109e-002
740:5.7049422854254753e-002
741:5.0803076493329227e-002
742:4.2787634025254574e-002
743:3.6747148086316628e-002
744:6.2594734356222578e-002
745:5.5767998253334145e-002
746:4.6997752023897159e-002
747:4.0380620856968405e-002
748:6.6880484949592159e-002
749:5.9663397323563155e-002
750:5.0385723622802851e-002
751:4.3381110906247813e-002
752:3.0583942465038223e-002
753:2.2534799776718597e-002
754:1.1915951095284254e-002
755:3.6875129156549061e-003
756:3.2825545350865334e-002
757:2.4038382383775508e-002
758:1.2446993357250731e-002
759:3.4657731491502548e-003
760:3.6079723728714611e-002
761:2.6439394028574491e-002
762:1.3722296235087549e-002
763:3.8686493329349579e-003
764:3.8826434858215485e-002
765:2.8616310351828773e-002
766:1.5146159476326086e-002
767:4.7079560182307981e-003
768:2.6559322124258506e+000
769:2.3955307861458097e+000
770:1.8871925385065624e+000
771:1.3683647674927366e+000
772:2.8219029255380406e+000
773:2.2266397343158051e+000
774:1.3753271834794876e+000
775:6.6561755647471099e-001
776:1.2772982242270461e+000
777:7.0775504199887362e-001
778:1.2548147045326048e-002
779:-4.8358789754764808e-001
780:-1.2563894315478283e+000
781:-1.4516447736645073e+000
782:-1.5645837740151214e+000
783:-1.5424520695453685e+000
784:1.1958297723850724e+000
785:1.1442507018270105e+000
786:1.0914703786720505e+000
787:1.0621427516995809e+000
788:4.9773239748877612e-001
789:6.0560818536172545e-001
790:7.3874514316736573e-001
791:8.3495434249109368e-001
792:-5.1896416339923190e-001
793:-1.9112814459959690e-001
794:2.0012621978501402e-001
795:4.7204209003367276e-001
796:-1.3793559415647041e+000
797:-8.7379882605682835e-001
798:-2.7279484078119848e-001
799:1.4292409404088538e-001
800:1.0479321404530753e+000
801:1.0283589274352887e+000
802:1.0278594494751190e+000
803:1.0466670151866575e+000
804:8.5962626473704906e-001
805:8.7213569864008900e-001
806:9.1913260353745319e-001
807:9.7866449378923293e-001
808:5.5256414512444707e-001
809:6.1422897464878756e-001
810:7.3271529125089008e-001
811:8.5267755314636207e-001
812:2.7017600933086405e-001
813:3.7510825589382835e-001
814:5.5568395690339445e-001
815:7.2755531345690849e-001
816:1.0626296399671091e+000
817:1.1088914985394116e+000
818:1.2065441655648141e+000
819:1.3099735995387487e+000
820:1.0106733900503153e+000
821:1.0735472012079839e+000
822:1.1916604269853983e+000
823:1.3098417981590842e+000
824:9.0575908268468874e-001
825:9.8352349994349830e-001
826:1.1194816597677701e+000
827:1.2501268363914164e+000
828:7.9689270732623629e-001
829:8.8087090878675312e-001
830:1.0237229214101196e+000
831:1.1587218668498547e+000
832:1.3290660248577597e+000
833:1.2932006764880788e+000
834:1.2739896972518547e+000
835:1.2804066301245864e+000
836:1.3291274030012392e+000
837:1.2765018588072810e+000
838:1.2277203576929179e+000
839:1.2055689789764572e+000
840:1.2688150922636281e+000
841:1.1979177500761240e+000
842:1.1152461997938192e+000
843:1.0594167295396220e+000
844:1.1763012699036004e+000
845:1.0941553743468007e+000
846:9.8910445641134703e-001
847:9.1021831702294775e-001
848:1.2449007691226086e+000
849:1.0881061636615068e+000
850:8.7045721860895620e-001
851:6.9361882766898719e-001
852:1.1618728576109145e+000
853:1.0045038758316316e+000
854:7.8219031910232306e-001
855:5.9877594420476909e-001
856:1.0093104980220238e+000
857:8.6364395790517656e-001
858:6.5149056255587268e-001
859:4.7194820735754939e-001
860:8.5847631957334170e-001
861:7.3132277098875464e-001
862:5.3940844867787763e-001
863:3.7237747737241561e-001
864:6.3303838900974374e-001
865:5.7126859844515165e-001
866:4.5088927438693316e-001
867:3.2813019172136854e-001
868:5.3823134046068088e-001
869:4.8706626169085243e-001
870:3.8585424111666122e-001
871:2.8187191180775195e-001
872:4.1510906743881998e-001
873:3.7905946554787279e-001
874:3.0452453885119107e-001
875:2.2631991853883052e-001
876:3.2118258979469499e-001
877:2.9769871620422778e-001
878:2.4488967189895031e-001
879:1.8742282144895556e-001
880:2.8717396697477349e-001
881:2.7200478501417052e-001
882:2.4989459781300050e-001
883:2.3117118265978617e-001
884:2.4841650205628299e-001
885:2.4054105563370903e-001
886:2.2833945749609916e-001
887:2.1751113420111612e-001
888:2.0265182109171448e-001
889:2.0301653856365917e-001
890:2.0207789645653967e-001
891:2.0027433911945558e-001
892:1.7125683185582158e-001
893:1.7695912045791817e-001
894:1.8337681913966317e-001
895:1.8751218925294474e-001
896:2.2303627881785604e-001
897:2.1333753805022823e-001
898:2.0337020681303622e-001
899:1.9779007459562284e-001
900:2.1202295791932788e-001
901:2.0406282467766640e-001
902:1.9604515114514542e-001
903:1.9171503209923127e-001
904:1.9780948904532167e-001
905:1.9178040997182730e-001
906:1.8586635670439647e-001
907:1.8282981263870057e-001
908:1.8703505347876659e-001
909:1.8222747030724629e-001
910:1.7758838848352823e-001
911:1.7528474596533794e-001
912:1.9369376865428248e-001
913:1.8334632755884903e-001
914:1.7121689162538581e-001
915:1.6297118009075001e-001
916:1.8831242600366435e-001
917:1.7936938224741328e-001
918:1.6887454038752769e-001
919:1.6173009272210939e-001
920:1.8029072764923162e-001
921:1.7336138570184398e-001
922:1.6523585087846610e-001
923:1.5970960049652094e-001
924:1.7337564838257863e-001
925:1.6812870268550273e-001
926:1.6200047288088598e-001
927:1.5785348527928725e-001
928:1.5887077692041399e-001
929:1.5158300925980711e-001
930:1.4310209245882641e-001
931:1.3738950450614107e-001
932:1.5805440049265224e-001
933:1.5132599251837242e-001
934:1.4353546315744295e-001
935:1.3832180702656105e-001
936:1.5662667058057783e-001
937:1.5059170545019765e-001
938:1.4365449228763344e-001
939:1.3905543751250568e-001
940:1.5525448685472953e-001
941:1.4972313715967192e-001
942:1.4340358075670562e-001
943:1.3924771355238003e-001
944:1.3414509972660751e-001
945:1.2758639637523736e-001
946:1.1983103673820192e-001
947:1.1450158748103778e-001
948:1.3529510974108525e-001
949:1.2904748433701832e-001
950:1.2164184355638746e-001
951:1.1653739866526261e-001
952:1.3631944582355263e-001
953:1.3053904350269352e-001
954:1.2366973700354343e-001
955:1.1892021320894661e-001
956:1.3673963554716376e-001
957:1.3136435924314774e-001
958:1.2496747806732603e-001
959:1.2053700670831123e-001
960:1.1157756178217822e-001
961:1.0582079897315529e-001
962:9.8844995852585535e-002
963:9.3908584399461051e-002
964:1.1368492657218013e-001
965:1.0798946465673019e-001
966:1.0107967078363021e-001
967:9.6183143687423908e-002
968:1.1618647913943685e-001
969:1.1060489771387884e-001
970:1.0382545743329219e-001
971:9.9014868227435993e-002
972:1.1791373196481182e-001
973:1.1244541648802746e-001
974:1.0579978534021070e-001
975:1.0108104554647476e-001
976:9.1002306447097878e-002
977:8.4954746085908417e-002
978:7.7417386952341585e-002
979:7.1910966603561638e-002
980:9.3262361227559001e-002
981:8.7120655435405217e-002
982:7.9446905419506206e-002
983:7.3825557589595220e-002
984:9.6099236381128314e-002
985:8.9891150392953520e-002
986:8.2113104155921976e-002
987:7.6398261358103889e-002
988:9.8187813557838136e-002
989:9.1972119124929308e-002
990:8.4170588606302554e-002
991:7.8427355313589381e-002
992:6.8500078229430800e-002
993:6.1114487553469009e-002
994:5.1615422669766868e-002
995:4.4439943548705091e-002
996:7.0319356963077062e-002
997:6.2693471411857382e-002
998:5.2873230344291491e-002
999:4.5445716707380873e-002
1000:7.2802793446175823e-002
1001:6.4938624315352175e-002
1002:5.4797497546523209e-002
1003:4.7116383377441166e-002
1004:7.4790362271701077e-002
1005:6.6801224290007816e-002
1006:5.6489389593264307e-002
1007:4.8671566932725015e-002
1008:3.9771234152100661e-002
1009:2.9302684199140307e-002
1010:1.5490672922932757e-002
1011:4.7868587861258039e-003
1012:4.0604529682711665e-002
1013:2.9740578200756380e-002
1014:1.5404716669872160e-002
1015:4.2932965855453330e-003
1016:4.2102406288101281e-002
1017:3.0843407806832909e-002
1018:1.5981732494787140e-002
1019:4.4593420531684417e-003
1020:4.3565198431961133e-002
1021:3.2096035879223508e-002
1022:1.6952193465247765e-002
1023:5.2074345336400006e-003
1024:-2.9830196984250530e+000
1025:-2.8173794755671531e+000
1026:-2.4580824881881833e+000
1027:-2.0729581278859097e+000
1028:-5.4728108980269710e+000
1029:-4.6874635079411817e+000
1030:-3.6084141893935922e+000
1031:-2.7396921911593393e+000
1032:-7.0240389846810416e+000
1033:-5.8233534894591443e+000
1034:-4.3182532988105189e+000
1035:-3.2117781212862608e+000
1036:-6.9121176825277750e+000
1037:-5.6944696178499710e+000
1038:-4.2560304739438450e+000
1039:-3.2687022562595760e+000
1040:-1.7972221818019949e+000
1041:-1.2296128630016374e+000
1042:-5.4080059915508627e-001
1043:-5.2532989677907753e-002
1044:-2.3448108884048553e+000
1045:-1.7561080166703706e+000
1046:-9.9194918470566262e-001
1047:-4.0927674481998233e-001
1048:-2.7845944705273538e+000
1049:-2.2373420363566265e+000
1050:-1.4648656950637384e+000
1051:-8.2799294851163396e-001
1052:-2.9111478519373892e+000
1053:-2.4485281423847596e+000
1054:-1.7386485001073599e+000
1055:-1.1130972006989783e+000
1056:1.0204707720583477e-001
1057:2.3505282256288004e-001
1058:4.5449699411282379e-001
1059:6.5787613901693454e-001
1060:-2.1110756354471047e-001
1061:-2.7892246976974563e-002
1062:2.5983210320367234e-001
1063:5.1766802658173072e-001
1064:-5.9690345326073835e-001
1065:-3.6909626506850868e-001
1066:-1.9576972708725399e-002
1067:2.8839224169921412e-001
1068:-8.7513343261069831e-001
1069:-6.2918115513851891e-001
1070:-2.5321687875506521e-001
1071:7.7144632196081891e-002
1072:7.3683125649749104e-001
1073:8.2295911068141703e-001
1074:9.6506784479521868e-001
1075:1.0967777695433434e+000
1076:6.1339376899883857e-001
1077:7.0174103892711703e-001
1078:8.3464334488470004e-001
1079:9.5002136549038008e-001
1080:3.9884922012005231e-001
1081:4.8417681564524190e-001
1082:5.9734936900744207e-001
1083:6.8550342339088555e-001
1084:1.9341242482967072e-001
1085:2.7189176058365683e-001
1086:3.6402710147675282e-001
1087:4.2678157620219198e-001
1088:1.1109606002121759e+000
1089:1.0198438404832335e+000
1090:9.0069785096925570e-001
1091:8.0917630991928613e-001
1092:9.5474828796660960e-001
1093:8.4903807060365033e-001
1094:7.0958292550078894e-001
1095:6.0152303746313451e-001
1096:6.8222584256515506e-001
1097:5.7965168502203268e-001
1098:4.4263283332105452e-001
1099:3.3517146762561612e-001
1100:4.2068983986307168e-001
1101:3.3751639061319855e-001
1102:2.2454127666315465e-001
1103:1.3453572990730236e-001
1104:7.5730094489029720e-001
1105:6.4290268783314708e-001
1106:4.6671295626319664e-001
1107:3.1103084116604202e-001
1108:5.5192133312923641e-001
1109:4.6332754797230452e-001
1110:3.2127727058644789e-001
1111:1.9212288484181392e-001
1112:2.9551517453776671e-001
1113:2.4460444756039915e-001
1114:1.5233563695541502e-001
1115:6.1807958389061113e-002
1116:1.0785104806288889e-001
1117:8.8900023557801161e-002
1118:3.8801524126569079e-002
1119:-1.9043194515198838e-002
1120:2.6481840948965019e-001
1121:2.4996272824588026e-001
1122:2.1052775077347397e-001
1123:1.6493374918532366e-001
1124:1.5735175164343240e-001
1125:1.5980922846603521e-001
1126:1.4557588901710908e-001
1127:1.2130019622294338e-001
1128:4.1791964800838313e-002
1129:6.2175232758795350e-002
1130:7.4739021246458773e-002
1131:7.3614722810616109e-002
1132:-2.7882405711504469e-002
1133:2.6660611640970042e-003
1134:3.1105397121958214e-002
1135:4.4151448331370240e-002
1136:1.5286779651292715e-001
1137:1.6126897569967999e-001
1138:1.7138790556710581e-001
1139:1.7849798415936899e-001
1140:1.1631445314194469e-001
1141:1.2898810293276003e-001
1142:1.4496439986503185e-001
1143:1.5678073699154318e-001
1144:7.5955882757633625e-002
1145:9.1695753809920011e-002
1146:1.1204183099174191e-001
1147:1.2749036148920442e-001
1148:5.0643772268816882e-002
1149:6.6811368193972195e-002
1150:8.7998492943373002e-002
1151:1.0430853624389180e-001
1152:1.7905265472384951e-001
1153:1.7497795781554554e-001
1154:1.7108378940632721e-001
1155:1.6918913473085254e-001
1156:1.5919579005581855e-001
1157:1.5707792026214434e-001
1158:1.5526260135790912e-001
1159:1.5459777773996355e-001
1160:1.3184515138457065e-001
1161:1.3295880666988202e-001
1162:1.3474094424295049e-001
1163:1.3635911887006122e-001
1164:1.0977635667865515e-001
1165:1.1388677373435062e-001
1166:1.1910458512647695e-001
1167:1.2299252546687008e-001
1168:1.6764351354795062e-001
1169:1.6340433163366039e-001
1170:1.5850460458955160e-001
1171:1.5523301903892325e-001
1172:1.5383980498629152e-001
1173:1.5147338187811729e-001
1174:1.4889077209999765e-001
1175:1.4729832539329571e-001
1176:1.3671429426706205e-001
1177:1.3643371853187938e-001
1178:1.3640775781876099e-001
1179:1.3664853850461009e-001
1180:1.2426639175485871e-001
1181:1.2531044238314393e-001
1182:1.2688643916957534e-001
1183:1.2825822625670094e-001
1184:1.5295930255421172e-001
1185:1.4779147210169827e-001
1186:1.4190292666166945e-001
1187:1.3804423479804537e-001
1188:1.4571442195788264e-001
1189:1.4145771030343282e-001
1190:1.3663491091174607e-001
1191:1.3349877712096889e-001
1192:1.3589159593165862e-001
1193:1.3290705368948907e-001
1194:1.2958358701138825e-001
1195:1.2747360354387130e-001
1196:1.2807911486943963e-001
1197:1.2613355605850460e-001
1198:1.2404266306760608e-001
1199:1.2278310230610598e-001
1200:1.3569035667391036e-001
1201:1.3060112121720160e-001
1202:1.2454485794237440e-001
1203:1.2035047723965053e-001
1204:1.3150030528970597e-001
1205:1.2704630167536557e-001
1206:1.2175269611417969e-001
1207:1.1809215782381796e-001
1208:1.2595643682666491e-001
1209:1.2231386915221509e-001
1210:1.1799266347012383e-001
1211:1.1501127622746841e-001
1212:1.2164831953593516e-001
1213:1.1861436617674584e-001
1214:1.1502108976861120e-001
1215:1.1254692741121297e-001
1216:1.1781893982172448e-001
1217:1.1246601577586718e-001
1218:1.0595542910993060e-001
1219:1.0132830690671850e-001
1220:1.1578577523266505e-001
1221:1.1075324152424658e-001
1222:1.0461644039882083e-001
1223:1.0024190187310481e-001
1224:1.1300343858086891e-001
1225:1.0842423124349439e-001
1226:1.0282118092643872e-001
1227:9.8811500016213513e-002
1228:1.1077157301362631e-001
1229:1.0656687710130193e-001
1230:1.0140822523026986e-001
1231:9.7705249085158999e-002
1232:9.8469197736592837e-002
1233:9.2291843464612597e-002
1234:8.4529326097955299e-002
1235:7.8807555712893454e-002
1236:9.7487049676322282e-002
1237:9.1455325081154323e-002
1238:8.3855050450330149e-002
1239:7.8236351479497757e-002
1240:9.6213410486317180e-002
1241:9.0414209302224546e-002
1242:8.3081089403904934e-002
1243:7.7639387196275222e-002
1244:9.5243203302253276e-002
1245:8.9654806433490802e-002
1246:8.2568963973620860e-002
1247:7.7295507818735065e-002
1248:7.5168351972967645e-002
1249:6.7151408585132744e-002
1250:5.6796925637603697e-002
1251:4.8941533089536346e-002
1252:7.4628166879324567e-002
1253:6.6629416747026313e-002
1254:5.6282422938227973e-002
1255:4.8420317198523272e-002
1256:7.4101516959773031e-002
1257:6.6195987522485136e-002
1258:5.5949421612588590e-002
1259:4.8148040609697539e-002
1260:7.3834402984398181e-002
1261:6.6053577836034744e-002
1262:5.5953468219228752e-002
1263:4.8251885058090402e-002
1264:4.3807458121499700e-002
1265:3.2273360454484742e-002
1266:1.7041933624395943e-002
1267:5.2278520867832436e-003
1268:4.3272661073569460e-002
1269:3.1699978681821714e-002
1270:1.6415429310108906e-002
1271:4.5585012146852249e-003
1272:4.3030184424629081e-002
1273:3.1516017009615087e-002
1274:1.6304185890534461e-002
1275:4.5002122698397330e-003
1276:4.3193290211097565e-002
1277:3.1807404840584468e-002
1278:1.6760165714594079e-002
1279:5.0802123053365665e-003
1280:-6.4500630519142899e+000
1281:-5.3735395667246006e+000
1282:-4.1127760650137635e+000
1283:-3.2566813850782332e+000
1284:-5.5122168499218311e+000
1285:-4.7998898597318167e+000
1286:-3.9012923016458827e+000
1287:-3.2361635187765985e+000
1288:-4.2161646303873175e+000
1289:-3.9391204055226359e+000
1290:-3.4610004041108611e+000
1291:-3.0051368325615280e+000
1292:-3.1672987654264348e+000
1293:-3.1933008536637946e+000
1294:-2.9975628852724014e+000
1295:-2.6715150288916987e+000
1296:-2.9386321409433305e+000
1297:-2.4944747582249942e+000
1298:-1.8056333317812683e+000
1299:-1.1938690830204208e+000
1300:-2.9455415150703135e+000
1301:-2.4762696444350132e+000
1302:-1.7910396819451406e+000
1303:-1.2099259164171423e+000
1304:-2.7518665049126172e+000
1305:-2.2955993447366776e+000
1306:-1.6748011472423947e+000
1307:-1.1794498066238794e+000
1308:-2.4480736611629359e+000
1309:-2.0368558455458650e+000
1310:-1.5112133194665693e+000
1311:-1.1166762945567359e+000
1312:-9.5867948795757563e-001
1313:-7.1199392489588120e-001
1314:-3.3829671494060187e-001
1315:-1.2143664546123726e-002
1316:-9.8873243506793373e-001
1317:-7.5486482867069560e-001
1318:-4.1276109768352032e-001
1319:-1.2221957900237880e-001
1320:-9.9265789246155978e-001
1321:-7.9031749244002991e-001
1322:-5.0874866971549604e-001
1323:-2.7947360752549316e-001
1324:-9.6862225966515347e-001
1325:-8.0179180242633297e-001
1326:-5.8142316360054080e-001
1327:-4.1045161924213369e-001
1328:9.8796370205073716e-002
1329:1.6208850445058959e-001
1330:2.3260819810987990e-001
1331:2.7741535511135257e-001
1332:-3.3077537307460873e-002
1333:-7.4681974561229096e-003
1334:1.9230504805558050e-002
1335:3.4547474215379619e-002
1336:-2.1640542992411826e-001
1337:-2.1627705355510760e-001
1338:-2.1585077107828313e-001
1339:-2.1532570113713462e-001
1340:-3.6555394649373796e-001
1341:-3.6680241921166606e-001
1342:-3.6282800828822664e-001
1343:-3.5548718063149698e-001
1344:2.7032154815326381e-001
1345:2.0178546894935478e-001
1346:1.0717785921943676e-001
1347:3.0690399214759603e-002
1348:2.7145104681591196e-002
1349:-1.5929537715067426e-002
1350:-7.8788663979472651e-002
1351:-1.3207046678260492e-001
1352:-2.1728287757520284e-001
1353:-2.2887529929616493e-001
1354:-2.5257892182670932e-001
1355:-2.7732166639161282e-001
1356:-3.4878888480373132e-001
1357:-3.3758380224286189e-001
1358:-3.3301462932499631e-001
1359:-3.3721564921377811e-001
1360:1.1905417154337223e-002
1361:9.7697376440386632e-003
1362:-1.7491112594440590e-002
1363:-5.7143456211516543e-002
1364:-1.3859862155342090e-001
1365:-1.1609911891904617e-001
1366:-1.0831836728285243e-001
1367:-1.1889079403818696e-001
1368:-2.7137176210009473e-001
1369:-2.2817921091970289e-001
1370:-1.8961668212930183e-001
1371:-1.7369692276743115e-001
1372:-3.2439501690379136e-001
1373:-2.7411737562225563e-001
1374:-2.2341121404330441e-001
1375:-1.9596162986322729e-001
1376:-5.9996154674048827e-002
1377:-2.4997998601520775e-002
1378:1.0560032605147289e-002
1379:3.0068607519710275e-002
1380:-1.1237681061992935e-001
1381:-7.1551525598718177e-002
1382:-2.6075481694444153e-002
1383:2.8092371099359072e-003
1384:-1.5970265353953192e-001
1385:-1.1761714321697300e-001
1386:-6.7476119881596325e-002
1387:-3.2700702373988685e-002
1388:-1.7986754922341650e-001
1389:-1.4167737468910152e-001
1390:-9.4303440046753256e-002
1391:-5.9874343386264420e-002
1392:3.8358915007347068e-002
1393:5.4262950779033634e-002
1394:7.5116089335363539e-002
1395:9.1177726998185021e-002
1396:1.3910110237189188e-002
1397:2.9907394998559333e-002
1398:5.0636314309336003e-002
1399:6.6414287912485021e-002
1400:-1.9335745096945686e-002
1401:-2.1393996924738349e-003
1402:1.9833150080604735e-002
1403:3.6318418054009309e-002
1404:-4.5849348301548284e-002
1405:-2.6908217729836932e-002
1406:-2.9050936978470801e-003
1407:1.4948046393432829e-002
1408:9.7028436155431025e-002
1409:1.0274152003126495e-001
1410:1.0986384374917497e-001
1411:1.1506853483784783e-001
1412:7.2849898664809926e-002
1413:8.1050262244743432e-002
1414:9.1192044264227556e-002
1415:9.8537968414699778e-002
1416:4.3649211348873854e-002
1417:5.4512964470935975e-002
1418:6.7835189122013473e-002
1419:7.7393008583237458e-002
1420:2.3066159005763743e-002
1421:3.5525329141179007e-002
1422:5.0703380343561325e-002
1423:6.1510570175834757e-002
1424:1.1684135276966678e-001
1425:1.1849862695414731e-001
1426:1.2082449937040221e-001
1427:1.2273254356269390e-001
1428:1.0116770767008501e-001
1429:1.0396868457203373e-001
1430:1.0772464207690056e-001
1431:1.1068115394385622e-001
1432:8.0996077024397803e-002
1433:8.5327971584908055e-002
1434:9.1000289984582122e-002
1435:9.5363464374519258e-002
1436:6.5748728810682278e-002
1437:7.1283656795931391e-002
1438:7.8463470288532372e-002
1439:8.3934443060394368e-002
1440:1.2285846894347535e-001
1441:1.2151359028570356e-001
1442:1.2013753201169093e-001
1443:1.1937305771546562e-001
1444:1.1139950141023927e-001
1445:1.1119860566029761e-001
1446:1.1117960931368963e-001
1447:1.1135138565742762e-001
1448:9.6842133632627170e-002
1449:9.8047734786127855e-002
1450:9.9687013194630830e-002
1451:1.0099425384346244e-001
1452:8.5986183764423699e-002
1453:8.8203814189303995e-002
1454:9.1027991878940104e-002
1455:9.3139529531277326e-002
1456:1.1845747850928807e-001
1457:1.1576597257867409e-001
1458:1.1258589979619116e-001
1459:1.1040268781381399e-001
1460:1.1085923163670400e-001
1461:1.0885242025325431e-001
1462:1.0650574445847305e-001
1463:1.0491534806861889e-001
1464:1.0103211508713437e-001
1465:9.9920516580214128e-002
1466:9.8663640994407498e-002
1467:9.7848581103339410e-002
1468:9.3566423379071284e-002
1469:9.3142397736350607e-002
1470:9.2722674538158356e-002
1471:9.2503308556634731e-002
1472:1.0876606788676535e-001
1473:1.0479391952406085e-001
1474:9.9911796394515029e-002
1475:9.6400162246277676e-002
1476:1.0356579673405601e-001
1477:1.0007958597277083e-001
1478:9.5774826214300765e-002
1479:9.2662291933848839e-002
1480:9.6875699232188570e-002
1481:9.4029599199298791e-002
1482:9.0486093411911842e-002
1483:8.7900370867739192e-002
1484:9.1820752859145552e-002
1485:8.9469937809181721e-002
1486:8.6515991115393376e-002
1487:8.4338715820510737e-002
1488:9.4025258132562586e-002
1489:8.8576991947174458e-002
1490:8.1657618662570791e-002
1491:7.6499211603566278e-002
1492:9.0473831797451013e-002
1493:8.5335878867565038e-002
1494:7.8787733602538546e-002
1495:7.3888066891697926e-002
1496:8.5965089601282643e-002
1497:8.1263146501020039e-002
1498:7.5239976121364724e-002
1499:7.0709030998278230e-002
1500:8.2605087220093784e-002
1501:7.8261188185704295e-002
1502:7.2671521203854811e-002
1503:6.8447047239288281e-002
1504:7.3094044056929819e-002
1505:6.5410956694784153e-002
1506:5.5428782505916589e-002
1507:4.7810244195472681e-002
1508:7.0612741191163231e-002
1509:6.3164072110242830e-002
1510:5.3468023466122512e-002
1511:4.6053667313419311e-002
1512:6.7625060164389475e-002
1513:6.0533472794909997e-002
1514:5.1277580646528327e-002
1515:4.4180856507838172e-002
1516:6.5526561492358332e-002
1517:5.8747924639225291e-002
1518:4.9880620671549740e-002
1519:4.3066610925716411e-002
1520:4.2801739016646939e-002
1521:3.1524699649241907e-002
1522:1.6619159488234617e-002
1523:5.0475697217243530e-003
1524:4.1168852942832561e-002
1525:3.0160823885157156e-002
1526:1.5607866339023330e-002
1527:4.3077384173907090e-003
1528:3.9492990362151696e-002
1529:2.8918193458655397e-002
1530:1.4932569509028198e-002
1531:4.0688723103486013e-003
1532:3.8556954936190026e-002
1533:2.8377247159342985e-002
1534:1.4908703471965329e-002
1535:4.4425469350942550e-003
1536:-2.5775102569518906e+000
1537:-2.6921361483491473e+000
1538:-2.6014300146274190e+000
1539:-2.3477611373878502e+000
1540:-1.6061344310919961e+000
1541:-1.7435913624399404e+000
1542:-1.7559098086373914e+000
1543:-1.6373357628227092e+000
1544:-7.2514235179101516e-001
1545:-8.3652152003450808e-001
1546:-9.1036888125067006e-001
1547:-9.1218996947022157e-001
1548:-3.4604975635057594e-001
1549:-3.9462340995951811e-001
1550:-4.5976356218628195e-001
1551:-5.1104292724549927e-001
1552:-2.1595766833252581e+000
1553:-1.8156671773730846e+000
1554:-1.3847403164711483e+000
1555:-1.0680841587684340e+000
1556:-1.5380698447569467e+000
1557:-1.3575122553232248e+000
1558:-1.1292200451680465e+000
1559:-9.5982962952090034e-001
1560:-8.9828068279708029e-001
1561:-8.7166108348846560e-001
1562:-8.3052324487825835e-001
1563:-7.9408285389989319e-001
1564:-5.3905786463277627e-001
1565:-5.8505713604291121e-001
1566:-6.2817266147983586e-001
1567:-6.4826496675735001e-001
1568:-9.4855708896945068e-001
1569:-8.0948164983758419e-001
1570:-6.2883735414875863e-001
1571:-4.9100404171799111e-001
1572:-8.9316989373081290e-001
1573:-8.0894775579499822e-001
1574:-6.9818183888236574e-001
1575:-6.1261144807538537e-001
1576:-7.7584158152076943e-001
1577:-7.4522175953005099e-001
1578:-7.0218709930257206e-001
1579:-6.6683930248710910e-001
1580:-6.5137678457140480e-001
1581:-6.4807038761655000e-001
1582:-6.3898225854949064e-001
1583:-6.2835750719763839e-001
1584:-4.5348124637418152e-001
1585:-4.4733304803373031e-001
1586:-4.3262225992903236e-001
1587:-4.1622036360393161e-001
1588:-5.8488592737082323e-001
1589:-5.6449038208006785e-001
1590:-5.3246035936321279e-001
1591:-5.0375724051277948e-001
1592:-6.5021832209465624e-001
1593:-6.2290173225475831e-001
1594:-5.8349811928598005e-001
1595:-5.5041310478718108e-001
1596:-6.1896134734353692e-001
1597:-5.9528286933635111e-001
1598:-5.6189555078221576e-001
1599:-5.3439477254111056e-001
1600:-4.0411238635851437e-001
1601:-3.8213694573999846e-001
1602:-3.6354824114852785e-001
1603:-3.5702914800961932e-001
1604:-4.8501754483259157e-001
1605:-4.4935182288221165e-001
1606:-4.1155255837152455e-001
1607:-3.8927597383651480e-001
1608:-5.2908130538538023e-001
1609:-4.8663063773372089e-001
1610:-4.3821941191428676e-001
1611:-4.0646074983229663e-001
1612:-5.1572126853998124e-001
1613:-4.7656027235647858e-001
1614:-4.3109258320800592e-001
1615:-4.0055638252994313e-001
1616:-3.4109103644785671e-001
1617:-2.8911615279085723e-001
1618:-2.3452483509900124e-001
1619:-2.0281695661525484e-001
1620:-3.6899176654209009e-001
1621:-3.1561183827193168e-001
1622:-2.5581665525083719e-001
1623:-2.1753684183531377e-001
1624:-3.8516676690336632e-001
1625:-3.3636807232843907e-001
1626:-2.7815233102145076e-001
1627:-2.3771240233877644e-001
1628:-3.8206061523458978e-001
1629:-3.4168951585113910e-001
1630:-2.9109875830147419e-001
1631:-2.5391953449166688e-001
1632:-1.8620339833707159e-001
1633:-1.5072638540253727e-001
1634:-1.0618198884984090e-001
1635:-7.3377115597583475e-002
1636:-1.9963776894705529e-001
1637:-1.6718001673579241e-001
1638:-1.2622409316421559e-001
1639:-9.5900711755653553e-002
1640:-2.1946777711908869e-001
1641:-1.8953270568372413e-001
1642:-1.5141045507906967e-001
1643:-1.2290811623564372e-001
1644:-2.3643072841433152e-001
1645:-2.0734340119807984e-001
1646:-1.6997640095334129e-001
1647:-1.4178403744946197e-001
1648:-5.9419370662832649e-002
1649:-3.9473071759811657e-002
1650:-1.4318699215050031e-002
1651:4.2940157226414996e-003
1652:-8.2154800037121112e-002
1653:-6.0819456886771123e-002
1654:-3.4208174797453035e-002
1655:-1.4751214638502094e-002
1656:-1.0917804356573425e-001
1657:-8.6469175011829061e-002
1658:-5.8529530499742043e-002
1659:-3.8409855525917351e-002
1660:-1.2786641116299682e-001
1661:-1.0444111652706226e-001
1662:-7.5922141341104254e-002
1663:-5.5630839311329103e-002
1664:1.2736046346893695e-002
1665:2.5709151260828768e-002
1666:4.1534874866205877e-002
1667:5.2820943758071885e-002
1668:-5.9879786640921117e-003
1669:7.5549785389901602e-003
1670:2.4264120172627683e-002
1671:3.6334523921852747e-002
1672:-2.9349874186081822e-002
1673:-1.5083763512820205e-002
1674:2.7514478834480206e-003
1675:1.5824844958071561e-002
1676:-4.6437183811842975e-002
1677:-3.1632407033313881e-002
1678:-1.2954466869733413e-002
1679:8.7207887835770458e-004
1680:5.7361782138544551e-002
1681:6.3538258686933413e-002
1682:7.1495373196536344e-002
1683:7.7516318307619639e-002
1684:4.1420006718232177e-002
1685:4.8729006498650994e-002
1686:5.8001668347822125e-002
1687:6.4906686267356711e-002
1688:2.1580167192192405e-002
1689:3.0234130535596600e-002
1690:4.1050126133262595e-002
1691:4.8975949195162377e-002
1692:7.1095502731226669e-003
1693:1.6692678409046730e-002
1694:2.8558895372488492e-002
1695:3.7165432803315343e-002
1696:7.9838355165521416e-002
1697:8.2526308014536198e-002
1698:8.5918330465280524e-002
1699:8.8429992132332561e-002
1700:6.7657242811605928e-002
1701:7.1122309212948542e-002
1702:7.5491896822946658e-002
1703:7.8724949757798743e-002
1704:5.2242517553610847e-002
1705:5.6692458743067782e-002
1706:6.2299604998985056e-002
1707:6.6444830701637328e-002
1708:4.0794473445108989e-002
1709:4.5977010796489554e-002
1710:5.2503639449064977e-002
1711:5.7325739029103630e-002
1712:8.9061264893142089e-002
1713:8.9008469046956903e-002
1714:8.9037559587607965e-002
1715:8.9134948180359774e-002
1716:7.9736459965717377e-002
1717:8.0373685503322009e-002
1718:8.1229627335163493e-002
1719:8.1904470817853264e-002
1720:6.7935317823384120e-002
1721:6.9437593205449649e-002
1722:7.1326372752939501e-002
1723:7.2719398240886482e-002
1724:5.9170210056990101e-002
1725:6.1308494703278510e-002
1726:6.3953654809295823e-002
1727:6.5870123067600109e-002
1728:8.8606437357537760e-002
1729:8.6520703338282212e-002
1730:8.3885873750496345e-002
1731:8.1932690465708599e-002
1732:8.1659062759730450e-002
1733:8.0070879344124185e-002
1734:7.8041510107857592e-002
1735:7.6518883411631836e-002
1736:7.2834322757484665e-002
1737:7.1896621670115304e-002
1738:7.0658928389804629e-002
1739:6.9699375540862710e-002
1740:6.6254296849394961e-002
1741:6.5816166317067368e-002
1742:6.5186568860756217e-002
1743:6.4659592551767009e-002
1744:8.0312514535683541e-002
1745:7.6173842564667638e-002
1746:7.0833584620314846e-002
1747:6.6786201478141946e-002
1748:7.5120113432491711e-002
1749:7.1385385145408375e-002
1750:6.6536918847746332e-002
1751:6.2839457015781364e-002
1752:6.8592920109089142e-002
1753:6.5396824151151417e-002
1754:6.1205141583762175e-002
1755:5.7975827969496137e-002
1756:6.3779818699722421e-002
1757:6.1005445903557103e-002
1758:5.7328752236326760e-002
1759:5.4467139410092416e-002
1760:6.3961531241704978e-002
1761:5.7368923795832444e-002
1762:4.8734350253209137e-002
1763:4.2091062422973953e-002
1764:6.0206398378736106e-002
1765:5.3990353706922754e-002
1766:4.5829336824043894e-002
1767:3.9535398892194235e-002
1768:5.5604034663319646e-002
1769:4.9909980797121355e-002
1770:4.2406853957094537e-002
1771:3.6599401627567293e-002
1772:5.2304226844031805e-002
1773:4.7033767339983636e-002
1774:4.0065560248144290e-002
1775:3.4654489405086135e-002
1776:3.7689367762412176e-002
1777:2.7749076588687402e-002
1778:1.4594694991520536e-002
1779:4.3706993730198351e-003
1780:3.5354335180965292e-002
1781:2.5902354830392407e-002
1782:1.3390202135842535e-002
1783:3.6623652173570936e-003
1784:3.2726718109262712e-002
1785:2.3958171070710042e-002
1786:1.2344387698603906e-002
1787:3.3102233798841746e-003
1788:3.1033889417061613e-002
1789:2.2824663114866670e-002
1790:1.1945756751920158e-002
1791:3.4787610464257542e-003
1792:-2.5168788494696603e-001
1793:-2.8308935180898975e-001
1794:-3.4357900750715370e-001
1795:-4.0490183607865932e-001
1796:-1.3771703703488572e-001
1797:-1.8704997993476599e-001
1798:-2.6433104302524946e-001
1799:-3.3346186128770799e-001
1800:-4.5544720179910826e-002
1801:-1.0888106690643480e-001
1802:-1.9581607518344094e-001
1803:-2.6574197467001626e-001
1804:-1.8225077342643826e-002
1805:-8.5095696819411912e-002
1806:-1.7003778275486006e-001
1807:-2.3337446864479963e-001
1808:-4.4119798201886551e-001
1809:-5.0010633755412337e-001
1810:-5.5852302945528309e-001
1811:-5.8916133335416621e-001
1812:-3.7032443227323819e-001
1813:-4.2831506728112434e-001
1814:-4.9024281236757555e-001
1815:-5.2718091293691849e-001
1816:-2.9978084043987951e-001
1817:-3.5259534312860408e-001
1818:-4.1391285711072395e-001
1819:-4.5509166974351106e-001
1820:-2.6251846554512964e-001
1821:-3.0831622101091660e-001
1822:-3.6518726155203418e-001
1823:-4.0656684415971400e-001
1824:-5.9696488814935289e-001
1825:-6.0120499496815683e-001
1826:-6.0157154709321015e-001
1827:-5.9789332622238966e-001
1828:-5.3910596218851925e-001
1829:-5.5062426182279367e-001
1830:-5.6070776478593176e-001
1831:-5.6464641720349562e-001
1832:-4.7051338118146740e-001
1833:-4.8844804895822008e-001
1834:-5.0719138775806749e-001
1835:-5.1798829175549754e-001
1836:-4.2322707739290238e-001
1837:-4.4371917149246481e-001
1838:-4.6602017917657101e-001
1839:-4.7971318996972390e-001
1840:-5.9112990269512899e-001
1841:-5.7077700620501381e-001
1842:-5.4226670036661273e-001
1843:-5.1891628939120882e-001
1844:-5.6091420215324694e-001
1845:-5.4454327259006186e-001
1846:-5.2197807647357874e-001
1847:-5.0375892799662769e-001
1848:-5.1742405970608540e-001
1849:-5.0637490026134790e-001
1850:-4.9173134874245278e-001
1851:-4.8033348015301719e-001
1852:-4.8097393498954355e-001
1853:-4.7410052383374235e-001
1854:-4.6565491259888453e-001
1855:-4.5958208786990545e-001
1856:-5.0222108560433465e-001
1857:-4.6574768027470625e-001
1858:-4.2293180360481297e-001
1859:-3.9377296236661385e-001
1860:-4.8952703039521561e-001
1861:-4.5606830931078224e-001
1862:-4.1532646990795302e-001
1863:-3.8633222594091338e-001
1864:-4.6990789690074730e-001
1865:-4.4247931189531192e-001
1866:-4.0717926997466264e-001
1867:-3.8049659449947953e-001
1868:-4.5252787895977337e-001
1869:-4.3132817561871334e-001
1870:-4.0229580100185403e-001
1871:-3.7899192021700878e-001
1872:-3.7680936511395535e-001
1873:-3.4076664090839565e-001
1874:-2.9486280725980890e-001
1875:-2.6053977084669311e-001
1876:-3.7040626157607576e-001
1877:-3.3877781836476828e-001
1878:-2.9839969442050607e-001
1879:-2.6813271021623342e-001
1880:-3.6603967989716174e-001
1881:-3.3850627849047915e-001
1882:-3.0316613476977772e-001
1883:-2.7652680384396000e-001
1884:-3.6574927187580708e-001
1885:-3.4007885889757983e-001
1886:-3.0693570055563124e-001
1887:-2.8180112927285622e-001
1888:-2.4375602760345469e-001
1889:-2.1486478076096494e-001
1890:-1.7775760218443057e-001
1891:-1.4976743766290004e-001
1892:-2.5251799579925538e-001
1893:-2.2421054701146428e-001
1894:-1.8823086120730337e-001
1895:-1.6138522675128453e-001
1896:-2.6205651865075463e-001
1897:-2.3474588240393041e-001
1898:-2.0054402458489126e-001
1899:-1.7542680135417554e-001
1900:-2.6791610517656500e-001
1901:-2.4154967991185061e-001
1902:-2.0894555308670665e-001
1903:-1.8533327284891585e-001
1904:-1.3593310782739612e-001
1905:-1.1261352209495713e-001
1906:-8.4225291000582722e-002
1907:-6.4028697041659532e-002
1908:-1.4818085646113902e-001
1909:-1.2576588775129341e-001
1910:-9.8175590530378831e-002
1911:-7.8297528455320439e-002
1912:-1.6309198695822616e-001
1913:-1.4180094436643828e-001
1914:-1.1517821160712156e-001
1915:-9.5659398213933225e-002
1916:-1.7370143685706338e-001
1917:-1.5322863805603737e-001
1918:-1.2729114622318546e-001
1919:-1.0800449148203123e-001
1920:-5.4789340045050920e-002
1921:-3.9718237125628705e-002
1922:-2.0685400823978954e-002
1923:-6.5811626738645299e-003
1924:-6.8976775029231385e-002
1925:-5.3489896896086568e-002
1926:-3.4026681872191572e-002
1927:-1.9678493511208539e-002
1928:-8.6251372773068713e-002
1929:-7.0349405811539797e-002
1930:-5.0490864309739932e-002
1931:-3.5951770765313681e-002
1932:-9.8544083628827037e-002
1933:-8.2421604259444906e-002
1934:-6.2387447468063205e-002
1935:-4.7799666518637894e-002
1936:-1.7487422872069673e-004
1937:9.7460001500931006e-003
1938:2.2017245692570402e-002
1939:3.0906903195366535e-002
1940:-1.3120410700862275e-002
1941:-2.8146583661836900e-003
1942:9.9870829609265011e-003
1943:1.9305056884532035e-002
1944:-2.9235521721334520e-002
1945:-1.8449910359418398e-002
1946:-4.9851144398463630e-003
1947:4.8693935771447691e-003
1948:-4.0992759598958296e-002
1949:-2.9856452652364047e-002
1950:-1.5905759396805112e-002
1951:-5.6571173301973457e-003
1952:3.4705687413502564e-002
1953:4.0246391032913727e-002
1954:4.7214755339262886e-002
1955:5.2355823060306672e-002
1956:2.3386758059183280e-002
1957:2.9523888363850607e-002
1958:3.7210804868856091e-002
1959:4.2856911032570520e-002
1960:9.2969420709716928e-003
1961:1.6147170919548051e-002
1962:2.4686696955267557e-002
1963:3.0926665527373498e-002
1964:-9.8233813990292662e-004
1965:6.3645692708482800e-003
1966:1.5492504060215790e-002
1967:2.2137762951915163e-002
1968:5.4365300730156524e-002
1969:5.6802682433294907e-002
1970:5.9809649342691583e-002
1971:6.1981632411898302e-002
1972:4.5129735099228727e-002
1973:4.8061514499023988e-002
1974:5.1680263506666754e-002
1975:5.4295646645852902e-002
1976:3.3521351399516217e-002
1977:3.7081694403463747e-002
1978:4.1477136848823655e-002
1979:4.4654545930922447e-002
1980:2.4962482804385407e-002
1981:2.8991950166111127e-002
1982:3.3966200060296180e-002
1983:3.7561735873487392e-002
1984:6.2501899359135207e-002
1985:6.2321648225984121e-002
1986:6.2006340543399305e-002
1987:6.1703258082149964e-002
1988:5.5057493305456277e-002
1989:5.5337864937088713e-002
1990:5.5584038480983221e-002
1991:5.5681025062899070e-002
1992:4.5722718894953843e-002
1993:4.6587281244695085e-002
1994:4.7544120349475215e-002
1995:4.8146291953013405e-002
1996:3.8857895209179115e-002
1997:4.0157337870006707e-002
1998:4.1642071488039459e-002
1999:4.2618569681049968e-002
2000:6.0941879818070983e-002
2001:5.8390368694584555e-002
2002:5.4988015300801468e-002
2003:5.2324075656502322e-002
2004:5.5134145191137296e-002
2005:5.2993084304953572e-002
2006:5.0099826727500518e-002
2007:4.7805827316490856e-002
2008:4.7875214687451963e-002
2009:4.6271240819826219e-002
2010:4.4044251801745322e-002
2011:4.2234485166862373e-002
2012:4.2555770480462704e-002
2013:4.1364644422238576e-002
2014:3.9649879382517461e-002
2015:3.8212450553014178e-002
2016:5.0275293851916605e-002
2017:4.5238811594634609e-002
2018:3.8567325167268574e-002
2019:3.3377118723299119e-002
2020:4.5972698314044332e-002
2021:4.1380706314192599e-002
2022:3.5274803859763337e-002
2023:3.0507088046142456e-002
2024:4.0684968170377034e-002
2025:3.6679774439296486e-002
2026:3.1320754915699453e-002
2027:2.7111134001130299e-002
2028:3.6882028202130844e-002
2029:3.3331844391055437e-002
2030:2.8552134062349906e-002
2031:2.4775523440705490e-002
2032:2.9897292133234658e-002
2033:2.2000562241105606e-002
2034:1.1532785107681706e-002
2035:3.3835109640958407e-003
2036:2.7296929113669332e-002
2037:1.9999047117606923e-002
2038:1.0320272390387268e-002
2039:2.7816082549904976e-003
2040:2.4257732033592900e-002
2041:1.7752766360883725e-002
2042:9.1185373056512850e-003
2043:2.3881357652656130e-003
2044:2.2199324810861652e-002
2045:1.6310968770691086e-002
2046:8.4889162276130994e-003
2047:2.3868864319094257e-003
2048:-1.7058555814280618e-002
2049:-8.2022779995431949e-002
2050:-1.6300173853386224e-001
2051:-2.2216976124273349e-001
2052:-1.6091929506505880e-002
2053:-7.4695060062578589e-002
2054:-1.4844000113634395e-001
2055:-2.0288012771125041e-001
2056:-1.4591612993761155e-002
2057:-6.5779070364873196e-002
2058:-1.3123872177988991e-001
2059:-1.8039404180975044e-001
2060:-1.3258411505106643e-002
2061:-5.9439513582875199e-002
2062:-1.1943270273254812e-001
2063:-1.6521486496019364e-001
2064:-2.4918221585853012e-001
2065:-2.9227839533160394e-001
2066:-3.4683050912367713e-001
2067:-3.8735699632636572e-001
2068:-2.2836646481616443e-001
2069:-2.6993732098485912e-001
2070:-3.2231654097072882e-001
2071:-3.6103753325927546e-001
2072:-2.0407486736269073e-001
2073:-2.4346855277394897e-001
2074:-2.9276870538226185e-001
2075:-3.2894698120321986e-001
2076:-1.8765414825439511e-001
2077:-2.2523578263400715e-001
2078:-2.7198894182350375e-001
2079:-3.0607499500305241e-001
2080:-4.0390944298852915e-001
2081:-4.2445595585160739e-001
2082:-4.4709797731413065e-001
2083:-4.6125930768592394e-001
2084:-3.7677006591468820e-001
2085:-3.9645565333446220e-001
2086:-4.1876682236703017e-001
2087:-4.3328191612100919e-001
2088:-3.4368342661690054e-001
2089:-3.6270928587478551e-001
2090:-3.8519357398379428e-001
2091:-4.0063376927969546e-001
2092:-3.2010445719429753e-001
2093:-3.3897994784390334e-001
2094:-3.6206046176290113e-001
2095:-3.7856497727602306e-001
2096:-4.6315523267582542e-001
2097:-4.5806713086177975e-001
2098:-4.5191171864729307e-001
2099:-4.4756421938040103e-001
2100:-4.3610461877233969e-001
2101:-4.3342958747396348e-001
2102:-4.2952594452784054e-001
2103:-4.2621710077145147e-001
2104:-4.0475234689112499e-001
2105:-4.0508750305597302e-001
2106:-4.0394148339823754e-001
2107:-4.0184959934183012e-001
2108:-3.8374321757287089e-001
2109:-3.8627960476546930e-001
2110:-3.8710896300257042e-001
2111:-3.8584389496875438e-001
2112:-4.4174462441716933e-001
2113:-4.2331579431704514e-001
2114:-3.9753349032744961e-001
2115:-3.7644075356633427e-001
2116:-4.2128308859784913e-001
2117:-4.0572272332873116e-001
2118:-3.8417185931433989e-001
2119:-3.6669701122914328e-001
2120:-3.9776935336763231e-001
2121:-3.8495755453725583e-001
2122:-3.6763067284764961e-001
2123:-3.5388218003502825e-001
2124:-3.8218680020897472e-001
2125:-3.7071980051053027e-001
2126:-3.5563640055703755e-001
2127:-3.4398213072125228e-001
2128:-3.6397900768719776e-001
2129:-3.3916021232738136e-001
2130:-3.0707653199794527e-001
2131:-2.8271441172640321e-001
2132:-3.5579946564022852e-001
2133:-3.3304410971210063e-001
2134:-3.0369251165157402e-001
2135:-2.8145494740851701e-001
2136:-3.4477918868038865e-001
2137:-3.2478569677342178e-001
2138:-2.9908957925916763e-001
2139:-2.7969361912867441e-001
2140:-3.3606580242765477e-001
2141:-3.1824251885056087e-001
2142:-2.9541778720112277e-001
2143:-2.7825315199728901e-001
2144:-2.6926249506123140e-001
2145:-2.4376250902699972e-001
2146:-2.1226910620100689e-001
2147:-1.8949301008301678e-001
2148:-2.6918984226904058e-001
2149:-2.4581735096758997e-001
2150:-2.1665986148074115e-001
2151:-1.9533698068801322e-001
2152:-2.6894427553297179e-001
2153:-2.4815521062675994e-001
2154:-2.2179445949905977e-001
2155:-2.0217525877370404e-001
2156:-2.6864050028435799e-001
2157:-2.4968406224858949e-001
2158:-2.2527450424435569e-001
2159:-2.0681365098191815e-001
2160:-1.7818579806245172e-001
2161:-1.5806807485165356e-001
2162:-1.3250988505974590e-001
2163:-1.1344958495965231e-001
2164:-1.8450807086894136e-001
2165:-1.6494575786796209e-001
2166:-1.4017941351778251e-001
2167:-1.2177751918729568e-001
2168:-1.9193010516784220e-001
2169:-1.7313358194619344e-001
2170:-1.4945404387948188e-001
2171:-1.3195231977133345e-001
2172:-1.9698503220001040e-001
2173:-1.7880697415133195e-001
2174:-1.5600155064456425e-001
2175:-1.3922128726916319e-001
2176:-1.0405598855875621e-001
2177:-8.7994364863503441e-002
2178:-6.8042221100331118e-002
2179:-5.3519301843965299e-002
2180:-1.1267983482985319e-001
2181:-9.6998986199783963e-002
2182:-7.7441363706267974e-002
2183:-6.3142429096791991e-002
2184:-1.2324251772666278e-001
2185:-1.0802409405586536e-001
2186:-8.8936355130146111e-002
2187:-7.4895277769275667e-002
2188:-1.3081015606876858e-001
2189:-1.1591980627636182e-001
2190:-9.7157828288866016e-002
2191:-8.3288034388088322e-002
2192:-4.6692268488666484e-002
2193:-3.5413871947018623e-002
2194:-2.1276384048962579e-002
2195:-1.0883494989512381e-002
2196:-5.6316439588480836e-002
2197:-4.4870764668212534e-002
2198:-3.0538080759467689e-002
2199:-2.0013255074784360e-002
2200:-6.8077103317911364e-002
2201:-5.6471775576010928e-002
2202:-4.1960870386035493e-002
2203:-3.1322502998366746e-002
2204:-7.6480795752053216e-002
2205:-6.4798015364439437e-002
2206:-5.0209111660536911e-002
2207:-3.9528633380546858e-002
2208:-6.1175998936338002e-003
2209:1.4195699427680328e-003
2210:1.0779466106407766e-002
2211:1.7590035021159311e-002
2212:-1.5150934860564107e-002
2213:-7.3747284844328685e-003
2214:2.2955705176076775e-003
2215:9.3429178755152949e-003
2216:-2.6353623754435597e-002
2217:-1.8279183506711209e-002
2218:-8.2216945614951541e-003
2219:-8.7905951740682199e-004
2220:-3.4492835442904844e-002
2221:-2.6200270501311986e-002
2222:-1.5859662836720308e-002
2223:-8.3011611953271325e-003
2224:2.0517323264524667e-002
2225:2.4766421371573293e-002
2226:3.0010954159507594e-002
2227:3.3801174544632745e-002
2228:1.2429356786082608e-002
2229:1.7027877744707532e-002
2230:2.2700502695454358e-002
2231:2.6797520597910691e-002
2232:2.4033754304862483e-003
2233:7.4277109785085759e-003
2234:1.3619624583169163e-002
2235:1.8086842917367854e-002
2236:-4.8774355538868958e-003
2237:4.5020623040777525e-004
2238:7.0100426933985037e-003
2239:1.1737941929618191e-002
2240:3.5204405138656178e-002
2241:3.6711076169983349e-002
2242:3.8450088242414283e-002
2243:3.9609140255880873e-002
2244:2.8373600749976999e-002
2245:3.0225084102583386e-002
2246:3.2393071918475305e-002
2247:3.3864886416005040e-002
2248:1.9877195696181203e-002
2249:2.2166434595047198e-002
2250:2.4878291993194652e-002
2251:2.6746045949664694e-002
2252:1.3683902605069695e-002
2253:1.6299362504500203e-002
2254:1.9415939164381977e-002
2255:2.1577864284208288e-002
2256:3.9650796807524952e-002
2257:3.8670761176958536e-002
2258:3.7219164534888736e-002
2259:3.5974054818928201e-002
2260:3.4089237359207450e-002
2261:3.3482671127360433e-002
2262:3.2498816923248033e-002
2263:3.1597237889040869e-002
2264:2.7202211401271818e-002
2265:2.7070462085735832e-002
2266:2.6680629078037723e-002
2267:2.6214805295177453e-002
2268:2.2206682662986369e-002
2269:2.2429308462263389e-002
2270:2.2482305184272529e-002
2271:2.2340917799257735e-002
2272:3.4757993796778054e-002
2273:3.1447292277899490e-002
2274:2.6973975367982076e-002
2275:2.3427551417467517e-002
2276:3.0587767237263041e-002
2277:2.7713553508289468e-002
2278:2.3801324414641414e-002
2279:2.0678501425580226e-002
2280:2.5468781761005605e-002
2281:2.3153642190809964e-002
2282:1.9959880147962395e-002
2283:1.7379317605329722e-002
2284:2.1792140684362672e-002
2285:1.9897515349971133e-002
2286:1.7244000096061678e-002
2287:1.5071064960786662e-002
2288:2.0999420031755041e-002
2289:1.5440886261737239e-002
2290:8.0533355757985824e-003
2291:2.2875292677274955e-003
2292:1.8523362944373793e-002
2293:1.3572679876038525e-002
2294:6.9862036221654440e-003
2295:1.8405096656714003e-003
2296:1.5572215721130142e-002
2297:1.1394468261345646e-002
2298:5.8268936070757470e-003
2299:1.4701332881031229e-003
2300:1.3524473758293333e-002
2301:9.9237047860606595e-003
2302:5.1169249457813266e-003
2303:1.3494047642790480e-003
2304:-1.2629927346535274e-002
2305:-5.6754653087856675e-002
2306:-1.1429760399430237e-001
2307:-1.5838018441769972e-001
2308:-1.1731111418535415e-002
2309:-5.2925027867881516e-002
2310:-1.0645220060077917e-001
2311:-1.4730982372330639e-001
2312:-1.0620059420573872e-002
2313:-4.8352488398132151e-002
2314:-9.7113023113293021e-002
2315:-1.3412537775605549e-001
2316:-9.8157492105488513e-003
2317:-4.5172890375198414e-002
2318:-9.0642447312348690e-002
2319:-1.2498536613332863e-001
2320:-1.8005939787576777e-001
2321:-2.1640854816806315e-001
2322:-2.6159759827532802e-001
2323:-2.9451852043003424e-001
2324:-1.6737894402731227e-001
2325:-2.0113762002928862e-001
2326:-2.4329449848180576e-001
2327:-2.7415789392443540e-001
2328:-1.5228157252603411e-001
2329:-1.8300280246918182e-001
2330:-2.2165027937216938e-001
2331:-2.5017157651487570e-001
2332:-1.4181933992344500e-001
2333:-1.7047495804645973e-001
2334:-2.0677506224544748e-001
2335:-2.3376369514626852e-001
2336:-3.0821384425993897e-001
2337:-3.2705933477618770e-001
2338:-3.5028447082098574e-001
2339:-3.6704067701214521e-001
2340:-2.8729716383463139e-001
2341:-3.0592360845254268e-001
2342:-3.2876020171351733e-001
2343:-3.4513985848245365e-001
2344:-2.6263761510076911e-001
2345:-2.8083201234055444e-001
2346:-3.0297084560049697e-001
2347:-3.1871295687699480e-001
2348:-2.4575379466911149e-001
2349:-2.6350495450824052e-001
2350:-2.8496273768144176e-001
2351:-3.0010410803338844e-001
2352:-3.7252536736722403e-001
2353:-3.7584379463516093e-001
2354:-3.7760094222228302e-001
2355:-3.7697603784033495e-001
2356:-3.5064061935995444e-001
2357:-3.5467051143556155e-001
2358:-3.5790517864881349e-001
2359:-3.5883369202035831e-001
2360:-3.2414478469881519e-001
2361:-3.2891179646642504e-001
2362:-3.3382482568460498e-001
2363:-3.3658897221904960e-001
2364:-3.0541419819110505e-001
2365:-3.1059967229812080e-001
2366:-3.1660793474506632e-001
2367:-3.2063249656472770e-001
2368:-3.7368565368264212e-001
2369:-3.6302328911556586e-001
2370:-3.4905988386715786e-001
2371:-3.3831781326977639e-001
2372:-3.5658705063056706e-001
2373:-3.4796211379656988e-001
2374:-3.3643143838790668e-001
2375:-3.2738105965264613e-001
2376:-3.3561763871022277e-001
2377:-3.2951754135177519e-001
2378:-3.2098680394169682e-001
2379:-3.1401017592043423e-001
2380:-3.2057233346048825e-001
2381:-3.1630512237144026e-001
2382:-3.0994024531116632e-001
2383:-3.0445076768834195e-001
2384:-3.3094668033677477e-001
2385:-3.1421327147273553e-001
2386:-2.9277611708555523e-001
2387:-2.7664861752304437e-001
2388:-3.2093726361284647e-001
2389:-3.0601627536061549e-001
2390:-2.8677483221268740e-001
2391:-2.7220070698769416e-001
2392:-3.0869118243451904e-001
2393:-2.9594890223003645e-001
2394:-2.7932957791386515e-001
2395:-2.6659617768981453e-001
2396:-2.9992864160675459e-001
2397:-2.8871367163123901e-001
2398:-2.7391806912450889e-001
2399:-2.6245293285513044e-001
2400:-2.6753328614500349e-001
2401:-2.4937754882964461e-001
2402:-2.2591035511869759e-001
2403:-2.0809334672184135e-001
2404:-2.6379695798175518e-001
2405:-2.4685310633496405e-001
2406:-2.2502292675083768e-001
2407:-2.0850340358151659e-001
2408:-2.5904501054910595e-001
2409:-2.4358371951198327e-001
2410:-2.2376072540671349e-001
2411:-2.0883544636702883e-001
2412:-2.5549710188632974e-001
2413:-2.4109653504067183e-001
2414:-2.2271333154788678e-001
2415:-2.0893437625863015e-001
2416:-1.9854784395645014e-001
2417:-1.8082420944837574e-001
2418:-1.5859420134219604e-001
2419:-1.4224156586103148e-001
2420:-1.9959967514822252e-001
2421:-1.8290768669197108e-001
2422:-1.6189089437640281e-001
2423:-1.4636634535627008e-001
2424:-2.0071872809981081e-001
2425:-1.8528248754512863e-001
2426:-1.6573083620151424e-001
2427:-1.5119644666292834e-001
2428:-2.0138228766850644e-001
2429:-1.8683933083836632e-001
2430:-1.6832037108725895e-001
2431:-1.5447570568242189e-001
2432:-1.3399562875112439e-001
2433:-1.1929263168882002e-001
2434:-1.0074576201385574e-001
2435:-8.7018353856290573e-002
2436:-1.3843222833868299e-001
2437:-1.2412404473711543e-001
2438:-1.0608448720609315e-001
2439:-9.2739921875797035e-002
2440:-1.4364845312119962e-001
2441:-1.2986791081148499e-001
2442:-1.1250658903548116e-001
2443:-9.9674046663283930e-002
2444:-1.4720777882365763e-001
2445:-1.3384124179195911e-001
2446:-1.1701227212196744e-001
2447:-1.0458176439431957e-001
2448:-8.0256054256660755e-002
2449:-6.8610654116493280e-002
2450:-5.4067565271101868e-002
2451:-4.3419936114743346e-002
2452:-8.6132685679364787e-002
2453:-7.4675301985900444e-002
2454:-6.0343372953194287e-002
2455:-4.9831413187469108e-002
2456:-9.3269269512335357e-002
2457:-8.2045217506191315e-002
2458:-6.7973166067764629e-002
2459:-5.7626239699626138e-002
2460:-9.8332272314300070e-002
2461:-8.7277876856281536e-002
2462:-7.3393030690080310e-002
2463:-6.3163413814006239e-002
2464:-3.8371439009564842e-002
2465:-3.0000481047132141e-002
2466:-1.9559660755709626e-002
2467:-1.1925936692820124e-002
2468:-4.4795298559168265e-002
2469:-3.6352174018406763e-002
2470:-2.5823486005680546e-002
2471:-1.8127236523709546e-002
2472:-5.2609202861182369e-002
2473:-4.4094865055221047e-002
2474:-3.3481469672819647e-002
2475:-2.5726585946074441e-002
2476:-5.8163238748849974e-002
2477:-4.9611905057574165e-002
2478:-3.8956529886503992e-002
2479:-3.1174291433683086e-002
2480:-8.4493120587761442e-003
2481:-3.0010341871950044e-003
2482:3.7077875568007641e-003
2483:8.5434295095490019e-003
2484:-1.4592270463413569e-002
2485:-8.9864973005440892e-003
2486:-2.0759480441115683e-003
2487:2.9114257280756848e-003
2488:-2.2124534595000085e-002
2489:-1.6324234602351145e-002
2490:-9.1647877246813468e-003
2491:-3.9904068439924421e-003
2492:-2.7527746796869559e-002
2493:-2.1586752875786434e-002
2494:-1.4247499572272653e-002
2495:-8.9381882350061427e-003
2496:1.0558485637972634e-002
2497:1.3325289541745630e-002
2498:1.6630374346712998e-002
2499:1.8929918669778101e-002
2500:5.0316978149059074e-003
2501:8.0378823097612771e-003
2502:1.1642597443634561e-002
2503:1.4162063031747808e-002
2504:-1.7405229005919821e-003
2505:1.5601780216452650e-003
2506:5.5325920782378583e-003
2507:8.3211851074569323e-003
2508:-6.5948388731576473e-003
2509:-3.0820557603599766e-003
2510:1.1543718358133293e-003
2511:4.1355877295616347e-003
2512:1.9641140248986815e-002
2513:2.0036005513478429e-002
2514:2.0306196667023657e-002
2515:2.0325506091671993e-002
2516:1.5008822245051755e-002
2517:1.5694108906457536e-002
2518:1.6334489739565815e-002
2519:1.6630839704668481e-002
2520:9.3356952876546377e-003
2521:1.0383602677689577e-002
2522:1.1485713205715502e-002
2523:1.2127225618481084e-002
2524:5.2717049069904362e-003
2525:6.5850504298554068e-003
2526:8.0247544546145633e-003
2527:8.9183241437428840e-003
2528:1.9876162935098082e-002
2529:1.8195782122790407e-002
2530:1.5818458807069603e-002
2531:1.3854652412103362e-002
2532:1.6355348187812424e-002
2533:1.5052333837387353e-002
2534:1.3163250219274137e-002
2535:1.1570497591315256e-002
2536:1.2067533642325023e-002
2537:1.1231786037544905e-002
2538:9.9469819955021535e-003
2539:8.8132598092440038e-003
2540:9.0155785814489808e-003
2541:8.5187354088411982e-003
2542:7.6719888565373023e-003
2543:6.8708584075771253e-003
2544:1.2442104511210160e-002
2545:9.1384039105534571e-003
2546:4.7233162799993691e-003
2547:1.2591507869378199e-003
2548:1.0396409975820232e-002
2549:7.6214444053429812e-003
2550:3.9036001586622341e-003
2551:9.7950058606759475e-004
2552:7.9324341733251688e-003
2553:5.8053748233523042e-003
2554:2.9425115262420106e-003
2555:6.8110182175460353e-004
2556:6.2011123310445867e-003
2557:4.5384902067115533e-003
2558:2.2889796143311688e-003
2559:5.0333802578595549e-004
2560:-9.3803743150786215e-003
2561:-4.3503783272145130e-002
2562:-8.7347915075115704e-002
2563:-1.2043295991735248e-001
2564:-8.6030148435804876e-003
2565:-4.0407113332225006e-002
2566:-8.1357976682255168e-002
2567:-1.1232725502474590e-001
2568:-7.7745892100020428e-003
2569:-3.6762120267198585e-002
2570:-7.4211395735802488e-002
2571:-1.0262967468437238e-001
2572:-7.2820591060680940e-003
2573:-3.4271398281767049e-002
2574:-6.9246375377949185e-002
2575:-9.5870006413711892e-002
2576:-1.3666789791647616e-001
2577:-1.6438451270780594e-001
2578:-1.9956554327229625e-001
2579:-2.2577775703960151e-001
2580:-1.2759622101758422e-001
2581:-1.5376860562252481e-001
2582:-1.8698522930665867e-001
2583:-2.1173044362409621e-001
2584:-1.1673110968271362e-001
2585:-1.4102747105803351e-001
2586:-1.7186214311994741e-001
2587:-1.9483209875149071e-001
2588:-1.0914771090454310e-001
2589:-1.3211255569307251e-001
2590:-1.6126035271982569e-001
2591:-1.8297602250110975e-001
2592:-2.3748536718534996e-001
2593:-2.5492443868690562e-001
2594:-2.7601384310491439e-001
2595:-2.9090261581411497e-001
2596:-2.2285183924946214e-001
2597:-2.3964124635826892e-001
2598:-2.6013142075469337e-001
2599:-2.7475130110651691e-001
2600:-2.0523623139662364e-001
2601:-2.2121782190787057e-001
2602:-2.4097811463141308e-001
2603:-2.5528697955759921e-001
2604:-1.9286688077526304e-001
2605:-2.0825983759365949e-001
2606:-2.2750052831558767e-001
2607:-2.4160153158430026e-001
2608:-2.9619919298050879e-001
2609:-3.0162046034636963e-001
2610:-3.0805569073539973e-001
2611:-3.1249895635271002e-001
2612:-2.8015178669945684e-001
2613:-2.8608457555639832e-001
2614:-2.9308576319707930e-001
2615:-2.9788506040819035e-001
2616:-2.6081121687356074e-001
2617:-2.6732722488734040e-001
2618:-2.7495700572669890e-001
2619:-2.8013665120072195e-001
2620:-2.4721155888073215e-001
2621:-2.5411005917777574e-001
2622:-2.6213745018522389e-001
2623:-2.6754409804523521e-001
2624:-3.1275233417238968e-001
2625:-3.0918010461100853e-001
2626:-3.0369164392505898e-001
2627:-2.9885063912023485e-001
2628:-2.9841899242221437e-001
2629:-2.9563340647624214e-001
2630:-2.9128297277742538e-001
2631:-2.8739980032335832e-001
2632:-2.8098577245240075e-001
2633:-2.7911984913382459e-001
2634:-2.7611502530691751e-001
2635:-2.7337486897376861e-001
2636:-2.6859581713332303e-001
2637:-2.6735299651343208e-001
2638:-2.6527282444771288e-001
2639:-2.6332695954859231e-001
2640:-2.9469608900869476e-001
2641:-2.8420801082424224e-001
2642:-2.7032061078430258e-001
2643:-2.5952076181419292e-001
2644:-2.8383422617179693e-001
2645:-2.7455935768445539e-001
2646:-2.6227302226798715e-001
2647:-2.5271422768017260e-001
2648:-2.7050766329790504e-001
2649:-2.6265936958288755e-001
2650:-2.5225801581070301e-001
2651:-2.4416212553345942e-001
2652:-2.6094130351111589e-001
2653:-2.5406658954454614e-001
2654:-2.4495365023179139e-001
2655:-2.3785918438817477e-001
2656:-2.5289419232220023e-001
2657:-2.3907779383691316e-001
2658:-2.2144919684727968e-001
2659:-2.0824280579145993e-001
2660:-2.4673160563808133e-001
2661:-2.3404775226415026e-001
2662:-2.1781255813700628e-001
2663:-2.0560956235812852e-001
2664:-2.3895230684586041e-001
2665:-2.2764960072360602e-001
2666:-2.1310649242447657e-001
2667:-2.0211613942967530e-001
2668:-2.3319004470830207e-001
2669:-2.2287194729749082e-001
2670:-2.0952922617162789e-001
2671:-1.9939433205385204e-001
2672:-2.0096354721960336e-001
2673:-1.8685872473638354e-001
2674:-1.6887241993411792e-001
2675:-1.5540612433122220e-001
2676:-1.9879472410219695e-001
2677:-1.8545926200922591e-001
2678:-1.6846322987676915e-001
2679:-1.5574555798414130e-001
2680:-1.9586906879176633e-001
2681:-1.8349065852860305e-001
2682:-1.6772566178229703e-001
2683:-1.5593798614299401e-001
2684:-1.9355316928660171e-001
2685:-1.8187245867159232e-001
2686:-1.6700423733861636e-001
2687:-1.5589352466748094e-001
2688:-1.4830764871342075e-001
2689:-1.3520896535789093e-001
2690:-1.1871487409444244e-001
2691:-1.0652984615143554e-001
2692:-1.4900138804688184e-001
2693:-1.3646970549916770e-001
2694:-1.2066842294451995e-001
2695:-1.0897839725279489e-001
2696:-1.4963162487571910e-001
2697:-1.3779466543877081e-001
2698:-1.2283852110062829e-001
2699:-1.1174928050965900e-001
2700:-1.4990397247456885e-001
2701:-1.3856494986622234e-001
2702:-1.2421150503080723e-001
2703:-1.1354820271190445e-001
2704:-1.0037596203308280e-001
2705:-8.9435991270784942e-002
2706:-7.5688424620369676e-002
2707:-6.5554818142522245e-002
2708:-1.0302273567613204e-001
2709:-9.2346868059006534e-002
2710:-7.8932947537431020e-002
2711:-6.9046682422791647e-002
2712:-1.0603978321585893e-001
2713:-9.5706785764956268e-002
2714:-8.2725948301571636e-002
2715:-7.3160683908578356e-002
2716:-1.0801782689374692e-001
2717:-9.7946310287541860e-002
2718:-8.5295697583195190e-002
2719:-7.5975152252942227e-002
2720:-6.0585182804959850e-002
2721:-5.2056609346621652e-002
2722:-4.1428782792342224e-002
2723:-3.3666013245634403e-002
2724:-6.4173033603172641e-002
2725:-5.5755918649854005e-002
2726:-4.5259166627596444e-002
2727:-3.7585862080756136e-002
2728:-6.8410996663859108e-002
2729:-6.0136233200978738e-002
2730:-4.9806490390473863e-002
2731:-4.2246841951721015e-002
2732:-7.1319498578188659e-002
2733:-6.3151486509182675e-002
2734:-5.2946676765182478e-002
2735:-4.5471786215149405e-002
2736:-3.0011812665183695e-002
2737:-2.4023918806297374e-002
2738:-1.6624417793272738e-002
2739:-1.1269652976489771e-002
2740:-3.3944575079791504e-002
2741:-2.7921631612856022e-002
2742:-2.0476182163660685e-002
2743:-1.5086032823333349e-002
2744:-3.8624677839441429e-002
2745:-3.2567610501263750e-002
2746:-2.5077353866807501e-002
2747:-1.9652643684035256e-002
2748:-4.1866021905289721e-002
2749:-3.5791695860909536e-002
2750:-2.8278702948936044e-002
2751:-2.2836399144471713e-002
2752:-8.8907031574245923e-003
2753:-5.2907435632651703e-003
2754:-9.4384196395364169e-004
2755:2.1195425039932389e-003
2756:-1.2666395628199389e-002
2757:-8.9490302836221763e-003
2758:-4.4485133714319411e-003
2759:-1.2670584970293391e-003
2760:-1.7186294004615198e-002
2761:-1.3328059397317635e-002
2762:-8.6431817156198930e-003
2763:-5.3199903879570763e-003
2764:-2.0339131503919809e-002
2765:-1.6382364847692451e-002
2766:-1.1568496762900128e-002
2767:-8.1461087302658712e-003
2768:3.3105096453088403e-003
2769:4.7477378132375478e-003
2770:6.3462805006404338e-003
2771:7.3594505487280257e-003
2772:8.2914784741849511e-006
2773:1.6432160705341287e-003
2774:3.4979421690581138e-003
2775:4.7061180827279846e-003
2776:-3.9433045644333550e-003
2777:-2.0710058604015758e-003
2778:9.1137101451182719e-005
2779:1.5331766995602173e-003
2780:-6.6984685183567984e-003
2781:-4.6599966307848848e-003
2782:-2.2827992836368669e-003
2783:-6.7727706053934827e-004
2784:7.5323401402841352e-003
2785:7.2005670173528932e-003
2786:6.5683246003184637e-003
2787:5.9309364346658540e-003
2788:5.0047365135465023e-003
2789:4.9509222626814859e-003
2790:4.6822059223000497e-003
2791:4.3241062178645089e-003
2792:1.9819980490257895e-003
2793:2.2594726215564333e-003
2794:2.4241273574364692e-003
2795:2.3990512189508823e-003
2796:-1.2393923576378918e-004
2797:3.8340747116905554e-004
2798:8.4884851973708467e-004
2799:1.0549741048057370e-003
2800:5.3655324032846063e-003
2801:3.9325152346195991e-003
2802:1.9858678787540089e-003
2803:4.3487889883515418e-004
2804:3.9370114731579718e-003
2805:2.8956267627957225e-003
2806:1.4649167819199619e-003
2807:3.1317320587300140e-004
2808:2.2214986185905851e-003
2809:1.6357542012678111e-003
2810:8.0600730511274233e-004
2811:1.1983679010879054e-004
2812:1.0203183393121598e-003
2813:7.4139022578256645e-004
2814:3.1691930872883127e-004
2815:-5.4821956882696935e-005
2816:-7.0804455472359730e-003
2817:-3.3104620643194464e-002
2818:-6.6856441602814690e-002
2819:-9.2570266698088780e-002
2820:-6.7255143409901868e-003
2821:-3.1113219824045701e-002
2822:-6.2732654680807465e-002
2823:-8.6814225229502787e-002
2824:-6.2326338364744440e-003
2825:-2.8665242228081061e-002
2826:-5.7737409005745990e-002
2827:-7.9869381947453869e-002
2828:-5.8320309437816849e-003
2829:-2.6904150241613151e-002
2830:-5.4204008423693550e-002
2831:-7.4979707337968896e-002
2832:-1.0542036732675203e-001
2833:-1.2769184140613871e-001
2834:-1.5597494360910533e-001
2835:-1.7705849766097134e-001
2836:-9.8875795143340744e-002
2837:-1.1986095418911509e-001
2838:-1.4656536325828368e-001
2839:-1.6651526141076578e-001
2840:-9.0977209017393465e-002
2841:-1.1038578328470298e-001
2842:-1.3516312502716724e-001
2843:-1.5373561593983295e-001
2844:-8.5414077412498388e-002
2845:-1.0369222766792281e-001
2846:-1.2709427052590405e-001
2847:-1.4468899656091019e-001
2848:-1.8669015050391238e-001
2849:-2.0175797798535774e-001
2850:-2.2065135358088767e-001
2851:-2.3454508853910655e-001
2852:-1.7568258447740054e-001
2853:-1.9011640912209199e-001
2854:-2.0822274754476722e-001
2855:-2.2154403993200197e-001
2856:-1.6233328933047270e-001
2857:-1.7597396997348627e-001
2858:-1.9309787387057217e-001
2859:-2.0570634121166567e-001
2860:-1.5287778654386439e-001
2861:-1.6593666348804731e-001
2862:-1.8234163551017732e-001
2863:-1.9442985941821966e-001
2864:-2.4012858043043694e-001
2865:-2.4710685751923117e-001
2866:-2.5524896826741117e-001
2867:-2.6075169266147818e-001
2868:-2.2694767246339853e-001
2869:-2.3386599489102602e-001
2870:-2.4207122378158696e-001
2871:-2.4773065632654864e-001
2872:-2.1087658938915907e-001
2873:-2.1768744598477474e-001
2874:-2.2593687411738203e-001
2875:-2.3177152529491044e-001
2876:-1.9942221322847256e-001
2877:-2.0612829064040034e-001
2878:-2.1438235343118225e-001
2879:-2.2032888823709146e-001
2880:-2.6191161490372150e-001
2881:-2.6098844355625023e-001
2882:-2.5935884545160126e-001
2883:-2.5778401388684374e-001
2884:-2.4910106173227647e-001
2885:-2.4875754667498540e-001
2886:-2.4789836540443611e-001
2887:-2.4692484572179574e-001
2888:-2.3338230470732507e-001
2889:-2.3369578923784207e-001
2890:-2.3371224107200672e-001
2891:-2.3342397547710242e-001
2892:-2.2209765261752204e-001
2893:-2.2283859229164418e-001
2894:-2.2342688096725602e-001
2895:-2.2358772610788166e-001
2896:-2.5561752963502904e-001
2897:-2.4918299808202421e-001
2898:-2.4065097973805646e-001
2899:-2.3400682237410039e-001
2900:-2.4511008892100272e-001
2901:-2.3939111934891164e-001
2902:-2.3179933651943718e-001
2903:-2.2588089956603030e-001
2904:-2.3202351059091675e-001
2905:-2.2717000258334966e-001
2906:-2.2071605173529485e-001
2907:-2.1567633026022254e-001
2908:-2.2247059980703149e-001
2909:-2.1822819159019541e-001
2910:-2.1257818227050951e-001
2911:-2.0815971901579117e-001
2912:-2.2958506162128470e-001
2913:-2.1973341739574095e-001
2914:-2.0697822917828176e-001
2915:-1.9727750817814957e-001
2916:-2.2185843936722380e-001
2917:-2.1277905699571908e-001
2918:-2.0103667553058274e-001
2919:-1.9211621916107613e-001
2920:-2.1213494110519068e-001
2921:-2.0398152959997515e-001
2922:-1.9345409307725545e-001
2923:-1.8547004896261721e-001
2924:-2.0495646074145704e-001
2925:-1.9745020356464210e-001
2926:-1.8777234341075652e-001
2927:-1.8044345640109452e-001
2928:-1.9165033342799426e-001
2929:-1.8034293261934217e-001
2930:-1.6595113235845735e-001
2931:-1.5519741339699486e-001
2932:-1.8688619037101814e-001
2933:-1.7627568769561430e-001
2934:-1.6276672584554672e-001
2935:-1.5266940740462973e-001
2936:-1.8071991154259812e-001
2937:-1.7095664222629547e-001
2938:-1.5851861384551547e-001
2939:-1.4921569068844487e-001
2940:-1.7603179613963540e-001
2941:-1.6687034853537261e-001
2942:-1.5519111038672606e-001
2943:-1.4644951132898346e-001
2944:-1.4937436250403471e-001
2945:-1.3830105501711432e-001
2946:-1.2427849701496632e-001
2947:-1.1385669437242427e-001
2948:-1.4715437200213025e-001
2949:-1.3658658472680657e-001
2950:-1.2321127157277732e-001
2951:-1.1327610715999779e-001
2952:-1.4407793847691691e-001
2953:-1.3413944797074331e-001
2954:-1.2156912000025447e-001
2955:-1.1223861664329045e-001
2956:-1.4158207917308152e-001
2957:-1.3210271437475732e-001
2958:-1.2011909938112077e-001
2959:-1.1122883975016516e-001
2960:-1.0843465407349007e-001
2961:-9.8531294087077656e-002
2962:-8.6091578530243351e-002
2963:-7.6926159779407532e-002
2964:-1.0808094293225819e-001
2965:-9.8538767705919461e-002
2966:-8.6549330570221364e-002
2967:-7.7712956634379785e-002
2968:-1.0732561127872749e-001
2969:-9.8232964251271163e-002
2970:-8.6802680026712820e-002
2971:-7.8373900636810503e-002
2972:-1.0652147824670673e-001
2973:-9.7756726022245277e-002
2974:-8.6733286121376582e-002
2975:-7.8600261589391096e-002
2976:-7.2333182949652255e-002
2977:-6.4246104500110632e-002
2978:-5.4140370627058343e-002
2979:-4.6736419372393444e-002
2980:-7.3259006785767244e-002
2981:-6.5369219314715316e-002
2982:-5.5510773583304168e-002
2983:-4.8288598125103069e-002
2984:-7.4094926284898041e-002
2985:-6.6460186669566587e-002
2986:-5.6921301447520688e-002
2987:-4.9933930865234386e-002
2988:-7.4450479333833072e-002
2989:-6.7009410342457124e-002
2990:-5.7713089710407485e-002
2991:-5.0903874570036034e-002
2992:-4.3154341319613550e-002
2993:-3.7099447179315771e-002
2994:-2.9608793799418984e-002
2995:-2.4181302249609897e-002
2996:-4.4778098384602040e-002
2997:-3.8809653096527924e-002
2998:-3.1420699489258644e-002
2999:-2.6062654168030983e-002
3000:-4.6516919286658721e-002
3001:-4.0663996880066458e-002
3002:-3.3411296621349208e-002
3003:-2.8146590505889791e-002
3004:-4.7558592222338596e-002
3005:-4.1796305419827727e-002
3006:-3.4650767475732050e-002
3007:-2.9459694340712939e-002
3008:-2.1679793060956309e-002
3009:-1.7692733216102086e-002
3010:-1.2837366303003863e-002
3011:-9.3816581094030519e-003
3012:-2.3575108490217454e-002
3013:-1.9572740334055202e-002
3014:-1.4690422985137891e-002
3015:-1.1208710912439508e-002
3016:-2.5681176830348158e-002
3017:-2.1670791768412686e-002
3018:-1.6768911083986166e-002
3019:-1.3265227376370379e-002
3020:-2.7014243191654498e-002
3021:-2.3006877365629407e-002
3022:-1.8101958576338315e-002
3023:-1.4590598536830840e-002
3024:-7.9067223783226264e-003
3025:-5.7994001962049270e-003
3026:-3.3310378865172054e-003
3027:-1.6546196356815705e-003
3028:-9.7020495294011088e-003
3029:-7.5017548368306207e-003
3030:-4.9053255662854589e-003
3031:-3.1255666120858965e-003
3032:-1.1725363246722159e-002
3033:-9.4225476735909138e-003
3034:-6.6835324160972901e-003
3035:-4.7877249850046310e-003
3036:-1.3031563732303320e-002
3037:-1.0664566916521364e-002
3038:-7.8350492624246568e-003
3039:-5.8646923957670219e-003
3040:-1.0544420376923452e-003
3041:-4.4212539179613419e-004
3042:1.6178795085602569e-004
3043:4.7520709489569911e-004
3044:-2.4540217979864311e-003
3045:-1.6780227753672098e-003
3046:-8.5572807539739952e-004
3047:-3.7123560052778167e-004
3048:-4.0366806222501776e-003
3049:-3.0794356237554589e-003
3050:-2.0143747433420752e-003
3051:-1.3389931614700699e-003
3052:-5.0631507823421674e-003
3053:-3.9917570964236784e-003
3054:-2.7729424904508249e-003
3055:-1.9760212670371542e-003
3056:5.0672909814172720e-004
3057:3.6905999213673180e-004
3058:1.3085360056947707e-004
3059:-9.6622698377784975e-005
3060:-2.3449710364414770e-004
3061:-1.4938493212061173e-004
3062:-9.4530841311955152e-005
3063:-9.5557447071255674e-005
3064:-1.0886759814437168e-003
3065:-7.6952668145415404e-004
3066:-4.0619713002882892e-004
3067:-1.6840034929742749e-004
3068:-1.6568163763894983e-003
3069:-1.2016939918290525e-003
3070:-6.5856440780740551e-004
3071:-2.8112612682028808e-004
3072:-5.6068256937269866e-003
3073:-2.5981634461842151e-002
3074:-5.2380314207028884e-002
3075:-7.2471911661529026e-002
3076:-5.2023069443632389e-003
3077:-2.4281806566427439e-002
3078:-4.9020059729474076e-002
3079:-6.7861706596421517e-002
3080:-4.7398772542678273e-003
3081:-2.2217291322006023e-002
3082:-4.4903877085471527e-002
3083:-6.2202618650136911e-002
3084:-4.4355398081754212e-003
3085:-2.0752433962703310e-002
3086:-4.1954455451705772e-002
3087:-5.8138035661659176e-002
3088:-8.2564213635664199e-002
3089:-1.0025560628180122e-001
3090:-1.2293139318421097e-001
3091:-1.3999960264951353e-001
3092:-7.7330828085827322e-002
3093:-9.3941087082400315e-002
3094:-1.1525419632337999e-001
3095:-1.3131469755941486e-001
3096:-7.0903207730771120e-002
3097:-8.6182132015536317e-002
3098:-1.0582071715288154e-001
3099:-1.2064568334583314e-001
3100:-6.6283725681056699e-002
3101:-8.0602987189705128e-002
3102:-9.9037380233589253e-002
3103:-1.1297610907072556e-001
3104:-1.4795969095722236e-001
3105:-1.6068516835144575e-001
3106:-1.7669064936156453e-001
3107:-1.8849989501393169e-001
3108:-1.3882181269853019e-001
3109:-1.5087401913046747e-001
3110:-1.6609415015058937e-001
3111:-1.7737280763179569e-001
3112:-1.2758956209648203e-001
3113:-1.3878830504934708e-001
3114:-1.5301634875441841e-001
3115:-1.6362770395343260e-001
3116:-1.1950957870284763e-001
3117:-1.3007332265246044e-001
3118:-1.4356595058627136e-001
3119:-1.5368498957315452e-001
3120:-1.9339498386422851e-001
3121:-2.0002162028125173e-001
3122:-2.0822324590603855e-001
3123:-2.1416884103324432e-001
3124:-1.8208076538038948e-001
3125:-1.8851790238183760e-001
3126:-1.9652313733686716e-001
3127:-2.0235718558878921e-001
3128:-1.6809281306604840e-001
3129:-1.7426263753047674e-001
3130:-1.8198545343122902e-001
3131:-1.8765389544220978e-001
3132:-1.5796496830891463e-001
3133:-1.6391453011686635e-001
3134:-1.7140081790941183e-001
3135:-1.7692694980419887e-001
3136:-2.1597914834958093e-001
3137:-2.1686454403504249e-001
3138:-2.1766309017614702e-001
3139:-2.1800178193919345e-001
3140:-2.0417356010126320e-001
3141:-2.0520033583719108e-001
3142:-2.0625096670411977e-001
3143:-2.0683469785193315e-001
3144:-1.8946326923332887e-001
3145:-1.9063859274660522e-001
3146:-1.9197126642555992e-001
3147:-1.9283879183410627e-001
3148:-1.7871952502788879e-001
3149:-1.7998117664729663e-001
3150:-1.8149410763851440e-001
3151:-1.8255162048748702e-001
3152:-2.1700844331114919e-001
3153:-2.1304832838785620e-001
3154:-2.0777788521186547e-001
3155:-2.0365896373669093e-001
3156:-2.0602949484198504e-001
3157:-2.0251692730957715e-001
3158:-1.9786601114174987e-001
3159:-1.9424921217662586e-001
3160:-1.9225082027948659e-001
3161:-1.8925213244594044e-001
3162:-1.8531813728857516e-001
3163:-1.8228642331217648e-001
3164:-1.8210850634322007e-001
3165:-1.7944999477936724e-001
3166:-1.7599543730143088e-001
3167:-1.7335847471388688e-001
3168:-2.0062026728587601e-001
3169:-1.9342951176870954e-001
3170:-1.8416847439798079e-001
3171:-1.7716303132097011e-001
3172:-1.9149269464766924e-001
3173:-1.8484983002259936e-001
3174:-1.7631786169651442e-001
3175:-1.6988211407679424e-001
3176:-1.7986459904327254e-001
3177:-1.7388100544660165e-001
3178:-1.6622776061918745e-001
3179:-1.6047973289629619e-001
3180:-1.7116752117377435e-001
3181:-1.6564662999888455e-001
3182:-1.5861130705205706e-001
3183:-1.5334778631613527e-001
3184:-1.7292020051267562e-001
3185:-1.6406428654006355e-001
3186:-1.5277785058452259e-001
3187:-1.4433284244320055e-001
3188:-1.6593914697976236e-001
3189:-1.5763484044891707e-001
3190:-1.4707262268192772e-001
3191:-1.3918615759479525e-001
3192:-1.5690094776413527e-001
3193:-1.4927036570149863e-001
3194:-1.3959307345489116e-001
3195:-1.3238938187331908e-001
3196:-1.5002739021382067e-001
3197:-1.4287794963002121e-001
3198:-1.3383293716863964e-001
3199:-1.2711732267832412e-001
3200:-1.3961234659718699e-001
3201:-1.3038783564669770e-001
3202:-1.1873088315809061e-001
3203:-1.1008650902511700e-001
3204:-1.3474816638392126e-001
3205:-1.2601938658818612e-001
3206:-1.1499958539514454e-001
3207:-1.0683616619176012e-001
3208:-1.2829864903093419e-001
3209:-1.2018257285502457e-001
3210:-1.0994960202646271e-001
3211:-1.0237960759545142e-001
3212:-1.2327639584431359e-001
3213:-1.1560379887618268e-001
3214:-1.0593980514426292e-001
3215:-9.8798513695861997e-002
3216:-1.0549566701992638e-001
3217:-9.6921336630521659e-002
3218:-8.6138142326057002e-002
3219:-7.8182967251035781e-002
3220:-1.0247710300269787e-001
3221:-9.4291609702646662e-002
3222:-8.4005924989150285e-002
3223:-7.6424542827561198e-002
3224:-9.8309397086233319e-002
3225:-9.0614446746120042e-002
3226:-8.0955978784703439e-002
3227:-7.3845511134701683e-002
3228:-9.4939305221433054e-002
3229:-8.7607468680334422e-002
3230:-7.8412948599484236e-002
3231:-7.1650550572584390e-002
3232:-7.4114856219366643e-002
3233:-6.6803021512256130e-002
3234:-5.7668471300397754e-002
3235:-5.0977998956465695e-002
3236:-7.2533683868353502e-002
3237:-6.5510861088360281e-002
3238:-5.6737825831058096e-002
3239:-5.0312506054161724e-002
3240:-7.0179339656736117e-002
3241:-6.3525694211428729e-002
3242:-5.5214024430452271e-002
3243:-4.9126752186264541e-002
3244:-6.8151549356034305e-002
3245:-6.1774802102502323e-002
3246:-5.3808842234364961e-002
3247:-4.7974608821867847e-002
3248:-4.7683648466158281e-002
3249:-4.1993779099822041e-002
3250:-3.4935912390305454e-002
3251:-2.9806812622984256e-002
3252:-4.7136949710521785e-002
3253:-4.1628219651266653e-002
3254:-3.4792210696749863e-002
3255:-2.9822056282802410e-002
3256:-4.6104806294172240e-002
3257:-4.0835125561927615e-002
3258:-3.4292118880693563e-002
3259:-2.9532056882038516e-002
3260:-4.5069337488052703e-002
3261:-3.9984954985268516e-002
3262:-3.3669232291337718e-002
3263:-2.9072274568442500e-002
3264:-2.7384483591705321e-002
3265:-2.3402243107598315e-002
3266:-1.8524055761029130e-002
3267:-1.5028546876547672e-002
3268:-2.7466182391140986e-002
3269:-2.3573876058639805e-002
3270:-1.8797298965917683e-002
3271:-1.5367613787727103e-002
3272:-2.7265948051180131e-002
3273:-2.3499750462863105e-002
3274:-1.8867188504370840e-002
3275:-1.5532154672284030e-002
3276:-2.6877311017768017e-002
3277:-2.3214490750970321e-002
3278:-1.8701078628925349e-002
3279:-1.5445311673041294e-002
3280:-1.3469794945233730e-002
3281:-1.1088199079135434e-002
3282:-8.2340359018183550e-003
3283:-6.2404990842473583e-003
3284:-1.3828436690662641e-002
3285:-1.1455106380680506e-002
3286:-8.5974825586528515e-003
3287:-6.5903753797383596e-003
3288:-1.4025146581855618e-002
3289:-1.1678710532561370e-002
3290:-8.8375906104840689e-003
3291:-6.8288879178640873e-003
3292:-1.3968040460256308e-002
3293:-1.1654564934654509e-002
3294:-8.8422044042701584e-003
3295:-6.8446263178915077e-003
3296:-5.4212923297025884e-003
3297:-4.3074426393420193e-003
3298:-3.0292071279292513e-003
3299:-2.1836558954951195e-003
3300:-5.7543419695677504e-003
3301:-4.5925760751164167e-003
3302:-3.2415290007876251e-003
3303:-2.3322814861053698e-003
3304:-5.9820775195934574e-003
3305:-4.7836319797976137e-003
3306:-3.3712970277978713e-003
3307:-2.4047812724966888e-003
3308:-5.9981225832308272e-003
3309:-4.7913671997492106e-003
3310:-3.3578959247050747e-003
3311:-2.3672902475585737e-003
3312:-1.8377288300746499e-003
3313:-1.3322961241227379e-003
3314:-7.2269849125373802e-004
3315:-2.9368198679001413e-004
3316:-1.9531218932447979e-003
3317:-1.3906999551379327e-003
3318:-7.0603620366346495e-004
3319:-2.1894044768603043e-004
3320:-2.0016122709669059e-003
3321:-1.4116173041873452e-003
3322:-6.9005068238018545e-004
3323:-1.7395972684553627e-004
3324:-1.9605498690907683e-003
3325:-1.3852775745435305e-003
3326:-6.8220884311106296e-004
3327:-1.7975054041883545e-004
3328:-4.2813554511462104e-003
3329:-1.9970898546303822e-002
3330:-4.0366879574189482e-002
3331:-5.5942235388754813e-002
3332:-3.9801053433292464e-003
3333:-1.8467535461715603e-002
3334:-3.7312332589996333e-002
3335:-5.1711999217980996e-002
3336:-3.5884617697391442e-003
3337:-1.6575967022429562e-002
3338:-3.3486271628270468e-002
3339:-4.6420489057675131e-002
3340:-3.2893633716122640e-003
3341:-1.5179754158479674e-002
3342:-3.0675868599658096e-002
3343:-4.2539395353435136e-002
3344:-6.3783295281868505e-002
3345:-7.7574157478751557e-002
3346:-9.5347410644315303e-002
3347:-1.0880108072848464e-001
3348:-5.8958401055180271e-002
3349:-7.1710458005845495e-002
3350:-8.8186571612748038e-002
3351:-1.0069066809938713e-001
3352:-5.2920659902316557e-002
3353:-6.4360076996819379e-002
3354:-7.9199511507327180e-002
3355:-9.0507390520540326e-002
3356:-4.8490330439134741e-002
3357:-5.8956413606362987e-002
3358:-7.2584130345956413e-002
3359:-8.3007907080573845e-002
3360:-1.1510584329138931e-001
3361:-1.2530270459921425e-001
3362:-1.3836011316763416e-001
3363:-1.4817888917367070e-001
3364:-1.0654294017448179e-001
3365:-1.1599615428824170e-001
3366:-1.2815333577228474e-001
3367:-1.3733580530647749e-001
3368:-9.5786223593328168e-002
3369:-1.0429003088827676e-001
3370:-1.1529986445700827e-001
3371:-1.2367297683896365e-001
3372:-8.7860208817512192e-002
3373:-9.5652322267820958e-002
3374:-1.0580361894989422e-001
3375:-1.1357237820942585e-001
3376:-1.5233557315233731e-001
3377:-1.5812002010027656e-001
3378:-1.6542804054181021e-001
3379:-1.7084602215184908e-001
3380:-1.4121589940713683e-001
3381:-1.4660644030726530e-001
3382:-1.5348913702111269e-001
3383:-1.5864904803060570e-001
3384:-1.2719588941404389e-001
3385:-1.3206550023716410e-001
3386:-1.3838414475875657e-001
3387:-1.4320035301657003e-001
3388:-1.1682435886032427e-001
3389:-1.2128934458069328e-001
3390:-1.2716868000128653e-001
3391:-1.3171609860360395e-001
3392:-1.7261371821250443e-001
3393:-1.7388992226867192e-001
3394:-1.7545846405722765e-001
3395:-1.7658666998691941e-001
3396:-1.6034185098544881e-001
3397:-1.6158713931256660e-001
3398:-1.6318517103983976e-001
3399:-1.6438949768045555e-001
3400:-1.4478451311020676e-001
3401:-1.4595544393570645e-001
3402:-1.4754756375146058e-001
3403:-1.4881718555366186e-001
3404:-1.3320861369595577e-001
3405:-1.3429647800230865e-001
3406:-1.3585004553931929e-001
3407:-1.3714363726233567e-001
3408:-1.7620249062788351e-001
3409:-1.7368956352682208e-001
3410:-1.7044993166663402e-001
3411:-1.6799684303768755e-001
3412:-1.6408570882194087e-001
3413:-1.6179344535055390e-001
3414:-1.5889985972880452e-001
3415:-1.5675656004551661e-001
3416:-1.4859970436230441e-001
3417:-1.4655963762289498e-001
3418:-1.4407095715183407e-001
3419:-1.4229613784876835e-001
3420:-1.3697806616855529e-001
3421:-1.3510392692834816e-001
3422:-1.3288987733105265e-001
3423:-1.3137011084316183e-001
3424:-1.6591735661121457e-001
3425:-1.6062613928590141e-001
3426:-1.5390408634241096e-001
3427:-1.4889110180282797e-001
3428:-1.5486997269561054e-001
3429:-1.4998395031797201e-001
3430:-1.4382741663755244e-001
3431:-1.3927611884463420e-001
3432:-1.4064066041468321e-001
3433:-1.3624181462267840e-001
3434:-1.3076899322544577e-001
3435:-1.2677857803995907e-001
3436:-1.2987600158473211e-001
3437:-1.2581875143481427e-001
3438:-1.2082846996757771e-001
3439:-1.1723614222315651e-001
3440:-1.4570658644442375e-001
3441:-1.3881335936075662e-001
3442:-1.3010862065202933e-001
3443:-1.2365839662189788e-001
3444:-1.3634617055080328e-001
3445:-1.2993868258715352e-001
3446:-1.2188564128644330e-001
3447:-1.1594866188476685e-001
3448:-1.2416082537750303e-001
3449:-1.1835373381100732e-001
3450:-1.1110745340351735e-001
3451:-1.0580675740630767e-001
3452:-1.1484238564255393e-001
3453:-1.0946989963750135e-001
3454:-1.0280860162362244e-001
3455:-9.7970016696279832e-002
3456:-1.1995523347667338e-001
3457:-1.1253109410521377e-001
3458:-1.0318970695147942e-001
3459:-9.6294479941948258e-002
3460:-1.1251536108716381e-001
3461:-1.0558480508977353e-001
3462:-9.6891186638259089e-002
3463:-9.0495337709373583e-002
3464:-1.0271049192259014e-001
3465:-9.6400762904889095e-002
3466:-8.8522082443513561e-002
3467:-8.2754620968161788e-002
3468:-9.5120528638390364e-002
3469:-8.9268878867483983e-002
3470:-8.1991644137120193e-002
3471:-7.6688056615136932e-002
3472:-9.2559188379268451e-002
3473:-8.5444821391286133e-002
3474:-7.6528853777156208e-002
3475:-6.9975977902110922e-002
3476:-8.7015655956289822e-002
3477:-8.0355560612611218e-002
3478:-7.2022647174719151e-002
3479:-6.5909260531764491e-002
3480:-7.9598569248222034e-002
3481:-7.3517293228189881e-002
3482:-6.5926995344670794e-002
3483:-6.0373141105558754e-002
3484:-7.3772485970191939e-002
3485:-6.8124207597562048e-002
3486:-6.1089207265303445e-002
3487:-5.5953568261386907e-002
3488:-6.6579527484278714e-002
3489:-6.0376758648137699e-002
3490:-5.2629348735532683e-002
3491:-4.6956151056578778e-002
3492:-6.2731281700690242e-002
3493:-5.6906218387732896e-002
3494:-4.9635485932902332e-002
3495:-4.4315279259137058e-002
3496:-5.7475455153953740e-002
3497:-5.2139237892936750e-002
3498:-4.5485277305769192e-002
3499:-4.0621671139707445e-002
3500:-5.3267070298109100e-002
3501:-4.8302497220354290e-002
3502:-4.2117305735058341e-002
3503:-3.7600629234253079e-002
3504:-4.4127670565757088e-002
3505:-3.9169917365370427e-002
3506:-3.3009706677526895e-002
3507:-2.8524503240788396e-002
3508:-4.1658723677582929e-002
3509:-3.6990763377952506e-002
3510:-3.1186711336563609e-002
3511:-2.6957668834858683e-002
3512:-3.8189004917738772e-002
3513:-3.3901503948096247e-002
3514:-2.8565219301514348e-002
3515:-2.4672755806580973e-002
3516:-3.5339237000121641e-002
3517:-3.1345147363665733e-002
3518:-2.6369742407388114e-002
3519:-2.2737058279923811e-002
3520:-2.6380580404586601e-002
3521:-2.2797225407328755e-002
3522:-1.8376991165938782e-002
3523:-1.5184590855075966e-002
3524:-2.4934024454925319e-002
3525:-2.1545178278540279e-002
3526:-1.7355038041894831e-002
3527:-1.4320838877266191e-002
3528:-2.2808787450081369e-002
3529:-1.9681667031149840e-002
3530:-1.5802102610068421e-002
3531:-1.2982257826748176e-002
3532:-2.0997578057418149e-002
3533:-1.8077146942735579e-002
3534:-1.4443568655677867e-002
3535:-1.1794105501967555e-002
3536:-1.3734355893257274e-002
3537:-1.1459246974529165e-002
3538:-8.6870741780170450e-003
3539:-6.7127330641798977e-003
3540:-1.2941794381197065e-002
3541:-1.0776036292346081e-002
3542:-8.1237386778756238e-003
3543:-6.2238028105750963e-003
3544:-1.1701444936032758e-002
3545:-9.6904838467043331e-003
3546:-7.2104092210098529e-003
3547:-5.4196761258650519e-003
3548:-1.0592680889762712e-002
3549:-8.7096565290549714e-003
3550:-6.3737064929949901e-003
3551:-4.6759645431363591e-003
3552:-5.8756525249557094e-003
3553:-4.6818375636037699e-003
3554:-3.2573082949000028e-003
3555:-2.2674693531035909e-003
3556:-5.4200836313303240e-003
3557:-4.2784527241479867e-003
3558:-2.9024984392825135e-003
3559:-1.9349357969028506e-003
3560:-4.6666314956760341e-003
3561:-3.6077852767464860e-003
3562:-2.3143859628251629e-003
3563:-1.3905867407649154e-003
3564:-3.9672373197432668e-003
3565:-2.9831072877178131e-003
3566:-1.7676810985326366e-003
3567:-8.8869030861657840e-004
3568:-1.8668851277055731e-003
3569:-1.3171492700083220e-003
3570:-6.4705272918966824e-004
3571:-1.6960089829285596e-004
3572:-1.5567746085700315e-003
3573:-1.0768863168134754e-003
3574:-4.9733491184589869e-004
3575:-8.8831708008576819e-005
3576:-1.0509344421836798e-003
3577:-6.8220547770281585e-004
3578:-2.4692082238241648e-004
3579:5.1595918393618793e-005
3580:-5.8564506048520396e-004
3581:-3.1746411561011853e-004
3582:-1.2780114777387721e-005
3583:1.8608754528506982e-004
3584:-3.1124317353774661e-003
3585:-1.4368174961400146e-002
3586:-2.9047703473144039e-002
3587:-4.0294137236521053e-002
3588:-2.7533158968115054e-003
3589:-1.2705276696056185e-002
3590:-2.5709474391713370e-002
3591:-3.5691584221415558e-002
3592:-2.2999687300466810e-003
3593:-1.0574086526743375e-002
3594:-2.1422752679405310e-002
3595:-2.9778501820923911e-002
3596:-1.9641509284596477e-003
3597:-8.9700938732433875e-003
3598:-1.8189887151265915e-002
3599:-2.5316919933996835e-002
3600:-4.5926469597967576e-002
3601:-5.5822837670916794e-002
3602:-6.8739837031409845e-002
3603:-7.8643873688704138e-002
3604:-4.0669843942722307e-002
3605:-4.9391975625624418e-002
3606:-6.0841067443450941e-002
3607:-6.9669192245039646e-002
3608:-3.3914983234458719e-002
3609:-4.1125384541298694e-002
3610:-5.0685779124604265e-002
3611:-5.8130459609387362e-002
3612:-2.8817116163685135e-002
3613:-3.4884429809247372e-002
3614:-4.3017557242357903e-002
3615:-4.9417474600209420e-002
3616:-8.3241999120837781e-002
3617:-9.0605027491949042e-002
3618:-1.0024119473242733e-001
3619:-1.0764939968609367e-001
3620:-7.3735586795599814e-002
3621:-8.0193099771087906e-002
3622:-8.8745581883840213e-002
3623:-9.5398126635716271e-002
3624:-6.1509726630945817e-002
3625:-6.6790367510655341e-002
3626:-7.3934909155475195e-002
3627:-7.9606100991038486e-002
3628:-5.2275178096811675e-002
3629:-5.6657312930169644e-002
3630:-6.2727314690625771e-002
3631:-6.7649855673675791e-002
3632:-1.1073650038567012e-001
3633:-1.1494611290811674e-001
3634:-1.2054377112594410e-001
3635:-1.2491478132874155e-001
3636:-9.8135388629896833e-002
3637:-1.0179064708199935e-001
3638:-1.0676974451144289e-001
3639:-1.1074691999717044e-001
3640:-8.1885919614765462e-002
3641:-8.4809569354704559e-002
3642:-8.8970747466878178e-002
3643:-9.2425747169906342e-002
3644:-6.9578300312212737e-002
3645:-7.1934824729258051e-002
3646:-7.5460779134944284e-002
3647:-7.8509172868353322e-002
3648:-1.2634022164985964e-001
3649:-1.2735047326966925e-001
3650:-1.2884885522708114e-001
3651:-1.3013546593336200e-001
3652:-1.1201415032195124e-001
3653:-1.1282379464816565e-001
3654:-1.1416354184146993e-001
3655:-1.1540758939238897e-001
3656:-9.3480084949979961e-002
3657:-9.4012032273561461e-002
3658:-9.5123981396766019e-002
3659:-9.6296535410098236e-002
3660:-7.9395378711047154e-002
3661:-7.9702252959970604e-002
3662:-8.0623646307075081e-002
3663:-8.1729171383966834e-002
3664:-1.2998922717981365e-001
3665:-1.2819103129839815e-001
3666:-1.2611361539210275e-001
3667:-1.2472735065772973e-001
3668:-1.1528541143834796e-001
3669:-1.1361151955255065e-001
3670:-1.1177906448687207e-001
3671:-1.1064399502353120e-001
3672:-9.6195282941406376e-002
3673:-9.4660250402504004e-002
3674:-9.3116971275358187e-002
3675:-9.2286318837707437e-002
3676:-8.1635934689224990e-002
3677:-8.0189454963960821e-002
3678:-7.8844491368795136e-002
3679:-7.8229283020182241e-002
3680:-1.2331935578030087e-001
3681:-1.1944677952882113e-001
3682:-1.1472309557944860e-001
3683:-1.1135475995929210e-001
3684:-1.0940161195044130e-001
3685:-1.0588953922705860e-001
3686:-1.0169562181368307e-001
3687:-9.8778859180450096e-002
3688:-9.1248448892971901e-002
3689:-8.8186655471125572e-002
3690:-8.4657740398785458e-002
3691:-8.2310077278833188e-002
3692:-7.7339298438733925e-002
3693:-7.4607232413426483e-002
3694:-7.1567929619915066e-002
3695:-6.9641063355314448e-002
3696:-1.0908882983298440e-001
3697:-1.0396693410172340e-001
3698:-9.7646007774127408e-002
3699:-9.3078586655296849e-002
3700:-9.6772981359936089e-002
3701:-9.2164124219541496e-002
3702:-8.6544996822833703e-002
3703:-8.2540321239374576e-002
3704:-8.0633799172774620e-002
3705:-7.6678002464669368e-002
3706:-7.1953244530366098e-002
3707:-6.8666483060618649e-002
3708:-6.8209974723144037e-002
3709:-6.4742212545856603e-002
3710:-6.0686630226682553e-002
3711:-5.7937610232245133e-002
3712:-9.0375579635764675e-002
3713:-8.4798229361715424e-002
3714:-7.7882138283188906e-002
3715:-7.2857846590377612e-002
3716:-8.0143689755764691e-002
3717:-7.5143323737316012e-002
3718:-6.8988488306180984e-002
3719:-6.4554137392054206e-002
3720:-6.6662622469354227e-002
3721:-6.2405236961758641e-002
3722:-5.7230811532960023e-002
3723:-5.3556345774065900e-002
3724:-5.6229450672327611e-002
3725:-5.2533992076584650e-002
3726:-4.8101176666494737e-002
3727:-4.5001594342530114e-002
3728:-7.0088494903342569e-002
3729:-6.4706121137508760e-002
3730:-5.8012860765060813e-002
3731:-5.3135168656416779e-002
3732:-6.2095739945924266e-002
3733:-5.7282732440081495e-002
3734:-5.1322496569143061e-002
3735:-4.6999087850224476e-002
3736:-5.1500140534298626e-002
3737:-4.7426623362177289e-002
3738:-4.2418378110565723e-002
3739:-3.8814780791714229e-002
3740:-4.3250953314997342e-002
3741:-3.9741630974990928e-002
3742:-3.5459662955673467e-002
3743:-3.2405177598672570e-002
3744:-5.0580533648115898e-002
3745:-4.5850618717945026e-002
3746:-3.9960994104535706e-002
3747:-3.5662732459004823e-002
3748:-4.4729942098661581e-002
3749:-4.0511369879449602e-002
3750:-3.5265258900315254e-002
3751:-3.1442093425839944e-002
3752:-3.6917630953840284e-002
3753:-3.3367760943899219e-002
3754:-2.8963268432613740e-002
3755:-2.5761513555004889e-002
3756:-3.0792769208840734e-002
3757:-2.7756606812557191e-002
3758:-2.3998713473141774e-002
3759:-2.1274419669268935e-002
3760:-3.3510373480939097e-002
3761:-2.9705602740985094e-002
3762:-2.4963124184392782e-002
3763:-2.1498172891829630e-002
3764:-2.9528653552482888e-002
3765:-2.6142390697120720e-002
3766:-2.1915038897489116e-002
3767:-1.8821214990128569e-002
3768:-2.4161725707366018e-002
3769:-2.1327196715415171e-002
3770:-1.7779375708293677e-002
3771:-1.5175467344097575e-002
3772:-1.9916508363033842e-002
3773:-1.7509221609562340e-002
3774:-1.4487923252060603e-002
3775:-1.2263876626954726e-002
3776:-1.9840366638884242e-002
3777:-1.7058123082683160e-002
3778:-1.3589329894930863e-002
3779:-1.1054277450259772e-002
3780:-1.7345813302777697e-002
3781:-1.4875482631337440e-002
3782:-1.1779121297038560e-002
3783:-9.5030549222832432e-003
3784:-1.3941678325505615e-002
3785:-1.1886215973887160e-002
3786:-9.2860933828431969e-003
3787:-7.3558406148516355e-003
3788:-1.1218049913261913e-002
3789:-9.4866242819766789e-003
3790:-7.2747517640786331e-003
3791:-5.6156089015650043e-003
3792:-9.9072256900173249e-003
3793:-8.1140289625431430e-003
3794:-5.8801883020923804e-003
3795:-4.2491416781972454e-003
3796:-8.4800654690306339e-003
3797:-6.8937787502187471e-003
3798:-4.8960599761870664e-003
3799:-3.4200534209188733e-003
3800:-6.4986158103175753e-003
3801:-5.1890088896988928e-003
3802:-3.5081309856643482e-003
3803:-2.2411284420294601e-003
3804:-4.8884216039961131e-003
3805:-3.7960257753050590e-003
3806:-2.3647097946801949e-003
3807:-1.2630484029381016e-003
3808:-3.5725491741829727e-003
3809:-2.6434646334048710e-003
3810:-1.4874718303027031e-003
3811:-6.4454069407345884e-004
3812:-2.8180705818946611e-003
3813:-2.0168474165576677e-003
3814:-1.0007054628112420e-003
3815:-2.4428962963291440e-004
3816:-1.7396618185820136e-003
3817:-1.1104444272547022e-003
3818:-2.8353034315683058e-004
3819:3.5482479420514680e-004
3820:-8.4105292649586680e-004
3821:-3.4764096395477340e-004
3822:3.2905749966395122e-004
3823:8.7295328064746121e-004
3824:-3.6710629474728817e-004
3825:-1.6267630651184507e-004
3826:6.2447302193200050e-005
3827:2.0310818547348704e-004
3828:-2.0606413784488013e-005
3829:6.2720690395254484e-005
3830:1.4282628088262077e-004
3831:1.8229264200019202e-004
3832:5.1279917918604998e-004
3833:4.5989693279995837e-004
3834:3.7920622865661983e-004
3835:3.0841809187760733e-004
3836:9.8395410576968727e-004
3837:8.4332944260304555e-004
3838:6.6117290822481232e-004
3839:5.2257071656839683e-004
3840:-1.7566753353752613e-003
3841:-7.9763729874416500e-003
3842:-1.6186376044680290e-002
3843:-2.2551751661795738e-002
3844:-1.2880198571708389e-003
3845:-5.8138693557415657e-003
3846:-1.1848331740748440e-002
3847:-1.6572679924925619e-002
3848:-6.3045374582729121e-004
3849:-2.9428330125717112e-003
3850:-6.1342931339659389e-003
3851:-8.7140873759628361e-003
3852:-9.1129369068200007e-005
3853:-7.0433916773574338e-004
3854:-1.7133157873606283e-003
3855:-2.6467612818039071e-003
3856:-2.5656402702496337e-002
3857:-3.1012507424917062e-002
3858:-3.8261323306073486e-002
3859:-4.4016892762467619e-002
3860:-1.8821300602421025e-002
3861:-2.2633167641395339e-002
3862:-2.7966737916243392e-002
3863:-3.2330674494801682e-002
3864:-9.8388284576429921e-003
3865:-1.1613100638976595e-002
3866:-1.4418067933562225e-002
3867:-1.6943516309461389e-002
3868:-2.9047432270342044e-003
3869:-3.0998339654761411e-003
3870:-3.9439638060649604e-003
3871:-5.0428355446794576e-003
3872:-4.6551611601169919e-002
3873:-5.0374333106568220e-002
3874:-5.5778018403351136e-002
3875:-6.0238579487425996e-002
3876:-3.4168050242921862e-002
3877:-3.6782643188898512e-002
3878:-4.0750845525938460e-002
3879:-4.4219090407228892e-002
3880:-1.7861670469912841e-002
3881:-1.8887572332575660e-002
3882:-2.0966664741488041e-002
3883:-2.3127793397231471e-002
3884:-5.2492625492190160e-003
3885:-5.0479962307072041e-003
3886:-5.6667642904993012e-003
3887:-6.8165371217087725e-003
3888:-6.1948541873504723e-002
3889:-6.3949993809698888e-002
3890:-6.7083151897601057e-002
3891:-6.9884502570032758e-002
3892:-4.5458330621422155e-002
3893:-4.6693474968094777e-002
3894:-4.8986588450813308e-002
3895:-5.1266546472957628e-002
3896:-2.3746807735822887e-002
3897:-2.3971793827544895e-002
3898:-2.5155391770364997e-002
3899:-2.6744737138440215e-002
3900:-6.9555324407966253e-003
3901:-6.3983595059758135e-003
3902:-6.7212311449583954e-003
3903:-7.7733324257175549e-003
3904:-7.0668389122256120e-002
3905:-7.0836957131334657e-002
3906:-7.1645179777488521e-002
3907:-7.2715532283876214e-002
3908:-5.1835544372765448e-002
3909:-5.1714660004468366e-002
3910:-5.2294629359197847e-002
3911:-5.3304545896204869e-002
3912:-2.7029228080521953e-002
3913:-2.6525502849109338e-002
3914:-2.6800898671164905e-002
3915:-2.7726776802461117e-002
3916:-7.8365927053354097e-003
3917:-7.0354649769113218e-003
3918:-7.0722348215590631e-003
3919:-7.9297268638518596e-003
3920:-7.2629725649914420e-002
3921:-7.1241036969447891e-002
3922:-7.0026250215443675e-002
3923:-6.9552798261000456e-002
3924:-5.3242589047826930e-002
3925:-5.1992638566880557e-002
3926:-5.1081660594922196e-002
3927:-5.0935177427324438e-002
3928:-2.7694921383812569e-002
3929:-2.6627359255092926e-002
3930:-2.6114559256847390e-002
3931:-2.6396052792742233e-002
3932:-7.9201639930613164e-003
3933:-6.9934458720503816e-003
3934:-6.7872021474716868e-003
3935:-7.3977702784075988e-003
3936:-6.8759013518981227e-002
3937:-6.6239130913723659e-002
3938:-6.3514590506332874e-002
3939:-6.1858038533816634e-002
3940:-5.0360160653894669e-002
3941:-4.8317548250922708e-002
3942:-4.6298624333512693e-002
3943:-4.5246438202495937e-002
3944:-2.6108236178456260e-002
3945:-2.4693593615979066e-002
3946:-2.3602172186337863e-002
3947:-2.3343780212306351e-002
3948:-7.3314334056031058e-003
3949:-6.4021325178747453e-003
3950:-6.0268585957367607e-003
3951:-6.3809039356796608e-003
3952:-6.0584059265258824e-002
3953:-5.7428124707970152e-002
3954:-5.3799530203739052e-002
3955:-5.1393210108799534e-002
3956:-4.4322631407921510e-002
3957:-4.1859784810748528e-002
3958:-3.9178634543312982e-002
3959:-3.7531559094632426e-002
3960:-2.2880761485732218e-002
3961:-2.1331612763533247e-002
3962:-1.9898892202120329e-002
3963:-1.9251830628914481e-002
3964:-6.2740524961292813e-003
3965:-5.4324187882677597e-003
3966:-4.9659657405037453e-003
3967:-5.0925758677757109e-003
3968:-4.9873685322433116e-002
3969:-4.6536723004239007e-002
3970:-4.2575758237768643e-002
3971:-3.9840977164975006e-002
3972:-3.6429514675833677e-002
3973:-3.3884875885306455e-002
3974:-3.0964656252108855e-002
3975:-2.9032904742928675e-002
3976:-1.8699948377422445e-002
3977:-1.7200176056440513e-002
3978:-1.5652327799263992e-002
3979:-1.4779411146763378e-002
3980:-4.9665541265517055e-003
3981:-4.2761289452671802e-003
3982:-3.7912368810363401e-003
3983:-3.7383734041630421e-003
3984:-3.8284579778680709e-002
3985:-3.5134267046673766e-002
3986:-3.1312507629876758e-002
3987:-2.8604464166128617e-002
3988:-2.7903962883012497e-002
3989:-2.5543104120079797e-002
3990:-2.2730431503870684e-002
3991:-2.0779758259990743e-002
3992:-1.4214216539265304e-002
3993:-1.2894926674106914e-002
3994:-1.1413902579066567e-002
3995:-1.0462937899935246e-002
3996:-3.6098886582429626e-003
3997:-3.0977606598137290e-003
3998:-2.6489272267157401e-003
3999:-2.4730406651280266e-003
4000:-2.7171968768800455e-002
4001:-2.4461043210193521e-002
4002:-2.1110902192806511e-002
4003:-1.8686413078361150e-002
4004:-1.9740452448497460e-002
4005:-1.7740346423889459e-002
4006:-1.5279006475950785e-002
4007:-1.3506136611357569e-002
4008:-9.9425998278008555e-003
4009:-8.8807499942114600e-003
4010:-7.5931841488621884e-003
4011:-6.6813306367356287e-003
4012:-2.3550360999740408e-003
4013:-2.0206150286220673e-003
4014:-1.6435206572988461e-003
4015:-1.3998956232743119e-003
4016:-1.7480741922885523e-002
4017:-1.5343148749902434e-002
4018:-1.2652720703857791e-002
4019:-1.0666169969830322e-002
4020:-1.2631398196655215e-002
4021:-1.1080258811365184e-002
4022:-9.1070684932614450e-003
4023:-7.6335141538063332e-003
4024:-6.2437443117972537e-003
4025:-5.4671090671480245e-003
4026:-4.4419072439247980e-003
4027:-3.6470156607600005e-003
4028:-1.3014848438945054e-003
4029:-1.1256293958920522e-003
4030:-8.3635674166255972e-004
4031:-5.6878756204505358e-004
4032:-9.7381159572097909e-003
4033:-8.2106982598188771e-003
4034:-6.2428145921285564e-003
4035:-4.7536731030717577e-003
4036:-6.9598465346978090e-003
4037:-5.8738029491581575e-003
4038:-4.4330580707971669e-003
4039:-3.3105909249710147e-003
4040:-3.3097028923008546e-003
4041:-2.8068905703084739e-003
4042:-2.0635190514247952e-003
4043:-1.4268208317002146e-003
4044:-4.9268509476777000e-004
4045:-4.4253099359819001e-004
4046:-2.4102087503646797e-004
4047:1.7718892509283749e-005
4048:-4.1082672340649632e-003
4049:-3.1529254618978698e-003
4050:-1.8785504574565497e-003
4051:-8.8040905897968937e-004
4052:-2.8418913135068325e-003
4053:-2.1832504201211222e-003
4054:-1.2477233924704382e-003
4055:-4.7229951070479131e-004
4056:-1.1921397554031004e-003
4057:-9.2625805156515558e-004
4058:-4.4020128606513104e-004
4059:3.8991033104135691e-005
4060:7.0380365831015628e-005
4061:3.0904320338344258e-005
4062:1.6681831048708288e-004
4063:4.1463624237659939e-004
4064:-5.0770407418357149e-004
4065:-9.6254796095084701e-005
4066:4.9420501030429675e-004
4067:9.8786866266014771e-004
4068:-2.0384554114200653e-004
4069:4.0099087724801520e-005
4070:4.6272573058099689e-004
4071:8.6662340199885159e-004
4072:1.7125866373136748e-004
4073:2.0167385912353238e-004
4074:4.1187134165062957e-004
4075:7.0366683244065551e-004
4076:4.4239551970876305e-004
4077:3.1299714695098466e-004
4078:3.6539617893041555e-004
4079:5.7511676984070949e-004
4080:1.0774661930278715e-003
4081:9.0247160671890522e-004
4082:6.8602007641469290e-004
4083:5.2921717748950965e-004
4084:9.2456125350255983e-004
4085:7.1035797834880161e-004
4086:4.6934984854006962e-004
4087:3.1411294797557496e-004
4088:7.2873960786161115e-004
4089:4.9004526650433600e-004
4090:2.5178843241682150e-004
4091:1.2526004571861897e-004
4092:5.8147051079707006e-004
4093:3.4444262346670814e-004
4094:1.3495983658198579e-004
4095:5.0872591132474273e-005
4096:-2.2811448923863811e-001
4097:-1.7550744046326985e-001
4098:-1.0761308082111498e-001
4099:-5.6045720650059867e-002
4100:-8.2478142616656214e-001
4101:-5.9706896068942350e-001
4102:-3.3692454589397264e-001
4103:-1.6091581187001502e-001
4104:-1.6052718865633298e+000
4105:-1.1490187644117793e+000
4106:-6.3810153916464907e-001
4107:-2.9987880089531688e-001
4108:-2.2011287798524477e+000
4109:-1.5706091211047599e+000
4110:-8.6866415986779866e-001
4111:-4.0701774510890404e-001
4112:-3.2118038330722923e-002
4113:2.3196349197407887e-002
4114:1.3066227992135870e-001
4115:2.3615376823507583e-001
4116:-9.4004845253601255e-002
4117:4.5492224318396833e-003
4118:1.5893229410534296e-001
4119:2.9416025673314744e-001
4120:-1.7702336003350219e-001
4121:-2.2351127564708844e-002
4122:1.9289945976632270e-001
4123:3.6668732348273725e-001
4124:-2.4168026230240530e-001
4125:-4.4547018803296839e-002
4126:2.1670174717031171e-001
4127:4.1958528819591667e-001
4128:2.9883215028911736e-001
4129:4.4551590111297834e-001
4130:6.9719556349826606e-001
4131:9.3056796326649527e-001
4132:3.6429717261936523e-001
4133:5.0865064825902684e-001
4134:7.4955084957116414e-001
4135:9.6946675633962398e-001
4136:4.4749001760965484e-001
4137:5.9233953276412321e-001
4138:8.2337272823464347e-001
4139:1.0286688049733224e+000
4140:5.0914546848219477e-001
4141:6.5685835983721230e-001
4142:8.8326661903370696e-001
4143:1.0794060020399994e+000
4144:1.0663618006366291e+000
4145:1.3124458874932647e+000
4146:1.6117040188580773e+000
4147:1.8261666095809810e+000
4148:1.0968184909047582e+000
4149:1.3263829339475208e+000
4150:1.6021932324550219e+000
4151:1.7973900520971926e+000
4152:1.1451728014923535e+000
4153:1.3510859332189182e+000
4154:1.5937269791741422e+000
4155:1.7619224488469152e+000
4156:1.1876294674284409e+000
4157:1.3736550190623713e+000
4158:1.5887099632025046e+000
4159:1.7346427649263707e+000
4160:1.9327427174336533e+000
4161:2.0808609512816756e+000
4162:2.1757377229324817e+000
4163:2.1803261392568625e+000
4164:1.8910445363960569e+000
4165:2.0151245586982274e+000
4166:2.0885830680824173e+000
4167:2.0836427675897662e+000
4168:1.8380307282979913e+000
4169:1.9300017291201859e+000
4170:1.9745929796607689e+000
4171:1.9565485284818267e+000
4172:1.7968600917308306e+000
4173:1.8640846360029319e+000
4174:1.8863791171017372e+000
4175:1.8581641680496201e+000
4176:2.1601912383548862e+000
4177:2.0781768070123765e+000
4178:1.8904885340100210e+000
4179:1.6901589299301771e+000
4180:2.0602165468825619e+000
4181:1.9761607951539546e+000
4182:1.7952786521382331e+000
4183:1.6067940809102272e+000
4184:1.9283666019916674e+000
4185:1.8406095543531973e+000
4186:1.6673415119229476e+000
4187:1.4934028370736403e+000
4188:1.8262163599300656e+000
4189:1.7353103873739399e+000
4190:1.5675087480088901e+000
4191:1.4044620453541004e+000
4192:1.5684754808490859e+000
4193:1.3741990174926582e+000
4194:1.1944167750883663e+000
4195:1.1086560735065569e+000
4196:1.4939322107338906e+000
4197:1.3150098726873625e+000
4198:1.1496753383948188e+000
4199:1.0710445771114774e+000
4200:1.3915684560211783e+000
4201:1.2317880494554214e+000
4202:1.0842346062425445e+000
4203:1.0141528396277850e+000
4204:1.3107362339496289e+000
4205:1.1646227864886802e+000
4206:1.0294793656286547e+000
4207:9.6508126876345834e-001
4208:1.0804133993417986e+000
4209:1.0781360112258072e+000
4210:1.1754457408803412e+000
4211:1.3213410438950537e+000
4212:1.0425840471627830e+000
4213:1.0286290839814947e+000
4214:1.0978005330425722e+000
4215:1.2129541530453538e+000
4216:9.8699240249309883e-001
4217:9.6425180317942649e-001
4218:1.0046447580481888e+000
4219:1.0854275305683774e+000
4220:9.3987033202703762e-001
4221:9.1465772949861435e-001
4222:9.3821772284367599e-001
4223:9.9642213114193035e-001
4224:1.4218338918744970e+000
4225:1.6120000872199607e+000
4226:1.8509175700814275e+000
4227:2.0274562151752424e+000
4228:1.2977670450952687e+000
4229:1.4645396765483714e+000
4230:1.6728256062389144e+000
4231:1.8258084466246025e+000
4232:1.1500729497965627e+000
4233:1.2819636523528846e+000
4234:1.4448443581029184e+000
4235:1.5631022750109087e+000
4236:1.0456350066210920e+000
4237:1.1473296759609732e+000
4238:1.2710904391040669e+000
4239:1.3595634599844650e+000
4240:2.1154890481873529e+000
4241:2.2282507378914964e+000
4242:2.2748573207928091e+000
4243:2.2383009727362029e+000
4244:1.8968774372936359e+000
4245:1.9746331135610200e+000
4246:1.9869980100375659e+000
4247:1.9324171557380132e+000
4248:1.6122587813525711e+000
4249:1.6489493038207390e+000
4250:1.6223831172634284e+000
4251:1.5484961691373036e+000
4252:1.3923198076785148e+000
4253:1.4020037738640705e+000
4254:1.3511794020175170e+000
4255:1.2665936392725636e+000
4256:2.1951453437728823e+000
4257:2.0707301214361444e+000
4258:1.8249608925645904e+000
4259:1.5763262883623075e+000
4260:1.8845000129065517e+000
4261:1.7614101672519078e+000
4262:1.5297683098103063e+000
4263:1.3009160395899966e+000
4264:1.4954568866571041e+000
4265:1.3740998207272082e+000
4266:1.1609444893200473e+000
4267:9.5798007471306135e-001
4268:1.2109645615884284e+000
4269:1.0919440023754752e+000
4270:8.9427091900427336e-001
4271:7.1215301678661580e-001
4272:1.4274885162342221e+000
4273:1.1673113359799216e+000
4274:8.6908051234906758e-001
4275:6.7039303396796723e-001
4276:1.1697868273799295e+000
4277:9.4996169614299308e-001
4278:7.0068543884930723e-001
4279:5.3684115344641326e-001
4280:8.4951981124165388e-001
4281:6.8065632946178689e-001
4282:4.9315446721130862e-001
4283:3.7323759944870849e-001
4284:6.2089179275885942e-001
4285:4.8946613851990978e-001
4286:3.4728864552134819e-001
4287:2.5955735288557236e-001
4288:5.7530273194000847e-001
4289:4.2221749972577272e-001
4290:2.6997333668821583e-001
4291:1.8783293275543880e-001
4292:4.6058112546139973e-001
4293:3.4149826718358484e-001
4294:2.2624687684625561e-001
4295:1.6709748018721429e-001
4296:3.2056508573768205e-001
4297:2.4369171047270063e-001
4298:1.7396930319463916e-001
4299:1.4277358334782678e-001
4300:2.2393936157752758e-001
4301:1.7705737094439919e-001
4302:1.3923457958717991e-001
4303:1.2722812114892193e-001
4304:1.5513235570126996e-001
4305:1.0615222333712733e-001
4306:6.4724916174892594e-002
4307:4.9373925476077399e-002
4308:1.4395931514602295e-001
4309:1.0893960808724477e-001
4310:8.1691224795859982e-002
4311:7.4263157453202860e-002
4312:1.3076646463723485e-001
4313:1.1097551388091202e-001
4314:9.8441498863622814e-002
4315:9.8530007578128298e-002
4316:1.2242233432434775e-001
4317:1.1155960076047682e-001
4318:1.0682382361577611e-001
4319:1.1007973407865325e-001
4320:4.5018640149056495e-002
4321:3.5453960989744876e-002
4322:2.3218750939625030e-002
4323:1.4019628886748979e-002
4324:6.9000075777884945e-002
4325:5.0275739453147006e-002
4326:2.7491719916434038e-002
4327:1.1233156569652264e-002
4328:9.2107713792124110e-002
4329:6.4260611546592586e-002
4330:3.1301001691341888e-002
4331:8.5068774676299135e-003
4332:1.0272919165294671e-001
4333:7.0258439326641081e-002
4334:3.2504871812658771e-002
4335:6.9425791792152728e-003
4336:9.7145182456365095e-003
4337:4.0367339481681549e-003
4338:-2.1808223090409004e-004
4339:-1.1669022180278892e-003
4340:4.9608427279308233e-003
4341:-1.1701657088785584e-003
4342:-5.0668548221573457e-003
4343:-5.0449214720724306e-003
4344:3.6554272625825010e-004
4345:-6.3653684910634674e-003
4346:-9.7861375217218466e-003
4347:-8.4764461787788983e-003
4348:-2.0189263811269389e-003
4349:-9.1141024119403193e-003
4350:-1.2033016440203196e-002
4351:-9.6221272496736111e-003
4352:-2.5169626088930634e+000
4353:-1.7961451881774404e+000
4354:-9.9462319837135549e-001
4355:-4.6819225617702720e-001
4356:-3.1005073011202988e+000
4357:-2.2169516377166416e+000
4358:-1.2348918217940019e+000
4359:-5.9019808584686673e-001
4360:-3.8363473884216046e+000
4361:-2.7481472261429909e+000
4362:-1.5395778809833920e+000
4363:-7.4689264046141002e-001
4364:-4.3764733479499069e+000
4365:-3.1383415750381927e+000
4366:-1.7643068007004239e+000
4367:-8.6387562692923359e-001
4368:-2.8047154214356318e-001
4369:-6.1183614820170241e-002
4370:2.2362179628639964e-001
4371:4.4105581502638724e-001
4372:-3.6131205030427710e-001
4373:-1.0132912406283501e-001
4374:2.2588227143028136e-001
4375:4.6881486947792833e-001
4376:-4.6629482005656697e-001
4377:-1.5464311702233710e-001
4378:2.2615418483837063e-001
4379:5.0109843825877243e-001
4380:-5.4550036911334543e-001
4381:-1.9573763964164625e-001
4382:2.2431744436947507e-001
4383:5.2249355025602062e-001
4384:5.3498922335635002e-001
4385:6.8417029055668133e-001
4386:9.0799867211008567e-001
4387:1.0991433095557368e+000
4388:5.7016574141455356e-001
4389:7.2116261895616540e-001
4390:9.3894056785964808e-001
4391:1.1197965326804322e+000
4392:6.1200077191286906e-001
4393:7.6604944614485282e-001
4394:9.7669128350509449e-001
4395:1.1446153231717962e+000
4396:6.4043827166183787e-001
4397:7.9700800514129377e-001
4398:1.0023434619598053e+000
4399:1.1604309044375061e+000
4400:1.2025919212773826e+000
4401:1.3773978126530555e+000
4402:1.5782611410082514e+000
4403:1.7136221514511674e+000
4404:1.2136631275073293e+000
4405:1.3671056951587670e+000
4406:1.5433486701370613e+000
4407:1.6620618723742557e+000
4408:1.2260142268733618e+000
4409:1.3512748537349020e+000
4410:1.4950154175114234e+000
4411:1.5917326438168822e+000
4412:1.2322530067158914e+000
4413:1.3357878056460646e+000
4414:1.4544594538290234e+000
4415:1.5342017462719135e+000
4416:1.7695267814213673e+000
4417:1.8254850290623073e+000
4418:1.8374776428858155e+000
4419:1.8044123102628211e+000
4420:1.7082808983954778e+000
4421:1.7463978902914348e+000
4422:1.7416413288894463e+000
4423:1.7002600199965534e+000
4424:1.6252087783938252e+000
4425:1.6399124145618524e+000
4426:1.6131142412227222e+000
4427:1.5607301510237275e+000
4428:1.5579406276203176e+000
4429:1.5549090123643494e+000
4430:1.5114585914376832e+000
4431:1.4508041586273930e+000
4432:1.7705637614331455e+000
4433:1.6781940635684556e+000
4434:1.5137162179054933e+000
4435:1.3568804301235358e+000
4436:1.6629184529879586e+000
4437:1.5680217012268447e+000
4438:1.4103365577738696e+000
4439:1.2657697247039699e+000
4440:1.5188489103204312e+000
4441:1.4208960035740850e+000
4442:1.2724263619947558e+000
4443:1.1441645743789388e+000
4444:1.4056885947814481e+000
4445:1.3061594122154434e+000
4446:1.1657471817397815e+000
4447:1.0507406277912694e+000
4448:1.2675986203512073e+000
4449:1.1286118745458016e+000
4450:9.9951227462867109e-001
4451:9.3744853663920735e-001
4452:1.1853859488879357e+000
4453:1.0608029299131840e+000
4454:9.4359635262090602e-001
4455:8.8577627241418821e-001
4456:1.0757851398357343e+000
4457:9.7112491387112254e-001
4458:8.7081899323172696e-001
4459:8.1953211359947153e-001
4460:9.9189761004519650e-001
4461:9.0298971934882433e-001
4462:8.1622005340292714e-001
4463:7.7035414948686143e-001
4464:9.1324101127125745e-001
4465:8.8738999666266416e-001
4466:9.0283073206380260e-001
4467:9.4963067074014140e-001
4468:8.6309139042048033e-001
4469:8.3514881874151359e-001
4470:8.3426150055106463e-001
4471:8.5887612774475586e-001
4472:7.9875766097198708e-001
4473:7.6682499717159791e-001
4474:7.4296206861309388e-001
4475:7.3733063017136857e-001
4476:7.5063658312906856e-001
4477:7.1373247606096879e-001
4478:6.6979083693064245e-001
4479:6.3910423393541060e-001
4480:9.9036842379125423e-001
4481:1.0746628419450612e+000
4482:1.1764275446165655e+000
4483:1.2485471066358798e+000
4484:8.8304298852388607e-001
4485:9.3337793585199225e-001
4486:9.9314759160818389e-001
4487:1.0347345826591634e+000
4488:7.3903865655951839e-001
4489:7.4327856428467720e-001
4490:7.4603464485521831e-001
4491:7.4616120556764820e-001
4492:6.2276044100873484e-001
4493:5.9042276614619393e-001
4494:5.4793083885245719e-001
4495:5.1514817538493796e-001
4496:1.2732154100683999e+000
4497:1.2713528163526731e+000
4498:1.2116001511191505e+000
4499:1.1245840588154588e+000
4500:1.0455278205300425e+000
4501:1.0266251187155089e+000
4502:9.5674876046806456e-001
4503:8.7068051051362472e-001
4504:7.4010255250689738e-001
4505:7.0511926944174619e-001
4506:6.2977520519479868e-001
4507:5.5067112890911984e-001
4508:4.9744682473971263e-001
4509:4.5590218655843262e-001
4510:3.8362031138292096e-001
4511:3.1522092267989876e-001
4512:1.0691202022109594e+000
4513:9.5341350526722857e-001
4514:7.6589256456735899e-001
4515:5.9576531782053388e-001
4516:8.1853541210252423e-001
4517:7.1391990154090978e-001
4518:5.5024932176087527e-001
4519:4.0517636413475128e-001
4520:5.0588244330722376e-001
4521:4.2137515783931251e-001
4522:2.9594980689200356e-001
4523:1.8886365426261142e-001
4524:2.7889170228417182e-001
4525:2.1502400003712530e-001
4526:1.2552030865583869e-001
4527:5.2461176589949018e-002
4528:5.1357729274650921e-001
4529:4.0090822446841440e-001
4530:2.8071496775740695e-001
4531:2.0802969114276576e-001
4532:3.3993982882103763e-001
4533:2.5972468674478927e-001
4534:1.7606876113158337e-001
4535:1.2717799952354966e-001
4536:1.4598504667662834e-001
4537:1.0388655596502756e-001
4538:6.2570024602356417e-002
4539:4.0770724868765984e-002
4540:2.6969827239933842e-002
4541:1.0268479470746711e-002
4542:-3.4135284244762739e-003
4543:-8.0212082540716979e-003
4544:1.8012804058928492e-001
4545:1.4667858398657910e-001
4546:1.2312141756731179e-001
4547:1.1967722127575299e-001
4548:1.1086749418336843e-001
4549:9.7162334834002786e-002
4550:9.4400208506091099e-002
4551:1.0328191289809442e-001
4552:3.6917818414425554e-002
4553:4.2962896733925192e-002
4554:5.9740129932292364e-002
4555:7.9066221227997807e-002
4556:-4.6669066294142787e-003
4557:1.1333954455709771e-002
4558:3.6539841143153395e-002
4559:5.9008190315759664e-002
4560:1.1795828133598288e-001
4561:1.1064220192809407e-001
4562:1.0887115557138757e-001
4563:1.1318623493317116e-001
4564:1.0623021386266443e-001
4565:1.0493566821788405e-001
4566:1.0856420788216622e-001
4567:1.1522518721706715e-001
4568:8.6518101983051571e-002
4569:9.2667822454005344e-002
4570:1.0279905777917955e-001
4571:1.1210187949217447e-001
4572:6.8483597346732927e-002
4573:7.9761893866997793e-002
4574:9.4129326282424805e-002
4575:1.0488759098986064e-001
4576:1.0556806559323216e-001
4577:7.1896165810880472e-002
4578:3.3080450052719458e-002
4579:7.0735357148790081e-003
4580:1.0765516417119485e-001
4581:7.3071446092241629e-002
4582:3.3764283282167261e-002
4583:7.8915069354960204e-003
4584:1.0473602541533354e-001
4585:6.9904080712490393e-002
4586:3.1161845231655327e-002
4587:6.3722819638829887e-003
4588:9.7745463119394846e-002
4589:6.3534351212761769e-002
4590:2.6263467799180287e-002
4591:3.0854424499206817e-003
4592:-2.0061031575504453e-003
4593:-9.2127223635594772e-003
4594:-1.2086336035155501e-002
4595:-9.5008782355255061e-003
4596:-9.9065334876177746e-004
4597:-7.9825549776407871e-003
4598:-1.0854655512376439e-002
4599:-8.4723686565104459e-003
4600:-1.7811931875132035e-003
4601:-7.6366286288163023e-003
4602:-9.4167057646345077e-003
4603:-6.4839879021930859e-003
4604:-4.1311067820424324e-003
4605:-8.4777485090410595e-003
4606:-8.6091257407393020e-003
4607:-4.6473254012512153e-003
4608:-4.6563121942472847e+000
4609:-3.3438283973187404e+000
4610:-1.8871658758281391e+000
4611:-9.3250200551643359e-001
4612:-5.1609352080529316e+000
4613:-3.7208964305179317e+000
4614:-2.1213716427547609e+000
4615:-1.0721159168383443e+000
4616:-5.7666321965181639e+000
4617:-4.1748916059287531e+000
4618:-2.4061618844862331e+000
4619:-1.2453895669520498e+000
4620:-6.1864760425223810e+000
4621:-4.4906595033602636e+000
4622:-2.6064904999417067e+000
4623:-1.3701136292258385e+000
4624:-5.9499105565627874e-001
4625:-2.2586648317934052e-001
4626:2.1410962758544866e-001
4627:5.2405511134580263e-001
4628:-7.0095973887684726e-001
4629:-2.9761823995927167e-001
4630:1.7746544981454102e-001
4631:5.0807150317666427e-001
4632:-8.3433767777967227e-001
4633:-3.8991135387448717e-001
4634:1.2668743492915158e-001
4635:4.8119235873156868e-001
4636:-9.3185150254422877e-001
4637:-4.5906035773094772e-001
4638:8.5591860408490192e-002
4639:4.5573150447357547e-001
4640:6.4562853253580199e-001
4641:8.0399295863647968e-001
4642:1.0079055957790368e+000
4643:1.1623758051119655e+000
4644:6.3605042825986990e-001
4645:7.9827786686283075e-001
4646:1.0017501098079007e+000
4647:1.1522041550829101e+000
4648:6.1640870749335941e-001
4649:7.8245308072206798e-001
4650:9.8383038688907298e-001
4651:1.1279299468816397e+000
4652:5.9547643206130840e-001
4653:7.6324398529671122e-001
4654:9.6152633699978984e-001
4655:1.0996673253893503e+000
4656:1.2301003117668725e+000
4657:1.3233004611488957e+000
4658:1.4288584796404171e+000
4659:1.4988027934475687e+000
4660:1.2140238343720562e+000
4661:1.2900312899988944e+000
4662:1.3712594117607633e+000
4663:1.4212592194377889e+000
4664:1.1816298258649032e+000
4665:1.2347252730285314e+000
4666:1.2835619274456265e+000
4667:1.3070288915909529e+000
4668:1.1467320930728719e+000
4669:1.1817789082594854e+000
4670:1.2051433593230276e+000
4671:1.2077728454299115e+000
4672:1.5167522661889135e+000
4673:1.5036048358758405e+000
4674:1.4512090243626037e+000
4675:1.3866437481013418e+000
4676:1.4272793958536814e+000
4677:1.3942755172811210e+000
4678:1.3254299546333774e+000
4679:1.2548064349669907e+000
4680:1.2978977852456339e+000
4681:1.2409901161051031e+000
4682:1.1531532326725833e+000
4683:1.0764204197993479e+000
4684:1.1874592108788753e+000
4685:1.1142826219606072e+000
4686:1.0144207039331270e+000
4687:9.3484366557998766e-001
4688:1.3402966348686891e+000
4689:1.2405427134068789e+000
4690:1.1042225064575280e+000
4691:9.9542187738255206e-001
4692:1.2073342564234903e+000
4693:1.1089276814913727e+000
4694:9.8064709631022895e-001
4695:8.8240551570241510e-001
4696:1.0289057517077025e+000
4697:9.3576331031731741e-001
4698:8.2232895274110107e-001
4699:7.4105070539520002e-001
4700:8.8862673109240142e-001
4701:8.0263739841955339e-001
4702:7.0445701631337543e-001
4703:6.3901486541545105e-001
4704:9.4089709116834008e-001
4705:8.5890924298238225e-001
4706:7.7781570442579950e-001
4707:7.3393310407261458e-001
4708:8.3461567410058279e-001
4709:7.6259860027228654e-001
4710:6.8896859585298997e-001
4711:6.4689088995951061e-001
4712:7.0268147183671259e-001
4713:6.4295670407004946e-001
4714:5.7816198006395703e-001
4715:5.3777044629493231e-001
4716:6.0835636923396197e-001
4717:5.5714878533205014e-001
4718:4.9799209280634893e-001
4719:4.5805645116071486e-001
4720:7.1421141021311596e-001
4721:6.7453288935081046e-001
4722:6.2250169999599558e-001
4723:5.8243634999922034e-001
4724:6.2652107220060216e-001
4725:5.8317113808938115e-001
4726:5.2309420447814658e-001
4727:4.7454708896849840e-001
4728:5.1652253760400835e-001
4729:4.6888256278632223e-001
4730:3.9888275537034590e-001
4731:3.3965425270523875e-001
4732:4.3596590003454011e-001
4733:3.8519905691460449e-001
4734:3.0775532599947952e-001
4735:2.4042905208248339e-001
4736:5.5931868874323221e-001
4737:5.1305272635452703e-001
4738:4.5343663825077757e-001
4739:4.0827920875390594e-001
4740:4.4498817039092203e-001
4741:3.8483126980968063e-001
4742:3.0844108662942954e-001
4743:2.5139277473323118e-001
4744:3.0259341274165868e-001
4745:2.2726569843667127e-001
4746:1.3267081407217685e-001
4747:6.2806312967968958e-002
4748:1.9829710766182240e-001
4749:1.1375608987351171e-001
4750:8.2188158918296214e-003
4751:-6.9260961668641652e-002
4752:3.8762815597949224e-001
4753:3.4878217307987791e-001
4754:2.8405181832597942e-001
4755:2.2433850055952251e-001
4756:2.3007989430813172e-001
4757:2.0183103816670087e-001
4758:1.5475049055070955e-001
4759:1.1131419429111493e-001
4760:3.9779074551689150e-002
4761:1.9686245845470976e-002
4762:-1.1409924787457892e-002
4763:-3.8753023308186425e-002
4764:-9.4155485130005739e-002
4765:-1.1211295636692983e-001
4766:-1.3606496406727664e-001
4767:-1.5479865094704195e-001
4768:1.9357985644600981e-001
4769:1.4132785652273575e-001
4770:6.9045431386835873e-002
4771:1.0677661508082619e-002
4772:9.0320099201256790e-002
4773:5.6537097713075551e-002
4774:7.3050820192952070e-003
4775:-3.4151566966545220e-002
4776:-4.9173591644809458e-002
4777:-6.1914417790889825e-002
4778:-8.4908831626700057e-002
4779:-1.0713438634692653e-001
4780:-1.5875766955038376e-001
4781:-1.5785579075197950e-001
4782:-1.6386251397394250e-001
4783:-1.7365452117530658e-001
4784:-8.7756829283115456e-003
4785:-1.9050596241719286e-002
4786:-2.6074129728972148e-002
4787:-2.6829982410924030e-002
4788:-4.8436166201593578e-002
4789:-5.6331211883789513e-002
4790:-6.1395366963586780e-002
4791:-6.1480099173889684e-002
4792:-1.1457819366585034e-001
4793:-1.1629816283870929e-001
4794:-1.1496149228519303e-001
4795:-1.1134090065385917e-001
4796:-1.7583269284132336e-001
4797:-1.7052830220871135e-001
4798:-1.6141772049726771e-001
4799:-1.5284727176624913e-001
4800:-2.2321058375131621e-002
4801:-5.5840287362310713e-003
4802:1.9661136769799973e-002
4803:4.1489440066517808e-002
4804:-5.7909758820304934e-002
4805:-4.4514146803173470e-002
4806:-2.2683116856351604e-002
4807:-2.7837658675343257e-003
4808:-1.0772990918547362e-001
4809:-9.6748459731298767e-002
4810:-7.6912951935319412e-002
4811:-5.7703362770580295e-002
4812:-1.4821468778710267e-001
4813:-1.3745865464896598e-001
4814:-1.1709804771110933e-001
4815:-9.6890055944092196e-002
4816:5.1533237061506670e-002
4817:6.5716295680489201e-002
4818:8.3366079777610472e-002
4819:9.6269765859575626e-002
4820:8.3330572375879108e-003
4821:2.8354938608301808e-002
4822:5.4184381711648549e-002
4823:7.3767130880008427e-002
4824:-4.4931519648301319e-002
4825:-1.8112994776300878e-002
4826:1.7358164755414615e-002
4827:4.4895519688561175e-002
4828:-8.2606647260237129e-002
4829:-5.1155291569000234e-002
4830:-9.0161968278298990e-003
4831:2.4086625842449191e-002
4832:9.0294400380578205e-002
4833:5.8228089250601932e-002
4834:2.3104173433393806e-002
4835:1.0951344271939139e-003
4836:7.2033812116129872e-002
4837:4.7623311307391475e-002
4838:1.9354863320309491e-002
4839:3.0796708508131106e-004
4840:4.8870623968431677e-002
4841:3.5808154517812746e-002
4842:1.8174206193076192e-002
4843:4.2262908936361431e-003
4844:3.2491015799341286e-002
4845:2.8825385524028656e-002
4846:2.0200720627160055e-002
4847:1.0779597615960165e-002
4848:-5.7241441937972868e-003
4849:-9.4346024624132937e-003
4850:-8.5947036007968675e-003
4851:-3.7848994595454685e-003
4852:-6.3129989470743610e-003
4853:-1.0627355008889372e-002
4854:-9.6607014338257902e-003
4855:-4.0829878995610053e-003
4856:-2.5372826039046213e-003
4857:-1.0292369020295091e-002
4858:-1.2494751057102318e-002
4859:-8.3778242403753523e-003
4860:3.5324773353888591e-003
4861:-8.8204094066627412e-003
4862:-1.5914080193837624e-002
4863:-1.4733863073272077e-002
4864:-6.3959853721114905e+000
4865:-4.6534540646614602e+000
4866:-2.7163268417446633e+000
4867:-1.4444155860217225e+000
4868:-6.7585515355603114e+000
4869:-4.9456549788379078e+000
4870:-2.9262045266077163e+000
4871:-1.5971961305076843e+000
4872:-7.1574761505082680e+000
4873:-5.2722551274340645e+000
4874:-3.1680747467079988e+000
4875:-1.7802191933293752e+000
4876:-7.4036522231535198e+000
4877:-5.4784508990380330e+000
4878:-3.3273203047832740e+000
4879:-1.9067774900090990e+000
4880:-9.9307632611570595e-001
4881:-5.0630814159886728e-001
4882:5.2449735182138822e-002
4883:4.3069451679462017e-001
4884:-1.1241805098659647e+000
4885:-6.1342236846583742e-001
4886:-2.9895170694607585e-002
4887:3.6305524830194708e-001
4888:-1.2842777350699732e+000
4889:-7.4724850268271492e-001
4890:-1.3744798883583234e-001
4891:2.7039624728525974e-001
4892:-1.3975594247365035e+000
4893:-8.4454612188610012e-001
4894:-2.1959645370566902e-001
4895:1.9612075436614665e-001
4896:5.7297508172075140e-001
4897:7.4226470964215685e-001
4898:9.3994854902224412e-001
4899:1.0758961246807959e+000
4900:5.1007695686495669e-001
4901:6.8254858985644018e-001
4902:8.8012406859073677e-001
4903:1.0131292233401363e+000
4904:4.2138993025701565e-001
4905:5.9400761081294107e-001
4906:7.8659111630082057e-001
4907:9.1229159739384302e-001
4908:3.4833220986705610e-001
4909:5.1775679595586632e-001
4910:7.0251092431786366e-001
4911:8.1975174984080557e-001
4912:1.1201296105910512e+000
4913:1.1477201453637516e+000
4914:1.1616035321892852e+000
4915:1.1571352406949122e+000
4916:1.0536487511825918e+000
4917:1.0729146980208333e+000
4918:1.0786468688003941e+000
4919:1.0697826646300261e+000
4920:9.4798117271328630e-001
4921:9.5962010828666400e-001
4922:9.5857916748767291e-001
4923:9.4669501774949272e-001
4924:8.5174286339268890e-001
4925:8.6017360384142671e-001
4926:8.5709355125995079e-001
4927:8.4511319576377086e-001
4928:1.1334803517759324e+000
4929:1.0563691335776830e+000
4930:9.5486234482022747e-001
4931:8.7644068667914843e-001
4932:1.0448623462378153e+000
4933:9.6827687163143317e-001
4934:8.7142419191022380e-001
4935:7.9931778314492974e-001
4936:9.2112155935367268e-001
4937:8.4634537978907898e-001
4938:7.5696637592924476e-001
4939:6.9412915177596424e-001
4940:8.1990293956067795e-001
4941:7.4760653367758256e-001
4942:6.6531650442185597e-001
4943:6.1058136239133431e-001
4944:8.3207429842470371e-001
4945:7.5069576347967326e-001
4946:6.5864144578792261e-001
4947:5.9797178286372599e-001
4948:7.5962500195411231e-001
4949:6.8566077876642206e-001
4950:5.9794814822847531e-001
4951:5.3687389999944524e-001
4952:6.6015515429540417e-001
4953:5.9350766435554392e-001
4954:5.0854442954285672e-001
4955:4.4481972577443835e-001
4956:5.8065623833252078e-001
4957:5.1745295818425130e-001
4958:4.3191890860429322e-001
4959:3.6421160109811496e-001
4960:5.6852859737788108e-001
4961:5.1655415922150238e-001
4962:4.5524901707644932e-001
4963:4.1285619613892471e-001
4964:5.0410782493921424e-001
4965:4.4245734431386319e-001
4966:3.6958842857750362e-001
4967:3.1908154710048409e-001
4968:4.0789347532366776e-001
4969:3.3626253476209461e-001
4970:2.5158020744407311e-001
4971:1.9287210509556388e-001
4972:3.2417428331200937e-001
4973:2.4702050280970658e-001
4974:1.5591761267067197e-001
4975:9.2842888667733992e-002
4976:3.8937684756651086e-001
4977:3.3617719327538242e-001
4978:2.5534428246414520e-001
4979:1.8526745889436239e-001
4980:2.9166904085031847e-001
4981:2.3258538764317613e-001
4982:1.4664828854790457e-001
4983:7.4488948598907978e-002
4984:1.6107131767082836e-001
4985:9.4767923702209086e-002
4986:2.7424140565980703e-003
4987:-7.1714373825135819e-002
4988:5.8326587705322015e-002
4989:-1.2960006064436860e-002
4990:-1.0896360503943255e-001
4991:-1.8467479548233282e-001
4992:1.4182791392069383e-001
4993:5.4890356558334762e-002
4994:-5.4491111753907973e-002
4995:-1.3543047906076919e-001
4996:3.1196534540618218e-002
4997:-5.5734732070207051e-002
4998:-1.6888413875874822e-001
4999:-2.5541290494374591e-001
5000:-1.1401072066230102e-001
5001:-1.9841109665248197e-001
5002:-3.1337600716062264e-001
5003:-4.0495742237907151e-001
5004:-2.2561983632130139e-001
5005:-3.0642925889717670e-001
5006:-4.2076541661858230e-001
5007:-5.1476692014787073e-001
5008:-1.6184890875381061e-001
5009:-1.8063238098947521e-001
5010:-2.0302894167932226e-001
5011:-2.1867704628751841e-001
5012:-2.8539090726015692e-001
5013:-3.0811969988943794e-001
5014:-3.3020762294167022e-001
5015:-3.4169580611692957e-001
5016:-4.3944448973863670e-001
5017:-4.6891441381175747e-001
5018:-4.9252555854041358e-001
5019:-4.9995209249198214e-001
5020:-5.5255025154313175e-001
5021:-5.8794649711813129e-001
5022:-6.1361778585780535e-001
5023:-6.1854471876678996e-001
5024:-2.1984757098417351e-001
5025:-2.1269943206828240e-001
5026:-2.1087993415975279e-001
5027:-2.1490712934449593e-001
5028:-3.3820342299716782e-001
5029:-3.1997522934426542e-001
5030:-3.0416880641055866e-001
5031:-2.9781481536781806e-001
5032:-4.9082781767431999e-001
5033:-4.5852956213006368e-001
5034:-4.2497485687193498e-001
5035:-4.0545774217252450e-001
5036:-6.0534968715783388e-001
5037:-5.6261157760182734e-001
5038:-5.1589834985256722e-001
5039:-4.8663000652957983e-001
5040:-2.1431157225696218e-001
5041:-2.0446134074117250e-001
5042:-1.8992374513885332e-001
5043:-1.7755921168772720e-001
5044:-2.9221601008172476e-001
5045:-2.7397424606730153e-001
5046:-2.4890274225398026e-001
5047:-2.2876518399064433e-001
5048:-3.9371752837257856e-001
5049:-3.6557520146450079e-001
5050:-3.2807715496343404e-001
5051:-2.9877123399337696e-001
5052:-4.7050450341057409e-001
5053:-4.3562770606144774e-001
5054:-3.8967868674456502e-001
5055:-3.5413887615983808e-001
5056:-1.7173355754214367e-001
5057:-1.6026248214301875e-001
5058:-1.3933554332301626e-001
5059:-1.1896017510185827e-001
5060:-2.1990667820687074e-001
5061:-2.0563436668059687e-001
5062:-1.8325478582474800e-001
5063:-1.6336805648610722e-001
5064:-2.8572034419904319e-001
5065:-2.6599974667298365e-001
5066:-2.3948513017621753e-001
5067:-2.1859219480654751e-001
5068:-3.3776453607040191e-001
5069:-3.1270736562469575e-001
5070:-2.8157858388432438e-001
5071:-2.5885763426951730e-001
5072:-1.0444742474982763e-001
5073:-7.1812792877886611e-002
5074:-2.7332248021415224e-002
5075:8.1471363518741246e-003
5076:-1.4972935136587531e-001
5077:-1.1798642166455370e-001
5078:-7.2260856610349838e-002
5079:-3.4069938374131685e-002
5080:-2.0624323800772598e-001
5081:-1.7777631265893362e-001
5082:-1.3306105466450310e-001
5083:-9.3262971769754066e-002
5084:-2.4759596989627125e-001
5085:-2.2300329388404461e-001
5086:-1.8075574301756603e-001
5087:-1.4096137706547987e-001
5088:1.8814135616792450e-002
5089:2.0549063936541462e-002
5090:1.8039936844533404e-002
5091:1.2625181372017754e-002
5092:-1.9590947777914484e-002
5093:-7.2859134511276142e-003
5094:3.7783815019391490e-003
5095:8.6077390013325709e-003
5096:-7.4365368899962342e-002
5097:-4.8468714337004490e-002
5098:-1.9955741714425435e-002
5099:-1.9610900565061188e-003
5100:-1.1904641060916692e-001
5101:-8.2915686641968162e-002
5102:-4.1267916741220489e-002
5103:-1.3365474600758546e-002
5104:5.9590109572815689e-003
5105:-8.0410094949537447e-003
5106:-1.7701187257849912e-002
5107:-1.8794197916550202e-002
5108:5.2478789499245965e-003
5109:-7.7215163751623373e-003
5110:-1.8831029552506033e-002
5111:-2.3083818597981195e-002
5112:-1.2441463010720393e-004
5113:-8.3023069114815610e-003
5114:-1.6958644747325776e-002
5115:-2.2116689613950278e-002
5116:-6.9613621228085554e-003
5117:-9.1376161054519799e-003
5118:-1.2983162327326436e-002
5119:-1.6668408048140671e-002
5120:-7.5161655830139660e+000
5121:-5.5791008057374603e+000
5122:-3.4134314512045618e+000
5123:-1.9823399009626148e+000
5124:-7.6921128031193158e+000
5125:-5.7495411999630734e+000
5126:-3.5751620101869461e+000
5127:-2.1364301571921742e+000
5128:-7.8397171106117076e+000
5129:-5.9084756202314805e+000
5130:-3.7443512185980987e+000
5131:-2.3106148735579133e+000
5132:-7.8890329319665859e+000
5133:-5.9807754033866773e+000
5134:-3.8412060339320662e+000
5135:-2.4228532364458388e+000
5136:-1.4687313137750422e+000
5137:-9.1069576044344702e-001
5138:-2.8168408066507933e-001
5139:1.3551469712289677e-001
5140:-1.6201335378314596e+000
5141:-1.0616875425131669e+000
5142:-4.3544515027685410e-001
5143:-2.2534048952688540e-002
5144:-1.7979163557728108e+000
5145:-1.2507225952096461e+000
5146:-6.4205287717128467e-001
5147:-2.4450479371490821e-001
5148:-1.9184383914915535e+000
5149:-1.3891113213070225e+000
5150:-8.0485449273453635e-001
5151:-4.2673949178441178e-001
5152:2.8714349326723487e-001
5153:4.5350577710348355e-001
5154:6.3385748815341769e-001
5155:7.4745092871669272e-001
5156:1.2612059835802966e-001
5157:2.8749156725053177e-001
5158:4.6309538660541916e-001
5159:5.7423409582613316e-001
5160:-1.0123752658501846e-001
5161:5.7059513940915851e-002
5162:2.3048337012674106e-001
5163:3.4118001493346223e-001
5164:-2.8877010947064879e-001
5165:-1.3008805611955895e-001
5166:4.4868693348355311e-002
5167:1.5743194710911756e-001
5168:7.7870044561535390e-001
5169:7.8864664633826165e-001
5170:7.8866101839235081e-001
5171:7.7981565506413386e-001
5172:6.0638433843404738e-001
5173:6.2264529638345500e-001
5174:6.3321314955450569e-001
5175:6.3403778679174594e-001
5176:3.7451739188757482e-001
5177:3.9656931546869084e-001
5178:4.1795223257266056e-001
5179:4.2929299532242066e-001
5180:1.9173908270422763e-001
5181:2.1645458815009427e-001
5182:2.4398765325278571e-001
5183:2.6186974765184212e-001
5184:7.5638417623907195e-001
5185:6.8724982099391019e-001
5186:6.0909763489747470e-001
5187:5.5754241629028645e-001
5188:6.1631234422323133e-001
5189:5.5638514461395738e-001
5190:4.8643047325220717e-001
5191:4.3851599612851094e-001
5192:4.1876179810925795e-001
5193:3.7187674603351295e-001
5194:3.1385452661423191e-001
5195:2.7156482628412199e-001
5196:2.5662614886874174e-001
5197:2.2031480131088743e-001
5198:1.7212465573908381e-001
5199:1.3462572357629746e-001
5200:5.2848379037102144e-001
5201:4.6503833495860708e-001
5202:3.7850347340453649e-001
5203:3.0954971802537257e-001
5204:4.0913235989865082e-001
5205:3.4323945148062046e-001
5206:2.5587417414531588e-001
5207:1.8793789083517795e-001
5208:2.4239683902189432e-001
5209:1.7482393174641786e-001
5210:8.8238461613495162e-002
5211:2.2980029119551434e-002
5212:1.0610950345050031e-001
5213:3.8575473356481163e-002
5214:-4.5777123345833358e-002
5215:-1.0779670463830329e-001
5216:2.6909399760235375e-001
5217:1.9165951620449809e-001
5218:9.9739426892800770e-002
5219:3.5719953495470275e-002
5220:1.4906000119093665e-001
5221:7.4613047394145648e-002
5222:-1.5787167454690259e-002
5223:-8.0320769726348912e-002
5224:-1.3717013905036355e-002
5225:-8.5092265766541372e-002
5226:-1.7453045888951099e-001
5227:-2.4047717804611671e-001
5228:-1.4273625122429082e-001
5229:-2.1256252259145328e-001
5230:-3.0226048436889796e-001
5231:-3.7001666422288459e-001
5232:2.3201298072702159e-004
5233:-7.2859195202586324e-002
5234:-1.6957707545372019e-001
5235:-2.4466930992877187e-001
5236:-1.1688047439762121e-001
5237:-1.9101011276625518e-001
5238:-2.8549452734230713e-001
5239:-3.5632317439336464e-001
5240:-2.7780186975216697e-001
5241:-3.5026359671984558e-001
5242:-4.3805977570811816e-001
5243:-5.0055358519698612e-001
5244:-4.0740003099024158e-001
5245:-4.7596144445699240e-001
5246:-5.5535636834002167e-001
5247:-6.0905549731000808e-001
5248:-2.8406038574221271e-001
5249:-3.6086309396419602e-001
5250:-4.7132357710843314e-001
5251:-5.6332178388614029e-001
5252:-3.9117197842176876e-001
5253:-4.5695131245929943e-001
5254:-5.5401045349493694e-001
5255:-6.3643910564037309e-001
5256:-5.2853991676060630e-001
5257:-5.7916528957805213e-001
5258:-6.5780500573022704e-001
5259:-7.2708354974311740e-001
5260:-6.3101213252386112e-001
5261:-6.6950892064204248e-001
5262:-7.3341277220738688e-001
5263:-7.9217580363903040e-001
5264:-6.0113809334490154e-001
5265:-6.3800711671705423e-001
5266:-6.6526083253587887e-001
5267:-6.7115675026874055e-001
5268:-6.7113384255399666e-001
5269:-7.0745777535754240e-001
5270:-7.3844044730659542e-001
5271:-7.5038718455882503e-001
5272:-7.5768815499906206e-001
5273:-7.9386054604008016e-001
5274:-8.3040971564201749e-001
5275:-8.5076774889331075e-001
5276:-8.1976136795080479e-001
5277:-8.5665179146317483e-001
5278:-8.9851569758034677e-001
5279:-9.2609521123865679e-001
5280:-6.5762159087370331e-001
5281:-6.1217027786655653e-001
5282:-5.6056815185891928e-001
5283:-5.2657847407085456e-001
5284:-7.4015400810148335e-001
5285:-6.9688128565702123e-001
5286:-6.4247391880438998e-001
5287:-6.0225517064563017e-001
5288:-8.4622774163441550e-001
5289:-8.1036612894923399e-001
5290:-7.5797973469198143e-001
5291:-7.1378592085825154e-001
5292:-9.2693895637011792e-001
5293:-8.9974106797972808e-001
5294:-8.5260172084439334e-001
5295:-8.0805509563446998e-001
5296:-5.0802941213065600e-001
5297:-4.6956763367314452e-001
5298:-4.1957273665088174e-001
5299:-3.8138983673145821e-001
5300:-5.7909357548716489e-001
5301:-5.3261776710109776e-001
5302:-4.7427240426853179e-001
5303:-4.3121590948550376e-001
5304:-6.8521409865360849e-001
5305:-6.2656435357787477e-001
5306:-5.5518935633968025e-001
5307:-5.0421549430956736e-001
5308:-7.7572932143301965e-001
5309:-7.0663534044588550e-001
5310:-6.2389534256157930e-001
5311:-5.6585065433382309e-001
5312:-3.6352980552928421e-001
5313:-3.3552337766438400e-001
5314:-3.0105828785410316e-001
5315:-2.7615243947309537e-001
5316:-4.1069219299915111e-001
5317:-3.7657476568715320e-001
5318:-3.3371711097212531e-001
5319:-3.0207369103578757e-001
5320:-4.7919873452092127e-001
5321:-4.3485377435575578e-001
5322:-3.7821195820573583e-001
5323:-3.3568355413461504e-001
5324:-5.3664400621259800e-001
5325:-4.8267103177080289e-001
5326:-4.1321478821485280e-001
5327:-3.6068107135400718e-001
5328:-2.6485657802659113e-001
5329:-2.4218337911924892e-001
5330:-2.0257587199538094e-001
5331:-1.6490394533447095e-001
5332:-2.8883287236481858e-001
5333:-2.6716779018754272e-001
5334:-2.3209402442606111e-001
5335:-2.0024526193053124e-001
5336:-3.1835658171608522e-001
5337:-2.9432564374568132e-001
5338:-2.6054073794343180e-001
5339:-2.3287245303105486e-001
5340:-3.3911491316330555e-001
5341:-3.1079905987267764e-001
5342:-2.7490132144869872e-001
5343:-2.4815118548701279e-001
5344:-1.4281604196383987e-001
5345:-1.0339017353667775e-001
5346:-5.6364269609628086e-002
5347:-2.3550472369060313e-002
5348:-1.8052316024185033e-001
5349:-1.4100260075620366e-001
5350:-8.9485413626866878e-002
5351:-5.0033923070227873e-002
5352:-2.1660391350395911e-001
5353:-1.8158676877516189e-001
5354:-1.3002036041845472e-001
5355:-8.6196576943260272e-002
5356:-2.3476110930854713e-001
5357:-2.0623337533230643e-001
5358:-1.5843458923788592e-001
5359:-1.1406060424304985e-001
5360:-1.4398102804862735e-002
5361:-1.2157056138657907e-002
5362:-1.1539944792649668e-002
5363:-1.2758632140502645e-002
5364:-3.5941173470322260e-002
5365:-2.4280909752335100e-002
5366:-1.3187082932480589e-002
5367:-7.7052517577580410e-003
5368:-6.6853556796508201e-002
5369:-4.3193994128877290e-002
5370:-1.8817722368986146e-002
5371:-4.8960024184901193e-003
5372:-9.1547054150883517e-002
5373:-5.9153959166794431e-002
5374:-2.5201015118902780e-002
5375:-5.2725843213270191e-003
5376:-7.8945342031822063e+000
5377:-6.0075996928922741e+000
5378:-3.8915571651436411e+000
5379:-2.4885202982369830e+000
5380:-7.8626269515227944e+000
5381:-6.0367012882738837e+000
5382:-3.9889074261707780e+000
5383:-2.6309992024901812e+000
5384:-7.7299807119802537e+000
5385:-6.0116468852415954e+000
5386:-4.0852720625475714e+000
5387:-2.8084324412424624e+000
5388:-7.5595619188183356e+000
5389:-5.9449025994198621e+000
5390:-4.1361066839549734e+000
5391:-2.9381963507900535e+000
5392:-1.9917906365314935e+000
5393:-1.4765551941856589e+000
5394:-9.0916083354827615e-001
5395:-5.4297211330301809e-001
5396:-2.1538921636949975e+000
5397:-1.6677170542011901e+000
5398:-1.1322256765773420e+000
5399:-7.8654969826010501e-001
5400:-2.3618603393667579e+000
5401:-1.9113967750126604e+000
5402:-1.4151195496895392e+000
5403:-1.0946644688490892e+000
5404:-2.5186801940202170e+000
5405:-2.0936346798542660e+000
5406:-1.6252487042626143e+000
5407:-1.3227166791739111e+000
5408:-4.0742924796912949e-001
5409:-2.4631942201679408e-001
5410:-6.7991487266463285e-002
5411:4.7292275959214529e-002
5412:-6.5473756444838560e-001
5413:-4.8894203263884883e-001
5414:-3.0429273887608554e-001
5415:-1.8402449276246186e-001
5416:-9.6901510666117308e-001
5417:-8.0306353023222699e-001
5418:-6.1730493671946862e-001
5419:-4.9557854772229598e-001
5420:-1.2027275818576468e+000
5421:-1.0412280315450562e+000
5422:-8.6009483396850017e-001
5423:-7.4111934991596429e-001
5424:8.2634875999718096e-002
5425:1.0849210834114982e-001
5426:1.3761027005629925e-001
5427:1.5677247961004617e-001
5428:-1.4621940396181790e-001
5429:-1.1731638253966897e-001
5430:-8.6699261134530331e-002
5431:-6.8079117264110103e-002
5432:-4.5554547510659499e-001
5433:-4.2159791881141528e-001
5434:-3.8777273394448541e-001
5435:-3.6899873102364750e-001
5436:-7.0016626641594426e-001
5437:-6.6164976475645898e-001
5438:-6.2455063281290624e-001
5439:-6.0510331340138479e-001
5440:1.5310170393552205e-001
5441:1.2136440875691676e-001
5442:7.9107513284720057e-002
5443:4.6132136538945309e-002
5444:-7.0972437107453157e-002
5445:-9.6619115446292148e-002
5446:-1.2703101157374716e-001
5447:-1.4822797951654546e-001
5448:-3.7078495589467214e-001
5449:-3.8891844568545869e-001
5450:-4.0437563067597471e-001
5451:-4.1054255115432514e-001
5452:-6.0593347833050626e-001
5453:-6.1840948752297376e-001
5454:-6.2250154076406283e-001
5455:-6.1719880360794888e-001
5456:1.9541643390305636e-002
5457:-4.4955820813847719e-002
5458:-1.2463789348957548e-001
5459:-1.8258171665626122e-001
5460:-1.6853372240649916e-001
5461:-2.2235542110961506e-001
5462:-2.8757681431976440e-001
5463:-3.3406504279379262e-001
5464:-4.2264347914339739e-001
5465:-4.6220697820745199e-001
5466:-5.0813972104427707e-001
5467:-5.3936424444316511e-001
5468:-6.2293938336257848e-001
5469:-6.5127132905848473e-001
5470:-6.8203294824723826e-001
5471:-7.0126765117300427e-001
5472:-2.1560529094101230e-001
5473:-2.8321793919366683e-001
5474:-3.7146736479778186e-001
5475:-4.3912978561011445e-001
5476:-3.6126423452961098e-001
5477:-4.2013412320373694e-001
5478:-5.0024717333531277e-001
5479:-5.6398266357039195e-001
5480:-5.5797323516252950e-001
5481:-6.0214881164087641e-001
5482:-6.6761814298212985e-001
5483:-7.2332723328485271e-001
5484:-7.1257954318682848e-001
5485:-7.4318881201473797e-001
5486:-7.9461692789743299e-001
5487:-8.4214767431043902e-001
5488:-4.7576976973720070e-001
5489:-5.4087030459292496e-001
5490:-6.1521219107373637e-001
5491:-6.6465616092222302e-001
5492:-5.9803721105525043e-001
5493:-6.5667445642664579e-001
5494:-7.2371272734299108e-001
5495:-7.6836184293407039e-001
5496:-7.5398281569819192e-001
5497:-8.0681184572583231e-001
5498:-8.6755125087976670e-001
5499:-9.0828231251346037e-001
5500:-8.7025782668393348e-001
5501:-9.2074812855669763e-001
5502:-9.7926222179380040e-001
5503:-1.0188751422577278e+000
5504:-6.8404654262496700e-001
5505:-7.1690319784584278e-001
5506:-7.7240823145884752e-001
5507:-8.2398997488056769e-001
5508:-7.8526909787875321e-001
5509:-8.1090767519684404e-001
5510:-8.5187426281902834e-001
5511:-8.8864955674879331e-001
5512:-9.2346488642213953e-001
5513:-9.4300646319052606e-001
5514:-9.6911353889959884e-001
5515:-9.8956019412542917e-001
5516:-1.0338031081730434e+000
5517:-1.0507818216888571e+000
5518:-1.0681014398942632e+000
5519:-1.0779185679150187e+000
5520:-8.4885254492446705e-001
5521:-8.8435893842548319e-001
5522:-9.2727635719466317e-001
5523:-9.5771935526288143e-001
5524:-9.0581489513357261e-001
5525:-9.3205148910347857e-001
5526:-9.6942731435438556e-001
5527:-1.0003349606619554e+000
5528:-9.9583658573597333e-001
5529:-1.0040651134264118e+000
5530:-1.0268759184465066e+000
5531:-1.0530418665116963e+000
5532:-1.0752529563016777e+000
5533:-1.0657311228565916e+000
5534:-1.0724947404738896e+000
5535:-1.0914754323088103e+000
5536:-9.6120926285265618e-001
5537:-9.3934457767062451e-001
5538:-8.9767116247223555e-001
5539:-8.5623600715088222e-001
5540:-1.0066454317017306e+000
5541:-9.9272450381188826e-001
5542:-9.6206846386731881e-001
5543:-9.2954916566473045e-001
5544:-1.0603566518850340e+000
5545:-1.0520666959751108e+000
5546:-1.0298449661465641e+000
5547:-1.0045755363337781e+000
5548:-1.0976654282117906e+000
5549:-1.0901105815914618e+000
5550:-1.0698606122136105e+000
5551:-1.0468338102083643e+000
5552:-8.2380027528655342e-001
5553:-7.5149004221212512e-001
5554:-6.6396744236284599e-001
5555:-6.0183206971260084e-001
5556:-9.0041087854900803e-001
5557:-8.2928004354991036e-001
5558:-7.3867674411271889e-001
5559:-6.7083097299309569e-001
5560:-9.7995281053347616e-001
5561:-9.1533696279473831e-001
5562:-8.2693874318191984e-001
5563:-7.5621895414126183e-001
5564:-1.0257186432101622e+000
5565:-9.6943445310268006e-001
5566:-8.8689366093521360e-001
5567:-8.1702873088766925e-001
5568:-5.6972892149554888e-001
5569:-5.0919160960396292e-001
5570:-4.3115192051950629e-001
5571:-3.7202575332041793e-001
5572:-6.3355523357780263e-001
5573:-5.6109535056014614e-001
5574:-4.6753746425899945e-001
5575:-3.9654464096258457e-001
5576:-7.1474170666729264e-001
5577:-6.3171001343418165e-001
5578:-5.2417531720242649e-001
5579:-4.4233647643489149e-001
5580:-7.7417115177505524e-001
5581:-6.8687725926025389e-001
5582:-5.7346133219852291e-001
5583:-4.8688186548900120e-001
5584:-3.4744945032268792e-001
5585:-3.1495386622983085e-001
5586:-2.7478526027421357e-001
5587:-2.4562453551717656e-001
5588:-3.6578206746320469e-001
5589:-3.2233082431651500e-001
5590:-2.6880271632586616e-001
5591:-2.3008453450657076e-001
5592:-4.0425449352778320e-001
5593:-3.4482142473925975e-001
5594:-2.7174678957778314e-001
5595:-2.1899961093191866e-001
5596:-4.4379982387411354e-001
5597:-3.7093047726371137e-001
5598:-2.8138823775851951e-001
5599:-2.1679509928845345e-001
5600:-2.3250540621498503e-001
5601:-2.0693203430201726e-001
5602:-1.6294981675978490e-001
5603:-1.2147319542487202e-001
5604:-2.1422058169570865e-001
5605:-1.8961002660935541e-001
5606:-1.5161670280254730e-001
5607:-1.1819260485811701e-001
5608:-1.9788301555899493e-001
5609:-1.6987416541467437e-001
5610:-1.3383314349514239e-001
5611:-1.0657736168823002e-001
5612:-1.9055673599146722e-001
5613:-1.5696256894597177e-001
5614:-1.1867279144848802e-001
5615:-9.3379551663619165e-002
5616:-9.9402246144130582e-002
5617:-6.5478774529855496e-002
5618:-2.8820773510437579e-002
5619:-6.2996081359841223e-003
5620:-1.0032819567797897e-001
5621:-7.0328822771934210e-002
5622:-3.4260966569162443e-002
5623:-8.8703372748837207e-003
5624:-9.3743637919169134e-002
5625:-7.1351356394509957e-002
5626:-3.9181335313864425e-002
5627:-1.2358185323598024e-002
5628:-8.4036958471677956e-002
5629:-6.8784562047165085e-002
5630:-4.1238352601263004e-002
5631:-1.4518506264423909e-002
5632:-7.4461840535685928e+000
5633:-5.8950667019414951e+000
5634:-4.1587770911191848e+000
5635:-3.0098612741580171e+000
5636:-7.2072850222057934e+000
5637:-5.7827247244680775e+000
5638:-4.1915893760903948e+000
5639:-3.1412956294175740e+000
5640:-6.8482776455381495e+000
5641:-5.5959217547629603e+000
5642:-4.2026627614587300e+000
5643:-3.2870761092084857e+000
5644:-6.5395519579607866e+000
5645:-5.4239354928172556e+000
5646:-4.1880463428125223e+000
5647:-3.3797677677633016e+000
5648:-2.6067151832808517e+000
5649:-2.1954445652844568e+000
5650:-1.7412671813434821e+000
5651:-1.4471594155262486e+000
5652:-2.7718539312500012e+000
5653:-2.3900219349372085e+000
5654:-1.9649517977146480e+000
5655:-1.6870589821131730e+000
5656:-2.9643749725563779e+000
5657:-2.6252851605177754e+000
5658:-2.2433428983584420e+000
5659:-1.9902249772728764e+000
5660:-3.0947615593351934e+000
5661:-2.7913728933881146e+000
5662:-2.4459760700977409e+000
5663:-2.2142940802946005e+000
5664:-1.3299690967152111e+000
5665:-1.1719851577885680e+000
5666:-9.9593512637807757e-001
5667:-8.8118872978139851e-001
5668:-1.5749189208539027e+000
5669:-1.4241614686555113e+000
5670:-1.2607714693860652e+000
5671:-1.1578973443867495e+000
5672:-1.8862839018224429e+000
5673:-1.7474388750670189e+000
5674:-1.6035949968191363e+000
5675:-1.5183893133394486e+000
5676:-2.1178231629646311e+000
5677:-1.9901409015063327e+000
5678:-1.8637533370040000e+000
5679:-1.7938681709159541e+000
5680:-8.4099865258328543e-001
5681:-8.0041584900852780e-001
5682:-7.5946090309240188e-001
5683:-7.3626585643341069e-001
5684:-1.1214993567925589e+000
5685:-1.0788861634628342e+000
5686:-1.0281051310172080e+000
5687:-9.9247541466210143e-001
5688:-1.4879387180671588e+000
5689:-1.4442410084916102e+000
5690:-1.3825076670880385e+000
5691:-1.3319674629059803e+000
5692:-1.7686612280091729e+000
5693:-1.7249367009879513e+000
5694:-1.6557549230336785e+000
5695:-1.5944408433712887e+000
5696:-7.3434206037515737e-001
5697:-7.4053341008452822e-001
5698:-7.3621594154475745e-001
5699:-7.2432245437287290e-001
5700:-9.8169493048633139e-001
5701:-9.7097222254023297e-001
5702:-9.4770115091767937e-001
5703:-9.2343765727931459e-001
5704:-1.3106561065868980e+000
5705:-1.2803484704672101e+000
5706:-1.2353501926969317e+000
5707:-1.1970833638666454e+000
5708:-1.5657986729483448e+000
5709:-1.5225515586457290e+000
5710:-1.4634073199811137e+000
5711:-1.4161934579117230e+000
5712:-7.2676162766722596e-001
5713:-7.4955624739907534e-001
5714:-7.7350910389055794e-001
5715:-7.8781637189133313e-001
5716:-9.1941606485903637e-001
5717:-9.3026672466857518e-001
5718:-9.4091284044352574e-001
5719:-9.4661490853140284e-001
5720:-1.1835189640443529e+000
5721:-1.1727720990753732e+000
5722:-1.1586885624918926e+000
5723:-1.1478509562286812e+000
5724:-1.3945398128811357e+000
5725:-1.3627756308837389e+000
5726:-1.3242722764073378e+000
5727:-1.2968194523570582e+000
5728:-7.9601488331632841e-001
5729:-8.1982157284174917e-001
5730:-8.6260510668115764e-001
5731:-9.0367325375387753e-001
5732:-9.5063251513342661e-001
5733:-9.6518706613641114e-001
5734:-9.9289652708443488e-001
5735:-1.0202911462183877e+000
5736:-1.1459959590444864e+000
5737:-1.1519374383876062e+000
5738:-1.1642366778177615e+000
5739:-1.1768740663104005e+000
5740:-1.2901158645984641e+000
5741:-1.2918788468431985e+000
5742:-1.2953446770152190e+000
5743:-1.2988240650024809e+000
5744:-9.2926989815855454e-001
5745:-9.7751442024916402e-001
5746:-1.0349088355515423e+000
5747:-1.0749510310539574e+000
5748:-1.0387591150768891e+000
5749:-1.0777828050555525e+000
5750:-1.1293360028294821e+000
5751:-1.1693026509058944e+000
5752:-1.1857082136217816e+000
5753:-1.2085932090018110e+000
5754:-1.2474590946243542e+000
5755:-1.2836531242984475e+000
5756:-1.3000998154655641e+000
5757:-1.3079638609762969e+000
5758:-1.3338463471540585e+000
5759:-1.3647932005886401e+000
5760:-1.0906235318940887e+000
5761:-1.1086356088840714e+000
5762:-1.1258110802391987e+000
5763:-1.1344500593338780e+000
5764:-1.1866873120354562e+000
5765:-1.2089120763049308e+000
5766:-1.2315726306729504e+000
5767:-1.2444075558925876e+000
5768:-1.3014983827957625e+000
5769:-1.3262059435245304e+000
5770:-1.3522618273178084e+000
5771:-1.3678106784795472e+000
5772:-1.3817533016463741e+000
5773:-1.4060570633214369e+000
5774:-1.4318368998303677e+000
5775:-1.4473535970389662e+000
5776:-1.1292572573421085e+000
5777:-1.1118906278547775e+000
5778:-1.1082047988717603e+000
5779:-1.1190225290513347e+000
5780:-1.2396881594419573e+000
5781:-1.2162467179593182e+000
5782:-1.1963712399479483e+000
5783:-1.1888382750743416e+000
5784:-1.3651945542196624e+000
5785:-1.3418907394875734e+000
5786:-1.3109413052132477e+000
5787:-1.2868286806385876e+000
5788:-1.4472760064344661e+000
5789:-1.4294726347227493e+000
5790:-1.3967461107893790e+000
5791:-1.3648331649488716e+000
5792:-1.1213637987820380e+000
5793:-1.1083702233621369e+000
5794:-1.0827508546320370e+000
5795:-1.0568557290653571e+000
5796:-1.1801548929302017e+000
5797:-1.1495778807093104e+000
5798:-1.1063020404910313e+000
5799:-1.0706912063821676e+000
5800:-1.2668783549276965e+000
5801:-1.2177740020821939e+000
5802:-1.1569960486630610e+000
5803:-1.1127887607310341e+000
5804:-1.3385872755679933e+000
5805:-1.2791951796315073e+000
5806:-1.2099130700730618e+000
5807:-1.1627401216278233e+000
5808:-1.0362180694220942e+000
5809:-9.8371145112192981e-001
5810:-9.0558069423472365e-001
5811:-8.3871980145019209e-001
5812:-1.0477197321984835e+000
5813:-9.9564043547372050e-001
5814:-9.2141787106974049e-001
5815:-8.5998168540013942e-001
5816:-1.0854670916631919e+000
5817:-1.0252439942458220e+000
5818:-9.4520373547210457e-001
5819:-8.8279424905282444e-001
5820:-1.1313114128871753e+000
5821:-1.0585380347549884e+000
5822:-9.6612928512222984e-001
5823:-8.9714450397887946e-001
5824:-7.9710145237490970e-001
5825:-7.1149175865274938e-001
5826:-5.9990731961439858e-001
5827:-5.1446539803601155e-001
5828:-8.2198682469637407e-001
5829:-7.4289385915318773e-001
5830:-6.3894933254927777e-001
5831:-5.5873549419329582e-001
5832:-8.4612921914613515e-001
5833:-7.7076878477385913e-001
5834:-6.7079069631932353e-001
5835:-5.9295968099272112e-001
5836:-8.5895749136706190e-001
5837:-7.8270371807635442e-001
5838:-6.8104177437766333e-001
5839:-6.0154312969497270e-001
5840:-4.7027577783507807e-001
5841:-3.9214874448320503e-001
5842:-2.9550932610794201e-001
5843:-2.2530338115695683e-001
5844:-5.1526384052900309e-001
5845:-4.3401538945813023e-001
5846:-3.3120388352583052e-001
5847:-2.5473547560865123e-001
5848:-5.5086253226384352e-001
5849:-4.7142342049034280e-001
5850:-3.6797263507465278e-001
5851:-2.8882536668138764e-001
5852:-5.6074305929695756e-001
5853:-4.8694805818138315e-001
5854:-3.8837025816085652e-001
5855:-3.1114034707915555e-001
5856:-1.9633119982487710e-001
5857:-1.5866202260148676e-001
5858:-1.1615559917222695e-001
5859:-8.8435338546057188e-002
5860:-2.2204444244588473e-001
5861:-1.7704621726756894e-001
5862:-1.2395851417866972e-001
5863:-8.7382834694776229e-002
5864:-2.5333213288799283e-001
5865:-2.0103551999147273e-001
5866:-1.3700933328227133e-001
5867:-9.1013867165908785e-002
5868:-2.7497221074663458e-001
5869:-2.1868547638475314e-001
5870:-1.4830546485354548e-001
5871:-9.6600392619640776e-002
5872:-7.9036657506274796e-002
5873:-6.5501787147595109e-002
5874:-4.0030554772738161e-002
5875:-1.4779398901438378e-002
5876:-7.4548463601561421e-002
5877:-5.9170533450834201e-002
5878:-3.5424028408992267e-002
5879:-1.4523009982540398e-002
5880:-7.3961804569011316e-002
5881:-5.5095204728807246e-002
5882:-3.2235541044068221e-002
5883:-1.6002524341244280e-002
5884:-7.6637943084195886e-002
5885:-5.4830534744640537e-002
5886:-3.2324363229993158e-002
5887:-1.9435252313845314e-002
5888:-6.3597752332174684e+000
5889:-5.3242009404030206e+000
5890:-4.1769787846881243e+000
5891:-3.4266856631843092e+000
5892:-5.9899030309701589e+000
5893:-5.1198733329423138e+000
5894:-4.1501587130298878e+000
5895:-3.5115726934102978e+000
5896:-5.4617047176771809e+000
5897:-4.8163512330565075e+000
5898:-4.0883360622386737e+000
5899:-3.6024596227630341e+000
5900:-5.0265311610855701e+000
5901:-4.5587367938639316e+000
5902:-4.0221777782121402e+000
5903:-3.6576068646536770e+000
5904:-3.1613517767800592e+000
5905:-2.8768210218299779e+000
5906:-2.5524004289504991e+000
5907:-2.3344186589526750e+000
5908:-3.2825891087496504e+000
5909:-3.0326771836784556e+000
5910:-2.7499050216605760e+000
5911:-2.5615387804425258e+000
5912:-3.4232759912262822e+000
5913:-3.2207251999556772e+000
5914:-2.9949021115637815e+000
5915:-2.8470107800265438e+000
5916:-3.5180904312414869e+000
5917:-3.3533508544785140e+000
5918:-3.1729699889256482e+000
5919:-3.0573586174739442e+000
5920:-2.2433821210540286e+000
5921:-2.1226995895757788e+000
5922:-2.0036173442178513e+000
5923:-1.9381047613972822e+000
5924:-2.4831082454204800e+000
5925:-2.3767188942670621e+000
5926:-2.2666158563346630e+000
5927:-2.2014951179778399e+000
5928:-2.7855899265993993e+000
5929:-2.6982001007577736e+000
5930:-2.6002588560551358e+000
5931:-2.5359838738070368e+000
5932:-3.0092335472776868e+000
5933:-2.9361906195400675e+000
5934:-2.8473213802875281e+000
5935:-2.7835246115013059e+000
5936:-1.9129908387596850e+000
5937:-1.8652347097977462e+000
5938:-1.7894544773213554e+000
5939:-1.7221686435139603e+000
5940:-2.1716339326664205e+000
5941:-2.1099445897713225e+000
5942:-2.0182607861229416e+000
5943:-1.9403402932655900e+000
5944:-2.5010004952046048e+000
5945:-2.4246440267193026e+000
5946:-2.3164036964200707e+000
5947:-2.2275561942916080e+000
5948:-2.7453476450175129e+000
5949:-2.6605158396650181e+000
5950:-2.5428881059970916e+000
5951:-2.4479870064724358e+000
5952:-1.6901546127541494e+000
5953:-1.6415261650107567e+000
5954:-1.5772035847873560e+000
5955:-1.5272970096056886e+000
5956:-1.9023312448636329e+000
5957:-1.8431024568075050e+000
5958:-1.7694341352640957e+000
5959:-1.7154704135484533e+000
5960:-2.1811351299216080e+000
5961:-2.1032464352701798e+000
5962:-2.0115218506133816e+000
5963:-1.9480748365533040e+000
5964:-2.3947561366289243e+000
5965:-2.2991341230459477e+000
5966:-2.1894099615650573e+000
5967:-2.1157251190834239e+000
5968:-1.5020460286101567e+000
5969:-1.4593626763039889e+000
5970:-1.4078017391088815e+000
5971:-1.3711731641644305e+000
5972:-1.6857382648978729e+000
5973:-1.6291532881477699e+000
5974:-1.5604240417801758e+000
5975:-1.5113154434923359e+000
5976:-1.9138596476705396e+000
5977:-1.8479675617381637e+000
5978:-1.7676472349203602e+000
5979:-1.7100411415444554e+000
5980:-2.0791936581770822e+000
5981:-2.0129798142838573e+000
5982:-1.9321135434566297e+000
5983:-1.8740007167874670e+000
5984:-1.3620491392740599e+000
5985:-1.3631098748099597e+000
5986:-1.3648418156452355e+000
5987:-1.3664149519326838e+000
5988:-1.4976959354856612e+000
5989:-1.4943551234469914e+000
5990:-1.4910961356052645e+000
5991:-1.4893748501238693e+000
5992:-1.6894914598026212e+000
5993:-1.6692476373956877e+000
5994:-1.6457297594343567e+000
5995:-1.6297483556597605e+000
5996:-1.8473593070864289e+000
5997:-1.8057018160756326e+000
5998:-1.7562402083179023e+000
5999:-1.7217829865179974e+000
6000:-1.3651050517523540e+000
6001:-1.3657777863655864e+000
6002:-1.3829679807647808e+000
6003:-1.4077435820963178e+000
6004:-1.4852756967698297e+000
6005:-1.4766200596202390e+000
6006:-1.4774300514944871e+000
6007:-1.4866577561987171e+000
6008:-1.6202549850122510e+000
6009:-1.6024230431205087e+000
6010:-1.5855804019349686e+000
6011:-1.5772390091781809e+000
6012:-1.7067380001053596e+000
6013:-1.6838179970774625e+000
6014:-1.6558568767543895e+000
6015:-1.6358079220059007e+000
6016:-1.4218095579068186e+000
6017:-1.4416083166491807e+000
6018:-1.4625000851023742e+000
6019:-1.4749783723269205e+000
6020:-1.4922415355241541e+000
6021:-1.4987605512845628e+000
6022:-1.5055935266767195e+000
6023:-1.5096341157841717e+000
6024:-1.5738192236226534e+000
6025:-1.5679712063345714e+000
6026:-1.5626233207368854e+000
6027:-1.5601571029070389e+000
6028:-1.6270574511352061e+000
6029:-1.6158006503512377e+000
6030:-1.6061771899139303e+000
6031:-1.6024237779463730e+000
6032:-1.4754448014267727e+000
6033:-1.4614808253238181e+000
6034:-1.4317953477351286e+000
6035:-1.4007978669160808e+000
6036:-1.5091359698952964e+000
6037:-1.4995822235446084e+000
6038:-1.4774819016622669e+000
6039:-1.4536146862838921e+000
6040:-1.5583910919432233e+000
6041:-1.5502700571688961e+000
6042:-1.5326554141051745e+000
6043:-1.5141076002816971e+000
6044:-1.5997926766824369e+000
6045:-1.5896368733095205e+000
6046:-1.5715391070193374e+000
6047:-1.5541825925688526e+000
6048:-1.3744852839725539e+000
6049:-1.3150047977409081e+000
6050:-1.2463706648962898e+000
6051:-1.2002456448107073e+000
6052:-1.4309238444458621e+000
6053:-1.3764254134160663e+000
6054:-1.3124986883344854e+000
6055:-1.2686868264104780e+000
6056:-1.4933595459773317e+000
6057:-1.4389718543276702e+000
6058:-1.3732028625225088e+000
6059:-1.3265440852774997e+000
6060:-1.5327896059438704e+000
6061:-1.4734233769386598e+000
6062:-1.3999130391020707e+000
6063:-1.3464211969904563e+000
6064:-1.1668146622510642e+000
6065:-1.0855081890122253e+000
6066:-9.8269064436213771e-001
6067:-9.0625335062574541e-001
6068:-1.2327608747255783e+000
6069:-1.1397191600055796e+000
6070:-1.0199125973320207e+000
6071:-9.2923767575087746e-001
6072:-1.2886643758880438e+000
6073:-1.1906997014228717e+000
6074:-1.0617637850872867e+000
6075:-9.6212960466641495e-001
6076:-1.3079426950895532e+000
6077:-1.2139525136213201e+000
6078:-1.0877392905519585e+000
6079:-9.8840626051914238e-001
6080:-8.6494193211242498e-001
6081:-7.8430286267223581e-001
6082:-6.7729453838830100e-001
6083:-5.9397112245625816e-001
6084:-8.8061437030475220e-001
6085:-7.8818042840009006e-001
6086:-6.6753457696871088e-001
6087:-5.7503285584636998e-001
6088:-9.0761556211963645e-001
6089:-8.0398424307559635e-001
6090:-6.7082160697888227e-001
6091:-5.7024876560393634e-001
6092:-9.3217275380883913e-001
6093:-8.2336324630073576e-001
6094:-6.8489386234235983e-001
6095:-5.8130802107718771e-001
6096:-5.5306446171326162e-001
6097:-4.8250549459312220e-001
6098:-3.8804786925407664e-001
6099:-3.1390147224691889e-001
6100:-5.3198022995124639e-001
6101:-4.6289545785538982e-001
6102:-3.7269639989073011e-001
6103:-3.0351778887878622e-001
6104:-5.2368221836345918e-001
6105:-4.5013715704782042e-001
6106:-3.5745355433175507e-001
6107:-2.8880393049086062e-001
6108:-5.3163175447704225e-001
6109:-4.5008357837373736e-001
6110:-3.4972490907019549e-001
6111:-2.7721148497037124e-001
6112:-2.7860568928201596e-001
6113:-2.2234173532366733e-001
6114:-1.5151759219970951e-001
6115:-9.9125453376685158e-002
6116:-2.7068296213307974e-001
6117:-2.1752811399069025e-001
6118:-1.5017064316373327e-001
6119:-1.0000400833121104e-001
6120:-2.5750842771474208e-001
6121:-2.0798781417588230e-001
6122:-1.4462450116806325e-001
6123:-9.6972318358696435e-002
6124:-2.4587231102070639e-001
6125:-1.9874175848236600e-001
6126:-1.3794322617487517e-001
6127:-9.1851822737084504e-002
6128:-7.8755847417930028e-002
6129:-5.6631255570112143e-002
6130:-3.4491106756972985e-002
6131:-2.2454428140108638e-002
6132:-8.0618652462450105e-002
6133:-5.9648997490035841e-002
6134:-3.7772171795360625e-002
6135:-2.5025384011724931e-002
6136:-7.8400825893952128e-002
6137:-5.7581666351673486e-002
6138:-3.4343031781816531e-002
6139:-1.9409838203802210e-002
6140:-7.3481191332116780e-002
6141:-5.1572774091774028e-002
6142:-2.5773085959711436e-002
6143:-8.0410715511212167e-003
6144:-4.7859208807769695e+000
6145:-4.4143967690411436e+000
6146:-3.9817244324868826e+000
6147:-3.6830380076406799e+000
6148:-4.3264395838627276e+000
6149:-4.1359970521687872e+000
6150:-3.8986991684587191e+000
6151:-3.7238928419615021e+000
6152:-3.7171734387426953e+000
6153:-3.7609277531997432e+000
6154:-3.7761538639858458e+000
6155:-3.7613431845541796e+000
6156:-3.2477521060113843e+000
6157:-3.4680775590422659e+000
6158:-3.6734332603075956e+000
6159:-3.7788876247441201e+000
6160:-3.5651223949329274e+000
6161:-3.4210085383199762e+000
6162:-3.2652442158467148e+000
6163:-3.1669970314532372e+000
6164:-3.6466887659341936e+000
6165:-3.5415761939574204e+000
6166:-3.4320557253039858e+000
6167:-3.3662108349085424e+000
6168:-3.7368911723643201e+000
6169:-3.6828286422259313e+000
6170:-3.6338451537083447e+000
6171:-3.6104224898548227e+000
6172:-3.7942468304775834e+000
6173:-3.7792290502699148e+000
6174:-3.7765460549586138e+000
6175:-3.7855690499118091e+000
6176:-3.1258470851865447e+000
6177:-3.0594831514853515e+000
6178:-2.9732021034558866e+000
6179:-2.9072771638672346e+000
6180:-3.3382667827305639e+000
6181:-3.2842072670297795e+000
6182:-3.2004396969896756e+000
6183:-3.1273527198761224e+000
6184:-3.6004015096485160e+000
6185:-3.5647020645319247e+000
6186:-3.4868969398960350e+000
6187:-3.4063031502026626e+000
6188:-3.7895800274929758e+000
6189:-3.7690349906490010e+000
6190:-3.6970199110242410e+000
6191:-3.6114788078248607e+000
6192:-2.8662494620196082e+000
6193:-2.7763054387644108e+000
6194:-2.6550743278015205e+000
6195:-2.5595066280116039e+000
6196:-3.0782323926932622e+000
6197:-2.9742909377944913e+000
6198:-2.8449730835634428e+000
6199:-2.7501597965458031e+000
6200:-3.3460781008987013e+000
6201:-3.2202567481065123e+000
6202:-3.0760181230306776e+000
6203:-2.9790787116221025e+000
6204:-3.5423147666389667e+000
6205:-3.3974792264238136e+000
6206:-3.2391002940938609e+000
6207:-3.1386116346713342e+000
6208:-2.5039859176350285e+000
6209:-2.3997366302847367e+000
6210:-2.2795335955822238e+000
6211:-2.1983555664241434e+000
6212:-2.6934585391500199e+000
6213:-2.5793147480699288e+000
6214:-2.4435532924415146e+000
6215:-2.3486161045654730e+000
6216:-2.9219573979948756e+000
6217:-2.8018185027726283e+000
6218:-2.6541657927652582e+000
6219:-2.5472964076429077e+000
6220:-3.0820878515014742e+000
6221:-2.9624393150641621e+000
6222:-2.8118514218784201e+000
6223:-2.7002565587421707e+000
6224:-2.1598579358792631e+000
6225:-2.0938657032769177e+000
6226:-2.0141310682308493e+000
6227:-1.9574753144094181e+000
6228:-2.3039070286611065e+000
6229:-2.2310765461618121e+000
6230:-2.1463559707425293e+000
6231:-2.0886339404240677e+000
6232:-2.4933186544835824e+000
6233:-2.4017557825748308e+000
6234:-2.2985334978176839e+000
6235:-2.2307879651734899e+000
6236:-2.6383198998290571e+000
6237:-2.5252011583024787e+000
6238:-2.3990017237659549e+000
6239:-2.3172483996837685e+000
6240:-1.9275871526576500e+000
6241:-1.8725702324877675e+000
6242:-1.8069801934905596e+000
6243:-1.7610805963515774e+000
6244:-2.0533890384895375e+000
6245:-1.9789164383494249e+000
6246:-1.8901550525777324e+000
6247:-1.8280582724807131e+000
6248:-2.1894374580636398e+000
6249:-2.1008732542258453e+000
6250:-1.9957968998221565e+000
6251:-1.9226575578193608e+000
6252:-2.2720018828927255e+000
6253:-2.1814061751845366e+000
6254:-2.0746353251027698e+000
6255:-2.0008722741572611e+000
6256:-1.7429770516806626e+000
6257:-1.7186068254788303e+000
6258:-1.6866509645200782e+000
6259:-1.6620450337218973e+000
6260:-1.8056649064019301e+000
6261:-1.7791153299771594e+000
6262:-1.7410248342327861e+000
6263:-1.7093765755282893e+000
6264:-1.8966118771688725e+000
6265:-1.8647925039468114e+000
6266:-1.8156842655855412e+000
6267:-1.7726459086853197e+000
6268:-1.9734778296888669e+000
6269:-1.9355111916287484e+000
6270:-1.8753371278149520e+000
6271:-1.8216517600744175e+000
6272:-1.6516029037819924e+000
6273:-1.6393293316184343e+000
6274:-1.6283776782627117e+000
6275:-1.6236051384579524e+000
6276:-1.6961509368440000e+000
6277:-1.6805821941776877e+000
6278:-1.6628457152330947e+000
6279:-1.6510947901853454e+000
6280:-1.7534992254950583e+000
6281:-1.7273577703244993e+000
6282:-1.6929722837639680e+000
6283:-1.6664185954212885e+000
6284:-1.7961006078861439e+000
6285:-1.7568569725757375e+000
6286:-1.7034949788080924e+000
6287:-1.6610505300372087e+000
6288:-1.6194752178510958e+000
6289:-1.6057450770348280e+000
6290:-1.5853118053589172e+000
6291:-1.5678392451061849e+000
6292:-1.6413675077787400e+000
6293:-1.6174151347622052e+000
6294:-1.5901466285792523e+000
6295:-1.5721105488215881e+000
6296:-1.6477707584526247e+000
6297:-1.6099770115155776e+000
6298:-1.5731627773759491e+000
6299:-1.5539321161396418e+000
6300:-1.6344490539902743e+000
6301:-1.5862857381651592e+000
6302:-1.5424632252588584e+000
6303:-1.5225502133581874e+000
6304:-1.5457918449315231e+000
6305:-1.4824489362971913e+000
6306:-1.4020260803329649e+000
6307:-1.3419909661510117e+000
6308:-1.5506672685390746e+000
6309:-1.4852175706862931e+000
6310:-1.3964006135993101e+000
6311:-1.3258545679368743e+000
6312:-1.5362295834604358e+000
6313:-1.4792922262911048e+000
6314:-1.3936092206411850e+000
6315:-1.3197072728471257e+000
6316:-1.5099534763353033e+000
6317:-1.4675169501789775e+000
6318:-1.3942045555383800e+000
6319:-1.3250541250361048e+000
6320:-1.3023980735941341e+000
6321:-1.2114976347470396e+000
6322:-1.0894863596378515e+000
6323:-9.9349766023020747e-001
6324:-1.2826124054731056e+000
6325:-1.1921901524464051e+000
6326:-1.0742632783311032e+000
6327:-9.8391397999346297e-001
6328:-1.2725683365733014e+000
6329:-1.1760338668526849e+000
6330:-1.0549820364723879e+000
6331:-9.6575379461897182e-001
6332:-1.2755406129134801e+000
6333:-1.1695671561908449e+000
6334:-1.0401577799826769e+000
6335:-9.4739331384578740e-001
6336:-9.3811422385536780e-001
6337:-8.2945045049538124e-001
6338:-6.9200281273076414e-001
6339:-5.8980504805259037e-001
6340:-9.3060364656296579e-001
6341:-8.2357813176826089e-001
6342:-6.9013267416775981e-001
6343:-5.9235887993323777e-001
6344:-9.1219838160742328e-001
6345:-8.0245451889729458e-001
6346:-6.6813723800758873e-001
6347:-5.7164110211820018e-001
6348:-8.9155897165250220e-001
6349:-7.7626485074014606e-001
6350:-6.3693267630428452e-001
6351:-5.3821269023854279e-001
6352:-5.3946129449440494e-001
6353:-4.5391079131937384e-001
6354:-3.4881026635573842e-001
6355:-2.7301273121847791e-001
6356:-5.4289659607341778e-001
6357:-4.5500143455028091e-001
6358:-3.4567035095734100e-001
6359:-2.6577559161764175e-001
6360:-5.2359717095823000e-001
6361:-4.3795453736749490e-001
6362:-3.2981310145451881e-001
6363:-2.4955380914513070e-001
6364:-4.9147965733998905e-001
6365:-4.1146723731126156e-001
6366:-3.0916759079463896e-001
6367:-2.3228829913164825e-001
6368:-2.4105085010625363e-001
6369:-1.9469285166513409e-001
6370:-1.3492695069299668e-001
6371:-8.9645048736644736e-002
6372:-2.3283303280625306e-001
6373:-1.8761473027985809e-001
6374:-1.2995563075910518e-001
6375:-8.6741928506409799e-002
6376:-2.1690581091870995e-001
6377:-1.7416968090722365e-001
6378:-1.2052035730308655e-001
6379:-8.0944159163335083e-002
6380:-2.0105212607319009e-001
6381:-1.6105980700720007e-001
6382:-1.1155040947735796e-001
6383:-7.5556947581724210e-002
6384:-7.1373986195048561e-002
6385:-4.8551849399056358e-002
6386:-2.0485894054871598e-002
6387:-2.2921958917951243e-004
6388:-6.9512449682057414e-002
6389:-4.6983823383801519e-002
6390:-1.6303305216554272e-002
6391:8.1554653530110672e-003
6392:-6.6429522140473277e-002
6393:-4.8376605236246532e-002
6394:-1.9461316086982948e-002
6395:6.6323287618058847e-003
6396:-6.4062867764437995e-002
6397:-5.2135758126771389e-002
6398:-2.7978178820421803e-002
6399:-3.1589181522403654e-003
6400:-3.0019998464542268e+000
6401:-3.3099219827694673e+000
6402:-3.6130504475985283e+000
6403:-3.7829944414798957e+000
6404:-2.5539230325049695e+000
6405:-3.0121440162084361e+000
6406:-3.4899105607182284e+000
6407:-3.7801302312166665e+000
6408:-1.9863986946949983e+000
6409:-2.6304015544963346e+000
6410:-3.3240047095503020e+000
6411:-3.7628523361126667e+000
6412:-1.5681175979066000e+000
6413:-2.3459792403149096e+000
6414:-3.1950576855997368e+000
6415:-3.7409403783579096e+000
6416:-3.8208502735603527e+000
6417:-3.8278957557989077e+000
6418:-3.8480342279359201e+000
6419:-3.8706407153503233e+000
6420:-3.8624725364557735e+000
6421:-3.9141300027862203e+000
6422:-3.9746143711990234e+000
6423:-4.0164425800427601e+000
6424:-3.9014210901163300e+000
6425:-4.0122535030021931e+000
6426:-4.1264746813054378e+000
6427:-4.1941128192983284e+000
6428:-3.9208760710812873e+000
6429:-4.0770782217149995e+000
6430:-4.2324521658785894e+000
6431:-4.3198113492585595e+000
6432:-3.8796818828221045e+000
6433:-3.8651163491246057e+000
6434:-3.7982908021182253e+000
6435:-3.7149739569252986e+000
6436:-4.0302181799126346e+000
6437:-4.0219145010275943e+000
6438:-3.9675377886185572e+000
6439:-3.8966343587929884e+000
6440:-4.2138286903940179e+000
6441:-4.2121414164873938e+000
6442:-4.1720072124491834e+000
6443:-4.1157853988961355e+000
6444:-4.3437867893079734e+000
6445:-4.3461492399636956e+000
6446:-4.3156016186654815e+000
6447:-4.2696155371417426e+000
6448:-3.6442953290918672e+000
6449:-3.4929311110775716e+000
6450:-3.3271362282190950e+000
6451:-3.2217166468341834e+000
6452:-3.8294599145554082e+000
6453:-3.6743179959796026e+000
6454:-3.4969019762126057e+000
6455:-3.3780030730527040e+000
6456:-4.0531391524462110e+000
6457:-3.8943603823774260e+000
6458:-3.7033614637881143e+000
6459:-3.5680137748402858e+000
6460:-4.2103369787116272e+000
6461:-4.0493758473024117e+000
6462:-3.8487027290336644e+000
6463:-3.7012760261568589e+000
6464:-3.1635466732259081e+000
6465:-3.0425128951617380e+000
6466:-2.8906459087597072e+000
6467:-2.7784365303529008e+000
6468:-3.3119552304694153e+000
6469:-3.1798905849634704e+000
6470:-3.0196636480183172e+000
6471:-2.9052243950478962e+000
6472:-3.4903398666936587e+000
6473:-3.3379613539885828e+000
6474:-3.1596211547340465e+000
6475:-3.0371099244617397e+000
6476:-3.6136783217143913e+000
6477:-3.4415872753348800e+000
6478:-3.2443283722376171e+000
6479:-3.1120266841371436e+000
6480:-2.7128671733065319e+000
6481:-2.5872832204575178e+000
6482:-2.4464551290297480e+000
6483:-2.3546341555260470e+000
6484:-2.8348618923521718e+000
6485:-2.6915691146480785e+000
6486:-2.5280219708622260e+000
6487:-2.4190582427183056e+000
6488:-2.9615972792794563e+000
6489:-2.8040148461776115e+000
6490:-2.6216518713962031e+000
6491:-2.4981465237078075e+000
6492:-3.0334894746706214e+000
6493:-2.8716589375011461e+000
6494:-2.6831080591988838e+000
6495:-2.5544082982699803e+000
6496:-2.3068800464405097e+000
6497:-2.2158579361087907e+000
6498:-2.1074263129401896e+000
6499:-2.0316105624589964e+000
6500:-2.3659326992238308e+000
6501:-2.2696528350628551e+000
6502:-2.1496815942413967e+000
6503:-2.0617171478526082e+000
6504:-2.4393807564277878e+000
6505:-2.3338794226921498e+000
6506:-2.1959642041580119e+000
6507:-2.0900720063148093e+000
6508:-2.4922649483679669e+000
6509:-2.3775515357000883e+000
6510:-2.2232511161909687e+000
6511:-2.1017178343088401e+000
6512:-2.0014584243199591e+000
6513:-1.9561590335494552e+000
6514:-1.8876750259020092e+000
6515:-1.8285145860012344e+000
6516:-2.0216379142728171e+000
6517:-1.9563600431851937e+000
6518:-1.8694730493116340e+000
6519:-1.8016572953630361e+000
6520:-2.0367688742199745e+000
6521:-1.9463715027283359e+000
6522:-1.8366201192253178e+000
6523:-1.7583269454948161e+000
6524:-2.0381557521275750e+000
6525:-1.9298378788503314e+000
6526:-1.8042015058094945e+000
6527:-1.7190641079133460e+000
6528:-1.8000443052497033e+000
6529:-1.7552044746810147e+000
6530:-1.6953237737083502e+000
6531:-1.6484430712983960e+000
6532:-1.7697333865902942e+000
6533:-1.7198232241496090e+000
6534:-1.6579668968016563e+000
6535:-1.6128912717374850e+000
6536:-1.7222369151058134e+000
6537:-1.6661868571174003e+000
6538:-1.6023335511262875e+000
6539:-1.5600296965112512e+000
6540:-1.6803035123408341e+000
6541:-1.6203371435626239e+000
6542:-1.5559343441346396e+000
6543:-1.5164717180265463e+000
6544:-1.6204900207090398e+000
6545:-1.5704361198772088e+000
6546:-1.5219735594159898e+000
6547:-1.4969413980990989e+000
6548:-1.5888960662823597e+000
6549:-1.5436289083927446e+000
6550:-1.4866625141438670e+000
6551:-1.4445069265038428e+000
6552:-1.5421457523369242e+000
6553:-1.5062157992254275e+000
6554:-1.4420486754077384e+000
6555:-1.3804362746872161e+000
6556:-1.5037154225029357e+000
6557:-1.4758885301515976e+000
6558:-1.4073921167208563e+000
6559:-1.3317463270479850e+000
6560:-1.4838886784835663e+000
6561:-1.4461574693374344e+000
6562:-1.3800713975357248e+000
6563:-1.3172447844031572e+000
6564:-1.4225873398172015e+000
6565:-1.3791450100374514e+000
6566:-1.3166965521376179e+000
6567:-1.2646669419886285e+000
6568:-1.3449297611840658e+000
6569:-1.2838502199349953e+000
6570:-1.2133572796449503e+000
6571:-1.1659719004380920e+000
6572:-1.2842560693470484e+000
6573:-1.2030507403795878e+000
6574:-1.1181036477582378e+000
6575:-1.0681655367470702e+000
6576:-1.2686180451401914e+000
6577:-1.1600731647407316e+000
6578:-1.0292101332888774e+000
6579:-9.3671001609509352e-001
6580:-1.2204135308083803e+000
6581:-1.1146147975049492e+000
6582:-9.9036769036935335e-001
6583:-9.0513728562381301e-001
6584:-1.1253947144696175e+000
6585:-1.0247884639506486e+000
6586:-9.1121313740627896e-001
6587:-8.3698751239031077e-001
6588:-1.0292350581888960e+000
6589:-9.3417465304475766e-001
6590:-8.3076395859988139e-001
6591:-7.6645245807697238e-001
6592:-8.8082188950691276e-001
6593:-7.6410890262951903e-001
6594:-6.2240843169390814e-001
6595:-5.2149711894093109e-001
6596:-8.5351854705040942e-001
6597:-7.4246273837197985e-001
6598:-6.0372586574194909e-001
6599:-5.0187246807624353e-001
6600:-7.9353923830493434e-001
6601:-6.9797078295647641e-001
6602:-5.7332382828620387e-001
6603:-4.7781989669841979e-001
6604:-7.3118661674114172e-001
6605:-6.5312797873941875e-001
6606:-5.4638862525044651e-001
6607:-4.6101784441685223e-001
6608:-4.7507805823961313e-001
6609:-3.9838959074834385e-001
6610:-2.9986879816235112e-001
6611:-2.2547867937985147e-001
6612:-4.5608043984742619e-001
6613:-3.8416480189608165e-001
6614:-2.9137149838671395e-001
6615:-2.2100658435534704e-001
6616:-4.3480571042934518e-001
6617:-3.6903359767674299e-001
6618:-2.8361393939340668e-001
6619:-2.1843215412310030e-001
6620:-4.2147555705932155e-001
6621:-3.6028524834156694e-001
6622:-2.8036122428649113e-001
6623:-2.1903962036378455e-001
6624:-1.9518727027285795e-001
6625:-1.5616509645354054e-001
6626:-1.0723067583470099e-001
6627:-7.1172532478268505e-002
6628:-1.9240955801665605e-001
6629:-1.5453340663662618e-001
6630:-1.0393361475940636e-001
6631:-6.4286804503823361e-002
6632:-1.9238855417908191e-001
6633:-1.5733750732181043e-001
6634:-1.0625154060036837e-001
6635:-6.3179833053731593e-002
6636:-1.9508414374597019e-001
6637:-1.6278854860077599e-001
6638:-1.1207619084985482e-001
6639:-6.6934052316517334e-002
6640:-6.0156182753791171e-002
6641:-5.0732145922883727e-002
6642:-3.0706305865430564e-002
6643:-9.6888192775740397e-003
6644:-5.1097973341086643e-002
6645:-4.1223782069928154e-002
6646:-2.7235840715327087e-002
6647:-1.5704574454475869e-002
6648:-4.6179450188157868e-002
6649:-3.0887871722238468e-002
6650:-1.8648769308283401e-002
6651:-1.4923694693390216e-002
6652:-4.6411160570012704e-002
6653:-2.4211264106522339e-002
6654:-9.8204518314579554e-003
6655:-9.4781188596919294e-003
6656:-1.3549801564746125e+000
6657:-2.1970074994183868e+000
6658:-3.1222468166097901e+000
6659:-3.7217220897433272e+000
6660:-9.8163097528508647e-001
6661:-1.9270148930935578e+000
6662:-2.9784995327742902e+000
6663:-3.6692911002523969e+000
6664:-5.4165740517856786e-001
6665:-1.6015143655074395e+000
6666:-2.7941340772214547e+000
6667:-3.5878982426783494e+000
6668:-2.4249731055902599e-001
6669:-1.3744435563637791e+000
6670:-2.6571242938921511e+000
6671:-3.5173881039497350e+000
6672:-3.9229780874915918e+000
6673:-4.1031214415406110e+000
6674:-4.2797732251890999e+000
6675:-4.3769162141300244e+000
6676:-3.9089074608458168e+000
6677:-4.1349587823139000e+000
6678:-4.3519665831005891e+000
6679:-4.4672378786803764e+000
6680:-3.8740462620576288e+000
6681:-4.1618631422601560e+000
6682:-4.4335582223536578e+000
6683:-4.5737761912610733e+000
6684:-3.8362739691236674e+000
6685:-4.1720702649818531e+000
6686:-4.4862881812309663e+000
6687:-4.6459441489125730e+000
6688:-4.4026508160514197e+000
6689:-4.4061726400570418e+000
6690:-4.3796070127920350e+000
6691:-4.3383303757993916e+000
6692:-4.4953170846108019e+000
6693:-4.4981392347260005e+000
6694:-4.4757438482402057e+000
6695:-4.4410753481428111e+000
6696:-4.6043141025586820e+000
6697:-4.6029195593808065e+000
6698:-4.5818989933499967e+000
6699:-4.5528997821859747e+000
6700:-4.6778000709849632e+000
6701:-4.6708792048836543e+000
6702:-4.6480827527435107e+000
6703:-4.6213700834607483e+000
6704:-4.2806451500724201e+000
6705:-4.1188407886039338e+000
6706:-3.9142722139066781e+000
6707:-3.7619500499896477e+000
6708:-4.3859833241215274e+000
6709:-4.2238800503927845e+000
6710:-4.0151776965587391e+000
6711:-3.8571293687754826e+000
6712:-4.5009288556051592e+000
6713:-4.3402238438374390e+000
6714:-4.1282482696330662e+000
6715:-3.9642084173916374e+000
6716:-4.5715778258609712e+000
6717:-4.4130800276949511e+000
6718:-4.1999315533582964e+000
6719:-4.0322238374983446e+000
6720:-3.6696395337437018e+000
6721:-3.4867933239865994e+000
6722:-3.2778571301267809e+000
6723:-3.1382364826991411e+000
6724:-3.7576680543234433e+000
6725:-3.5558644257021288e+000
6726:-3.3240903516732287e+000
6727:-3.1682789056639673e+000
6728:-3.8555554309085021e+000
6729:-3.6281777724179678e+000
6730:-3.3656159647254285e+000
6731:-3.1879935643387984e+000
6732:-3.9166104681538396e+000
6733:-3.6691075097508188e+000
6734:-3.3823363867047500e+000
6735:-3.1875775450411248e+000
6736:-3.0575524798305902e+000
6737:-2.8938241862191116e+000
6738:-2.7020674751825213e+000
6739:-2.5703997695816092e+000
6740:-3.0816654664764900e+000
6741:-2.9104298047184192e+000
6742:-2.7071608226122437e+000
6743:-2.5654675153172630e+000
6744:-3.0927886132454074e+000
6745:-2.9093038685782915e+000
6746:-2.6880475222022651e+000
6747:-2.5311638627185453e+000
6748:-3.0851351601134862e+000
6749:-2.8902908770582325e+000
6750:-2.6528603315505626e+000
6751:-2.4826327962824268e+000
6752:-2.5056640957820542e+000
6753:-2.3845208587266149e+000
6754:-2.2219855632077228e+000
6755:-2.0942495908526415e+000
6756:-2.4941190827578379e+000
6757:-2.3609206777223508e+000
6758:-2.1873757276514310e+000
6759:-2.0545333342831671e+000
6760:-2.4517484154762244e+000
6761:-2.3068076521376879e+000
6762:-2.1237790459962826e+000
6763:-1.9877891176811195e+000
6764:-2.3975180695579867e+000
6765:-2.2469106990562104e+000
6766:-2.0607018292440484e+000
6767:-1.9252491011938042e+000
6768:-2.0271477047133417e+000
6769:-1.9125198739481202e+000
6770:-1.7805048402404386e+000
6771:-1.6917970124420525e+000
6772:-1.9846786424746206e+000
6773:-1.8629141823591175e+000
6774:-1.7211572482836415e+000
6775:-1.6246765596774038e+000
6776:-1.9149847794470838e+000
6777:-1.7829631773786161e+000
6778:-1.6273580696028398e+000
6779:-1.5199324759942519e+000
6780:-1.8507395310384027e+000
6781:-1.7101197978199529e+000
6782:-1.5430142101153148e+000
6783:-1.4265733369230134e+000
6784:-1.6511065921957857e+000
6785:-1.5864992505671476e+000
6786:-1.5154010105230509e+000
6787:-1.4703486304991893e+000
6788:-1.5793601878969838e+000
6789:-1.5022098450578181e+000
6790:-1.4077447560228449e+000
6791:-1.3397738394345111e+000
6792:-1.4692137440060458e+000
6793:-1.3787786031576439e+000
6794:-1.2577011321863485e+000
6795:-1.1626946749014613e+000
6796:-1.3720224383087758e+000
6797:-1.2731261121079132e+000
6798:-1.1338163368365897e+000
6799:-1.0196899989785195e+000
6800:-1.4558960285329734e+000
6801:-1.4275210539440264e+000
6802:-1.3582862252181707e+000
6803:-1.2820577095383892e+000
6804:-1.3133811216013733e+000
6805:-1.2723265459190531e+000
6806:-1.2014566480601871e+000
6807:-1.1346950057766418e+000
6808:-1.1201942941519782e+000
6809:-1.0578700147607245e+000
6810:-9.7886399836734239e-001
6811:-9.1997090997880027e-001
6812:-9.6467134900707063e-001
6813:-8.8385404207205309e-001
6814:-7.9581725749675103e-001
6815:-7.4085867423906848e-001
6816:-1.2331103801930021e+000
6817:-1.1487003651441705e+000
6818:-1.0633611307502486e+000
6819:-1.0158590948589445e+000
6820:-1.0926213484037195e+000
6821:-1.0199219666752699e+000
6822:-9.5210382271297622e-001
6823:-9.1965003834711778e-001
6824:-8.8607996507187015e-001
6825:-8.3011577126632274e-001
6826:-7.8701820960499469e-001
6827:-7.7559572592771764e-001
6828:-7.1305364396072402e-001
6829:-6.7127443913414375e-001
6830:-6.4885747367904090e-001
6831:-6.5485511971886001e-001
6832:-9.7981622481092190e-001
6833:-8.9061538617402392e-001
6834:-7.9233846347097148e-001
6835:-7.3014097606523143e-001
6836:-8.9435724481405521e-001
6837:-8.2412232160311583e-001
6838:-7.3813360078631174e-001
6839:-6.7632282619688533e-001
6840:-7.6657999280100397e-001
6841:-7.2803397745833931e-001
6842:-6.6685909743736216e-001
6843:-6.1208133540300957e-001
6844:-6.5972178242328428e-001
6845:-6.4938720024261332e-001
6846:-6.1218992543748996e-001
6847:-5.6648745819190160e-001
6848:-6.9692705713767233e-001
6849:-6.2507347419694459e-001
6850:-5.2565421342765883e-001
6851:-4.4532955404539376e-001
6852:-6.4234107739634716e-001
6853:-5.7292676170960288e-001
6854:-4.7886094708793175e-001
6855:-4.0421866267206963e-001
6856:-5.7855524700051564e-001
6857:-5.1138454050746063e-001
6858:-4.2310888948740266e-001
6859:-3.5498710356202423e-001
6860:-5.3414585250021018e-001
6861:-4.6821191510644378e-001
6862:-3.8375842903440566e-001
6863:-3.2017275535186251e-001
6864:-4.0744768620801469e-001
6865:-3.4756349375310697e-001
6866:-2.6893879548509569e-001
6867:-2.0831770557596704e-001
6868:-3.6823831920735051e-001
6869:-3.0852388327481078e-001
6870:-2.2909114477642112e-001
6871:-1.6709955378938007e-001
6872:-3.2105850452765411e-001
6873:-2.6085212655800816e-001
6874:-1.7947017046274835e-001
6875:-1.1503069915386152e-001
6876:-2.8751348624598233e-001
6877:-2.2626174749949385e-001
6878:-1.4254506882389006e-001
6879:-7.5607808923009098e-002
6880:-1.8479604387821097e-001
6881:-1.5413356308507375e-001
6882:-1.0680931747509645e-001
6883:-6.5183847262019617e-002
6884:-1.4249455682674533e-001
6885:-1.1303483541490360e-001
6886:-7.5293271319985172e-002
6887:-4.6874898627143224e-002
6888:-8.7829358007348118e-002
6889:-5.6198639350256929e-002
6890:-2.6201643883948800e-002
6891:-1.1457107625189610e-002
6892:-4.5766409330247289e-002
6893:-1.0667588961171207e-002
6894:1.5687765189776045e-002
6895:2.1666672969965908e-002
6896:-4.5694502604207460e-002
6897:-2.3171573361944205e-002
6898:-7.9060462299928077e-003
6899:-6.5609095651350067e-003
6900:-3.5083457357122753e-002
6901:-2.1359557139545588e-002
6902:-8.9135549253989074e-003
6903:-3.3782323994071052e-003
6904:-9.7251538470965269e-003
6905:-1.1012479672207306e-002
6906:-6.7623875050071237e-003
6907:8.4351742566393488e-004
6908:1.5730206865973310e-002
6909:1.4167272533475476e-003
6910:-2.5663113973858564e-003
6911:5.1550493838609084e-003
6912:-9.4641998543825850e-002
6913:-1.2575923217676668e+000
6914:-2.5769104459456789e+000
6915:-3.4628420349276579e+000
6916:1.6241749589582513e-001
6917:-1.0478403840937260e+000
6918:-2.4180776266017867e+000
6919:-3.3362015741897495e+000
6920:4.4853689507801392e-001
6921:-8.1012422416347685e-001
6922:-2.2312857539529416e+000
6923:-3.1807049729369865e+000
6924:6.2926259014483055e-001
6925:-6.5617027921533322e-001
6926:-2.1043350351618950e+000
6927:-3.0694366645872320e+000
6928:-3.7948018083091926e+000
6929:-4.1524007480421909e+000
6930:-4.4893193373258340e+000
6931:-4.6626098515473009e+000
6932:-3.6837138908539089e+000
6933:-4.0703262838407044e+000
6934:-4.4442299872836850e+000
6935:-4.6452980969472852e+000
6936:-3.5426230408290755e+000
6937:-3.9557381003218439e+000
6938:-4.3643293719554581e+000
6939:-4.5920550881312741e+000
6940:-3.4378963596317815e+000
6941:-3.8627535936402362e+000
6942:-4.2876864267744681e+000
6943:-4.5286062063186359e+000
6944:-4.6976922326570207e+000
6945:-4.6910085376753781e+000
6946:-4.6683619516674515e+000
6947:-4.6416570371485832e+000
6948:-4.6911695734419805e+000
6949:-4.6944686188136879e+000
6950:-4.6784195970646882e+000
6951:-4.6524573875040440e+000
6952:-4.6510711771185242e+000
6953:-4.6727507451189521e+000
6954:-4.6715871226462449e+000
6955:-4.6509283859147539e+000
6956:-4.5969045607981629e+000
6957:-4.6363974495104596e+000
6958:-4.6509947642307470e+000
6959:-4.6373949543630344e+000
6960:-4.5919949510455202e+000
6961:-4.4333187207133307e+000
6962:-4.2183936284880170e+000
6963:-4.0482694587623209e+000
6964:-4.6013345173512930e+000
6965:-4.4378605406611715e+000
6966:-4.2151233684259424e+000
6967:-4.0379510401780028e+000
6968:-4.5980559532083527e+000
6969:-4.4249405110975859e+000
6970:-4.1878779606543457e+000
6971:-3.9985331022136079e+000
6972:-4.5832053451208861e+000
6973:-4.4000647744875927e+000
6974:-4.1488001289152185e+000
6975:-3.9478034634195418e+000
6976:-3.9287314245965654e+000
6977:-3.6697391888385424e+000
6978:-3.3686185377530422e+000
6979:-3.1633052962612185e+000
6980:-3.9103031062184499e+000
6981:-3.6286096516328601e+000
6982:-3.2982056027914926e+000
6983:-3.0706804195016169e+000
6984:-3.8595726951629246e+000
6985:-3.5484114851848965e+000
6986:-3.1800308842614222e+000
6987:-2.9237246039027780e+000
6988:-3.7996061583294853e+000
6989:-3.4659920834308933e+000
6990:-3.0687010484226485e+000
6991:-2.7905025702637691e+000
6992:-3.0560151435430178e+000
6993:-2.8526282070076547e+000
6994:-2.6025542884305417e+000
6995:-2.4215879770913951e+000
6996:-2.9534964048521801e+000
6997:-2.7330117030319618e+000
6998:-2.4560778265812053e+000
6999:-2.2513383330123418e+000
7000:-2.7952089072545077e+000
7001:-2.5579388678408859e+000
7002:-2.2527561895072421e+000
7003:-2.0219215330661218e+000
7004:-2.6544059244905189e+000
7005:-2.4081083632070790e+000
7006:-2.0859915488246799e+000
7007:-1.8385688267221092e+000
7008:-2.3317482821960280e+000
7009:-2.1761593877986463e+000
7010:-1.9867334099359559e+000
7011:-1.8511325175719304e+000
7012:-2.1489467019189039e+000
7013:-1.9754581428078590e+000
7014:-1.7711361486668467e+000
7015:-1.6300901723415586e+000
7016:-1.9026966951331492e+000
7017:-1.6995647782851606e+000
7018:-1.4680447144581066e+000
7019:-1.3142572234659411e+000
7020:-1.7061830412593337e+000
7021:-1.4761845767763671e+000
7022:-1.2187084031781852e+000
7023:-1.0514501526676778e+000
7024:-1.7754804230564865e+000
7025:-1.6301867859608503e+000
7026:-1.4584641444999704e+000
7027:-1.3395377804749189e+000
7028:-1.5512515158516040e+000
7029:-1.3989089533071484e+000
7030:-1.2236894607774886e+000
7031:-1.1061363828397144e+000
7032:-1.2308840590995469e+000
7033:-1.0732910631417909e+000
7034:-8.9840130901714721e-001
7035:-7.8620690631852475e-001
7036:-9.6457715931832000e-001
7037:-8.0636815905371295e-001
7038:-6.3596252952047316e-001
7039:-5.3096529299595263e-001
7040:-1.2847145200535699e+000
7041:-1.1858347914914373e+000
7042:-1.0445221314599040e+000
7043:-9.2741232249946026e-001
7044:-1.0542804825988106e+000
7045:-9.6289892726901716e-001
7046:-8.3100494039846107e-001
7047:-7.2085339341420251e-001
7048:-7.3892136871458869e-001
7049:-6.5648362219736789e-001
7050:-5.3580681249637330e-001
7051:-4.3392928360577865e-001
7052:-4.8781158429511279e-001
7053:-4.1158687200237348e-001
7054:-2.9868889998140835e-001
7055:-2.0253919223546632e-001
7056:-8.6972511719646672e-001
7057:-7.8506750471288056e-001
7058:-6.9752165642966690e-001
7059:-6.4689527897972099e-001
7060:-6.6578697755901250e-001
7061:-5.8657839771077225e-001
7062:-5.1164162770248844e-001
7063:-4.7463404572615314e-001
7064:-3.8270884332315297e-001
7065:-3.1295409209189012e-001
7066:-2.5740898883898905e-001
7067:-2.4033861257764613e-001
7068:-1.5472559195956537e-001
7069:-9.4497481714687304e-002
7070:-5.6680373044352958e-002
7071:-5.7007479291313716e-002
7072:-6.2310463823817930e-001
7073:-5.8849704511558421e-001
7074:-5.7205533992891944e-001
7075:-5.8019031120681719e-001
7076:-4.6062379951863131e-001
7077:-4.4045178405976704e-001
7078:-4.2792935878864125e-001
7079:-4.2829593009793554e-001
7080:-2.4087689121867445e-001
7081:-2.4407347428562187e-001
7082:-2.4246349516265911e-001
7083:-2.3705451954346032e-001
7084:-6.9783328138104450e-002
7085:-9.2881638278516643e-002
7086:-1.0220344615645417e-001
7087:-9.4314632105447715e-002
7088:-5.8781636677557791e-001
7089:-5.8646474412897742e-001
7090:-5.5981067544632479e-001
7091:-5.2133564341976768e-001
7092:-4.3172929101934671e-001
7093:-4.3183289605966763e-001
7094:-4.1563921391763331e-001
7095:-3.9138891049710001e-001
7096:-2.3482781750319370e-001
7097:-2.3187339604951018e-001
7098:-2.2302231285630439e-001
7099:-2.1261595670035399e-001
7100:-8.7492177853134900e-002
7101:-7.9330329016422133e-002
7102:-7.2458902274780704e-002
7103:-6.9931069850864919e-002
7104:-4.9192894177259927e-001
7105:-4.3040322627102112e-001
7106:-3.5209245490940144e-001
7107:-2.9349944542882789e-001
7108:-3.7062842464091811e-001
7109:-3.2375053165878365e-001
7110:-2.6384795243284065e-001
7111:-2.1885235796113831e-001
7112:-2.0134913908811020e-001
7113:-1.7157228061688595e-001
7114:-1.3316375622696533e-001
7115:-1.0404714749994270e-001
7116:-6.4791005012301159e-002
7117:-4.6539033848728560e-002
7118:-2.2617725653297050e-002
7119:-4.2050352226237426e-003
7120:-2.6271963680184091e-001
7121:-2.0383712360879144e-001
7122:-1.2425898829637899e-001
7123:-6.1257902551463732e-002
7124:-1.9386802997073144e-001
7125:-1.4553576612587207e-001
7126:-8.4582079272123925e-002
7127:-3.9401200268912445e-002
7128:-8.6426509363518422e-002
7129:-5.2908004588075146e-002
7130:-1.7547404734421918e-002
7131:3.4463378570085911e-003
7132:7.7837652976575590e-003
7133:2.8589662205147314e-002
7134:4.2637058285935746e-002
7135:4.3846494919810602e-002
7136:-3.3070298143971541e-002
7137:3.8460052138709498e-004
7138:2.5103966361133299e-002
7139:3.0201255607463014e-002
7140:-2.1043851695267936e-002
7141:-3.4670164305227830e-004
7142:1.7889403465094159e-002
7143:2.5451982563155180e-002
7144:7.4456740267477882e-003
7145:6.7058538794790715e-003
7146:1.0348243166850705e-002
7147:1.6510817898086665e-002
7148:3.5879942224433942e-002
7149:1.6340474184148641e-002
7150:5.7543822465324270e-003
7151:8.5467323537023292e-003
7152:2.3152902963641728e-002
7153:6.1430610055655324e-003
7154:4.5911494049942291e-004
7155:8.2093510769592100e-003
7156:2.1220546943074806e-002
7157:7.5341166214140422e-003
7158:4.2551245986992906e-003
7159:1.2432443464496047e-002
7160:1.4718511003742479e-002
7161:5.3182958012291340e-003
7162:5.1537897883551578e-003
7163:1.3901128943232087e-002
7164:7.9394942348125445e-003
7165:1.5514126392264791e-003
7166:3.4567453646116558e-003
7167:1.2426396943326609e-002
7168:7.1648423317036036e-001
7169:-5.7677778091577692e-001
7170:-2.0303756108305873e+000
7171:-2.9966165257273834e+000
7172:8.6057900964388812e-001
7173:-4.3392135096428414e-001
7174:-1.8793632891418159e+000
7175:-2.8331717757355719e+000
7176:9.9199719350284277e-001
7177:-2.8729384442511208e-001
7178:-1.7026265833995533e+000
7179:-2.6268642806039137e+000
7180:1.0498826447009659e+000
7181:-2.0489522218970671e-001
7182:-1.5822736494228333e+000
7183:-2.4736438929470896e+000
7184:-3.3646318106631599e+000
7185:-3.7896525277650728e+000
7186:-4.2180046475760200e+000
7187:-4.4636455559042059e+000
7188:-3.1933276253705558e+000
7189:-3.6093362450580657e+000
7190:-4.0366302061238768e+000
7191:-4.2884703449184256e+000
7192:-2.9718887221910637e+000
7193:-3.3706376728722525e+000
7194:-3.7897918249567035e+000
7195:-4.0448138871434249e+000
7196:-2.8034738364662046e+000
7197:-3.1852569022590296e+000
7198:-3.5935692611414973e+000
7199:-3.8476809677631389e+000
7200:-4.5370886704619338e+000
7201:-4.5890831487778776e+000
7202:-4.6177269993052343e+000
7203:-4.6133731240912725e+000
7204:-4.3709251708906711e+000
7205:-4.4469103426745100e+000
7206:-4.5064089373976364e+000
7207:-4.5254039670782138e+000
7208:-4.1356447274998507e+000
7209:-4.2353500641521196e+000
7210:-4.3259368587290989e+000
7211:-4.3688533386562600e+000
7212:-3.9424810756784678e+000
7213:-4.0546857448609535e+000
7214:-4.1622305064864689e+000
7215:-4.2185805532374578e+000
7216:-4.5613324906406705e+000
7217:-4.3767357717171755e+000
7218:-4.1213379549400200e+000
7219:-3.9156475850816652e+000
7220:-4.4829693193188218e+000
7221:-4.3076571588569923e+000
7222:-4.0566442576456598e+000
7223:-3.8490341719715526e+000
7224:-4.3393031147417922e+000
7225:-4.1833603900554328e+000
7226:-3.9467461850392342e+000
7227:-3.7427432523731103e+000
7228:-4.1990638564737139e+000
7229:-4.0630217421775727e+000
7230:-3.8434771450987806e+000
7231:-3.6464798108851126e+000
7232:-3.7631084049098456e+000
7233:-3.4171574925210928e+000
7234:-3.0004758469165518e+000
7235:-2.7051339142777597e+000
7236:-3.6909432532550785e+000
7237:-3.3228637999061639e+000
7238:-2.8644474103172128e+000
7239:-2.5282096913063130e+000
7240:-3.5799161584798789e+000
7241:-3.1864478100097933e+000
7242:-2.6779330423102343e+000
7243:-2.2915430519774449e+000
7244:-3.4816189096686796e+000
7245:-3.0705913631644970e+000
7246:-2.5260640409648381e+000
7247:-2.1029981397255662e+000
7248:-2.5616377975348423e+000
7249:-2.3059324182529832e+000
7250:-1.9716703809381364e+000
7251:-1.7150295272408473e+000
7252:-2.3632570754236926e+000
7253:-2.0752120081960319e+000
7254:-1.7048549200239698e+000
7255:-1.4248184563835571e+000
7256:-2.0968682622610166e+000
7257:-1.7573241051330861e+000
7258:-1.3284324488645556e+000
7259:-1.0095923291628530e+000
7260:-1.8841794751187775e+000
7261:-1.4985436373022929e+000
7262:-1.0166513563275184e+000
7263:-6.6218423055195097e-001
7264:-1.5755605783971707e+000
7265:-1.3303131188896531e+000
7266:-1.0577531847512065e+000
7267:-8.8233155091666793e-001
7268:-1.2720436040630270e+000
7269:-1.0019152009121832e+000
7270:-7.0545838559452034e-001
7271:-5.1776905873789303e-001
7272:-8.3972373103632325e-001
7273:-5.4588555570800890e-001
7274:-2.2905585832076863e-001
7275:-3.3209067427140630e-002
7276:-4.7964562487086859e-001
7277:-1.7473958282811153e-001
7278:1.4892767704808640e-001
7279:3.4464695052472943e-001
7280:-7.9358566666985730e-001
7281:-6.3496038445597103e-001
7282:-4.6446490521874367e-001
7283:-3.5972114427753310e-001
7284:-4.2679796329884190e-001
7285:-2.6737470816865433e-001
7286:-9.2271849480701093e-002
7287:1.8539277988534459e-002
7288:5.7325594202202290e-002
7289:2.1298451427497109e-001
7290:3.8806127822901765e-001
7291:5.0232647797657526e-001
7292:4.3229013105915143e-001
7293:5.8173974777279236e-001
7294:7.5261993823188955e-001
7295:8.6644551361423805e-001
7296:-3.1607534941434701e-001
7297:-2.3947834629279574e-001
7298:-1.3035662018724800e-001
7299:-4.0150247453969876e-002
7300:6.8278448410201045e-002
7301:1.5310653229525090e-001
7302:2.5665420309495940e-001
7303:3.3091773480098158e-001
7304:5.5909016288028335e-001
7305:6.5558645115154390e-001
7306:7.5313301637392482e-001
7307:8.0761266005144239e-001
7308:9.2761179749008849e-001
7309:1.0324431678782031e+000
7310:1.1247029715154315e+000
7311:1.1635684257631549e+000
7312:3.1313563909527854e-003
7313:5.4072818857893445e-002
7314:8.0201297731291268e-002
7315:7.1223124998841578e-002
7316:3.6151659077442694e-001
7317:3.8985660600007355e-001
7318:3.9320614490777239e-001
7319:3.7159379887063204e-001
7320:8.2291983592939355e-001
7321:8.2530326385300545e-001
7322:8.0322106188190801e-001
7323:7.6818150170805843e-001
7324:1.1679222191404233e+000
7325:1.1535835169294597e+000
7326:1.1158833609009238e+000
7327:1.0733315079948842e+000
7328:5.3013509593663730e-002
7329:1.9265649939096886e-002
7330:-1.1110326001783184e-003
7331:3.5583215487345384e-004
7332:3.4672665719988971e-001
7333:2.9612600672202755e-001
7334:2.4928149104341990e-001
7335:2.2722676132843184e-001
7336:7.3703022158467313e-001
7337:6.7041190733649314e-001
7338:5.9657954411270597e-001
7339:5.4944211977466650e-001
7340:1.0391714378254122e+000
7341:9.6430790292155255e-001
7342:8.7488451579561932e-001
7343:8.1230656820101765e-001
7344:4.6211553259918169e-003
7345:7.8539738640623063e-003
7346:6.7548613774057074e-003
7347:2.0575077267829308e-003
7348:2.1738572135093348e-001
7349:1.9425778122206336e-001
7350:1.6185712810714983e-001
7351:1.3541045627193735e-001
7352:5.2180595129254148e-001
7353:4.6111839022905804e-001
7354:3.8388141899704054e-001
7355:3.2609229265908063e-001
7356:7.7145693363657108e-001
7357:6.7989716976740211e-001
7358:5.6566452364298758e-001
7359:4.8190105649161730e-001
7360:3.0021091308932721e-003
7361:1.3649350134892345e-002
7362:2.8396071756148677e-002
7363:4.0320674912210426e-002
7364:1.2542199699727871e-001
7365:1.1664419289081830e-001
7366:1.0841133663320912e-001
7367:1.0444351912078408e-001
7368:3.0015875221476251e-001
7369:2.6270792870872739e-001
7370:2.2029536695789040e-001
7371:1.9248072676353001e-001
7372:4.4262352250742776e-001
7373:3.8094384753960026e-001
7374:3.0949534924452221e-001
7375:2.6130009638085583e-001
7376:4.8765866052924003e-002
7377:6.2421143774063603e-002
7378:6.7018991307621623e-002
7379:6.0898297358727184e-002
7380:1.0448691670304623e-001
7381:1.0346421444969650e-001
7382:9.3182035989162998e-002
7383:7.8772603206003752e-002
7384:1.7991462800411137e-001
7385:1.5665066175601888e-001
7386:1.2300550463415691e-001
7387:9.4816158685908869e-002
7388:2.3802364275041007e-001
7389:1.9587318026440600e-001
7390:1.4196772139200961e-001
7391:1.0144668121051720e-001
7392:4.8817164507426909e-002
7393:2.2754673403448507e-002
7394:7.1889789779019473e-003
7395:8.7480311871177881e-003
7396:6.3397629890660390e-002
7397:3.2892495308857288e-002
7398:1.4458059431021065e-002
7399:1.5960202096990759e-002
7400:7.4767190538509637e-002
7401:3.9964845694197240e-002
7402:1.9695237271165421e-002
7403:2.2549970043564207e-002
7404:7.7746676556665423e-002
7405:4.1124579924596630e-002
7406:2.1324153615883780e-002
7407:2.6618708012122610e-002
7408:8.6749435258190073e-003
7409:3.2968441465929272e-003
7410:4.5509618174206668e-003
7411:1.1577590418299720e-002
7412:1.7214609372968408e-002
7413:1.3321454871526289e-002
7414:1.0965964955304301e-002
7415:1.1158193591697240e-002
7416:2.6008326577003565e-002
7417:2.4431715792280432e-002
7418:1.7898079509925526e-002
7419:9.6075573727726921e-003
7420:3.2025271542242432e-002
7421:3.1832467953163315e-002
7422:2.1633869047385439e-002
7423:6.5226944521258687e-003
7424:1.0704374141053601e+000
7425:-1.6114695976720061e-001
7426:-1.5098045252011512e+000
7427:-2.3801360238725846e+000
7428:1.0911658183531234e+000
7429:-7.8156161996788695e-002
7430:-1.3572433945674407e+000
7431:-2.1816318052723580e+000
7432:1.0686721212776291e+000
7433:-4.0268071316101692e-003
7434:-1.1744357279709494e+000
7435:-1.9265271771587644e+000
7436:1.0156623288699920e+000
7437:2.8145505955031222e-002
7438:-1.0460268370759551e+000
7439:-1.7337849658577420e+000
7440:-2.7013833600544559e+000
7441:-3.0744563946419676e+000
7442:-3.4775297348137872e+000
7443:-3.7316389368878902e+000
7444:-2.4858083920686687e+000
7445:-2.8428546765236962e+000
7446:-3.2367597670592079e+000
7447:-3.4915349612180986e+000
7448:-2.2040443330990902e+000
7449:-2.5355950551816795e+000
7450:-2.9119275651622654e+000
7451:-3.1635150282371307e+000
7452:-1.9877890658308615e+000
7453:-2.2967989542737817e+000
7454:-2.6559839607696891e+000
7455:-2.9024622910308495e+000
7456:-3.8286332909453642e+000
7457:-3.9484627070440239e+000
7458:-4.0688307672825346e+000
7459:-4.1369390321165227e+000
7460:-3.5928449628926349e+000
7461:-3.7291607170774497e+000
7462:-3.8811008488411871e+000
7463:-3.9801612180906338e+000
7464:-3.2678031936942302e+000
7465:-3.4198278929265178e+000
7466:-3.6058535196154669e+000
7467:-3.7401602483417231e+000
7468:-3.0072710800775195e+000
7469:-3.1674581237097370e+000
7470:-3.3748571134932592e+000
7471:-3.5327433674828370e+000
7472:-4.1265791322367464e+000
7473:-4.0105409520765471e+000
7474:-3.8135326834098460e+000
7475:-3.6313737882947184e+000
7476:-3.9930720870577998e+000
7477:-3.9281686686287194e+000
7478:-3.7937764730966363e+000
7479:-3.6568079485746723e+000
7480:-3.7811144808093911e+000
7481:-3.7793110708958837e+000
7482:-3.7221160091609864e+000
7483:-3.6408095859503118e+000
7484:-3.5935236247954916e+000
7485:-3.6372385703966419e+000
7486:-3.6356781498121902e+000
7487:-3.5944478709951944e+000
7488:-3.4713603475145818e+000
7489:-3.0595972079868199e+000
7490:-2.5024647862950293e+000
7491:-2.0616728359838299e+000
7492:-3.5172767791827697e+000
7493:-3.1244851344230780e+000
7494:-2.5611730606272247e+000
7495:-2.0942229056655424e+000
7496:-3.5298362504475023e+000
7497:-3.1715737518189440e+000
7498:-2.6122309802805588e+000
7499:-2.1198723480170036e+000
7500:-3.5062607445802456e+000
7501:-3.1801628392025640e+000
7502:-2.6308708071126552e+000
7503:-2.1241130017944436e+000
7504:-1.8291801176775933e+000
7505:-1.4128187060037045e+000
7506:-8.8810962616795841e-001
7507:-4.9891575883841449e-001
7508:-1.8378718398156932e+000
7509:-1.3608920925236769e+000
7510:-7.3912411793736110e-001
7511:-2.6296175176961750e-001
7512:-1.8376643983522991e+000
7513:-1.2925918393216631e+000
7514:-5.5782720450085721e-001
7515:2.1848988733041388e-002
7516:-1.8253503880482695e+000
7517:-1.2352007269748455e+000
7518:-4.2264501874227972e-001
7519:2.2993828735003669e-001
7520:-3.0098164989609644e-001
7521:2.2091804688273192e-002
7522:3.6077064284242816e-001
7523:5.6185851275659204e-001
7524:-2.0110946132841888e-002
7525:3.6668013083989159e-001
7526:7.6304086612034605e-001
7527:9.9036825528718919e-001
7528:3.2191303941446081e-001
7529:7.9619930327055011e-001
7530:1.2732403199157518e+000
7531:1.5387683256744995e+000
7532:5.7265252561406788e-001
7533:1.1157079047809999e+000
7534:1.6567066633726737e+000
7535:1.9530619241448917e+000
7536:6.5001132143764417e-001
7537:7.9784987108330585e-001
7538:9.6366936159379701e-001
7539:1.0715121618562180e+000
7540:1.0857795627368934e+000
7541:1.2371197955355864e+000
7542:1.3923488195687128e+000
7543:1.4812944901873839e+000
7544:1.6454467037774161e+000
7545:1.8041839748720916e+000
7546:1.9491791512933851e+000
7547:2.0161404305558652e+000
7548:2.0690681043655226e+000
7549:2.2345527112304251e+000
7550:2.3730858839756679e+000
7551:2.4242387568286095e+000
7552:1.1309678473099327e+000
7553:1.2341621054618541e+000
7554:1.3191325171586235e+000
7555:1.3487242568445283e+000
7556:1.5300717093499945e+000
7557:1.6163103030093611e+000
7558:1.6760785888002190e+000
7559:1.6841509765255036e+000
7560:2.0494806729866490e+000
7561:2.1055128379156942e+000
7562:2.1222891998012674e+000
7563:2.0948486914183850e+000
7564:2.4443113769187814e+000
7565:2.4709202080728678e+000
7566:2.4468999389521104e+000
7567:2.3864686904394823e+000
7568:1.3479961809069287e+000
7569:1.3269437546210239e+000
7570:1.2831108307157966e+000
7571:1.2377473587057610e+000
7572:1.6749667970311397e+000
7573:1.6464456540798051e+000
7574:1.5964795289585709e+000
7575:1.5490121158469041e+000
7576:2.0746408799720299e+000
7577:2.0434701402251467e+000
7578:1.9942784898339783e+000
7579:1.9504473799176585e+000
7580:2.3578248278927152e+000
7581:2.3301538053075994e+000
7582:2.2884001351980929e+000
7583:2.2523348873192339e+000
7584:1.2025127096964463e+000
7585:1.1239821578895128e+000
7586:1.0264717659413394e+000
7587:9.5531029777757848e-001
7588:1.5131337799181221e+000
7589:1.4295866017078132e+000
7590:1.3179488486330264e+000
7591:1.2304834148148094e+000
7592:1.9167540592691983e+000
7593:1.8317196140558454e+000
7594:1.7080368397998287e+000
7595:1.6040415978768814e+000
7596:2.2224376361729479e+000
7597:2.1393279350336005e+000
7598:2.0102809891845301e+000
7599:1.8964864294231902e+000
7600:9.0659022333310013e-001
7601:7.9646771960204343e-001
7602:6.6060539349924663e-001
7603:5.6214135077134975e-001
7604:1.1655289392814241e+000
7605:1.0164872872884765e+000
7606:8.3627814175782755e-001
7607:7.0848775161857380e-001
7608:1.5186008863102554e+000
7609:1.3167582381693785e+000
7610:1.0761200876421049e+000
7611:9.0814880080198701e-001
7612:1.7958453798122367e+000
7613:1.5526072596044620e+000
7614:1.2644737906926562e+000
7615:1.0648227472992133e+000
7616:5.1542848951133480e-001
7617:4.4020589929711523e-001
7618:3.5256840212393931e-001
7619:2.9304230377535323e-001
7620:6.4678038252669201e-001
7621:5.4349317830685950e-001
7622:4.2228963126558011e-001
7623:3.3925599718436006e-001
7624:8.2482651324956757e-001
7625:6.7923287148413758e-001
7626:5.0707767934363823e-001
7627:3.8808141496441706e-001
7628:9.6363174520421446e-001
7629:7.8168055334441211e-001
7630:5.6553133875777628e-001
7631:4.1532020557201815e-001
7632:2.6392480413950281e-001
7633:2.1214252109483855e-001
7634:1.4915921449682046e-001
7635:1.0422617876065257e-001
7636:2.9871870727619793e-001
7637:2.3021177977528298e-001
7638:1.5408249839983573e-001
7639:1.0540338383919108e-001
7640:3.3136886029411045e-001
7641:2.4140886936054182e-001
7642:1.4852972418873742e-001
7643:9.5214135709456457e-002
7644:3.4558526953578195e-001
7645:2.4037752017147476e-001
7646:1.3612992185386902e-001
7647:8.0321622107938084e-002
7648:8.0219034382292068e-002
7649:4.4971833623580482e-002
7650:2.5734610626088630e-002
7651:3.0560507509515798e-002
7652:8.4057141132356170e-002
7653:5.5948308964128744e-002
7654:3.8595486752408287e-002
7655:3.9430622588432260e-002
7656:7.7853755009108405e-002
7657:6.0781941478322929e-002
7658:4.8170432039610113e-002
7659:4.5573243085457335e-002
7660:6.6409194119535955e-002
7661:5.8268090819610083e-002
7662:4.9957858863402274e-002
7663:4.5279653187056630e-002
7664:3.5273226998826186e-002
7665:3.3314387450379110e-002
7666:2.0563946417307473e-002
7667:3.3153029412765636e-003
7668:4.0027501105771718e-002
7669:3.1432581077204522e-002
7670:1.4470139018372172e-002
7671:-2.7462199035252688e-003
7672:4.1982688369795955e-002
7673:2.7312121488158442e-002
7674:8.0679051054645765e-003
7675:-6.7574742440076711e-003
7676:3.9296558243012383e-002
7677:2.2407555204293578e-002
7678:4.4633918913595267e-003
7679:-6.2896101430363841e-003
7680:9.7921009082360555e-001
7681:4.3688999494028442e-002
7682:-9.7278108520239659e-001
7683:-1.6227263913947716e+000
7684:9.0052652555071355e-001
7685:7.2988249072961461e-002
7686:-8.2540200645874173e-001
7687:-1.3992730687728858e+000
7688:7.6842336487934937e-001
7689:9.0051070513464213e-002
7690:-6.4453652651610904e-001
7691:-1.1123560171794062e+000
7692:6.4731594396491332e-001
7693:8.8793717561188090e-002
7694:-5.1375239072140766e-001
7695:-8.9575942126879693e-001
7696:-1.8631870657994734e+000
7697:-2.1595101957695597e+000
7698:-2.5092208357904937e+000
7699:-2.7530749661955132e+000
7700:-1.6126727846775164e+000
7701:-1.8835044234953682e+000
7702:-2.2143187404461360e+000
7703:-2.4530998212619646e+000
7704:-1.2876697947441769e+000
7705:-1.5214519936648763e+000
7706:-1.8230066125269209e+000
7707:-2.0518617221050071e+000
7708:-1.0400875685406095e+000
7709:-1.2431506018495804e+000
7710:-1.5194520230056134e+000
7711:-1.7386657212450265e+000
7712:-2.8582471780153185e+000
7713:-3.0235736816592094e+000
7714:-3.2449723083314987e+000
7715:-3.4184844431071819e+000
7716:-2.5592161940242764e+000
7717:-2.7363173741600479e+000
7718:-2.9896350342547087e+000
7719:-3.1987243162122052e+000
7720:-2.1577708008467424e+000
7721:-2.3480645751039795e+000
7722:-2.6402662094806639e+000
7723:-2.8937041343088170e+000
7724:-1.8436454682435617e+000
7725:-2.0431255251547777e+000
7726:-2.3639177219078462e+000
7727:-2.6504143568508218e+000
7728:-3.4916919373475048e+000
7729:-3.5616537752654032e+000
7730:-3.5892809433166919e+000
7731:-3.5669661712682461e+000
7732:-3.2991442009848866e+000
7733:-3.4230847721605540e+000
7734:-3.5058618790628273e+000
7735:-3.5153788802845995e+000
7736:-3.0285303889295800e+000
7737:-3.2209020741745555e+000
7738:-3.3732017661982630e+000
7739:-3.4225030691813703e+000
7740:-2.8107869719941898e+000
7741:-3.0535307792703055e+000
7742:-3.2565863765634884e+000
7743:-3.3345645400040795e+000
7744:-3.4896739780556887e+000
7745:-3.1802958726468642e+000
7746:-2.6374976489453115e+000
7747:-2.1251066625478088e+000
7748:-3.4559853643309060e+000
7749:-3.1755731489204173e+000
7750:-2.6450845843318436e+000
7751:-2.1244804317500714e+000
7752:-3.3861526265342090e+000
7753:-3.1440141794158381e+000
7754:-2.6301167199256921e+000
7755:-2.0991356277422843e+000
7756:-3.3151698957096296e+000
7757:-3.1014791148034533e+000
7758:-2.5991553009624875e+000
7759:-2.0593554601264179e+000
7760:-1.8191331908936419e+000
7761:-1.2069242541856358e+000
7762:-3.5226966826140083e-001
7763:3.4190239076797696e-001
7764:-1.8074106419128981e+000
7765:-1.1567607198104646e+000
7766:-2.2104585853005715e-001
7767:5.5688803685832799e-001
7768:-1.7688342658358231e+000
7769:-1.0723202797024978e+000
7770:-3.6263378661111831e-002
7771:8.4692836895870482e-001
7772:-1.7190725956363815e+000
7773:-9.8885381209841927e-001
7774:1.2224834373346687e-001
7775:1.0847067949511531e+000
7776:7.1006127080067638e-001
7777:1.2970880639525759e+000
7778:1.8839877982819309e+000
7779:2.2074255790885773e+000
7780:9.7773616009181008e-001
7781:1.6598989082309041e+000
7782:2.3536704172387282e+000
7783:2.7468373059862690e+000
7784:1.3346655016865874e+000
7785:2.1379855921793296e+000
7786:2.9673939862823189e+000
7787:3.4486756075900513e+000
7788:1.6224864121953995e+000
7789:2.5155208941317859e+000
7790:3.4448956190125197e+000
7791:3.9907324355525295e+000
7792:2.3344875812204857e+000
7793:2.5127076855021340e+000
7794:2.6547569376277345e+000
7795:2.6992888146707150e+000
7796:2.9065599447424275e+000
7797:3.1287091584641495e+000
7798:3.2940470462764502e+000
7799:3.3322312473762845e+000
7800:3.6515437012449281e+000
7801:3.9357746787575718e+000
7802:4.1375651873010391e+000
7803:4.1720100559969664e+000
7804:4.2262470942344263e+000
7805:4.5594169738101407e+000
7806:4.7909205258364800e+000
7807:4.8238620635287370e+000
7808:2.7115204816080971e+000
7809:2.7186976651562555e+000
7810:2.6660438334699514e+000
7811:2.5813194418786662e+000
7812:3.3303592719871622e+000
7813:3.2989830495390957e+000
7814:3.1858537271714562e+000
7815:3.0474994749295465e+000
7816:4.1536707249123976e+000
7817:4.0746942698186377e+000
7818:3.8860276400973688e+000
7819:3.6801684794849501e+000
7820:4.7936132761996060e+000
7821:4.6794246223973479e+000
7822:4.4344382425128357e+000
7823:4.1779887206099691e+000
7824:2.5449936689454891e+000
7825:2.5143537571336187e+000
7826:2.4695053861057175e+000
7827:2.4316282735811581e+000
7828:2.9890890341466938e+000
7829:2.9332863918514409e+000
7830:2.8562798178941766e+000
7831:2.7942384399139306e+000
7832:3.5888489955085308e+000
7833:3.4828677850069809e+000
7834:3.3422342498550135e+000
7835:3.2327507097327142e+000
7836:4.0582265808070703e+000
7837:3.9009018698120705e+000
7838:3.6954064429518105e+000
7839:3.5377391519762891e+000
7840:2.4002823514883840e+000
7841:2.3125441729513585e+000
7842:2.1758485244801098e+000
7843:2.0550289472344105e+000
7844:2.7491432986184052e+000
7845:2.6346805336905952e+000
7846:2.4653029773483199e+000
7847:2.3210134077363724e+000
7848:3.1617566896396552e+000
7849:2.9984016994363962e+000
7850:2.7687617032991541e+000
7851:2.5808323925372956e+000
7852:3.4410189951173886e+000
7853:3.2299092243801679e+000
7854:2.9411617594157846e+000
7855:2.7102402591335548e+000
7856:1.9458234596998378e+000
7857:1.6797612078793522e+000
7858:1.3656733861201404e+000
7859:1.1489027116456163e+000
7860:2.1941473602117236e+000
7861:1.8878069115029350e+000
7862:1.5288057916785882e+000
7863:1.2831494715748217e+000
7864:2.4300734362725933e+000
7865:2.0805373819177362e+000
7866:1.6746613680027174e+000
7867:1.3999534583219531e+000
7868:2.5407442990555205e+000
7869:2.1656960107327707e+000
7870:1.7334169454416102e+000
7871:1.4434629822301748e+000
7872:1.0379026158817983e+000
7873:8.3604633430342468e-001
7874:5.9677240759539729e-001
7875:4.3090766423104188e-001
7876:1.1558721166980492e+000
7877:9.2193755913291831e-001
7878:6.4773920967527443e-001
7879:4.6014715769036857e-001
7880:1.2565924959969450e+000
7881:9.9146624203874256e-001
7882:6.8509102922942189e-001
7883:4.7903479326780335e-001
7884:1.2919372531614042e+000
7885:1.0114722748266178e+000
7886:6.9120335666101940e-001
7887:4.7894970959976574e-001
7888:3.5535689287534017e-001
7889:2.4383007823009231e-001
7890:1.3350097617090514e-001
7891:7.4609811428491976e-002
7892:3.7773366342645148e-001
7893:2.5932777477460095e-001
7894:1.3958934910266474e-001
7895:7.3169729812684783e-002
7896:3.9188399244795752e-001
7897:2.7055493205108910e-001
7898:1.4623319261956455e-001
7899:7.5739326896179585e-002
7900:3.9145084901483468e-001
7901:2.7233969202813829e-001
7902:1.5017251667762868e-001
7903:8.0790677104655512e-002
7904:6.0901166921592906e-002
7905:5.4963584355477463e-002
7906:4.7676065345830264e-002
7907:4.2426629991187452e-002
7908:5.7087773376984688e-002
7909:5.0104298589479929e-002
7910:4.1830211028240846e-002
7911:3.6101181816762654e-002
7912:5.7782280841660080e-002
7913:4.8366247444380110e-002
7914:3.7452655684800724e-002
7915:3.0091473487580636e-002
7916:6.2304989538024796e-002
7917:5.0269944110779202e-002
7918:3.6378035223113288e-002
7919:2.7055119912737340e-002
7920:3.6151589434276994e-002
7921:1.9935155643430080e-002
7922:3.9662694373743968e-003
7923:-4.4677625110122986e-003
7924:3.0522219034470225e-002
7925:1.7258550346741775e-002
7926:5.1591782159649477e-003
7927:-2.9662207113809614e-004
7928:2.4986839880933157e-002
7929:1.4951845085998183e-002
7930:7.1190818174138920e-003
7931:4.9730800915566949e-003
7932:2.2000958799716121e-002
7933:1.3975357819632803e-002
7934:8.8294351021363567e-003
7935:8.7905269632380482e-003
7936:5.7730260617959506e-001
7937:8.8061420660327100e-002
7938:-4.4035794206527062e-001
7939:-7.7584013534776475e-001
7940:4.4188948909873493e-001
7941:9.0215368541530894e-002
7942:-2.9496780767502451e-001
7943:-5.4359846685206703e-001
7944:2.5982860045450262e-001
7945:8.6902279040851571e-002
7946:-1.1196455181326884e-001
7947:-2.4746152434670765e-001
7948:1.1897256015531819e-001
7949:8.1585056586045826e-002
7950:2.4024488155368989e-002
7951:-2.5646969286222725e-002
7952:-9.0391177651556531e-001
7953:-1.0907797336108533e+000
7954:-1.3526244081901955e+000
7955:-1.5651298316073188e+000
7956:-6.4192140913559226e-001
7957:-7.9802461871754382e-001
7958:-1.0300795139261800e+000
7959:-1.2265332639503632e+000
7960:-3.0595272877020502e-001
7961:-4.1825854970750143e-001
7962:-6.0714734202022369e-001
7963:-7.7967383819209479e-001
7964:-5.3145217986997111e-002
7965:-1.2953141113271713e-001
7966:-2.8258561400962917e-001
7967:-4.3487348321838398e-001
7968:-1.6687134961458572e+000
7969:-1.8718037437533379e+000
7970:-2.2064383256875213e+000
7971:-2.5096740212184185e+000
7972:-1.3262693257472993e+000
7973:-1.5358224607764368e+000
7974:-1.8963204476364184e+000
7975:-2.2310791294409400e+000
7976:-8.7507578898232696e-001
7977:-1.0981548878985994e+000
7978:-1.4983739492916583e+000
7979:-1.8783927936772098e+000
7980:-5.2772638834409191e-001
7981:-7.6561209615072245e-001
7982:-1.2015150676346484e+000
7983:-1.6198684722225094e+000
7984:-2.6830726273763847e+000
7985:-2.9529195528042722e+000
7986:-3.1870065017258362e+000
7987:-3.2858097682752652e+000
7988:-2.4274824004429121e+000
7989:-2.7458345454854012e+000
7990:-3.0421358895011927e+000
7991:-3.1878912404730912e+000
7992:-2.1031686088743982e+000
7993:-2.4750952297520352e+000
7994:-2.8406781663802172e+000
7995:-3.0391118977836258e+000
7996:-1.8653338945366820e+000
7997:-2.2711653046446738e+000
7998:-2.6810921905211931e+000
7999:-2.9135867936418638e+000
8000:-3.2791683639972073e+000
8001:-3.0869231442847069e+000
8002:-2.5970641424152423e+000
8003:-2.0560726776521197e+000
8004:-3.2118540819066124e+000
8005:-3.0729174290631369e+000
8006:-2.6198234518841366e+000
8007:-2.0843035335686664e+000
8008:-3.1005534802013597e+000
8009:-3.0302748189468822e+000
8010:-2.6239639009744624e+000
8011:-2.0946623939742119e+000
8012:-3.0015456757947345e+000
8013:-2.9817594273088326e+000
8014:-2.6086192425926216e+000
8015:-2.0820898518373117e+000
8016:-1.7120506988701207e+000
8017:-9.6635736632472491e-001
8018:1.8283075890036046e-001
8019:1.1870070331415021e+000
8020:-1.7364293992972790e+000
8021:-9.6603697886750906e-001
8022:2.5143929922325814e-001
8023:1.3331982193471013e+000
8024:-1.7407853236163240e+000
8025:-9.3554704959975266e-001
8026:3.7418121702254770e-001
8027:1.5593972375750784e+000
8028:-1.7220348295908221e+000
8029:-8.8627307419690882e-001
8030:4.9882750942349730e-001
8031:1.7666952940065783e+000
8032:1.7511829945978226e+000
8033:2.6917655225349502e+000
8034:3.6756620377224380e+000
8035:4.2579807751752670e+000
8036:1.9471481432240043e+000
8037:2.9789151392770248e+000
8038:4.0704496325323998e+000
8039:4.7272659012806617e+000
8040:2.2389668589885958e+000
8041:3.3899954805754984e+000
8042:4.6220880620738392e+000
8043:5.3760119642759916e+000
8044:2.4973523134288245e+000
8045:3.7394511231368828e+000
8046:5.0786780506303861e+000
8047:5.9064631563458034e+000
8048:4.5125543522005582e+000
8049:4.8755064511593575e+000
8050:5.1279583612685791e+000
8051:5.1642200723255289e+000
8052:5.0203095003742462e+000
8053:5.4425865578421835e+000
8054:5.7395765678937343e+000
8055:5.7866036596181534e+000
8056:5.7162792054601441e+000
8057:6.2053221812747479e+000
8058:6.5472617917493263e+000
8059:6.5987584075152848e+000
8060:6.2800618622334810e+000
8061:6.8104414085847935e+000
8062:7.1746379449371425e+000
8063:7.2206678695844957e+000
8064:5.1300185765307305e+000
8065:5.0016830499653100e+000
8066:4.7323926337225979e+000
8067:4.4531328608776368e+000
8068:5.7488842953248200e+000
8069:5.6035380198373623e+000
8070:5.3004312641138851e+000
8071:4.9869385655484733e+000
8072:6.5545375496584715e+000
8073:6.3890608453734563e+000
8074:6.0443612538176898e+000
8075:5.6880239314841461e+000
8076:7.1693668637784791e+000
8077:6.9892100615089463e+000
8078:6.6135244034726197e+000
8079:6.2249727644544803e+000
8080:4.3190301819368324e+000
8081:4.1332885331079101e+000
8082:3.8916494786465563e+000
8083:3.7069505538869620e+000
8084:4.8269960527557210e+000
8085:4.5835161516729457e+000
8086:4.2680628896254280e+000
8087:4.0278808562816604e+000
8088:5.4889694071644195e+000
8089:5.1486783709792281e+000
8090:4.7101116640828593e+000
8091:4.3778692519853655e+000
8092:5.9917893290110733e+000
8093:5.5615217261488192e+000
8094:5.0089093152347690e+000
8095:4.5916647189212396e+000
8096:3.5958905136535395e+000
8097:3.3579681442404192e+000
8098:3.0349722824223688e+000
8099:2.7783317103065301e+000
8100:3.8886754016518723e+000
8101:3.5998043551182408e+000
8102:3.2098114069142265e+000
8103:2.9014431404346812e+000
8104:4.1945944091093113e+000
8105:3.8310726994922071e+000
8106:3.3434197667152703e+000
8107:2.9600112230792091e+000
8108:4.3691963962729181e+000
8109:3.9423739309486958e+000
8110:3.3722443887439479e+000
8111:2.9257036081925527e+000
8112:2.5986678451031957e+000
8113:2.2119134461957066e+000
8114:1.7666646093687355e+000
8115:1.4684400247561609e+000
8116:2.7024726162172565e+000
8117:2.2960018328114873e+000
8118:1.8268818638885427e+000
8119:1.5117049415755224e+000
8120:2.7358249480676111e+000
8121:2.3107919917247632e+000
8122:1.8195741440307256e+000
8123:1.4889978080768647e+000
8124:2.6821971122731099e+000
8125:2.2483601673390945e+000
8126:1.7470544192566670e+000
8127:1.4097604237696553e+000
8128:1.3124355575053017e+000
8129:1.0241708265577949e+000
8130:6.9741177470747096e-001
8131:4.8286547820786146e-001
8132:1.3475832829905023e+000
8133:1.0484201088824245e+000
8134:7.1500869526104471e-001
8135:5.0086847736745055e-001
8136:1.3211983007276478e+000
8137:1.0267577584593290e+000
8138:7.0847711202100616e-001
8139:5.1245849420614908e-001
8140:1.2444576838374075e+000
8141:9.6828288965622067e-001
8142:6.8001369078213292e-001
8143:5.1149281583641748e-001
8144:3.9542290641411887e-001
8145:2.7737331583825386e-001
8146:1.5652995118476506e-001
8147:8.8118062207265882e-002
8148:4.1442358679292635e-001
8149:2.9704755907254310e-001
8150:1.7763357881414008e-001
8151:1.1071895695085367e-001
8152:4.3271857226255095e-001
8153:3.1921558956285750e-001
8154:2.0548288580212107e-001
8155:1.4338090204367887e-001
8156:4.4105593368365636e-001
8157:3.3277717764300679e-001
8158:2.2627325562766892e-001
8159:1.7001282063292608e-001
8160:6.9202817507889550e-002
8161:5.4739585134763319e-002
8162:3.7977738760656563e-002
8163:2.6673301686621975e-002
8164:9.0559635650193537e-002
8165:7.0007258588664981e-002
8166:4.5963878560013945e-002
8167:2.9563640056123087e-002
8168:1.2238020481758051e-001
8169:9.3989951099897745e-002
8170:6.0578478186750002e-002
8171:3.7625893497299064e-002
8172:1.4897235887215385e-001
8173:1.1471615129089337e-001
8174:7.4301619936968807e-002
8175:4.6457359987028407e-002
8176:2.1170025637774887e-002
8177:1.3540634131643971e-002
8178:9.4067138715374470e-003
8179:1.0506495566714147e-002
8180:2.2167921622703732e-002
8181:1.3069276557103535e-002
8182:8.8404511210571322e-003
8183:1.1203667792902295e-002
8184:2.7087513994000403e-002
8185:1.3490242149550892e-002
8186:5.8603229274847134e-003
8187:7.4269049229610615e-003
8188:3.3077411517233007e-002
8189:1.4306917650451704e-002
8190:1.8808494053524024e-003
8191:1.2039698600536861e-003
