label=Stress xy
num_items=180

0:-3.0655711309003919e-01
1:1.6284425571679081e-01
2:1.7492600068611749e-01
3:-1.2256758652831587e+00
4:6.8365107528801428e-01
5:6.9889820951684190e-01
6:-2.0423800397960563e+00
7:6.9885310070224316e-01
8:7.9279399849070842e-01
9:1.1870762720211717e-01
10:6.8312748362336320e-02
11:6.4087914596826029e-02
12:4.4260401611826239e-01
13:2.0578918900197177e-01
14:1.7040495286464072e-01
15:4.3013087321816890e-01
16:1.4180511693419742e-01
17:1.7430310260389861e-01
18:-2.3842398303003312e+00
19:4.9561978427351966e-01
20:6.5686536019391495e-01
21:-2.6886694305111010e+00
22:6.4774328101265622e-03
23:3.2323761044365612e-01
24:-2.7249949632447663e+00
25:-5.7961201703349963e-01
26:-3.3614207282631883e-02
27:2.7697854882792189e-01
28:2.4675632171317349e-02
29:1.4590677635135463e-01
30:-2.1970386590628055e-02
31:-1.5996780996829613e-01
32:8.4231054524093227e-02
33:-2.5255509598190723e-01
34:-2.2405467604211846e-01
35:5.6665914204281187e-02
36:5.0093298698222856e-02
37:2.3208633731338846e-02
38:2.0435845426507167e-02
39:1.3843566575661642e-01
40:1.1017466314615561e-01
41:8.6236376485803623e-02
42:1.4192562107860413e-01
43:1.3453279484374991e-01
44:1.1345209131542669e-01
45:2.1026363501962877e-02
46:1.3191495541414164e-02
47:1.1424252244678604e-03
48:7.5188613763983198e-02
49:5.1091813635965301e-02
50:1.4313877186124816e-02
51:9.6581321831713016e-02
52:6.3885022144163750e-02
53:2.0636981726087137e-02
54:1.2865177060529112e-01
55:1.2147448081911391e-01
56:1.0766101056581788e-01
57:6.6553412575314636e-02
58:6.8769739679939254e-02
59:7.1297207358430120e-02
60:-1.0861193440932743e-01
61:-1.4598504662081329e-02
62:2.1572879015242730e-02
63:9.4113905175567766e-02
64:6.3130065449493455e-02
65:1.9983795882517381e-02
66:6.9625681130335140e-02
67:5.1821276502398012e-02
68:1.4604503256408335e-02
69:2.6664860886829879e-02
70:2.4360066530539064e-02
71:9.2147319587647675e-03
72:-8.3100772679156026e-02
73:-2.5004561074743161e-02
74:5.5026731352357900e-03
75:-9.8242320850829040e-02
76:-5.0689378386175626e-02
77:-1.8674063235282774e-02
78:-9.7866058801097944e-02
79:-5.7748653193951387e-02
80:-2.8257327630659745e-02
81:1.0538769068205426e-02
82:1.2640371690023730e-02
83:6.8968489221483782e-03
84:-7.2888889623432844e-03
85:1.5484878063507972e-03
86:-3.8486645647137067e-04
87:-1.6036999996378597e-02
88:-4.2003594209239943e-03
89:-9.5485300763130626e-04
90:-8.7390990299252833e-02
91:-5.3987279164713027e-02
92:-2.8170809520732396e-02
93:-5.8903110787018778e-02
94:-3.7066793409410499e-02
95:-1.9987624334569971e-02
96:-1.7274691611347724e-02
97:-8.6612594557239613e-03
98:-4.2926104776656463e-03
99:-1.6817571552385502e-02
100:-4.7444377002584673e-03
101:-3.4542383890551659e-04
102:-1.1935339442627693e-02
103:-2.9977080719166527e-03
104:-1.2788612736747354e-04
105:-1.8653052789685072e-03
106:5.6783844767424694e-04
107:5.4761760103268112e-04
108:-8.9969400197922572e-02
109:-2.6777141590404746e-01
110:-3.3188843161988257e-01
111:-4.4827293056571030e-02
112:-2.0086474924752382e-01
113:-2.7042770028827762e-01
114:-3.5081334545183140e-02
115:-1.4905092961859548e-01
116:-2.0928198953883054e-01
117:-3.3627646149327162e-01
118:-2.6970916901168429e-01
119:-6.1216049772444353e-02
120:-2.7149205943369065e-01
121:-2.2131035095980234e-01
122:-1.1828651941878066e-01
123:-2.1506153729389374e-01
124:-1.8365153881409410e-01
125:-1.2197841301170213e-01
126:-3.2794606246899768e-02
127:-1.2457848403694773e-01
128:-1.7347809310961149e-01
129:-1.9651168255075683e-02
130:-7.9679612292150412e-02
131:-1.0918068336689328e-01
132:-3.1459306544433241e-03
133:-2.3243982806178148e-02
134:-3.2332745166312016e-02
135:-1.8136992963662582e-01
136:-1.6239440607170624e-01
137:-1.1068595604505573e-01
138:-1.1515569455473716e-01
139:-1.0813683299680886e-01
140:-7.5919624458409121e-02
141:-3.2866941988598554e-02
142:-2.8189574497019327e-02
143:-2.0511079067597089e-02
144:-2.7314203059010724e+00
145:-9.0422157470106135e-01
146:-4.2890047936219822e-01
147:-2.6852067125646610e+00
148:-1.6543200347980180e+00
149:-9.2091027278859805e-01
150:-2.3282301539528323e+00
151:-2.0938581600494328e+00
152:-1.3184752561188384e+00
153:-1.9997899340697417e-01
154:-1.6123862634210054e-01
155:-2.0870638431969210e-01
156:-4.7516551493040060e-01
157:-2.2512739802073958e-01
158:-3.1256157568407500e-01
159:-7.9375743903764329e-01
160:-3.9443894725692774e-01
161:-3.8860486944294276e-01
162:-2.0143803135954337e+00
163:-2.1493736101022156e+00
164:-1.4347879628566460e+00
165:-1.2752291660399937e+00
166:-1.6368754188122927e+00
167:-1.1525794072312967e+00
168:-2.6830739173947277e-01
169:-3.7666026855833246e-01
170:-2.7889915640461765e-01
171:-9.2589288186467122e-01
172:-4.8636008543578862e-01
173:-4.0185850433437031e-01
174:-7.9084449600082130e-01
175:-4.4331803880237136e-01
176:-3.3218456278604841e-01
177:-1.9899937095142514e-01
178:-1.2536433746441419e-01
179:-1.1485668370121159e-01
