x	y	stress_yy
 1.000000000000000e+000	 0.000000000000000e+000	 2.812698031617255e+001
 9.999553790721549e-001	 9.446392261750536e-003	 2.811082944205152e+001
 9.998208276644109e-001	 1.892867080636967e-002	 2.808767141580858e+001
 9.995953221430520e-001	 2.844573836262591e-002	 2.805629295107048e+001
 9.992778519071311e-001	 3.799646941872217e-002	 2.801550625117119e+001
 9.988674201817245e-001	 4.757971027342477e-002	 2.796415162798717e+001
 9.983630448185402e-001	 5.719427911104237e-002	 2.790110013684306e+001
 9.977637591031844e-001	 6.683896610081597e-002	 2.782525622281259e+001
 9.970686125683426e-001	 7.651253352126189e-002	 2.773556037333094e+001
 9.962766718121099e-001	 8.621371590998764e-002	 2.763099177160587e+001
 9.953870213206724e-001	 9.594122023947824e-002	 2.751057094486215e+001
 1.006666714718147e+000	 0.000000000000000e+000	 2.770132828552964e+001
 1.006621796315063e+000	 9.509368658941884e-003	 2.768544160707329e+001
 1.006486347890802e+000	 1.905486284632304e-002	 2.766304336439745e+001
 1.006259338987468e+000	 2.863537797544583e-002	 2.763289325298407e+001
 1.005939752266822e+000	 3.824978103077062e-002	 2.759377746017189e+001
 1.005526584308822e+000	 4.789691061938552e-002	 2.754451134154907e+001
 1.005018846417574e+000	 5.757557704648521e-002	 2.748394211460577e+001
 1.004415565433973e+000	 6.728456241542383e-002	 2.741095156497762e+001
 1.003715784554311e+000	 7.702262075288682e-002	 2.732445876018778e+001
 1.002918564154065e+000	 8.678847815970558e-002	 2.722342276534801e+001
 1.002022982616054e+000	 9.658083298781608e-002	 2.710684535481114e+001
 1.013333517774178e+000	 0.000000000000000e+000	 2.729022998225135e+001
 1.013288301891951e+000	 9.572345891894315e-003	 2.727452226538170e+001
 1.013151956439392e+000	 1.918105656049421e-002	 2.725279943447335e+001
 1.012923444134316e+000	 2.882502010360371e-002	 2.722378599351981e+001
 1.012601740901085e+000	 3.850309600190692e-002	 2.718624341662672e+001
 1.012185836674435e+000	 4.821411517077869e-002	 2.713896337628786e+001
 1.011674736210762e+000	 5.795688003626346e-002	 2.708077049278036e+001
 1.011067459906151e+000	 6.773016463579061e-002	 2.701052509742315e+001
 1.010363044620398e+000	 7.753271474417553e-002	 2.692712600460775e+001
 1.009560544506255e+000	 8.736324802543302e-002	 2.682951328704969e+001
 1.008659031843079e+000	 9.722045421090780e-002	 2.671667104822100e+001
 1.020000397500475e+000	 0.000000000000000e+000	 2.689288541290126e+001
 1.019954884135722e+000	 9.635323850220517e-003	 2.687730222798679e+001
 1.019817641644647e+000	 1.930725172774984e-002	 2.685618084132906e+001
 1.019587625920686e+000	 2.901466441486622e-002	 2.682822195916066e+001
 1.019263806150706e+000	 3.875641388844888e-002	 2.679216363489967e+001
 1.018845165624130e+000	 4.853132337212968e-002	 2.674677512036523e+001
 1.018330702549552e+000	 5.833818741277172e-002	 2.669085966789270e+001
 1.017719430878155e+000	 6.817577198184759e-002	 2.662325734766401e+001
 1.017010381133149e+000	 7.804281460226907e-002	 2.654284787517799e+001
 1.016202601244475e+000	 8.793802450119986e-002	 2.644855344330759e+001
 1.015295157387938e+000	 9.786008278935780e-002	 2.633934155288528e+001
 1.026667342229423e+000	 0.000000000000000e+000	 2.650854769980209e+001
 1.026621531379276e+000	 9.698302423533175e-003	 2.649303493956965e+001
 1.026483391841034e+000	 1.943344812695657e-002	 2.647245065644790e+001
 1.026251872683667e+000	 2.920431057700003e-002	 2.644547305170311e+001
 1.025925936356472e+000	 3.900973424671438e-002	 2.641081804124450e+001
 1.025504559503475e+000	 4.884853466796383e-002	 2.636723370866556e+001
 1.024986733785391e+000	 5.871949850840467e-002	 2.631350315703513e+001
 1.024371466708420e+000	 6.862138367352595e-002	 2.624844737734036e+001
 1.023657782459113e+000	 7.855291943430853e-002	 2.617092812853599e+001
 1.022844722744521e+000	 8.851280658103622e-002	 2.607985082365762e+001
 1.021931347636820e+000	 9.849971760377023e-002	 2.597416741593268e+001
 1.033334340293404e+000	 0.000000000000000e+000	 2.613648256330899e+001
 1.033288231955517e+000	 9.761281501444974e-003	 2.612099573900512e+001
 1.033149195363019e+000	 1.955964553698102e-002	 2.610089308519848e+001
 1.032916172760352e+000	 2.939395825777185e-002	 2.607483158255048e+001
 1.032588119859170e+000	 3.926305663302126e-002	 2.604150628410407e+001
 1.032164006658038e+000	 4.916574850280653e-002	 2.599964534848925e+001
 1.031642818269726e+000	 5.910081265555693e-002	 2.594801293832231e+001
 1.031023555755385e+000	 6.906699893075709e-002	 2.588541213678518e+001
 1.030305236964838e+000	 7.906302834743491e-002	 2.581068787737934e+001
 1.029486897382186e+000	 8.908759325897196e-002	 2.572272988133815e+001
 1.028567590975912e+000	 9.913935753474935e-002	 2.562047559663429e+001
 1.040001380024802e+000	 0.000000000000000e+000	 2.577597768496667e+001
 1.039954974197345e+000	 9.824260973568614e-003	 2.576048114805008e+001
 1.039815040545070e+000	 1.968584373668984e-002	 2.574081277206674e+001
 1.039580514487830e+000	 2.958360712494832e-002	 2.571560959394434e+001
 1.039250344999587e+000	 3.951638060368735e-002	 2.568354707077871e+001
 1.038823495433387e+000	 4.948296432118314e-002	 2.564333467107674e+001
 1.038298944354002e+000	 5.948212918662312e-002	 2.559371881667232e+001
 1.037675686377483e+000	 6.951261697347216e-002	 2.553348584444417e+001
 1.036952733016872e+000	 7.957314044878933e-002	 2.546146498288751e+001
 1.036129113533266e+000	 8.966238352903715e-002	 2.537653133805772e+001
 1.035203875791404e+000	 9.977900146289946e-002	 2.527760888284344e+001
 1.046668449755999e+000	 0.000000000000000e+000	 2.542634200667903e+001
 1.046621746437663e+000	 9.887240729516774e-003	 2.541080818695176e+001
 1.046480915721652e+000	 1.981204250494965e-002	 2.539153413220733e+001
 1.046244886203193e+000	 2.977325684629616e-002	 2.536713820594314e+001
 1.045912600118508e+000	 3.976970571503054e-002	 2.533627752929822e+001
 1.045483014175089e+000	 4.980018156761900e-002	 2.529764410782320e+001
 1.044955100389667e+000	 5.986344743399788e-002	 2.524996781379380e+001
 1.044327846933152e+000	 6.995823702160246e-002	 2.519201939004941e+001
 1.043600258981764e+000	 8.008325484551283e-002	 2.512261347047656e+001
 1.042771359573555e+000	 9.023717638526170e-002	 2.504061161170807e+001
 1.041840190469484e+000	 1.004186482688248e-001	 2.494492533002522e+001
 1.053335537819379e+000	 0.000000000000000e+000	 2.508690505621509e+001
 1.053288537009373e+000	 9.950220658902142e-003	 2.507131371579220e+001
 1.053146809227233e+000	 1.993824162062711e-002	 2.505240070815735e+001
 1.052909276243529e+000	 2.996290708958202e-002	 2.502876698801610e+001
 1.052574873556721e+000	 4.002303152336866e-002	 2.499905259439029e+001
 1.052142551228714e+000	 5.011739968663951e-002	 2.496193329009816e+001
 1.051611274728169e+000	 6.024476673007589e-002	 2.491612358131803e+001
 1.050980025780828e+000	 7.040385829507928e-002	 2.486037976050495e+001
 1.050247803226061e+000	 8.059337064474641e-002	 2.479350296786400e+001
 1.049413623878850e+000	 9.081197082167569e-002	 2.471434226601566e+001
 1.048476523396341e+000	 1.010582968331297e-001	 2.462179772188450e+001
 1.060002632547326e+000	 0.000000000000000e+000	 2.475701629790040e+001
 1.059955334245377e+000	 1.001320065133741e-002	 2.474135380044464e+001
 1.059812709396278e+000	 2.006444086258883e-002	 2.472277455061382e+001
 1.059573672945931e+000	 3.015255752257260e-002	 2.469986335417848e+001
 1.059237153655013e+000	 4.027635758501955e-002	 2.467124441649411e+001
 1.058802094939828e+000	 5.043461812277002e-002	 2.463557847164185e+001
 1.058267455720954e+000	 6.062608640725171e-002	 2.459156583606443e+001
 1.057632211278946e+000	 7.084948001383387e-002	 2.453794948749354e+001
 1.056895354116312e+000	 8.110348695363115e-002	 2.447351816447045e+001
 1.056055894824945e+000	 9.138676583230908e-002	 2.439710948117496e+001
 1.055112862958165e+000	 1.016979460364183e-001	 2.430761305165138e+001
 1.066669722272222e+000	 0.000000000000000e+000	 2.443604450739991e+001
 1.066622126478576e+000	 1.007618059643527e-002	 2.442030310207329e+001
 1.066478604563255e+000	 2.019064000970146e-002	 2.440203562223010e+001
 1.066238064647488e+000	 3.034220781303457e-002	 2.437981198064628e+001
 1.065899428754169e+000	 4.052968345630110e-002	 2.435224179281904e+001
 1.065461633653999e+000	 5.075183632053588e-002	 2.431797197255768e+001
 1.064923631719468e+000	 6.100740579792002e-002	 2.427568981648153e+001
 1.064284391785943e+000	 7.129510139779750e-002	 2.422412611586330e+001
 1.063542900019065e+000	 8.161360287930811e-002	 2.416205829123362e+001
 1.062698160787635e+000	 9.196156041119183e-002	 2.408831354455536e+001
 1.061749197541144e+000	 1.023375947592949e-001	 2.400177202312906e+001
 9.953870213206724e-001	 9.594122023947824e-002	 2.751057094486214e+001
 9.943989199946589e-001	 1.056922649420928e-001	 2.737759046617893e+001
 9.933113650226917e-001	 1.154669775827053e-001	 2.723537907542183e+001
 9.921235000424145e-001	 1.252640057452699e-001	 2.708314809177462e+001
 9.908344898374512e-001	 1.350819710464206e-001	 2.692017253064144e+001
 9.894435211587168e-001	 1.449194694473043e-001	 2.674579391840002e+001
 9.879498035443918e-001	 1.547750715930050e-001	 2.655942304166034e+001
 9.863525701375676e-001	 1.646473231798204e-001	 2.636054262053026e+001
 9.846510785005697e-001	 1.745347453506194e-001	 2.614870989487777e+001
 9.828446114249161e-001	 1.844358351184653e-001	 2.592355911208972e+001
 9.809324777358747e-001	 1.943490658186562e-001	 2.568480390434911e+001
 1.002022982616054e+000	 9.658083298781608e-002	 2.710684535481114e+001
 1.001028293900284e+000	 1.063968851254138e-001	 2.697811601477078e+001
 9.999334885098822e-001	 1.162367629878134e-001	 2.684066409913389e+001
 9.987377043732976e-001	 1.260991051428620e-001	 2.669368685533654e+001
 9.974401007059353e-001	 1.359825240179707e-001	 2.653644506343948e+001
 9.960398588369379e-001	 1.458856062140271e-001	 2.636826587494294e+001
 9.945361830346290e-001	 1.558069128470813e-001	 2.618854558825598e+001
 9.929283013296116e-001	 1.657449799180722e-001	 2.599675235024291e+001
 9.912154663345143e-001	 1.756983187108201e-001	 2.579242877273147e+001
 9.893969560593560e-001	 1.856654162184739e-001	 2.557519445234557e+001
 9.874720747214626e-001	 1.956447355985657e-001	 2.534474838151833e+001
 1.008659031843079e+000	 9.722045421090780e-002	 2.671667104822100e+001
 1.007657755650177e+000	 1.071015146444449e-001	 2.659207226855396e+001
 1.006555699745095e+000	 1.170065585918117e-001	 2.645923310502213e+001
 1.005351996347030e+000	 1.269342156046145e-001	 2.631733728900380e+001
 1.004045799103106e+000	 1.368830889209057e-001	 2.616563198581756e+001
 1.002636283920639e+000	 1.468517557811748e-001	 2.600343065906380e+001
 1.001122649798042e+000	 1.568387677722974e-001	 2.583011587383846e+001
 9.995041196533726e-001	 1.668426511997103e-001	 2.564514202816215e+001
 9.977799411495166e-001	 1.768619074880391e-001	 2.544803800139908e+001
 9.959493875149438e-001	 1.868950136103707e-001	 2.523840970788663e+001
 9.940117583589938e-001	 1.969404225463201e-001	 2.501594254345891e+001
 1.015295157387938e+000	 9.786008278935780e-002	 2.633934155288528e+001
 1.014287293642074e+000	 1.078061522660752e-001	 2.621875634747992e+001
 1.013177987138785e+000	 1.177763630475826e-001	 2.609038807448689e+001
 1.011966364387960e+000	 1.277693356691293e-001	 2.595340750362022e+001
 1.010651573468392e+000	 1.377836641792906e-001	 2.580704880260888e+001
 1.009232784865521e+000	 1.478179164580372e-001	 2.565061242851829e+001
 1.007709192307800e+000	 1.578706345629476e-001	 2.548346796024088e+001
 1.006080013600701e+000	 1.679403351038314e-001	 2.530505686141390e+001
 1.004344491457322e+000	 1.780255096459928e-001	 2.511489516242658e+001
 1.002501894324542e+000	 1.881246251423275e-001	 2.491257604959159e+001
 1.000551517203678e+000	 1.982361243944031e-001	 2.469777234898308e+001
 1.021931347636820e+000	 9.849971760377023e-002	 2.597416741593268e+001
 1.020916896273717e+000	 1.085107967571939e-001	 2.585748194065938e+001
 1.019800339101411e+000	 1.185461750080089e-001	 2.573344709280389e+001
 1.018580796920438e+000	 1.286044638750086e-001	 2.560122123350919e+001
 1.017257412241222e+000	 1.386842482171906e-001	 2.546002614659772e+001
 1.015829350127281e+000	 1.487840865539039e-001	 2.530914995831665e+001
 1.014295799037075e+000	 1.589025114133256e-001	 2.514795000063308e+001
 1.012655971663448e+000	 1.690380297095317e-001	 2.497585560725311e+001
 1.010909105769675e+000	 1.791891231483971e-001	 2.479237083090961e+001
 1.009054465021016e+000	 1.893542486625163e-001	 2.459707706984081e+001
 1.007091339810726e+000	 1.995318388752979e-001	 2.438963559077924e+001
 1.028567590975912e+000	 9.913935753474935e-002	 2.562047559663429e+001
 1.027546551942844e+000	 1.092154468846899e-001	 2.550757871140556e+001
 1.026422744043427e+000	 1.193159931259729e-001	 2.538774376750494e+001
 1.025195282368815e+000	 1.294395987608545e-001	 2.526011726928761e+001
 1.023863303861022e+000	 1.395848394586707e-001	 2.512390922685481e+001
 1.022425968161620e+000	 1.497502643780647e-001	 2.497839610565590e+001
 1.020882458459035e+000	 1.599343965177254e-001	 2.482292372211541e+001
 1.019231982333462e+000	 1.701357330959077e-001	 2.465691007437206e+001
 1.017473772598322e+000	 1.803527459589680e-001	 2.447984809655277e+001
 1.015607088137226e+000	 1.905838820191090e-001	 2.429130832434953e+001
 1.013631214735347e+000	 2.008275637214883e-001	 2.409094145902589e+001
 1.035203875791404e+000	 9.977900146289946e-002	 2.527760888284344e+001
 1.034176249047193e+000	 1.099201014154522e-001	 2.516839172553653e+001
 1.033045190375292e+000	 1.200858160543573e-001	 2.505262666961233e+001
 1.031809809157440e+000	 1.302747388652690e-001	 2.492944891309272e+001
 1.030469236767222e+000	 1.404854363277962e-001	 2.479805729900728e+001
 1.029022627424234e+000	 1.507164482398093e-001	 2.465771729627554e+001
 1.027469159046853e+000	 1.609662880704411e-001	 2.450776392919121e+001
 1.025808034102595e+000	 1.712334433420562e-001	 2.434760464450667e+001
 1.024038480455009e+000	 1.815163760414218e-001	 2.417672210441558e+001
 1.022159752206037e+000	 1.918135230602776e-001	 2.399467689304223e+001
 1.020171130532752e+000	 2.021232966654573e-001	 2.380111012336620e+001
 1.041840190469484e+000	 1.004186482688248e-001	 2.494492533002522e+001
 1.040805975984504e+000	 1.106247591163699e-001	 2.483928090191272e+001
 1.039667666507461e+000	 1.208556424460447e-001	 2.472745879671794e+001
 1.038424365710664e+000	 1.311098827268542e-001	 2.460858345523039e+001
 1.037075199399251e+000	 1.413860372486323e-001	 2.448184315647564e+001
 1.035619316370825e+000	 1.516826364484275e-001	 2.434649303129189e+001
 1.034055889273698e+000	 1.619981842657667e-001	 2.420185802719618e+001
 1.032384115462696e+000	 1.723311585270733e-001	 2.404733581344726e+001
 1.030603217851480e+000	 1.826800113594744e-001	 2.388239961447581e+001
 1.028712445760311e+000	 1.930431696341938e-001	 2.370660095912601e+001
 1.026711075758151e+000	 2.034190354396886e-001	 2.351957233243315e+001
 1.048476523396341e+000	 1.010582968331297e-001	 2.462179772188450e+001
 1.047435721152516e+000	 1.113294187543320e-001	 2.451962048423223e+001
 1.046290160850391e+000	 1.216254709539176e-001	 2.441161705694918e+001
 1.045038940452837e+000	 1.319450288842121e-001	 2.429690167130702e+001
 1.043681180196535e+000	 1.422866406452441e-001	 2.417465264175842e+001
 1.042216023457091e+000	 1.526488273132089e-001	 2.404411541361304e+001
 1.040642637612742e+000	 1.630300832979962e-001	 2.390460556481017e+001
 1.038960214905615e+000	 1.734288767300559e-001	 2.375551175060155e+001
 1.037167973299481e+000	 1.838436498768420e-001	 2.359629857918535e+001
 1.035265157332913e+000	 1.942728195890297e-001	 2.342650940556596e+001
 1.033251038966754e+000	 2.047147777766657e-001	 2.324576903015550e+001
 1.055112862958165e+000	 1.016979460364183e-001	 2.430761305165138e+001
 1.054065472948968e+000	 1.120340790962277e-001	 2.420879853315907e+001
 1.052912661814538e+000	 1.223953002308586e-001	 2.410449177291169e+001
 1.051653521808309e+000	 1.327801758759450e-001	 2.399379733895189e+001
 1.050287167598504e+000	 1.431872449416968e-001	 2.387588417689079e+001
 1.048812737138730e+000	 1.536150191434434e-001	 2.374998869308100e+001
 1.047229392537153e+000	 1.640619833614233e-001	 2.361541779481968e+001
 1.045536320923203e+000	 1.745265960301002e-001	 2.347155187630226e+001
 1.043732735310758e+000	 1.850072895572407e-001	 2.331784773823440e+001
 1.041817875456705e+000	 1.955024707729572e-001	 2.315384142820379e+001
 1.039791008713771e+000	 2.060105214088719e-001	 2.297915098811253e+001
 1.061749197541144e+000	 1.023375947592949e-001	 2.400177202312906e+001
 1.060695219771598e+000	 1.127387389089459e-001	 2.390621643790281e+001
 1.059535157810359e+000	 1.231651289297503e-001	 2.380548620474392e+001
 1.058268098201429e+000	 1.336153222406547e-001	 2.369867677328177e+001
 1.056893150044585e+000	 1.440878485620556e-001	 2.358494831224722e+001
 1.055409445871443e+000	 1.545812102484205e-001	 2.346352882953057e+001
 1.053816142520104e+000	 1.650938826503425e-001	 2.333371725234084e+001
 1.052112422007309e+000	 1.756243145063028e-001	 2.319488645609047e+001
 1.050297492397054e+000	 1.861709283643864e-001	 2.304648622977893e+001
 1.048370588664549e+000	 1.967321210341483e-001	 2.288804616479860e+001
 1.046330973554413e+000	 2.073062640687906e-001	 2.271917845324321e+001
 9.809324777358747e-001	 1.943490658186562e-001	 2.568480390434910e+001
 9.789137024229728e-001	 2.042743766435053e-001	 2.543396537588975e+001
 9.767879280981021e-001	 2.142087061355223e-001	 2.517269466933621e+001
 9.745545470450379e-001	 2.241504565049763e-001	 2.490090919832730e+001
 9.722129807570792e-001	 2.340980083161345e-001	 2.461860555489664e+001
 9.697626806991601e-001	 2.440497210832210e-001	 2.432586106792538e+001
 9.672031290579123e-001	 2.540039338948809e-001	 2.402283518273689e+001
 9.645338394785437e-001	 2.639589660669880e-001	 2.370977064797993e+001
 9.617543577873684e-001	 2.739131178235835e-001	 2.338699449584351e+001
 9.588642626988490e-001	 2.838646710056856e-001	 2.305491880161178e+001
 9.558631665059840e-001	 2.938118898076575e-001	 2.271404120862568e+001
 9.874720747214626e-001	 1.956447355985657e-001	 2.534474838151833e+001
 9.854398408101847e-001	 2.056362156380845e-001	 2.510255615252654e+001
 9.832998945548197e-001	 2.156367744697044e-001	 2.485022072475213e+001
 9.810516241876994e-001	 2.256448036517056e-001	 2.458766108657082e+001
 9.786944473454123e-001	 2.356586729520586e-001	 2.431487726693881e+001
 9.762278118359934e-001	 2.456767309483562e-001	 2.403195194216568e+001
 9.736511963939907e-001	 2.556973056564411e-001	 2.373905186116784e+001
 9.709641114222510e-001	 2.657187051875656e-001	 2.343642907488375e+001
 9.681660997192730e-001	 2.757392184338694e-001	 2.312442195540050e+001
 9.652567371909584e-001	 2.857571157819153e-001	 2.280345599028722e+001
 9.622356335456043e-001	 2.957706498539660e-001	 2.247404433766715e+001
 9.940117583589938e-001	 1.969404225463201e-001	 2.501594254345891e+001
 9.919660656707667e-001	 2.069980726775335e-001	 2.478205901884520e+001
 9.898119472969315e-001	 2.170648617265721e-001	 2.453832572767609e+001
 9.875487874183183e-001	 2.271391705995806e-001	 2.428466318427996e+001
 9.851759998147479e-001	 2.372193582680847e-001	 2.402107470334286e+001
 9.826930286373037e-001	 2.473037623728963e-001	 2.374764805510507e+001
 9.800993491683967e-001	 2.573906998569036e-001	 2.346455693663226e+001
 9.773944685684665e-001	 2.674784676265835e-001	 2.317206224436739e+001
 9.745779266081486e-001	 2.775653432420189e-001	 2.287051313301318e+001
 9.716492963847405e-001	 2.876495856351601e-001	 2.256034784571904e+001
 9.686081850217988e-001	 2.977294358560106e-001	 2.224209430055812e+001
 1.000551517203678e+000	 1.982361243944031e-001	 2.469777234898307e+001
 9.984923655835141e-001	 2.083599453785053e-001	 2.447187449443572e+001
 9.963240749280635e-001	 2.184929654068420e-001	 2.423642310917714e+001
 9.940460253666025e-001	 2.286335547332959e-001	 2.399134017962521e+001
 9.916576268221343e-001	 2.387800615328193e-001	 2.373663215058512e+001
 9.891583197887445e-001	 2.489308125093127e-001	 2.347239162907137e+001
 9.865475760966603e-001	 2.590841135325783e-001	 2.319879890205639e+001
 9.838248996638738e-001	 2.692382503041847e-001	 2.291612325287035e+001
 9.809898272331150e-001	 2.793914890520229e-001	 2.262472406079486e+001
 9.780419290930430e-001	 2.895420772532947e-001	 2.232505166829208e+001
 9.749808097824353e-001	 2.996882443856060e-001	 2.201764800030063e+001
 1.007091339810726e+000	 1.995318388752979e-001	 2.438963559077924e+001
 1.005018729127225e+000	 2.097218313576529e-001	 2.417141436596432e+001
 1.002836266051844e+000	 2.199210830112311e-001	 2.394393705772593e+001
 1.000543326662260e+000	 2.301279534375461e-001	 2.370712706503527e+001
 9.981393170246207e-001	 2.403407800148683e-001	 2.346099380211953e+001
 9.956236739759681e-001	 2.505578785100767e-001	 2.320563445121113e+001
 9.929958658943127e-001	 2.607775437197760e-001	 2.294123552733565e+001
 9.902553934551569e-001	 2.709980501405126e-001	 2.266807423937910e+001
 9.874017903732961e-001	 2.812176526678726e-001	 2.238651963146083e+001
 9.844346241287140e-001	 2.914345873241931e-001	 2.209703348851038e+001
 9.813534966753822e-001	 3.016470720145669e-001	 2.180017098991491e+001
 1.013631214735347e+000	 2.008275637214883e-001	 2.409094145902589e+001
 1.011545144880695e+000	 2.110837282316288e-001	 2.388010127237934e+001
 1.009348509271898e+000	 2.213492120404561e-001	 2.366030212461204e+001
 1.007040679935001e+000	 2.316223640970262e-001	 2.343146876143726e+001
 1.004621059079254e+000	 2.419015109828384e-001	 2.319361340004833e+001
 1.002089079884629e+000	 2.521849575276599e-001	 2.294683753119294e+001
 9.994442072768819e-001	 2.624709874548062e-001	 2.269133353166921e+001
 9.966859386889999e-001	 2.727578640557103e-001	 2.242738607098915e+001
 9.938138048078121e-001	 2.830438308935586e-001	 2.215537329571253e+001
 9.908273703046020e-001	 2.933271125357299e-001	 2.187576777479663e+001
 9.877262345485073e-001	 3.036059153147078e-001	 2.158913718924966e+001
 1.020171130532752e+000	 2.021232966654573e-001	 2.380111012336620e+001
 1.018071601422721e+000	 2.124456336170861e-001	 2.359736830781128e+001
 1.015860793191854e+000	 2.227773499952338e-001	 2.338496284644478e+001
 1.013538073814532e+000	 2.331167840964309e-001	 2.316381975902981e+001
 1.011102841643083e+000	 2.434622517053356e-001	 2.293395389283036e+001
 1.008554526200379e+000	 2.538120467145333e-001	 2.269547077451123e+001
 1.005892588959899e+000	 2.641644417739796e-001	 2.244856827111521e+001
 1.003116524112088e+000	 2.745176889699211e-001	 2.219353804336380e+001
 1.000225859315786e+000	 2.848700205330724e-001	 2.193076677425051e+001
 9.972201564335541e-001	 2.952196495757795e-001	 2.166073715570894e+001
 9.940990122496792e-001	 3.055647708578432e-001	 2.138402861605167e+001
 1.026711075758151e+000	 2.034190354396886e-001	 2.351957233243315e+001
 1.024598087332100e+000	 2.138075451306776e-001	 2.332265864138528e+001
 1.022373106415339e+000	 2.242054943762812e-001	 2.311737338398499e+001
 1.020035496930563e+000	 2.346112108204547e-001	 2.290364377385802e+001
 1.017584653373157e+000	 2.450229994509663e-001	 2.268148710831961e+001
 1.015020001608872e+000	 2.554391432231687e-001	 2.245101267070146e+001
 1.012340999658894e+000	 2.658579037136064e-001	 2.221242344069236e+001
 1.009547138471104e+000	 2.762775218032881e-001	 2.196601759542951e+001
 1.006637942676339e+000	 2.866962183904045e-001	 2.171218978376808e+001
 1.003612971328419e+000	 2.971121951322163e-001	 2.145143215593591e+001
 1.000471818626765e+000	 3.075236352157878e-001	 2.118433513066503e+001
 1.033251038966754e+000	 2.047147777766657e-001	 2.324576903015549e+001
 1.031124591187629e+000	 2.151694603890563e-001	 2.305542515320487e+001
 1.028885437545980e+000	 2.256336426843151e-001	 2.285699717659036e+001
 1.026532937912801e+000	 2.361056416537927e-001	 2.265041341949784e+001
 1.024066482926523e+000	 2.465837514883368e-001	 2.243569344145919e+001
 1.021485494795763e+000	 2.570662442060374e-001	 2.221294999581123e+001
 1.018789428089395e+000	 2.675513703099967e-001	 2.198239079039023e+001
 1.015977770512732e+000	 2.780373594759547e-001	 2.174432003768337e+001
 1.013050043668591e+000	 2.885224212695462e-001	 2.149913977631151e+001
 1.010005803802045e+000	 2.990047458929148e-001	 2.124735094546402e+001
 1.006844642527633e+000	 3.094825049603561e-001	 2.098955419375873e+001
 1.039791008713771e+000	 2.060105214088719e-001	 2.297915098811253e+001
 1.037651101568104e+000	 2.165313770088748e-001	 2.279513008580132e+001
 1.035397775187402e+000	 2.270617924200521e-001	 2.260330661159327e+001
 1.033030385390956e+000	 2.376000739811393e-001	 2.240360989319004e+001
 1.030548318960230e+000	 2.481445050860533e-001	 2.219606155599331e+001
 1.027950994446703e+000	 2.586933468156106e-001	 2.198077752850536e+001
 1.025237862966934e+000	 2.692448385994607e-001	 2.175796985447924e+001
 1.022408408983657e+000	 2.797971989080638e-001	 2.152794829351639e+001
 1.019462151071667e+000	 2.903486259744882e-001	 2.129112169142197e+001
 1.016398642667280e+000	 3.008972985457494e-001	 2.104799910134064e+001
 1.013217472800151e+000	 3.114413766633629e-001	 2.079919063651291e+001
 1.046330973554413e+000	 2.073062640687906e-001	 2.271917845324321e+001
 1.044177607052323e+000	 2.178932926067863e-001	 2.254124471037902e+001
 1.041910107943235e+000	 2.284899410842093e-001	 2.235578270796457e+001
 1.039527827994735e+000	 2.390945051871895e-001	 2.216272267579740e+001
 1.037030150131326e+000	 2.497052575127223e-001	 2.196208809958717e+001
 1.034416489247346e+000	 2.603204482043598e-001	 2.175399777921294e+001
 1.031686293007040e+000	 2.709383056183087e-001	 2.153866769354411e+001
 1.028839042630563e+000	 2.815570370197589e-001	 2.131641265298810e+001
 1.025874253664687e+000	 2.921748293092218e-001	 2.108764772050305e+001
 1.022791476736971e+000	 3.027898497785945e-001	 2.085288938148437e+001
 1.019590298292188e+000	 3.134002468966224e-001	 2.061275644271998e+001
 9.558631665059840e-001	 2.938118898076575e-001	 2.271404120862568e+001
 9.527507155138414e-001	 3.037530213952426e-001	 2.236394542761324e+001
 9.495265899749483e-001	 3.136862962449286e-001	 2.200421757057186e+001
 9.461905054388915e-001	 3.236099293720238e-001	 2.163547958601155e+001
 9.427422136050960e-001	 3.335221213151299e-001	 2.125842806500406e+001
 9.391815029145866e-001	 3.434210590039753e-001	 2.087383341615710e+001
 9.355081991183116e-001	 3.533049166519174e-001	 2.048253874818498e+001
 9.317221658209343e-001	 3.631718566724364e-001	 2.008545844972326e+001
 9.278233049990163e-001	 3.730200306188906e-001	 1.968357645692989e+001
 9.238115574925392e-001	 3.828475801467559e-001	 1.927794420042895e+001
 9.196869034687286e-001	 3.926526379975133e-001	 1.886967822429462e+001
 9.622356335456043e-001	 2.957706498539660e-001	 2.247404433766715e+001
 9.591024327303189e-001	 3.057780561301271e-001	 2.213569619293271e+001
 9.558568128659656e-001	 3.157775532899376e-001	 2.178790592575063e+001
 9.524984876057723e-001	 3.257673444486690e-001	 2.143128627528958e+001
 9.490272069938092e-001	 3.357456181483736e-001	 2.106652399318869e+001
 9.454427580606901e-001	 3.457105492315030e-001	 2.069437902207022e+001
 9.417449653956882e-001	 3.556602997393610e-001	 2.031568337862026e+001
 9.379336916941496e-001	 3.655930198347079e-001	 1.993133973040218e+001
 9.340088382791362e-001	 3.755068487477795e-001	 1.954231965646730e+001
 9.299703455962171e-001	 3.853999157449426e-001	 1.914966158284312e+001
 9.258181936803928e-001	 3.952703411191423e-001	 1.875446838513916e+001
 9.686081850217988e-001	 2.977294358560106e-001	 2.224209430055812e+001
 9.654542341084373e-001	 3.078031176988808e-001	 2.191516884780338e+001
 9.621871196338280e-001	 3.178688380462120e-001	 2.157895811553376e+001
 9.588065533548229e-001	 3.279247881130916e-001	 2.123406848471001e+001
 9.553122836601184e-001	 3.379691444448736e-001	 2.088117996410577e+001
 9.517040961699055e-001	 3.480000697965839e-001	 2.052104537398089e+001
 9.479818143117708e-001	 3.580157140373226e-001	 2.015448923083374e+001
 9.441452998717375e-001	 3.680142150789771e-001	 1.978240632189106e+001
 9.401944535193617e-001	 3.779936998285092e-001	 1.940575995888443e+001
 9.361292153058038e-001	 3.879522851630236e-001	 1.902557990169626e+001
 9.319495651338405e-001	 3.978880789267743e-001	 1.864295994362218e+001
 9.749808097824353e-001	 2.996882443856060e-001	 2.201764800030063e+001
 9.718061085323820e-001	 3.098282025573360e-001	 2.170182061815296e+001
 9.685174992003410e-001	 3.199601468536991e-001	 2.137683475685695e+001
 9.651146916467712e-001	 3.300822565894713e-001	 2.104329323356013e+001
 9.615974326049813e-001	 3.401926963131793e-001	 2.070187235108867e+001
 9.579655062847260e-001	 3.502896166922934e-001	 2.035332108852337e+001
 9.542187349518960e-001	 3.603711554235786e-001	 1.999845998891787e+001
 9.503569794831879e-001	 3.704354381679196e-001	 1.963817973227043e+001
 9.463801398946493e-001	 3.804805795088713e-001	 1.927343938276403e+001
 9.422881558430289e-001	 3.905046839341429e-001	 1.890526430032028e+001
 9.380810070988840e-001	 4.005058468391652e-001	 1.853474370769879e+001
 9.813534966753822e-001	 3.016470720145669e-001	 2.180017098991491e+001
 9.781580448863387e-001	 3.118533071613252e-001	 2.149511728718374e+001
 9.748479404873103e-001	 3.220514760523472e-001	 2.118100485650847e+001
 9.714228914423455e-001	 3.322397461019881e-001	 2.085843568929375e+001
 9.678826428293532e-001	 3.424162698618393e-001	 2.052808536017227e+001
 9.642269774476433e-001	 3.525791859117053e-001	 2.019070222635407e+001
 9.604557164014028e-001	 3.627266197759061e-001	 1.984710631973081e+001
 9.565687196579936e-001	 3.728566848642112e-001	 1.949818791927663e+001
 9.525658865799538e-001	 3.829674834366572e-001	 1.914490579218535e+001
 9.484471564296216e-001	 3.930571075914456e-001	 1.878828509322920e+001
 9.442125088453363e-001	 4.031236402750706e-001	 1.842941491301944e+001
 9.877262345485073e-001	 3.036059153147078e-001	 2.158913718924966e+001
 9.845100320544938e-001	 3.138784279666811e-001	 2.129453292178093e+001
 9.811784324165394e-001	 3.241428219821035e-001	 2.099094554968752e+001
 9.777311417022726e-001	 3.343972528748221e-001	 2.067897892074291e+001
 9.741679033341915e-001	 3.446398611994029e-001	 2.035931080041237e+001
 9.704884987011498e-001	 3.548687734478948e-001	 2.003269208197325e+001
 9.666927477456269e-001	 3.650821029720818e-001	 1.969994568456359e+001
 9.627805095256464e-001	 3.752779509305276e-001	 1.936196512609465e+001
 9.587516827502318e-001	 3.854544072596586e-001	 1.901971275886439e+001
 9.546062062873116e-001	 3.956095516680766e-001	 1.867421765676262e+001
 9.503440596430083e-001	 4.057414546532461e-001	 1.832657314416624e+001
 9.940990122496792e-001	 3.055647708578432e-001	 2.138402861605167e+001
 9.908620589210329e-001	 3.159035614292358e-001	 2.109954961300416e+001
 9.875089639098348e-001	 3.262341809829162e-001	 2.080614185237286e+001
 9.840394313872813e-001	 3.365547731321533e-001	 2.050441366477170e+001
 9.804532031204518e-001	 3.468634664344191e-001	 2.019504786718139e+001
 9.767500590877388e-001	 3.571583752939361e-001	 1.987880098597110e+001
 9.729298180699066e-001	 3.674376008898821e-001	 1.955650216258620e+001
 9.689923382156371e-001	 3.776992321295443e-001	 1.922905172819900e+001
 9.649375175804382e-001	 3.879413466256668e-001	 1.889741943452250e+001
 9.607652946378278e-001	 3.981620116971803e-001	 1.856264232905333e+001
 9.564756487617137e-001	 4.083592853924475e-001	 1.822582226422744e+001
 1.000471818626765e+000	 3.075236352157878e-001	 2.118433513066503e+001
 9.972141143701416e-001	 3.179287040048216e-001	 2.090965723003780e+001
 9.938395238890007e-001	 3.283255493947325e-001	 2.062608642688810e+001
 9.903477494580995e-001	 3.387123030981618e-001	 2.033423810577398e+001
 9.867385311890909e-001	 3.490870816754367e-001	 2.003480293786782e+001
 9.830116476499022e-001	 3.594479874429040e-001	 1.972854611914567e+001
 9.791669164595792e-001	 3.697931094070844e-001	 1.941630628554991e+001
 9.752041948574574e-001	 3.801205242239372e-001	 1.909899409074874e+001
 9.711233802455291e-001	 3.904282971824736e-001	 1.877759043302579e+001
 9.669244107029007e-001	 4.007144832119016e-001	 1.845314431890268e+001
 9.626072654712645e-001	 4.109771279114304e-001	 1.812677035233616e+001
 1.006844642527633e+000	 3.094825049603561e-001	 2.098955419375873e+001
 1.003566187286006e+000	 3.199538521492713e-001	 2.072435318700797e+001
 1.000170101275842e+000	 3.304169235575005e-001	 2.045027936008269e+001
 9.966560848754543e-001	 3.408698389970276e-001	 2.016795766744848e+001
 9.930238765410655e-001	 3.513107030310049e-001	 1.987808937942928e+001
 9.892732534301330e-001	 3.617376058878730e-001	 1.958145133796866e+001
 9.854040319999809e-001	 3.721486244014648e-001	 1.927889488324706e+001
 9.814160685805994e-001	 3.825418229763818e-001	 1.897134443607087e+001
 9.773092599204598e-001	 3.929152545778704e-001	 1.865979572186335e+001
 9.730835437042585e-001	 4.032669617453852e-001	 1.834531362316691e+001
 9.687388990414729e-001	 4.135949776289505e-001	 1.802902964881873e+001
 1.013217472800151e+000	 3.114413766633629e-001	 2.079919063651291e+001
 1.009918266552814e+000	 3.219790023184175e-001	 2.054314222210133e+001
 1.006500684992165e+000	 3.325082998111676e-001	 2.027822795357418e+001
 1.002964426600074e+000	 3.430273770529304e-001	 2.000508481631264e+001
 9.993092281773319e-001	 3.535343266096725e-001	 1.972442736727938e+001
 9.955348654709232e-001	 3.640272266219177e-001	 1.943704701089866e+001
 9.916411537764502e-001	 3.745041417508007e-001	 1.914381093925517e+001
 9.876279485145537e-001	 3.849631241495538e-001	 1.884566072078504e+001
 9.834951457801870e-001	 3.954022144596490e-001	 1.854361052255038e+001
 9.792426828636313e-001	 4.058194428307757e-001	 1.823874495227862e+001
 9.748705387421515e-001	 4.162128299637636e-001	 1.793221650761542e+001
 1.019590298292188e+000	 3.134002468966224e-001	 2.061275644271998e+001
 1.016270341054748e+000	 3.240041509680922e-001	 2.036553618844983e+001
 1.012831263959774e+000	 3.345996744956820e-001	 2.010944652552688e+001
 1.009272763592686e+000	 3.451849134900504e-001	 1.984513887644265e+001
 1.005594575098846e+000	 3.557579485199885e-001	 1.957334371501266e+001
 1.001796472814765e+000	 3.663168456381125e-001	 1.929486986506821e+001
 9.978782708743237e-001	 3.768596573328684e-001	 1.901060345651398e+001
 9.938398237888124e-001	 3.873844235061286e-001	 1.872150652214870e+001
 9.896810269996652e-001	 3.978891724756004e-001	 1.842861521956489e+001
 9.854018174027490e-001	 4.083719220012180e-001	 1.813303766354429e+001
 9.810021738431126e-001	 4.188306803346251e-001	 1.783595135565077e+001
 9.196869034687286e-001	 3.926526379975133e-001	 1.886967822429462e+001
 9.154500070382964e-001	 4.024318639757796e-001	 1.845596493768557e+001
 9.111003186645378e-001	 4.121848497096857e-001	 1.803387168209299e+001
 9.066379396471510e-001	 4.219097086716465e-001	 1.760460072848710e+001
 9.020630121438826e-001	 4.316045495771123e-001	 1.716939524902746e+001
 8.973757194803052e-001	 4.412674774614075e-001	 1.672953524395795e+001
 8.925762864264074e-001	 4.508965947721493e-001	 1.628633315144078e+001
 8.876649794392210e-001	 4.604900024760815e-001	 1.584112914472797e+001
 8.826421068707412e-001	 4.700458011791232e-001	 1.539528612304732e+001
 8.775080191404553e-001	 4.795620922583880e-001	 1.495018440462993e+001
 8.722631088718381e-001	 4.890369790048946e-001	 1.450721613243280e+001
 9.258181936803928e-001	 3.952703411191423e-001	 1.875446838513916e+001
 9.215530510698096e-001	 4.051147624068305e-001	 1.835382501689907e+001
 9.171743645641777e-001	 4.149327685136948e-001	 1.794473683110828e+001
 9.126822361385569e-001	 4.247224603352865e-001	 1.752844714515742e+001
 9.080768088984456e-001	 4.344819339784805e-001	 1.710624267382228e+001
 9.033582673916205e-001	 4.442092818454914e-001	 1.667944935330403e+001
 8.985268378865744e-001	 4.539025937335760e-001	 1.624942783448766e+001
 8.935827886167579e-001	 4.635599579492457e-001	 1.581756864960617e+001
 8.885264299898883e-001	 4.731794624357821e-001	 1.538528705853571e+001
 8.833581147616244e-001	 4.827591959128024e-001	 1.495401758308250e+001
 8.780782381729780e-001	 4.922972490265903e-001	 1.452520823982109e+001
 9.319495651338405e-001	 3.978880789267743e-001	 1.864295994362219e+001
 9.276561759691135e-001	 4.077976963877616e-001	 1.825490661560000e+001
 9.232484909476880e-001	 4.176807237291812e-001	 1.785838026601196e+001
 9.187266127199797e-001	 4.275352492695397e-001	 1.745466091896242e+001
 9.140906853392351e-001	 4.373593565069526e-001	 1.704507414607781e+001
 9.093408945754364e-001	 4.471511252103419e-001	 1.663098679201193e+001
 9.044774681955854e-001	 4.569086325264201e-001	 1.621380235587794e+001
 8.995006762095589e-001	 4.666299541012819e-001	 1.579495603255410e+001
 8.944108310808061e-001	 4.763131652153874e-001	 1.537590941993041e+001
 8.892082879011765e-001	 4.859563419306749e-001	 1.495814490036361e+001
 8.838934445292345e-001	 4.955575622485071e-001	 1.454315970689107e+001
 9.380810070988840e-001	 4.005058468391652e-001	 1.853474370769880e+001
 9.337593710554044e-001	 4.104806612232351e-001	 1.815882477267554e+001
 9.293226871849585e-001	 4.204287105470165e-001	 1.777443596499147e+001
 9.247710588133131e-001	 4.303480705518117e-001	 1.738288976613345e+001
 9.201046309414599e-001	 4.402368121268190e-001	 1.698554601579152e+001
 9.153235905615894e-001	 4.500930024075074e-001	 1.658380754321284e+001
 9.104281669392149e-001	 4.599147058898858e-001	 1.617911544159561e+001
 9.054186318606474e-001	 4.696999855594728e-001	 1.577294398922050e+001
 9.002952998450807e-001	 4.794469040337470e-001	 1.536679522319979e+001
 8.950585283205648e-001	 4.891535247168061e-001	 1.496219317400694e+001
 8.897087177632357e-001	 4.988179129649336e-001	 1.456067777130437e+001
 9.442125088453363e-001	 4.031236402750706e-001	 1.842941491301944e+001
 9.398626256478790e-001	 4.131636522179138e-001	 1.806519824434533e+001
 9.353969426458797e-001	 4.231767241580723e-001	 1.769254104559799e+001
 9.308155638404507e-001	 4.331609192595093e-001	 1.731278409346082e+001
 9.261186351803299e-001	 4.431142958023703e-001	 1.692731700053754e+001
 9.213063448799165e-001	 4.530349082885372e-001	 1.653757375699837e+001
 9.163789237032390e-001	 4.629208085631790e-001	 1.614502790277560e+001
 9.113366452130506e-001	 4.727700469511017e-001	 1.575118733373492e+001
 9.061798259842969e-001	 4.825806734066670e-001	 1.535758874749951e+001
 9.009088257812431e-001	 4.923507386759969e-001	 1.496579173696075e+001
 8.955240476976102e-001	 5.020782954701593e-001	 1.457737254194416e+001
 9.503440596430083e-001	 4.057414546532461e-001	 1.832657314416624e+001
 9.459659290657336e-001	 4.158466646764603e-001	 1.797364945474923e+001
 9.414712467003406e-001	 4.259247597532196e-001	 1.761233574020858e+001
 9.368601172232867e-001	 4.359737904700382e-001	 1.724399699422617e+001
 9.321326875310547e-001	 4.459918024978973e-001	 1.687004819753578e+001
 9.272891470602537e-001	 4.559768377049800e-001	 1.649194977437212e+001
 9.223297280734327e-001	 4.659269352855038e-001	 1.611120266736195e+001
 9.172547059097932e-001	 4.758401329034516e-001	 1.572934303398796e+001
 9.120643992000406e-001	 4.857144678499548e-001	 1.534793657008227e+001
 9.067591700446656e-001	 4.955479782130488e-001	 1.496857246823067e+001
 9.013394241549871e-001	 5.053387040584731e-001	 1.459285702148969e+001
 9.564756487617137e-001	 4.083592853924475e-001	 1.822582226422744e+001
 9.520692706281645e-001	 4.185296939035369e-001	 1.788380445393032e+001
 9.475455887182311e-001	 4.286728125233301e-001	 1.753346337811156e+001
 9.429047083837147e-001	 4.387866792608043e-001	 1.717618425014756e+001
 9.381467774688427e-001	 4.488693271776905e-001	 1.681340310128391e+001
 9.332719866324373e-001	 4.589187855083843e-001	 1.644660215647125e+001
 9.282805696355722e-001	 4.689330807960657e-001	 1.607730481690131e+001
 9.231728035939003e-001	 4.789102380438052e-001	 1.570707025206074e+001
 9.179490091938974e-001	 4.888482818794177e-001	 1.533748760651436e+001
 9.126095508722855e-001	 4.987452377327623e-001	 1.497016982912743e+001
 9.071548369579945e-001	 5.085991330241642e-001	 1.460674713503886e+001
 9.626072654712645e-001	 4.109771279114304e-001	 1.812677035233616e+001
 9.581726396543679e-001	 4.212127352038064e-001	 1.779529288288237e+001
 9.536199580694413e-001	 4.314208776592749e-001	 1.745557037391467e+001
 9.489493267436280e-001	 4.415995807092140e-001	 1.710900433906282e+001
 9.441608944689036e-001	 4.517468648060403e-001	 1.675704762649902e+001
 9.392548531263044e-001	 4.618607465502997e-001	 1.640119971881849e+001
 9.342314379754318e-001	 4.719392398340696e-001	 1.604300162823382e+001
 9.290909279083981e-001	 4.819803569994457e-001	 1.568403038956292e+001
 9.238336456674515e-001	 4.919821100108620e-001	 1.532589315595410e+001
 9.184599580255566e-001	 5.019425116399385e-001	 1.497022090486611e+001
 9.129702759292612e-001	 5.118595766615219e-001	 1.461866176450141e+001
 9.687388990414729e-001	 4.135949776289505e-001	 1.802902964881873e+001
 9.642760254635409e-001	 4.238957838819312e-001	 1.770774794534529e+001
 9.596943441238608e-001	 4.341689503519257e-001	 1.737830622199299e+001
 9.549939617249218e-001	 4.444124898926737e-001	 1.704211844809596e+001
 9.501750280064466e-001	 4.546244103472374e-001	 1.670065013612979e+001
 9.452377360716914e-001	 4.648027156822747e-001	 1.635541357037808e+001
 9.401823226787878e-001	 4.749454071387204e-001	 1.600796261986236e+001
 9.350090684963112e-001	 4.850504843976559e-001	 1.565988713766080e+001
 9.297182983222886e-001	 4.951159467600947e-001	 1.531280695126466e+001
 9.243103812659330e-001	 5.051397943393786e-001	 1.496836545127517e+001
 9.187857308914157e-001	 5.151200292648354e-001	 1.462822278850312e+001
 9.748705387421515e-001	 4.162128299637636e-001	 1.793221650761542e+001
 9.703794173748791e-001	 4.265788352425738e-001	 1.762080638604890e+001
 9.657687362513791e-001	 4.369170257921535e-001	 1.730132349670728e+001
 9.610386027494882e-001	 4.472254018885887e-001	 1.697519049205772e+001
 9.561891675566809e-001	 4.575019587655727e-001	 1.664388147421136e+001
 9.512206249984339e-001	 4.677446877558579e-001	 1.630891715719851e+001
 9.461332133314153e-001	 4.779515774492232e-001	 1.597185960278670e+001
 9.409272150006648e-001	 4.881206148657190e-001	 1.563430653158078e+001
 9.356029568599945e-001	 4.982497866429231e-001	 1.529788521374110e+001
 9.301608103548680e-001	 5.083370802358833e-001	 1.496424594638181e+001
 9.246011916670868e-001	 5.183804851283934e-001	 1.463505512755070e+001
 9.810021738431126e-001	 4.188306803346251e-001	 1.783595135565077e+001
 9.764828047075795e-001	 4.292618845903969e-001	 1.753410847511827e+001
 9.718431238218865e-001	 4.396650991708302e-001	 1.722427785813538e+001
 9.670832392392218e-001	 4.500383117743657e-001	 1.690788713684982e+001
 9.622033025948158e-001	 4.603795050253364e-001	 1.658641500334444e+001
 9.572035094363700e-001	 4.706866576225989e-001	 1.626138631043528e+001
 9.520840995190897e-001	 4.809577455047829e-001	 1.593436673560257e+001
 9.468453570644847e-001	 4.911907430309179e-001	 1.560695700938647e+001
 9.414876109821542e-001	 5.013836241751539e-001	 1.528078671224278e+001
 9.360112350538159e-001	 5.115343637342538e-001	 1.495750764665501e+001
 9.304166480789026e-001	 5.216409385464856e-001	 1.463878679422148e+001
 8.722631088718381e-001	 4.890369790048946e-001	 1.450721613243280e+001
 8.669069994773564e-001	 4.984699794031350e-001	 1.406538286184497e+001
 8.614409475685219e-001	 5.078577791162043e-001	 1.362338814582470e+001
 8.558654737743154e-001	 5.171984938406529e-001	 1.318194023073077e+001
 8.501811411206635e-001	 5.264902458615942e-001	 1.274168440368979e+001
 8.443885549780590e-001	 5.357311652289508e-001	 1.230319687814576e+001
 8.384883629704415e-001	 5.449193909360232e-001	 1.186697860009339e+001
 8.324812548450976e-001	 5.540530720989082e-001	 1.143344900062476e+001
 8.263679623034136e-001	 5.631303691352767e-001	 1.100293972228037e+001
 8.201492587923700e-001	 5.721494549410070e-001	 1.057568834847265e+001
 8.138259592567364e-001	 5.811085160631598e-001	 1.015183216693361e+001
 8.780782381729780e-001	 4.922972490265903e-001	 1.452520823982109e+001
 8.726864211258274e-001	 5.017931365482344e-001	 1.409753472564082e+001
 8.671839286091180e-001	 5.112435220450455e-001	 1.366930585825335e+001
 8.615712847226640e-001	 5.206465086513883e-001	 1.324118665254603e+001
 8.558490562458758e-001	 5.300002061341147e-001	 1.281377457165195e+001
 8.500178525850264e-001	 5.393027320766500e-001	 1.238759331420924e+001
 8.440783256815294e-001	 5.485522130654223e-001	 1.196308652158131e+001
 8.380311698809672e-001	 5.577467858771381e-001	 1.154061143112948e+001
 8.318771217627186e-001	 5.668845986654242e-001	 1.112043250355800e+001
 8.256169599300632e-001	 5.759638121453027e-001	 1.070271505419728e+001
 8.192515047607230e-001	 5.849826007739867e-001	 1.028751891983455e+001
 8.838934445292345e-001	 4.955575622485071e-001	 1.454315970689108e+001
 8.784659193562274e-001	 5.051163377265163e-001	 1.412926750353266e+001
 8.729269857486570e-001	 5.146293098359489e-001	 1.371435948488865e+001
 8.672771712772374e-001	 5.240945691488353e-001	 1.329907092887627e+001
 8.615170464749264e-001	 5.335102129136186e-001	 1.288396576465293e+001
 8.556472247838540e-001	 5.428743462470813e-001	 1.246953024276874e+001
 8.496683624629794e-001	 5.521850833286301e-001	 1.205616652263221e+001
 8.435811584562621e-001	 5.614405485954395e-001	 1.164418620386847e+001
 8.373863542211578e-001	 5.706388779369471e-001	 1.123380383014183e+001
 8.310847335173305e-001	 5.797782198871765e-001	 1.082513039594786e+001
 8.246771221555452e-001	 5.888567368133510e-001	 1.041816688868074e+001
 8.897087177632357e-001	 4.988179129649336e-001	 1.456067777130437e+001
 8.842454840536721e-001	 5.084395771222589e-001	 1.416017181253316e+001
 8.786701089360395e-001	 5.180151365637197e-001	 1.375813308644331e+001
 8.729831234520048e-001	 5.275426692988843e-001	 1.335518040120763e+001
 8.671851018881376e-001	 5.370202600576582e-001	 1.295185820615308e+001
 8.612766617224811e-001	 5.464460014900537e-001	 1.254863012615806e+001
 8.552584635316092e-001	 5.558179953683310e-001	 1.214587240879332e+001
 8.491312108579270e-001	 5.651343537900048e-001	 1.174386731129517e+001
 8.428956500370379e-001	 5.743932003802005e-001	 1.134279645652770e+001
 8.365525699850671e-001	 5.835926714918182e-001	 1.094273418910514e+001
 8.301028019459008e-001	 5.927309174019697e-001	 1.054364096472716e+001
 8.955240476976102e-001	 5.020782954701593e-001	 1.457737254194416e+001
 8.900251051032770e-001	 5.117628489197402e-001	 1.418984140929421e+001
 8.844132881201637e-001	 5.214009963031629e-001	 1.380021385970485e+001
 8.786891312609382e-001	 5.309908030674250e-001	 1.340910527752885e+001
 8.728532125658290e-001	 5.405303414237858e-001	 1.301705445684356e+001
 8.669061535488470e-001	 5.500176915553779e-001	 1.262451698160557e+001
 8.608486191042365e-001	 5.594509428272086e-001	 1.223185851206518e+001
 8.546813173729051e-001	 5.688281949970272e-001	 1.183934800505226e+001
 8.484049995686658e-001	 5.781475594255391e-001	 1.144715089790785e+001
 8.420204597641682e-001	 5.874071602844178e-001	 1.105532228792968e+001
 8.355285346364872e-001	 5.966051357605590e-001	 1.066380014117659e+001
 9.013394241549871e-001	 5.053387040584731e-001	 1.459285702148969e+001
 8.958047723901594e-001	 5.150861473032389e-001	 1.421787320694977e+001
 8.901565132499305e-001	 5.247868831290851e-001	 1.384019215690638e+001
 8.843951847180088e-001	 5.344389644203480e-001	 1.346043866228786e+001
 8.785213685883219e-001	 5.440404508695520e-001	 1.307915946303002e+001
 8.725356904108920e-001	 5.535894101928635e-001	 1.269681645566417e+001
 8.664388193976783e-001	 5.630839193479467e-001	 1.231377979876641e+001
 8.602314682881397e-001	 5.725220657526985e-001	 1.193032094441895e+001
 8.539143931743478e-001	 5.819019485033186e-001	 1.154660562610438e+001
 8.474883932855289e-001	 5.912216795901660e-001	 1.116268683563305e+001
 8.409543107320018e-001	 6.004793851098359e-001	 1.077849782378306e+001
 9.071548369579945e-001	 5.085991330241642e-001	 1.460674713503886e+001
 9.015844757994344e-001	 5.184094664570330e-001	 1.424386729834789e+001
 8.958997742742388e-001	 5.281727911162905e-001	 1.387766151151016e+001
 8.901012738371871e-001	 5.378871473235432e-001	 1.350877659246683e+001
 8.841895600359369e-001	 5.475505822525097e-001	 1.313778061053262e+001
 8.781652624565559e-001	 5.571611511523207e-001	 1.276515590325573e+001
 8.720290546287524e-001	 5.667169185732297e-001	 1.239129198082041e+001
 8.657816538905742e-001	 5.762159595932119e-001	 1.201647834670856e+001
 8.594238212123907e-001	 5.856563610438935e-001	 1.164089726570969e+001
 8.529563609800457e-001	 5.950362227342529e-001	 1.126461651264983e+001
 8.463801207371424e-001	 6.043536586705171e-001	 1.088758213738892e+001
 9.129702759292612e-001	 5.118595766615219e-001	 1.461866176450141e+001
 9.073642052162175e-001	 5.217328005654008e-001	 1.426742698538336e+001
 9.016430611419890e-001	 5.315587143395855e-001	 1.391221867011014e+001
 8.958073886324436e-001	 5.413353457429005e-001	 1.355371807949385e+001
 8.898577769889952e-001	 5.510607294302107e-001	 1.319252778384875e+001
 8.837948598337780e-001	 5.607329081835595e-001	 1.282916447111807e+001
 8.776193150142760e-001	 5.703499341457411e-001	 1.246405163030594e+001
 8.713318644671524e-001	 5.799098700547596e-001	 1.209751213952155e+001
 8.649332740411011e-001	 5.894107904776190e-001	 1.172976079041380e+001
 8.584243532786128e-001	 5.988507830418685e-001	 1.136089678317405e+001
 8.518059551566063e-001	 6.082279496633187e-001	 1.099089622856995e+001
 9.187857308914157e-001	 5.151200292648354e-001	 1.462822278850312e+001
 9.131439505256258e-001	 5.250561438126209e-001	 1.428815881415416e+001
 9.073863638020802e-001	 5.349446468737750e-001	 1.394346363017759e+001
 9.015135191177502e-001	 5.447835536443103e-001	 1.359486515672946e+001
 8.955260095278167e-001	 5.545708862602062e-001	 1.324301343033961e+001
 8.894244726904979e-001	 5.643046750363900e-001	 1.288847318545190e+001
 8.832095907710671e-001	 5.739829597081649e-001	 1.253171629711970e+001
 8.768820903048176e-001	 5.836037906735344e-001	 1.217311411476536e+001
 8.704427420187855e-001	 5.931652302348501e-001	 1.181292971950221e+001
 8.638923606121264e-001	 6.026653538382029e-001	 1.145131014003371e+001
 8.572318044950911e-001	 6.121022513089577e-001	 1.108827856454846e+001
 9.246011916670868e-001	 5.183804851283934e-001	 1.463505512755070e+001
 9.189237016127740e-001	 5.283794903829712e-001	 1.430567261567908e+001
 9.131296722034114e-001	 5.383305827936643e-001	 1.397099968338548e+001
 9.072196553070769e-001	 5.482317649936626e-001	 1.363182293227505e+001
 9.011942477327234e-001	 5.580810466000489e-001	 1.328885262921227e+001
 8.950540911746555e-001	 5.678764454606223e-001	 1.294271504357661e+001
 8.887998721159427e-001	 5.776159889031850e-001	 1.259394462960576e+001
 8.824323216905130e-001	 5.872977149857288e-001	 1.224297608435355e+001
 8.759522155037509e-001	 5.969196737459424e-001	 1.189013631450984e+001
 8.693603734114814e-001	 6.064799284484465e-001	 1.153563634796500e+001
 8.626576592572942e-001	 6.159765568281508e-001	 1.117956322853282e+001
 9.304166480789026e-001	 5.216409385464856e-001	 1.463878679422147e+001
 9.247034483627793e-001	 5.317028344607302e-001	 1.431958155192665e+001
 9.188729762948830e-001	 5.417165161740593e-001	 1.399443346426131e+001
 9.129257872143954e-001	 5.516799737568476e-001	 1.366419964686109e+001
 9.068624816840354e-001	 5.615912043072900e-001	 1.332966316507934e+001
 9.006837054341905e-001	 5.714482132060662e-001	 1.299152510941073e+001
 8.943901492657200e-001	 5.812490153734854e-001	 1.265039649801440e+001
 8.879825489111826e-001	 5.909916365275353e-001	 1.230679003750291e+001
 8.814616848543042e-001	 6.006741144412503e-001	 1.196111177601352e+001
 8.748283821075730e-001	 6.102945001977893e-001	 1.161365268534710e+001
 8.680835099479130e-001	 6.198508594416141e-001	 1.126458021162577e+001
 8.138259592567364e-001	 5.811085160631598e-001	 1.015183216693361e+001
 8.073989196223579e-001	 5.900057536711100e-001	 9.731215181748118e+000
 8.008690357874088e-001	 5.988393841156299e-001	 9.314353713421248e+000
 7.942372439580684e-001	 6.076076406512598e-001	 8.902271973584133e+000
 7.875045204774031e-001	 6.163087747742401e-001	 8.495931218410400e+000
 7.806718813845675e-001	 6.249410573556360e-001	 8.096222159473049e+000
 7.737403819358265e-001	 6.335027797617577e-001	 7.703957500663987e+000
 7.667111160878265e-001	 6.419922549603809e-001	 7.319864643473043e+000
 7.595852159436007e-001	 6.504078186112841e-001	 6.944578603531090e+000
 7.523638511618763e-001	 6.587478301396494e-001	 6.578635181654067e+000
 7.450482283302942e-001	 6.670106737908847e-001	 6.222444637028544e+000
 8.192515047607230e-001	 5.849826007739867e-001	 1.028751891983454e+001
 8.127816178867238e-001	 5.939391537284960e-001	 9.875095903444100e+000
 8.062082011789851e-001	 6.028316754685040e-001	 9.466518227586402e+000
 7.995321970851740e-001	 6.116583874701552e-001	 9.062954374473357e+000
 7.927545884574261e-001	 6.204175295729068e-001	 8.665514176361414e+000
 7.858763981086077e-001	 6.291073611202075e-001	 8.275240744391484e+000
 7.788986883301446e-001	 6.377261620873864e-001	 7.893102509942648e+000
 7.718225603718486e-001	 6.462722341952493e-001	 7.519985422628567e+000
 7.646491538842304e-001	 6.547439020078860e-001	 7.156685349732765e+000
 7.573796463238672e-001	 6.631395140132278e-001	 6.803900722306748e+000
 7.500152523224444e-001	 6.714574436849000e-001	 6.457656281698726e+000
 8.246771221555452e-001	 5.888567368133510e-001	 1.041816688868074e+001
 8.181643874740975e-001	 5.978726058999938e-001	 1.001364888549623e+001
 8.115474373167191e-001	 6.068240197155238e-001	 9.613258516731067e+000
 8.048272203726287e-001	 6.157091879575350e-001	 9.218293944317953e+000
 7.980047260030980e-001	 6.245263388085474e-001	 8.829998050241890e+000
 7.910809837947762e-001	 6.332737200842387e-001	 8.449549900254311e+000
 7.840570630743251e-001	 6.419496003688086e-001	 8.078056308018205e+000
 7.769340723847995e-001	 6.505522701359425e-001	 7.716543545612614e+000
 7.697131589242690e-001	 6.590800428538964e-001	 7.365949247093144e+000
 7.623955079472442e-001	 6.675312560732037e-001	 7.026974516502110e+000
 7.549823421295439e-001	 6.759042724955662e-001	 6.683674938916829e+000
 8.301028019459008e-001	 5.927309174019697e-001	 1.054364096472716e+001
 8.235472189641807e-001	 6.018061033025565e-001	 1.014680173014543e+001
 8.168867348565085e-001	 6.108164098706105e-001	 9.754552570727041e+000
 8.101223045537096e-001	 6.197600350250394e-001	 9.368307090462050e+000
 8.032549239262515e-001	 6.286351952912920e-001	 8.989426061602092e+000
 7.962856293346265e-001	 6.374401269571446e-001	 8.619208439722208e+000
 7.892154971407974e-001	 6.461730872155351e-001	 8.258882468554287e+000
 7.820456431811288e-001	 6.548323552929016e-001	 7.909596922319538e+000
 7.747772222013190e-001	 6.634162335615358e-001	 7.572412534135359e+000
 7.674114272538861e-001	 6.719230486344507e-001	 7.242797850532439e+000
 7.599494890588572e-001	 6.803511524413004e-001	 6.900483614584215e+000
 8.355285346364872e-001	 5.966051357605590e-001	 1.066380014117659e+001
 8.289301029366748e-001	 6.057396390531373e-001	 1.027447426005202e+001
 8.222260844542511e-001	 6.148088389476848e-001	 9.890369033240582e+000
 8.154174403616957e-001	 6.238109215843080e-001	 9.512999614034731e+000
 8.085051730387201e-001	 6.327440918312718e-001	 9.143829863820370e+000
 8.014903256197122e-001	 6.416065744483401e-001	 8.784262934544149e+000
 7.943739815019897e-001	 6.503966152370774e-001	 8.435631931695244e+000
 7.871572638152846e-001	 6.591124821765653e-001	 8.099190707306178e+000
 7.798413348529827e-001	 6.677524665430258e-001	 7.775881750666991e+000
 7.724273954656712e-001	 6.763148840118431e-001	 7.448840368461020e+000
 7.649166844176492e-001	 6.847980757405193e-001	 7.108069151241608e+000
 8.409543107320018e-001	 6.004793851098359e-001	 1.077849782378305e+001
 8.343130299712810e-001	 6.096732062686902e-001	 1.039657888710991e+001
 8.275654767658445e-001	 6.188012999606668e-001	 1.002066761808397e+001
 8.207126185298644e-001	 6.278618405469804e-001	 9.652367163432244e+000
 8.137554641523362e-001	 6.368530212386180e-001	 9.293230022586284e+000
 8.066950635415870e-001	 6.457730552672397e-001	 8.944748213212808e+000
 7.995325071303310e-001	 6.546201770429464e-001	 8.608343509358798e+000
 7.922689253417158e-001	 6.633926432973745e-001	 8.285357803502894e+000
 7.849054880168624e-001	 6.720887342105870e-001	 7.971228861328300e+000
 7.774434038044777e-001	 6.807067545202551e-001	 7.645123036137214e+000
 7.698839195131854e-001	 6.892450346116411e-001	 7.306422344252106e+000
 8.463801207371424e-001	 6.043536586705171e-001	 1.088758213738892e+001
 8.396959906477002e-001	 6.136067980661675e-001	 1.051302097501271e+001
 8.329049024471865e-001	 6.227937859234779e-001	 1.014539951753531e+001
 8.260078297914940e-001	 6.319127848246963e-001	 9.786395678370669e+000
 8.190057880789340e-001	 6.409619763234614e-001	 9.437636485940386e+000
 8.118998339918037e-001	 6.499395621232577e-001	 9.100687847519041e+000
 8.046910649982507e-001	 6.588437652426532e-001	 8.777044379129523e+000
 7.973806188148718e-001	 6.676728311657690e-001	 8.467930346788254e+000
 7.899696728305611e-001	 6.764250289764414e-001	 8.156339420921681e+000
 7.824594434921843e-001	 6.850986524745598e-001	 7.831670144298354e+000
 7.748511856527302e-001	 6.936920212730822e-001	 7.495538048111218e+000
 8.518059551566063e-001	 6.082279496633187e-001	 1.099089622856995e+001
 8.450789755456339e-001	 6.175404075625227e-001	 1.062369919584344e+001
 8.382443521541747e-001	 6.267862898500387e-001	 1.026450780297242e+001
 8.313030648798628e-001	 6.359637473290957e-001	 9.915061824919651e+000
 8.242561356303462e-001	 6.450709498959332e-001	 9.577049044318461e+000
 8.171046278619158e-001	 6.541060877258093e-001	 9.252094628488562e+000
 8.098496460781764e-001	 6.630673724457090e-001	 8.941750567246562e+000
 8.024923352892005e-001	 6.719530382921890e-001	 8.642014226979486e+000
 7.950338804316810e-001	 6.807613432528102e-001	 8.331261068177021e+000
 7.874755057506695e-001	 6.894905701896319e-001	 8.008509428619577e+000
 7.798184741435482e-001	 6.981390279432600e-001	 7.675415273308778e+000
 8.572318044950911e-001	 6.121022513089577e-001	 1.108827856454846e+001
 8.504619752447837e-001	 6.214740278747093e-001	 1.072850588093679e+001
 8.435838165427069e-001	 6.307788047542697e-001	 1.037792781815364e+001
 8.365983145282484e-001	 6.400147209718181e-001	 1.003833342190654e+001
 8.295064976184053e-001	 6.491799347661639e-001	 9.711457781034660e+000
 8.223094360434770e-001	 6.582726247843088e-001	 9.398971032160874e+000
 8.150082413425385e-001	 6.672909912616248e-001	 9.102398296940413e+000
 8.076040658191516e-001	 6.762332571870745e-001	 8.805497107616834e+000
 8.000981019578242e-001	 6.850976694519142e-001	 8.496044523988431e+000
 7.924915818018116e-001	 6.938824999803447e-001	 8.175672179820104e+000
 7.847857762929047e-001	 7.025860468405919e-001	 7.846057274151266e+000
 8.626576592572942e-001	 6.159765568281508e-001	 1.117956322853283e+001
 8.558449803248511e-001	 6.254076521196812e-001	 1.082732736626147e+001
 8.489232862686810e-001	 6.347713236500919e-001	 1.048558756545788e+001
 8.418935694699284e-001	 6.440656986645033e-001	 1.015616985906043e+001
 8.347568648549454e-001	 6.532889237442848e-001	 9.840843513615356e+000
 8.275142494280406e-001	 6.624391660081712e-001	 9.541309675646795e+000
 8.201668417637648e-001	 6.715146142999121e-001	 9.254657105721886e+000
 8.127158014591731e-001	 6.805134803608659e-001	 8.958443135854557e+000
 8.051623285465938e-001	 6.894339999859750e-001	 8.650743706748804e+000
 7.975076628674882e-001	 6.982744341615723e-001	 8.333193344245110e+000
 7.897530834080641e-001	 7.070330701834948e-001	 8.007471627928206e+000
 8.680835099479130e-001	 6.198508594416141e-001	 1.126458021162577e+001
 8.612279813655368e-001	 6.293412734143905e-001	 1.092004433254824e+001
 8.542627519879941e-001	 6.387638395514256e-001	 1.058740808537897e+001
 8.471888204381821e-001	 6.481166733187914e-001	 1.026852250724338e+001
 8.400072281517993e-001	 6.573979096404267e-001	 9.965178226368707e+000
 8.327190589071605e-001	 6.666057041068111e-001	 9.679093763878489e+000
 8.253254383142842e-001	 6.757382341700818e-001	 9.396003124839115e+000
 8.178275332637144e-001	 6.847937003240027e-001	 9.100919529778397e+000
 8.102265513355921e-001	 6.937703272672137e-001	 8.795415837992206e+000
 8.025237401695791e-001	 7.026663650481889e-001	 8.481111615334189e+000
 7.947203867962918e-001	 7.114800901903866e-001	 8.159670305790254e+000
 7.450482283302942e-001	 6.670106737908847e-001	 6.222444637028541e+000
 7.376407085647760e-001	 6.751935382033578e-001	 5.874310137811992e+000
 7.301414800067997e-001	 6.832961067697868e-001	 5.534327055939688e+000
 7.225518559652614e-001	 6.913168456532408e-001	 5.202651514043695e+000
 7.148731837902085e-001	 6.992542498395045e-001	 4.879425924084934e+000
 7.071068440770070e-001	 7.071068440770069e-001	 4.564779409836738e+000
 6.992542498395046e-001	 7.148731837902086e-001	 4.258828225621911e+000
 6.913168456532407e-001	 7.225518559652614e-001	 3.961676163673327e+000
 6.832961067697868e-001	 7.301414800067997e-001	 3.673414942511617e+000
 6.751935382033579e-001	 7.376407085647760e-001	 3.394124568885837e+000
 6.670106737908847e-001	 7.450482283302943e-001	 3.123873666031971e+000
 7.500152523224444e-001	 6.714574436849000e-001	 6.457656281698726e+000
 7.425583487368150e-001	 6.796948609187311e-001	 6.110266186822554e+000
 7.350091249626953e-001	 6.878514469967676e-001	 5.771716760141239e+000
 7.273689030643643e-001	 6.959256578564965e-001	 5.442038803553370e+000
 7.196390393741970e-001	 7.039159784502747e-001	 5.121245609247644e+000
 7.118209236915217e-001	 7.118209236915217e-001	 4.809333642626273e+000
 7.039159784502745e-001	 7.196390393741969e-001	 4.506283227333292e+000
 6.959256578564965e-001	 7.273689030643643e-001	 4.212059223866565e+000
 6.878514469967673e-001	 7.350091249626949e-001	 3.926611693273902e+000
 6.796948609187310e-001	 7.425583487368149e-001	 3.649876537567754e+000
 6.714574436848999e-001	 7.500152523224445e-001	 3.381776108684091e+000
 7.549823421295439e-001	 6.759042724955662e-001	 6.683674938916829e+000
 7.474760540691479e-001	 6.841962432740210e-001	 6.337611605724854e+000
 7.398768344160392e-001	 6.924068475798988e-001	 6.000985834139030e+000
 7.321860139900158e-001	 7.005345311249522e-001	 5.673708363419567e+000
 7.244049581059168e-001	 7.085777688279572e-001	 5.355668892278498e+000
 7.165350657671743e-001	 7.165350657671743e-001	 5.046737014990962e+000
 7.085777688279572e-001	 7.244049581059169e-001	 4.746763165046879e+000
 7.005345311249522e-001	 7.321860139900160e-001	 4.455579556929592e+000
 6.924068475798989e-001	 7.398768344160395e-001	 4.173001116645634e+000
 6.841962432740211e-001	 7.474760540691480e-001	 3.898826391706040e+000
 6.759042724955661e-001	 7.549823421295439e-001	 3.632838431495413e+000
 7.599494890588572e-001	 6.803511524413004e-001	 6.900483614584216e+000
 7.523938159555098e-001	 6.886976773921116e-001	 6.556294765801072e+000
 7.447445998481189e-001	 6.969623005474628e-001	 6.222051563126299e+000
 7.370031803121179e-001	 7.051434573932359e-001	 5.897549821306333e+000
 7.291709316449299e-001	 7.132396128144953e-001	 5.582561048544937e+000
 7.212492620542139e-001	 7.212492620542138e-001	 5.276833628738328e+000
 7.132396128144953e-001	 7.291709316449299e-001	 4.980094016265472e+000
 7.051434573932358e-001	 7.370031803121178e-001	 4.692047933055808e+000
 6.969623005474627e-001	 7.447445998481187e-001	 4.412381557649680e+000
 6.886976773921116e-001	 7.523938159555098e-001	 4.140762696069901e+000
 6.803511524413002e-001	 7.599494890588570e-001	 3.876841924506143e+000
 7.649166844176492e-001	 6.847980757405193e-001	 7.108069151241612e+000
 7.573116257896370e-001	 6.931991553958878e-001	 6.766268726085639e+000
 7.496124127402216e-001	 7.015177979277401e-001	 6.434836670580945e+000
 7.418203936005725e-001	 7.097524285959757e-001	 6.113458896125738e+000
 7.339369516507991e-001	 7.179015022518339e-001	 5.801794003149168e+000
 7.259635043028904e-001	 7.259635043028903e-001	 5.499474702579948e+000
 7.179015022518338e-001	 7.339369516507991e-001	 5.206109254486454e+000
 7.097524285959757e-001	 7.418203936005726e-001	 4.921282912736651e+000
 7.015177979277402e-001	 7.496124127402213e-001	 4.644559364506592e+000
 6.931991553958877e-001	 7.573116257896371e-001	 4.375482153549197e+000
 6.847980757405193e-001	 7.649166844176492e-001	 4.113576076324156e+000
 7.698839195131854e-001	 6.892450346116411e-001	 7.306422344252109e+000
 7.622294749652648e-001	 6.977006694082336e-001	 6.967491322326738e+000
 7.544802645736347e-001	 7.060733317490129e-001	 6.639269383318413e+000
 7.466376454252821e-001	 7.143614366677993e-001	 6.321337442394476e+000
 7.387030097830855e-001	 7.225634289819166e-001	 6.013246357687557e+000
 7.306777842634514e-001	 7.306777842634512e-001	 5.714518584287022e+000
 7.225634289819166e-001	 7.387030097830855e-001	 5.424649849623365e+000
 7.143614366677991e-001	 7.466376454252820e-001	 5.143110838221787e+000
 7.060733317490127e-001	 7.544802645736344e-001	 4.869348873763986e+000
 6.977006694082334e-001	 7.622294749652647e-001	 4.602789586476127e+000
 6.892450346116412e-001	 7.698839195131856e-001	 4.342838554034493e+000
 7.748511856527302e-001	 6.936920212730822e-001	 7.495538048111215e+000
 7.671473548761287e-001	 7.022022115520339e-001	 7.159925247152876e+000
 7.593481468296452e-001	 7.106288940395611e-001	 6.835283488706981e+000
 7.514549273561479e-001	 7.189704735433338e-001	 6.521093487590074e+000
 7.434690977013519e-001	 7.272253848466873e-001	 6.216803410739163e+000
 7.353920936861466e-001	 7.353920936861461e-001	 5.921830757193419e+000
 7.272253848466873e-001	 7.434690977013521e-001	 5.635564263301725e+000
 7.189704735433342e-001	 7.514549273561483e-001	 5.357365820260403e+000
 7.106288940395612e-001	 7.593481468296451e-001	 5.086572391035029e+000
 7.022022115520336e-001	 7.671473548761286e-001	 4.822497913785094e+000
 6.936920212730819e-001	 7.748511856527302e-001	 4.564435179085970e+000
 7.798184741435482e-001	 6.981390279432600e-001	 7.675415273308777e+000
 7.720652569159653e-001	 7.067037739501728e-001	 7.343538121819587e+000
 7.642160509895408e-001	 7.151844768276672e-001	 7.022818384380706e+000
 7.562722309630735e-001	 7.235795311572085e-001	 6.712641262811622e+000
 7.482352070651606e-001	 7.318873616880898e-001	 6.412357172355407e+000
 7.401064243212243e-001	 7.401064243212244e-001	 6.121283841293393e+000
 7.318873616880895e-001	 7.482352070651605e-001	 5.838708439236633e+000
 7.235795311572083e-001	 7.562722309630734e-001	 5.563889720328072e+000
 7.151844768276674e-001	 7.642160509895410e-001	 5.296060167524834e+000
 7.067037739501727e-001	 7.720652569159652e-001	 5.034428124181273e+000
 6.981390279432600e-001	 7.798184741435483e-001	 4.778179899328263e+000
 7.847857762929047e-001	 7.025860468405919e-001	 7.846057274151267e+000
 7.769831724785091e-001	 7.112053487255350e-001	 7.518302559902885e+000
 7.690839685346087e-001	 7.197400721416120e-001	 7.201819120770545e+000
 7.610895478159594e-001	 7.281886014440498e-001	 6.895901227025375e+000
 7.530013295340728e-001	 7.365493513480671e-001	 6.599806372801272e+000
 7.448207679189339e-001	 7.448207679189339e-001	 6.312757589158779e+000
 7.365493513480673e-001	 7.530013295340731e-001	 6.033945788904351e+000
 7.281886014440500e-001	 7.610895478159596e-001	 5.762532128524744e+000
 7.197400721416120e-001	 7.690839685346088e-001	 5.497650372524447e+000
 7.112053487255350e-001	 7.769831724785092e-001	 5.238409245486383e+000
 7.025860468405920e-001	 7.847857762929047e-001	 4.983894757353511e+000
 7.897530834080641e-001	 7.070330701834948e-001	 8.007471627928206e+000
 7.819010929574963e-001	 7.157069280010050e-001	 7.684196223276408e+000
 7.739518909461362e-001	 7.242956720096766e-001	 7.372236436758403e+000
 7.659068694847088e-001	 7.327976763384864e-001	 7.070800085169313e+000
 7.577674567676516e-001	 7.412113456685648e-001	 6.779056465790389e+000
 7.495351162295243e-001	 7.495351162295242e-001	 6.496138876891128e+000
 7.412113456685647e-001	 7.577674567676513e-001	 6.221147172699534e+000
 7.327976763384864e-001	 7.659068694847089e-001	 5.953150337324898e+000
 7.242956720096769e-001	 7.739518909461362e-001	 5.691189062035805e+000
 7.157069280010052e-001	 7.819010929574967e-001	 5.434278310316652e+000
 7.070330701834953e-001	 7.897530834080643e-001	 5.181409855298531e+000
 7.947203867962918e-001	 7.114800901903866e-001	 8.159670305790257e+000
 7.868190097466631e-001	 7.202085038994671e-001	 7.841201870702030e+000
 7.788198097054105e-001	 7.288512684601431e-001	 7.534026788743526e+000
 7.707241875392233e-001	 7.374067477751456e-001	 7.237270800372994e+000
 7.625335804254584e-001	 7.458733364915255e-001	 6.950019626445781e+000
 7.542494610032443e-001	 7.542494610032443e-001	 6.671321690318417e+000
 7.458733364915253e-001	 7.625335804254582e-001	 6.400190876768668e+000
 7.374067477751457e-001	 7.707241875392235e-001	 6.135609311350526e+000
 7.288512684601429e-001	 7.788198097054103e-001	 5.876530143688009e+000
 7.202085038994671e-001	 7.868190097466631e-001	 5.621880318243845e+000
 7.114800901903867e-001	 7.947203867962918e-001	 5.370563316248283e+000
 6.670106737908847e-001	 7.450482283302943e-001	 3.123873666031972e+000
 6.587478301396494e-001	 7.523638511618765e-001	 2.864407305741007e+000
 6.504078186112842e-001	 7.595852159436007e-001	 2.617059699022723e+000
 6.419922549603809e-001	 7.667111160878266e-001	 2.381445673459810e+000
 6.335027797617576e-001	 7.737403819358266e-001	 2.157259083992682e+000
 6.249410573556360e-001	 7.806718813845673e-001	 1.944269225282008e+000
 6.163087747742402e-001	 7.875045204774029e-001	 1.742318317838651e+000
 6.076076406512597e-001	 7.942372439580682e-001	 1.551318581089999e+000
 5.988393841156297e-001	 8.008690357874089e-001	 1.371248929491654e+000
 5.900057536711102e-001	 8.073989196223580e-001	 1.202151329418329e+000
 5.811085160631598e-001	 8.138259592567366e-001	 1.044126855899582e+000
 6.714574436848999e-001	 7.500152523224445e-001	 3.381776108684091e+000
 6.631395140132276e-001	 7.573796463238672e-001	 3.124547710331818e+000
 6.547439020078864e-001	 7.646491538842305e-001	 2.878819649826890e+000
 6.462722341952490e-001	 7.718225603718485e-001	 2.643897389865186e+000
 6.377261620873863e-001	 7.788986883301445e-001	 2.419534812323880e+000
 6.291073611202073e-001	 7.858763981086074e-001	 2.205566556766617e+000
 6.204175295729066e-001	 7.927545884574260e-001	 2.001905202832328e+000
 6.116583874701552e-001	 7.995321970851738e-001	 1.808538022146129e+000
 6.028316754685039e-001	 8.062082011789852e-001	 1.625523337913917e+000
 5.939391537284960e-001	 8.127816178867238e-001	 1.452986532060343e+000
 5.849826007739867e-001	 8.192515047607228e-001	 1.291115741127757e+000
 6.759042724955661e-001	 7.549823421295439e-001	 3.632838431495415e+000
 6.675312560732037e-001	 7.623955079472441e-001	 3.377265036585965e+000
 6.590800428538963e-001	 7.697131589242686e-001	 3.133257272887084e+000
 6.505522701359425e-001	 7.769340723847997e-001	 2.899147434825405e+000
 6.419496003688086e-001	 7.840570630743252e-001	 2.674736698207660e+000
 6.332737200842384e-001	 7.910809837947759e-001	 2.459923582841413e+000
 6.245263388085474e-001	 7.980047260030978e-001	 2.254689795645054e+000
 6.157091879575354e-001	 8.048272203726286e-001	 2.059096653365578e+000
 6.068240197155237e-001	 8.115474373167191e-001	 1.873281097014700e+000
 5.978726058999935e-001	 8.181643874740976e-001	 1.697451340070588e+000
 5.888567368133509e-001	 8.246771221555452e-001	 1.531882193889768e+000
 6.803511524413002e-001	 7.599494890588570e-001	 3.876841924506143e+000
 6.719230486344507e-001	 7.674114272538863e-001	 3.622678822918856e+000
 6.634162335615358e-001	 7.747772222013188e-001	 3.380080569703675e+000
 6.548323552929011e-001	 7.820456431811288e-001	 3.146912209200316e+000
 6.461730872155351e-001	 7.892154971407974e-001	 2.922590681924754e+000
 6.374401269571447e-001	 7.962856293346265e-001	 2.707076963816413e+000
 6.286351952912920e-001	 8.032549239262516e-001	 2.500420698862944e+000
 6.197600350250395e-001	 8.101223045537095e-001	 2.302756284286451e+000
 6.108164098706105e-001	 8.168867348565088e-001	 2.114298530871876e+000
 6.018061033025566e-001	 8.235472189641807e-001	 1.935337942741195e+000
 5.927309174019697e-001	 8.301028019459008e-001	 1.766235662318117e+000
 6.847980757405193e-001	 7.649166844176492e-001	 4.113576076324159e+000
 6.763148840118433e-001	 7.724273954656711e-001	 3.860765424751907e+000
 6.677524665430258e-001	 7.798413348529821e-001	 3.619015856231832e+000
 6.591124821765653e-001	 7.871572638152848e-001	 3.386908308127879e+000
 6.503966152370773e-001	 7.943739815019895e-001	 3.162822733795829e+000
 6.416065744483402e-001	 8.014903256197123e-001	 2.946763170610328e+000
 6.327440918312718e-001	 8.085051730387199e-001	 2.738846051726771e+000
 6.238109215843082e-001	 8.154174403616956e-001	 2.539277933378157e+000
 6.148088389476848e-001	 8.222260844542513e-001	 2.348350791832568e+000
 6.057396390531372e-001	 8.289301029366746e-001	 2.166436924930486e+000
 5.966051357605590e-001	 8.355285346364872e-001	 1.993983506322057e+000
 6.892450346116412e-001	 7.698839195131856e-001	 4.342838554034493e+000
 6.807067545202548e-001	 7.774434038044776e-001	 4.091317069146510e+000
 6.720887342105870e-001	 7.849054880168623e-001	 3.850209790285124e+000
 6.633926432973741e-001	 7.922689253417159e-001	 3.618852910532506e+000
 6.546201770429464e-001	 7.995325071303310e-001	 3.395159239229058e+000
 6.457730552672396e-001	 8.066950635415869e-001	 3.178718866391307e+000
 6.368530212386180e-001	 8.137554641523362e-001	 2.969713909459857e+000
 6.278618405469804e-001	 8.207126185298643e-001	 2.768422206180960e+000
 6.188012999606667e-001	 8.275654767658446e-001	 2.575212238614324e+000
 6.096732062686899e-001	 8.343130299712809e-001	 2.390537646304993e+000
 6.004793851098360e-001	 8.409543107320019e-001	 2.214931379188613e+000
 6.936920212730819e-001	 7.748511856527302e-001	 4.564435179085970e+000
 6.850986524745599e-001	 7.824594434921843e-001	 4.314134141857061e+000
 6.764250289764416e-001	 7.899696728305611e-001	 4.073624960904688e+000
 6.676728311657691e-001	 7.973806188148717e-001	 3.842479803616627e+000
 6.588437652426532e-001	 8.046910649982508e-001	 3.619327380100202e+000
 6.499395621232578e-001	 8.118998339918039e-001	 3.402681284445038e+000
 6.409619763234614e-001	 8.190057880789339e-001	 3.192772618660870e+000
 6.319127848246962e-001	 8.260078297914941e-001	 2.989949669293907e+000
 6.227937859234779e-001	 8.329049024471866e-001	 2.794656809994187e+000
 6.136067980661671e-001	 8.396959906477001e-001	 2.607428615863304e+000
 6.043536586705171e-001	 8.463801207371422e-001	 2.428883604093093e+000
 6.981390279432600e-001	 7.798184741435483e-001	 4.778179899328266e+000
 6.894905701896319e-001	 7.874755057506694e-001	 4.529025159927830e+000
 6.807613432528102e-001	 7.950338804316809e-001	 4.289065556537197e+000
 6.719530382921890e-001	 8.024923352892006e-001	 4.057936936891252e+000
 6.630673724457090e-001	 8.098496460781767e-001	 3.835055512609396e+000
 6.541060877258093e-001	 8.171046278619158e-001	 3.618388602406717e+000
 6.450709498959331e-001	 8.242561356303459e-001	 3.407771188909146e+000
 6.359637473290956e-001	 8.313030648798628e-001	 3.203621220379651e+000
 6.267862898500388e-001	 8.382443521541750e-001	 3.006458394265235e+000
 6.175404075625226e-001	 8.450789755456339e-001	 2.816897861925475e+000
 6.082279496633188e-001	 8.518059551566065e-001	 2.635643545735611e+000
 7.025860468405920e-001	 7.847857762929047e-001	 4.983894757353511e+000
 6.938824999803446e-001	 7.924915818018115e-001	 4.735806740667210e+000
 6.850976694519144e-001	 8.000981019578244e-001	 4.496343834020816e+000
 6.762332571870746e-001	 8.076040658191518e-001	 4.265204533013810e+000
 6.672909912616249e-001	 8.150082413425387e-001	 4.042079396933155e+000
 6.582726247843088e-001	 8.223094360434772e-001	 3.825580313004664e+000
 6.491799347661639e-001	 8.295064976184055e-001	 3.614459660734005e+000
 6.400147209718181e-001	 8.365983145282481e-001	 3.409198454338688e+000
 6.307788047542696e-001	 8.435838165427070e-001	 3.210391194624290e+000
 6.214740278747095e-001	 8.504619752447837e-001	 3.018733297773033e+000
 6.121022513089578e-001	 8.572318044950912e-001	 2.835013977294131e+000
 7.070330701834953e-001	 7.897530834080643e-001	 5.181409855298527e+000
 6.982744341615721e-001	 7.975076628674882e-001	 4.934303567151438e+000
 6.894339999859754e-001	 8.051623285465941e-001	 4.695280085954669e+000
 6.805134803608659e-001	 8.127158014591731e-001	 4.464099546185248e+000
 6.715146142999120e-001	 8.201668417637646e-001	 4.240517511527041e+000
 6.624391660081714e-001	 8.275142494280411e-001	 4.023997591441265e+000
 6.532889237442850e-001	 8.347568648549454e-001	 3.812589470083733e+000
 6.440656986645036e-001	 8.418935694699287e-001	 3.606444025801757e+000
 6.347713236500917e-001	 8.489232862686806e-001	 3.406230090653128e+000
 6.254076521196810e-001	 8.558449803248510e-001	 3.212723083109076e+000
 6.159765568281506e-001	 8.626576592572943e-001	 3.026797442885550e+000
 7.114800901903867e-001	 7.947203867962918e-001	 5.370563316248285e+000
 7.026663650481888e-001	 8.025237401695792e-001	 5.124348350395597e+000
 6.937703272672139e-001	 8.102265513355922e-001	 4.885702604764712e+000
 6.847937003240027e-001	 8.178275332637143e-001	 4.654446866454501e+000
 6.757382341700814e-001	 8.253254383142840e-001	 4.430400868837618e+000
 6.666057041068113e-001	 8.327190589071603e-001	 4.213383659539407e+000
 6.573979096404270e-001	 8.400072281517993e-001	 4.001913809424396e+000
 6.481166733187913e-001	 8.471888204381821e-001	 3.795122008078470e+000
 6.387638395514258e-001	 8.542627519879944e-001	 3.593750996039889e+000
 6.293412734143902e-001	 8.612279813655365e-001	 3.398655981502802e+000
 6.198508594416140e-001	 8.680835099479131e-001	 3.210796615707052e+000
 5.811085160631598e-001	 8.138259592567366e-001	 1.044126855899582e+000
 5.721494549410069e-001	 8.201492587923700e-001	 8.938516035353737e-001
 5.631303691352768e-001	 8.263679623034137e-001	 7.484980605809634e-001
 5.540530720989082e-001	 8.324812548450976e-001	 6.089916577346370e-001
 5.449193909360233e-001	 8.384883629704416e-001	 4.763038952142933e-001
 5.357311652289508e-001	 8.443885549780590e-001	 3.514466323410202e-001
 5.264902458615941e-001	 8.501811411206632e-001	 2.354663210697588e-001
 5.171984938406530e-001	 8.558654737743153e-001	 1.294382239318666e-001
 5.078577791162044e-001	 8.614409475685220e-001	 3.446065557433578e-002
 4.984699794031350e-001	 8.669069994773565e-001	-4.835071447514989e-002
 4.890369790048946e-001	 8.722631088718381e-001	-1.178684620386249e-001
 5.849826007739867e-001	 8.192515047607228e-001	 1.291115741127757e+000
 5.759638121453027e-001	 8.256169599300633e-001	 1.136700147603985e+000
 5.668845986654242e-001	 8.318771217627184e-001	 9.869668526892104e-001
 5.577467858771380e-001	 8.380311698809669e-001	 8.428456219788792e-001
 5.485522130654222e-001	 8.440783256815294e-001	 7.053154036941649e-001
 5.393027320766501e-001	 8.500178525850265e-001	 5.753983864467982e-001
 5.300002061341147e-001	 8.558490562458756e-001	 4.541539994944313e-001
 5.206465086513883e-001	 8.615712847226639e-001	 3.426728976882044e-001
 5.112435220450454e-001	 8.671839286091179e-001	 2.420709719647595e-001
 5.017931365482345e-001	 8.726864211258275e-001	 1.534834245891224e-001
 4.922972490265902e-001	 8.780782381729779e-001	 7.805894645707905e-002
 5.888567368133509e-001	 8.246771221555452e-001	 1.531882193889768e+000
 5.797782198871765e-001	 8.310847335173304e-001	 1.373477467837236e+000
 5.706388779369471e-001	 8.373863542211578e-001	 1.219521448292115e+000
 5.614405485954396e-001	 8.435811584562625e-001	 1.070949489722213e+000
 5.521850833286301e-001	 8.496683624629792e-001	 9.287491662723821e-001
 5.428743462470814e-001	 8.556472247838542e-001	 7.939540881854134e-001
 5.335102129136188e-001	 8.615170464749266e-001	 6.676376596085796e-001
 5.240945691488355e-001	 8.672771712772370e-001	 5.509068217883920e-001
 5.146293098359489e-001	 8.729269857486570e-001	 4.448958242181489e-001
 5.051163377265164e-001	 8.784659193562274e-001	 3.507600645947098e-001
 4.955575622485071e-001	 8.838934445292345e-001	 2.696700364393264e-001
 5.927309174019697e-001	 8.301028019459008e-001	 1.766235662318117e+000
 5.835926714918183e-001	 8.365525699850670e-001	 1.604010139303084e+000
 5.743932003802006e-001	 8.428956500370379e-001	 1.446003875285453e+000
 5.651343537900048e-001	 8.491312108579269e-001	 1.293159086720757e+000
 5.558179953683311e-001	 8.552584635316093e-001	 1.146473172493687e+000
 5.464460014900537e-001	 8.612766617224811e-001	 1.006992279171481e+000
 5.370202600576584e-001	 8.671851018881377e-001	 8.758048069065481e-001
 5.275426692988844e-001	 8.729831234520049e-001	 7.540349018317260e-001
 5.180151365637197e-001	 8.786701089360396e-001	 6.428359793020360e-001
 5.084395771222590e-001	 8.842454840536720e-001	 5.433843205239622e-001
 4.988179129649336e-001	 8.897087177632357e-001	 4.568727830424013e-001
 5.966051357605590e-001	 8.355285346364872e-001	 1.993983506322057e+000
 5.874071602844180e-001	 8.420204597641681e-001	 1.828122155719703e+000
 5.781475594255391e-001	 8.484049995686656e-001	 1.666253119941459e+000
 5.688281949970270e-001	 8.546813173729051e-001	 1.509326771334958e+000
 5.594509428272085e-001	 8.608486191042365e-001	 1.358351554834419e+000
 5.500176915553778e-001	 8.669061535488472e-001	 1.214387291929247e+000
 5.405303414237858e-001	 8.728532125658290e-001	 1.078538424904627e+000
 5.309908030674251e-001	 8.786891312609383e-001	 9.519472491134616e-001
 5.214009963031628e-001	 8.844132881201636e-001	 8.357871794613047e-001
 5.117628489197403e-001	 8.900251051032773e-001	 7.312560954082998e-001
 5.020782954701594e-001	 8.955240476976104e-001	 6.395698065999778e-001
 6.004793851098360e-001	 8.409543107320019e-001	 2.214931379188613e+000
 5.912216795901660e-001	 8.474883932855289e-001	 2.045635313332933e+000
 5.819019485033184e-001	 8.539143931743477e-001	 1.880105511689359e+000
 5.725220657526984e-001	 8.602314682881397e-001	 1.719301818843388e+000
 5.630839193479468e-001	 8.664388193976782e-001	 1.564244971191649e+000
 5.535894101928633e-001	 8.725356904108920e-001	 1.416009629201249e+000
 5.440404508695519e-001	 8.785213685883219e-001	 1.275717349932947e+000
 5.344389644203482e-001	 8.843951847180088e-001	 1.144529549565702e+000
 5.247868831290850e-001	 8.901565132499307e-001	 1.023640503997966e+000
 5.150861473032390e-001	 8.958047723901597e-001	 9.142704336375273e-001
 5.053387040584731e-001	 9.013394241549870e-001	 8.176587161990828e-001
 6.043536586705171e-001	 8.463801207371422e-001	 2.428883604093093e+000
 5.950362227342531e-001	 8.529563609800457e-001	 2.256369589343357e+000
 5.856563610438934e-001	 8.594238212123906e-001	 2.087395102129341e+000
 5.762159595932116e-001	 8.657816538905742e-001	 1.922930799724642e+000
 5.667169185732297e-001	 8.720290546287525e-001	 1.764010981121695e+000
 5.571611511523206e-001	 8.781652624565558e-001	 1.611726336844218e+000
 5.475505822525099e-001	 8.841895600359370e-001	 1.467216639394542e+000
 5.378871473235433e-001	 8.901012738371870e-001	 1.331663426104364e+000
 5.281727911162906e-001	 8.958997742742390e-001	 1.206282724434705e+000
 5.184094664570329e-001	 9.015844757994342e-001	 1.092317867691510e+000
 5.085991330241642e-001	 9.071548369579943e-001	 9.910324467389517e-001
 6.082279496633188e-001	 8.518059551566065e-001	 2.635643545735611e+000
 5.988507830418682e-001	 8.584243532786130e-001	 2.460143515107324e+000
 5.894107904776190e-001	 8.649332740411009e-001	 2.287954038520492e+000
 5.799098700547595e-001	 8.713318644671525e-001	 2.120057952159590e+000
 5.703499341457410e-001	 8.776193150142760e-001	 1.957504416091532e+000
 5.607329081835595e-001	 8.837948598337780e-001	 1.801401370578326e+000
 5.510607294302107e-001	 8.898577769889952e-001	 1.652907933769692e+000
 5.413353457429005e-001	 8.958073886324438e-001	 1.513226794656516e+000
 5.315587143395855e-001	 9.016430611419892e-001	 1.383596653349308e+000
 5.217328005654008e-001	 9.073642052162174e-001	 1.265284758573313e+000
 5.118595766615219e-001	 9.129702759292612e-001	 1.159579589775794e+000
 6.121022513089578e-001	 8.572318044950912e-001	 2.835013977294131e+000
 6.026653538382030e-001	 8.638923606121265e-001	 2.656774544325992e+000
 5.931652302348504e-001	 8.704427420187856e-001	 2.481612931968925e+000
 5.836037906735343e-001	 8.768820903048177e-001	 2.310525548991628e+000
 5.739829597081649e-001	 8.832095907710672e-001	 2.144577743995779e+000
 5.643046750363899e-001	 8.894244726904979e-001	 1.984895956848453e+000
 5.545708862602061e-001	 8.955260095278166e-001	 1.832659812627248e+000
 5.447835536443102e-001	 9.015135191177501e-001	 1.689094214135558e+000
 5.349446468737750e-001	 9.073863638020803e-001	 1.555461487141578e+000
 5.250561438126208e-001	 9.131439505256256e-001	 1.433053630212809e+000
 5.151200292648354e-001	 9.187857308914156e-001	 1.323184718414524e+000
 6.159765568281506e-001	 8.626576592572943e-001	 3.026797442885550e+000
 6.064799284484463e-001	 8.693603734114813e-001	 2.846079416423766e+000
 5.969196737459425e-001	 8.759522155037509e-001	 2.668201220533085e+000
 5.872977149857287e-001	 8.824323216905132e-001	 2.494174259373999e+000
 5.776159889031851e-001	 8.887998721159425e-001	 2.325081428169173e+000
 5.678764454606222e-001	 8.950540911746555e-001	 2.162068948041284e+000
 5.580810466000488e-001	 9.011942477327233e-001	 2.006338144890816e+000
 5.482317649936626e-001	 9.072196553070767e-001	 1.859137230618253e+000
 5.383305827936644e-001	 9.131296722034117e-001	 1.721753142992013e+000
 5.283794903829712e-001	 9.189237016127739e-001	 1.595503498089530e+000
 5.183804851283935e-001	 9.246011916670867e-001	 1.481728706499457e+000
 6.198508594416140e-001	 8.680835099479131e-001	 3.210796615707052e+000
 6.102945001977892e-001	 8.748283821075730e-001	 3.027874515307727e+000
 6.006741144412503e-001	 8.814616848543038e-001	 2.847547527446837e+000
 5.909916365275354e-001	 8.879825489111826e-001	 2.670843505315917e+000
 5.812490153734854e-001	 8.943901492657203e-001	 2.498864281123064e+000
 5.714482132060661e-001	 9.006837054341905e-001	 2.332777172287161e+000
 5.615912043072900e-001	 9.068624816840354e-001	 2.173806433597241e+000
 5.516799737568477e-001	 9.129257872143953e-001	 2.023224715957496e+000
 5.417165161740594e-001	 9.188729762948832e-001	 1.882344590244941e+000
 5.317028344607302e-001	 9.247034483627792e-001	 1.752510192316504e+000
 5.216409385464856e-001	 9.304166480789027e-001	 1.635089042339477e+000
 4.890369790048946e-001	 8.722631088718381e-001	-1.178684620386249e-001
 4.795620922583881e-001	 8.775080191404551e-001	-1.790499075216116e-001
 4.700458011791232e-001	 8.826421068707412e-001	-2.372085594054411e-001
 4.604900024760815e-001	 8.876649794392211e-001	-2.917277070501964e-001
 4.508965947721494e-001	 8.925762864264075e-001	-3.420066206940676e-001
 4.412674774614076e-001	 8.973757194803049e-001	-3.874635449375125e-001
 4.316045495771122e-001	 9.020630121438827e-001	-4.275384403590601e-001
 4.219097086716463e-001	 9.066379396471509e-001	-4.616954586700602e-001
 4.121848497096857e-001	 9.111003186645378e-001	-4.894251395912594e-001
 4.024318639757797e-001	 9.154500070382965e-001	-5.102463204757901e-001
 3.926526379975132e-001	 9.196869034687285e-001	-5.237077525081184e-001
 4.922972490265902e-001	 8.780782381729779e-001	 7.805894645707905e-002
 4.827591959128025e-001	 8.833581147616243e-001	 1.072601924402024e-002
 4.731794624357821e-001	 8.885264299898883e-001	-5.392170764288425e-002
 4.635599579492457e-001	 8.935827886167581e-001	-1.152103989855987e-001
 4.539025937335760e-001	 8.985268378865744e-001	-1.724824119257161e-001
 4.442092818454916e-001	 9.033582673916204e-001	-2.250994927400212e-001
 4.344819339784806e-001	 9.080768088984459e-001	-2.724457075270862e-001
 4.247224603352865e-001	 9.126822361385573e-001	-3.139300914782114e-001
 4.149327685136948e-001	 9.171743645641776e-001	-3.489890043495994e-001
 4.051147624068305e-001	 9.215530510698091e-001	-3.770881827004576e-001
 3.952703411191423e-001	 9.258181936803929e-001	-3.977244824231748e-001
 4.955575622485071e-001	 8.838934445292345e-001	 2.696700364393287e-001
 4.859563419306749e-001	 8.892082879011765e-001	 1.964343710365216e-001
 4.763131652153874e-001	 8.944108310808059e-001	 1.255474443025951e-001
 4.666299541012818e-001	 8.995006762095590e-001	 5.773937290278968e-002
 4.569086325264199e-001	 9.044774681955849e-001	-6.276134145949704e-003
 4.471511252103419e-001	 9.093408945754362e-001	-6.580517984631107e-002
 4.373593565069525e-001	 9.140906853392351e-001	-1.201768027743399e-001
 4.275352492695396e-001	 9.187266127199799e-001	-1.687458037354983e-001
 4.176807237291812e-001	 9.232484909476880e-001	-2.108952625473664e-001
 4.077976963877617e-001	 9.276561759691135e-001	-2.460387350593966e-001
 3.978880789267743e-001	 9.319495651338405e-001	-2.736221236056572e-001
 4.988179129649336e-001	 8.897087177632357e-001	 4.568727830424013e-001
 4.891535247168062e-001	 8.950585283205647e-001	 3.779855282520450e-001
 4.794469040337467e-001	 9.002952998450805e-001	 3.011122731130912e-001
 4.696999855594727e-001	 9.054186318606475e-001	 2.270386144813055e-001
 4.599147058898860e-001	 9.104281669392148e-001	 1.565335196907348e-001
 4.500930024075077e-001	 9.153235905615896e-001	 9.034571008767200e-002
 4.402368121268189e-001	 9.201046309414599e-001	 2.920034065901041e-002
 4.303480705518117e-001	 9.247710588133132e-001	-2.620400741406835e-002
 4.204287105470165e-001	 9.293226871849586e-001	-7.519800768750325e-002
 4.104806612232351e-001	 9.337593710554043e-001	-1.171439325124549e-001
 4.005058468391652e-001	 9.380810070988839e-001	-1.514376530906955e-001
 5.020782954701594e-001	 8.955240476976104e-001	 6.395698065999780e-001
 4.923507386759972e-001	 9.009088257812433e-001	 5.552843929614404e-001
 4.825806734066672e-001	 9.061798259842970e-001	 4.726805474192829e-001
 4.727700469511016e-001	 9.113366452130507e-001	 3.925985881153965e-001
 4.629208085631789e-001	 9.163789237032390e-001	 3.158619723708040e-001
 4.530349082885371e-001	 9.213063448799161e-001	 2.432734634574997e-001
 4.431142958023703e-001	 9.261186351803302e-001	 1.756116092909868e-001
 4.331609192595093e-001	 9.308155638404513e-001	 1.136275506457657e-001
 4.231767241580722e-001	 9.353969426458795e-001	 5.804217311875670e-002
 4.131636522179139e-001	 9.398626256478790e-001	 9.543613673730658e-003
 4.031236402750705e-001	 9.442125088453360e-001	-3.121487077042246e-002
 5.053387040584731e-001	 9.013394241549870e-001	 8.176587161990828e-001
 4.955479782130489e-001	 9.067591700446656e-001	 7.282307222747291e-001
 4.857144678499549e-001	 9.120643992000406e-001	 6.401547514211993e-001
 4.758401329034515e-001	 9.172547059097932e-001	 5.543251270076293e-001
 4.659269352855038e-001	 9.223297280734328e-001	 4.716190679817371e-001
 4.559768377049800e-001	 9.272891470602538e-001	 3.928926340232559e-001
 4.459918024978971e-001	 9.321326875310545e-001	 3.189769990177385e-001
 4.359737904700380e-001	 9.368601172232868e-001	 2.506750712460358e-001
 4.259247597532195e-001	 9.414712467003407e-001	 1.887584751593577e-001
 4.158466646764604e-001	 9.459659290657336e-001	 1.339649060644662e-001
 4.057414546532461e-001	 9.503440596430081e-001	 8.699586552525158e-002
 5.085991330241642e-001	 9.071548369579943e-001	 9.910324467389541e-001
 4.987452377327623e-001	 9.126095508722854e-001	 8.967194553180186e-001
 4.888482818794178e-001	 9.179490091938971e-001	 8.034324022049223e-001
 4.789102380438053e-001	 9.231728035939005e-001	 7.121189433140234e-001
 4.689330807960657e-001	 9.282805696355722e-001	 6.237093713082560e-001
 4.589187855083844e-001	 9.332719866324375e-001	 5.391123340968824e-001
 4.488693271776904e-001	 9.381467774688427e-001	 4.592108986349844e-001
 4.387866792608043e-001	 9.429047083837145e-001	 3.848589792514858e-001
 4.286728125233300e-001	 9.475455887182309e-001	 3.168781460289508e-001
 4.185296939035370e-001	 9.520692706281645e-001	 2.560548250681630e-001
 4.083592853924475e-001	 9.564756487617137e-001	 2.031378987808956e-001
 5.118595766615219e-001	 9.129702759292612e-001	 1.159579589775793e+000
 5.019425116399385e-001	 9.184599580255562e-001	 1.060641034094915e+000
 4.919821100108620e-001	 9.238336456674511e-001	 9.624063610330801e-001
 4.819803569994456e-001	 9.290909279083980e-001	 8.658759303000555e-001
 4.719392398340696e-001	 9.342314379754317e-001	 7.720324613285547e-001
 4.618607465502998e-001	 9.392548531263044e-001	 6.818365198750328e-001
 4.517468648060402e-001	 9.441608944689036e-001	 5.962223675286128e-001
 4.415995807092140e-001	 9.489493267436284e-001	 5.160941941872357e-001
 4.314208776592748e-001	 9.536199580694414e-001	 4.423227497107437e-001
 4.212127352038066e-001	 9.581726396543681e-001	 3.757423870936094e-001
 4.109771279114304e-001	 9.626072654712644e-001	 3.171485256503258e-001
 5.151200292648354e-001	 9.187857308914156e-001	 1.323184718414525e+000
 5.051397943393787e-001	 9.243103812659328e-001	 1.219881718492026e+000
 4.951159467600947e-001	 9.297182983222888e-001	 1.116965138860307e+000
 4.850504843976560e-001	 9.350090684963112e-001	 1.015487458798714e+000
 4.749454071387204e-001	 9.401823226787877e-001	 9.164832190636768e-001
 4.648027156822748e-001	 9.452377360716912e-001	 8.209642711647633e-001
 4.546244103472374e-001	 9.501750280064465e-001	 7.299154077849253e-001
 4.444124898926736e-001	 9.549939617249218e-001	 6.442903952675663e-001
 4.341689503519256e-001	 9.596943441238608e-001	 5.650084250789231e-001
 4.238957838819312e-001	 9.642760254635410e-001	 4.929509971082438e-001
 4.135949776289506e-001	 9.687388990414730e-001	 4.289592436670507e-001
 5.183804851283935e-001	 9.246011916670867e-001	 1.481728706499457e+000
 5.083370802358834e-001	 9.301608103548681e-001	 1.374323895675423e+000
 4.982497866429231e-001	 9.356029568599945e-001	 1.266993196323526e+000
 4.881206148657190e-001	 9.409272150006649e-001	 1.160840668203745e+000
 4.779515774492233e-001	 9.461332133314151e-001	 1.056952110020476e+000
 4.677446877558582e-001	 9.512206249984340e-001	 9.563900657417298e-001
 4.575019587655727e-001	 9.561891675566812e-001	 8.601892309585708e-001
 4.472254018885886e-001	 9.610386027494881e-001	 7.693522810910227e-001
 4.369170257921534e-001	 9.657687362513792e-001	 6.848461390602599e-001
 4.265788352425740e-001	 9.703794173748794e-001	 6.075986958322824e-001
 4.162128299637635e-001	 9.748705387421515e-001	 5.384959930562908e-001
 5.216409385464856e-001	 9.304166480789027e-001	 1.635089042339477e+000
 5.115343637342540e-001	 9.360112350538160e-001	 1.523846384112983e+000
 5.013836241751540e-001	 9.414876109821543e-001	 1.412371238432093e+000
 4.911907430309177e-001	 9.468453570644847e-001	 1.301818752233283e+000
 4.809577455047829e-001	 9.520840995190897e-001	 1.193325461453936e+000
 4.706866576225989e-001	 9.572035094363699e-001	 1.088004048566806e+000
 4.603795050253364e-001	 9.622033025948157e-001	 9.869385197236457e-001
 4.500383117743657e-001	 9.670832392392221e-001	 8.911798242288488e-001
 4.396650991708301e-001	 9.718431238218864e-001	 8.017419346892006e-001
 4.292618845903969e-001	 9.764828047075796e-001	 7.195984018031887e-001
 4.188306803346252e-001	 9.810021738431126e-001	 6.456793933797553e-001
 3.926526379975132e-001	 9.196869034687285e-001	-5.237077525081186e-001
 3.828475801467559e-001	 9.238115574925391e-001	-5.324260897323713e-001
 3.730200306188907e-001	 9.278233049990166e-001	-5.390889404190089e-001
 3.631718566724362e-001	 9.317221658209343e-001	-5.434101313241433e-001
 3.533049166519174e-001	 9.355081991183117e-001	-5.451446612202219e-001
 3.434210590039752e-001	 9.391815029145867e-001	-5.440881795586015e-001
 3.335221213151299e-001	 9.427422136050959e-001	-5.400761899065408e-001
 3.236099293720238e-001	 9.461905054388913e-001	-5.329829909416785e-001
 3.136862962449284e-001	 9.495265899749484e-001	-5.227203696339103e-001
 3.037530213952426e-001	 9.527507155138413e-001	-5.092360630049785e-001
 2.938118898076575e-001	 9.558631665059840e-001	-4.925120063796819e-001
 3.952703411191423e-001	 9.258181936803929e-001	-3.977244824231753e-001
 3.853999157449427e-001	 9.299703455962171e-001	-4.135642809858462e-001
 3.755068487477795e-001	 9.340088382791361e-001	-4.273626405842256e-001
 3.655930198347078e-001	 9.379336916941498e-001	-4.388129032520741e-001
 3.556602997393610e-001	 9.417449653956880e-001	-4.476504533078851e-001
 3.457105492315029e-001	 9.454427580606899e-001	-4.536521972583432e-001
 3.357456181483737e-001	 9.490272069938094e-001	-4.566357549066844e-001
 3.257673444486692e-001	 9.524984876057723e-001	-4.564583750021176e-001
 3.157775532899376e-001	 9.558568128659655e-001	-4.530155907211856e-001
 3.057780561301270e-001	 9.591024327303190e-001	-4.462396321138615e-001
 2.957706498539659e-001	 9.622356335456042e-001	-4.360976142243902e-001
 3.978880789267743e-001	 9.319495651338405e-001	-2.736221236056572e-001
 3.879522851630236e-001	 9.361292153058038e-001	-2.963600218926408e-001
 3.779936998285092e-001	 9.401944535193617e-001	-3.170727206061177e-001
 3.680142150789770e-001	 9.441452998717373e-001	-3.354329327065486e-001
 3.580157140373226e-001	 9.479818143117705e-001	-3.511563839726294e-001
 3.480000697965839e-001	 9.517040961699057e-001	-3.640012932552665e-001
 3.379691444448735e-001	 9.553122836601184e-001	-3.737675497183312e-001
 3.279247881130917e-001	 9.588065533548228e-001	-3.802956009798315e-001
 3.178688380462120e-001	 9.621871196338281e-001	-3.834650681525875e-001
 3.078031176988808e-001	 9.654542341084373e-001	-3.831931056556401e-001
 2.977294358560106e-001	 9.686081850217986e-001	-3.794325253671784e-001
 4.005058468391652e-001	 9.380810070988839e-001	-1.514376530906952e-001
 3.905046839341429e-001	 9.422881558430289e-001	-1.808409575023411e-001
 3.804805795088713e-001	 9.463801398946492e-001	-2.082376462603262e-001
 3.704354381679195e-001	 9.503569794831879e-001	-2.332796721700587e-001
 3.603711554235785e-001	 9.542187349518962e-001	-2.556630742285415e-001
 3.502896166922933e-001	 9.579655062847261e-001	-2.751274573029607e-001
 3.401926963131793e-001	 9.615974326049814e-001	-2.914551539167813e-001
 3.300822565894714e-001	 9.651146916467712e-001	-3.044700826673623e-001
 3.199601468536990e-001	 9.685174992003410e-001	-3.140363199815077e-001
 3.098282025573360e-001	 9.718061085323820e-001	-3.200564038938909e-001
 2.996882443856060e-001	 9.749808097824353e-001	-3.224693902725551e-001
 4.031236402750705e-001	 9.442125088453360e-001	-3.121487077042013e-002
 3.930571075914455e-001	 9.484471564296215e-001	-6.704171306731625e-002
 3.829674834366572e-001	 9.525658865799537e-001	-1.008829982171345e-001
 3.728566848642111e-001	 9.565687196579940e-001	-1.323698005779397e-001
 3.627266197759061e-001	 9.604557164014029e-001	-1.611784595700431e-001
 3.525791859117053e-001	 9.642269774476432e-001	-1.870300578323486e-001
 3.424162698618394e-001	 9.678826428293534e-001	-2.096895659142437e-001
 3.322397461019883e-001	 9.714228914423454e-001	-2.289646686799993e-001
 3.220514760523470e-001	 9.748479404873101e-001	-2.447042908704227e-001
 3.118533071613252e-001	 9.781580448863387e-001	-2.567968413289319e-001
 3.016470720145669e-001	 9.813534966753823e-001	-2.651681972462387e-001
 4.057414546532461e-001	 9.503440596430081e-001	 8.699586552525158e-002
 3.956095516680765e-001	 9.546062062873115e-001	 4.499636592073691e-002
 3.854544072596587e-001	 9.587516827502316e-001	 4.958782806176094e-003
 3.752779509305275e-001	 9.627805095256463e-001	-3.272697373731463e-002
 3.650821029720817e-001	 9.666927477456272e-001	-6.771754581803925e-002
 3.548687734478946e-001	 9.704884987011498e-001	-9.971560337902165e-002
 3.446398611994030e-001	 9.741679033341915e-001	-1.284689701146842e-001
 3.343972528748223e-001	 9.777311417022727e-001	-1.537694155042867e-001
 3.241428219821034e-001	 9.811784324165394e-001	-1.754511311780924e-001
 3.138784279666810e-001	 9.845100320544937e-001	-1.933889119883717e-001
 3.036059153147077e-001	 9.877262345485073e-001	-2.074960640854037e-001
 4.083592853924475e-001	 9.564756487617137e-001	 2.031378987808933e-001
 3.981620116971802e-001	 9.607652946378276e-001	 1.552254674716883e-001
 3.879413466256668e-001	 9.649375175804381e-001	 1.092486446372290e-001
 3.776992321295443e-001	 9.689923382156370e-001	 6.561841896952475e-002
 3.674376008898820e-001	 9.729298180699069e-001	 2.469782874463453e-002
 3.571583752939361e-001	 9.767500590877388e-001	-1.319751029351505e-002
 3.468634664344191e-001	 9.804532031204520e-001	-4.779851034260791e-002
 3.365547731321534e-001	 9.840394313872817e-001	-7.888136677955766e-002
 3.262341809829161e-001	 9.875089639098348e-001	-1.062659822453586e-001
 3.159035614292355e-001	 9.908620589210325e-001	-1.298140808524907e-001
 3.055647708578432e-001	 9.940990122496792e-001	-1.494270357933877e-001
 4.109771279114304e-001	 9.626072654712644e-001	 3.171485256503263e-001
 4.007144832119015e-001	 9.669244107029007e-001	 2.635915608987875e-001
 3.904282971824738e-001	 9.711233802455289e-001	 2.119411662621476e-001
 3.801205242239372e-001	 9.752041948574575e-001	 1.626294918827274e-001
 3.697931094070843e-001	 9.791669164595790e-001	 1.160392252261882e-001
 3.594479874429040e-001	 9.830116476499022e-001	 7.250412353995957e-002
 3.490870816754368e-001	 9.867385311890911e-001	 3.230993073845456e-002
 3.387123030981619e-001	 9.903477494580995e-001	-4.304338546003530e-003
 3.283255493947325e-001	 9.938395238890009e-001	-3.714476759814214e-002
 3.179287040048215e-001	 9.972141143701416e-001	-6.606058114686875e-002
 3.075236352157878e-001	 1.000471818626765e+000	-9.094188809132101e-002
 4.135949776289506e-001	 9.687388990414730e-001	 4.289592436670487e-001
 4.032669617453852e-001	 9.730835437042587e-001	 3.700346389289488e-001
 3.929152545778705e-001	 9.773092599204601e-001	 3.129847947182970e-001
 3.825418229763816e-001	 9.814160685805988e-001	 2.582630946223479e-001
 3.721486244014648e-001	 9.854040319999809e-001	 2.062718302282493e-001
 3.617376058878729e-001	 9.892732534301327e-001	 1.573627392370379e-001
 3.513107030310049e-001	 9.930238765410654e-001	 1.118379464764045e-001
 3.408698389970276e-001	 9.966560848754543e-001	 6.995128980475049e-002
 3.304169235575002e-001	 1.000170101275843e+000	 3.191001018565196e-002
 3.199538521492713e-001	 1.003566187286006e+000	-2.123217241802977e-003
 3.094825049603561e-001	 1.006844642527633e+000	-3.202793646798718e-002
 4.162128299637635e-001	 9.748705387421515e-001	 5.384959930562914e-001
 4.058194428307755e-001	 9.792426828636313e-001	 4.744889543744515e-001
 3.954022144596490e-001	 9.834951457801872e-001	 4.123220765170353e-001
 3.849631241495536e-001	 9.876279485145534e-001	 3.524700381547436e-001
 3.745041417508007e-001	 9.916411537764501e-001	 2.953546764538153e-001
 3.640272266219177e-001	 9.955348654709233e-001	 2.413455319550245e-001
 3.535343266096725e-001	 9.993092281773317e-001	 1.907608156020632e-001
 3.430273770529304e-001	 1.002964426600074e+000	 1.438687791298377e-001
 3.325082998111676e-001	 1.006500684992165e+000	 1.008894671994395e-001
 3.219790023184175e-001	 1.009918266552814e+000	 6.199682708801064e-002
 3.114413766633628e-001	 1.013217472800151e+000	 2.732114946967953e-002
 4.188306803346252e-001	 9.810021738431126e-001	 6.456793933797530e-001
 4.083719220012180e-001	 9.854018174027490e-001	 5.768832515988257e-001
 3.978891724756005e-001	 9.896810269996651e-001	 5.098898838299731e-001
 3.873844235061284e-001	 9.938398237888120e-001	 4.451953156040754e-001
 3.768596573328685e-001	 9.978782708743236e-001	 3.832408580489887e-001
 3.663168456381126e-001	 1.001796472814765e+000	 3.244136606751655e-001
 3.557579485199885e-001	 1.005594575098846e+000	 2.690477063572180e-001
 3.451849134900506e-001	 1.009272763592686e+000	 2.174252289168241e-001
 3.345996744956820e-001	 1.012831263959774e+000	 1.697785307499078e-001
 3.240041509680921e-001	 1.016270341054748e+000	 1.262921752751790e-001
 3.134002468966224e-001	 1.019590298292188e+000	 8.710552658363628e-002
 2.938118898076575e-001	 9.558631665059840e-001	-4.925120063796819e-001
 2.838646710056857e-001	 9.588642626988490e-001	-4.736735789896315e-001
 2.739131178235836e-001	 9.617543577873683e-001	-4.539010333569369e-001
 2.639589660669879e-001	 9.645338394785438e-001	-4.333018904565344e-001
 2.540039338948808e-001	 9.672031290579124e-001	-4.120066219048699e-001
 2.440497210832210e-001	 9.697626806991601e-001	-3.901659638634333e-001
 2.340980083161345e-001	 9.722129807570793e-001	-3.679481547030541e-001
 2.241504565049763e-001	 9.745545470450379e-001	-3.455361196062560e-001
 2.142087061355221e-001	 9.767879280981019e-001	-3.231246251928921e-001
 2.042743766435053e-001	 9.789137024229727e-001	-3.009174269721368e-001
 1.943490658186562e-001	 9.809324777358748e-001	-2.791244319789895e-001
 2.957706498539659e-001	 9.622356335456042e-001	-4.360976142243902e-001
 2.857571157819154e-001	 9.652567371909585e-001	-4.237009806317816e-001
 2.757392184338695e-001	 9.681660997192729e-001	-4.102180259718083e-001
 2.657187051875654e-001	 9.709641114222508e-001	-3.957457240821456e-001
 2.556973056564410e-001	 9.736511963939908e-001	-3.804050169722348e-001
 2.456767309483562e-001	 9.762278118359934e-001	-3.643380075668923e-001
 2.356586729520586e-001	 9.786944473454122e-001	-3.477050706525356e-001
 2.256448036517056e-001	 9.810516241876995e-001	-3.306819063245913e-001
 2.156367744697043e-001	 9.832998945548199e-001	-3.134565601417779e-001
 2.056362156380844e-001	 9.854398408101844e-001	-2.962264339192757e-001
 1.956447355985657e-001	 9.874720747214627e-001	-2.791953106157725e-001
 2.977294358560106e-001	 9.686081850217986e-001	-3.794325253671784e-001
 2.876495856351602e-001	 9.716492963847403e-001	-3.732863927955818e-001
 2.775653432420190e-001	 9.745779266081482e-001	-3.659155159451879e-001
 2.674784676265833e-001	 9.773944685684661e-001	-3.574052816151963e-001
 2.573906998569036e-001	 9.800993491683967e-001	-3.478660752996023e-001
 2.473037623728963e-001	 9.826930286373037e-001	-3.374303509194560e-001
 2.372193582680847e-001	 9.851759998147480e-001	-3.262496129022990e-001
 2.271391705995806e-001	 9.875487874183182e-001	-3.144913360699941e-001
 2.170648617265720e-001	 9.898119472969311e-001	-3.023358487111405e-001
 2.069980726775334e-001	 9.919660656707664e-001	-2.899732039114206e-001
 1.969404225463201e-001	 9.940117583589936e-001	-2.776000637556434e-001
 2.996882443856060e-001	 9.749808097824353e-001	-3.224693902725551e-001
 2.895420772532948e-001	 9.780419290930430e-001	-3.223749366613387e-001
 2.793914890520229e-001	 9.809898272331150e-001	-3.209302745509352e-001
 2.692382503041846e-001	 9.838248996638738e-001	-3.182082367046041e-001
 2.590841135325783e-001	 9.865475760966606e-001	-3.143077003646394e-001
 2.489308125093126e-001	 9.891583197887439e-001	-3.093505318957476e-001
 2.387800615328193e-001	 9.916576268221344e-001	-3.034784376283304e-001
 2.286335547332959e-001	 9.940460253666024e-001	-2.968497475583863e-001
 2.184929654068420e-001	 9.963240749280637e-001	-2.896361584788497e-001
 2.083599453785053e-001	 9.984923655835142e-001	-2.820194628170794e-001
 1.982361243944031e-001	 1.000551517203678e+000	-2.741882889617754e-001
 3.016470720145669e-001	 9.813534966753823e-001	-2.651681972462387e-001
 2.914345873241932e-001	 9.844346241287142e-001	-2.709190071310594e-001
 2.812176526678725e-001	 9.874017903732959e-001	-2.752062906783692e-001
 2.709980501405125e-001	 9.902553934551568e-001	-2.780894319100159e-001
 2.607775437197758e-001	 9.929958658943122e-001	-2.796549226862057e-001
 2.505578785100766e-001	 9.956236739759679e-001	-2.800131799728686e-001
 2.403407800148684e-001	 9.981393170246208e-001	-2.792952628478718e-001
 2.301279534375462e-001	 1.000543326662260e+000	-2.776495171511090e-001
 2.199210830112309e-001	 1.002836266051843e+000	-2.752381755821070e-001
 2.097218313576528e-001	 1.005018729127225e+000	-2.722339407621373e-001
 1.995318388752979e-001	 1.007091339810725e+000	-2.688165782583731e-001
 3.036059153147077e-001	 9.877262345485073e-001	-2.074960640854037e-001
 2.933271125357299e-001	 9.908273703046017e-001	-2.188780704850353e-001
 2.830438308935587e-001	 9.938138048078122e-001	-2.286945736415612e-001
 2.727578640557102e-001	 9.966859386890001e-001	-2.369906858416592e-001
 2.624709874548061e-001	 9.994442072768820e-001	-2.438397105195406e-001
 2.521849575276598e-001	 1.002089079884629e+000	-2.493398296343491e-001
 2.419015109828384e-001	 1.004621059079254e+000	-2.536106840214155e-001
 2.316223640970263e-001	 1.007040679935001e+000	-2.567898758860515e-001
 2.213492120404560e-001	 1.009348509271898e+000	-2.590294225377982e-001
 2.110837282316287e-001	 1.011545144880695e+000	-2.604921901479601e-001
 2.008275637214882e-001	 1.013631214735347e+000	-2.613483357917182e-001
 3.055647708578432e-001	 9.940990122496792e-001	-1.494270357933877e-001
 2.952196495757796e-001	 9.972201564335543e-001	-1.662184680321396e-001
 2.848700205330725e-001	 1.000225859315786e+000	-1.813529619413526e-001
 2.745176889699210e-001	 1.003116524112087e+000	-1.948606062422710e-001
 2.641644417739796e-001	 1.005892588959899e+000	-2.068007864899417e-001
 2.538120467145333e-001	 1.008554526200379e+000	-2.172587398348845e-001
 2.434622517053356e-001	 1.011102841643083e+000	-2.263419956558884e-001
 2.331167840964309e-001	 1.013538073814532e+000	-2.341767325659733e-001
 2.227773499952337e-001	 1.015860793191854e+000	-2.409040822005051e-001
 2.124456336170860e-001	 1.018071601422721e+000	-2.466764098962530e-001
 2.021232966654573e-001	 1.020171130532752e+000	-2.516536018204048e-001
 3.075236352157878e-001	 1.000471818626765e+000	-9.094188809132101e-002
 2.971121951322163e-001	 1.003612971328419e+000	-1.129132254962868e-001
 2.866962183904045e-001	 1.006637942676338e+000	-1.331459377194741e-001
 2.762775218032881e-001	 1.009547138471104e+000	-1.516544087344258e-001
 2.658579037136064e-001	 1.012340999658894e+000	-1.684834499024125e-001
 2.554391432231687e-001	 1.015020001608872e+000	-1.837047191589056e-001
 2.450229994509663e-001	 1.017584653373157e+000	-1.974130186439483e-001
 2.346112108204548e-001	 1.020035496930563e+000	-2.097225026384278e-001
 2.242054943762811e-001	 1.022373106415339e+000	-2.207628275823851e-001
 2.138075451306775e-001	 1.024598087332100e+000	-2.306752756459189e-001
 2.034190354396886e-001	 1.026711075758151e+000	-2.396088827599505e-001
 3.094825049603561e-001	 1.006844642527633e+000	-3.202793646798718e-002
 2.990047458929149e-001	 1.010005803802045e+000	-5.894186787699773e-002
 2.885224212695463e-001	 1.013050043668592e+000	-8.404444665000972e-002
 2.780373594759547e-001	 1.015977770512732e+000	-1.073337409947421e-001
 2.675513703099966e-001	 1.018789428089395e+000	-1.288394044710970e-001
 2.570662442060374e-001	 1.021485494795763e+000	-1.486189564232743e-001
 2.465837514883368e-001	 1.024066482926523e+000	-1.667539330829581e-001
 2.361056416537927e-001	 1.026532937912801e+000	-1.833459426120214e-001
 2.256336426843149e-001	 1.028885437545979e+000	-1.985126572785644e-001
 2.151694603890562e-001	 1.031124591187629e+000	-2.123837756354628e-001
 2.047147777766657e-001	 1.033251038966754e+000	-2.250969870063665e-001
 3.114413766633628e-001	 1.013217472800151e+000	 2.732114946967953e-002
 3.008972985457494e-001	 1.016398642667280e+000	-4.290239551848027e-003
 2.903486259744884e-001	 1.019462151071667e+000	-3.402572303451884e-002
 2.797971989080638e-001	 1.022408408983658e+000	-6.186651210733033e-002
 2.692448385994606e-001	 1.025237862966934e+000	-8.782659123537769e-002
 2.586933468156106e-001	 1.027950994446703e+000	-1.119488564838459e-001
 2.481445050860534e-001	 1.030548318960231e+000	-1.343011163334097e-001
 2.376000739811394e-001	 1.033030385390956e+000	-1.549719897619932e-001
 2.270617924200520e-001	 1.035397775187402e+000	-1.740667362486230e-001
 2.165313770088748e-001	 1.037651101568105e+000	-1.917030520215186e-001
 2.060105214088719e-001	 1.039791008713771e+000	-2.080068662876672e-001
 3.134002468966224e-001	 1.019590298292188e+000	 8.710552658363628e-002
 3.027898497785945e-001	 1.022791476736971e+000	 5.104967061317731e-002
 2.921748293092217e-001	 1.025874253664687e+000	 1.692688013292788e-002
 2.815570370197590e-001	 1.028839042630564e+000	-1.522672687517350e-002
 2.709383056183087e-001	 1.031686293007040e+000	-4.540902643158915e-002
 2.603204482043598e-001	 1.034416489247346e+000	-7.364788101569023e-002
 2.497052575127223e-001	 1.037030150131326e+000	-9.999698608806276e-002
 2.390945051871896e-001	 1.039527827994735e+000	-1.245316068959951e-001
 2.284899410842091e-001	 1.041910107943235e+000	-1.473442417219377e-001
 2.178932926067863e-001	 1.044177607052323e+000	-1.685402473966028e-001
 2.073062640687906e-001	 1.046330973554413e+000	-1.882334623032906e-001
 1.943490658186562e-001	 9.809324777358748e-001	-2.791244319789895e-001
 1.844358351184653e-001	 9.828446114249160e-001	-2.573703730877579e-001
 1.745347453506193e-001	 9.846510785005697e-001	-2.353159012052075e-001
 1.646473231798204e-001	 9.863525701375676e-001	-2.132377774143531e-001
 1.547750715930049e-001	 9.879498035443917e-001	-1.914111916871667e-001
 1.449194694473043e-001	 9.894435211587169e-001	-1.701072795989911e-001
 1.350819710464206e-001	 9.908344898374509e-001	-1.495907651256355e-001
 1.252640057452698e-001	 9.921235000424143e-001	-1.301177449716957e-001
 1.154669775827054e-001	 9.933113650226918e-001	-1.119336284346390e-001
 1.056922649420928e-001	 9.943989199946589e-001	-9.527124536356674e-002
 9.594122023947826e-002	 9.953870213206723e-001	-8.034913322487715e-002
 1.956447355985657e-001	 9.874720747214627e-001	-2.791953106157725e-001
 1.856654162184739e-001	 9.893969560593556e-001	-2.620035713471757e-001
 1.756983187108200e-001	 9.912154663345144e-001	-2.443299352224355e-001
 1.657449799180722e-001	 9.929283013296114e-001	-2.264462110451217e-001
 1.558069128470812e-001	 9.945361830346293e-001	-2.086219324521051e-001
 1.458856062140271e-001	 9.960398588369379e-001	-1.911217553239384e-001
 1.359825240179708e-001	 9.974401007059351e-001	-1.742029865260661e-001
 1.260991051428619e-001	 9.987377043732978e-001	-1.581132601875086e-001
 1.162367629878135e-001	 9.999334885098822e-001	-1.430883762754206e-001
 1.063968851254137e-001	 1.001028293900284e+000	-1.293503146661888e-001
 9.658083298781611e-002	 1.002022982616054e+000	-1.171054363351992e-001
 1.969404225463201e-001	 9.940117583589936e-001	-2.776000637556439e-001
 1.868950136103707e-001	 9.959493875149437e-001	-2.648687712252972e-001
 1.768619074880390e-001	 9.977799411495164e-001	-2.514735522497874e-001
 1.668426511997103e-001	 9.995041196533726e-001	-2.376819960412344e-001
 1.568387677722974e-001	 1.001122649798042e+000	-2.237587069157817e-001
 1.468517557811748e-001	 1.002636283920640e+000	-2.099625762136068e-001
 1.368830889209058e-001	 1.004045799103106e+000	-1.965441909165722e-001
 1.269342156046144e-001	 1.005351996347030e+000	-1.837433959931360e-001
 1.170065585918118e-001	 1.006555699745095e+000	-1.717870259879347e-001
 1.071015146444448e-001	 1.007657755650177e+000	-1.608868197443087e-001
 9.722045421090786e-002	 1.008659031843079e+000	-1.512375305180010e-001
 1.982361243944031e-001	 1.000551517203678e+000	-2.741882889617754e-001
 1.881246251423275e-001	 1.002501894324542e+000	-2.658036442442594e-001
 1.780255096459927e-001	 1.004344491457321e+000	-2.565730617881616e-001
 1.679403351038314e-001	 1.006080013600702e+000	-2.467606931934287e-001
 1.578706345629475e-001	 1.007709192307800e+000	-2.366269895746080e-001
 1.478179164580372e-001	 1.009232784865521e+000	-2.264258415898882e-001
 1.377836641792907e-001	 1.010651573468392e+000	-2.164018616695757e-001
 1.277693356691293e-001	 1.011966364387960e+000	-2.067878263392805e-001
 1.177763630475827e-001	 1.013177987138785e+000	-1.978022949334961e-001
 1.078061522660752e-001	 1.014287293642074e+000	-1.896474193269367e-001
 9.786008278935783e-002	 1.015295157387938e+000	-1.825069575756069e-001
 1.995318388752979e-001	 1.007091339810725e+000	-2.688165782583731e-001
 1.893542486625164e-001	 1.009054465021015e+000	-2.646528430048510e-001
 1.791891231483970e-001	 1.010909105769675e+000	-2.594617300168579e-001
 1.690380297095316e-001	 1.012655971663448e+000	-2.535047853225908e-001
 1.589025114133255e-001	 1.014295799037075e+000	-2.470391328562159e-001
 1.487840865539039e-001	 1.015829350127281e+000	-2.403144759801050e-001
 1.386842482171906e-001	 1.017257412241222e+000	-2.335702468544780e-001
 1.286044638750086e-001	 1.018580796920438e+000	-2.270329224426206e-001
 1.185461750080089e-001	 1.019800339101411e+000	-2.209135242668675e-001
 1.085107967571939e-001	 1.020916896273717e+000	-2.154053172991932e-001
 9.849971760377026e-002	 1.021931347636820e+000	-2.106817215608428e-001
 2.008275637214882e-001	 1.013631214735347e+000	-2.613483357917187e-001
 1.905838820191091e-001	 1.015607088137226e+000	-2.612678182268111e-001
 1.803527459589679e-001	 1.017473772598322e+000	-2.599795962235099e-001
 1.701357330959078e-001	 1.019231982333462e+000	-2.577434931219365e-001
 1.599343965177253e-001	 1.020882458459035e+000	-2.548141824045295e-001
 1.497502643780647e-001	 1.022425968161619e+000	-2.514380438874931e-001
 1.395848394586707e-001	 1.023863303861022e+000	-2.478501735496051e-001
 1.294395987608545e-001	 1.025195282368815e+000	-2.442715667101253e-001
 1.193159931259730e-001	 1.026422744043428e+000	-2.409064925430832e-001
 1.092154468846898e-001	 1.027546551942844e+000	-2.379400760862649e-001
 9.913935753474938e-002	 1.028567590975912e+000	-2.355361020363269e-001
 2.021232966654573e-001	 1.020171130532752e+000	-2.516536018204043e-001
 1.918135230602776e-001	 1.022159752206037e+000	-2.555066422265296e-001
 1.815163760414217e-001	 1.024038480455009e+000	-2.579732957747684e-001
 1.712334433420562e-001	 1.025808034102595e+000	-2.593125976283114e-001
 1.609662880704411e-001	 1.027469159046853e+000	-2.597776990788417e-001
 1.507164482398093e-001	 1.029022627424234e+000	-2.596125713569361e-001
 1.404854363277963e-001	 1.030469236767222e+000	-2.590488690170624e-001
 1.302747388652690e-001	 1.031809809157441e+000	-2.583029735780365e-001
 1.200858160543574e-001	 1.033045190375292e+000	-2.575732362959034e-001
 1.099201014154522e-001	 1.034176249047193e+000	-2.570374370505102e-001
 9.977900146289952e-002	 1.035203875791404e+000	-2.568504743781689e-001
 2.034190354396886e-001	 1.026711075758151e+000	-2.396088827599505e-001
 1.930431696341939e-001	 1.028712445760311e+000	-2.472338385504204e-001
 1.826800113594743e-001	 1.030603217851480e+000	-2.532958893304991e-001
 1.723311585270733e-001	 1.032384115462696e+000	-2.580542690307306e-001
 1.619981842657667e-001	 1.034055889273698e+000	-2.617615873725913e-001
 1.516826364484275e-001	 1.035619316370825e+000	-2.646603740263559e-001
 1.413860372486324e-001	 1.037075199399251e+000	-2.669797884315077e-001
 1.311098827268542e-001	 1.038424365710664e+000	-2.689325169675242e-001
 1.208556424460448e-001	 1.039667666507461e+000	-2.707118772779987e-001
 1.106247591163698e-001	 1.040805975984504e+000	-2.724891475889807e-001
 1.004186482688248e-001	 1.041840190469484e+000	-2.744111368193143e-001
 2.047147777766657e-001	 1.033251038966754e+000	-2.250969870063665e-001
 1.942728195890298e-001	 1.035265157332913e+000	-2.363202174851249e-001
 1.838436498768419e-001	 1.037167973299481e+000	-2.458066980339702e-001
 1.734288767300559e-001	 1.038960214905615e+000	-2.538169015353753e-001
 1.630300832979960e-001	 1.040642637612742e+000	-2.606039299622338e-001
 1.526488273132089e-001	 1.042216023457091e+000	-2.664098913829893e-001
 1.422866406452442e-001	 1.043681180196535e+000	-2.714624488721817e-001
 1.319450288842121e-001	 1.045038940452837e+000	-2.759715640562179e-001
 1.216254709539177e-001	 1.046290160850391e+000	-2.801264560680390e-001
 1.113294187543320e-001	 1.047435721152516e+000	-2.840927946375096e-001
 1.010582968331297e-001	 1.048476523396341e+000	-2.880101439262962e-001
 2.060105214088719e-001	 1.039791008713771e+000	-2.080068662876672e-001
 1.955024707729572e-001	 1.041817875456704e+000	-2.226427171921137e-001
 1.850072895572406e-001	 1.043732735310757e+000	-2.353711444081779e-001
 1.745265960301002e-001	 1.045536320923203e+000	-2.464549540180777e-001
 1.640619833614233e-001	 1.047229392537153e+000	-2.561488281204173e-001
 1.536150191434434e-001	 1.048812737138731e+000	-2.646955269509085e-001
 1.431872449416969e-001	 1.050287167598504e+000	-2.723222693085673e-001
 1.327801758759449e-001	 1.051653521808309e+000	-2.792373150959742e-001
 1.223953002308587e-001	 1.052912661814538e+000	-2.856267717636253e-001
 1.120340790962277e-001	 1.054065472948967e+000	-2.916516443022466e-001
 1.016979460364183e-001	 1.055112862958165e+000	-2.974451462332438e-001
 2.073062640687906e-001	 1.046330973554413e+000	-1.882334623032901e-001
 1.967321210341483e-001	 1.048370588664549e+000	-2.060842502149088e-001
 1.861709283643863e-001	 1.050297492397054e+000	-2.218605987119544e-001
 1.756243145063029e-001	 1.052112422007309e+000	-2.358287962149528e-001
 1.650938826503424e-001	 1.053816142520104e+000	-2.482462477360208e-001
 1.545812102484206e-001	 1.055409445871443e+000	-2.593574941474310e-001
 1.440878485620557e-001	 1.056893150044585e+000	-2.693904163103323e-001
 1.336153222406547e-001	 1.058268098201429e+000	-2.785526490057838e-001
 1.231651289297503e-001	 1.059535157810359e+000	-2.870282274988901e-001
 1.127387389089458e-001	 1.060695219771598e+000	-2.949744873457449e-001
 1.023375947592949e-001	 1.061749197541143e+000	-3.025192357622425e-001
 9.594122023947826e-002	 9.953870213206723e-001	-8.034913322487715e-002
 8.621371590998771e-002	 9.962766718121099e-001	-6.688792584361419e-002
 7.651253352126196e-002	 9.970686125683425e-001	-5.455547205336737e-002
 6.683896610081594e-002	 9.977637591031844e-001	-4.345969802922556e-002
 5.719427911104236e-002	 9.983630448185401e-001	-3.369016178239657e-002
 4.757971027342479e-002	 9.988674201817246e-001	-2.531773397789674e-002
 3.799646941872222e-002	 9.992778519071311e-001	-1.839447405165149e-002
 2.844573836262598e-002	 9.995953221430518e-001	-1.295370154078286e-002
 1.892867080636962e-002	 9.998208276644112e-001	-9.010261151207080e-003
 9.446392261750505e-003	 9.999553790721549e-001	-6.560978728318465e-003
 0.000000000000000e+000	 1.000000000000000e+000	-5.585304040585351e-003
 9.658083298781611e-002	 1.002022982616054e+000	-1.171054363352002e-001
 8.678847815970567e-002	 1.002918564154065e+000	-1.060468645904625e-001
 7.702262075288691e-002	 1.003715784554311e+000	-9.583332661230945e-002
 6.728456241542379e-002	 1.004415565433972e+000	-8.658698287087448e-002
 5.757557704648520e-002	 1.005018846417574e+000	-7.840985190417264e-002
 4.789691061938552e-002	 1.005526584308822e+000	-7.138341283190336e-002
 3.824978103077066e-002	 1.005939752266822e+000	-6.556841475088263e-002
 2.863537797544591e-002	 1.006259338987468e+000	-6.100489306107279e-002
 1.905486284632297e-002	 1.006486347890802e+000	-5.771239129511625e-002
 9.509368658941853e-003	 1.006621796315063e+000	-5.569038562866424e-002
 0.000000000000000e+000	 1.006666714718147e+000	-5.491890788229577e-002
 9.722045421090786e-002	 1.008659031843079e+000	-1.512375305180010e-001
 8.736324802543309e-002	 1.009560544506255e+000	-1.425076167558298e-001
 7.753271474417561e-002	 1.010363044620398e+000	-1.343484576745960e-001
 6.773016463579058e-002	 1.011067459906151e+000	-1.268953041538096e-001
 5.795688003626343e-002	 1.011674736210762e+000	-1.202614417864368e-001
 4.821411517077870e-002	 1.012185836674435e+000	-1.145377133443380e-001
 3.850309600190694e-002	 1.012601740901085e+000	-1.097922600172901e-001
 2.882502010360377e-002	 1.012923444134316e+000	-1.060704816093605e-001
 1.918105656049415e-002	 1.013151956439392e+000	-1.033952143413909e-001
 9.572345891894282e-003	 1.013288301891951e+000	-1.017671234143394e-001
 0.000000000000000e+000	 1.013333517774178e+000	-1.011782553879086e-001
 9.786008278935783e-002	 1.015295157387938e+000	-1.825069575756069e-001
 8.793802450119995e-002	 1.016202601244475e+000	-1.760274424646933e-001
 7.804281460226917e-002	 1.017010381133149e+000	-1.698545932247583e-001
 6.817577198184753e-002	 1.017719430878154e+000	-1.641356773796971e-001
 5.833818741277171e-002	 1.018330702549552e+000	-1.589941220201041e-001
 4.853132337212969e-002	 1.018845165624130e+000	-1.545289543161244e-001
 3.875641388844892e-002	 1.019263806150706e+000	-1.508144730138749e-001
 2.901466441486628e-002	 1.019587625920686e+000	-1.479001512424232e-001
 1.930725172774978e-002	 1.019817641644647e+000	-1.458107693559330e-001
 9.635323850220484e-003	 1.019954884135722e+000	-1.445467749599840e-001
 0.000000000000000e+000	 1.020000397500475e+000	-1.440972047079084e-001
 9.849971760377026e-002	 1.021931347636820e+000	-2.106817215608423e-001
 8.851280658103630e-002	 1.022844722744521e+000	-2.063699816345644e-001
 7.855291943430862e-002	 1.023657782459112e+000	-2.021117632249204e-001
 6.862138367352591e-002	 1.024371466708420e+000	-1.980653469144351e-001
 5.871949850840465e-002	 1.024986733785391e+000	-1.943632437021694e-001
 4.884853466796384e-002	 1.025504559503475e+000	-1.911115514997197e-001
 3.900973424671441e-002	 1.025925936356472e+000	-1.883895551386191e-001
 2.920431057700011e-002	 1.026251872683667e+000	-1.862495703893428e-001
 1.943344812695650e-002	 1.026483391841034e+000	-1.847170307780102e-001
 9.698302423533143e-003	 1.026621531379276e+000	-1.837908143706997e-001
 0.000000000000000e+000	 1.026667342229423e+000	-1.834555455885854e-001
 9.913935753474938e-002	 1.028567590975912e+000	-2.355361020363269e-001
 8.908759325897205e-002	 1.029486897382186e+000	-2.333050670973270e-001
 7.906302834743502e-002	 1.030305236964838e+000	-2.308861124972838e-001
 6.906699893075705e-002	 1.031023555755385e+000	-2.284475985632365e-001
 5.910081265555691e-002	 1.031642818269725e+000	-2.261301306743667e-001
 4.916574850280654e-002	 1.032164006658038e+000	-2.240458295014299e-001
 3.926305663302130e-002	 1.032588119859170e+000	-2.222778576326693e-001
 2.939395825777192e-002	 1.032916172760352e+000	-2.208802032480821e-001
 1.955964553698095e-002	 1.033149195363019e+000	-2.198777197233964e-001
 9.761281501444945e-003	 1.033288231955517e+000	-2.192664183334148e-001
 0.000000000000000e+000	 1.033334340293404e+000	-2.190251612187174e-001
 9.977900146289952e-002	 1.035203875791404e+000	-2.568504743781689e-001
 8.966238352903722e-002	 1.036129113533266e+000	-2.566085448027701e-001
 7.957314044878942e-002	 1.036952733016872e+000	-2.559497207149015e-001
 6.951261697347209e-002	 1.037675686377483e+000	-2.550515792788081e-001
 5.948212918662311e-002	 1.038298944354002e+000	-2.540618989127413e-001
 4.948296432118315e-002	 1.038823495433387e+000	-2.530978408631924e-001
 3.951638060368740e-002	 1.039250344999587e+000	-2.522454003894636e-001
 2.958360712494840e-002	 1.039580514487830e+000	-2.515591283978891e-001
 1.968584373668977e-002	 1.039815040545070e+000	-2.510621225017290e-001
 9.824260973568581e-003	 1.039954974197345e+000	-2.507462846923725e-001
 0.000000000000000e+000	 1.040001380024802e+000	-2.505834170533406e-001
 1.004186482688248e-001	 1.041840190469484e+000	-2.744111368193143e-001
 9.023717638526180e-002	 1.042771359573556e+000	-2.760621007803953e-001
 8.008325484551290e-002	 1.043600258981764e+000	-2.770804291802921e-001
 6.995823702160242e-002	 1.044327846933152e+000	-2.776521236878712e-001
 5.986344743399787e-002	 1.044955100389668e+000	-2.779312827686639e-001
 4.980018156761901e-002	 1.045483014175090e+000	-2.780391920108396e-001
 3.976970571503059e-002	 1.045912600118508e+000	-2.780636976468002e-001
 2.977325684629623e-002	 1.046244886203193e+000	-2.780588643003856e-001
 1.981204250494958e-002	 1.046480915721652e+000	-2.780449160354019e-001
 9.887240729516742e-003	 1.046621746437664e+000	-2.780084579112941e-001
 0.000000000000000e+000	 1.046668449755999e+000	-2.779129864968004e-001
 1.010582968331297e-001	 1.048476523396341e+000	-2.880101439262962e-001
 9.081197082167578e-002	 1.049413623878850e+000	-2.914530945693757e-001
 8.059337064474650e-002	 1.050247803226061e+000	-2.940616740997602e-001
 7.040385829507924e-002	 1.050980025780828e+000	-2.960295871364680e-001
 6.024476673007587e-002	 1.051611274728169e+000	-2.975164677464540e-001
 5.011739968663952e-002	 1.052142551228714e+000	-2.986468757622535e-001
 4.002303152336871e-002	 1.052574873556721e+000	-2.995095902553187e-001
 2.996290708958209e-002	 1.052909276243529e+000	-3.001572013932706e-001
 1.993824162062704e-002	 1.053146809227233e+000	-3.006059998687639e-001
 9.950220658902111e-003	 1.053288537009374e+000	-3.008361611336076e-001
 0.000000000000000e+000	 1.053335537819379e+000	-3.008016831675225e-001
 1.016979460364183e-001	 1.055112862958165e+000	-2.974451462332443e-001
 9.138676583230913e-002	 1.056055894824945e+000	-3.025743988281894e-001
 8.110348695363123e-002	 1.056895354116312e+000	-3.066823260635402e-001
 7.084948001383383e-002	 1.057632211278946e+000	-3.099696849673660e-001
 6.062608640725169e-002	 1.058267455720954e+000	-3.126009295380269e-001
 5.043461812277002e-002	 1.058802094939827e+000	-3.147031101129857e-001
 4.027635758501962e-002	 1.059237153655013e+000	-3.163650842395475e-001
 3.015255752257267e-002	 1.059573672945931e+000	-3.176370404832082e-001
 2.006444086258876e-002	 1.059812709396278e+000	-3.185303344877322e-001
 1.001320065133738e-002	 1.059955334245377e+000	-3.190176345444469e-001
 0.000000000000000e+000	 1.060002632547326e+000	-3.190422994572333e-001
 1.023375947592949e-001	 1.061749197541143e+000	-3.025192357622430e-001
 9.196156041119188e-002	 1.062698160787635e+000	-3.092242448573381e-001
 8.161360287930819e-002	 1.063542900019065e+000	-3.147365354638369e-001
 7.129510139779745e-002	 1.064284391785943e+000	-3.192633377591104e-001
 6.100740579791999e-002	 1.064923631719467e+000	-3.229732790407422e-001
 5.075183632053588e-002	 1.065461633653999e+000	-3.259951830225523e-001
 4.052968345630113e-002	 1.065899428754169e+000	-3.284171953743589e-001
 3.034220781303463e-002	 1.066238064647488e+000	-3.302862371674288e-001
 2.019064000970140e-002	 1.066478604563256e+000	-3.316077856663051e-001
 1.007618059643524e-002	 1.066622126478576e+000	-3.323459797617294e-001
 0.000000000000000e+000	 1.066669722272222e+000	-3.324324511108647e-001
 1.066669722272222e+000	 0.000000000000000e+000	 2.443604450739991e+001
 1.066622126478576e+000	 1.007618059643527e-002	 2.442030310207329e+001
 1.066478604563255e+000	 2.019064000970146e-002	 2.440203562223010e+001
 1.066238064647488e+000	 3.034220781303457e-002	 2.437981198064628e+001
 1.065899428754169e+000	 4.052968345630110e-002	 2.435224179281904e+001
 1.065461633653999e+000	 5.075183632053588e-002	 2.431797197255768e+001
 1.064923631719468e+000	 6.100740579792002e-002	 2.427568981648153e+001
 1.064284391785943e+000	 7.129510139779750e-002	 2.422412611586330e+001
 1.063542900019065e+000	 8.161360287930811e-002	 2.416205829123362e+001
 1.062698160787635e+000	 9.196156041119183e-002	 2.408831354455536e+001
 1.061749197541144e+000	 1.023375947592949e-001	 2.400177202312906e+001
 1.073335797538833e+000	 0.000000000000000e+000	 2.412443220863635e+001
 1.073287904298776e+000	 1.013915095835200e-002	 2.410860036041867e+001
 1.073143485453786e+000	 2.031681995409998e-002	 2.409062110012302e+001
 1.072901442301451e+000	 3.053182924600520e-002	 2.406905032887546e+001
 1.072560690127902e+000	 4.078297078120603e-002	 2.404248393495083e+001
 1.072120159059240e+000	 5.106900625009653e-002	 2.400955583293126e+001
 1.071578794920858e+000	 6.138866716680425e-002	 2.396894107632495e+001
 1.070935560103909e+000	 7.174065497586930e-002	 2.391935899972903e+001
 1.070189434438125e+000	 8.212364118570634e-002	 2.385957638608112e+001
 1.069339416070155e+000	 9.253626752940733e-002	 2.378841065391641e+001
 1.068384522346582e+000	 1.029771461534198e-001	 2.370473305887839e+001
 1.080001857806444e+000	 0.000000000000000e+000	 2.382260287526677e+001
 1.079953667120661e+000	 1.020212117838585e-002	 2.380666572955707e+001
 1.079808351348064e+000	 2.044299961424785e-002	 2.378895018653845e+001
 1.079564804962612e+000	 3.072145025188314e-002	 2.376799864929271e+001
 1.079221936513682e+000	 4.103625753571282e-002	 2.374239376728447e+001
 1.078778669482785e+000	 5.138617546550140e-002	 2.371075689672711e+001
 1.078233943148229e+000	 6.176992767733444e-002	 2.367175123905130e+001
 1.077586713456961e+000	 7.218620755096013e-002	 2.362408501128977e+001
 1.076835953902812e+000	 8.263367834407996e-002	 2.356651464406606e+001
 1.075980656410289e+000	 9.311097335415063e-002	 2.349784800222942e+001
 1.075019832223076e+000	 1.036166961082335e-001	 2.341694762248271e+001
 1.086667904741722e+000	 0.000000000000000e+000	 2.353006487362711e+001
 1.086619416610818e+000	 1.026509127233136e-002	 2.351401313115565e+001
 1.086473203912440e+000	 2.056917902178213e-002	 2.349654186924891e+001
 1.086228154296925e+000	 3.091107087819520e-002	 2.347618052029361e+001
 1.085883169576908e+000	 4.128954378328465e-002	 2.345149899620356e+001
 1.085437166589321e+000	 5.170334404619591e-002	 2.342110654765858e+001
 1.084889078065393e+000	 6.215118742498332e-002	 2.338365492610377e+001
 1.084237853507879e+000	 7.263175923461419e-002	 2.333784158021516e+001
 1.083482460074717e+000	 8.314371448208835e-002	 2.328241288268018e+001
 1.082621883468280e+000	 9.368567802923872e-002	 2.321616738247310e+001
 1.081655128829361e+000	 1.042562447837526e-001	 2.313795907708826e+001
 1.093333940011333e+000	 0.000000000000000e+000	 2.324634156817322e+001
 1.093285154435836e+000	 1.032806125598307e-002	 2.323017078256752e+001
 1.093138044813263e+000	 2.069535820833983e-002	 2.321292876063286e+001
 1.092891491970343e+000	 3.110069117246819e-002	 2.319313250557271e+001
 1.092544390982978e+000	 4.154282958738464e-002	 2.316933970616462e+001
 1.092095652043531e+000	 5.202051207162540e-002	 2.314014797262234e+001
 1.091544201336163e+000	 6.253244650522354e-002	 2.310419801975695e+001
 1.090888981919444e+000	 7.307731013837575e-002	 2.306017688733903e+001
 1.090128954615429e+000	 8.365374972739088e-002	 2.300682119368587e+001
 1.089263098904368e+000	 9.426038169848881e-002	 2.294292041780881e+001
 1.088290413824173e+000	 1.048957923399939e-001	 2.286732020471428e+001
 1.099999965281944e+000	 0.000000000000000e+000	 2.297097086723501e+001
 1.099950882262301e+000	 1.039103114513552e-002	 2.295468075587504e+001
 1.099802875716884e+000	 2.082153720555801e-002	 2.293765666969762e+001
 1.099554819648821e+000	 3.129031118222894e-002	 2.291840373881223e+001
 1.099205602397292e+000	 4.179611501147604e-002	 2.289546795673634e+001
 1.098754127510101e+000	 5.233767962123527e-002	 2.286743577077136e+001
 1.098199314624351e+000	 6.291370501352776e-002	 2.283293728390606e+001
 1.097540100354437e+000	 7.352286037378919e-002	 2.279064949684447e+001
 1.096775439186540e+000	 8.416378420764692e-002	 2.273929958637550e+001
 1.095904304378798e+000	 9.483508450571800e-002	 2.267766821559057e+001
 1.094925688866247e+000	 1.055353389369740e-001	 2.260459287068778e+001
 1.106665982220223e+000	 0.000000000000000e+000	 2.270350478521890e+001
 1.106616601756801e+000	 1.045400095558323e-002	 2.268709855290217e+001
 1.106467698289651e+000	 2.094771604507368e-002	 2.267028418961082e+001
 1.106218138998312e+000	 3.147993095500426e-002	 2.265155552343800e+001
 1.105866805485248e+000	 4.204940011902197e-002	 2.262944739428407e+001
 1.105412594653715e+000	 5.265484677447090e-002	 2.260253557683097e+001
 1.104854419593770e+000	 6.329496304536868e-002	 2.256943999871523e+001
 1.104191210475639e+000	 7.396841005239865e-002	 2.252882800194389e+001
 1.103421915449642e+000	 8.467381805051580e-002	 2.247941764398129e+001
 1.102545501551810e+000	 9.540978659474335e-002	 2.241998103420029e+001
 1.101560955614317e+000	 1.061748847347095e-001	 2.234934770059797e+001
 1.113331992492834e+000	 0.000000000000000e+000	 2.244350902056856e+001
 1.113282314585924e+000	 1.051697070312077e-002	 2.242699269552518e+001
 1.113132514197916e+000	 2.107389475852392e-002	 2.241038230008937e+001
 1.112881451684768e+000	 3.166955053832096e-002	 2.239216094681032e+001
 1.112528001912243e+000	 4.230268497348567e-002	 2.237085287768506e+001
 1.112071055139059e+000	 5.297201361077765e-002	 2.234502369805941e+001
 1.111509517908231e+000	 6.367622069621895e-002	 2.231328360854326e+001
 1.110842313945830e+000	 7.441395928574848e-002	 2.227429068348829e+001
 1.110068385066324e+000	 8.518385138365692e-002	 2.222675419268403e+001
 1.109186692083648e+000	 9.598448810938200e-002	 2.216943796217044e+001
 1.108196215727121e+000	 1.068144298932171e-001	 2.210116376924485e+001
 1.119997997766445e+000	 0.000000000000000e+000	 2.219056254882623e+001
 1.119948022416257e+000	 1.057994040354264e-002	 2.217394433064431e+001
 1.119797325108027e+000	 2.120007337754572e-002	 2.215753398402649e+001
 1.119544759374145e+000	 3.185916997970588e-002	 2.213980450824742e+001
 1.119189193343679e+000	 4.255596963833025e-002	 2.211927011748867e+001
 1.118729510630817e+000	 5.328918020960095e-002	 2.209448676428384e+001
 1.118164611231547e+000	 6.405747806155128e-002	 2.206405538259294e+001
 1.117493412427794e+000	 7.485950818538292e-002	 2.202662518096550e+001
 1.116714849698179e+000	 8.569388433472962e-002	 2.198089698269436e+001
 1.115827877634553e+000	 9.655918919345111e-002	 2.192562660908054e+001
 1.114831470863391e+000	 1.074539745725134e-001	 2.185962830108108e+001
 1.126663999707723e+000	 0.000000000000000e+000	 2.194425723016879e+001
 1.126613726914387e+000	 1.064291007264340e-002	 2.192754684920777e+001
 1.126462132686335e+000	 2.132625193377614e-002	 2.191133385776554e+001
 1.126208063732395e+000	 3.204878932668583e-002	 2.189408176030769e+001
 1.125850381444952e+000	 4.280925417701895e-002	 2.187429532796401e+001
 1.125387962793674e+000	 5.360634665038612e-002	 2.185052139046921e+001
 1.124819701227530e+000	 6.443873523683831e-002	 2.182135208775560e+001
 1.124144507584308e+000	 7.530505686284626e-002	 2.178542817537352e+001
 1.123361311006796e+000	 8.620391703139331e-002	 2.174144238090619e+001
 1.122469059864767e+000	 9.713388999076773e-002	 2.168814280773950e+001
 1.121466722681864e+000	 1.080935189326152e-001	 2.162433638167033e+001
 1.133329999983334e+000	 0.000000000000000e+000	 2.170419743082172e+001
 1.133279429746903e+000	 1.070587972621758e-002	 2.168740551870875e+001
 1.133126938599190e+000	 2.145243045885220e-002	 2.167138781445878e+001
 1.132871366425473e+000	 3.223840862678761e-002	 2.165459896278429e+001
 1.132511567881462e+000	 4.306253865301489e-002	 2.163553489150376e+001
 1.132046413292315e+000	 5.392351301257858e-002	 2.161273385130347e+001
 1.131474789559993e+000	 6.481999231755271e-002	 2.158477967314852e+001
 1.130795601078155e+000	 7.575060542968279e-002	 2.155030508347932e+001
 1.130007770653767e+000	 8.671394960130725e-002	 2.150799507464426e+001
 1.129110240434534e+000	 9.770859064514900e-002	 2.145659032718801e+001
 1.128101972841275e+000	 1.087330631335390e-001	 2.139489067970777e+001
 1.061749197541144e+000	 1.023375947592949e-001	 2.400177202312906e+001
 1.060695219771598e+000	 1.127387389089459e-001	 2.390621643790281e+001
 1.059535157810359e+000	 1.231651289297503e-001	 2.380548620474392e+001
 1.058268098201429e+000	 1.336153222406547e-001	 2.369867677328177e+001
 1.056893150044585e+000	 1.440878485620556e-001	 2.358494831224722e+001
 1.055409445871443e+000	 1.545812102484205e-001	 2.346352882953057e+001
 1.053816142520104e+000	 1.650938826503425e-001	 2.333371725234084e+001
 1.052112422007309e+000	 1.756243145063028e-001	 2.319488645609047e+001
 1.050297492397054e+000	 1.861709283643864e-001	 2.304648622977893e+001
 1.048370588664549e+000	 1.967321210341483e-001	 2.288804616479860e+001
 1.046330973554413e+000	 2.073062640687906e-001	 2.271917845324321e+001
 1.068384522346582e+000	 1.029771461534198e-001	 2.370473305887839e+001
 1.067323957819170e+000	 1.134432915009483e-001	 2.361233447568005e+001
 1.066156646134477e+000	 1.239348404919512e-001	 2.351506316395220e+001
 1.064881668127946e+000	 1.344503415300592e-001	 2.341200630735631e+001
 1.063498127331754e+000	 1.449883151472519e-001	 2.330231618937314e+001
 1.062005150856359e+000	 1.555472543385594e-001	 2.318521335099819e+001
 1.060401890270602e+000	 1.661256249263772e-001	 2.305998971174750e+001
 1.058687522479315e+000	 1.767218659546793e-001	 2.292601164250292e+001
 1.056861250597369e+000	 1.873343901133681e-001	 2.278272297783397e+001
 1.054922304819027e+000	 1.979615841929645e-001	 2.262964795453911e+001
 1.052869943281504e+000	 2.086018095697990e-001	 2.246639406226160e+001
 1.075019832223076e+000	 1.036166961082335e-001	 2.341694762248271e+001
 1.073952680952703e+000	 1.141478425074454e-001	 2.332760806459094e+001
 1.072778119560937e+000	 1.247045503220942e-001	 2.323368259091386e+001
 1.071495223174678e+000	 1.352853589405142e-001	 2.313425126888422e+001
 1.070103089758523e+000	 1.458887797062889e-001	 2.302845967785624e+001
 1.068600841001780e+000	 1.565132962550305e-001	 2.291552210457417e+001
 1.066987623204044e+000	 1.671573648809591e-001	 2.279472470530196e+001
 1.065262608158258e+000	 1.778194149335622e-001	 2.266542862304965e+001
 1.063424994030176e+000	 1.884978492445813e-001	 2.252707304739710e+001
 1.061474006233129e+000	 1.991910445855254e-001	 2.237917820347544e+001
 1.059408898296942e+000	 2.098973521558755e-001	 2.222134825573381e+001
 1.081655128829361e+000	 1.042562447837526e-001	 2.313795907708826e+001
 1.080581390829266e+000	 1.148523921046916e-001	 2.305158237736343e+001
 1.079399579744983e+000	 1.254742586127104e-001	 2.296089234090040e+001
 1.078108764994883e+000	 1.361203746808647e-001	 2.286496305576414e+001
 1.076708038975992e+000	 1.467892424643597e-001	 2.276293456316223e+001
 1.075196517956486e+000	 1.574793362394091e-001	 2.265401609082760e+001
 1.073573342966726e+000	 1.681891027720756e-001	 2.253748925656425e+001
 1.071837680687771e+000	 1.789169617173799e-001	 2.241271123029981e+001
 1.069988724336277e+000	 1.896613060489216e-001	 2.227911784200872e+001
 1.068025694544651e+000	 2.004205025192179e-001	 2.213622662188374e+001
 1.065947840235338e+000	 2.111928921509209e-001	 2.198363975815089e+001
 1.088290413824173e+000	 1.048957923399939e-001	 2.286732020471427e+001
 1.087210089105928e+000	 1.155569404689416e-001	 2.278381161145115e+001
 1.086021028341859e+000	 1.262439655563311e-001	 2.269624890138429e+001
 1.084722295241816e+000	 1.369553889599556e-001	 2.260370130738901e+001
 1.083312976635267e+000	 1.476897036466583e-001	 2.250530448352579e+001
 1.081792183369263e+000	 1.584453745332703e-001	 2.240026377648335e+001
 1.080159051204942e+000	 1.692208388577142e-001	 2.228785747084766e+001
 1.078412741711491e+000	 1.800145065805603e-001	 2.216743999645055e+001
 1.076552443156474e+000	 1.908247608172845e-001	 2.203844508502537e+001
 1.074577371391386e+000	 2.016499583014293e-001	 2.190038886236265e+001
 1.072486770731300e+000	 2.124884298788353e-001	 2.175287286112659e+001
 1.094925688866247e+000	 1.055353389369740e-001	 2.260459287068778e+001
 1.093838777439760e+000	 1.162614877764497e-001	 2.252385866403590e+001
 1.092642467006809e+000	 1.270136713454877e-001	 2.243931707821586e+001
 1.091335815568734e+000	 1.377904019866320e-001	 2.235003360258940e+001
 1.089917904387451e+000	 1.485901634783783e-001	 2.225514064023622e+001
 1.088387838888894e+000	 1.594114113781895e-001	 2.215384081760936e+001
 1.086744749564987e+000	 1.702525733958623e-001	 2.204541027184949e+001
 1.084987792873053e+000	 1.811120497975321e-001	 2.192920190392482e+001
 1.083116152131570e+000	 1.919882138405656e-001	 2.180464858468758e+001
 1.081129038411128e+000	 2.028794122395463e-001	 2.167126629985415e+001
 1.079025691419437e+000	 2.137839656635191e-001	 2.152865721883230e+001
 1.101560955614317e+000	 1.061748847347095e-001	 2.234934770059797e+001
 1.100467457487831e+000	 1.169660342034704e-001	 2.227129481924637e+001
 1.099263897395078e+000	 1.277833761727112e-001	 2.218966969369820e+001
 1.097949327628892e+000	 1.386254139697389e-001	 2.210353516914205e+001
 1.096522823883646e+000	 1.494906221847133e-001	 2.201202151914248e+001
 1.094983486164163e+000	 1.603774470157416e-001	 2.191432979366412e+001
 1.093330439693156e+000	 1.712843066445071e-001	 2.180973514876958e+001
 1.091562835816092e+000	 1.822095916427233e-001	 2.169759014607128e+001
 1.089679852902367e+000	 1.931516654096603e-001	 2.157732800889284e+001
 1.087680697241672e+000	 2.041088646409560e-001	 2.144846582096101e+001
 1.085564603934357e+000	 2.150794998288730e-001	 2.131060765230952e+001
 1.108196215727121e+000	 1.068144298932171e-001	 2.210116376924486e+001
 1.107096130907212e+000	 1.176705799262584e-001	 2.202569944708007e+001
 1.105885321161910e+000	 1.285530802305332e-001	 2.194688729606054e+001
 1.104562833075548e+000	 1.394604251181213e-001	 2.186378860435909e+001
 1.103127736774956e+000	 1.503910799908570e-001	 2.177553262290666e+001
 1.101579126843853e+000	 1.613434816875018e-001	 2.168131995194793e+001
 1.099916123235745e+000	 1.723160388616364e-001	 2.158042591347594e+001
 1.098137872184243e+000	 1.833071323905622e-001	 2.147220389754269e+001
 1.096243547109668e+000	 1.943151158154643e-001	 2.135608866926680e+001
 1.094232349520812e+000	 2.053383158130456e-001	 2.123159962217077e+001
 1.092103509910670e+000	 2.163750326987972e-001	 2.109834396228639e+001
 1.114831470863391e+000	 1.074539745725134e-001	 2.185962830108108e+001
 1.113724799354973e+000	 1.183751251210680e-001	 2.178665971353995e+001
 1.112506739962550e+000	 1.293227837114847e-001	 2.171055787985430e+001
 1.111176333561957e+000	 1.402954356406242e-001	 2.163038360629420e+001
 1.109732644712486e+000	 1.512915371220031e-001	 2.154526621355729e+001
 1.108174762576749e+000	 1.623095156350454e-001	 2.145440696202391e+001
 1.106501801839048e+000	 1.733477703052374e-001	 2.135708246729783e+001
 1.104712903621141e+000	 1.844046723154772e-001	 2.125264809394867e+001
 1.102807236394275e+000	 1.954785653488730e-001	 2.114054131414405e+001
 1.100783996886342e+000	 2.065677660632019e-001	 2.102028501661449e+001
 1.098642410982984e+000	 2.176705645971922e-001	 2.089149075014399e+001
 1.121466722681864e+000	 1.080935189326152e-001	 2.162433638167033e+001
 1.120353464488183e+000	 1.190796699641537e-001	 2.155377030152039e+001
 1.119128155452241e+000	 1.300924868080971e-001	 2.148027661681850e+001
 1.117789830741375e+000	 1.411304457460927e-001	 2.140291671512611e+001
 1.116337549347337e+000	 1.521919938033452e-001	 2.132082106491491e+001
 1.114770395011633e+000	 1.632755490999475e-001	 2.123319267969507e+001
 1.113087477149361e+000	 1.743795012332977e-001	 2.113931057704739e+001
 1.111287931770423e+000	 1.855022116918965e-001	 2.103853322039763e+001
 1.109370922396989e+000	 1.966420143007822e-001	 2.093030193008898e+001
 1.107335640976057e+000	 2.077972156988120e-001	 2.081414424900600e+001
 1.105181308785909e+000	 2.189660958479585e-001	 2.068967724669363e+001
 1.128101972841275e+000	 1.087330631335390e-001	 2.139489067970778e+001
 1.126982127963913e+000	 1.197842146317701e-001	 2.132663314199915e+001
 1.125749569286228e+000	 1.308621897129018e-001	 2.125564559678274e+001
 1.124403326267059e+000	 1.419654556433717e-001	 2.118099106429906e+001
 1.122942452330613e+000	 1.530924502600770e-001	 2.110180222448275e+001
 1.121366025797290e+000	 1.642415823237833e-001	 2.101728492014301e+001
 1.119673150812978e+000	 1.754112319038044e-001	 2.092672165988859e+001
 1.117862958275722e+000	 1.865997507942483e-001	 2.082947510856162e+001
 1.115934606758614e+000	 1.978054629620873e-001	 2.072499155160465e+001
 1.113887283427750e+000	 2.090266650272629e-001	 2.061280431842432e+001
 1.111720204954052e+000	 2.202616267749964e-001	 2.049253714844360e+001
 1.046330973554413e+000	 2.073062640687906e-001	 2.271917845324321e+001
 1.044177607052323e+000	 2.178932926067863e-001	 2.254124471037902e+001
 1.041910107943235e+000	 2.284899410842093e-001	 2.235578270796457e+001
 1.039527827994735e+000	 2.390945051871895e-001	 2.216272267579740e+001
 1.037030150131326e+000	 2.497052575127223e-001	 2.196208809958717e+001
 1.034416489247346e+000	 2.603204482043598e-001	 2.175399777921293e+001
 1.031686293007040e+000	 2.709383056183087e-001	 2.153866769354411e+001
 1.028839042630563e+000	 2.815570370197589e-001	 2.131641265298810e+001
 1.025874253664687e+000	 2.921748293092218e-001	 2.108764772050305e+001
 1.022791476736971e+000	 3.027898497785945e-001	 2.085288938148437e+001
 1.019590298292188e+000	 3.134002468966224e-001	 2.061275644271998e+001
 1.052869943281504e+000	 2.086018095697990e-001	 2.246639406226160e+001
 1.050703119470998e+000	 2.192550009769878e-001	 2.229433191471182e+001
 1.048421449790088e+000	 2.299178724427004e-001	 2.211500939668544e+001
 1.046024281955267e+000	 2.405887090020831e-001	 2.192835742620065e+001
 1.043510995034660e+000	 2.512657724568544e-001	 2.173440104052000e+001
 1.040881000266023e+000	 2.619473020149687e-001	 2.153326150854260e+001
 1.038133741861805e+000	 2.726315149608756e-001	 2.132515824987653e+001
 1.035268697800079e+000	 2.833166073562020e-001	 2.111041054121240e+001
 1.032285380600047e+000	 2.940007547706283e-001	 2.088943899015007e+001
 1.029183338080940e+000	 3.046821130426786e-001	 2.066276675626268e+001
 1.025962154103039e+000	 3.153588190700910e-001	 2.043102049892825e+001
 1.059408898296942e+000	 2.098973521558755e-001	 2.222134825573380e+001
 1.057228617208352e+000	 2.206167062833925e-001	 2.205496315163169e+001
 1.054932776987560e+000	 2.313458005883875e-001	 2.188158017936766e+001
 1.052520721299978e+000	 2.420829094550495e-001	 2.170113062627949e+001
 1.049991825357360e+000	 2.528262838898459e-001	 2.151364067179376e+001
 1.047345496740881e+000	 2.635741521651587e-001	 2.131923355560658e+001
 1.044581176211209e+000	 2.743247204937079e-001	 2.111813155296956e+001
 1.041698338504331e+000	 2.850761737335841e-001	 2.091065773714893e+001
 1.038696493111893e+000	 2.958266761236637e-001	 2.069723750861144e+001
 1.035575185044799e+000	 3.065743720491249e-001	 2.047839987007991e+001
 1.032333995578839e+000	 3.173173868367261e-001	 2.025477842630876e+001
 1.065947840235338e+000	 2.111928921509209e-001	 2.198363975815089e+001
 1.063754101895628e+000	 2.219784088664360e-001	 2.182274602564973e+001
 1.061444091163351e+000	 2.327737258782584e-001	 2.165511057708474e+001
 1.059017147652842e+000	 2.435771069196422e-001	 2.148066474305194e+001
 1.056472642719491e+000	 2.543867922018260e-001	 2.129943542843922e+001
 1.053809980287900e+000	 2.652009990616432e-001	 2.111154733815377e+001
 1.051028597666957e+000	 2.760179226401070e-001	 2.091722501069599e+001
 1.048127966350573e+000	 2.868357365917952e-001	 2.071679463908291e+001
 1.045107592802839e+000	 2.976525938248044e-001	 2.051068565806311e+001
 1.041967019226337e+000	 3.084666272709911e-001	 2.029943207611019e+001
 1.038705824312371e+000	 3.192759506861582e-001	 2.008367353034586e+001
 1.072486770731300e+000	 2.124884298788353e-001	 2.175287286112659e+001
 1.070279575164070e+000	 2.233401090665541e-001	 2.159729335520913e+001
 1.067955393945159e+000	 2.342016486693012e-001	 2.143522101304334e+001
 1.065513562637833e+000	 2.450713017694148e-001	 2.126658687450065e+001
 1.062953448741119e+000	 2.559472977829249e-001	 2.109141814508804e+001
 1.060274452523056e+000	 2.668278431111357e-001	 2.090984048108794e+001
 1.057476007840754e+000	 2.777111218233742e-001	 2.072208008360807e+001
 1.054557582946055e+000	 2.885952963707256e-001	 2.052846558046926e+001
 1.051518681275496e+000	 2.994785083305274e-001	 2.032942967424745e+001
 1.048358842223344e+000	 3.103588791813349e-001	 2.012551053428452e+001
 1.045077641896419e+000	 3.212345111080174e-001	 1.991735291010242e+001
 1.079025691419437e+000	 2.137839656635191e-001	 2.152865721883230e+001
 1.076805038644923e+000	 2.247018072241827e-001	 2.137822298337495e+001
 1.074466686960685e+000	 2.356295693185038e-001	 2.122153663775569e+001
 1.072009967878922e+000	 2.465654943779209e-001	 2.105852858845017e+001
 1.069434245042312e+000	 2.575078010232722e-001	 2.088922590777407e+001
 1.066738915062326e+000	 2.684546847203496e-001	 2.071375468040829e+001
 1.063923408344307e+000	 2.794043184668105e-001	 2.053234216022967e+001
 1.060987189898027e+000	 2.903548535102650e-001	 2.034531871578658e+001
 1.057929760132478e+000	 3.013044200973088e-001	 2.015311954209615e+001
 1.054750655633610e+000	 3.122511282532140e-001	 1.995628611588838e+001
 1.051449449923766e+000	 3.231930685919333e-001	 1.975546737099681e+001
 1.085564603934357e+000	 2.150794998288730e-001	 2.131060765230952e+001
 1.083330493969430e+000	 2.260635036797578e-001	 2.116515759699324e+001
 1.080977971837627e+000	 2.370574881828541e-001	 2.101368716230487e+001
 1.078506365000086e+000	 2.480596851187143e-001	 2.085612576919482e+001
 1.075915033243134e+000	 2.590683023129977e-001	 2.069249991317481e+001
 1.073203369521688e+000	 2.700815242959982e-001	 2.052293557431247e+001
 1.070370800789320e+000	 2.810975129937173e-001	 2.034766043926540e+001
 1.067416788813741e+000	 2.921144084503037e-001	 2.016700591309367e+001
 1.064340830976396e+000	 3.031303295816257e-001	 1.998140889787305e+001
 1.061142461054927e+000	 3.141433749596863e-001	 1.979141331452790e+001
 1.057821249987196e+000	 3.251516236275364e-001	 1.959767134382818e+001
 1.092103509910670e+000	 2.163750326987972e-001	 2.109834396228639e+001
 1.089855942768836e+000	 2.274251987737151e-001	 2.095772455396273e+001
 1.087489250203683e+000	 2.384854056193400e-001	 2.081130669936347e+001
 1.085002755625295e+000	 2.495538743653484e-001	 2.065901847155090e+001
 1.082395814963654e+000	 2.606288020422316e-001	 2.050088533498045e+001
 1.079667817517119e+000	 2.717083622447951e-001	 2.033703262116110e+001
 1.076818186787501e+000	 2.827907058273957e-001	 2.016768781843566e+001
 1.073846381300447e+000	 2.938739616307315e-001	 1.999318265300719e+001
 1.070751895409864e+000	 3.049562372399547e-001	 1.981395493756392e+001
 1.067534260085082e+000	 3.160356197738095e-001	 1.963055016319808e+001
 1.064193043679492e+000	 3.271101767044565e-001	 1.944362280978785e+001
 1.098642410982984e+000	 2.176705645971922e-001	 2.089149075014400e+001
 1.096381386674383e+000	 2.287868928464906e-001	 2.075555571828109e+001
 1.094000523686553e+000	 2.399133219849495e-001	 2.061403361164197e+001
 1.091499141378525e+000	 2.510480624913769e-001	 2.046685078202436e+001
 1.088876591823937e+000	 2.621893006011032e-001	 2.031403119709340e+001
 1.086132260664596e+000	 2.733351989734535e-001	 2.015569898401786e+001
 1.083265567950552e+000	 2.844838973911467e-001	 1.999208078966204e+001
 1.080275968965396e+000	 2.956335134914386e-001	 1.982350793383322e+001
 1.077162955035492e+000	 3.067821435287720e-001	 1.965041833125194e+001
 1.073926054321867e+000	 3.179278631686413e-001	 1.947335815719843e+001
 1.070564832593438e+000	 3.290687283123238e-001	 1.929298323120793e+001
 1.105181308785909e+000	 2.189660958479585e-001	 2.068967724669362e+001
 1.102906827317317e+000	 2.301485862385200e-001	 2.055828730254309e+001
 1.100511793913937e+000	 2.413412376366705e-001	 2.042151036745848e+001
 1.097995523883749e+000	 2.525422498703536e-001	 2.027927068679837e+001
 1.095357365444049e+000	 2.637497983797427e-001	 2.013159025337499e+001
 1.092596700580097e+000	 2.749620348886868e-001	 1.997859142149226e+001
 1.089712945890182e+000	 2.861770881082720e-001	 1.982049934033905e+001
 1.086705553415838e+000	 2.973930644723152e-001	 1.965764418259749e+001
 1.083574011455895e+000	 3.086080489045548e-001	 1.949046314323228e+001
 1.080317845363071e+000	 3.198201056172396e-001	 1.931950218265363e+001
 1.076936618321817e+000	 3.310272789407683e-001	 1.914541748780894e+001
 1.111720204954052e+000	 2.202616267749964e-001	 2.049253714844360e+001
 1.109432266328881e+000	 2.315102792902392e-001	 2.036555971758333e+001
 1.107023062513533e+000	 2.427691529314909e-001	 2.023338340313641e+001
 1.104491904764940e+000	 2.540364368758318e-001	 2.009592994625968e+001
 1.101838137444058e+000	 2.653102957682796e-001	 1.995321887366951e+001
 1.099061138879598e+000	 2.765888703972085e-001	 1.980537018462567e+001
 1.096160322218095e+000	 2.878702784020723e-001	 1.965260686044222e+001
 1.093135136259025e+000	 2.991526150132511e-001	 1.949525717173119e+001
 1.089985066273683e+000	 3.104339538237795e-001	 1.933375675762797e+001
 1.086709634806486e+000	 3.217123475926619e-001	 1.916865045040922e+001
 1.083308402457412e+000	 3.329858290794202e-001	 1.900059381822058e+001
 1.019590298292188e+000	 3.134002468966224e-001	 2.061275644271998e+001
 1.016270341054748e+000	 3.240041509680922e-001	 2.036553618844983e+001
 1.012831263959774e+000	 3.345996744956820e-001	 2.010944652552687e+001
 1.009272763592686e+000	 3.451849134900504e-001	 1.984513887644265e+001
 1.005594575098846e+000	 3.557579485199885e-001	 1.957334371501266e+001
 1.001796472814765e+000	 3.663168456381125e-001	 1.929486986506821e+001
 9.978782708743237e-001	 3.768596573328684e-001	 1.901060345651398e+001
 9.938398237888124e-001	 3.873844235061286e-001	 1.872150652214870e+001
 9.896810269996652e-001	 3.978891724756004e-001	 1.842861521956489e+001
 9.854018174027490e-001	 4.083719220012180e-001	 1.813303766354429e+001
 9.810021738431126e-001	 4.188306803346251e-001	 1.783595135565077e+001
 1.025962154103039e+000	 3.153588190700910e-001	 2.043102049892825e+001
 1.022621449032989e+000	 3.260289914731288e-001	 2.019232972196534e+001
 1.019160879674458e+000	 3.366907309586894e-001	 1.994475885495412e+001
 1.015580140716707e+000	 3.473421216385829e-001	 1.968897576782910e+001
 1.011878965649917e+000	 3.579812320862496e-001	 1.942572904463036e+001
 1.008057127400339e+000	 3.686061162682363e-001	 1.915584730776825e+001
 1.004114438940307e+000	 3.792148145021522e-001	 1.888023819236013e+001
 1.000050753871896e+000	 3.898053544403731e-001	 1.859988695322196e+001
 9.958659669831210e-001	 4.003757520787162e-001	 1.831585468802265e+001
 9.915600147754914e-001	 4.109240127892444e-001	 1.802927616121665e+001
 9.871328759618585e-001	 4.214481323763099e-001	 1.774135721467435e+001
 1.032333995578839e+000	 3.173173868367261e-001	 2.025477842630876e+001
 1.028972542722899e+000	 3.280538274222357e-001	 2.002434702978182e+001
 1.025490481149196e+000	 3.387817827167959e-001	 1.978502041696654e+001
 1.021887503650834e+000	 3.494993249333950e-001	 1.953748453104018e+001
 1.018163342062814e+000	 3.602045106501481e-001	 1.928250783528352e+001
 1.014317767901132e+000	 3.708953817475604e-001	 1.902094066576332e+001
 1.010350592976570e+000	 3.815699663724302e-001	 1.875371422651839e+001
 1.006261669981995e+000	 3.922262799276644e-001	 1.848183920898609e+001
 1.002050893051997e+000	 4.028623260872160e-001	 1.820640401833064e+001
 9.977181982937291e-001	 4.134760978353049e-001	 1.792857259045481e+001
 9.932635642878445e-001	 4.240655785290188e-001	 1.764958178479698e+001
 1.038705824312371e+000	 3.192759506861582e-001	 2.008367353034586e+001
 1.035323623712072e+000	 3.300786593216034e-001	 1.986123160545500e+001
 1.031820069966206e+000	 3.408728302927376e-001	 1.962987635769965e+001
 1.028194853971724e+000	 3.516565239137509e-001	 1.939031338434124e+001
 1.024447705908449e+000	 3.624277847674573e-001	 1.914333275058244e+001
 1.020578395882120e+000	 3.731846426483437e-001	 1.888980837367020e+001
 1.016586734541975e+000	 3.839251135324219e-001	 1.863069704166572e+001
 1.012472573671668e+000	 3.946472005731540e-001	 1.836703704773485e+001
 1.008235806752366e+000	 4.053488951226541e-001	 1.809994642173886e+001
 1.003876369496865e+000	 4.160281777773232e-001	 1.783062074203784e+001
 9.993942403536174e-001	 4.266830194470083e-001	 1.756033051175258e+001
 1.045077641896419e+000	 3.212345111080174e-001	 1.991735291010242e+001
 1.041674693588099e+000	 3.321034876774224e-001	 1.970263072464632e+001
 1.038149647707703e+000	 3.429638742092506e-001	 1.947897556430293e+001
 1.034502193256031e+000	 3.538137191189148e-001	 1.924711421602210e+001
 1.030732058757729e+000	 3.646510549939495e-001	 1.900786002301977e+001
 1.026839012908283e+000	 3.754738995428443e-001	 1.876211230346767e+001
 1.022822865195384e+000	 3.862802565708465e-001	 1.851085539574710e+001
 1.018683466493476e+000	 3.970681169819943e-001	 1.825515731020239e+001
 1.014420709630302e+000	 4.078354598065851e-001	 1.799616796825574e+001
 1.010034529924301e+000	 4.185802532532225e-001	 1.773511701088671e+001
 1.005524905691725e+000	 4.293004557845356e-001	 1.747331115983363e+001
 1.051449449923766e+000	 3.231930685919333e-001	 1.975546737099681e+001
 1.048025753938572e+000	 3.341283129958826e-001	 1.954819536621400e+001
 1.044479215955903e+000	 3.450549149890706e-001	 1.933197059539174e+001
 1.040809523080410e+000	 3.559709110881510e-001	 1.910754252522530e+001
 1.037016402181564e+000	 3.668743218853973e-001	 1.887574940616030e+001
 1.033099620544599e+000	 3.777631530033208e-001	 1.863751772899890e+001
 1.029058986495659e+000	 3.886353960764227e-001	 1.839386129970889e+001
 1.024894349999979e+000	 3.994890297593372e-001	 1.814587991141205e+001
 1.020605603231880e+000	 4.103220207605629e-001	 1.789475759345939e+001
 1.016192681115441e+000	 4.211323249009262e-001	 1.764176041865072e+001
 1.011655561834714e+000	 4.319178881958571e-001	 1.738823385102542e+001
 1.057821249987196e+000	 3.251516236275364e-001	 1.959767134382818e+001
 1.054376806351084e+000	 3.361531357831747e-001	 1.939758013942920e+001
 1.050808776293023e+000	 3.471459531549336e-001	 1.918851761746267e+001
 1.047116845021517e+000	 3.581281003607237e-001	 1.897125736854130e+001
 1.043300737750864e+000	 3.690975859975734e-001	 1.874666413236427e+001
 1.039360220356044e+000	 3.800524036020316e-001	 1.851569329574109e+001
 1.035295100001661e+000	 3.909905326378698e-001	 1.827939000019927e+001
 1.031105225743738e+000	 4.019099395103344e-001	 1.803888783715703e+001
 1.026790489103172e+000	 4.128085786061421e-001	 1.779540710957534e+001
 1.022350824609688e+000	 4.236843933583578e-001	 1.755025264016073e+001
 1.017786210315132e+000	 4.345353173352295e-001	 1.730481110757861e+001
 1.064193043679492e+000	 3.271101767044565e-001	 1.944362280978785e+001
 1.060727852413227e+000	 3.381779565454890e-001	 1.925044321705889e+001
 1.057138330301280e+000	 3.492369892295757e-001	 1.904827634702278e+001
 1.053424160656007e+000	 3.602852874758972e-001	 1.883792131212839e+001
 1.049585067036537e+000	 3.713208478862503e-001	 1.862027087581402e+001
 1.045620813907598e+000	 3.823416519112352e-001	 1.839631099562221e+001
 1.041531207272252e+000	 3.933456668439073e-001	 1.816711996702664e+001
 1.037316095277311e+000	 4.043308468401382e-001	 1.793386714491992e+001
 1.032975368790253e+000	 4.152951339648769e-001	 1.769781122064079e+001
 1.028508961946442e+000	 4.262364592634404e-001	 1.746029803358864e+001
 1.023916852665525e+000	 4.371527438569092e-001	 1.722275789787678e+001
 1.070564832593438e+000	 3.290687283123238e-001	 1.929298323120793e+001
 1.067078893712593e+000	 3.402027757890157e-001	 1.910644627407247e+001
 1.063467879562889e+000	 3.513280237357326e-001	 1.891090999819448e+001
 1.059731471560536e+000	 3.624424729729358e-001	 1.870720038912812e+001
 1.055869391609492e+000	 3.735441081072007e-001	 1.849623972062205e+001
 1.051881402764239e+000	 3.846308985031900e-001	 1.827904614667387e+001
 1.047767309866292e+000	 3.957007992832538e-001	 1.805673288517872e+001
 1.043526960153260e+000	 4.067517523539003e-001	 1.783050696904563e+001
 1.039160243839196e+000	 4.177816874583215e-001	 1.760166754158665e+001
 1.034667094665108e+000	 4.287885232540981e-001	 1.737160367415882e+001
 1.030047490418440e+000	 4.397701684151531e-001	 1.714179168546324e+001
 1.076936618321817e+000	 3.310272789407683e-001	 1.914541748780894e+001
 1.073429931836776e+000	 3.422275940199455e-001	 1.896525443173887e+001
 1.069797425660067e+000	 3.534190571961404e-001	 1.877608523556958e+001
 1.066038779311758e+000	 3.645996573911034e-001	 1.857876406215696e+001
 1.062153713040640e+000	 3.757673672161970e-001	 1.837424413381164e+001
 1.058141988490943e+000	 3.869201439501546e-001	 1.816357737732269e+001
 1.054003409342645e+000	 3.980559305446286e-001	 1.794791365121441e+001
 1.049737821924144e+000	 4.091726566567728e-001	 1.772849952999346e+001
 1.045345115796075e+000	 4.202682397080301e-001	 1.750667662107587e+001
 1.040825224305087e+000	 4.313405859682537e-001	 1.728387939126529e+001
 1.036178125106425e+000	 4.423875916642178e-001	 1.706163248109633e+001
 1.083308402457412e+000	 3.329858290794202e-001	 1.900059381822058e+001
 1.079780968373366e+000	 3.442524117444685e-001	 1.882653620689192e+001
 1.076126970175029e+000	 3.555100901335350e-001	 1.864347213209680e+001
 1.072346085486329e+000	 3.667568412696645e-001	 1.845228519066498e+001
 1.068438032900888e+000	 3.779906257690122e-001	 1.825396094296830e+001
 1.064402572652689e+000	 3.892093888243871e-001	 1.804958661512679e+001
 1.060239507260171e+000	 4.004110612167509e-001	 1.784035037384799e+001
 1.055948682142524e+000	 4.115935603539074e-001	 1.762754014749934e+001
 1.051529986206963e+000	 4.227547913355571e-001	 1.741254196794321e+001
 1.046983352405783e+000	 4.338926480438310e-001	 1.719683780885599e+001
 1.042308758262027e+000	 4.450050142583599e-001	 1.698200289770952e+001
 9.810021738431126e-001	 4.188306803346251e-001	 1.783595135565077e+001
 9.764828047075795e-001	 4.292618845903969e-001	 1.753410847511827e+001
 9.718431238218865e-001	 4.396650991708302e-001	 1.722427785813538e+001
 9.670832392392218e-001	 4.500383117743657e-001	 1.690788713684982e+001
 9.622033025948158e-001	 4.603795050253364e-001	 1.658641500334444e+001
 9.572035094363700e-001	 4.706866576225989e-001	 1.626138631043528e+001
 9.520840995190897e-001	 4.809577455047829e-001	 1.593436673560256e+001
 9.468453570644847e-001	 4.911907430309179e-001	 1.560695700938647e+001
 9.414876109821542e-001	 5.013836241751539e-001	 1.528078671224278e+001
 9.360112350538159e-001	 5.115343637342538e-001	 1.495750764665501e+001
 9.304166480789026e-001	 5.216409385464856e-001	 1.463878679422148e+001
 9.871328759618585e-001	 4.214481323763099e-001	 1.774135721467435e+001
 9.825852633560629e-001	 4.319445256884886e-001	 1.744881163441087e+001
 9.779165871205763e-001	 4.424127544058430e-001	 1.714835487367705e+001
 9.731269559838418e-001	 4.528507936510823e-001	 1.684141709868731e+001
 9.682165225287075e-001	 4.632566134410979e-001	 1.652947895593831e+001
 9.631854835249192e-001	 4.736281798427740e-001	 1.621406661564856e+001
 9.580340802259996e-001	 4.839634561455170e-001	 1.589674636803150e+001
 9.527625986296655e-001	 4.942604040492620e-001	 1.557911877329651e+001
 9.473713697009942e-001	 5.045169848666595e-001	 1.526281236900739e+001
 9.418607695576092e-001	 5.147311607381127e-001	 1.494947694130412e+001
 9.362312196161845e-001	 5.249008958582897e-001	 1.464077636949790e+001
 9.932635642878445e-001	 4.240655785290188e-001	 1.764958178479698e+001
 9.886877082751898e-001	 4.346271607509846e-001	 1.736609551758163e+001
 9.839900367549843e-001	 4.451604034590352e-001	 1.707476168264050e+001
 9.791706591309307e-001	 4.556632692001785e-001	 1.677701176286558e+001
 9.742297289334985e-001	 4.661337153838935e-001	 1.647432705618731e+001
 9.691674441544828e-001	 4.765696954451200e-001	 1.616823366497889e+001
 9.639840475457245e-001	 4.869691600240705e-001	 1.586029702789756e+001
 9.586798268811472e-001	 4.973300581616141e-001	 1.555211599459389e+001
 9.532551151813121e-001	 5.076503385089313e-001	 1.524531644652316e+001
 9.477102908997493e-001	 5.179279505500952e-001	 1.494154447004747e+001
 9.420457780703714e-001	 5.281608458362019e-001	 1.464245909110522e+001
 9.993942403536174e-001	 4.266830194470083e-001	 1.756033051175258e+001
 9.947901409904685e-001	 4.373097904484328e-001	 1.728567688573949e+001
 9.900634742433956e-001	 4.479080470172055e-001	 1.700322465655653e+001
 9.852143501913654e-001	 4.584757391246574e-001	 1.671440542633678e+001
 9.802429233124705e-001	 4.690108115728803e-001	 1.642069986460070e+001
 9.751493928205582e-001	 4.795112051648953e-001	 1.612363264706506e+001
 9.699340029657909e-001	 4.899748578917460e-001	 1.582476692638691e+001
 9.645970432983018e-001	 5.003997061352615e-001	 1.552569833477950e+001
 9.591388488941353e-001	 5.107836858851768e-001	 1.522804852131107e+001
 9.535598005427274e-001	 5.211247339692603e-001	 1.493345822972974e+001
 9.478603248952329e-001	 5.314207892950618e-001	 1.464357992583351e+001
 1.005524905691725e+000	 4.293004557845356e-001	 1.747331115983363e+001
 1.000892563027408e+000	 4.399924154513824e-001	 1.720727453527587e+001
 9.961369011040955e-001	 4.506556857671526e-001	 1.693347195338807e+001
 9.912580306760201e-001	 4.612882041275213e-001	 1.665333395645502e+001
 9.862561071689030e-001	 4.718879027272156e-001	 1.636833932726276e+001
 9.811313310186437e-001	 4.824527097373583e-001	 1.608000998087297e+001
 9.758839479737284e-001	 4.929805504998467e-001	 1.578990537771539e+001
 9.705142493605007e-001	 5.034693487374914e-001	 1.549961645740953e+001
 9.650225723104889e-001	 5.139170277786029e-001	 1.521075909567336e+001
 9.594092999490360e-001	 5.243215117946671e-001	 1.492496708978976e+001
 9.536748615445378e-001	 5.346807270497089e-001	 1.464388468136232e+001
 1.011655561834714e+000	 4.319178881958571e-001	 1.738823385102542e+001
 1.006994975911515e+000	 4.426750364303818e-001	 1.713060935327288e+001
 1.002210318855367e+000	 4.534033203956745e-001	 1.686523358792976e+001
 9.973017020957710e-001	 4.641006649117728e-001	 1.659353487509735e+001
 9.922692820060759e-001	 4.747649895660558e-001	 1.631698887241870e+001
 9.871132602442367e-001	 4.853942098977674e-001	 1.603711342350513e+001
 9.818338840570650e-001	 4.959862385996756e-001	 1.575546291693820e+001
 9.764314465471150e-001	 5.065389867355905e-001	 1.547362215470040e+001
 9.709062869013992e-001	 5.170503649724165e-001	 1.519319973190908e+001
 9.652587905811674e-001	 5.275182848253748e-001	 1.491582093292088e+001
 9.594893894720562e-001	 5.379406599149837e-001	 1.464312015222645e+001
 1.017786210315132e+000	 4.345353173352295e-001	 1.730481110757861e+001
 1.013097381168299e+000	 4.453576540559800e-001	 1.705540437592785e+001
 1.008283729015496e+000	 4.561509515895701e-001	 1.679824150484485e+001
 1.003345365961493e+000	 4.669131221804144e-001	 1.653474744508491e+001
 9.982824493272693e-001	 4.776420728085586e-001	 1.626639350906500e+001
 9.930951819928362e-001	 4.883357063813811e-001	 1.599469217975981e+001
 9.877838127033295e-001	 4.989919229425355e-001	 1.572119141929287e+001
 9.823486363375157e-001	 5.096086208968456e-001	 1.544746847548821e+001
 9.767899941378910e-001	 5.201836982498246e-001	 1.517512318774026e+001
 9.711082739016134e-001	 5.307150538604427e-001	 1.490577079683743e+001
 9.653039101315574e-001	 5.412005887057253e-001	 1.464103426681545e+001
 1.023916852665525e+000	 4.371527438569092e-001	 1.722275789787678e+001
 1.019199780323268e+000	 4.480402689987253e-001	 1.698138484986925e+001
 1.014357133102766e+000	 4.588985800356378e-001	 1.673222965423094e+001
 1.009389023784061e+000	 4.697255766364484e-001	 1.647671275880983e+001
 1.004295610635763e+000	 4.805191531738802e-001	 1.621629992746217e+001
 9.990770977599388e-001	 4.912771999234576e-001	 1.595249701336713e+001
 9.937337354000502e-001	 5.019976042797296e-001	 1.568684422101144e+001
 9.882658202110743e-001	 5.126782519885444e-001	 1.542090985448580e+001
 9.826736954909916e-001	 5.233170283940343e-001	 1.515628355290206e+001
 9.769577513728665e-001	 5.339118196989298e-001	 1.489456901710268e+001
 9.711184249768111e-001	 5.444605142367740e-001	 1.463737623536659e+001
 1.030047490418440e+000	 4.397701684151531e-001	 1.714179168546324e+001
 1.025302174901930e+000	 4.507228819291669e-001	 1.690827829624446e+001
 1.020430532635463e+000	 4.616462064206762e-001	 1.666693406960896e+001
 1.015432677074352e+000	 4.725380289828776e-001	 1.641917382897696e+001
 1.010308767434837e+000	 4.833962313811783e-001	 1.616645660149044e+001
 1.005059009041043e+000	 4.942186912592553e-001	 1.591028035983358e+001
 9.996836536347549e-001	 5.050032833625604e-001	 1.565217624154229e+001
 9.941829996471617e-001	 5.157478807779733e-001	 1.539370224278598e+001
 9.885573924317267e-001	 5.264503561882526e-001	 1.513643638684722e+001
 9.828072244574182e-001	 5.371085831398950e-001	 1.488196937097451e+001
 9.769329354615869e-001	 5.477204373229693e-001	 1.463189669891049e+001
 1.036178125106425e+000	 4.423875916642178e-001	 1.706163248109633e+001
 1.031404566429793e+000	 4.534054935178529e-001	 1.683581457746484e+001
 1.026503929131870e+000	 4.643938314314838e-001	 1.660209294823659e+001
 1.021476327343239e+000	 4.753504799227044e-001	 1.636187568137320e+001
 1.016321921227772e+000	 4.862733081496097e-001	 1.611661389277345e+001
 1.011040917331646e+000	 4.971601811240325e-001	 1.586779644082940e+001
 1.005633568894973e+000	 5.080089609423314e-001	 1.561694410712445e+001
 1.000100176125150e+000	 5.188175080324198e-001	 1.536560323956018e+001
 9.944410864311213e-001	 5.295836824156863e-001	 1.511533885752243e+001
 9.886566946177605e-001	 5.403053449823977e-001	 1.486772722222918e+001
 9.827474430396535e-001	 5.509803587791509e-001	 1.462434787913145e+001
 1.042308758262027e+000	 4.450050142583599e-001	 1.698200289770952e+001
 1.037506956432366e+000	 4.560881044353323e-001	 1.676372596650019e+001
 1.032577324110273e+000	 4.671414557548592e-001	 1.653744673365197e+001
 1.027519976101599e+000	 4.781629301589312e-001	 1.630456544958276e+001
 1.022335073517847e+000	 4.891503841983316e-001	 1.606652415649789e+001
 1.017022824127247e+000	 5.001016702530479e-001	 1.582480138005702e+001
 1.011583482668233e+000	 5.110146377703450e-001	 1.558090627565991e+001
 1.006017351124410e+000	 5.218871345191709e-001	 1.533637222490422e+001
 1.000324778960203e+000	 5.327170078595428e-001	 1.509274988117173e+001
 9.945061633163868e-001	 5.435021060254974e-001	 1.485159966692365e+001
 9.885619491647814e-001	 5.542402794201590e-001	 1.461448372910627e+001
 9.304166480789026e-001	 5.216409385464856e-001	 1.463878679422148e+001
 9.247034483627793e-001	 5.317028344607302e-001	 1.431958155192665e+001
 9.188729762948830e-001	 5.417165161740593e-001	 1.399443346426131e+001
 9.129257872143954e-001	 5.516799737568476e-001	 1.366419964686109e+001
 9.068624816840354e-001	 5.615912043072900e-001	 1.332966316507934e+001
 9.006837054341905e-001	 5.714482132060662e-001	 1.299152510941073e+001
 8.943901492657200e-001	 5.812490153734854e-001	 1.265039649801440e+001
 8.879825489111826e-001	 5.909916365275353e-001	 1.230679003750291e+001
 8.814616848543042e-001	 6.006741144412503e-001	 1.196111177601352e+001
 8.748283821075730e-001	 6.102945001977893e-001	 1.161365268534710e+001
 8.680835099479130e-001	 6.198508594416141e-001	 1.126458021162577e+001
 9.362312196161845e-001	 5.249008958582897e-001	 1.464077636949790e+001
 9.304823156717123e-001	 5.350256728629237e-001	 1.433128992566230e+001
 9.246154064903093e-001	 5.451019343554696e-001	 1.401523253097708e+001
 9.186310508817270e-001	 5.551276578453964e-001	 1.369354137284978e+001
 9.125298531618775e-001	 5.651008279139121e-001	 1.336708242462345e+001
 9.063124630966118e-001	 5.750194374764717e-001	 1.303664224417799e+001
 8.999795758039179e-001	 5.848814890477754e-001	 1.270291958006514e+001
 8.935319316142809e-001	 5.946849960076830e-001	 1.236651681699542e+001
 8.869703158890229e-001	 6.044279838664362e-001	 1.202793129548656e+001
 8.802955587965075e-001	 6.141084915275836e-001	 1.168754654339224e+001
 8.735085350461601e-001	 6.237245725469760e-001	 1.134562345982747e+001
 9.420457780703714e-001	 5.281608458362019e-001	 1.464245909110522e+001
 9.362611699778098e-001	 5.383485037898442e-001	 1.434229015788574e+001
 9.303578237648393e-001	 5.484873449209083e-001	 1.403496071146682e+001
 9.243363017117704e-001	 5.585753341779821e-001	 1.372149537156415e+001
 9.181972118876943e-001	 5.686104436253139e-001	 1.340285075196192e+001
 9.119412080939141e-001	 5.785906537131572e-001	 1.307990696974563e+001
 9.055689897655316e-001	 5.885139545506302e-001	 1.275345894125304e+001
 8.990813018309456e-001	 5.983783471794885e-001	 1.242420749723028e+001
 8.924789345290570e-001	 6.081818448472069e-001	 1.209275035281244e+001
 8.857627231840892e-001	 6.179224742777476e-001	 1.175957297100362e+001
 8.789335479379550e-001	 6.275982769383739e-001	 1.142503936127357e+001
 9.478603248952329e-001	 5.314207892950618e-001	 1.464357992583351e+001
 9.420400127259289e-001	 5.416713280720396e-001	 1.435232521295309e+001
 9.361002295542299e-001	 5.518727487165535e-001	 1.405336237560743e+001
 9.300415411309952e-001	 5.620230036163344e-001	 1.374781072422414e+001
 9.238645592784844e-001	 5.721200523186920e-001	 1.343672514199182e+001
 9.175699418334398e-001	 5.821618628087035e-001	 1.312108729227664e+001
 9.111583925480667e-001	 5.921464127899264e-001	 1.280179659068678e+001
 9.046306609486619e-001	 6.020716909660352e-001	 1.247966097494958e+001
 8.979875421516954e-001	 6.119356983217603e-001	 1.215538750904922e+001
 8.912298766372340e-001	 6.217364494015001e-001	 1.182957286128212e+001
 8.843585499796631e-001	 6.314719735839530e-001	 1.150269369897420e+001
 9.536748615445378e-001	 5.346807270497089e-001	 1.464388468136232e+001
 9.478188453609252e-001	 5.449941465400575e-001	 1.436113882502358e+001
 9.418426252942369e-001	 5.552581465885836e-001	 1.407018249425982e+001
 9.357467705658704e-001	 5.654706670221815e-001	 1.377223684876917e+001
 9.295318967512446e-001	 5.756296548712437e-001	 1.346846256905378e+001
 9.231986657225305e-001	 5.857330656556907e-001	 1.315995074967607e+001
 9.167477855490266e-001	 5.957788646735407e-001	 1.284771353382433e+001
 9.101800103549163e-001	 6.057650282904066e-001	 1.253267452304282e+001
 9.034961401342255e-001	 6.156895452282952e-001	 1.221565899942248e+001
 8.966970205228557e-001	 6.255504178520606e-001	 1.189738400091066e+001
 8.897835425276497e-001	 6.353456634518566e-001	 1.157844829364881e+001
 9.594893894720562e-001	 5.379406599149837e-001	 1.464312015222645e+001
 9.535976693276570e-001	 5.483169600244462e-001	 1.436847565000931e+001
 9.475850124206173e-001	 5.586435393831772e-001	 1.408516679963048e+001
 9.414519914428656e-001	 5.689183252572523e-001	 1.379452367096671e+001
 9.351992257229722e-001	 5.791392521601656e-001	 1.349782017103434e+001
 9.288273811685280e-001	 5.893042631466993e-001	 1.319626461083980e+001
 9.223371701659145e-001	 5.994113111093489e-001	 1.289098998892543e+001
 9.157293514371939e-001	 6.094583600756858e-001	 1.258304402616478e+001
 9.090047298539377e-001	 6.194433865050097e-001	 1.227337898996783e+001
 9.021641562078695e-001	 6.293643805826485e-001	 1.196284134958478e+001
 8.952085269382796e-001	 6.392193475102295e-001	 1.165216130760237e+001
 9.653039101315574e-001	 5.412005887057253e-001	 1.464103426681545e+001
 9.593764860709807e-001	 5.516397693557534e-001	 1.437408141845784e+001
 9.533273923691268e-001	 5.620289279465123e-001	 1.409806194636580e+001
 9.471572051884509e-001	 5.723659791832759e-001	 1.381442179596476e+001
 9.408665476106650e-001	 5.826488450626549e-001	 1.352455543353203e+001
 9.344560895787747e-001	 5.928754561743090e-001	 1.322979607450106e+001
 9.279265477962357e-001	 6.030437530052284e-001	 1.293140560255418e+001
 9.212786855829814e-001	 6.131516872449564e-001	 1.263056421477351e+001
 9.145133126881202e-001	 6.231972230901023e-001	 1.232835983189270e+001
 9.076312850591891e-001	 6.331783385464836e-001	 1.202577731638306e+001
 9.006335045679182e-001	 6.430930267272152e-001	 1.172368754469620e+001
 9.711184249768111e-001	 5.444605142367740e-001	 1.463737623536659e+001
 9.651552970357530e-001	 5.549625753645266e-001	 1.437770308932802e+001
 9.590697665755227e-001	 5.654143131247673e-001	 1.410861567335143e+001
 9.528624132290952e-001	 5.758136296619807e-001	 1.383168268026900e+001
 9.465338638313204e-001	 5.861584344559083e-001	 1.354842637408582e+001
 9.400847923606115e-001	 5.964466456311005e-001	 1.326031246769408e+001
 9.335159198374937e-001	 6.066761912690550e-001	 1.296873966417207e+001
 9.268280141797645e-001	 6.168450107213014e-001	 1.267502889765994e+001
 9.200218900140618e-001	 6.269510559217716e-001	 1.238041231375158e+001
 9.130984084437296e-001	 6.369922926967850e-001	 1.208602203321078e+001
 9.060584767729306e-001	 6.469667020709586e-001	 1.179287874658075e+001
 9.769329354615869e-001	 5.477204373229693e-001	 1.463189669891050e+001
 9.709341036668303e-001	 5.582853788813141e-001	 1.437908900462460e+001
 9.648121364755610e-001	 5.687996957641206e-001	 1.411657696618695e+001
 9.585676169912680e-001	 5.792612775550958e-001	 1.384605880413149e+001
 9.522011758019360e-001	 5.896680212171226e-001	 1.356919172646485e+001
 9.457134909213811e-001	 6.000178324096539e-001	 1.328758144385062e+001
 9.391052876871932e-001	 6.103086268087055e-001	 1.300277131986208e+001
 9.323773386150284e-001	 6.205383314278041e-001	 1.271623119302920e+001
 9.255304632090506e-001	 6.307048859382155e-001	 1.242934591153045e+001
 9.185655277284058e-001	 6.408062439867723e-001	 1.214340362543577e+001
 9.114834449096819e-001	 6.508403745096034e-001	 1.185958388534518e+001
 9.827474430396535e-001	 5.509803587791509e-001	 1.462434787913145e+001
 9.767129074090700e-001	 5.616081807366634e-001	 1.437798904485645e+001
 9.705545035049973e-001	 5.721850767107506e-001	 1.412169622031149e+001
 9.642728179014387e-001	 5.827089237243498e-001	 1.385730384433239e+001
 9.578684849395088e-001	 5.931776062234953e-001	 1.358661112501883e+001
 9.513421866684246e-001	 6.035890174025493e-001	 1.331137118054827e+001
 9.446946527428373e-001	 6.139410605320561e-001	 1.303327978522070e+001
 9.379266602762590e-001	 6.242316502875478e-001	 1.275396375819904e+001
 9.310390336503758e-001	 6.344587140776324e-001	 1.247496903672579e+001
 9.240326442801321e-001	 6.446201933696649e-001	 1.219774847983861e+001
 9.169084103345374e-001	 6.547140450112940e-001	 1.192364945273639e+001
 9.885619491647814e-001	 5.542402794201590e-001	 1.461448372910627e+001
 9.824917097073290e-001	 5.649309817611228e-001	 1.437415478528740e+001
 9.762968690995890e-001	 5.755704568108352e-001	 1.412372540475317e+001
 9.699780173860767e-001	 5.861565690314716e-001	 1.386517284734221e+001
 9.635357926610374e-001	 5.966871903522223e-001	 1.360044528908786e+001
 9.569708810090841e-001	 6.071602015023673e-001	 1.333145057692500e+001
 9.502840164019309e-001	 6.175734933469834e-001	 1.306004455745389e+001
 9.434759805509428e-001	 6.279249682236161e-001	 1.278801901797269e+001
 9.365476027153261e-001	 6.382125412782214e-001	 1.251708928250543e+001
 9.294997594658225e-001	 6.484341417986819e-001	 1.224888150998714e+001
 9.223333744038621e-001	 6.585877145441748e-001	 1.198491974608963e+001
 8.680835099479130e-001	 6.198508594416141e-001	 1.126458021162577e+001
 8.612279813655368e-001	 6.293412734143905e-001	 1.092004433254824e+001
 8.542627519879941e-001	 6.387638395514256e-001	 1.058740808537897e+001
 8.471888204381821e-001	 6.481166733187914e-001	 1.026852250724339e+001
 8.400072281517993e-001	 6.573979096404267e-001	 9.965178226368709e+000
 8.327190589071605e-001	 6.666057041068111e-001	 9.679093763878486e+000
 8.253254383142842e-001	 6.757382341700818e-001	 9.396003124839119e+000
 8.178275332637144e-001	 6.847937003240027e-001	 9.100919529778398e+000
 8.102265513355921e-001	 6.937703272672137e-001	 8.795415837992207e+000
 8.025237401695791e-001	 7.026663650481889e-001	 8.481111615334189e+000
 7.947203867962918e-001	 7.114800901903866e-001	 8.159670305790254e+000
 8.735085350461601e-001	 6.237245725469760e-001	 1.134562345982747e+001
 8.666101633338729e-001	 6.332742961751409e-001	 1.100904082438712e+001
 8.596014052593092e-001	 6.427557479574492e-001	 1.068583905555676e+001
 8.524832656861682e-001	 6.521670315827175e-001	 1.037788288653397e+001
 8.452567925585081e-001	 6.615062703192322e-001	 1.008697228272880e+001
 8.379230764276171e-001	 6.707716082309716e-001	 9.811645076862854e+000
 8.304832499379156e-001	 6.799612113801955e-001	 9.529017843108912e+000
 8.229384872723257e-001	 6.890732690147887e-001	 9.235471395915072e+000
 8.152900035576537e-001	 6.981059947387768e-001	 8.932550522774619e+000
 8.075390542305773e-001	 7.070576276644425e-001	 8.621843296969963e+000
 7.996869343648978e-001	 7.159264335445058e-001	 8.304979935909842e+000
 8.789335479379550e-001	 6.275982769383739e-001	 1.142503936127357e+001
 8.719923331922083e-001	 6.372073100885021e-001	 1.109673806893394e+001
 8.649400465186129e-001	 6.467476473835925e-001	 1.078335449343889e+001
 8.577776990216597e-001	 6.562173807352369e-001	 1.048675641356455e+001
 8.505063451537499e-001	 6.656146217560931e-001	 1.020874187856164e+001
 8.431270822391361e-001	 6.749375029836685e-001	 9.938065841356908e+000
 8.356410499566216e-001	 6.841841790903721e-001	 9.656287118960366e+000
 8.280494297814941e-001	 6.933528280782360e-001	 9.364642644946869e+000
 8.203534443872105e-001	 7.024416524566974e-001	 9.064632747645197e+000
 8.125543570074461e-001	 7.114488804018744e-001	 8.757798753020172e+000
 8.046534707591729e-001	 7.203727668957749e-001	 8.445721942214357e+000
 8.843585499796631e-001	 6.314719735839530e-001	 1.150269369897419e+001
 8.773744922861855e-001	 6.411403161374444e-001	 1.118302437457643e+001
 8.702786771006543e-001	 6.507395388275513e-001	 1.087985818616168e+001
 8.630721217683391e-001	 6.602677217886619e-001	 1.059505556447092e+001
 8.557558872499758e-001	 6.697229649778331e-001	 1.032868273529756e+001
 8.483310776427658e-001	 6.791033894061228e-001	 1.005837799502226e+001
 8.407988396598859e-001	 6.884071383561142e-001	 9.777830706525315e+000
 8.331603620689753e-001	 6.976323785840092e-001	 9.488443114424884e+000
 8.254168750901276e-001	 7.067773015046820e-001	 9.191656575804091e+000
 8.175696497540029e-001	 7.158401243581070e-001	 8.888950680397461e+000
 8.096199972207286e-001	 7.248190913556027e-001	 8.581842334620610e+000
 8.897835425276497e-001	 6.353456634518566e-001	 1.157844829364881e+001
 8.827566419614469e-001	 6.450733153049384e-001	 1.126778327705561e+001
 8.756172983401800e-001	 6.547314232870192e-001	 1.097524849845440e+001
 8.683665352498886e-001	 6.643180557553057e-001	 1.070268689857018e+001
 8.610054201596336e-001	 6.738313010112742e-001	 1.044236531506332e+001
 8.535350639395547e-001	 6.832692685395544e-001	 1.017260989898697e+001
 8.459566203371921e-001	 6.926300902329239e-001	 9.893673242319887e+000
 8.382712854125242e-001	 7.019119216017750e-001	 9.606887741633887e+000
 8.304802969322704e-001	 7.111129429664369e-001	 9.313621524553978e+000
 8.225849337240644e-001	 7.202313606307627e-001	 9.015277714968983e+000
 8.145865149911749e-001	 7.292654080353987e-001	 8.713293670638269e+000
 8.952085269382796e-001	 6.392193475102295e-001	 1.165216130760237e+001
 8.881387835636345e-001	 6.490063085739545e-001	 1.135089386578602e+001
 8.809559115719381e-001	 6.587233017596905e-001	 1.106941871591986e+001
 8.736609407899915e-001	 6.683683836474812e-001	 1.080904037590278e+001
 8.662549451951725e-001	 6.779396308832394e-001	 1.054959898930776e+001
 8.587390424305520e-001	 6.874351414251838e-001	 1.028079474721662e+001
 8.511143932780236e-001	 6.968530357763036e-001	 1.000384426694446e+001
 8.433822010898957e-001	 7.061914582011980e-001	 9.719996578399250e+000
 8.355437111795052e-001	 7.154485779256691e-001	 9.430532569230120e+000
 8.276002101714470e-001	 7.246225903174626e-001	 9.136764420824699e+000
 8.195530253121230e-001	 7.337117180465720e-001	 8.840035026385278e+000
 9.006335045679182e-001	 6.430930267272152e-001	 1.172368754469620e+001
 8.935209184383905e-001	 6.529392969274620e-001	 1.143223110548943e+001
 8.862945181306751e-001	 6.627151752432591e-001	 1.116225738303726e+001
 8.789553397123300e-001	 6.724187064775015e-001	 1.090960032697995e+001
 8.715044636690420e-001	 6.820479556205513e-001	 1.065041945142852e+001
 8.639430144168067e-001	 6.916010091042313e-001	 1.038297058501321e+001
 8.562721597718637e-001	 7.010759760417556e-001	 1.010837824096389e+001
 8.484931103788458e-001	 7.104709894519441e-001	 9.827794800332550e+000
 8.406071190976969e-001	 7.197842074660846e-001	 9.542400141981789e+000
 8.326154803499684e-001	 7.290138145158300e-001	 9.253401274948011e+000
 8.245195294251837e-001	 7.381580225005316e-001	 8.962031963693905e+000
 9.060584767729306e-001	 6.469667020709586e-001	 1.179287874658075e+001
 8.989030479313578e-001	 6.568722813484320e-001	 1.151166615333976e+001
 8.916331193511397e-001	 6.667070447354198e-001	 1.125364861897086e+001
 8.842497333405870e-001	 6.764690252576789e-001	 1.100335571579976e+001
 8.767539768936911e-001	 6.861562762500328e-001	 1.074486732984942e+001
 8.691469811993678e-001	 6.957668726179176e-001	 1.047918032183915e+001
 8.614299211081966e-001	 7.052989120847824e-001	 1.020731455521239e+001
 8.536040145571291e-001	 7.147505164236784e-001	 9.930312710751341e+000
 8.456705219527116e-001	 7.241198326713901e-001	 9.649240125618094e+000
 8.376307455134441e-001	 7.334050343234865e-001	 9.365184647480428e+000
 8.294860285719685e-001	 7.426043225086872e-001	 9.079256493472549e+000
 9.114834449096819e-001	 6.508403745096034e-001	 1.185958388534518e+001
 9.042851733881780e-001	 6.608052628198342e-001	 1.158906667180716e+001
 8.969717165680791e-001	 6.706989112338671e-001	 1.134065354197688e+001
 8.895441229984449e-001	 6.805193410003271e-001	 1.109034401334790e+001
 8.820034861815690e-001	 6.902645937985061e-001	 1.083298819394911e+001
 8.743509440792836e-001	 6.999327330074622e-001	 1.056947173870747e+001
 8.665876785765052e-001	 7.095218449608861e-001	 1.030069753575603e+001
 8.587149149025006e-001	 7.190300401860672e-001	 1.002758573949573e+001
 8.507339210104147e-001	 7.284554546252924e-001	 9.751073842727688e+000
 8.426460069156920e-001	 7.377962508380541e-001	 9.472116777769513e+000
 8.344525239940882e-001	 7.470506191824476e-001	 9.191687035481285e+000
 9.169084103345374e-001	 6.547140450112940e-001	 1.192364945273639e+001
 9.096672961544936e-001	 6.647382423246392e-001	 1.166429713738387e+001
 9.023103111162404e-001	 6.746907757362944e-001	 1.142046047345249e+001
 8.948385100095865e-001	 6.845696547177584e-001	 1.117060783483107e+001
 8.872529928451248e-001	 6.943729092927946e-001	 1.091483255483464e+001
 8.795549043576029e-001	 7.040985913140858e-001	 1.065389749036178e+001
 8.717454334662736e-001	 7.137447757255694e-001	 1.038857644373742e+001
 8.638258126927161e-001	 7.233095618087753e-001	 1.011965443685329e+001
 8.557973175366715e-001	 7.327910744114978e-001	 9.847928040267561e+000
 8.476612658105285e-001	 7.421874651571557e-001	 9.574205746371387e+000
 8.394190169331532e-001	 7.514969136332221e-001	 9.299308374669906e+000
 9.223333744038621e-001	 6.585877145441748e-001	 1.198491974608963e+001
 9.150494175759466e-001	 6.686712208458169e-001	 1.173655700281484e+001
 9.076489043303718e-001	 6.786826392403966e-001	 1.149310363843215e+001
 9.001328956976941e-001	 6.886199674222856e-001	 1.124419493039681e+001
 8.925024981968082e-001	 6.984812237597207e-001	 1.099045586117289e+001
 8.847588633353754e-001	 7.082644485790088e-001	 1.073251510246308e+001
 8.769031870669851e-001	 7.179677054343339e-001	 1.047100547031145e+001
 8.689367092055303e-001	 7.275890823614685e-001	 1.020656446279659e+001
 8.608607127973482e-001	 7.371266931137128e-001	 9.939834869810648e+000
 8.526765234517708e-001	 7.465786783784127e-001	 9.671465443178187e+000
 8.443855086307747e-001	 7.559432069724200e-001	 9.402111614221345e+000
 7.947203867962918e-001	 7.114800901903866e-001	 8.159670305790259e+000
 7.868190097466631e-001	 7.202085038994671e-001	 7.841201870702030e+000
 7.788198097054105e-001	 7.288512684601431e-001	 7.534026788743528e+000
 7.707241875392233e-001	 7.374067477751456e-001	 7.237270800372996e+000
 7.625335804254584e-001	 7.458733364915255e-001	 6.950019626445775e+000
 7.542494610032443e-001	 7.542494610032443e-001	 6.671321690318417e+000
 7.458733364915253e-001	 7.625335804254582e-001	 6.400190876768663e+000
 7.374067477751457e-001	 7.707241875392235e-001	 6.135609311350523e+000
 7.288512684601429e-001	 7.788198097054103e-001	 5.876530143688012e+000
 7.202085038994671e-001	 7.868190097466631e-001	 5.621880318243849e+000
 7.114800901903867e-001	 7.947203867962918e-001	 5.370563316248282e+000
 7.996869343648978e-001	 7.159264335445058e-001	 8.304979935909840e+000
 7.917361782309124e-001	 7.247093948438794e-001	 7.991547135010377e+000
 7.836869877675128e-001	 7.334061717367356e-001	 7.689317243295066e+000
 7.755407725960195e-001	 7.420151179011197e-001	 7.397340950586892e+000
 7.672989788753402e-001	 7.505346179515288e-001	 7.114627747633083e+000
 7.589630884477717e-001	 7.589630884477715e-001	 6.840148839131704e+000
 7.505346179515285e-001	 7.672989788753400e-001	 6.572840095431896e+000
 7.420151179011199e-001	 7.755407725960197e-001	 6.311605025661362e+000
 7.334061717367358e-001	 7.836869877675127e-001	 6.055317754902458e+000
 7.247093948438793e-001	 7.917361782309127e-001	 5.802825988066529e+000
 7.159264335445058e-001	 7.996869343648978e-001	 5.552953943259677e+000
 8.046534707591729e-001	 7.203727668957749e-001	 8.445721942214359e+000
 7.966533356520170e-001	 7.292102756626065e-001	 8.137456860446035e+000
 7.885541548790407e-001	 7.379610647660093e-001	 7.840235769997742e+000
 7.803573468161730e-001	 7.466234776593648e-001	 7.553043896847916e+000
 7.720643666038530e-001	 7.551958889246426e-001	 7.274824484704483e+000
 7.636767052875213e-001	 7.636767052875213e-001	 7.004481883563267e+000
 7.551958889246425e-001	 7.720643666038529e-001	 6.740884678173033e+000
 7.466234776593649e-001	 7.803573468161731e-001	 6.482868838304607e+000
 7.379610647660093e-001	 7.885541548790407e-001	 6.229240872596103e+000
 7.292102756626064e-001	 7.966533356520171e-001	 5.978780967739234e+000
 7.203727668957749e-001	 8.046534707591729e-001	 5.730246094946931e+000
 8.096199972207286e-001	 7.248190913556027e-001	 8.581842334620610e+000
 8.015704832392284e-001	 7.337111474807115e-001	 8.278850215819857e+000
 7.934213122567331e-001	 7.425159486865454e-001	 7.986679391953800e+000
 7.851739114037614e-001	 7.512318282018451e-001	 7.704259020977157e+000
 7.768297448022624e-001	 7.598571505760740e-001	 7.430475886997698e+000
 7.683903127008027e-001	 7.683903127008027e-001	 7.164177649244419e+000
 7.598571505760737e-001	 7.768297448022624e-001	 6.904176131554726e+000
 7.512318282018452e-001	 7.851739114037617e-001	 6.649250633448962e+000
 7.425159486865454e-001	 7.934213122567329e-001	 6.398151243714429e+000
 7.337111474807111e-001	 8.015704832392283e-001	 6.149602137424162e+000
 7.248190913556026e-001	 8.096199972207284e-001	 5.902304837469045e+000
 8.145865149911749e-001	 7.292654080353987e-001	 8.713293670638270e+000
 8.064876222217989e-001	 7.382120114232562e-001	 8.415653523846693e+000
 7.982884611173302e-001	 7.470708246369249e-001	 8.128552771709160e+000
 7.899904675628616e-001	 7.558401706805250e-001	 7.850873713462542e+000
 7.815951146618347e-001	 7.645184040710302e-001	 7.581456269969520e+000
 7.731039118659235e-001	 7.731039118659235e-001	 7.319101378237444e+000
 7.645184040710302e-001	 7.815951146618348e-001	 7.062574426461609e+000
 7.558401706805247e-001	 7.899904675628617e-001	 6.810608709846394e+000
 7.470708246369250e-001	 7.982884611173302e-001	 6.561908887299867e+000
 7.382120114232562e-001	 8.064876222217989e-001	 6.315154419091022e+000
 7.292654080353987e-001	 8.145865149911749e-001	 6.069002965723113e+000
 8.195530253121230e-001	 7.337117180465720e-001	 8.840035026385278e+000
 8.114047538289799e-001	 7.427128686153039e-001	 8.547800214132996e+000
 8.031556026775721e-001	 7.516256937557304e-001	 8.265768150020941e+000
 7.948070164975510e-001	 7.604485062473675e-001	 7.992783301669747e+000
 7.863604773738363e-001	 7.691796505747182e-001	 7.727648136363010e+000
 7.778175039611932e-001	 7.778175039611930e-001	 7.469126646521394e+000
 7.691796505747182e-001	 7.863604773738364e-001	 7.215947915107353e+000
 7.604485062473674e-001	 7.948070164975511e-001	 6.966809700415062e+000
 7.516256937557302e-001	 8.031556026775720e-001	 6.720382019529867e+000
 7.427128686153038e-001	 8.114047538289799e-001	 6.475310709734508e+000
 7.337117180465720e-001	 8.195530253121230e-001	 6.230220947293994e+000
 8.245195294251837e-001	 7.381580225005316e-001	 8.962031963693905e+000
 8.163218792900235e-001	 7.472137201819169e-001	 8.675230772942614e+000
 8.080227381541983e-001	 7.561805571815429e-001	 8.398245281958577e+000
 7.996235594119070e-001	 7.650568360543371e-001	 8.129890975811565e+000
 7.911258341295326e-001	 7.738408912523456e-001	 7.868942095438483e+000
 7.825310901649194e-001	 7.825310901649194e-001	 7.614135279731794e+000
 7.738408912523455e-001	 7.911258341295328e-001	 7.364173246380450e+000
 7.650568360543371e-001	 7.996235594119072e-001	 7.117728490128113e+000
 7.561805571815429e-001	 8.080227381541985e-001	 6.873446976940458e+000
 7.472137201819169e-001	 8.163218792900235e-001	 6.629951812556505e+000
 7.381580225005318e-001	 8.245195294251837e-001	 6.385846864060741e+000
 8.294860285719685e-001	 7.426043225086872e-001	 9.079256493472549e+000
 8.212389998341815e-001	 7.517145672481576e-001	 8.797892689876738e+000
 8.128898687639495e-001	 7.607354160529445e-001	 8.525911370448450e+000
 8.044400975100068e-001	 7.696651612533977e-001	 8.262107712774254e+000
 7.958911861201905e-001	 7.785021272691188e-001	 8.005236780356276e+000
 7.872446716554119e-001	 7.872446716554118e-001	 7.754017267233252e+000
 7.785021272691187e-001	 7.958911861201904e-001	 7.507135279595670e+000
 7.696651612533977e-001	 8.044400975100069e-001	 7.263248132288834e+000
 7.607354160529446e-001	 8.128898687639495e-001	 7.020988137911053e+000
 7.517145672481576e-001	 8.212389998341815e-001	 6.778966366199493e+000
 7.426043225086871e-001	 8.294860285719686e-001	 6.535776351557976e+000
 8.344525239940882e-001	 7.470506191824476e-001	 9.191687035481285e+000
 8.261561166907057e-001	 7.562154109390886e-001	 8.915740401596706e+000
 8.177569957235656e-001	 7.652902715085167e-001	 8.648700997373311e+000
 8.092566319959278e-001	 7.742734829965139e-001	 8.389352197889004e+000
 8.006565345370750e-001	 7.831633597902451e-001	 8.136438763785503e+000
 7.919582496109785e-001	 7.919582496109784e-001	 7.888670674592559e+000
 7.831633597902452e-001	 8.006565345370749e-001	 7.644726996720046e+000
 7.742734829965138e-001	 8.092566319959280e-001	 7.403259763252623e+000
 7.652902715085169e-001	 8.177569957235658e-001	 7.162897842483914e+000
 7.562154109390885e-001	 8.261561166907058e-001	 6.922250772113382e+000
 7.470506191824476e-001	 8.344525239940881e-001	 6.679912536190622e+000
 8.394190169331532e-001	 7.514969136332221e-001	 9.299308374669909e+000
 8.310732310888485e-001	 7.607162523797725e-001	 9.028735232714642e+000
 8.226241202497858e-001	 7.698451246868412e-001	 8.766556052325955e+000
 8.140731640737471e-001	 7.788818024356486e-001	 8.511550744735496e+000
 8.054218805714530e-001	 7.878245899809319e-001	 8.262462471814352e+000
 7.966718252099275e-001	 7.966718252099274e-001	 8.018001554521531e+000
 7.878245899809320e-001	 8.054218805714529e-001	 7.776849413137362e+000
 7.788818024356486e-001	 8.140731640737469e-001	 7.537662515666013e+000
 7.698451246868411e-001	 8.226241202497859e-001	 7.299076310589269e+000
 7.607162523797726e-001	 8.310732310888486e-001	 7.059709120134015e+000
 7.514969136332225e-001	 8.394190169331534e-001	 6.818165970388383e+000
 8.443855086307747e-001	 7.559432069724200e-001	 9.402111614221345e+000
 8.359903442578607e-001	 7.652170926952719e-001	 9.136845333968635e+000
 8.274912435593508e-001	 7.743999767264992e-001	 8.879425659115883e+000
 8.188896949475417e-001	 7.834901207227666e-001	 8.628637213059273e+000
 8.101872254145905e-001	 7.924858190063862e-001	 8.383230096232488e+000
 8.013853996305682e-001	 8.013853996305679e-001	 8.141923856352104e+000
 7.924858190063862e-001	 8.101872254145907e-001	 7.903411487012814e+000
 7.834901207227666e-001	 8.188896949475419e-001	 7.666363430283859e+000
 7.743999767264997e-001	 8.274912435593509e-001	 7.429431558741399e+000
 7.652170926952719e-001	 8.359903442578606e-001	 7.191253112348981e+000
 7.559432069724201e-001	 8.443855086307748e-001	 6.950454565787347e+000
 7.114800901903867e-001	 7.947203867962918e-001	 5.370563316248282e+000
 7.026663650481888e-001	 8.025237401695792e-001	 5.124348350395592e+000
 6.937703272672139e-001	 8.102265513355922e-001	 4.885702604764708e+000
 6.847937003240027e-001	 8.178275332637143e-001	 4.654446866454501e+000
 6.757382341700814e-001	 8.253254383142840e-001	 4.430400868837618e+000
 6.666057041068113e-001	 8.327190589071603e-001	 4.213383659539400e+000
 6.573979096404270e-001	 8.400072281517993e-001	 4.001913809424396e+000
 6.481166733187913e-001	 8.471888204381821e-001	 3.795122008078466e+000
 6.387638395514258e-001	 8.542627519879944e-001	 3.593750996039885e+000
 6.293412734143902e-001	 8.612279813655365e-001	 3.398655981502802e+000
 6.198508594416140e-001	 8.680835099479131e-001	 3.210796615707052e+000
 7.159264335445058e-001	 7.996869343648978e-001	 5.552953943259676e+000
 7.070576276644425e-001	 8.075390542305772e-001	 5.307550428354948e+000
 6.981059947387769e-001	 8.152900035576537e-001	 5.069249752568558e+000
 6.890732690147887e-001	 8.229384872723257e-001	 4.837927993586623e+000
 6.799612113801955e-001	 8.304832499379156e-001	 4.613463681094582e+000
 6.707716082309714e-001	 8.379230764276171e-001	 4.395738203387882e+000
 6.615062703192322e-001	 8.452567925585079e-001	 4.184208832176491e+000
 6.521670315827175e-001	 8.524832656861682e-001	 3.977071008161793e+000
 6.427557479574488e-001	 8.596014052593093e-001	 3.774844838409573e+000
 6.332742961751408e-001	 8.666101633338729e-001	 3.578459925637714e+000
 6.237245725469760e-001	 8.735085350461599e-001	 3.388955829687418e+000
 7.203727668957749e-001	 8.046534707591729e-001	 5.730246094946931e+000
 7.114488804018746e-001	 8.125543570074461e-001	 5.485593953883934e+000
 7.024416524566977e-001	 8.203534443872104e-001	 5.247640840606283e+000
 6.933528280782358e-001	 8.280494297814942e-001	 5.016308514899797e+000
 6.841841790903720e-001	 8.356410499566217e-001	 4.791524523676561e+000
 6.749375029836684e-001	 8.431270822391361e-001	 4.573222526108767e+000
 6.656146217560932e-001	 8.505063451537500e-001	 4.361322906105787e+000
 6.562173807352369e-001	 8.577776990216597e-001	 4.154194417811064e+000
 6.467476473835925e-001	 8.649400465186132e-001	 3.951457468748668e+000
 6.372073100885021e-001	 8.719923331922082e-001	 3.754105628652033e+000
 6.275982769383739e-001	 8.789335479379549e-001	 3.563247928597982e+000
 7.248190913556026e-001	 8.096199972207284e-001	 5.902304837469043e+000
 7.158401243581071e-001	 8.175696497540029e-001	 5.658351853942161e+000
 7.067773015046822e-001	 8.254168750901275e-001	 5.420753218905587e+000
 6.976323785840093e-001	 8.331603620689752e-001	 5.189466951178948e+000
 6.884071383561142e-001	 8.407988396598859e-001	 4.964460024607226e+000
 6.791033894061229e-001	 8.483310776427658e-001	 4.745708631344887e+000
 6.697229649778332e-001	 8.557558872499758e-001	 4.533198283154774e+000
 6.602677217886620e-001	 8.630721217683390e-001	 4.326273511361602e+000
 6.507395388275513e-001	 8.702786771006544e-001	 4.123367345443098e+000
 6.411403161374443e-001	 8.773744922861855e-001	 3.925366503887203e+000
 6.314719735839529e-001	 8.843585499796630e-001	 3.733439292475036e+000
 7.292654080353987e-001	 8.145865149911749e-001	 6.069002965723114e+000
 7.202313606307628e-001	 8.225849337240645e-001	 5.825704470463687e+000
 7.111129429664369e-001	 8.304802969322704e-001	 5.588471413679579e+000
 7.019119216017749e-001	 8.382712854125243e-001	 5.357288830823513e+000
 6.926300902329238e-001	 8.459566203371922e-001	 5.132153716349359e+000
 6.832692685395544e-001	 8.535350639395548e-001	 4.913075244670401e+000
 6.738313010112741e-001	 8.610054201596330e-001	 4.700074818866002e+000
 6.643180557553057e-001	 8.683665352498885e-001	 4.493092085666951e+000
 6.547314232870189e-001	 8.756172983401799e-001	 4.290355389299130e+000
 6.450733153049383e-001	 8.827566419614467e-001	 4.092018400642604e+000
 6.353456634518566e-001	 8.897835425276497e-001	 3.899298741141990e+000
 7.337117180465720e-001	 8.195530253121230e-001	 6.230220947293990e+000
 7.246225903174626e-001	 8.276002101714469e-001	 5.987539515086486e+000
 7.154485779256692e-001	 8.355437111795050e-001	 5.750687090578716e+000
 7.061914582011981e-001	 8.433822010898959e-001	 5.519666659487975e+000
 6.968530357763038e-001	 8.511143932780237e-001	 5.294496009831924e+000
 6.874351414251840e-001	 8.587390424305522e-001	 5.075207929983463e+000
 6.779396308832392e-001	 8.662549451951724e-001	 4.861850224274396e+000
 6.683683836474814e-001	 8.736609407899914e-001	 4.654485537414935e+000
 6.587233017596903e-001	 8.809559115719380e-001	 4.452205315012745e+000
 6.490063085739543e-001	 8.881387835636344e-001	 4.253839922003437e+000
 6.392193475102294e-001	 8.952085269382795e-001	 4.060597837014878e+000
 7.381580225005318e-001	 8.245195294251837e-001	 6.385846864060738e+000
 7.290138145158300e-001	 8.326154803499682e-001	 6.143752021234933e+000
 7.197842074660847e-001	 8.406071190976967e-001	 5.907299015072157e+000
 7.104709894519440e-001	 8.484931103788458e-001	 5.676499886714561e+000
 7.010759760417558e-001	 8.562721597718638e-001	 5.451384165407383e+000
 6.916010091042315e-001	 8.639430144168068e-001	 5.231999062986895e+000
 6.820479556205514e-001	 8.715044636690420e-001	 5.018409475773093e+000
 6.724187064775016e-001	 8.789553397123299e-001	 4.810697784714835e+000
 6.627151752432593e-001	 8.862945181306753e-001	 4.608703959944691e+000
 6.529392969274620e-001	 8.935209184383905e-001	 4.410612740211219e+000
 6.430930267272152e-001	 9.006335045679181e-001	 4.217111185735504e+000
 7.426043225086871e-001	 8.294860285719686e-001	 6.535776351557976e+000
 7.334050343234865e-001	 8.376307455134441e-001	 6.294244293664455e+000
 7.241198326713906e-001	 8.456705219527118e-001	 6.058213010085683e+000
 7.147505164236784e-001	 8.536040145571291e-001	 5.827694869686460e+000
 7.052989120847824e-001	 8.614299211081965e-001	 5.602722260868788e+000
 6.957668726179176e-001	 8.691469811993680e-001	 5.383347801738112e+000
 6.861562762500327e-001	 8.767539768936908e-001	 5.169644347592813e+000
 6.764690252576791e-001	 8.842497333405870e-001	 4.961704786091219e+000
 6.667070447354196e-001	 8.916331193511397e-001	 4.759641611978578e+000
 6.568722813484319e-001	 8.989030479313579e-001	 4.562121909682123e+000
 6.469667020709586e-001	 9.060584767729307e-001	 4.368616734723275e+000
 7.470506191824476e-001	 8.344525239940881e-001	 6.679912536190624e+000
 7.377962508380542e-001	 8.426460069156919e-001	 6.438925855578841e+000
 7.284554546252926e-001	 8.507339210104146e-001	 6.203341911005641e+000
 7.190300401860670e-001	 8.587149149025005e-001	 5.973164834223598e+000
 7.095218449608864e-001	 8.665876785765055e-001	 5.748421156649845e+000
 6.999327330074622e-001	 8.743509440792833e-001	 5.529160054387988e+000
 6.902645937985066e-001	 8.820034861815691e-001	 5.315453380531451e+000
 6.805193410003267e-001	 8.895441229984450e-001	 5.107395474566227e+000
 6.706989112338667e-001	 8.969717165680790e-001	 4.905102740257994e+000
 6.608052628198341e-001	 9.042851733881780e-001	 4.708156177777901e+000
 6.508403745096036e-001	 9.114834449096820e-001	 4.514896069737753e+000
 7.514969136332225e-001	 8.394190169331534e-001	 6.818165970388382e+000
 7.421874651571556e-001	 8.476612658105285e-001	 6.577713393418665e+000
 7.327910744114982e-001	 8.557973175366717e-001	 6.342605518165518e+000
 7.233095618087753e-001	 8.638258126927162e-001	 6.112829833133936e+000
 7.137447757255693e-001	 8.717454334662735e-001	 5.888398458328525e+000
 7.040985913140859e-001	 8.795549043576028e-001	 5.669348444228858e+000
 6.943729092927947e-001	 8.872529928451250e-001	 5.455741848057086e+000
 6.845696547177584e-001	 8.948385100095866e-001	 5.247665576542142e+000
 6.746907757362943e-001	 9.023103111162405e-001	 5.045230986021317e+000
 6.647382423246390e-001	 9.096672961544934e-001	 4.848508293419966e+000
 6.547140450112942e-001	 9.169084103345376e-001	 4.655734709535234e+000
 7.559432069724201e-001	 8.443855086307748e-001	 6.950454565787347e+000
 7.465786783784130e-001	 8.526765234517706e-001	 6.710530699420747e+000
 7.371266931137132e-001	 8.608607127973481e-001	 6.475930546913942e+000
 7.275890823614686e-001	 8.689367092055303e-001	 6.246616702033790e+000
 7.179677054343341e-001	 8.769031870669852e-001	 6.022578476541763e+000
 7.082644485790089e-001	 8.847588633353752e-001	 5.803832272162784e+000
 6.984812237597208e-001	 8.925024981968079e-001	 5.590421719892251e+000
 6.886199674222857e-001	 9.001328956976938e-001	 5.382417575178708e+000
 6.786826392403964e-001	 9.076489043303717e-001	 5.179917359208326e+000
 6.686712208458168e-001	 9.150494175759467e-001	 4.983044738331760e+000
 6.585877145441748e-001	 9.223333744038623e-001	 4.790922398703280e+000
 6.198508594416140e-001	 8.680835099479131e-001	 3.210796615707052e+000
 6.102945001977892e-001	 8.748283821075730e-001	 3.027874515307724e+000
 6.006741144412503e-001	 8.814616848543038e-001	 2.847547527446839e+000
 5.909916365275354e-001	 8.879825489111826e-001	 2.670843505315917e+000
 5.812490153734854e-001	 8.943901492657203e-001	 2.498864281123059e+000
 5.714482132060661e-001	 9.006837054341905e-001	 2.332777172287162e+000
 5.615912043072900e-001	 9.068624816840354e-001	 2.173806433597239e+000
 5.516799737568477e-001	 9.129257872143953e-001	 2.023224715957497e+000
 5.417165161740594e-001	 9.188729762948832e-001	 1.882344590244943e+000
 5.317028344607302e-001	 9.247034483627792e-001	 1.752510192316502e+000
 5.216409385464856e-001	 9.304166480789027e-001	 1.635089042339477e+000
 6.237245725469760e-001	 8.735085350461599e-001	 3.388955829687418e+000
 6.141084915275836e-001	 8.802955587965073e-001	 3.204095332593899e+000
 6.044279838664363e-001	 8.869703158890229e-001	 3.021554427093359e+000
 5.946849960076828e-001	 8.935319316142810e-001	 2.842382321235708e+000
 5.848814890477754e-001	 8.999795758039180e-001	 2.667704755500641e+000
 5.750194374764714e-001	 9.063124630966117e-001	 2.498715160424779e+000
 5.651008279139121e-001	 9.125298531618775e-001	 2.336665762373272e+000
 5.551276578453964e-001	 9.186310508817268e-001	 2.182858700490419e+000
 5.451019343554694e-001	 9.246154064903092e-001	 2.038637215669957e+000
 5.350256728629237e-001	 9.304823156717120e-001	 1.905376969767898e+000
 5.249008958582897e-001	 9.362312196161844e-001	 1.784477550306013e+000
 6.275982769383739e-001	 8.789335479379549e-001	 3.563247928597982e+000
 6.179224742777475e-001	 8.857627231840893e-001	 3.376691825563971e+000
 6.081818448472067e-001	 8.924789345290568e-001	 3.192127335902794e+000
 5.983783471794885e-001	 8.990813018309455e-001	 3.010633295832890e+000
 5.885139545506301e-001	 9.055689897655318e-001	 2.833367820414181e+000
 5.785906537131572e-001	 9.119412080939141e-001	 2.661559084801003e+000
 5.686104436253139e-001	 9.181972118876943e-001	 2.496496055943269e+000
 5.585753341779823e-001	 9.243363017117704e-001	 2.339519240295745e+000
 5.484873449209083e-001	 9.303578237648394e-001	 2.192011510788141e+000
 5.383485037898443e-001	 9.362611699778098e-001	 2.055389073582041e+000
 5.281608458362018e-001	 9.420457780703714e-001	 1.931092632020781e+000
 6.314719735839529e-001	 8.843585499796630e-001	 3.733439292475036e+000
 6.217364494015000e-001	 8.912298766372340e-001	 3.545423579284746e+000
 6.119356983217604e-001	 8.979875421516952e-001	 3.359021281792306e+000
 6.020716909660351e-001	 9.046306609486617e-001	 3.175349038821986e+000
 5.921464127899266e-001	 9.111583925480667e-001	 2.995605705991360e+000
 5.821618628087035e-001	 9.175699418334399e-001	 2.821062732580061e+000
 5.721200523186919e-001	 9.238645592784844e-001	 2.653054491284038e+000
 5.620230036163345e-001	 9.300415411309952e-001	 2.492968629049244e+000
 5.518727487165536e-001	 9.361002295542299e-001	 2.342236504760968e+000
 5.416713280720397e-001	 9.420400127259289e-001	 2.202323776722062e+000
 5.314207892950618e-001	 9.478603248952329e-001	 2.074721199583780e+000
 6.353456634518566e-001	 8.897835425276497e-001	 3.899298741141990e+000
 6.255504178520606e-001	 8.966970205228557e-001	 3.710052600995463e+000
 6.156895452282952e-001	 9.034961401342254e-001	 3.521993629615123e+000
 6.057650282904062e-001	 9.101800103549161e-001	 3.336284348999905e+000
 5.957788646735406e-001	 9.167477855490265e-001	 3.154172626008794e+000
 5.857330656556907e-001	 9.231986657225304e-001	 2.976981616622160e+000
 5.756296548712436e-001	 9.295318967512446e-001	 2.806099665665810e+000
 5.654706670221815e-001	 9.357467705658702e-001	 2.642970232939002e+000
 5.552581465885836e-001	 9.418426252942370e-001	 2.489081914164024e+000
 5.449941465400575e-001	 9.478188453609254e-001	 2.345958622193700e+000
 5.346807270497090e-001	 9.536748615445378e-001	 2.215149990505392e+000
 6.392193475102294e-001	 8.952085269382795e-001	 4.060597837014878e+000
 6.293643805826487e-001	 9.021641562078695e-001	 3.870343608145783e+000
 6.194433865050100e-001	 9.090047298539378e-001	 3.680804356145361e+000
 6.094583600756856e-001	 9.157293514371939e-001	 3.493196477804884e+000
 5.994113111093491e-001	 9.223371701659147e-001	 3.308825031562801e+000
 5.893042631466994e-001	 9.288273811685280e-001	 3.129073220710818e+000
 5.791392521601658e-001	 9.351992257229723e-001	 2.955391834788282e+000
 5.689183252572525e-001	 9.414519914428657e-001	 2.789288722972395e+000
 5.586435393831772e-001	 9.475850124206171e-001	 2.632318370632508e+000
 5.483169600244462e-001	 9.535976693276570e-001	 2.486071647098383e+000
 5.379406599149837e-001	 9.594893894720561e-001	 2.352165789140181e+000
 6.430930267272152e-001	 9.006335045679181e-001	 4.217111185735504e+000
 6.331783385464839e-001	 9.076312850591893e-001	 4.026064314529688e+000
 6.231972230901024e-001	 9.145133126881201e-001	 3.835216323363163e+000
 6.131516872449562e-001	 9.212786855829814e-001	 3.645845391316114e+000
 6.030437530052285e-001	 9.279265477962356e-001	 3.459321863261954e+000
 5.928754561743090e-001	 9.344560895787746e-001	 3.277097243331962e+000
 5.826488450626549e-001	 9.408665476106651e-001	 3.100693149452627e+000
 5.723659791832758e-001	 9.471572051884507e-001	 2.931690305752281e+000
 5.620289279465123e-001	 9.533273923691270e-001	 2.771717646862777e+000
 5.516397693557534e-001	 9.593764860709807e-001	 2.622441604895031e+000
 5.412005887057253e-001	 9.653039101315575e-001	 2.485555646152243e+000
 6.469667020709586e-001	 9.060584767729307e-001	 4.368616734723275e+000
 6.369922926967850e-001	 9.130984084437299e-001	 4.176985714595466e+000
 6.269510559217715e-001	 9.200218900140613e-001	 3.984995550109413e+000
 6.168450107213012e-001	 9.268280141797644e-001	 3.793994030761565e+000
 6.066761912690550e-001	 9.335159198374937e-001	 3.605424802011290e+000
 5.964466456311005e-001	 9.400847923606116e-001	 3.420815840071231e+000
 5.861584344559083e-001	 9.465338638313203e-001	 3.241767890827037e+000
 5.758136296619807e-001	 9.528624132290949e-001	 3.069942952783145e+000
 5.654143131247674e-001	 9.590697665755228e-001	 2.907052881046520e+000
 5.549625753645266e-001	 9.651552970357530e-001	 2.754848185956447e+000
 5.444605142367740e-001	 9.711184249768110e-001	 2.615107096099879e+000
 6.508403745096036e-001	 9.114834449096820e-001	 4.514896069737753e+000
 6.408062439867722e-001	 9.185655277284057e-001	 4.322882366015842e+000
 6.307048859382156e-001	 9.255304632090503e-001	 4.129911482188707e+000
 6.205383314278040e-001	 9.323773386150284e-001	 3.937408571599697e+000
 6.103086268087054e-001	 9.391052876871932e-001	 3.746898518442842e+000
 6.000178324096538e-001	 9.457134909213810e-001	 3.559993864689015e+000
 5.896680212171227e-001	 9.522011758019360e-001	 3.378382704373409e+000
 5.792612775550958e-001	 9.585676169912677e-001	 3.203816628377213e+000
 5.687996957641206e-001	 9.648121364755609e-001	 3.038098799799934e+000
 5.582853788813139e-001	 9.709341036668302e-001	 2.883072236484557e+000
 5.477204373229693e-001	 9.769329354615868e-001	 2.740608373214610e+000
 6.547140450112942e-001	 9.169084103345376e-001	 4.655734709535234e+000
 6.446201933696649e-001	 9.240326442801321e-001	 4.463532670586722e+000
 6.344587140776327e-001	 9.310390336503757e-001	 4.269737260978336e+000
 6.242316502875476e-001	 9.379266602762590e-001	 4.075858681235171e+000
 6.139410605320561e-001	 9.446946527428373e-001	 3.883510921058703e+000
 6.035890174025493e-001	 9.513421866684246e-001	 3.694399108927148e+000
 5.931776062234950e-001	 9.578684849395088e-001	 3.510306832488646e+000
 5.827089237243497e-001	 9.642728179014383e-001	 3.333083516217363e+000
 5.721850767107503e-001	 9.705545035049972e-001	 3.164631939655926e+000
 5.616081807366634e-001	 9.767129074090700e-001	 3.006895975860399e+000
 5.509803587791511e-001	 9.827474430396538e-001	 2.861848625457439e+000
 6.585877145441748e-001	 9.223333744038623e-001	 4.790922398703280e+000
 6.484341417986819e-001	 9.294997594658224e-001	 4.598719153531945e+000
 6.382125412782213e-001	 9.365476027153264e-001	 4.404249990616537e+000
 6.279249682236161e-001	 9.434759805509431e-001	 4.209117775431227e+000
 6.175734933469836e-001	 9.502840164019311e-001	 4.015033403134000e+000
 6.071602015023673e-001	 9.569708810090842e-001	 3.823802541107569e+000
 5.966871903522223e-001	 9.635357926610373e-001	 3.637312345916869e+000
 5.861565690314716e-001	 9.699780173860766e-001	 3.457518244632433e+000
 5.755704568108352e-001	 9.762968690995890e-001	 3.286430867177645e+000
 5.649309817611228e-001	 9.824917097073289e-001	 3.126103212491930e+000
 5.542402794201589e-001	 9.885619491647812e-001	 2.978618126918642e+000
 5.216409385464856e-001	 9.304166480789027e-001	 1.635089042339477e+000
 5.115343637342540e-001	 9.360112350538160e-001	 1.523846384112983e+000
 5.013836241751540e-001	 9.414876109821543e-001	 1.412371238432095e+000
 4.911907430309177e-001	 9.468453570644847e-001	 1.301818752233280e+000
 4.809577455047829e-001	 9.520840995190897e-001	 1.193325461453938e+000
 4.706866576225989e-001	 9.572035094363699e-001	 1.088004048566808e+000
 4.603795050253364e-001	 9.622033025948157e-001	 9.869385197236428e-001
 4.500383117743657e-001	 9.670832392392221e-001	 8.911798242288511e-001
 4.396650991708301e-001	 9.718431238218864e-001	 8.017419346892006e-001
 4.292618845903969e-001	 9.764828047075796e-001	 7.195984018031889e-001
 4.188306803346252e-001	 9.810021738431126e-001	 6.456793933797530e-001
 5.249008958582897e-001	 9.362312196161844e-001	 1.784477550306018e+000
 5.147311607381130e-001	 9.418607695576093e-001	 1.669580038322384e+000
 5.045169848666595e-001	 9.473713697009941e-001	 1.554159394090942e+000
 4.942604040492619e-001	 9.527625986296653e-001	 1.439419618820797e+000
 4.839634561455170e-001	 9.580340802259997e-001	 1.326545672892600e+000
 4.736281798427740e-001	 9.631854835249191e-001	 1.216697982554252e+000
 4.632566134410979e-001	 9.682165225287074e-001	 1.111007386515229e+000
 4.528507936510820e-001	 9.731269559838415e-001	 1.010570546093327e+000
 4.424127544058427e-001	 9.779165871205759e-001	 9.164458379988854e-001
 4.319445256884888e-001	 9.825852633560630e-001	 8.296497442776619e-001
 4.214481323763099e-001	 9.871328759618585e-001	 7.511537493688144e-001
 5.281608458362018e-001	 9.420457780703714e-001	 1.931092632020780e+000
 5.179279505500952e-001	 9.477102908997490e-001	 1.812647083074013e+000
 5.076503385089314e-001	 9.532551151813122e-001	 1.693412756553099e+000
 4.973300581616141e-001	 9.586798268811473e-001	 1.574638599401177e+000
 4.869691600240704e-001	 9.639840475457242e-001	 1.457553956078460e+000
 4.765696954451202e-001	 9.691674441544828e-001	 1.343362826004413e+000
 4.661337153838935e-001	 9.742297289334986e-001	 1.233238581964799e+000
 4.556632692001782e-001	 9.791706591309306e-001	 1.128319174072318e+000
 4.451604034590352e-001	 9.839900367549844e-001	 1.029702839115526e+000
 4.346271607509846e-001	 9.886877082751896e-001	 9.384443303589558e-001
 4.240655785290188e-001	 9.932635642878446e-001	 8.555516781271159e-001
 5.314207892950618e-001	 9.478603248952329e-001	 2.074721199583772e+000
 5.211247339692603e-001	 9.535598005427273e-001	 1.952844147657048e+000
 5.107836858851766e-001	 9.591388488941353e-001	 1.829936592835207e+000
 5.003997061352616e-001	 9.645970432983022e-001	 1.707288637832110e+000
 4.899748578917461e-001	 9.699340029657910e-001	 1.586170087151118e+000
 4.795112051648955e-001	 9.751493928205582e-001	 1.467824456563029e+000
 4.690108115728802e-001	 9.802429233124703e-001	 1.353463465416746e+000
 4.584757391246573e-001	 9.852143501913654e-001	 1.244262037309843e+000
 4.479080470172056e-001	 9.900634742433959e-001	 1.141353829701064e+000
 4.373097904484329e-001	 9.947901409904684e-001	 1.045827308082981e+000
 4.266830194470083e-001	 9.993942403536176e-001	 9.587223753926677e-001
 5.346807270497090e-001	 9.536748615445378e-001	 2.215149990505392e+000
 5.243215117946672e-001	 9.594092999490357e-001	 2.089967249192470e+000
 5.139170277786029e-001	 9.650225723104889e-001	 1.963535157513075e+000
 5.034693487374913e-001	 9.705142493605009e-001	 1.837181301606236e+000
 4.929805504998467e-001	 9.758839479737282e-001	 1.712212137267615e+000
 4.824527097373583e-001	 9.811313310186434e-001	 1.589906752463045e+000
 4.718879027272155e-001	 9.862561071689028e-001	 1.471511135356262e+000
 4.612882041275210e-001	 9.912580306760200e-001	 1.358232974335413e+000
 4.506556857671525e-001	 9.961369011040955e-001	 1.251237011370372e+000
 4.399924154513824e-001	 1.000892563027408e+000	 1.151640964865779e+000
 4.293004557845356e-001	 1.005524905691726e+000	 1.060512033030212e+000
 5.379406599149837e-001	 9.594893894720561e-001	 2.352165789140181e+000
 5.275182848253749e-001	 9.652587905811673e-001	 2.223812011438221e+000
 5.170503649724166e-001	 9.709062869013991e-001	 2.094011908023556e+000
 5.065389867355904e-001	 9.764314465471149e-001	 1.964126992848411e+000
 4.959862385996757e-001	 9.818338840570652e-001	 1.835496678578039e+000
 4.853942098977676e-001	 9.871132602442370e-001	 1.709431792835509e+000
 4.747649895660557e-001	 9.922692820060759e-001	 1.587208623488890e+000
 4.641006649117726e-001	 9.973017020957711e-001	 1.470063520430149e+000
 4.534033203956744e-001	 1.002210318855367e+000	 1.359188075930382e+000
 4.426750364303818e-001	 1.006994975911515e+000	 1.255724900282452e+000
 4.319178881958571e-001	 1.011655561834715e+000	 1.160764004089008e+000
 5.412005887057253e-001	 9.653039101315575e-001	 2.485555646152246e+000
 5.307150538604427e-001	 9.711082739016135e-001	 2.354173881451376e+000
 5.201836982498246e-001	 9.767899941378910e-001	 2.221169717676910e+000
 5.096086208968456e-001	 9.823486363375157e-001	 2.087935156915736e+000
 4.989919229425358e-001	 9.877838127033294e-001	 1.955838987720640e+000
 4.883357063813812e-001	 9.930951819928359e-001	 1.826220055486203e+000
 4.776420728085585e-001	 9.982824493272691e-001	 1.700381086261368e+000
 4.669131221804141e-001	 1.003345365961493e+000	 1.579583092424569e+000
 4.561509515895700e-001	 1.008283729015496e+000	 1.465040383065238e+000
 4.453576540559800e-001	 1.013097381168299e+000	 1.357916196325539e+000
 4.345353173352294e-001	 1.017786210315132e+000	 1.259318965390607e+000
 5.444605142367740e-001	 9.711184249768110e-001	 2.615107096099874e+000
 5.339118196989298e-001	 9.769577513728662e-001	 2.480848344194956e+000
 5.233170283940343e-001	 9.826736954909918e-001	 2.344811086481005e+000
 5.126782519885442e-001	 9.882658202110742e-001	 2.208414488700641e+000
 5.019976042797296e-001	 9.937337354000498e-001	 2.073053246942834e+000
 4.912771999234578e-001	 9.990770977599387e-001	 1.940090612246471e+000
 4.805191531738802e-001	 1.004295610635763e+000	 1.810851993926821e+000
 4.697255766364483e-001	 1.009389023784061e+000	 1.686619171037292e+000
 4.588985800356379e-001	 1.014357133102767e+000	 1.568625135579108e+000
 4.480402689987254e-001	 1.019199780323268e+000	 1.458049585250252e+000
 4.371527438569091e-001	 1.023916852665525e+000	 1.356015077749046e+000
 5.477204373229693e-001	 9.769329354615868e-001	 2.740608373214610e+000
 5.371085831398952e-001	 9.828072244574182e-001	 2.603631135181020e+000
 5.264503561882525e-001	 9.885573924317266e-001	 2.464738349867019e+000
 5.157478807779733e-001	 9.941829996471618e-001	 2.325373136734272e+000
 5.050032833625604e-001	 9.996836536347546e-001	 2.186952742948201e+000
 4.942186912592554e-001	 1.005059009041043e+000	 2.050861322001706e+000
 4.833962313811783e-001	 1.010308767434837e+000	 1.918443317262099e+000
 4.725380289828776e-001	 1.015432677074351e+000	 1.790997480859076e+000
 4.616462064206762e-001	 1.020430532635463e+000	 1.669771552294824e+000
 4.507228819291668e-001	 1.025302174901930e+000	 1.555957615108169e+000
 4.397701684151532e-001	 1.030047490418441e+000	 1.450688143925353e+000
 5.509803587791511e-001	 9.827474430396538e-001	 2.861848625457439e+000
 5.403053449823979e-001	 9.886566946177607e-001	 2.722318451229998e+000
 5.295836824156864e-001	 9.944410864311215e-001	 2.580753885406192e+000
 5.188175080324198e-001	 1.000100176125149e+000	 2.438618905183198e+000
 5.080089609423314e-001	 1.005633568894973e+000	 2.297350063565853e+000
 4.971601811240327e-001	 1.011040917331647e+000	 2.158349021492463e+000
 4.862733081496097e-001	 1.016321921227772e+000	 2.022975712032400e+000
 4.753504799227042e-001	 1.021476327343239e+000	 1.892542168080912e+000
 4.643938314314838e-001	 1.026503929131870e+000	 1.768307038712119e+000
 4.534054935178530e-001	 1.031404566429793e+000	 1.651470813066383e+000
 4.423875916642177e-001	 1.036178125106425e+000	 1.543171764407515e+000
 5.542402794201589e-001	 9.885619491647812e-001	 2.978618126918642e+000
 5.435021060254973e-001	 9.945061633163864e-001	 2.836707159427271e+000
 5.327170078595428e-001	 1.000324778960203e+000	 2.692660317602685e+000
 5.218871345191708e-001	 1.006017351124409e+000	 2.547959453828615e+000
 5.110146377703451e-001	 1.011583482668233e+000	 2.404057292330658e+000
 5.001016702530481e-001	 1.017022824127247e+000	 2.262369713983470e+000
 4.891503841983314e-001	 1.022335073517847e+000	 2.124268701299715e+000
 4.781629301589312e-001	 1.027519976101599e+000	 1.991075976057660e+000
 4.671414557548592e-001	 1.032577324110273e+000	 1.864057355511363e+000
 4.560881044353323e-001	 1.037506956432366e+000	 1.744417846601993e+000
 4.450050142583599e-001	 1.042308758262027e+000	 1.633297491109863e+000
 4.188306803346252e-001	 9.810021738431126e-001	 6.456793933797530e-001
 4.083719220012180e-001	 9.854018174027490e-001	 5.768832515988234e-001
 3.978891724756005e-001	 9.896810269996651e-001	 5.098898838299728e-001
 3.873844235061284e-001	 9.938398237888120e-001	 4.451953156040754e-001
 3.768596573328685e-001	 9.978782708743236e-001	 3.832408580489884e-001
 3.663168456381126e-001	 1.001796472814765e+000	 3.244136606751634e-001
 3.557579485199885e-001	 1.005594575098846e+000	 2.690477063572183e-001
 3.451849134900506e-001	 1.009272763592686e+000	 2.174252289168217e-001
 3.345996744956820e-001	 1.012831263959774e+000	 1.697785307499060e-001
 3.240041509680921e-001	 1.016270341054748e+000	 1.262921752751793e-001
 3.134002468966224e-001	 1.019590298292188e+000	 8.710552658363628e-002
 4.214481323763099e-001	 9.871328759618585e-001	 7.511537493688094e-001
 4.109240127892444e-001	 9.915600147754914e-001	 6.777998332925075e-001
 4.003757520787162e-001	 9.958659669831210e-001	 6.062022394622342e-001
 3.898053544403731e-001	 1.000050753871897e+000	 5.368795616985286e-001
 3.792148145021522e-001	 1.004114438940307e+000	 4.702937048634372e-001
 3.686061162682363e-001	 1.008057127400339e+000	 4.068504442399178e-001
 3.579812320862494e-001	 1.011878965649916e+000	 3.469004479750104e-001
 3.473421216385829e-001	 1.015580140716707e+000	 2.907407421573156e-001
 3.366907309586892e-001	 1.019160879674458e+000	 2.386165950065629e-001
 3.260289914731288e-001	 1.022621449032989e+000	 1.907237938741364e-001
 3.153588190700908e-001	 1.025962154103038e+000	 1.472112862553979e-001
 4.240655785290188e-001	 9.932635642878446e-001	 8.555516781271135e-001
 4.134760978353049e-001	 9.977181982937292e-001	 7.778056696896082e-001
 4.028623260872159e-001	 1.002050893051997e+000	 7.017548522892244e-001
 3.922262799276642e-001	 1.006261669981995e+000	 6.279427557563085e-001
 3.815699663724302e-001	 1.010350592976570e+000	 5.568541654838491e-001
 3.708953817475604e-001	 1.014317767901131e+000	 4.889156846696693e-001
 3.602045106501483e-001	 1.018163342062815e+000	 4.244967813423504e-001
 3.494993249333951e-001	 1.021887503650835e+000	 3.639112988773882e-001
 3.387817827167959e-001	 1.025490481149196e+000	 3.074194055022999e-001
 3.280538274222357e-001	 1.028972542722900e+000	 2.552299553716066e-001
 3.173173868367261e-001	 1.032333995578839e+000	 2.075032311992313e-001
 4.266830194470083e-001	 9.993942403536176e-001	 9.587223753926674e-001
 4.160281777773232e-001	 1.003876369496865e+000	 8.767544637445426e-001
 4.053488951226542e-001	 1.008235806752366e+000	 7.964069626086953e-001
 3.946472005731538e-001	 1.012472573671668e+000	 7.182506525930814e-001
 3.839251135324219e-001	 1.016586734541975e+000	 6.427954294890160e-001
 3.731846426483436e-001	 1.020578395882120e+000	 5.704908657264866e-001
 3.624277847674572e-001	 1.024447705908449e+000	 5.017272792032537e-001
 3.516565239137509e-001	 1.028194853971724e+000	 4.368372873140731e-001
 3.408728302927376e-001	 1.031820069966206e+000	 3.760978206622075e-001
 3.300786593216035e-001	 1.035323623712072e+000	 3.197325678925526e-001
 3.192759506861582e-001	 1.038705824312371e+000	 2.679148203839402e-001
 4.293004557845356e-001	 1.005524905691726e+000	 1.060512033030212e+000
 4.185802532532224e-001	 1.010034529924301e+000	 9.744967829593675e-001
 4.078354598065852e-001	 1.014420709630302e+000	 8.900145419248235e-001
 3.970681169819942e-001	 1.018683466493476e+000	 8.076656047064166e-001
 3.862802565708464e-001	 1.022822865195385e+000	 7.279871519259890e-001
 3.754738995428442e-001	 1.026839012908283e+000	 6.514538071469599e-001
 3.646510549939495e-001	 1.030732058757729e+000	 5.784787248297231e-001
 3.538137191189149e-001	 1.034502193256031e+000	 5.094151860703157e-001
 3.429638742092505e-001	 1.038149647707703e+000	 4.445586755520474e-001
 3.321034876774223e-001	 1.041674693588099e+000	 3.841494099858751e-001
 3.212345111080173e-001	 1.045077641896419e+000	 3.283752854781628e-001
 4.319178881958571e-001	 1.011655561834715e+000	 1.160764004089008e+000
 4.211323249009261e-001	 1.016192681115441e+000	 1.070880216961150e+000
 4.103220207605630e-001	 1.020605603231880e+000	 9.824304437127344e-001
 3.994890297593371e-001	 1.024894349999979e+000	 8.960467068649389e-001
 3.886353960764227e-001	 1.029058986495659e+000	 8.122955923318697e-001
 3.777631530033208e-001	 1.033099620544599e+000	 7.316787986731888e-001
 3.668743218853973e-001	 1.037016402181564e+000	 6.546342416037470e-001
 3.559709110881511e-001	 1.040809523080410e+000	 5.815376897563785e-001
 3.450549149890705e-001	 1.044479215955903e+000	 5.127049040569154e-001
 3.341283129958824e-001	 1.048025753938572e+000	 4.483942497768367e-001
 3.231930685919333e-001	 1.051449449923766e+000	 3.888097473782117e-001
 4.345353173352294e-001	 1.017786210315132e+000	 1.259318965390607e+000
 4.236843933583577e-001	 1.022350824609688e+000	 1.165749532653442e+000
 4.128085786061422e-001	 1.026790489103172e+000	 1.073504551786392e+000
 4.019099395103344e-001	 1.031105225743738e+000	 9.832499383166072e-001
 3.909905326378698e-001	 1.035295100001661e+000	 8.955837513741843e-001
 3.800524036020315e-001	 1.039360220356044e+000	 8.110367316883413e-001
 3.690975859975734e-001	 1.043300737750864e+000	 7.300734201768127e-001
 3.581281003607238e-001	 1.047116845021517e+000	 6.530938321743179e-001
 3.471459531549336e-001	 1.050808776293024e+000	 5.804356585528935e-001
 3.361531357831746e-001	 1.054376806351084e+000	 5.123769615592210e-001
 3.251516236275363e-001	 1.057821249987196e+000	 4.491393301187229e-001
 4.371527438569091e-001	 1.023916852665525e+000	 1.356015077749046e+000
 4.262364592634405e-001	 1.028508961946442e+000	 1.258946827047578e+000
 4.152951339648769e-001	 1.032975368790253e+000	 1.163083926374978e+000
 4.043308468401381e-001	 1.037316095277311e+000	 1.069128302715226e+000
 3.933456668439073e-001	 1.041531207272252e+000	 9.777115052086435e-001
 3.823416519112351e-001	 1.045620813907598e+000	 8.893952285543475e-001
 3.713208478862504e-001	 1.049585067036537e+000	 8.046724433100696e-001
 3.602852874758973e-001	 1.053424160656007e+000	 7.239691071469059e-001
 3.492369892295755e-001	 1.057138330301280e+000	 6.476464271830554e-001
 3.381779565454889e-001	 1.060727852413227e+000	 5.760036399424278e-001
 3.271101767044565e-001	 1.064193043679492e+000	 5.092812722801036e-001
 4.397701684151532e-001	 1.030047490418441e+000	 1.450688143925353e+000
 4.287885232540980e-001	 1.034667094665108e+000	 1.350311677867755e+000
 4.177816874583216e-001	 1.039160243839196e+000	 1.251012947998530e+000
 4.067517523539002e-001	 1.043526960153260e+000	 1.153531965863236e+000
 3.957007992832537e-001	 1.047767309866293e+000	 1.058535737651851e+000
 3.846308985031899e-001	 1.051881402764238e+000	 9.666187697537880e-001
 3.735441081072007e-001	 1.055869391609492e+000	 8.783042084918534e-001
 3.624424729729358e-001	 1.059731471560536e+000	 7.940455870907207e-001
 3.513280237357326e-001	 1.063467879562889e+000	 7.142291488353758e-001
 3.402027757890156e-001	 1.067078893712594e+000	 6.391767116494460e-001
 3.290687283123237e-001	 1.070564832593438e+000	 5.691490359926955e-001
 4.423875916642177e-001	 1.036178125106425e+000	 1.543171764407518e+000
 4.313405859682536e-001	 1.040825224305087e+000	 1.439681292026313e+000
 4.202682397080302e-001	 1.045345115796075e+000	 1.337133459241434e+000
 4.091726566567727e-001	 1.049737821924144e+000	 1.236308391358635e+000
 3.980559305446286e-001	 1.054003409342645e+000	 1.137910470258634e+000
 3.869201439501546e-001	 1.058141988490943e+000	 1.042568818921534e+000
 3.757673672161970e-001	 1.062153713040640e+000	 9.508384484239377e-001
 3.645996573911035e-001	 1.066038779311758e+000	 8.632020394272713e-001
 3.534190571961403e-001	 1.069797425660067e+000	 7.800723259167024e-001
 3.422275940199455e-001	 1.073429931836776e+000	 7.017950450671047e-001
 3.310272789407683e-001	 1.076936618321817e+000	 6.286524136411580e-001
 4.450050142583599e-001	 1.042308758262027e+000	 1.633297491109863e+000
 4.338926480438308e-001	 1.046983352405783e+000	 1.526890652053920e+000
 4.227547913355574e-001	 1.051529986206963e+000	 1.421284904504003e+000
 4.115935603539075e-001	 1.055948682142524e+000	 1.317302474236014e+000
 4.004110612167509e-001	 1.060239507260171e+000	 1.215686990390119e+000
 3.892093888243872e-001	 1.064402572652689e+000	 1.117103945857923e+000
 3.779906257690123e-001	 1.068438032900888e+000	 1.022141849466728e+000
 3.667568412696644e-001	 1.072346085486329e+000	 9.313140409201247e-001
 3.555100901335350e-001	 1.076126970175029e+000	 8.450611350177132e-001
 3.442524117444684e-001	 1.079780968373366e+000	 7.637540576380119e-001
 3.329858290794200e-001	 1.083308402457412e+000	 6.876976323604240e-001
 3.134002468966224e-001	 1.019590298292188e+000	 8.710552658363628e-002
 3.027898497785945e-001	 1.022791476736971e+000	 5.104967061317497e-002
 2.921748293092217e-001	 1.025874253664687e+000	 1.692688013292579e-002
 2.815570370197590e-001	 1.028839042630564e+000	-1.522672687517116e-002
 2.709383056183087e-001	 1.031686293007040e+000	-4.540902643158915e-002
 2.603204482043598e-001	 1.034416489247346e+000	-7.364788101569023e-002
 2.497052575127223e-001	 1.037030150131326e+000	-9.999698608806509e-002
 2.390945051871896e-001	 1.039527827994735e+000	-1.245316068959951e-001
 2.284899410842091e-001	 1.041910107943235e+000	-1.473442417219377e-001
 2.178932926067863e-001	 1.044177607052323e+000	-1.685402473966017e-001
 2.073062640687906e-001	 1.046330973554413e+000	-1.882334623032924e-001
 3.153588190700908e-001	 1.025962154103038e+000	 1.472112862553979e-001
 3.046821130426786e-001	 1.029183338080941e+000	 1.068939654808013e-001
 2.940007547706283e-001	 1.032285380600046e+000	 6.856426455649314e-002
 2.833166073562019e-001	 1.035268697800079e+000	 3.227521714559264e-002
 2.726315149608755e-001	 1.038133741861805e+000	-1.955403179397422e-003
 2.619473020149687e-001	 1.040881000266023e+000	-3.414092409175112e-002
 2.512657724568546e-001	 1.043510995034661e+000	-6.432146089991796e-002
 2.405887090020832e-001	 1.046024281955267e+000	-9.255948593693512e-002
 2.299178724427003e-001	 1.048421449790087e+000	-1.189353186707921e-001
 2.192550009769878e-001	 1.050703119470998e+000	-1.435425739062447e-001
 2.086018095697990e-001	 1.052869943281504e+000	-1.664836048394441e-001
 3.173173868367261e-001	 1.032333995578839e+000	 2.075032311992313e-001
 3.065743720491249e-001	 1.035575185044799e+000	 1.630388888621835e-001
 2.958266761236638e-001	 1.038696493111893e+000	 1.206185387890506e-001
 2.850761737335840e-001	 1.041698338504331e+000	 8.031085929706712e-002
 2.743247204937078e-001	 1.044581176211209e+000	 4.214794402826384e-002
 2.635741521651586e-001	 1.047345496740881e+000	 6.129619465975057e-003
 2.528262838898459e-001	 1.049991825357360e+000	-2.777207361357253e-002
 2.420829094550495e-001	 1.052520721299978e+000	-5.960827412699139e-002
 2.313458005883873e-001	 1.054932776987559e+000	-8.944860943758558e-002
 2.206167062833924e-001	 1.057228617208352e+000	-1.173764578592620e-001
 2.098973521558755e-001	 1.059408898296943e+000	-1.434842032615357e-001
 3.192759506861582e-001	 1.038705824312371e+000	 2.679148203839402e-001
 3.084666272709912e-001	 1.041967019226337e+000	 2.194297951089848e-001
 2.976525938248045e-001	 1.045107592802839e+000	 1.730471720548829e-001
 2.868357365917950e-001	 1.048127966350573e+000	 1.288499677147080e-001
 2.760179226401069e-001	 1.051028597666957e+000	 8.688322811906302e-002
 2.652009990616432e-001	 1.053809980287900e+000	 4.715851259771274e-002
 2.543867922018261e-001	 1.056472642719491e+000	 9.658550998364449e-003
 2.435771069196422e-001	 1.059017147652842e+000	-2.565796668202127e-002
 2.327737258782583e-001	 1.061444091163351e+000	-5.885150924433472e-002
 2.219784088664359e-001	 1.063754101895628e+000	-8.999677246597466e-002
 2.111928921509208e-001	 1.065947840235338e+000	-1.191777365075679e-001
 3.212345111080173e-001	 1.045077641896419e+000	 3.283752854781628e-001
 3.103588791813350e-001	 1.048358842223344e+000	 2.760077247764604e-001
 2.994785083305274e-001	 1.051518681275496e+000	 2.258032463356486e-001
 2.885952963707255e-001	 1.054557582946055e+000	 1.778578623911041e-001
 2.777111218233742e-001	 1.057476007840754e+000	 1.322281649470391e-001
 2.668278431111357e-001	 1.060274452523056e+000	 8.893598357377699e-002
 2.559472977829249e-001	 1.062953448741120e+000	 4.797322653172383e-002
 2.450713017694148e-001	 1.065513562637832e+000	 9.306862468173289e-003
 2.342016486693010e-001	 1.067955393945159e+000	-2.711600003733776e-002
 2.233401090665539e-001	 1.070279575164070e+000	-6.136297745607872e-002
 2.124884298788351e-001	 1.072486770731300e+000	-9.351126251844243e-002
 3.231930685919333e-001	 1.051449449923766e+000	 3.888097473782117e-001
 3.122511282532141e-001	 1.054750655633610e+000	 3.327095188388548e-001
 3.013044200973088e-001	 1.057929760132478e+000	 2.788355685179457e-001
 2.903548535102650e-001	 1.060987189898027e+000	 2.272955254953744e-001
 2.794043184668104e-001	 1.063923408344307e+000	 1.781560820314189e-001
 2.684546847203496e-001	 1.066738915062326e+000	 1.314478333919266e-001
 2.575078010232722e-001	 1.069434245042312e+000	 8.717031124658903e-002
 2.465654943779210e-001	 1.072009967878922e+000	 4.529716611062398e-002
 2.356295693185036e-001	 1.074466686960685e+000	 5.781454308837048e-003
 2.247018072241827e-001	 1.076805038644923e+000	-3.143901468915250e-002
 2.137839656635190e-001	 1.079025691419437e+000	-6.643631402968511e-002
 3.251516236275363e-001	 1.057821249987196e+000	 4.491393301187229e-001
 3.141433749596864e-001	 1.061142461054926e+000	 3.894679302263202e-001
 3.031303295816258e-001	 1.064340830976396e+000	 3.320887797978387e-001
 2.921144084503036e-001	 1.067416788813741e+000	 2.771197088931241e-001
 2.810975129937172e-001	 1.070370800789321e+000	 2.246360244282697e-001
 2.700815242959982e-001	 1.073203369521688e+000	 1.746755402417242e-001
 2.590683023129978e-001	 1.075915033243134e+000	 1.272438113631083e-001
 2.480596851187144e-001	 1.078506365000086e+000	 8.231952611118985e-002
 2.370574881828540e-001	 1.080977971837627e+000	 3.986000965346799e-002
 2.260635036797577e-001	 1.083330493969430e+000	-1.932069675847315e-004
 2.150794998288730e-001	 1.085564603934357e+000	-3.790879763794464e-002
 3.271101767044565e-001	 1.064193043679492e+000	 5.092812722801036e-001
 3.160356197738095e-001	 1.067534260085082e+000	 4.462117327984452e-001
 3.049562372399546e-001	 1.070751895409864e+000	 3.855034624626501e-001
 2.938739616307314e-001	 1.073846381300447e+000	 3.272830389745584e-001
 2.827907058273956e-001	 1.076818186787501e+000	 2.716328578503720e-001
 2.717083622447951e-001	 1.079667817517119e+000	 2.185963611582765e-001
 2.606288020422317e-001	 1.082395814963654e+000	 1.681834814836541e-001
 2.495538743653485e-001	 1.085002755625296e+000	 1.203762528396025e-001
 2.384854056193399e-001	 1.087489250203683e+000	 7.513454024754444e-002
 2.274251987737151e-001	 1.089855942768836e+000	 3.240184008246543e-002
 2.163750326987971e-001	 1.092103509910670e+000	-7.888895999333663e-003
 3.290687283123237e-001	 1.070564832593438e+000	 5.691490359926955e-001
 3.179278631686414e-001	 1.073926054321867e+000	 5.028658278565678e-001
 3.067821435287722e-001	 1.077162955035492e+000	 4.390162441532128e-001
 2.956335134914387e-001	 1.080275968965396e+000	 3.777341189110221e-001
 2.844838973911467e-001	 1.083265567950552e+000	 3.191073691567045e-001
 2.733351989734535e-001	 1.086132260664596e+000	 2.631834309814303e-001
 2.621893006011032e-001	 1.088876591823937e+000	 2.099749222605742e-001
 2.510480624913770e-001	 1.091499141378525e+000	 1.594654817797906e-001
 2.399133219849494e-001	 1.094000523686553e+000	 1.116157345155195e-001
 2.287868928464905e-001	 1.096381386674383e+000	 6.636933318907951e-002
 2.176705645971922e-001	 1.098642410982984e+000	 2.365902696621774e-002
 3.310272789407683e-001	 1.076936618321817e+000	 6.286524136411580e-001
 3.198201056172395e-001	 1.080317845363071e+000	 5.593513483007589e-001
 3.086080489045549e-001	 1.083574011455895e+000	 4.925598997163445e-001
 2.973930644723152e-001	 1.086705553415838e+000	 4.284176284418431e-001
 2.861770881082719e-001	 1.089712945890182e+000	 3.670163643152584e-001
 2.749620348886869e-001	 1.092596700580097e+000	 3.084058587327557e-001
 2.637497983797427e-001	 1.095357365444050e+000	 2.525996754231434e-001
 2.525422498703536e-001	 1.097995523883749e+000	 1.995812674405142e-001
 2.413412376366703e-001	 1.100511793913938e+000	 1.493101880788060e-001
 2.301485862385199e-001	 1.102906827317317e+000	 1.017283837953129e-001
 2.189660958479585e-001	 1.105181308785909e+000	 5.676651799041750e-002
 3.329858290794200e-001	 1.083308402457412e+000	 6.876976323604240e-001
 3.217123475926619e-001	 1.086709634806486e+000	 6.155857605279692e-001
 3.104339538237796e-001	 1.089985066273683e+000	 5.460634507432891e-001
 2.991526150132510e-001	 1.093135136259025e+000	 4.792744212954350e-001
 2.878702784020723e-001	 1.096160322218095e+000	 4.153127639448001e-001
 2.765888703972086e-001	 1.099061138879599e+000	 3.542288215173772e-001
 2.653102957682797e-001	 1.101838137444058e+000	 2.960353162747631e-001
 2.540364368758318e-001	 1.104491904764940e+000	 2.407136746771340e-001
 2.427691529314908e-001	 1.107023062513534e+000	 1.882204941328004e-001
 2.315102792902392e-001	 1.109432266328881e+000	 1.384940977148859e-001
 2.202616267749964e-001	 1.111720204954052e+000	 9.146112361200175e-002
 2.073062640687906e-001	 1.046330973554413e+000	-1.882334623032924e-001
 1.967321210341483e-001	 1.048370588664549e+000	-2.060842502149088e-001
 1.861709283643863e-001	 1.050297492397054e+000	-2.218605987119544e-001
 1.756243145063029e-001	 1.052112422007309e+000	-2.358287962149539e-001
 1.650938826503424e-001	 1.053816142520104e+000	-2.482462477360196e-001
 1.545812102484206e-001	 1.055409445871443e+000	-2.593574941474322e-001
 1.440878485620557e-001	 1.056893150044585e+000	-2.693904163103336e-001
 1.336153222406547e-001	 1.058268098201429e+000	-2.785526490057826e-001
 1.231651289297503e-001	 1.059535157810359e+000	-2.870282274988913e-001
 1.127387389089458e-001	 1.060695219771598e+000	-2.949744873457449e-001
 1.023375947592949e-001	 1.061749197541143e+000	-3.025192357622425e-001
 2.086018095697990e-001	 1.052869943281504e+000	-1.664836048394418e-001
 1.979615841929645e-001	 1.054922304819027e+000	-1.874146053694636e-001
 1.873343901133681e-001	 1.056861250597369e+000	-2.061105523873600e-001
 1.767218659546793e-001	 1.058687522479315e+000	-2.228412014671800e-001
 1.661256249263771e-001	 1.060401890270602e+000	-2.378666729072578e-001
 1.555472543385593e-001	 1.062005150856360e+000	-2.514332816064575e-001
 1.449883151472520e-001	 1.063498127331754e+000	-2.637695584519029e-001
 1.344503415300592e-001	 1.064881668127946e+000	-2.750824893323903e-001
 1.239348404919513e-001	 1.066156646134478e+000	-2.855539956912936e-001
 1.134432915009482e-001	 1.067323957819171e+000	-2.953376782307950e-001
 1.029771461534198e-001	 1.068384522346582e+000	-3.045558429890535e-001
 2.098973521558755e-001	 1.059408898296943e+000	-1.434842032615357e-001
 1.991910445855255e-001	 1.061474006233129e+000	-1.674245112198443e-001
 1.884978492445812e-001	 1.063424994030176e+000	-1.889781765706004e-001
 1.778194149335623e-001	 1.065262608158258e+000	-2.084172740916393e-001
 1.671573648809590e-001	 1.066987623204044e+000	-2.260035123975092e-001
 1.565132962550305e-001	 1.068600841001780e+000	-2.419838692309346e-001
 1.458887797062889e-001	 1.070103089758522e+000	-2.565864249507489e-001
 1.352853589405142e-001	 1.071495223174678e+000	-2.700164215438353e-001
 1.247045503220943e-001	 1.072778119560937e+000	-2.824525722010737e-001
 1.141478425074453e-001	 1.073952680952703e+000	-2.940436441017121e-001
 1.036166961082335e-001	 1.075019832223076e+000	-3.049053345730873e-001
 2.111928921509208e-001	 1.065947840235338e+000	-1.191777365075679e-001
 2.004205025192180e-001	 1.068025694544651e+000	-1.460442843881889e-001
 1.896613060489215e-001	 1.069988724336277e+000	-1.703819915864406e-001
 1.789169617173798e-001	 1.071837680687771e+000	-1.924642050041476e-001
 1.681891027720755e-001	 1.073573342966726e+000	-2.125531951604961e-001
 1.574793362394091e-001	 1.075196517956486e+000	-2.308955914259440e-001
 1.467892424643598e-001	 1.076708038975992e+000	-2.477180221747435e-001
 1.361203746808647e-001	 1.078108764994883e+000	-2.632229884410803e-001
 1.254742586127105e-001	 1.079399579744983e+000	-2.775849972833288e-001
 1.148523921046915e-001	 1.080581390829265e+000	-2.909469785774025e-001
 1.042562447837527e-001	 1.081655128829361e+000	-3.034170063829630e-001
 2.124884298788351e-001	 1.072486770731300e+000	-9.351126251844243e-002
 2.016499583014293e-001	 1.074577371391386e+000	-1.232088053556198e-001
 1.908247608172844e-001	 1.076552443156474e+000	-1.502450577728302e-001
 1.800145065805603e-001	 1.078412741711491e+000	-1.748936924082519e-001
 1.692208388577141e-001	 1.080159051204941e+000	-1.974166157001964e-001
 1.584453745332703e-001	 1.081792183369263e+000	-2.180591973026225e-001
 1.476897036466583e-001	 1.083312976635267e+000	-2.370457111868316e-001
 1.369553889599555e-001	 1.084722295241816e+000	-2.545750183097873e-001
 1.262439655563312e-001	 1.086021028341859e+000	-2.708165182657650e-001
 1.155569404689415e-001	 1.087210089105928e+000	-2.859063947558913e-001
 1.048957923399940e-001	 1.088290413824173e+000	-2.999441770295659e-001
 2.137839656635190e-001	 1.079025691419437e+000	-6.643631402968561e-002
 2.028794122395463e-001	 1.081129038411128e+000	-9.885741425812267e-002
 1.919882138405655e-001	 1.083116152131570e+000	-1.284948711677196e-001
 1.811120497975321e-001	 1.084987792873053e+000	-1.556218373058227e-001
 1.702525733958621e-001	 1.086744749564987e+000	-1.804990293781740e-001
 1.594114113781895e-001	 1.088387838888894e+000	-2.033697457982060e-001
 1.485901634783784e-001	 1.089917904387450e+000	-2.244551027338402e-001
 1.377904019866320e-001	 1.091335815568734e+000	-2.439495198795763e-001
 1.270136713454877e-001	 1.092642467006809e+000	-2.620164846216051e-001
 1.162614877764496e-001	 1.093838777439760e+000	-2.787846205815048e-001
 1.055353389369740e-001	 1.094925688866247e+000	-2.943440837522114e-001
 2.150794998288730e-001	 1.085564603934357e+000	-3.790879763794414e-002
 2.041088646409562e-001	 1.087680697241672e+000	-7.293381002372931e-002
 1.931516654096602e-001	 1.089679852902368e+000	-1.050632626046298e-001
 1.822095916427233e-001	 1.091562835816092e+000	-1.345690424777629e-001
 1.712843066445071e-001	 1.093330439693156e+000	-1.617099512490847e-001
 1.603774470157416e-001	 1.094983486164163e+000	-1.867265043740701e-001
 1.494906221847134e-001	 1.096522823883646e+000	-2.098359558590890e-001
 1.386254139697389e-001	 1.097949327628892e+000	-2.312275809433850e-001
 1.277833761727113e-001	 1.099263897395078e+000	-2.510582467239569e-001
 1.169660342034704e-001	 1.100467457487831e+000	-2.694482979104182e-001
 1.061748847347095e-001	 1.101560955614318e+000	-2.864777820060018e-001
 2.163750326987971e-001	 1.092103509910670e+000	-7.888895999333663e-003
 2.053383158130456e-001	 1.094232349520812e+000	-4.538595271058906e-002
 1.943151158154642e-001	 1.096243547109668e+000	-7.988630007256743e-002
 1.833071323905622e-001	 1.098137872184242e+000	-1.116599147891678e-001
 1.723160388616364e-001	 1.099916123235746e+000	-1.409630582740132e-001
 1.613434816875018e-001	 1.101579126843854e+000	-1.680328511433117e-001
 1.503910799908571e-001	 1.103127736774956e+000	-1.930820799869590e-001
 1.394604251181213e-001	 1.104562833075548e+000	-2.162942704788396e-001
 1.285530802305333e-001	 1.105885321161910e+000	-2.378190581318936e-001
 1.176705799262583e-001	 1.107096130907213e+000	-2.577678851184062e-001
 1.068144298932171e-001	 1.108196215727121e+000	-2.762100485928818e-001
 2.176705645971922e-001	 1.098642410982984e+000	 2.365902696621774e-002
 2.065677660632019e-001	 1.100783996886342e+000	-1.616596891248896e-002
 1.954785653488730e-001	 1.102807236394275e+000	-5.290419420467729e-002
 1.844046723154772e-001	 1.104712903621141e+000	-8.682317068184661e-002
 1.733477703052373e-001	 1.106501801839048e+000	-1.181760947762324e-001
 1.623095156350454e-001	 1.108174762576749e+000	-1.471961802855051e-001
 1.512915371220032e-001	 1.109732644712485e+000	-1.740912403325010e-001
 1.402954356406242e-001	 1.111176333561957e+000	-1.990385441318623e-001
 1.293227837114848e-001	 1.112506739962549e+000	-2.221799812550026e-001
 1.183751251210679e-001	 1.113724799354973e+000	-2.436175631033438e-001
 1.074539745725135e-001	 1.114831470863391e+000	-2.634092881902211e-001
 2.189660958479585e-001	 1.105181308785909e+000	 5.676651799041800e-002
 2.077972156988120e-001	 1.107335640976057e+000	 1.476993989414098e-002
 1.966420143007822e-001	 1.109370922396989e+000	-2.406120676757406e-002
 1.855022116918965e-001	 1.111287931770422e+000	-5.999154472087349e-002
 1.743795012332975e-001	 1.113087477149361e+000	-9.327078099929903e-002
 1.632755490999475e-001	 1.114770395011633e+000	-1.241278106095612e-001
 1.521919938033452e-001	 1.116337549347337e+000	-1.527650665009913e-001
 1.411304457460926e-001	 1.117789830741375e+000	-1.793531529163638e-001
 1.300924868080972e-001	 1.119128155452241e+000	-2.040257962638752e-001
 1.190796699641537e-001	 1.120353464488183e+000	-2.268751445419900e-001
 1.080935189326152e-001	 1.121466722681864e+000	-2.479474431338206e-001
 2.202616267749964e-001	 1.111720204954052e+000	 9.146112361200175e-002
 2.090266650272629e-001	 1.113887283427750e+000	 4.746158618475179e-002
 1.978054629620872e-001	 1.115934606758614e+000	 6.694437976983223e-003
 1.865997507942484e-001	 1.117862958275722e+000	-3.110170106964730e-002
 1.754112319038042e-001	 1.119673150812978e+000	-6.617272464386022e-002
 1.642415823237833e-001	 1.121366025797290e+000	-9.874289714048806e-002
 1.530924502600770e-001	 1.122942452330613e+000	-1.290089641446309e-001
 1.419654556433717e-001	 1.124403326267059e+000	-1.571345550039676e-001
 1.308621897129018e-001	 1.125749569286229e+000	-1.832449131051918e-001
 1.197842146317700e-001	 1.126982127963913e+000	-2.074219862675645e-001
 1.087330631335390e-001	 1.128101972841276e+000	-2.296999063248626e-001
 1.023375947592949e-001	 1.061749197541143e+000	-3.025192357622425e-001
 9.196156041119188e-002	 1.062698160787635e+000	-3.092242448573381e-001
 8.161360287930819e-002	 1.063542900019065e+000	-3.147365354638369e-001
 7.129510139779745e-002	 1.064284391785943e+000	-3.192633377591115e-001
 6.100740579791999e-002	 1.064923631719467e+000	-3.229732790407399e-001
 5.075183632053588e-002	 1.065461633653999e+000	-3.259951830225499e-001
 4.052968345630113e-002	 1.065899428754169e+000	-3.284171953743589e-001
 3.034220781303463e-002	 1.066238064647488e+000	-3.302862371674265e-001
 2.019064000970140e-002	 1.066478604563256e+000	-3.316077856663051e-001
 1.007618059643524e-002	 1.066622126478576e+000	-3.323459797617318e-001
 0.000000000000000e+000	 1.066669722272222e+000	-3.324324511108647e-001
 1.029771461534198e-001	 1.068384522346582e+000	-3.045558429890540e-001
 9.253626752940741e-002	 1.069339416070155e+000	-3.127661038010067e-001
 8.212364118570643e-002	 1.070189434438125e+000	-3.196207206663140e-001
 7.174065497586926e-002	 1.070935560103909e+000	-3.253331223696729e-001
 6.138866716680423e-002	 1.071578794920858e+000	-3.300757680494235e-001
 5.106900625009653e-002	 1.072120159059240e+000	-3.339788427558715e-001
 4.078297078120607e-002	 1.072560690127902e+000	-3.371292944114923e-001
 3.053182924600528e-002	 1.072901442301451e+000	-3.395702140712334e-001
 2.031681995409991e-002	 1.073143485453786e+000	-3.413005590649003e-001
 1.013915095835196e-002	 1.073287904298776e+000	-3.422752163571545e-001
 0.000000000000000e+000	 1.073335797538833e+000	-3.424133002039418e-001
 1.036166961082335e-001	 1.075019832223076e+000	-3.049053345730873e-001
 9.311097335415065e-002	 1.075980656410289e+000	-3.145913442926055e-001
 8.263367834408004e-002	 1.076835953902812e+000	-3.227602211144703e-001
 7.218620755096009e-002	 1.077586713456961e+000	-3.296316197321664e-001
 6.176992767733443e-002	 1.078233943148229e+000	-3.353817912660578e-001
 5.138617546550141e-002	 1.078778669482785e+000	-3.401421708467112e-001
 4.103625753571286e-002	 1.079221936513682e+000	-3.439983221965892e-001
 3.072145025188322e-002	 1.079564804962612e+000	-3.469892413626396e-001
 2.044299961424778e-002	 1.079808351348064e+000	-3.491070193248654e-001
 1.020212117838581e-002	 1.079953667120660e+000	-3.502968608741721e-001
 0.000000000000000e+000	 1.080001857806444e+000	-3.504648618859706e-001
 1.042562447837527e-001	 1.081655128829361e+000	-3.034170063829630e-001
 9.368567802923879e-002	 1.082621883468279e+000	-3.145450214307918e-001
 8.314371448208845e-002	 1.083482460074716e+000	-3.239968009553122e-001
 7.263175923461414e-002	 1.084237853507879e+000	-3.319983176877092e-001
 6.215118742498331e-002	 1.084889078065393e+000	-3.387296374385894e-001
 5.170334404619593e-002	 1.085437166589321e+000	-3.443233942832105e-001
 4.128954378328468e-002	 1.085883169576908e+000	-3.488636387934568e-001
 3.091107087819527e-002	 1.086228154296925e+000	-3.523850617340846e-001
 2.056917902178206e-002	 1.086473203912440e+000	-3.548725931080033e-001
 1.026509127233133e-002	 1.086619416610818e+000	-3.562613740047090e-001
 0.000000000000000e+000	 1.086667904741722e+000	-3.564440268364879e-001
 1.048957923399940e-001	 1.088290413824173e+000	-2.999441770295659e-001
 9.426038169848888e-002	 1.089263098904368e+000	-3.124761116566611e-001
 8.365374972739097e-002	 1.090128954615429e+000	-3.231760444885162e-001
 7.307731013837572e-002	 1.090888981919444e+000	-3.322764238348152e-001
 6.253244650522352e-002	 1.091544201336163e+000	-3.399612160493405e-001
 5.202051207162541e-002	 1.092095652043531e+000	-3.463642637031814e-001
 4.154282958738469e-002	 1.092544390982978e+000	-3.515680333178359e-001
 3.110069117246825e-002	 1.092891491970343e+000	-3.556027553513068e-001
 2.069535820833976e-002	 1.093138044813263e+000	-3.584459564994210e-001
 1.032806125598304e-002	 1.093285154435836e+000	-3.600223818317111e-001
 0.000000000000000e+000	 1.093333940011333e+000	-3.602107715320745e-001
 1.055353389369740e-001	 1.094925688866247e+000	-2.943440837522114e-001
 9.483508450571804e-002	 1.095904304378798e+000	-3.082374092908737e-001
 8.416378420764699e-002	 1.096775439186540e+000	-3.201472533780377e-001
 7.352286037378912e-002	 1.097540100354437e+000	-3.303127634644539e-001
 6.291370501352775e-002	 1.098199314624351e+000	-3.389219560465707e-001
 5.233767962123528e-002	 1.098754127510101e+000	-3.461099530185023e-001
 4.179611501147609e-002	 1.099205602397292e+000	-3.519576245739902e-001
 3.129031118222901e-002	 1.099554819648821e+000	-3.564906416450479e-001
 2.082153720555794e-002	 1.099802875716884e+000	-3.596789381220079e-001
 1.039103114513548e-002	 1.099950882262301e+000	-3.614365804495999e-001
 0.000000000000000e+000	 1.099999965281944e+000	-3.616280645844197e-001
 1.061748847347095e-001	 1.101560955614318e+000	-2.864777820060013e-001
 9.540978659474342e-002	 1.102545501551810e+000	-3.016854267635418e-001
 8.467381805051592e-002	 1.103421915449642e+000	-3.147633475451186e-001
 7.396841005239860e-002	 1.104191210475638e+000	-3.259576811624373e-001
 6.329496304536866e-002	 1.104854419593770e+000	-3.354607082230425e-001
 5.265484677447090e-002	 1.105412594653715e+000	-3.434089626585506e-001
 4.204940011902202e-002	 1.105866805485247e+000	-3.498817652789257e-001
 3.147993095500434e-002	 1.106218138998311e+000	-3.549001846526923e-001
 2.094771604507362e-002	 1.106467698289651e+000	-3.584264257502317e-001
 1.045400095558320e-002	 1.106616601756801e+000	-3.603636440336745e-001
 0.000000000000000e+000	 1.106665982220223e+000	-3.605617764653628e-001
 1.068144298932171e-001	 1.108196215727121e+000	-2.762100485928823e-001
 9.598448810938207e-002	 1.109186692083648e+000	-2.926802983829291e-001
 8.518385138365703e-002	 1.110068385066325e+000	-3.068807695924212e-001
 7.441395928574844e-002	 1.110842313945830e+000	-3.190649459254594e-001
 6.367622069621895e-002	 1.111509517908231e+000	-3.294296510879919e-001
 5.297201361077766e-002	 1.112071055139059e+000	-3.381130262852087e-001
 4.230268497348572e-002	 1.112528001912243e+000	-3.451929497260978e-001
 3.166955053832104e-002	 1.112881451684768e+000	-3.506859017585930e-001
 2.107389475852384e-002	 1.113132514197915e+000	-3.545462762821501e-001
 1.051697070312073e-002	 1.113282314585924e+000	-3.566661362150549e-001
 0.000000000000000e+000	 1.113331992492834e+000	-3.568805924784246e-001
 1.074539745725135e-001	 1.114831470863391e+000	-2.634092881902211e-001
 9.655918919345116e-002	 1.115827877634553e+000	-2.810856874939170e-001
 8.569388433472970e-002	 1.116714849698179e+000	-2.963593926062887e-001
 7.485950818538288e-002	 1.117493412427793e+000	-3.094916596451689e-001
 6.405747806155128e-002	 1.118164611231547e+000	-3.206842000883070e-001
 5.328918020960095e-002	 1.118729510630817e+000	-3.300770208304072e-001
 4.255596963833032e-002	 1.119189193343679e+000	-3.377467247422657e-001
 3.185916997970596e-002	 1.119544759374145e+000	-3.437052756952890e-001
 2.120007337754564e-002	 1.119797325108027e+000	-3.478992289272827e-001
 1.057994040354261e-002	 1.119948022416257e+000	-3.502094246215340e-001
 0.000000000000000e+000	 1.119997997766445e+000	-3.504559288401171e-001
 1.080935189326152e-001	 1.121466722681864e+000	-2.479474431338206e-001
 9.713388999076779e-002	 1.122469059864768e+000	-2.667686968898770e-001
 8.620391703139338e-002	 1.123361311006796e+000	-2.830624312026097e-001
 7.530505686284622e-002	 1.124144507584308e+000	-2.970981688175399e-001
 6.443873523683828e-002	 1.124819701227530e+000	-3.090829200377178e-001
 5.360634665038613e-002	 1.125387962793674e+000	-3.191588797210210e-001
 4.280925417701900e-002	 1.125850381444952e+000	-3.274016038022006e-001
 3.204878932668590e-002	 1.126208063732395e+000	-3.338186696660820e-001
 2.132625193377607e-002	 1.126462132686335e+000	-3.383488214778144e-001
 1.064291007264337e-002	 1.126613726914388e+000	-3.408615984561131e-001
 0.000000000000000e+000	 1.126663999707723e+000	-3.411618517424852e-001
 1.087330631335390e-001	 1.128101972841276e+000	-2.296999063248626e-001
 9.770859064514910e-002	 1.129110240434535e+000	-2.495997823373655e-001
 8.671394960130736e-002	 1.130007770653767e+000	-2.668563556784601e-001
 7.575060542968273e-002	 1.130795601078155e+000	-2.817479793502310e-001
 6.481999231755271e-002	 1.131474789559993e+000	-2.944874406260937e-001
 5.392351301257860e-002	 1.132046413292315e+000	-3.052195091576612e-001
 4.306253865301493e-002	 1.132511567881462e+000	-3.140189841725831e-001
 3.223840862678768e-002	 1.132871366425472e+000	-3.208892454649987e-001
 2.145243045885214e-002	 1.133126938599190e+000	-3.257613095344101e-001
 1.070587972621754e-002	 1.133279429746903e+000	-3.284933889834056e-001
 0.000000000000000e+000	 1.133329999983334e+000	-3.288749992743021e-001
 1.133329999983334e+000	 0.000000000000000e+000	 2.170419743082172e+001
 1.133279429746903e+000	 1.070587972621758e-002	 2.168740551870875e+001
 1.133126938599190e+000	 2.145243045885220e-002	 2.167138781445878e+001
 1.132871366425473e+000	 3.223840862678761e-002	 2.165459896278429e+001
 1.132511567881462e+000	 4.306253865301489e-002	 2.163553489150376e+001
 1.132046413292315e+000	 5.392351301257858e-002	 2.161273385130347e+001
 1.131474789559993e+000	 6.481999231755271e-002	 2.158477967314852e+001
 1.130795601078155e+000	 7.575060542968279e-002	 2.155030508347932e+001
 1.130007770653767e+000	 8.671394960130725e-002	 2.150799507464426e+001
 1.129110240434534e+000	 9.770859064514900e-002	 2.145659032718801e+001
 1.128101972841275e+000	 1.087330631335390e-001	 2.139489067970777e+001
 1.139996999982150e+000	 0.000000000000000e+000	 2.147063185188994e+001
 1.139946132257989e+000	 1.076885882381071e-002	 2.145377553119971e+001
 1.139792744056029e+000	 2.157862790779298e-002	 2.143795566463917e+001
 1.139535668436983e+000	 3.242805636533384e-002	 2.142161896708005e+001
 1.139173753318885e+000	 4.331586111564802e-002	 2.140325343903639e+001
 1.138705862381395e+000	 5.424072694206489e-002	 2.138138963423494e+001
 1.138130875978492e+000	 6.520130657750443e-002	 2.135460392027142e+001
 1.137447692058752e+000	 7.619622081778177e-002	 2.132152180120528e+001
 1.136655227092373e+000	 8.722405866335779e-002	 2.128082129984579e+001
 1.135752417004075e+000	 9.828337749012923e-002	 2.123123639662556e+001
 1.134738218110943e+000	 1.093727032498246e-001	 2.117156052101939e+001
 1.146663999981866e+000	 0.000000000000000e+000	 2.124391319564411e+001
 1.146612834769953e+000	 1.083183792161826e-002	 2.122701715400198e+001
 1.146458549513681e+000	 2.170482535712002e-002	 2.121140371295092e+001
 1.146199970449207e+000	 3.261770410439917e-002	 2.119551288089226e+001
 1.145835938756898e+000	 4.356918357889769e-002	 2.117782596148028e+001
 1.145365311470925e+000	 5.455794087223355e-002	 2.115686702960942e+001
 1.144786962397290e+000	 6.558262083817644e-002	 2.113120619286401e+001
 1.144099783039497e+000	 7.664183620661490e-002	 2.109946291922948e+001
 1.143302683530987e+000	 8.773416772613631e-002	 2.106030942913877e+001
 1.142394593573496e+000	 9.885816433581510e-002	 2.101247414904178e+001
 1.141374463380391e+000	 1.100123433667813e-001	 2.095474522271919e+001
 1.153330999982383e+000	 0.000000000000000e+000	 2.102371228465023e+001
 1.153279537282697e+000	 1.089481701958664e-002	 2.100680273125034e+001
 1.153124354972060e+000	 2.183102280673677e-002	 2.099140622204314e+001
 1.152864272462079e+000	 3.280735184385381e-002	 2.097595729367555e+001
 1.152498124195458e+000	 4.382250604260977e-002	 2.095893179234815e+001
 1.152024760560884e+000	 5.487515480291397e-002	 2.093884853930054e+001
 1.151443048816397e+000	 6.596393509938862e-002	 2.091427259053296e+001
 1.150751874020427e+000	 7.708745159599871e-002	 2.088381856729087e+001
 1.149950139969669e+000	 8.824427678946076e-002	 2.084615405572306e+001
 1.149036770142885e+000	 9.943295118203023e-002	 2.080000307321252e+001
 1.148010708649726e+000	 1.106519834842415e-001	 2.074414959787908e+001
 1.159997999983599e+000	 0.000000000000000e+000	 2.080971034444793e+001
 1.159946239796127e+000	 1.095779611766225e-002	 2.079281436447580e+001
 1.159790160431083e+000	 2.195722025654666e-002	 2.077764658198440e+001
 1.159528574475531e+000	 3.299699958356802e-002	 2.076263730845412e+001
 1.159160309634518e+000	 4.407582850663016e-002	 2.074625818145641e+001
 1.158684209651256e+000	 5.519236873393559e-002	 2.072702400121747e+001
 1.158099135235820e+000	 6.634524936096096e-002	 2.070349598602067e+001
 1.157403965001579e+000	 7.753306698574963e-002	 2.067428510305698e+001
 1.156597596408484e+000	 8.875438585314925e-002	 2.063805547349132e+001
 1.155678946712328e+000	 1.000077380285982e-001	 2.059352784957227e+001
 1.154646953919056e+000	 1.112916236020372e-001	 2.053948316057931e+001
 1.166664999985416e+000	 0.000000000000000e+000	 2.060159870630804e+001
 1.166612942310144e+000	 1.102077521579147e-002	 2.058474362631605e+001
 1.166455965890665e+000	 2.208341770645313e-002	 2.056981703515728e+001
 1.166192876489496e+000	 3.318664732341201e-002	 2.055524627812564e+001
 1.165822495074035e+000	 4.432915097080469e-002	 2.053950004285709e+001
 1.165343658742019e+000	 5.550958266512781e-002	 2.052109034907837e+001
 1.164755221655566e+000	 6.672656362271340e-002	 2.049857579702646e+001
 1.164056055982987e+000	 7.797868237568409e-002	 2.047056489619295e+001
 1.163245052847492e+000	 8.926449491701972e-002	 2.043571947353780e+001
 1.162321123281912e+000	 1.005825248753425e-001	 2.039275815934682e+001
 1.161283199188487e+000	 1.119312637200008e-001	 2.034045994783980e+001
 1.173331999987733e+000	 0.000000000000000e+000	 2.039907852012402e+001
 1.173279644824657e+000	 1.108375431392070e-002	 2.038229128398899e+001
 1.173121771350721e+000	 2.220961515635962e-002	 2.036761841054656e+001
 1.172857178503908e+000	 3.337629506325602e-002	 2.035348555078760e+001
 1.172484680513963e+000	 4.458247343497926e-002	 2.033835971142132e+001
 1.172003107833153e+000	 5.582679659632004e-002	 2.032075138046418e+001
 1.171411308075644e+000	 6.710787788446590e-002	 2.029921776593800e+001
 1.170708146964687e+000	 7.842429776561866e-002	 2.027236611997047e+001
 1.169892509286757e+000	 8.977460398089025e-002	 2.023885714783760e+001
 1.168963299851724e+000	 1.011573117220869e-001	 2.019740850048755e+001
 1.167919444458127e+000	 1.125709038379644e-001	 2.014679834798560e+001
 1.179998999990450e+000	 0.000000000000000e+000	 2.020186047703621e+001
 1.179946347339565e+000	 1.114673341199633e-002	 2.018516703214458e+001
 1.179787576811167e+000	 2.233581260616957e-002	 2.017075986704936e+001
 1.179521480518698e+000	 3.356594280297030e-002	 2.015706422372941e+001
 1.179146865954258e+000	 4.483579589899971e-002	 2.014254670773257e+001
 1.178662556924642e+000	 5.614401052734176e-002	 2.012571753282589e+001
 1.178067394496061e+000	 6.748919214603832e-002	 2.010513374715972e+001
 1.177360237946715e+000	 7.886991315536962e-002	 2.007940255011844e+001
 1.176539965726342e+000	 9.028471304457887e-002	 2.004718469981255e+001
 1.175605476421850e+000	 1.017320985686549e-001	 2.000719801013817e+001
 1.174555689728082e+000	 1.132105439557603e-001	 1.995822093519186e+001
 1.186665999993467e+000	 0.000000000000000e+000	 2.000966454140630e+001
 1.186613049854775e+000	 1.120971250996477e-002	 1.999308923472527e+001
 1.186453382271919e+000	 2.246201005578640e-002	 1.997895864545225e+001
 1.186185782533802e+000	 3.375559054242507e-002	 1.996569890574969e+001
 1.185809051394874e+000	 4.508911836271194e-002	 1.995177751096229e+001
 1.185322006016463e+000	 5.646122445802235e-002	 1.993570566713224e+001
 1.184723480916826e+000	 6.787050640725066e-002	 1.991604150174003e+001
 1.184012328929106e+000	 7.931552854475363e-002	 1.989139337063001e+001
 1.183187422166308e+000	 9.079482210790350e-002	 1.986042326151302e+001
 1.182247652992378e+000	 1.023068854148702e-001	 1.982185029337729e+001
 1.181191934998460e+000	 1.138501840732206e-001	 1.977445430996547e+001
 1.193332999996683e+000	 0.000000000000000e+000	 1.982221969177627e+001
 1.193279752370191e+000	 1.127269160777239e-002	 1.980578467548320e+001
 1.193119187732893e+000	 2.258820750511357e-002	 1.979193982873662e+001
 1.192850084549151e+000	 3.394523828149056e-002	 1.977911348747294e+001
 1.192471236835767e+000	 4.534244082596181e-002	 1.976577533941625e+001
 1.191981455108598e+000	 5.677843838819120e-002	 1.975043885885907e+001
 1.191379567337946e+000	 6.825182066792290e-002	 1.973166449901130e+001
 1.190664419911896e+000	 7.976114393358699e-002	 1.970806298625519e+001
 1.189834878606717e+000	 9.130493117068225e-002	 1.967829871715664e+001
 1.188889829563394e+000	 1.028816722605563e-001	 1.964109325799128e+001
 1.187828180269368e+000	 1.144898241901776e-001	 1.959522894533079e+001
 1.200000000000000e+000	 0.000000000000000e+000	 1.963926367046255e+001
 1.199946454885717e+000	 1.133567070536561e-002	 1.962298831681718e+001
 1.199784993194003e+000	 2.271440495405450e-002	 1.960943611038850e+001
 1.199514386564678e+000	 3.413488602003700e-002	 1.959703891935438e+001
 1.199133422276893e+000	 4.559576328859522e-002	 1.958426993845309e+001
 1.198640904201028e+000	 5.709565231767782e-002	 1.956964619603474e+001
 1.198035653759429e+000	 6.863313492787491e-002	 1.955173172497015e+001
 1.197316510895122e+000	 8.020675932168629e-002	 1.952914084141744e+001
 1.196482335047633e+000	 9.181504023273307e-002	 1.950054153277726e+001
 1.195532006134985e+000	 1.034564591055369e-001	 1.946465895504267e+001
 1.194464425540913e+000	 1.151294643064634e-001	 1.942027903849811e+001
 1.128101972841275e+000	 1.087330631335390e-001	 2.139489067970778e+001
 1.126982127963913e+000	 1.197842146317701e-001	 2.132663314199915e+001
 1.125749569286228e+000	 1.308621897129018e-001	 2.125564559678274e+001
 1.124403326267059e+000	 1.419654556433717e-001	 2.118099106429906e+001
 1.122942452330613e+000	 1.530924502600770e-001	 2.110180222448275e+001
 1.121366025797290e+000	 1.642415823237833e-001	 2.101728492014301e+001
 1.119673150812978e+000	 1.754112319038044e-001	 2.092672165988859e+001
 1.117862958275722e+000	 1.865997507942483e-001	 2.082947510856162e+001
 1.115934606758614e+000	 1.978054629620873e-001	 2.072499155160465e+001
 1.113887283427750e+000	 2.090266650272629e-001	 2.061280431842432e+001
 1.111720204954052e+000	 2.202616267749964e-001	 2.049253714844360e+001
 1.134738218110943e+000	 1.093727032498246e-001	 2.117156052101939e+001
 1.133611785561993e+000	 1.204888649630348e-001	 2.110552150929533e+001
 1.132371976155270e+000	 1.316320080532949e-001	 2.103694422770844e+001
 1.131017813640246e+000	 1.428005907704828e-001	 2.096489418925869e+001
 1.129548345872747e+000	 1.539930417618116e-001	 2.088850711156400e+001
 1.127962645751250e+000	 1.652077604273181e-001	 2.080699245859438e+001
 1.126259812151637e+000	 1.764431173068045e-001	 2.071963698728066e+001
 1.124438970859326e+000	 1.876974544985343e-001	 2.062580828669457e+001
 1.122499275497582e+000	 1.989690861099370e-001	 2.052495829609753e+001
 1.120439908450877e+000	 2.102562987405380e-001	 2.041662678673434e+001
 1.118260081782081e+000	 2.215573519972832e-001	 2.030044479081104e+001
 1.141374463380391e+000	 1.100123433667813e-001	 2.095474522271918e+001
 1.140241443159786e+000	 1.211935152949279e-001	 2.089084247809103e+001
 1.138994383023984e+000	 1.324018263942670e-001	 2.082458865608914e+001
 1.137632301013091e+000	 1.436357258981184e-001	 2.075505243403795e+001
 1.136154239414550e+000	 1.548936332640130e-001	 2.068137315925081e+001
 1.134559265704902e+000	 1.661739385312600e-001	 2.060276442813889e+001
 1.132846473490027e+000	 1.774750027101520e-001	 2.051851767568043e+001
 1.131014983442705e+000	 1.887951582031090e-001	 2.042800576288779e+001
 1.129063944236374e+000	 2.001327092580198e-001	 2.033068654845123e+001
 1.126992533473878e+000	 2.114859324539956e-001	 2.022610642925151e+001
 1.124799958610022e+000	 2.228530772197078e-001	 2.011390383293354e+001
 1.148010708649726e+000	 1.106519834842415e-001	 2.074414959787908e+001
 1.146871100757412e+000	 1.218981656272922e-001	 2.068230625334562e+001
 1.145616789892503e+000	 1.331716447356734e-001	 2.061829418667644e+001
 1.144246788385735e+000	 1.444708610261476e-001	 2.055118590448311e+001
 1.142760132956160e+000	 1.557942247665646e-001	 2.048012496755841e+001
 1.141155885658386e+000	 1.671401166355072e-001	 2.040432960620226e+001
 1.139433134828280e+000	 1.785068881137599e-001	 2.032309635175878e+001
 1.137590996025985e+000	 1.898928619079004e-001	 2.023580367195281e+001
 1.135628612975103e+000	 2.012963324062776e-001	 2.014191559609296e+001
 1.133545158496847e+000	 2.127155661675897e-001	 2.004098531465633e+001
 1.131339835437960e+000	 2.241488024422355e-001	 1.993265873620099e+001
 1.154646953919056e+000	 1.112916236020372e-001	 2.053948316057931e+001
 1.153500758354994e+000	 1.226028159599707e-001	 2.047962727711449e+001
 1.152239196760960e+000	 1.339414630773691e-001	 2.041777993225758e+001
 1.150861275758315e+000	 1.453059961544390e-001	 2.035301812021883e+001
 1.149366026497716e+000	 1.566948162693496e-001	 2.028449019071340e+001
 1.147752505611837e+000	 1.681062947399582e-001	 2.021141949936690e+001
 1.146019796166525e+000	 1.795387735175415e-001	 2.013310808055795e+001
 1.144167008609286e+000	 1.909905656128361e-001	 2.004894033024828e+001
 1.142193281713881e+000	 2.024599555546521e-001	 1.995838668476230e+001
 1.140097783519889e+000	 2.139451998812751e-001	 1.986100727985988e+001
 1.137879712265981e+000	 2.254445276648321e-001	 1.975645557280560e+001
 1.161283199188487e+000	 1.119312637200008e-001	 2.034045994783980e+001
 1.160130415952655e+000	 1.233074662928062e-001	 2.028252406321015e+001
 1.158861603629487e+000	 1.347112814192096e-001	 2.022276866073706e+001
 1.157475763130969e+000	 1.461411312828616e-001	 2.016027587383310e+001
 1.155971920039361e+000	 1.575954077722513e-001	 2.009419940811652e+001
 1.154349125565392e+000	 1.690724728445110e-001	 2.002376822577782e+001
 1.152606457504896e+000	 1.805706589214098e-001	 1.994829025899735e+001
 1.150743021192733e+000	 1.920882693178441e-001	 1.986715613993410e+001
 1.148757950452820e+000	 2.036235787030848e-001	 1.977984293315194e+001
 1.146650408543099e+000	 2.151748335950061e-001	 1.968591785466082e+001
 1.144419589094169e+000	 2.267402528874632e-001	 1.958504196003577e+001
 1.167919444458127e+000	 1.125709038379644e-001	 2.014679834798560e+001
 1.166760073550517e+000	 1.240121166256418e-001	 2.009071903793894e+001
 1.165484010498218e+000	 1.354810997610502e-001	 2.003298664795295e+001
 1.164090250503835e+000	 1.469762664112842e-001	 1.997268909547379e+001
 1.162577813581231e+000	 1.584959992751530e-001	 1.990898600041080e+001
 1.160945745519189e+000	 1.700386509490637e-001	 1.984111240236630e+001
 1.159193118843525e+000	 1.816025443252784e-001	 1.976838251392746e+001
 1.157319033776447e+000	 1.931859730228520e-001	 1.969019349752105e+001
 1.155322619192032e+000	 2.047872018515176e-001	 1.960602925161024e+001
 1.153203033566577e+000	 2.164044673087370e-001	 1.951546419024841e+001
 1.150959465922610e+000	 2.280359781100943e-001	 1.941816699821808e+001
 1.174555689728082e+000	 1.132105439557603e-001	 1.995822093519186e+001
 1.173389731148702e+000	 1.247167669583204e-001	 1.990393838667314e+001
 1.172106417367284e+000	 1.362509181027461e-001	 1.984816353600141e+001
 1.170704737877052e+000	 1.478114015395757e-001	 1.978999072264226e+001
 1.169183707123466e+000	 1.593965907779380e-001	 1.972858603045378e+001
 1.167542365473366e+000	 1.710048290535147e-001	 1.966319103670082e+001
 1.165779780182542e+000	 1.826344297290600e-001	 1.959312660455115e+001
 1.163895046360552e+000	 1.942836767277877e-001	 1.951779670654613e+001
 1.161887287931629e+000	 2.059508249998921e-001	 1.943669226474434e+001
 1.159755658590425e+000	 2.176341010224225e-001	 1.934939499139897e+001
 1.157499342751388e+000	 2.293317033326910e-001	 1.925558121216279e+001
 1.181191934998460e+000	 1.138501840732206e-001	 1.977445430996547e+001
 1.180019388747333e+000	 1.254214172906848e-001	 1.972191190602913e+001
 1.178728824236818e+000	 1.370207364441525e-001	 1.966803219685253e+001
 1.177319225250758e+000	 1.486465366676050e-001	 1.961191657498049e+001
 1.175789600666207e+000	 1.602971822804898e-001	 1.955273812900066e+001
 1.174138985428059e+000	 1.719710071577622e-001	 1.948974542328316e+001
 1.172366441522077e+000	 1.836663151326680e-001	 1.942226632904164e+001
 1.170471058945171e+000	 1.953813804325792e-001	 1.934971189421141e+001
 1.168451956671723e+000	 2.071144481481499e-001	 1.927158023777129e+001
 1.166308283614738e+000	 2.188637347360168e-001	 1.918746045222063e+001
 1.164039219580586e+000	 2.306274285552188e-001	 1.909703649597535e+001
 1.187828180269368e+000	 1.144898241901776e-001	 1.959522894533079e+001
 1.186649046346531e+000	 1.261260676225780e-001	 1.954437286143215e+001
 1.185351231106953e+000	 1.377905547851248e-001	 1.949232860105068e+001
 1.183933712625089e+000	 1.494816717952408e-001	 1.943820523385548e+001
 1.182395494209592e+000	 1.611977737826913e-001	 1.938118338491395e+001
 1.180735605383405e+000	 1.729371852617042e-001	 1.932051904411608e+001
 1.178953102862265e+000	 1.846982005360155e-001	 1.925554743519188e+001
 1.177047071530428e+000	 1.964790841371540e-001	 1.918568693183126e+001
 1.175016625412426e+000	 2.082780712962329e-001	 1.911044300646963e+001
 1.172860908639617e+000	 2.200933684494743e-001	 1.902941219530768e+001
 1.170579096410293e+000	 2.319231537776434e-001	 1.894228606110207e+001
 1.194464425540913e+000	 1.151294643064634e-001	 1.942027903849811e+001
 1.193278703946419e+000	 1.268307179538431e-001	 1.937105784985847e+001
 1.191973637977820e+000	 1.385603731255182e-001	 1.932079169130163e+001
 1.190548200000185e+000	 1.503168069223521e-001	 1.926859792655535e+001
 1.189001387753761e+000	 1.620983652844261e-001	 1.921366523972411e+001
 1.187332225339542e+000	 1.739033633652391e-001	 1.915525747337616e+001
 1.185539764203236e+000	 1.857300859390158e-001	 1.909271753493945e+001
 1.183623084116445e+000	 1.975767878414401e-001	 1.902547135894006e+001
 1.181581294153850e+000	 2.094416944440826e-001	 1.895303191059232e+001
 1.179413533665163e+000	 2.213230021627496e-001	 1.887500321417177e+001
 1.177118973240590e+000	 2.332188789999303e-001	 1.879108438748402e+001
 1.111720204954052e+000	 2.202616267749964e-001	 2.049253714844360e+001
 1.109432266328881e+000	 2.315102792902392e-001	 2.036555971758333e+001
 1.107023062513533e+000	 2.427691529314909e-001	 2.023338340313641e+001
 1.104491904764940e+000	 2.540364368758318e-001	 2.009592994625968e+001
 1.101838137444058e+000	 2.653102957682796e-001	 1.995321887366951e+001
 1.099061138879598e+000	 2.765888703972085e-001	 1.980537018462567e+001
 1.096160322218095e+000	 2.878702784020723e-001	 1.965260686044222e+001
 1.093135136259025e+000	 2.991526150132511e-001	 1.949525717173118e+001
 1.089985066273683e+000	 3.104339538237795e-001	 1.933375675762797e+001
 1.086709634806486e+000	 3.217123475926619e-001	 1.916865045040922e+001
 1.083308402457412e+000	 3.329858290794202e-001	 1.900059381822058e+001
 1.118260081782081e+000	 2.215573519972832e-001	 2.030044479081104e+001
 1.115958683982159e+000	 2.328721765597173e-001	 2.017775853304602e+001
 1.113535307629694e+000	 2.441972823756040e-001	 2.005004792100856e+001
 1.110989259929962e+000	 2.555308479695610e-001	 1.991723247555997e+001
 1.108319881387002e+000	 2.668710271898299e-001	 1.977932948769937e+001
 1.105526546672431e+000	 2.782159498876675e-001	 1.963645678079589e+001
 1.102608665480506e+000	 2.895637226292336e-001	 1.948883529882313e+001
 1.099565683368168e+000	 3.009124294397891e-001	 1.933679149513339e+001
 1.096397082578721e+000	 3.122601325799638e-001	 1.918075949528334e+001
 1.093102382847858e+000	 3.236048733537980e-001	 1.902128300652131e+001
 1.089681142190702e+000	 3.349446729481994e-001	 1.885901694579094e+001
 1.124799958610022e+000	 2.228530772197078e-001	 2.011390383293354e+001
 1.122485101635380e+000	 2.342340738292960e-001	 1.999539464122715e+001
 1.120047552745821e+000	 2.456254118197871e-001	 1.987202104532463e+001
 1.117486615094961e+000	 2.570252590633344e-001	 1.974370129614106e+001
 1.114801625329930e+000	 2.684317586114020e-001	 1.961045138501780e+001
 1.111991954465246e+000	 2.798430293781279e-001	 1.947238788324668e+001
 1.109057008742898e+000	 2.912571668563763e-001	 1.932973061130793e+001
 1.105996230477284e+000	 3.026722438662866e-001	 1.918280511167319e+001
 1.102809098883724e+000	 3.140863113360828e-001	 1.903204489792854e+001
 1.099495130889186e+000	 3.254973991148397e-001	 1.887799345200603e+001
 1.096053881923943e+000	 3.369035168168484e-001	 1.872130594048984e+001
 1.131339835437960e+000	 2.241488024422355e-001	 1.993265873620099e+001
 1.129011519288615e+000	 2.355959710989502e-001	 1.981821487403944e+001
 1.126559797861965e+000	 2.470535412640225e-001	 1.969905231007997e+001
 1.123983970259976e+000	 2.585196701571410e-001	 1.957508893819115e+001
 1.121283369272862e+000	 2.699924900329905e-001	 1.944634034692177e+001
 1.118457362258052e+000	 2.814701088685894e-001	 1.931292273849011e+001
 1.115505352005261e+000	 2.929506110835045e-001	 1.917505568144512e+001
 1.112426777586352e+000	 3.044320582927537e-001	 1.903306467014645e+001
 1.109221115188658e+000	 3.159124900921532e-001	 1.888738346304253e+001
 1.105887878930430e+000	 3.273899248758108e-001	 1.873855617068979e+001
 1.102426621657084e+000	 3.388623606853999e-001	 1.858723906356640e+001
 1.137879712265981e+000	 2.254445276648321e-001	 1.975645557280560e+001
 1.135537936941932e+000	 2.369578683686545e-001	 1.964596754000549e+001
 1.133072042978181e+000	 2.484816707082929e-001	 1.953089260573490e+001
 1.130481325425043e+000	 2.600140812509698e-001	 1.941114918196988e+001
 1.127765113215821e+000	 2.715532214545899e-001	 1.928675331180245e+001
 1.124922770050853e+000	 2.830971883590515e-001	 1.915782167019965e+001
 1.121953695267586e+000	 2.946440553106234e-001	 1.902457440264885e+001
 1.118857324695349e+000	 3.061918727192005e-001	 1.888733777411597e+001
 1.115633131493490e+000	 3.177386688481909e-001	 1.874654659949905e+001
 1.112280626971544e+000	 3.292824506367341e-001	 1.860274642565030e+001
 1.108799361390078e+000	 3.408212045538863e-001	 1.845659543408364e+001
 1.144419589094169e+000	 2.267402528874632e-001	 1.958504196003577e+001
 1.142064354595402e+000	 2.383197656383841e-001	 1.947840236805347e+001
 1.139584288094523e+000	 2.499098001525808e-001	 1.936729413261145e+001
 1.136978680590200e+000	 2.615084923448095e-001	 1.925163702088524e+001
 1.134246857158827e+000	 2.731139528761949e-001	 1.913144834796102e+001
 1.131388177843655e+000	 2.847242678495141e-001	 1.900684606180123e+001
 1.128402038529864e+000	 2.963374995377376e-001	 1.887805167058007e+001
 1.125287871804252e+000	 3.079516871456371e-001	 1.874539298407553e+001
 1.122045147798187e+000	 3.195648476042122e-001	 1.860930663948325e+001
 1.118673375012487e+000	 3.311749763976341e-001	 1.847034038083249e+001
 1.115172101122873e+000	 3.427800484223402e-001	 1.832915506015671e+001
 1.150959465922610e+000	 2.280359781100943e-001	 1.941816699821808e+001
 1.148590772249093e+000	 2.396816629081137e-001	 1.931527045477255e+001
 1.146096533211043e+000	 2.513379295968686e-001	 1.920801035756326e+001
 1.143476035755483e+000	 2.630029034386492e-001	 1.909630862765882e+001
 1.140728601101902e+000	 2.746746842977998e-001	 1.898018462932888e+001
 1.137853585636464e+000	 2.863513473399765e-001	 1.885975834178815e+001
 1.134850381792088e+000	 2.980309437648520e-001	 1.873525337807381e+001
 1.131718418913041e+000	 3.097115015720739e-001	 1.860699982198470e+001
 1.128457164102715e+000	 3.213910263602336e-001	 1.847543685260795e+001
 1.125066123053217e+000	 3.330675021585340e-001	 1.834111512469701e+001
 1.121544840855421e+000	 3.447388922907940e-001	 1.820469887206160e+001
 1.157499342751388e+000	 2.293317033326910e-001	 1.925558121216279e+001
 1.155117189903074e+000	 2.410435601778181e-001	 1.915632421499135e+001
 1.152608778327796e+000	 2.527660590411391e-001	 1.905279597378881e+001
 1.149973390920931e+000	 2.644973145324779e-001	 1.894492132345619e+001
 1.147210345045066e+000	 2.762354157193993e-001	 1.883272241397774e+001
 1.144318993429285e+000	 2.879784268304386e-001	 1.871632197165194e+001
 1.141298725054246e+000	 2.997243879919708e-001	 1.859594641251133e+001
 1.138148966021693e+000	 3.114713159985207e-001	 1.847192877808141e+001
 1.134869180407041e+000	 3.232172051162712e-001	 1.834471146214326e+001
 1.131458871093689e+000	 3.349600279194575e-001	 1.821484869582168e+001
 1.127917580587672e+000	 3.466977361592805e-001	 1.808300875714052e+001
 1.164039219580586e+000	 2.306274285552188e-001	 1.909703649597536e+001
 1.161643607557417e+000	 2.424054574474723e-001	 1.900131733554844e+001
 1.159121023444835e+000	 2.541941884853745e-001	 1.890140686366435e+001
 1.156470746086581e+000	 2.659917256262845e-001	 1.879723354986627e+001
 1.153692088988342e+000	 2.777961471409877e-001	 1.868882302530934e+001
 1.150784401222125e+000	 2.896055063209001e-001	 1.857630143632637e+001
 1.147747068316332e+000	 3.014178322190992e-001	 1.845989865554128e+001
 1.144579513130186e+000	 3.132311304249878e-001	 1.833995131988223e+001
 1.141281196711131e+000	 3.250433838723414e-001	 1.821690566327626e+001
 1.137851619133862e+000	 3.368525536804284e-001	 1.809132011037883e+001
 1.134290320319577e+000	 3.486565800278318e-001	 1.796386759643289e+001
 1.170579096410293e+000	 2.319231537776434e-001	 1.894228606110207e+001
 1.168170025212190e+000	 2.437673547170510e-001	 1.885000473213054e+001
 1.165633268562213e+000	 2.556223179295575e-001	 1.875360006447893e+001
 1.162968101252469e+000	 2.674861367200581e-001	 1.865300484361839e+001
 1.160173832931750e+000	 2.793568785625599e-001	 1.854824883582042e+001
 1.157249809014989e+000	 2.912325858113606e-001	 1.843946223704640e+001
 1.154195411578337e+000	 3.031112764462416e-001	 1.832687898505813e+001
 1.151010060238497e+000	 3.149909448514852e-001	 1.821083990328484e+001
 1.147693213014952e+000	 3.268695626284606e-001	 1.809179564332101e+001
 1.144244367173692e+000	 3.387450794414700e-001	 1.797030939141476e+001
 1.140663060051086e+000	 3.506154238964809e-001	 1.784705930296466e+001
 1.177118973240590e+000	 2.332188789999303e-001	 1.879108438748402e+001
 1.174696442867462e+000	 2.451292519865292e-001	 1.870214250905853e+001
 1.172145513679984e+000	 2.570504473736707e-001	 1.860913373695790e+001
 1.169465456418633e+000	 2.689805478137872e-001	 1.851199581393005e+001
 1.166655576875310e+000	 2.809176099841100e-001	 1.841076325334265e+001
 1.163715216807882e+000	 2.928596653018195e-001	 1.830557088652792e+001
 1.160643754840250e+000	 3.048047206734029e-001	 1.819665727934979e+001
 1.157440607346606e+000	 3.167507592780232e-001	 1.808436798569102e+001
 1.154105229318469e+000	 3.286957413846448e-001	 1.796915860380353e+001
 1.150637115213138e+000	 3.406376052026062e-001	 1.785159759986209e+001
 1.147035799782149e+000	 3.525742677652601e-001	 1.773236886163169e+001
 1.083308402457412e+000	 3.329858290794202e-001	 1.900059381822058e+001
 1.079780968373366e+000	 3.442524117444685e-001	 1.882653620689192e+001
 1.076126970175029e+000	 3.555100901335350e-001	 1.864347213209680e+001
 1.072346085486329e+000	 3.667568412696645e-001	 1.845228519066498e+001
 1.068438032900888e+000	 3.779906257690122e-001	 1.825396094296830e+001
 1.064402572652689e+000	 3.892093888243871e-001	 1.804958661512679e+001
 1.060239507260171e+000	 4.004110612167509e-001	 1.784035037384799e+001
 1.055948682142524e+000	 4.115935603539074e-001	 1.762754014749934e+001
 1.051529986206963e+000	 4.227547913355571e-001	 1.741254196794321e+001
 1.046983352405783e+000	 4.338926480438310e-001	 1.719683780885599e+001
 1.042308758262027e+000	 4.450050142583599e-001	 1.698200289770952e+001
 1.089681142190702e+000	 3.349446729481994e-001	 1.885901694579094e+001
 1.086132957396064e+000	 3.462775331374385e-001	 1.869082730410803e+001
 1.082457463952872e+000	 3.576014366698349e-001	 1.851364340469870e+001
 1.078654337588626e+000	 3.689143486679464e-001	 1.832837799895413e+001
 1.074723295241534e+000	 3.802142177509245e-001	 1.813604873196537e+001
 1.070664095735121e+000	 3.914989770238443e-001	 1.793777790713671e+001
 1.066476540426113e+000	 4.027665450951535e-001	 1.773479181379592e+001
 1.062160473824358e+000	 4.140148271214729e-001	 1.752841959020325e+001
 1.057715784183553e+000	 4.252417158789146e-001	 1.732009159528781e+001
 1.053142404061580e+000	 4.364450928600323e-001	 1.711133726363717e+001
 1.048440310849263e+000	 4.476228293954507e-001	 1.690378241974146e+001
 1.096053881923943e+000	 3.369035168168484e-001	 1.872130594048984e+001
 1.092484946418709e+000	 3.483026545302352e-001	 1.855877795827644e+001
 1.088787957730661e+000	 3.596927832059129e-001	 1.838728483893427e+001
 1.084962589690872e+000	 3.710718560659539e-001	 1.820776669457649e+001
 1.081008557582138e+000	 3.824378097325087e-001	 1.802127138127438e+001
 1.076925618817523e+000	 3.937885652229204e-001	 1.782895433229177e+001
 1.072713573592043e+000	 4.051220289731259e-001	 1.763207794484762e+001
 1.068372265506201e+000	 4.164360938885641e-001	 1.743201049157099e+001
 1.063901582160182e+000	 4.277286404217616e-001	 1.723022452873408e+001
 1.059301455717451e+000	 4.389975376756976e-001	 1.702829477455220e+001
 1.054571863436613e+000	 4.502406445319922e-001	 1.682789543232915e+001
 1.102426621657084e+000	 3.388623606853999e-001	 1.858723906356640e+001
 1.098836935441248e+000	 3.503277759229020e-001	 1.843016969933793e+001
 1.095118451508342e+000	 3.617841297418243e-001	 1.826418005367789e+001
 1.091270841793014e+000	 3.732293634637550e-001	 1.809023580250218e+001
 1.087293819922646e+000	 3.846614017138453e-001	 1.790941313731221e+001
 1.083187141899845e+000	 3.960781534217086e-001	 1.772289867344713e+001
 1.078950606757912e+000	 4.074775128507713e-001	 1.753198890256543e+001
 1.074584057188009e+000	 4.188573606552926e-001	 1.733808915924008e+001
 1.070087380136804e+000	 4.302155649642157e-001	 1.714271207246863e+001
 1.065460507373347e+000	 4.415499824909460e-001	 1.694747547410426e+001
 1.060703416024027e+000	 4.528584596681014e-001	 1.675409973772158e+001
 1.108799361390078e+000	 3.408212045538863e-001	 1.845659543408364e+001
 1.105188924463627e+000	 3.523528973154823e-001	 1.830478491647447e+001
 1.101448945285859e+000	 3.638754762776243e-001	 1.814411356280577e+001
 1.097579093894998e+000	 3.753868708614180e-001	 1.797557081118855e+001
 1.093579082263007e+000	 3.868849936950154e-001	 1.780025930954154e+001
 1.089448664982036e+000	 3.983677416203010e-001	 1.761939490544671e+001
 1.085187639923671e+000	 4.098329967281923e-001	 1.743430617110521e+001
 1.080795848869734e+000	 4.212786274217700e-001	 1.724643343195657e+001
 1.076273178113373e+000	 4.327024895063936e-001	 1.705732726843447e+001
 1.071619559029224e+000	 4.441024273058965e-001	 1.686864646153783e+001
 1.066834968611455e+000	 4.554762748038950e-001	 1.668215535441772e+001
 1.115172101122873e+000	 3.427800484223402e-001	 1.832915506015671e+001
 1.111540913485793e+000	 3.543780187080192e-001	 1.818240689850679e+001
 1.107779439063159e+000	 3.659668228133682e-001	 1.802687082392254e+001
 1.103887345996768e+000	 3.775443782590106e-001	 1.786355822880978e+001
 1.099864344603168e+000	 3.891085856760994e-001	 1.769359633338448e+001
 1.095710188064046e+000	 4.006573298187909e-001	 1.751822826390846e+001
 1.091424673089274e+000	 4.121884806054927e-001	 1.733881265706832e+001
 1.087007640551330e+000	 4.236998941881077e-001	 1.715682275769719e+001
 1.082458976089844e+000	 4.351894140484124e-001	 1.697384497793730e+001
 1.077778610685035e+000	 4.466548721206683e-001	 1.679157688715133e+001
 1.072966521198848e+000	 4.580940899394900e-001	 1.661182460342073e+001
 1.121544840855421e+000	 3.447388922907940e-001	 1.820469887206160e+001
 1.117892902507692e+000	 3.564031401005560e-001	 1.806281987601739e+001
 1.114109932840187e+000	 3.680581693491115e-001	 1.791223828869653e+001
 1.110195598098271e+000	 3.797018856566009e-001	 1.775398564100807e+001
 1.106149606943075e+000	 3.913321776571785e-001	 1.758921183459821e+001
 1.101971711145824e+000	 4.029469180172705e-001	 1.741918531543940e+001
 1.097661706254673e+000	 4.145439644827758e-001	 1.724529276477880e+001
 1.093219432232752e+000	 4.261211609544177e-001	 1.706903827323817e+001
 1.088644774066171e+000	 4.376763385903897e-001	 1.689204196474388e+001
 1.083937662340732e+000	 4.492073169353807e-001	 1.671603803817378e+001
 1.079098073786155e+000	 4.607119050750032e-001	 1.654287219615021e+001
 1.127917580587672e+000	 3.466977361592805e-001	 1.808300875714052e+001
 1.124244891529271e+000	 3.584282614931360e-001	 1.794580906513004e+001
 1.120440426616887e+000	 3.701495158849096e-001	 1.780000345474043e+001
 1.116503850199452e+000	 3.818593930542572e-001	 1.764664177010608e+001
 1.112434869282676e+000	 3.935557696383331e-001	 1.748689469505531e+001
 1.108233234227320e+000	 4.052365062158326e-001	 1.732205402922530e+001
 1.103898739419819e+000	 4.168994483601445e-001	 1.715353247292900e+001
 1.099431223913954e+000	 4.285424277208114e-001	 1.698286288511240e+001
 1.094830572042310e+000	 4.401632631324423e-001	 1.681169697961338e+001
 1.090096713996271e+000	 4.517597617501527e-001	 1.664180342614133e+001
 1.085229626373328e+000	 4.633297202105512e-001	 1.647506532394516e+001
 1.134290320319577e+000	 3.486565800278318e-001	 1.796386759643289e+001
 1.130596880550478e+000	 3.604533828858025e-001	 1.783116071288126e+001
 1.126770920393204e+000	 3.722408624208176e-001	 1.768995491897642e+001
 1.122812102300257e+000	 3.840169004520475e-001	 1.754131653572355e+001
 1.118720131621920e+000	 3.957793616196440e-001	 1.738643511987308e+001
 1.114494757308485e+000	 4.075260944145701e-001	 1.722662384993930e+001
 1.110135772584664e+000	 4.192549322377019e-001	 1.706331941254090e+001
 1.105643015594889e+000	 4.309636944874003e-001	 1.689808135190129e+001
 1.101016370018216e+000	 4.426501876746876e-001	 1.673259084620598e+001
 1.096255765651604e+000	 4.543122065651033e-001	 1.656864887571626e+001
 1.091361178960316e+000	 4.659475353462514e-001	 1.640817374909634e+001
 1.140663060051086e+000	 3.506154238964809e-001	 1.784705930296466e+001
 1.136948869571257e+000	 3.624785042785987e-001	 1.771866214412071e+001
 1.133101414169086e+000	 3.743322089568911e-001	 1.758188243242798e+001
 1.129120354400631e+000	 3.861744078500397e-001	 1.743780111674272e+001
 1.125005393960751e+000	 3.980029536011917e-001	 1.728762470583944e+001
 1.120756280389266e+000	 4.098156826135754e-001	 1.713268577191946e+001
 1.116372805749162e+000	 4.216104161155515e-001	 1.697444294619045e+001
 1.111854807275511e+000	 4.333849612542963e-001	 1.681448036780841e+001
 1.107202167993842e+000	 4.451371122172426e-001	 1.665450654831377e+001
 1.102414817306685e+000	 4.568646513803520e-001	 1.649635261489145e+001
 1.097492731547069e+000	 4.685653504822201e-001	 1.634196989734729e+001
 1.147035799782149e+000	 3.525742677652601e-001	 1.773236886163169e+001
 1.143300858591557e+000	 3.645036256715679e-001	 1.760810180988209e+001
 1.139431907944475e+000	 3.764235554931851e-001	 1.747557695638247e+001
 1.135428606500522e+000	 3.883319152483018e-001	 1.733588801457035e+001
 1.131290656299120e+000	 4.002265455830573e-001	 1.719025651108496e+001
 1.127017803469615e+000	 4.121052708129412e-001	 1.704003241456463e+001
 1.122609838913262e+000	 4.239658999937964e-001	 1.688669424844681e+001
 1.118066598955774e+000	 4.358062280216105e-001	 1.673184864746559e+001
 1.113387965969144e+000	 4.476240367602244e-001	 1.657722931836397e+001
 1.108573868961468e+000	 4.594170961960175e-001	 1.642469536652632e+001
 1.103624284133538e+000	 4.711831656185747e-001	 1.627622895180760e+001
 1.042308758262027e+000	 4.450050142583599e-001	 1.698200289770952e+001
 1.037506956432366e+000	 4.560881044353323e-001	 1.676372596650019e+001
 1.032577324110273e+000	 4.671414557548592e-001	 1.653744673365197e+001
 1.027519976101599e+000	 4.781629301589312e-001	 1.630456544958276e+001
 1.022335073517847e+000	 4.891503841983316e-001	 1.606652415649789e+001
 1.017022824127247e+000	 5.001016702530479e-001	 1.582480138005702e+001
 1.011583482668233e+000	 5.110146377703450e-001	 1.558090627565991e+001
 1.006017351124410e+000	 5.218871345191709e-001	 1.533637222490422e+001
 1.000324778960203e+000	 5.327170078595428e-001	 1.509274988117173e+001
 9.945061633163868e-001	 5.435021060254974e-001	 1.485159966692365e+001
 9.885619491647814e-001	 5.542402794201590e-001	 1.461448372910627e+001
 1.048440310849263e+000	 4.476228293954507e-001	 1.690378241974147e+001
 1.043610261630902e+000	 4.587711176722781e-001	 1.669290189360305e+001
 1.038651629936216e+000	 4.698894921480004e-001	 1.647388510340248e+001
 1.033564531246422e+000	 4.809758021871166e-001	 1.624812649729124e+001
 1.028349127620793e+000	 4.920278917312020e-001	 1.601706125321906e+001
 1.023005628049796e+000	 5.030436005265029e-001	 1.578215994947795e+001
 1.017534288770408e+000	 5.140207653692878e-001	 1.554492267770145e+001
 1.011935413542708e+000	 5.249572213676379e-001	 1.530687259310015e+001
 1.006209353886907e+000	 5.358508032182960e-001	 1.506954890020038e+001
 1.000356509280032e+000	 5.466993464971669e-001	 1.483449927606548e+001
 9.943773273115255e-001	 5.575006889620030e-001	 1.460327173690882e+001
 1.054571863436613e+000	 4.502406445319922e-001	 1.682789543232915e+001
 1.049713566829601e+000	 4.614541309086755e-001	 1.662426402213088e+001
 1.044725935762374e+000	 4.726375285406066e-001	 1.641232091289292e+001
 1.039609086391518e+000	 4.837886742147888e-001	 1.619345985423381e+001
 1.034363181724073e+000	 4.949053992635883e-001	 1.596911466900337e+001
 1.028988431972739e+000	 5.059855307995048e-001	 1.574075390190195e+001
 1.023485094873038e+000	 5.170268929678101e-001	 1.550987489729705e+001
 1.017853475961520e+000	 5.280273082157136e-001	 1.527799730020533e+001
 1.012093928814182e+000	 5.389845985766819e-001	 1.504665597797864e+001
 1.006206855244298e+000	 5.498965869684839e-001	 1.481739336404275e+001
 1.000192705458934e+000	 5.607610985034969e-001	 1.459175122906844e+001
 1.060703416024027e+000	 4.528584596681014e-001	 1.675409973772158e+001
 1.055816872028405e+000	 4.641371441446345e-001	 1.655756419421829e+001
 1.050800241588682e+000	 4.753855649327762e-001	 1.635250386835358e+001
 1.045653641536810e+000	 4.866015462420331e-001	 1.614031681628058e+001
 1.040377235827597e+000	 4.977829067955587e-001	 1.592244091399743e+001
 1.034971235895975e+000	 5.089274610721060e-001	 1.570034848344499e+001
 1.029435900976008e+000	 5.200330205659460e-001	 1.547554033344832e+001
 1.023771538380718e+000	 5.310973950634157e-001	 1.524953920861260e+001
 1.017978503741883e+000	 5.421183939347025e-001	 1.502388264294660e+001
 1.012057201209029e+000	 5.530938274394391e-001	 1.480011521889532e+001
 1.006008083606842e+000	 5.640215080446243e-001	 1.457978023660515e+001
 1.066834968611455e+000	 4.554762748038950e-001	 1.668215535441772e+001
 1.061920177227259e+000	 4.668201573802651e-001	 1.649255667859501e+001
 1.056874547415076e+000	 4.781336013246085e-001	 1.629418621589999e+001
 1.051698196682225e+000	 4.894144182689340e-001	 1.608845123626919e+001
 1.046391289931278e+000	 5.006604143271819e-001	 1.587679897716030e+001
 1.040954039819402e+000	 5.118693913443565e-001	 1.566071124674241e+001
 1.035386707079203e+000	 5.230391481637290e-001	 1.544169842647419e+001
 1.029689600800171e+000	 5.341674819107614e-001	 1.522129286528394e+001
 1.023863078669870e+000	 5.452521892923616e-001	 1.500104166131684e+001
 1.017907547174069e+000	 5.562910679100237e-001	 1.478249883122901e+001
 1.011823461755081e+000	 5.672819175853689e-001	 1.456721687126265e+001
 1.072966521198848e+000	 4.580940899394900e-001	 1.661182460342073e+001
 1.068023482426107e+000	 4.695031706156769e-001	 1.642899825968060e+001
 1.062948853241491e+000	 4.808816377162019e-001	 1.623712283598299e+001
 1.057742751827686e+000	 4.922272902955759e-001	 1.603761962626180e+001
 1.052405344035029e+000	 5.035379218585261e-001	 1.583195043871569e+001
 1.046936843742920e+000	 5.148113216163086e-001	 1.562161217591574e+001
 1.041337513182507e+000	 5.260452757611932e-001	 1.540813079774272e+001
 1.035607663219751e+000	 5.372375687577683e-001	 1.519305465842569e+001
 1.029747653597997e+000	 5.483859846496617e-001	 1.497794721279850e+001
 1.023757893139265e+000	 5.594883083802296e-001	 1.476437909101469e+001
 1.017638839903487e+000	 5.705423271257143e-001	 1.455391954533446e+001
 1.079098073786155e+000	 4.607119050750032e-001	 1.654287219615021e+001
 1.074126787624893e+000	 4.721861838509798e-001	 1.636664832839701e+001
 1.069023159067862e+000	 4.836296741076556e-001	 1.618107133952784e+001
 1.063787306973117e+000	 4.950401623220437e-001	 1.598758126137627e+001
 1.058419398138762e+000	 5.064154293896602e-001	 1.578765958397637e+001
 1.052919647666428e+000	 5.177532518880130e-001	 1.558282381262719e+001
 1.047288319285806e+000	 5.290514033583722e-001	 1.537462139012474e+001
 1.041525725639328e+000	 5.403076556044535e-001	 1.516462297444010e+001
 1.035632228526125e+000	 5.515197800066057e-001	 1.495441506607318e+001
 1.029608239104461e+000	 5.626855488500476e-001	 1.474559198354259e+001
 1.023454218051892e+000	 5.738027366656446e-001	 1.453974718997250e+001
 1.085229626373328e+000	 4.633297202105512e-001	 1.647506532394516e+001
 1.080230092823559e+000	 4.748691970862835e-001	 1.630526897463136e+001
 1.075097464894125e+000	 4.863777104990679e-001	 1.612579216569604e+001
 1.069831862118444e+000	 4.978530343484223e-001	 1.593809828512880e+001
 1.064433452242387e+000	 5.092929369206523e-001	 1.574369351848724e+001
 1.058902451589823e+000	 5.206951821595209e-001	 1.554412138317971e+001
 1.053239125388985e+000	 5.320575309553004e-001	 1.534095660914069e+001
 1.047443788058774e+000	 5.433777424508345e-001	 1.513579835514179e+001
 1.041516803454109e+000	 5.546535753631967e-001	 1.493026275403408e+001
 1.035458585069502e+000	 5.658827893194696e-001	 1.472597478456494e+001
 1.029269596200132e+000	 5.770631462051433e-001	 1.452455947204098e+001
 1.091361178960316e+000	 4.659475353462514e-001	 1.640817374909634e+001
 1.086333398022053e+000	 4.775522103216983e-001	 1.624462508128279e+001
 1.081171770720215e+000	 4.891257468905380e-001	 1.607104868120631e+001
 1.075876417263589e+000	 5.006659063747960e-001	 1.588893581622836e+001
 1.070447506345819e+000	 5.121704444515712e-001	 1.569982228443527e+001
 1.064885255513005e+000	 5.236371124308838e-001	 1.550528292662072e+001
 1.059189931491927e+000	 5.350636585520109e-001	 1.530692546477386e+001
 1.053361850477960e+000	 5.464478292969290e-001	 1.510638365522942e+001
 1.047401378381807e+000	 5.577873707194374e-001	 1.490530974879747e+001
 1.041308931034233e+000	 5.690800297884865e-001	 1.470536625465871e+001
 1.035084974348039e+000	 5.803235557441941e-001	 1.450821700957007e+001
 1.097492731547069e+000	 4.685653504822201e-001	 1.634196989734729e+001
 1.092436703220316e+000	 4.802352235573337e-001	 1.618448441983306e+001
 1.087246076546066e+000	 4.918737832821646e-001	 1.601660728115284e+001
 1.081920972408479e+000	 5.034787784012498e-001	 1.583986205676719e+001
 1.076461560448969e+000	 5.150479519824853e-001	 1.565581897827611e+001
 1.070868059435873e+000	 5.265790427021526e-001	 1.546608942381041e+001
 1.065140737594519e+000	 5.380697861485382e-001	 1.527231971392313e+001
 1.059279912896756e+000	 5.495179161427544e-001	 1.507618420000170e+001
 1.053285953309077e+000	 5.609211660753308e-001	 1.487937763649485e+001
 1.047159276998498e+000	 5.722772702570897e-001	 1.468360683283888e+001
 1.040900352495448e+000	 5.835839652827812e-001	 1.449058158586684e+001
 1.103624284133538e+000	 4.711831656185747e-001	 1.627622895180760e+001
 1.098540008418292e+000	 4.829182367932998e-001	 1.612461774738032e+001
 1.093320382371615e+000	 4.946218196740462e-001	 1.596223749126369e+001
 1.087965527553038e+000	 5.062916504278682e-001	 1.579064840175193e+001
 1.082475614551749e+000	 5.179254595134631e-001	 1.561145986953102e+001
 1.076850863358325e+000	 5.295209729733790e-001	 1.542632492741798e+001
 1.071091543696644e+000	 5.410759137449159e-001	 1.523693400347137e+001
 1.065197975315034e+000	 5.525880029883279e-001	 1.504500794330938e+001
 1.059170528235776e+000	 5.640549614308797e-001	 1.485229029185488e+001
 1.053009622962143e+000	 5.754745107252708e-001	 1.466053882945193e+001
 1.046715730642193e+000	 5.868443748208878e-001	 1.447151636233297e+001
 9.885619491647814e-001	 5.542402794201590e-001	 1.461448372910627e+001
 9.824917097073290e-001	 5.649309817611228e-001	 1.437415478528741e+001
 9.762968690995890e-001	 5.755704568108352e-001	 1.412372540475317e+001
 9.699780173860767e-001	 5.861565690314716e-001	 1.386517284734221e+001
 9.635357926610374e-001	 5.966871903522223e-001	 1.360044528908786e+001
 9.569708810090841e-001	 6.071602015023673e-001	 1.333145057692501e+001
 9.502840164019309e-001	 6.175734933469834e-001	 1.306004455745389e+001
 9.434759805509428e-001	 6.279249682236161e-001	 1.278801901797269e+001
 9.365476027153261e-001	 6.382125412782214e-001	 1.251708928250543e+001
 9.294997594658225e-001	 6.484341417986819e-001	 1.224888150998714e+001
 9.223333744038621e-001	 6.585877145441748e-001	 1.198491974608963e+001
 9.943773273115255e-001	 5.575006889620030e-001	 1.460327173690882e+001
 9.882713786726242e-001	 5.682542811167918e-001	 1.436863448027151e+001
 9.820400958967170e-001	 5.789563446273001e-001	 1.412381643637076e+001
 9.756840724993499e-001	 5.896047313930605e-001	 1.387093835618657e+001
 9.692039503284609e-001	 6.001973008245471e-001	 1.361209801641236e+001
 9.626004195046681e-001	 6.107319211840904e-001	 1.334935858380551e+001
 9.558742183173916e-001	 6.212064709294447e-001	 1.308473652186175e+001
 9.490261330765412e-001	 6.316188400583206e-001	 1.282018907877195e+001
 9.420569979195745e-001	 6.419669314521876e-001	 1.255760140033841e+001
 9.349676945738025e-001	 6.522486622176337e-001	 1.229877331615736e+001
 9.277591520738917e-001	 6.624619650235540e-001	 1.204540585190142e+001
 1.000192705458934e+000	 5.607610985034969e-001	 1.459175122906844e+001
 9.940510476386210e-001	 5.715775804720994e-001	 1.436256364828002e+001
 9.877833226945743e-001	 5.823422324433805e-001	 1.412321772580738e+001
 9.813901276133723e-001	 5.930528937542327e-001	 1.387597253364666e+001
 9.748721079966469e-001	 6.037074112964166e-001	 1.362306984358259e+001
 9.682299580010183e-001	 6.143036408653173e-001	 1.336672210444925e+001
 9.614644202336151e-001	 6.248394485113694e-001	 1.310909993019653e+001
 9.545762856028904e-001	 6.353127118924513e-001	 1.285231913846333e+001
 9.475663931245540e-001	 6.457213216255494e-001	 1.259842738427270e+001
 9.404356296824864e-001	 6.560631826359605e-001	 1.234939043829990e+001
 9.331849297445891e-001	 6.663362155023007e-001	 1.210707816389444e+001
 1.006008083606842e+000	 5.640215080446243e-001	 1.457978023660515e+001
 9.998307166051433e-001	 5.749008798270260e-001	 1.435582321396081e+001
 9.935265494929784e-001	 5.857281202590576e-001	 1.412182654750199e+001
 9.870961827279576e-001	 5.965010561149743e-001	 1.388018257539952e+001
 9.805402656654042e-001	 6.072175217678244e-001	 1.363327158356457e+001
 9.738594964979440e-001	 6.178753605460503e-001	 1.338344939905347e+001
 9.670546221504111e-001	 6.284724260927679e-001	 1.313303446294962e+001
 9.601264381298031e-001	 6.390065837260276e-001	 1.288429442315749e+001
 9.530757883300819e-001	 6.494757117983335e-001	 1.263943229265215e+001
 9.459035647916977e-001	 6.598777030536939e-001	 1.240057222377873e+001
 9.386107074157873e-001	 6.702104659804474e-001	 1.216775336687635e+001
 1.011823461755081e+000	 5.672819175853689e-001	 1.456721687126265e+001
 1.005610385572016e+000	 5.782241791815531e-001	 1.434829358466459e+001
 9.992697762917473e-001	 5.891140080743142e-001	 1.411953919181750e+001
 9.928022378429179e-001	 5.999492184752717e-001	 1.388347435447927e+001
 9.862084233345433e-001	 6.107276322387641e-001	 1.364261251321582e+001
 9.794890349952525e-001	 6.214470802262907e-001	 1.339944710015492e+001
 9.726448240675881e-001	 6.321054036736511e-001	 1.315643820005342e+001
 9.656765906570911e-001	 6.427004555590683e-001	 1.291599870083071e+001
 9.585851835359757e-001	 6.532301019705662e-001	 1.268047998003891e+001
 9.513714999012607e-001	 6.636922234708648e-001	 1.245215717899663e+001
 9.440364850873191e-001	 6.740847164580276e-001	 1.222451633585888e+001
 1.017638839903487e+000	 5.705423271257143e-001	 1.455391954533446e+001
 1.011390054539064e+000	 5.815474785356608e-001	 1.433985489206564e+001
 1.005013003090699e+000	 5.924998958891324e-001	 1.411625122413254e+001
 9.985082929580652e-001	 6.033973808351121e-001	 1.388575269358092e+001
 9.918765810038723e-001	 6.142377427092285e-001	 1.365100065461255e+001
 9.851185734927529e-001	 6.250187999060399e-001	 1.341462049886837e+001
 9.782350259849559e-001	 6.357383812540294e-001	 1.317920790799733e+001
 9.712267431845675e-001	 6.463943273915921e-001	 1.294731456537001e+001
 9.640945787420523e-001	 6.569844921422731e-001	 1.272143337432616e+001
 9.568394350109997e-001	 6.675067438875043e-001	 1.250388224296261e+001
 9.494622627590179e-001	 6.779589669350749e-001	 1.227733701918933e+001
 1.023454218051892e+000	 5.738027366656446e-001	 1.453974718997250e+001
 1.017169723506112e+000	 5.848707778893306e-001	 1.433038723163089e+001
 1.010756229889650e+000	 5.958857837034940e-001	 1.411185774128584e+001
 1.004214348073213e+000	 6.068455431944817e-001	 1.388692163436027e+001
 9.975447386732017e-001	 6.177478531792116e-001	 1.365834305315301e+001
 9.907481119902529e-001	 6.285905195852996e-001	 1.342887382781160e+001
 9.838252279023241e-001	 6.393713588339129e-001	 1.320123932367114e+001
 9.767768957120436e-001	 6.500881992236183e-001	 1.297812371751223e+001
 9.696039739481288e-001	 6.607388823134809e-001	 1.276215475103751e+001
 9.623073701207390e-001	 6.713212643036441e-001	 1.255263826753491e+001
 9.548880404307168e-001	 6.818332174116220e-001	 1.232621353035641e+001
 1.029269596200132e+000	 5.770631462051433e-001	 1.452455947204098e+001
 1.022949392472985e+000	 5.881940772425429e-001	 1.431977090002210e+001
 1.016499456688419e+000	 5.992716715173814e-001	 1.410625362547946e+001
 1.009920403188173e+000	 6.102937055533667e-001	 1.388688470384974e+001
 1.003212896342341e+000	 6.212579636487060e-001	 1.366454605256238e+001
 9.963776504875617e-001	 6.321622392640718e-001	 1.344211054084708e+001
 9.894154298195012e-001	 6.430043364133122e-001	 1.322242743506445e+001
 9.823270482393317e-001	 6.537820710551658e-001	 1.300830724280017e+001
 9.751133691540227e-001	 6.644932724842148e-001	 1.280250600492059e+001
 9.677753052303022e-001	 6.751357847193149e-001	 1.259704000219868e+001
 9.603138181022493e-001	 6.857074678877024e-001	 1.237115077934579e+001
 1.035084974348039e+000	 5.803235557441941e-001	 1.450821700957007e+001
 1.028729061439508e+000	 5.915173765952791e-001	 1.430788663051289e+001
 1.022242683486824e+000	 6.026575593307760e-001	 1.409933379573956e+001
 1.015626458302758e+000	 6.137418679117540e-001	 1.388554517810172e+001
 1.008881054011098e+000	 6.247680741177057e-001	 1.366951556692232e+001
 1.002007188984487e+000	 6.357339589423576e-001	 1.345423358976610e+001
 9.950056317362974e-001	 6.466373139922383e-001	 1.324266675894550e+001
 9.878772007662450e-001	 6.574759428862534e-001	 1.303774588667235e+001
 9.806227643595509e-001	 6.682476626545023e-001	 1.284200228418977e+001
 9.732432403395136e-001	 6.789503051345484e-001	 1.263711893052151e+001
 9.657395957734473e-001	 6.895817183633489e-001	 1.241216038418621e+001
 1.040900352495448e+000	 5.835839652827812e-001	 1.449058158586684e+001
 1.034508730405505e+000	 5.948406759475194e-001	 1.429461582649884e+001
 1.027985910284681e+000	 6.060434471436605e-001	 1.409099345703119e+001
 1.021332513416781e+000	 6.171900302696303e-001	 1.388280634317107e+001
 1.014549211679285e+000	 6.282781845862040e-001	 1.367315734984138e+001
 1.007636727480838e+000	 6.393056786201592e-001	 1.346514569803470e+001
 1.000595833652521e+000	 6.502702915707008e-001	 1.326185161563827e+001
 9.934273532925942e-001	 6.611698147169002e-001	 1.306632032679980e+001
 9.861321595645307e-001	 6.720020528243689e-001	 1.287755183503808e+001
 9.787111754481976e-001	 6.827648255493757e-001	 1.267291271677171e+001
 9.711653734441448e-001	 6.934559688385950e-001	 1.244926058083095e+001
 1.046715730642193e+000	 5.868443748208878e-001	 1.447151636233297e+001
 1.040288399370800e+000	 5.981639752992449e-001	 1.427984079317320e+001
 1.033729137081809e+000	 6.094293349560167e-001	 1.408112834711724e+001
 1.027038568530055e+000	 6.206381926269815e-001	 1.387857175353600e+001
 1.020217369346709e+000	 6.317882950541939e-001	 1.367537726087700e+001
 1.013266265976422e+000	 6.428773982974780e-001	 1.347474963171577e+001
 1.006186035567982e+000	 6.539032691487108e-001	 1.327987640101092e+001
 9.989775058181930e-001	 6.648636865471250e-001	 1.309391144277641e+001
 9.916415547687788e-001	 6.757564429938406e-001	 1.290850136969374e+001
 9.841791105561780e-001	 6.865793459638276e-001	 1.270446512816040e+001
 9.765911511141747e-001	 6.973302193134739e-001	 1.248247613143808e+001
 9.223333744038621e-001	 6.585877145441748e-001	 1.198491974608963e+001
 9.150494175759466e-001	 6.686712208458169e-001	 1.173655700281483e+001
 9.076489043303718e-001	 6.786826392403966e-001	 1.149310363843215e+001
 9.001328956976941e-001	 6.886199674222856e-001	 1.124419493039681e+001
 8.925024981968082e-001	 6.984812237597207e-001	 1.099045586117289e+001
 8.847588633353754e-001	 7.082644485790088e-001	 1.073251510246308e+001
 8.769031870669851e-001	 7.179677054343339e-001	 1.047100547031145e+001
 8.689367092055303e-001	 7.275890823614685e-001	 1.020656446279659e+001
 8.608607127973482e-001	 7.371266931137128e-001	 9.939834869810651e+000
 8.526765234517708e-001	 7.465786783784127e-001	 9.671465443178187e+000
 8.443855086307747e-001	 7.559432069724200e-001	 9.402111614221344e+000
 9.277591520738917e-001	 6.624619650235540e-001	 1.204540585190142e+001
 9.204323461727995e-001	 6.726047892082684e-001	 1.180397201866862e+001
 9.129882981917740e-001	 6.826751014169742e-001	 1.156071002389157e+001
 9.054280754030595e-001	 6.926708875651475e-001	 1.131315459403151e+001
 8.977527908348268e-001	 7.025901543637464e-001	 1.106179961646873e+001
 8.899636027686719e-001	 7.124309306109720e-001	 1.080713550631418e+001
 8.820617141935768e-001	 7.221912684695437e-001	 1.054964991698220e+001
 8.740483722168425e-001	 7.318692447277859e-001	 1.028982855173978e+001
 8.659248674325377e-001	 7.414629620428398e-001	 1.002815606493690e+001
 8.576925332481072e-001	 7.509705501643340e-001	 9.765117040291612e+000
 8.493527451698485e-001	 7.603901671368815e-001	 9.501197032356000e+000
 9.331849297445891e-001	 6.663362155023007e-001	 1.210707816389444e+001
 9.258152747702765e-001	 6.765383575700944e-001	 1.186798327243629e+001
 9.183276920537512e-001	 6.866675635929472e-001	 1.162531306850590e+001
 9.107232551089430e-001	 6.967218077074371e-001	 1.137942304294814e+001
 9.030030834733056e-001	 7.066990849672418e-001	 1.113067880047429e+001
 8.951683422023676e-001	 7.165974126424530e-001	 1.087943561263218e+001
 8.872202413205065e-001	 7.264148315043242e-001	 1.062603938235136e+001
 8.791600352284326e-001	 7.361494070937297e-001	 1.037082772755815e+001
 8.709890220679465e-001	 7.457992309716475e-001	 1.011413117177093e+001
 8.627085430446098e-001	 7.553624219499896e-001	 9.856274428156912e+000
 8.543199817090402e-001	 7.648371273011256e-001	 9.597577762197743e+000
 9.386107074157873e-001	 6.702104659804474e-001	 1.216775336687635e+001
 9.311982033682217e-001	 6.804719259313259e-001	 1.192854499093380e+001
 9.236670859161580e-001	 6.906600257683419e-001	 1.168684792371609e+001
 9.160184348152155e-001	 7.007727278491728e-001	 1.144292021428331e+001
 9.082533761121285e-001	 7.108080155702147e-001	 1.119700194454548e+001
 9.003730816363605e-001	 7.207638946734495e-001	 1.094931629818171e+001
 8.923787684476852e-001	 7.306383945386621e-001	 1.070007077772609e+001
 8.842716982402233e-001	 7.404295694592746e-001	 1.044945855854028e+001
 8.760531767035096e-001	 7.501354999001021e-001	 1.019765996678161e+001
 8.677245528412214e-001	 7.597542937353362e-001	 9.944844066950935e+000
 8.592872182482988e-001	 7.692840874651026e-001	 9.691170343172638e+000
 9.440364850873191e-001	 6.740847164580276e-001	 1.222451633585888e+001
 9.365811319664787e-001	 6.844054942919948e-001	 1.198561897827240e+001
 9.290064797788518e-001	 6.946524879431842e-001	 1.174525775049134e+001
 9.213136145217460e-001	 7.048236479903732e-001	 1.150357439433145e+001
 9.135036687511782e-001	 7.149169461726750e-001	 1.126068617757008e+001
 9.055778210705479e-001	 7.249303767039607e-001	 1.101668719578092e+001
 8.975372955750234e-001	 7.348619575725440e-001	 1.077164984059773e+001
 8.893833612521390e-001	 7.447097318243970e-001	 1.052562642241623e+001
 8.811173313391613e-001	 7.544717688281690e-001	 1.027865093383809e+001
 8.727405626378855e-001	 7.641461655203298e-001	 1.003074093853540e+001
 8.642544547875742e-001	 7.737310476287623e-001	 9.781899568687146e+000
 9.494622627590179e-001	 6.779589669350749e-001	 1.227733701918933e+001
 9.419640605648918e-001	 6.883390626521324e-001	 1.203917451628994e+001
 9.343458736416885e-001	 6.986449501175009e-001	 1.180049360612791e+001
 9.266087942284046e-001	 7.088745681310574e-001	 1.156132209457819e+001
 9.187539613903393e-001	 7.190258767746317e-001	 1.132165709406398e+001
 9.107825605048273e-001	 7.290968587339832e-001	 1.108146655725335e+001
 9.026958227024333e-001	 7.390855206059577e-001	 1.084069099519928e+001
 8.944950242641027e-001	 7.489898941890726e-001	 1.059924536722463e+001
 8.861814859748358e-001	 7.588080377558130e-001	 1.035702112803993e+001
 8.777565724345455e-001	 7.685380373049277e-001	 1.011388841585794e+001
 8.692216913268166e-001	 7.781780077920549e-001	 9.869698363649254e+000
 9.548880404307168e-001	 6.818332174116220e-001	 1.232621353035641e+001
 9.473469891633051e-001	 6.922726310117698e-001	 1.208918826364069e+001
 9.396852675045243e-001	 7.026374122913179e-001	 1.185251433015189e+001
 9.319039739350612e-001	 7.129254882712436e-001	 1.161610792718948e+001
 9.240042540294949e-001	 7.231348073760935e-001	 1.137984862198886e+001
 9.159872999390962e-001	 7.332633407635163e-001	 1.114358111627401e+001
 9.078543498298249e-001	 7.433090836388889e-001	 1.090711721304075e+001
 8.996066872760378e-001	 7.532700565532765e-001	 1.067023797215603e+001
 8.912456406104682e-001	 7.631443066829996e-001	 1.043269603944059e+001
 8.827725822311452e-001	 7.729299090890865e-001	 1.019421813207544e+001
 8.741889278659762e-001	 7.826249679549311e-001	 9.954507661460823e+000
 9.603138181022493e-001	 6.857074678877024e-001	 1.237115077934578e+001
 9.527299177615619e-001	 6.962061993709386e-001	 1.213564415359845e+001
 9.450246613672159e-001	 7.066298744646621e-001	 1.190128642936224e+001
 9.371991536415850e-001	 7.169764084109508e-001	 1.166788447998096e+001
 9.292545466685293e-001	 7.272437379770698e-001	 1.143520289029864e+001
 9.211920393732523e-001	 7.374298227925583e-001	 1.120296595111138e+001
 9.130128769571099e-001	 7.475326466713247e-001	 1.097085987342389e+001
 9.047183502878682e-001	 7.575502189169845e-001	 1.073853520837445e+001
 8.963097952459920e-001	 7.674805756096939e-001	 1.050560945666503e+001
 8.877885920276273e-001	 7.773217808727624e-001	 1.027166984941115e+001
 8.791561644050019e-001	 7.870719281173406e-001	 1.003627628050627e+001
 9.657395957734473e-001	 6.895817183633489e-001	 1.241216038418621e+001
 9.581128463595068e-001	 7.001397677296708e-001	 1.217853329062220e+001
 9.503640552296199e-001	 7.106223366375596e-001	 1.194678396204595e+001
 9.424943333478461e-001	 7.210273285501974e-001	 1.171661219088472e+001
 9.345048393073252e-001	 7.313526685775691e-001	 1.148767009622792e+001
 9.263967788071928e-001	 7.415963048211063e-001	 1.125956434727053e+001
 9.181714040841990e-001	 7.517562097032523e-001	 1.103185862393658e+001
 9.098300132995163e-001	 7.618303812801719e-001	 1.080407629981764e+001
 9.013739498813420e-001	 7.718168445358615e-001	 1.057570333042906e+001
 8.928046018239355e-001	 7.817136526559121e-001	 1.034619132775654e+001
 8.841234009438440e-001	 7.915188882792336e-001	 1.011496080015366e+001
 9.711653734441448e-001	 6.934559688385950e-001	 1.244926058083096e+001
 9.634957749569834e-001	 7.040733360879967e-001	 1.221785384573343e+001
 9.557034490915919e-001	 7.146147988100368e-001	 1.198898842140014e+001
 9.477895130537147e-001	 7.250782486890024e-001	 1.176225922193588e+001
 9.397551319457672e-001	 7.354615991776009e-001	 1.153720837233184e+001
 9.316015182408166e-001	 7.457627868491598e-001	 1.131332766004149e+001
 9.233299312110029e-001	 7.559797727346579e-001	 1.109006124092682e+001
 9.149416763109065e-001	 7.661105436428150e-001	 1.086680858397746e+001
 9.064381045164527e-001	 7.761531134614675e-001	 1.064292763696068e+001
 8.978206116200135e-001	 7.861055244384922e-001	 1.041773819302782e+001
 8.890906374824527e-001	 7.959658484405604e-001	 1.019052543628886e+001
 9.765911511141747e-001	 6.973302193134739e-001	 1.248247613143808e+001
 9.688787035538358e-001	 7.080069044459488e-001	 1.225361095075053e+001
 9.610428429529890e-001	 7.186072609821202e-001	 1.202788861819017e+001
 9.530846927590595e-001	 7.291291688273839e-001	 1.180480133279573e+001
 9.450054245837380e-001	 7.395705297771742e-001	 1.158378365328631e+001
 9.368062576740198e-001	 7.499292688767160e-001	 1.136421517695519e+001
 9.284884583374330e-001	 7.602033357655288e-001	 1.114542348995935e+001
 9.200533393219623e-001	 7.703907060048886e-001	 1.092668737266047e+001
 9.115022591512589e-001	 7.804893823864774e-001	 1.070724024133034e+001
 9.028366214158040e-001	 7.904973962204591e-001	 1.048627380528495e+001
 8.940578740207774e-001	 8.004128086012710e-001	 1.026294191640101e+001
 8.443855086307747e-001	 7.559432069724200e-001	 9.402111614221344e+000
 8.359903442578607e-001	 7.652170926952719e-001	 9.136845333968632e+000
 8.274912435593508e-001	 7.743999767264992e-001	 8.879425659115881e+000
 8.188896949475417e-001	 7.834901207227666e-001	 8.628637213059269e+000
 8.101872254145905e-001	 7.924858190063862e-001	 8.383230096232486e+000
 8.013853996305682e-001	 8.013853996305679e-001	 8.141923856352110e+000
 7.924858190063862e-001	 8.101872254145907e-001	 7.903411487012814e+000
 7.834901207227666e-001	 8.188896949475419e-001	 7.666363430283859e+000
 7.743999767264997e-001	 8.274912435593509e-001	 7.429431558741395e+000
 7.652170926952719e-001	 8.359903442578606e-001	 7.191253112348981e+000
 7.559432069724201e-001	 8.443855086307748e-001	 6.950454565787342e+000
 8.493527451698485e-001	 7.603901671368815e-001	 9.501197032356002e+000
 8.409081948628211e-001	 7.697186080166688e-001	 9.241080151359970e+000
 8.323590968076828e-001	 7.789555118724081e-001	 8.988260216958306e+000
 8.237069481725587e-001	 7.880991301346746e-001	 8.741531110575153e+000
 8.149532849323851e-001	 7.971477470918548e-001	 8.499654572125637e+000
 8.060996809616599e-001	 8.060996809616597e-001	 8.261364225967920e+000
 7.971477470918549e-001	 8.149532849323851e-001	 8.025369631593831e+000
 7.880991301346745e-001	 8.237069481725586e-001	 7.790360333962941e+000
 7.789555118724078e-001	 8.323590968076826e-001	 7.555009888163653e+000
 7.697186080166687e-001	 8.409081948628209e-001	 7.317979833061654e+000
 7.603901671368816e-001	 8.493527451698488e-001	 7.077923588784903e+000
 8.543199817090402e-001	 7.648371273011256e-001	 9.597577762197741e+000
 8.458260454678566e-001	 7.742201233378900e-001	 9.342383081190601e+000
 8.372269500560541e-001	 7.835110470181768e-001	 9.093962027695934e+000
 8.285242013975824e-001	 7.927081395464755e-001	 8.851118748655861e+000
 8.197193444501577e-001	 8.018096751772460e-001	 8.612627582091665e+000
 8.108139622927019e-001	 8.108139622927019e-001	 8.377237139804361e+000
 8.018096751772459e-001	 8.197193444501577e-001	 8.143674411387512e+000
 7.927081395464752e-001	 8.285242013975824e-001	 7.910648863686228e+000
 7.835110470181770e-001	 8.372269500560540e-001	 7.676856509612168e+000
 7.742201233378900e-001	 8.458260454678566e-001	 7.440983920198003e+000
 7.648371273011256e-001	 8.543199817090402e-001	 7.201712153965953e+000
 8.592872182482988e-001	 7.692840874651026e-001	 9.691170343172638e+000
 8.507438960729211e-001	 7.787216386588826e-001	 9.440681866849038e+000
 8.420948033044189e-001	 7.880665821637520e-001	 9.196468939118303e+000
 8.333414546225675e-001	 7.973171489581147e-001	 8.957346961665774e+000
 8.244854039678605e-001	 8.064716032625070e-001	 8.722103811498098e+000
 8.155282436236437e-001	 8.155282436236437e-001	 8.489503981542912e+000
 8.064716032625069e-001	 8.244854039678604e-001	 8.258292739317207e+000
 7.973171489581145e-001	 8.333414546225677e-001	 8.027200277012982e+000
 7.880665821637520e-001	 8.420948033044190e-001	 7.794945826108795e+000
 7.787216386588823e-001	 8.507438960729211e-001	 7.560241709585217e+000
 7.692840874651026e-001	 8.592872182482987e-001	 7.321797305023789e+000
 8.642544547875742e-001	 7.737310476287623e-001	 9.781899568687143e+000
 8.556617466779680e-001	 7.832231539795923e-001	 9.535912208022534e+000
 8.469626565527324e-001	 7.926221173090784e-001	 9.295726478546747e+000
 8.381587078474683e-001	 8.019261583695391e-001	 9.060170007794385e+000
 8.292514634854455e-001	 8.111335313475847e-001	 8.828045134994580e+000
 8.202425249544357e-001	 8.202425249544355e-001	 8.598133110823707e+000
 8.111335313475849e-001	 8.292514634854458e-001	 8.369198312178812e+000
 8.019261583695390e-001	 8.381587078474684e-001	 8.139992444505644e+000
 7.926221173090786e-001	 8.469626565527325e-001	 7.909258703964674e+000
 7.832231539795924e-001	 8.556617466779681e-001	 7.675735871686764e+000
 7.737310476287623e-001	 8.642544547875741e-001	 7.438162312564243e+000
 8.692216913268166e-001	 7.781780077920549e-001	 9.869698363649256e+000
 8.605795972829509e-001	 7.877246692999664e-001	 9.628017647394120e+000
 8.518305098009493e-001	 7.971776524541016e-001	 9.391687748301980e+000
 8.429759610722384e-001	 8.065351677806932e-001	 9.159549472876408e+000
 8.340175230028659e-001	 8.157954594324280e-001	 8.930420528249213e+000
 8.249568062850277e-001	 8.249568062850275e-001	 8.703099782452343e+000
 8.157954594324282e-001	 8.340175230028660e-001	 8.476371536858085e+000
 8.065351677806933e-001	 8.429759610722384e-001	 8.249009782480838e+000
 7.971776524541016e-001	 8.518305098009493e-001	 8.019782411578834e+000
 7.877246692999661e-001	 8.605795972829510e-001	 7.787455355944347e+000
 7.781780077920549e-001	 8.692216913268166e-001	 7.550796623480504e+000
 8.741889278659762e-001	 7.826249679549311e-001	 9.954507661460822e+000
 8.654974478878234e-001	 7.922261846199509e-001	 9.716949456533081e+000
 8.566983630490245e-001	 8.017331875987668e-001	 9.484313320106493e+000
 8.477932142968324e-001	 8.111441771915242e-001	 9.255454172903058e+000
 8.387835825200737e-001	 8.204573875169839e-001	 9.029205978155995e+000
 8.296710876153698e-001	 8.296710876153697e-001	 8.804386063876761e+000
 8.204573875169839e-001	 8.387835825200736e-001	 8.579799454635177e+000
 8.111441771915243e-001	 8.477932142968325e-001	 8.354243183690105e+000
 8.017331875987669e-001	 8.566983630490245e-001	 8.126510556024469e+000
 7.922261846199511e-001	 8.654974478878236e-001	 7.895395332794989e+000
 7.826249679549311e-001	 8.741889278659761e-001	 7.659695807906449e+000
 8.791561644050019e-001	 7.870719281173406e-001	 1.003627628050627e+001
 8.704152984925387e-001	 7.967276999394926e-001	 9.802666521010261e+000
 8.615662162969122e-001	 8.062887227430189e-001	 9.573571128457369e+000
 8.526104675212042e-001	 8.157531866019770e-001	 9.347860055274136e+000
 8.435496420370213e-001	 8.251193156011999e-001	 9.124384391572953e+000
 8.343853689454112e-001	 8.343853689454115e-001	 8.901980751000808e+000
 8.251193156012001e-001	 8.435496420370212e-001	 8.679475663654628e+000
 8.157531866019770e-001	 8.526104675212042e-001	 8.455689946010672e+000
 8.062887227430190e-001	 8.615662162969121e-001	 8.229443017518207e+000
 7.967276999394924e-001	 8.704152984925387e-001	 7.999557133455527e+000
 7.870719281173405e-001	 8.791561644050018e-001	 7.764861503845776e+000
 8.841234009438440e-001	 7.915188882792336e-001	 1.011496080015365e+001
 8.753331490970502e-001	 8.012292152585375e-001	 9.885135224768318e+000
 8.664340695445677e-001	 8.108442578868036e-001	 9.659436363017331e+000
 8.574277207453075e-001	 8.203621960119979e-001	 9.436750098844847e+000
 8.483157015536604e-001	 8.297812436850239e-001	 9.215945502646632e+000
 8.390996502751035e-001	 8.390996502751033e-001	 8.995879282401372e+000
 8.297812436850239e-001	 8.483157015536605e-001	 8.775400239631610e+000
 8.203621960119981e-001	 8.574277207453077e-001	 8.553353699227152e+000
 8.108442578868035e-001	 8.664340695445675e-001	 8.328585881847397e+000
 8.012292152585376e-001	 8.753331490970502e-001	 8.099948187559983e+000
 7.915188882792339e-001	 8.841234009438441e-001	 7.866301359568991e+000
 8.890906374824527e-001	 7.959658484405604e-001	 1.019052543628886e+001
 8.802509997013114e-001	 8.057307305770329e-001	 9.964329333776467e+000
 8.713019227919451e-001	 8.153997930300662e-001	 9.741891360056297e+000
 8.622449739690975e-001	 8.249712054215328e-001	 9.522114212809719e+000
 8.530817610699448e-001	 8.344431717684036e-001	 9.303885778781346e+000
 8.438139316043950e-001	 8.438139316043948e-001	 9.086083652009178e+000
 8.344431717684036e-001	 8.530817610699444e-001	 8.867579654862436e+000
 8.249712054215326e-001	 8.622449739690977e-001	 8.647244329976454e+000
 8.153997930300660e-001	 8.713019227919449e-001	 8.423951370843360e+000
 8.057307305770328e-001	 8.802509997013116e-001	 8.196581958737978e+000
 7.959658484405603e-001	 8.890906374824527e-001	 7.964028973863408e+000
 8.940578740207774e-001	 8.004128086012710e-001	 1.026294191640101e+001
 8.851688503052765e-001	 8.102322458949247e-001	 1.004022987899778e+001
 8.761697760389994e-001	 8.199553281727517e-001	 9.820925492984214e+000
 8.670622271925278e-001	 8.295802148305268e-001	 9.603949134471872e+000
 8.578478205858254e-001	 8.391050998512860e-001	 9.388208325303761e+000
 8.485282129332367e-001	 8.485282129332366e-001	 9.172602320316756e+000
 8.391050998512859e-001	 8.578478205858252e-001	 8.956026695608271e+000
 8.295802148305270e-001	 8.670622271925280e-001	 8.737377904929565e+000
 8.199553281727516e-001	 8.761697760389995e-001	 8.515557770969537e+000
 8.102322458949245e-001	 8.851688503052763e-001	 8.289477878209034e+000
 8.004128086012706e-001	 8.940578740207773e-001	 8.058063834221704e+000
 7.559432069724201e-001	 8.443855086307748e-001	 6.950454565787345e+000
 7.465786783784130e-001	 8.526765234517706e-001	 6.710530699420747e+000
 7.371266931137132e-001	 8.608607127973481e-001	 6.475930546913940e+000
 7.275890823614686e-001	 8.689367092055303e-001	 6.246616702033790e+000
 7.179677054343341e-001	 8.769031870669852e-001	 6.022578476541765e+000
 7.082644485790089e-001	 8.847588633353752e-001	 5.803832272162784e+000
 6.984812237597208e-001	 8.925024981968079e-001	 5.590421719892251e+000
 6.886199674222857e-001	 9.001328956976938e-001	 5.382417575178713e+000
 6.786826392403964e-001	 9.076489043303717e-001	 5.179917359208326e+000
 6.686712208458168e-001	 9.150494175759467e-001	 4.983044738331751e+000
 6.585877145441748e-001	 9.223333744038623e-001	 4.790922398703280e+000
 7.603901671368816e-001	 8.493527451698488e-001	 7.077923588784903e+000
 7.509705501643340e-001	 8.576925332481071e-001	 6.838562479645757e+000
 7.414629620428398e-001	 8.659248674325376e-001	 6.604530822565442e+000
 7.318692447277859e-001	 8.740483722168426e-001	 6.375759938519219e+000
 7.221912684695439e-001	 8.820617141935768e-001	 6.152209845370900e+000
 7.124309306109720e-001	 8.899636027686718e-001	 5.933869718405076e+000
 7.025901543637467e-001	 8.977527908348270e-001	 5.720758108235413e+000
 6.926708875651476e-001	 9.054280754030593e-001	 5.512922903905362e+000
 6.826751014169743e-001	 9.129882981917744e-001	 5.310441030738233e+000
 6.726047892082685e-001	 9.204323461727993e-001	 5.113417874379574e+000
 6.624619650235539e-001	 9.277591520738914e-001	 4.921690684441652e+000
 7.648371273011256e-001	 8.543199817090402e-001	 7.201712153965950e+000
 7.553624219499897e-001	 8.627085430446098e-001	 6.962982798586451e+000
 7.457992309716478e-001	 8.709890220679463e-001	 6.729605725732244e+000
 7.361494070937295e-001	 8.791600352284323e-001	 6.501476441480294e+000
 7.264148315043241e-001	 8.872202413205066e-001	 6.278521056682522e+000
 7.165974126424529e-001	 8.951683422023676e-001	 6.060696848189410e+000
 7.066990849672417e-001	 9.030030834733055e-001	 5.847992567440594e+000
 6.967218077074369e-001	 9.107232551089428e-001	 5.640428483456820e+000
 6.866675635929469e-001	 9.183276920537511e-001	 5.438056149087863e+000
 6.765383575700943e-001	 9.258152747702764e-001	 5.240957881301976e+000
 6.663362155023005e-001	 9.331849297445891e-001	 5.049243683363910e+000
 7.692840874651026e-001	 8.592872182482987e-001	 7.321797305023791e+000
 7.597542937353361e-001	 8.677245528412213e-001	 7.083767836875005e+000
 7.501354999001023e-001	 8.760531767035098e-001	 6.851128717328225e+000
 7.404295694592746e-001	 8.842716982402237e-001	 6.623735176121397e+000
 7.306383945386620e-001	 8.923787684476852e-001	 6.401474886726159e+000
 7.207638946734496e-001	 9.003730816363605e-001	 6.184268640417796e+000
 7.108080155702147e-001	 9.082533761121285e-001	 5.972070757636889e+000
 7.007727278491728e-001	 9.160184348152154e-001	 5.764869222867583e+000
 6.906600257683416e-001	 9.236670859161581e-001	 5.562685531111908e+000
 6.804719259313260e-001	 9.311982033682213e-001	 5.365574236069417e+000
 6.702104659804474e-001	 9.386107074157872e-001	 5.173622192261552e+000
 7.737310476287623e-001	 8.642544547875741e-001	 7.438162312564243e+000
 7.641461655203298e-001	 8.727405626378856e-001	 7.200899922790093e+000
 7.544717688281690e-001	 8.811173313391610e-001	 6.969079361278883e+000
 7.447097318243972e-001	 8.893833612521392e-001	 6.742511198398452e+000
 7.348619575725439e-001	 8.975372955750237e-001	 6.521040220334071e+000
 7.249303767039608e-001	 9.055778210705480e-001	 6.304546228177343e+000
 7.149169461726750e-001	 9.135036687511783e-001	 6.092944564177836e+000
 7.048236479903732e-001	 9.213136145217460e-001	 5.886186350507638e+000
 6.946524879431838e-001	 9.290064797788519e-001	 5.684258427814243e+000
 6.844054942919948e-001	 9.365811319664784e-001	 5.487182982929743e+000
 6.740847164580276e-001	 9.440364850873192e-001	 5.295016857311124e+000
 7.781780077920549e-001	 8.692216913268166e-001	 7.550796623480504e+000
 7.685380373049275e-001	 8.777565724345454e-001	 7.314367485917751e+000
 7.588080377558133e-001	 8.861814859748360e-001	 7.083443281526783e+000
 7.489898941890726e-001	 8.944950242641026e-001	 6.857785614479826e+000
 7.390855206059577e-001	 9.026958227024335e-001	 6.637192011989090e+000
 7.290968587339834e-001	 9.107825605048272e-001	 6.421496860621149e+000
 7.190258767746318e-001	 9.187539613903393e-001	 6.210572059579109e+000
 7.088745681310572e-001	 9.266087942284045e-001	 6.004327375380836e+000
 6.986449501175005e-001	 9.343458736416880e-001	 5.802710484352742e+000
 6.883390626521324e-001	 9.419640605648919e-001	 5.605706691519313e+000
 6.779589669350750e-001	 9.494622627590182e-001	 5.413338316758238e+000
 7.826249679549311e-001	 8.741889278659761e-001	 7.659695807906449e+000
 7.729299090890868e-001	 8.827725822311451e-001	 7.424165008325667e+000
 7.631443066829996e-001	 8.912456406104679e-001	 7.194212116524143e+000
 7.532700565532763e-001	 8.996066872760375e-001	 6.969545537695002e+000
 7.433090836388886e-001	 9.078543498298249e-001	 6.749911244416901e+000
 7.332633407635165e-001	 9.159872999390961e-001	 6.535093862433937e+000
 7.231348073760935e-001	 9.240042540294948e-001	 6.324917463141491e+000
 7.129254882712437e-001	 9.319039739350611e-001	 6.119246046227656e+000
 7.026374122913177e-001	 9.396852675045242e-001	 5.917983697994429e+000
 6.922726310117700e-001	 9.473469891633052e-001	 5.721074413093654e+000
 6.818332174116220e-001	 9.548880404307168e-001	 5.528501569801276e+000
 7.870719281173405e-001	 8.791561644050018e-001	 7.764861503845778e+000
 7.773217808727625e-001	 8.877885920276273e-001	 7.530292973348957e+000
 7.674805756096940e-001	 8.963097952459918e-001	 7.301383471306945e+000
 7.575502189169843e-001	 9.047183502878677e-001	 7.077784043071098e+000
 7.475326466713246e-001	 9.130128769571098e-001	 6.859184884800592e+000
 7.374298227925584e-001	 9.211920393732522e-001	 6.645316590987322e+000
 7.272437379770697e-001	 9.292545466685291e-001	 6.435951098348165e+000
 7.169764084109508e-001	 9.371991536415851e-001	 6.230902308517949e+000
 7.066298744646620e-001	 9.450246613672161e-001	 6.030026374101813e+000
 6.962061993709389e-001	 9.527299177615619e-001	 5.833221634948943e+000
 6.857074678877023e-001	 9.603138181022490e-001	 5.640428193958827e+000
 7.915188882792339e-001	 8.841234009438441e-001	 7.866301359568991e+000
 7.817136526559121e-001	 8.928046018239354e-001	 7.632757812085325e+000
 7.718168445358616e-001	 9.013739498813418e-001	 7.404960867248751e+000
 7.618303812801720e-001	 9.098300132995164e-001	 7.182500119550761e+000
 7.517562097032521e-001	 9.181714040841987e-001	 6.965005838710829e+000
 7.415963048211068e-001	 9.263967788071933e-001	 6.752150391267984e+000
 7.313526685775692e-001	 9.345048393073252e-001	 6.543649348127149e+000
 7.210273285501975e-001	 9.424943333478461e-001	 6.339262259419773e+000
 7.106223366375596e-001	 9.503640552296198e-001	 6.138793080228123e+000
 7.001397677296706e-001	 9.581128463595066e-001	 5.942090233105327e+000
 6.895817183633489e-001	 9.657395957734473e-001	 5.749046295850987e+000
 7.959658484405603e-001	 8.890906374824527e-001	 7.964028973863408e+000
 7.861055244384924e-001	 8.978206116200136e-001	 7.731571847683094e+000
 7.761531134614674e-001	 9.064381045164527e-001	 7.504953689583628e+000
 7.661105436428148e-001	 9.149416763109064e-001	 7.283698619984077e+000
 7.559797727346580e-001	 9.233299312110028e-001	 7.067372901839896e+000
 7.457627868491601e-001	 9.316015182408165e-001	 6.855586548672220e+000
 7.354615991776011e-001	 9.397551319457669e-001	 6.647994608059734e+000
 7.250782486890021e-001	 9.477895130537143e-001	 6.444298100822119e+000
 7.146147988100369e-001	 9.557034490915921e-001	 6.244244598392339e+000
 7.040733360879967e-001	 9.634957749569834e-001	 6.047628423320896e+000
 6.934559688385951e-001	 9.711653734441448e-001	 5.854290460478280e+000
 8.004128086012706e-001	 8.940578740207773e-001	 8.058063834221702e+000
 7.904973962204593e-001	 9.028366214158040e-001	 7.826753237512755e+000
 7.804893823864771e-001	 9.115022591512587e-001	 7.601377132786110e+000
 7.703907060048888e-001	 9.200533393219624e-001	 7.381390208979413e+000
 7.602033357655288e-001	 9.284884583374330e-001	 7.166290709626263e+000
 7.499292688767163e-001	 9.368062576740198e-001	 6.955622239745426e+000
 7.395705297771745e-001	 9.450054245837380e-001	 6.748975237615503e+000
 7.291291688273840e-001	 9.530846927590595e-001	 6.545988090486625e+000
 7.186072609821200e-001	 9.610428429529889e-001	 6.346347875610639e+000
 7.080069044459487e-001	 9.688787035538357e-001	 6.149790710502543e+000
 6.973302193134738e-001	 9.765911511141745e-001	 5.956101699053828e+000
 6.585877145441748e-001	 9.223333744038623e-001	 4.790922398703280e+000
 6.484341417986819e-001	 9.294997594658224e-001	 4.598719153531945e+000
 6.382125412782213e-001	 9.365476027153264e-001	 4.404249990616537e+000
 6.279249682236161e-001	 9.434759805509431e-001	 4.209117775431231e+000
 6.175734933469836e-001	 9.502840164019311e-001	 4.015033403133995e+000
 6.071602015023673e-001	 9.569708810090842e-001	 3.823802541107569e+000
 5.966871903522223e-001	 9.635357926610373e-001	 3.637312345916864e+000
 5.861565690314716e-001	 9.699780173860766e-001	 3.457518244632437e+000
 5.755704568108352e-001	 9.762968690995890e-001	 3.286430867177646e+000
 5.649309817611228e-001	 9.824917097073289e-001	 3.126103212491926e+000
 5.542402794201589e-001	 9.885619491647812e-001	 2.978618126918647e+000
 6.624619650235539e-001	 9.277591520738914e-001	 4.921690684441652e+000
 6.522486622176337e-001	 9.349676945738026e-001	 4.729705778623623e+000
 6.419669314521875e-001	 9.420569979195748e-001	 4.534753708705928e+000
 6.316188400583205e-001	 9.490261330765413e-001	 4.338534776421206e+000
 6.212064709294447e-001	 9.558742183173915e-001	 4.142861697443111e+000
 6.107319211840905e-001	 9.626004195046680e-001	 3.949645712108606e+000
 6.001973008245471e-001	 9.692039503284609e-001	 3.760882674408678e+000
 5.896047313930607e-001	 9.756840724993500e-001	 3.578639212784649e+000
 5.789563446273000e-001	 9.820400958967170e-001	 3.405039052841228e+000
 5.682542811167918e-001	 9.882713786726242e-001	 3.242249588046506e+000
 5.575006889620032e-001	 9.943773273115256e-001	 3.092468779932061e+000
 6.663362155023005e-001	 9.331849297445891e-001	 5.049243683363910e+000
 6.560631826359605e-001	 9.404356296824865e-001	 4.857728581716163e+000
 6.457213216255495e-001	 9.475663931245539e-001	 4.662523321516301e+000
 6.353127118924514e-001	 9.545762856028903e-001	 4.465427606047293e+000
 6.248394485113695e-001	 9.614644202336153e-001	 4.268358041353983e+000
 6.143036408653175e-001	 9.682299580010184e-001	 4.073333595476923e+000
 6.037074112964165e-001	 9.748721079966467e-001	 3.882461040050808e+000
 5.930528937542329e-001	 9.813901276133724e-001	 3.697920471505686e+000
 5.823422324433804e-001	 9.877833226945741e-001	 3.521951005528686e+000
 5.715775804720992e-001	 9.940510476386206e-001	 3.356836734241414e+000
 5.607610985034971e-001	 1.000192705458935e+000	 3.204893030791011e+000
 6.702104659804474e-001	 9.386107074157872e-001	 5.173622192261552e+000
 6.598777030536939e-001	 9.459035647916976e-001	 4.982594614717606e+000
 6.494757117983337e-001	 9.530757883300821e-001	 4.787358138867090e+000
 6.390065837260276e-001	 9.601264381298030e-001	 4.589588242810687e+000
 6.284724260927680e-001	 9.670546221504111e-001	 4.391307535828029e+000
 6.178753605460502e-001	 9.738594964979439e-001	 4.194644910596554e+000
 6.072175217678243e-001	 9.805402656654042e-001	 4.001820317574859e+000
 5.965010561149744e-001	 9.870961827279575e-001	 3.815129627148084e+000
 5.857281202590576e-001	 9.935265494929783e-001	 3.636929676852943e+000
 5.749008798270259e-001	 9.998307166051436e-001	 3.469623596612113e+000
 5.640215080446244e-001	 1.006008083606842e+000	 3.315646499961982e+000
 6.740847164580276e-001	 9.440364850873192e-001	 5.295016857311124e+000
 6.636922234708647e-001	 9.513714999012607e-001	 5.104115929066061e+000
 6.532301019705661e-001	 9.585851835359758e-001	 4.909062302547421e+000
 6.427004555590682e-001	 9.656765906570914e-001	 4.710813307551079e+000
 6.321054036736513e-001	 9.726448240675882e-001	 4.511499714553818e+000
 6.214470802262906e-001	 9.794890349952523e-001	 4.313362582078606e+000
 6.107276322387640e-001	 9.862084233345432e-001	 4.118737343624112e+000
 5.999492184752718e-001	 9.928022378429181e-001	 3.930037990904284e+000
 5.891140080743142e-001	 9.992697762917474e-001	 3.749741454465260e+000
 5.782241791815530e-001	 1.005610385572016e+000	 3.580372278196805e+000
 5.672819175853689e-001	 1.011823461755081e+000	 3.424487679097209e+000
 6.779589669350750e-001	 9.494622627590182e-001	 5.413338316758238e+000
 6.675067438875044e-001	 9.568394350109999e-001	 5.222121468352041e+000
 6.569844921422731e-001	 9.640945787420523e-001	 5.027445053918629e+000
 6.463943273915921e-001	 9.712267431845673e-001	 4.828904318869224e+000
 6.357383812540295e-001	 9.782350259849560e-001	 4.628728787544983e+000
 6.250187999060398e-001	 9.851185734927530e-001	 4.429273971887191e+000
 6.142377427092285e-001	 9.918765810038726e-001	 4.232993137772117e+000
 6.033973808351123e-001	 9.985082929580651e-001	 4.042420789081426e+000
 5.924998958891323e-001	 1.005013003090699e+000	 3.860156361957740e+000
 5.815474785356608e-001	 1.011390054539064e+000	 3.688848229440700e+000
 5.705423271257143e-001	 1.017638839903487e+000	 3.531178111317928e+000
 6.818332174116220e-001	 9.548880404307168e-001	 5.528501569801276e+000
 6.713212643036441e-001	 9.623073701207389e-001	 5.336797367010198e+000
 6.607388823134808e-001	 9.696039739481287e-001	 5.142321000186431e+000
 6.500881992236183e-001	 9.767768957120437e-001	 4.943667947382645e+000
 6.393713588339128e-001	 9.838252279023240e-001	 4.742793883711424e+000
 6.285905195852996e-001	 9.907481119902529e-001	 4.542171110573940e+000
 6.177478531792113e-001	 9.975447386732016e-001	 4.344373122764961e+000
 6.068455431944816e-001	 1.004214348073213e+000	 4.152057372707001e+000
 5.958857837034940e-001	 1.010756229889650e+000	 3.967948258190841e+000
 5.848707778893305e-001	 1.017169723506112e+000	 3.794820437606888e+000
 5.738027366656446e-001	 1.023454218051892e+000	 3.635482571073096e+000
 6.857074678877023e-001	 9.603138181022490e-001	 5.640428193958827e+000
 6.751357847193147e-001	 9.677753052303019e-001	 5.448202915886556e+000
 6.644932724842150e-001	 9.751133691540228e-001	 5.253510379395984e+000
 6.537820710551658e-001	 9.823270482393318e-001	 5.054916268853570e+000
 6.430043364133125e-001	 9.894154298195014e-001	 4.853499292446823e+000
 6.321622392640717e-001	 9.963776504875617e-001	 4.651850927650970e+000
 6.212579636487060e-001	 1.003212896342341e+000	 4.452667344018987e+000
 6.102937055533668e-001	 1.009920403188173e+000	 4.258731426491552e+000
 5.992716715173813e-001	 1.016499456688419e+000	 4.072895036066528e+000
 5.881940772425429e-001	 1.022949392472985e+000	 3.898061615709739e+000
 5.770631462051433e-001	 1.029269596200132e+000	 3.737169243587894e+000
 6.895817183633489e-001	 9.657395957734473e-001	 5.749046295850987e+000
 6.789503051345485e-001	 9.732432403395139e-001	 5.556252116608760e+000
 6.682476626545025e-001	 9.806227643595511e-001	 5.360882425822005e+000
 6.574759428862533e-001	 9.878772007662448e-001	 5.162467016239068e+000
 6.466373139922385e-001	 9.950056317362974e-001	 4.960654704270414e+000
 6.357339589423576e-001	 1.002007188984487e+000	 4.758115481142491e+000
 6.247680741177057e-001	 1.008881054011098e+000	 4.557670688404864e+000
 6.137418679117541e-001	 1.015626458302759e+000	 4.362231177174399e+000
 6.026575593307760e-001	 1.022242683486824e+000	 4.174778820769854e+000
 5.915173765952790e-001	 1.028729061439508e+000	 3.998348390993576e+000
 5.803235557441941e-001	 1.035084974348039e+000	 3.836009903922407e+000
 6.934559688385951e-001	 9.711653734441448e-001	 5.854290460478280e+000
 6.827648255493757e-001	 9.787111754481978e-001	 5.660865584378930e+000
 6.720020528243689e-001	 9.861321595645306e-001	 5.464669619388173e+000
 6.611698147169000e-001	 9.934273532925945e-001	 5.266143830702174e+000
 6.502702915707009e-001	 1.000595833652521e+000	 5.064075450558728e+000
 6.393056786201591e-001	 1.007636727480838e+000	 4.860772186343151e+000
 6.282781845862040e-001	 1.014549211679284e+000	 4.659183102342288e+000
 6.171900302696303e-001	 1.021332513416781e+000	 4.462349601274287e+000
 6.060434471436604e-001	 1.027985910284681e+000	 4.273386167500129e+000
 5.948406759475193e-001	 1.034508730405505e+000	 4.095461492970442e+000
 5.835839652827812e-001	 1.040900352495448e+000	 3.931780095650209e+000
 6.973302193134738e-001	 9.765911511141745e-001	 5.956101699053828e+000
 6.865793459638276e-001	 9.841791105561778e-001	 5.761970494223163e+000
 6.757564429938407e-001	 9.916415547687792e-001	 5.564868407372525e+000
 6.648636865471249e-001	 9.989775058181928e-001	 5.365776511625727e+000
 6.539032691487107e-001	 1.006186035567982e+000	 5.163582742405338e+000
 6.428773982974777e-001	 1.013266265976422e+000	 4.959634043814655e+000
 6.317882950541940e-001	 1.020217369346709e+000	 4.757009809236878e+000
 6.206381926269818e-001	 1.027038568530055e+000	 4.558884632270873e+000
 6.094293349560167e-001	 1.033729137081809e+000	 4.368508258709921e+000
 5.981639752992450e-001	 1.040288399370800e+000	 4.189185941038594e+000
 5.868443748208878e-001	 1.046715730642193e+000	 4.024259309177952e+000
 5.542402794201589e-001	 9.885619491647812e-001	 2.978618126918647e+000
 5.435021060254973e-001	 9.945061633163864e-001	 2.836707159427275e+000
 5.327170078595428e-001	 1.000324778960203e+000	 2.692660317602685e+000
 5.218871345191708e-001	 1.006017351124409e+000	 2.547959453828615e+000
 5.110146377703451e-001	 1.011583482668233e+000	 2.404057292330656e+000
 5.001016702530481e-001	 1.017022824127247e+000	 2.262369713983472e+000
 4.891503841983314e-001	 1.022335073517847e+000	 2.124268701299717e+000
 4.781629301589312e-001	 1.027519976101599e+000	 1.991075976057660e+000
 4.671414557548592e-001	 1.032577324110273e+000	 1.864057355511361e+000
 4.560881044353323e-001	 1.037506956432366e+000	 1.744417846601990e+000
 4.450050142583599e-001	 1.042308758262027e+000	 1.633297491109863e+000
 5.575006889620032e-001	 9.943773273115256e-001	 3.092468779932061e+000
 5.466993464971670e-001	 1.000356509280032e+000	 2.948326640194463e+000
 5.358508032182962e-001	 1.006209353886908e+000	 2.801946800858374e+000
 5.249572213676379e-001	 1.011935413542708e+000	 2.654828969646329e+000
 5.140207653692879e-001	 1.017534288770408e+000	 2.508441924956096e+000
 5.030436005265028e-001	 1.023005628049796e+000	 2.364215546290241e+000
 4.920278917312021e-001	 1.028349127620793e+000	 2.223533533963159e+000
 4.809758021871164e-001	 1.033564531246422e+000	 2.087726851601310e+000
 4.698894921480004e-001	 1.038651629936216e+000	 1.958067918186349e+000
 4.587711176722779e-001	 1.043610261630902e+000	 1.835765569615146e+000
 4.476228293954507e-001	 1.048440310849263e+000	 1.721960803018322e+000
 5.607610985034971e-001	 1.000192705458935e+000	 3.204893030791011e+000
 5.498965869684840e-001	 1.006206855244298e+000	 3.058641892456244e+000
 5.389845985766816e-001	 1.012093928814182e+000	 2.910034545649966e+000
 5.280273082157135e-001	 1.017853475961520e+000	 2.760591421872458e+000
 5.170268929678102e-001	 1.023485094873038e+000	 2.611800179513967e+000
 5.059855307995049e-001	 1.028988431972739e+000	 2.465107466758546e+000
 4.949053992635882e-001	 1.034363181724073e+000	 2.321911403859301e+000
 4.837886742147887e-001	 1.039609086391518e+000	 2.183554819399089e+000
 4.726375285406065e-001	 1.044725935762374e+000	 2.051319268126824e+000
 4.614541309086757e-001	 1.049713566829601e+000	 1.926419850918223e+000
 4.502406445319921e-001	 1.054571863436612e+000	 1.810000850433688e+000
 5.640215080446244e-001	 1.006008083606842e+000	 3.315646499961982e+000
 5.530938274394393e-001	 1.012057201209028e+000	 3.167406148138066e+000
 5.421183939347026e-001	 1.017978503741883e+000	 3.016675575344511e+000
 5.310973950634156e-001	 1.023771538380717e+000	 2.864998815703422e+000
 5.200330205659460e-001	 1.029435900976008e+000	 2.713885239677865e+000
 5.089274610721061e-001	 1.034971235895975e+000	 2.564801036094740e+000
 4.977829067955587e-001	 1.040377235827597e+000	 2.419161444659860e+000
 4.866015462420330e-001	 1.045653641536811e+000	 2.278323774719374e+000
 4.753855649327763e-001	 1.050800241588682e+000	 2.143581238720894e+000
 4.641371441446346e-001	 1.055816872028405e+000	 2.016157621539809e+000
 4.528584596681014e-001	 1.060703416024027e+000	 1.897202799575341e+000
 5.672819175853689e-001	 1.011823461755081e+000	 3.424487679097214e+000
 5.562910679100238e-001	 1.017907547174069e+000	 3.274375213012791e+000
 5.452521892923617e-001	 1.023863078669870e+000	 3.121624175591111e+000
 5.341674819107612e-001	 1.029689600800171e+000	 2.967805094896357e+000
 5.230391481637290e-001	 1.035386707079203e+000	 2.814451893814112e+000
 5.118693913443568e-001	 1.040954039819402e+000	 2.663053077631398e+000
 5.006604143271817e-001	 1.046391289931278e+000	 2.515043704281299e+000
 4.894144182689337e-001	 1.051698196682225e+000	 2.371798174182433e+000
 4.781336013246084e-001	 1.056874547415076e+000	 2.234623869040327e+000
 4.668201573802652e-001	 1.061920177227259e+000	 2.104755661397368e+000
 4.554762748038950e-001	 1.066834968611455e+000	 1.983351309201062e+000
 5.705423271257143e-001	 1.017638839903487e+000	 3.531178111317932e+000
 5.594883083802298e-001	 1.023757893139266e+000	 3.379307637889162e+000
 5.483859846496617e-001	 1.029747653597998e+000	 3.224637057087925e+000
 5.372375687577682e-001	 1.035607663219751e+000	 3.068766296776232e+000
 5.260452757611932e-001	 1.041337513182507e+000	 2.913256682885472e+000
 5.148113216163088e-001	 1.046936843742920e+000	 2.759621818775421e+000
 5.035379218585261e-001	 1.052405344035029e+000	 2.609319280506854e+000
 4.922272902955757e-001	 1.057742751827686e+000	 2.463743166184354e+000
 4.808816377162019e-001	 1.062948853241491e+000	 2.324217529673212e+000
 4.695031706156770e-001	 1.068023482426107e+000	 2.191990721135875e+000
 4.580940899394900e-001	 1.072966521198848e+000	 2.068230649033394e+000
 5.738027366656446e-001	 1.023454218051892e+000	 3.635482571073095e+000
 5.626855488500479e-001	 1.029608239104461e+000	 3.481964889430506e+000
 5.515197800066060e-001	 1.035632228526125e+000	 3.325473518010847e+000
 5.403076556044534e-001	 1.041525725639328e+000	 3.167640706920044e+000
 5.290514033583723e-001	 1.047288319285806e+000	 3.010058048026433e+000
 5.177532518880132e-001	 1.052919647666428e+000	 2.854267032098848e+000
 5.064154293896601e-001	 1.058419398138762e+000	 2.701750456215200e+000
 4.950401623220435e-001	 1.063787306973117e+000	 2.553924720866299e+000
 4.836296741076555e-001	 1.069023159067863e+000	 2.412133048031218e+000
 4.721861838509799e-001	 1.074126787624892e+000	 2.277639643357290e+000
 4.607119050750031e-001	 1.079098073786155e+000	 2.151624817477009e+000
 5.770631462051433e-001	 1.029269596200132e+000	 3.737169243587894e+000
 5.658827893194698e-001	 1.035458585069502e+000	 3.582111520615675e+000
 5.546535753631967e-001	 1.041516803454109e+000	 3.423895606118592e+000
 5.433777424508345e-001	 1.047443788058774e+000	 3.264189013529480e+000
 5.320575309553004e-001	 1.053239125388984e+000	 3.104616477801093e+000
 5.206951821595213e-001	 1.058902451589823e+000	 2.946750176094480e+000
 5.092929369206524e-001	 1.064433452242388e+000	 2.792100834233106e+000
 4.978530343484220e-001	 1.069831862118443e+000	 2.642109759656519e+000
 4.863777104990680e-001	 1.075097464894125e+000	 2.498141833160537e+000
 4.748691970862837e-001	 1.080230092823560e+000	 2.361479483264352e+000
 4.633297202105512e-001	 1.085229626373328e+000	 2.233317658653578e+000
 5.803235557441941e-001	 1.035084974348039e+000	 3.836009903922402e+000
 5.690800297884867e-001	 1.041308931034233e+000	 3.679515340858888e+000
 5.577873707194374e-001	 1.047401378381807e+000	 3.519668280544168e+000
 5.464478292969289e-001	 1.053361850477960e+000	 3.358174461503679e+000
 5.350636585520111e-001	 1.059189931491927e+000	 3.196694655158396e+000
 5.236371124308838e-001	 1.064885255513005e+000	 3.036834535605293e+000
 5.121704444515711e-001	 1.070447506345819e+000	 2.880135471824155e+000
 5.006659063747958e-001	 1.075876417263589e+000	 2.728066284395442e+000
 4.891257468905379e-001	 1.081171770720215e+000	 2.582016000066941e+000
 4.775522103216985e-001	 1.086333398022053e+000	 2.443287628744135e+000
 4.659475353462514e-001	 1.091361178960316e+000	 2.313092978781369e+000
 5.835839652827812e-001	 1.040900352495448e+000	 3.931780095650210e+000
 5.722772702570900e-001	 1.047159276998498e+000	 3.773947585798094e+000
 5.609211660753308e-001	 1.053285953309077e+000	 3.612559573288808e+000
 5.495179161427544e-001	 1.059279912896756e+000	 3.449363006225399e+000
 5.380697861485384e-001	 1.065140737594519e+000	 3.286057604094472e+000
 5.265790427021528e-001	 1.070868059435873e+000	 3.124285361942302e+000
 5.150479519824853e-001	 1.076461560448969e+000	 2.965621014831381e+000
 5.034787784012496e-001	 1.081920972408479e+000	 2.811563506062286e+000
 4.918737832821646e-001	 1.087246076546066e+000	 2.663528493581196e+000
 4.802352235573338e-001	 1.092436703220316e+000	 2.522841919910031e+000
 4.685653504822201e-001	 1.097492731547069e+000	 2.390734661926571e+000
 5.868443748208878e-001	 1.046715730642193e+000	 4.024259309177952e+000
 5.754745107252709e-001	 1.053009622962143e+000	 3.865183086768707e+000
 5.640549614308797e-001	 1.059170528235776e+000	 3.702340750425694e+000
 5.525880029883279e-001	 1.065197975315034e+000	 3.537523467070097e+000
 5.410759137449159e-001	 1.071091543696645e+000	 3.372472836034870e+000
 5.295209729733791e-001	 1.076850863358325e+000	 3.208870012700015e+000
 5.179254595134631e-001	 1.082475614551749e+000	 3.048325831482973e+000
 5.062916504278681e-001	 1.087965527553038e+000	 2.892371973120269e+000
 4.946218196740463e-001	 1.093320382371615e+000	 2.742453211778982e+000
 4.829182367932998e-001	 1.098540008418292e+000	 2.599920768125563e+000
 4.711831656185745e-001	 1.103624284133538e+000	 2.466026785148008e+000
 4.450050142583599e-001	 1.042308758262027e+000	 1.633297491109863e+000
 4.338926480438308e-001	 1.046983352405783e+000	 1.526890652053920e+000
 4.227547913355574e-001	 1.051529986206963e+000	 1.421284904504005e+000
 4.115935603539075e-001	 1.055948682142524e+000	 1.317302474236015e+000
 4.004110612167509e-001	 1.060239507260171e+000	 1.215686990390119e+000
 3.892093888243872e-001	 1.064402572652689e+000	 1.117103945857921e+000
 3.779906257690123e-001	 1.068438032900888e+000	 1.022141849466726e+000
 3.667568412696644e-001	 1.072346085486329e+000	 9.313140409201247e-001
 3.555100901335350e-001	 1.076126970175029e+000	 8.450611350177159e-001
 3.442524117444684e-001	 1.079780968373366e+000	 7.637540576380119e-001
 3.329858290794200e-001	 1.083308402457412e+000	 6.876976323604261e-001
 4.476228293954507e-001	 1.048440310849263e+000	 1.721960803018322e+000
 4.364450928600323e-001	 1.053142404061580e+000	 1.612773636165043e+000
 4.252417158789147e-001	 1.057715784183553e+000	 1.504248345504176e+000
 4.140148271214728e-001	 1.062160473824358e+000	 1.397249040688852e+000
 4.027665450951534e-001	 1.066476540426113e+000	 1.292558224448126e+000
 3.914989770238443e-001	 1.070664095735122e+000	 1.190877230280705e+000
 3.802142177509245e-001	 1.074723295241534e+000	 1.092827382310706e+000
 3.689143486679464e-001	 1.078654337588626e+000	 9.989518471636242e-001
 3.576014366698349e-001	 1.082457463952872e+000	 9.097181431054975e-001
 3.462775331374384e-001	 1.086132957396065e+000	 8.255212674930160e-001
 3.349446729481994e-001	 1.089681142190702e+000	 7.466873998197537e-001
 4.502406445319921e-001	 1.054571863436612e+000	 1.810000850433688e+000
 4.389975376756976e-001	 1.059301455717451e+000	 1.698112320489583e+000
 4.277286404217619e-001	 1.063901582160182e+000	 1.586756616238897e+000
 4.164360938885639e-001	 1.068372265506202e+000	 1.476837353448216e+000
 4.051220289731260e-001	 1.072713573592043e+000	 1.369173332885519e+000
 3.937885652229204e-001	 1.076925618817524e+000	 1.264498961267339e+000
 3.824378097325087e-001	 1.081008557582138e+000	 1.163465425767070e+000
 3.710718560659539e-001	 1.084962589690872e+000	 1.066642590795718e+000
 3.596927832059128e-001	 1.088787957730661e+000	 9.745215809662916e-001
 3.483026545302353e-001	 1.092484946418709e+000	 8.875180097923050e-001
 3.369035168168484e-001	 1.096053881923943e+000	 8.059758097568348e-001
 4.528584596681014e-001	 1.060703416024027e+000	 1.897202799575338e+000
 4.415499824909459e-001	 1.065460507373348e+000	 1.782700437610051e+000
 4.302155649642157e-001	 1.070087380136803e+000	 1.668611584212919e+000
 4.188573606552924e-001	 1.074584057188009e+000	 1.555877024265343e+000
 4.074775128507713e-001	 1.078950606757912e+000	 1.445349317591046e+000
 3.960781534217086e-001	 1.083187141899845e+000	 1.337793209088538e+000
 3.846614017138454e-001	 1.087293819922646e+000	 1.233886824888927e+000
 3.732293634637551e-001	 1.091270841793014e+000	 1.134223622046642e+000
 3.617841297418241e-001	 1.095118451508342e+000	 1.039315054298507e+000
 3.503277759229020e-001	 1.098836935441248e+000	 9.495939118777034e-001
 3.388623606853999e-001	 1.102426621657084e+000	 8.654182893145853e-001
 4.554762748038950e-001	 1.066834968611455e+000	 1.983351309201065e+000
 4.441024273058964e-001	 1.071619559029224e+000	 1.866330876121882e+000
 4.327024895063937e-001	 1.076273178113373e+000	 1.749613974465308e+000
 4.212786274217699e-001	 1.080795848869734e+000	 1.634176261511915e+000
 4.098329967281922e-001	 1.085187639923671e+000	 1.520901553134143e+000
 3.983677416203011e-001	 1.089448664982036e+000	 1.410582229035799e+000
 3.868849936950153e-001	 1.093579082263007e+000	 1.303920457565987e+000
 3.753868708614180e-001	 1.097579093894998e+000	 1.201530206370803e+000
 3.638754762776242e-001	 1.101448945285860e+000	 1.103939999976593e+000
 3.523528973154823e-001	 1.105188924463627e+000	 1.011596380680415e+000
 3.408212045538864e-001	 1.108799361390078e+000	 9.248680248983842e-001
 4.580940899394900e-001	 1.072966521198848e+000	 2.068230649033394e+000
 4.466548721206684e-001	 1.077778610685035e+000	 1.948795795702260e+000
 4.351894140484124e-001	 1.082458976089843e+000	 1.829563480836360e+000
 4.236998941881077e-001	 1.087007640551330e+000	 1.711541977235197e+000
 4.121884806054926e-001	 1.091424673089274e+000	 1.595643889233377e+000
 4.006573298187909e-001	 1.095710188064046e+000	 1.482686558955996e+000
 3.891085856760995e-001	 1.099864344603167e+000	 1.373393326813963e+000
 3.775443782590107e-001	 1.103887345996768e+000	 1.268395611207282e+000
 3.659668228133681e-001	 1.107779439063160e+000	 1.168235767032505e+000
 3.543780187080192e-001	 1.111540913485793e+000	 1.073370677698774e+000
 3.427800484223401e-001	 1.115172101122873e+000	 9.841760309575849e-001
 4.607119050750031e-001	 1.079098073786155e+000	 2.151624817477009e+000
 4.492073169353806e-001	 1.083937662340732e+000	 2.029886741371351e+000
 4.376763385903898e-001	 1.088644774066171e+000	 1.908258876352216e+000
 4.261211609544175e-001	 1.093219432232752e+000	 1.787779893277965e+000
 4.145439644827756e-001	 1.097661706254673e+000	 1.669388752252806e+000
 4.029469180172703e-001	 1.101971711145824e+000	 1.553925115799832e+000
 3.913321776571787e-001	 1.106149606943075e+000	 1.442130652078902e+000
 3.797018856566011e-001	 1.110195598098271e+000	 1.334651191775413e+000
 3.680581693491115e-001	 1.114109932840187e+000	 1.232039696705406e+000
 3.564031401005560e-001	 1.117892902507692e+000	 1.134759993096452e+000
 3.447388922907940e-001	 1.121544840855421e+000	 1.043191217955361e+000
 4.633297202105512e-001	 1.085229626373328e+000	 2.233317658653578e+000
 4.517597617501526e-001	 1.090096713996271e+000	 2.109394756979564e+000
 4.401632631324425e-001	 1.094830572042311e+000	 1.985498122764453e+000
 4.285424277208113e-001	 1.099431223913954e+000	 1.862694646499638e+000
 4.168994483601443e-001	 1.103898739419819e+000	 1.741947245767968e+000
 4.052365062158326e-001	 1.108233234227321e+000	 1.624115291223971e+000
 3.935557696383331e-001	 1.112434869282676e+000	 1.509955959596804e+000
 3.818593930542573e-001	 1.116503850199452e+000	 1.400126475945797e+000
 3.701495158849095e-001	 1.120440426616887e+000	 1.295187201602094e+000
 3.584282614931360e-001	 1.124244891529271e+000	 1.195605518961285e+000
 3.466977361592805e-001	 1.127917580587672e+000	 1.101760459556118e+000
 4.659475353462514e-001	 1.091361178960316e+000	 2.313092978781364e+000
 4.543122065651033e-001	 1.096255765651604e+000	 2.187110497949941e+000
 4.426501876746877e-001	 1.101016370018216e+000	 2.061078479273615e+000
 4.309636944874001e-001	 1.105643015594888e+000	 1.936089893132507e+000
 4.192549322377017e-001	 1.110135772584664e+000	 1.813129250234499e+000
 4.075260944145701e-001	 1.114494757308485e+000	 1.693073046282582e+000
 3.957793616196440e-001	 1.118720131621919e+000	 1.576691171847947e+000
 3.840169004520477e-001	 1.122812102300257e+000	 1.464649248219495e+000
 3.722408624208176e-001	 1.126770920393205e+000	 1.357511843999654e+000
 3.604533828858025e-001	 1.130596880550478e+000	 1.255746521749928e+000
 3.486565800278319e-001	 1.134290320319577e+000	 1.159728659065809e+000
 4.685653504822201e-001	 1.097492731547069e+000	 2.390734661926571e+000
 4.568646513803520e-001	 1.102414817306685e+000	 2.262824343306287e+000
 4.451371122172427e-001	 1.107202167993842e+000	 2.134796610473160e+000
 4.333849612542961e-001	 1.111854807275511e+000	 2.007768412310567e+000
 4.216104161155513e-001	 1.116372805749161e+000	 1.882743521797721e+000
 4.098156826135754e-001	 1.120756280389267e+000	 1.760613005244722e+000
 3.980029536011918e-001	 1.125005393960752e+000	 1.642156696135947e+000
 3.861744078500397e-001	 1.129120354400631e+000	 1.528045632853518e+000
 3.743322089568910e-001	 1.133101414169086e+000	 1.418845413324397e+000
 3.624785042785985e-001	 1.136948869571257e+000	 1.315020413957617e+000
 3.506154238964809e-001	 1.140663060051086e+000	 1.216938815149286e+000
 4.711831656185745e-001	 1.103624284133538e+000	 2.466026785148008e+000
 4.594170961960175e-001	 1.108573868961468e+000	 2.336326507012143e+000
 4.476240367602246e-001	 1.113387965969144e+000	 2.206448693541470e+000
 4.358062280216104e-001	 1.118066598955774e+000	 2.077532208797740e+000
 4.239658999937963e-001	 1.122609838913262e+000	 1.950597790275291e+000
 4.121052708129413e-001	 1.127017803469615e+000	 1.826548548571459e+000
 4.002265455830573e-001	 1.131290656299120e+000	 1.706171512329413e+000
 3.883319152483020e-001	 1.135428606500521e+000	 1.590140176165780e+000
 3.764235554931850e-001	 1.139431907944475e+000	 1.479018002840438e+000
 3.645036256715677e-001	 1.143300858591557e+000	 1.373262825038677e+000
 3.525742677652601e-001	 1.147035799782149e+000	 1.273232086856785e+000
 3.329858290794200e-001	 1.083308402457412e+000	 6.876976323604261e-001
 3.217123475926619e-001	 1.086709634806486e+000	 6.155857605279715e-001
 3.104339538237796e-001	 1.089985066273683e+000	 5.460634507432935e-001
 2.991526150132510e-001	 1.093135136259025e+000	 4.792744212954327e-001
 2.878702784020723e-001	 1.096160322218095e+000	 4.153127639447977e-001
 2.765888703972086e-001	 1.099061138879599e+000	 3.542288215173775e-001
 2.653102957682797e-001	 1.101838137444058e+000	 2.960353162747631e-001
 2.540364368758318e-001	 1.104491904764940e+000	 2.407136746771340e-001
 2.427691529314908e-001	 1.107023062513534e+000	 1.882204941328004e-001
 2.315102792902392e-001	 1.109432266328881e+000	 1.384940977148859e-001
 2.202616267749964e-001	 1.111720204954052e+000	 9.146112361200175e-002
 3.349446729481994e-001	 1.089681142190702e+000	 7.466873998197537e-001
 3.236048733537980e-001	 1.093102382847857e+000	 6.718956270411056e-001
 3.122601325799639e-001	 1.096397082578721e+000	 5.997674163076998e-001
 3.009124294397890e-001	 1.099565683368168e+000	 5.304511898167003e-001
 2.895637226292336e-001	 1.102608665480506e+000	 4.640437763048214e-001
 2.782159498876675e-001	 1.105526546672431e+000	 4.005965193961723e-001
 2.668710271898299e-001	 1.108319881387002e+000	 3.401216495148846e-001
 2.555308479695611e-001	 1.110989259929961e+000	 2.825988628154372e-001
 2.441972823756038e-001	 1.113535307629695e+000	 2.279820505508247e-001
 2.328721765597172e-001	 1.115958683982159e+000	 1.762061226887559e-001
 2.215573519972832e-001	 1.118260081782081e+000	 1.271938703955630e-001
 3.369035168168484e-001	 1.096053881923943e+000	 8.059758097568348e-001
 3.254973991148399e-001	 1.099495130889186e+000	 7.285565590694647e-001
 3.140863113360830e-001	 1.102809098883723e+000	 6.538597292630839e-001
 3.026722438662864e-001	 1.105996230477284e+000	 5.820410543341082e-001
 2.912571668563761e-001	 1.109057008742898e+000	 5.132026481684111e-001
 2.798430293781279e-001	 1.111991954465246e+000	 4.473993453834815e-001
 2.684317586114020e-001	 1.114801625329929e+000	 3.846453191168969e-001
 2.570252590633344e-001	 1.117486615094961e+000	 3.249209169909554e-001
 2.456254118197869e-001	 1.120047552745821e+000	 2.681796564394915e-001
 2.342340738292959e-001	 1.122485101635380e+000	 2.143553209799336e-001
 2.228530772197077e-001	 1.124799958610022e+000	 1.633690998375093e-001
 3.388623606853999e-001	 1.102426621657084e+000	 8.654182893145853e-001
 3.273899248758108e-001	 1.105887878930429e+000	 7.854304188596647e-001
 3.159124900921533e-001	 1.109221115188658e+000	 7.082100973766315e-001
 3.044320582927534e-001	 1.112426777586352e+000	 6.339228617920937e-001
 2.929506110835044e-001	 1.115505352005261e+000	 5.626785390073849e-001
 2.814701088685893e-001	 1.118457362258053e+000	 4.945378212906629e-001
 2.699924900329904e-001	 1.121283369272862e+000	 4.295191326011462e-001
 2.585196701571411e-001	 1.123983970259976e+000	 3.676057247901933e-001
 2.470535412640223e-001	 1.126559797861965e+000	 3.087529425744230e-001
 2.355959710989501e-001	 1.129011519288615e+000	 2.528955965688245e-001
 2.241488024422355e-001	 1.131339835437960e+000	 1.999553845156912e-001
 3.408212045538864e-001	 1.108799361390078e+000	 9.248680248983842e-001
 3.292824506367342e-001	 1.112280626971544e+000	 8.423768180463120e-001
 3.177386688481909e-001	 1.115633131493490e+000	 7.626859592882883e-001
 3.061918727192004e-001	 1.118857324695348e+000	 6.859731640991580e-001
 2.946440553106233e-001	 1.121953695267586e+000	 6.123582811304442e-001
 2.830971883590516e-001	 1.124922770050854e+000	 5.419101045249319e-001
 2.715532214545899e-001	 1.127765113215821e+000	 4.746534917623363e-001
 2.600140812509698e-001	 1.130481325425043e+000	 4.105767236440708e-001
 2.484816707082928e-001	 1.133072042978181e+000	 3.496390429417301e-001
 2.369578683686545e-001	 1.135537936941932e+000	 2.917783086534569e-001
 2.254445276648321e-001	 1.137879712265981e+000	 2.369187036624223e-001
 3.427800484223401e-001	 1.115172101122873e+000	 9.841760309575849e-001
 3.311749763976341e-001	 1.118673375012488e+000	 8.992531806314554e-001
 3.195648476042123e-001	 1.122045147798187e+000	 8.171525426137613e-001
 3.079516871456370e-001	 1.125287871804252e+000	 7.380662722321086e-001
 2.963374995377376e-001	 1.128402038529865e+000	 6.621264306145303e-001
 2.847242678495141e-001	 1.131388177843655e+000	 5.894120366187521e-001
 2.731139528761948e-001	 1.134246857158827e+000	 5.199564395218476e-001
 2.615084923448095e-001	 1.136978680590200e+000	 4.537549466674555e-001
 2.499098001525807e-001	 1.139584288094523e+000	 3.907726401783110e-001
 2.383197656383840e-001	 1.142064354595402e+000	 3.309523172515311e-001
 2.267402528874632e-001	 1.144419589094170e+000	 2.742224894322025e-001
 3.447388922907940e-001	 1.121544840855421e+000	 1.043191217955361e+000
 3.330675021585340e-001	 1.125066123053216e+000	 9.559148052091782e-001
 3.213910263602337e-001	 1.128457164102716e+000	 8.714729213308278e-001
 3.097115015720737e-001	 1.131718418913041e+000	 7.900743096363601e-001
 2.980309437648518e-001	 1.134850381792088e+000	 7.118653175233176e-001
 2.863513473399765e-001	 1.137853585636464e+000	 6.369371910251804e-001
 2.746746842977998e-001	 1.140728601101902e+000	 5.653337059979720e-001
 2.630029034386492e-001	 1.143476035755484e+000	 4.970590676588892e-001
 2.513379295968685e-001	 1.146096533211043e+000	 4.320860101006341e-001
 2.396816629081136e-001	 1.148590772249092e+000	 3.703640278027557e-001
 2.280359781100943e-001	 1.150959465922610e+000	 3.118276720742395e-001
 3.466977361592805e-001	 1.127917580587672e+000	 1.101760459556118e+000
 3.349600279194575e-001	 1.131458871093689e+000	 1.012214926470292e+000
 3.232172051162713e-001	 1.134869180407041e+000	 9.255080724757588e-001
 3.114713159985207e-001	 1.138148966021693e+000	 8.418672649494806e-001
 2.997243879919708e-001	 1.141298725054246e+000	 7.614550954432422e-001
 2.879784268304388e-001	 1.144318993429285e+000	 6.843769201999271e-001
 2.762354157193992e-001	 1.147210345045066e+000	 6.106887538241763e-001
 2.644973145324779e-001	 1.149973390920931e+000	 5.404054452912235e-001
 2.527660590411389e-001	 1.152608778327796e+000	 4.735090653539693e-001
 2.410435601778181e-001	 1.155117189903075e+000	 4.099574348141356e-001
 2.293317033326910e-001	 1.157499342751387e+000	 3.496927240537856e-001
 3.486565800278319e-001	 1.134290320319577e+000	 1.159728659065809e+000
 3.368525536804284e-001	 1.137851619133862e+000	 1.068004776008311e+000
 3.250433838723416e-001	 1.141281196711131e+000	 9.791169321775203e-001
 3.132311304249877e-001	 1.144579513130186e+000	 8.933130440744727e-001
 3.014178322190991e-001	 1.147747068316332e+000	 8.107737903625516e-001
 2.896055063209000e-001	 1.150784401222125e+000	 7.316204020044452e-001
 2.777961471409878e-001	 1.153692088988341e+000	 6.559228227474911e-001
 2.659917256262847e-001	 1.156470746086580e+000	 5.837081665276162e-001
 2.541941884853743e-001	 1.159121023444835e+000	 5.149693982200806e-001
 2.424054574474722e-001	 1.161643607557417e+000	 4.496741645818136e-001
 2.306274285552188e-001	 1.164039219580587e+000	 3.877737031643686e-001
 3.506154238964809e-001	 1.140663060051086e+000	 1.216938815149286e+000
 3.387450794414700e-001	 1.144244367173692e+000	 1.123133642459345e+000
 3.268695626284607e-001	 1.147693213014952e+000	 1.032156451055273e+000
 3.149909448514852e-001	 1.151010060238497e+000	 9.442775216282866e-001
 3.031112764462416e-001	 1.154195411578337e+000	 8.596973489165104e-001
 2.912325858113605e-001	 1.157249809014989e+000	 7.785546854531185e-001
 2.793568785625599e-001	 1.160173832931749e+000	 7.009349735331883e-001
 2.674861367200581e-001	 1.162968101252468e+000	 6.268790892910662e-001
 2.556223179295574e-001	 1.165633268562213e+000	 5.563923226131067e-001
 2.437673547170509e-001	 1.168170025212190e+000	 4.894535170272487e-001
 2.319231537776434e-001	 1.170579096410293e+000	 4.260242946682952e-001
 3.525742677652601e-001	 1.147035799782149e+000	 1.273232086856785e+000
 3.406376052026061e-001	 1.150637115213137e+000	 1.177448931000551e+000
 3.286957413846450e-001	 1.154105229318470e+000	 1.084481649004255e+000
 3.167507592780232e-001	 1.157440607346606e+000	 9.946245917886990e-001
 3.048047206734029e-001	 1.160643754840250e+000	 9.080996860292703e-001
 2.928596653018194e-001	 1.163715216807882e+000	 8.250647358329639e-001
 2.809176099841100e-001	 1.166655576875311e+000	 7.456221312022916e-001
 2.689805478137873e-001	 1.169465456418633e+000	 6.698278844186874e-001
 2.570504473736705e-001	 1.172145513679984e+000	 5.977009152983936e-001
 2.451292519865291e-001	 1.174696442867462e+000	 5.292325066834741e-001
 2.332188789999302e-001	 1.177118973240590e+000	 4.643958525072375e-001
 2.202616267749964e-001	 1.111720204954052e+000	 9.146112361200175e-002
 2.090266650272629e-001	 1.113887283427750e+000	 4.746158618475413e-002
 1.978054629620872e-001	 1.115934606758614e+000	 6.694437976983223e-003
 1.865997507942484e-001	 1.117862958275722e+000	-3.110170106964730e-002
 1.754112319038042e-001	 1.119673150812978e+000	-6.617272464386255e-002
 1.642415823237833e-001	 1.121366025797290e+000	-9.874289714048858e-002
 1.530924502600770e-001	 1.122942452330613e+000	-1.290089641446309e-001
 1.419654556433717e-001	 1.124403326267059e+000	-1.571345550039653e-001
 1.308621897129018e-001	 1.125749569286229e+000	-1.832449131051918e-001
 1.197842146317700e-001	 1.126982127963913e+000	-2.074219862675622e-001
 1.087330631335390e-001	 1.128101972841276e+000	-2.296999063248626e-001
 2.215573519972832e-001	 1.118260081782081e+000	 1.271938703955651e-001
 2.102562987405381e-001	 1.120439908450877e+000	 8.128011415775305e-002
 1.989690861099369e-001	 1.122499275497582e+000	 3.866258347235833e-002
 1.876974544985343e-001	 1.124438970859325e+000	-9.170183104045262e-004
 1.764431173068044e-001	 1.126259812151637e+000	-3.770094796007908e-002
 1.652077604273180e-001	 1.127962645751250e+000	-7.190902435864106e-002
 1.539930417618117e-001	 1.129548345872747e+000	-1.037324911058917e-001
 1.428005907704827e-001	 1.131017813640245e+000	-1.333281800615635e-001
 1.316320080532950e-001	 1.132371976155270e+000	-1.608130129815539e-001
 1.204888649630348e-001	 1.133611785561993e+000	-1.862588750789961e-001
 1.093727032498246e-001	 1.134738218110943e+000	-2.096878908877203e-001
 2.228530772197077e-001	 1.124799958610022e+000	 1.633690998375093e-001
 2.114859324539956e-001	 1.126992533473878e+000	 1.155521845417899e-001
 2.001327092580198e-001	 1.129063944236374e+000	 7.110074657183400e-002
 1.887951582031090e-001	 1.131014983442705e+000	 2.975891883890559e-002
 1.774750027101518e-001	 1.132846473490027e+000	-8.712587322051484e-003
 1.661739385312600e-001	 1.134559265704902e+000	-4.452981971249286e-002
 1.548936332640131e-001	 1.136154239414550e+000	-7.787919076762995e-002
 1.436357258981184e-001	 1.137632301013091e+000	-1.089113930131758e-001
 1.324018263942671e-001	 1.138994383023983e+000	-1.377356632329775e-001
 1.211935152949278e-001	 1.140241443159786e+000	-1.644144306479049e-001
 1.100123433667814e-001	 1.141374463380391e+000	-1.889583808330559e-001
 2.241488024422355e-001	 1.131339835437960e+000	 1.999553845156914e-001
 2.127155661675898e-001	 1.133545158496847e+000	 1.502610542478149e-001
 2.012963324062775e-001	 1.135628612975103e+000	 1.040065416893298e-001
 1.898928619079004e-001	 1.137590996025985e+000	 6.093766850079025e-002
 1.785068881137598e-001	 1.139433134828279e+000	 2.081735807916109e-002
 1.671401166355073e-001	 1.141155885658386e+000	-1.656742790774176e-002
 1.557942247665647e-001	 1.142760132956160e+000	-5.139902836966468e-002
 1.444708610261475e-001	 1.144246788385735e+000	-8.382274080829814e-002
 1.331716447356734e-001	 1.145616789892503e+000	-1.139408388901089e-001
 1.218981656272921e-001	 1.146871100757412e+000	-1.418069864031638e-001
 1.106519834842415e-001	 1.148010708649726e+000	-1.674210807193560e-001
 2.254445276648321e-001	 1.137879712265981e+000	 2.369187036624199e-001
 2.139451998812752e-001	 1.140097783519888e+000	 1.853873440051330e-001
 2.024599555546520e-001	 1.142193281713881e+000	 1.373749154116845e-001
 1.909905656128361e-001	 1.144167008609286e+000	 9.262810000200253e-002
 1.795387735175414e-001	 1.146019796166525e+000	 5.091118941327971e-002
 1.681062947399582e-001	 1.147752505611837e+000	 1.201330540744896e-002
 1.566948162693496e-001	 1.149366026497717e+000	-2.424466247463572e-002
 1.453059961544390e-001	 1.150861275758315e+000	-5.800344781837759e-002
 1.339414630773692e-001	 1.152239196760960e+000	-8.935916888509396e-002
 1.226028159599706e-001	 1.153500758354994e+000	-1.183574992136943e-001
 1.112916236020373e-001	 1.154646953919056e+000	-1.449882818312736e-001
 2.267402528874632e-001	 1.144419589094170e+000	 2.742224894322028e-001
 2.151748335950061e-001	 1.146650408543099e+000	 2.209090855848062e-001
 2.036235787030848e-001	 1.148757950452820e+000	 1.711981947750558e-001
 1.920882693178441e-001	 1.150743021192732e+000	 1.248364432793677e-001
 1.805706589214098e-001	 1.152606457504896e+000	 8.158855879909037e-002
 1.690724728445109e-001	 1.154349125565392e+000	 4.124488544196042e-002
 1.575954077722513e-001	 1.155971920039361e+000	 3.628608049270108e-003
 1.461411312828616e-001	 1.157475763130970e+000	-3.139736161716604e-002
 1.347112814192097e-001	 1.158861603629487e+000	-6.392388067045281e-002
 1.233074662928061e-001	 1.160130415952655e+000	-9.398949290737226e-002
 1.119312637200009e-001	 1.161283199188487e+000	-1.215748046879949e-001
 2.280359781100943e-001	 1.150959465922610e+000	 3.118276720742397e-001
 2.164044673087371e-001	 1.153203033566577e+000	 2.568017678285084e-001
 2.047872018515176e-001	 1.155322619192032e+000	 2.054661342502799e-001
 1.931859730228520e-001	 1.157319033776447e+000	 1.575663369018824e-001
 1.816025443252783e-001	 1.159193118843525e+000	 1.128665184198199e-001
 1.700386509490637e-001	 1.160945745519189e+000	 7.115721850473733e-002
 1.584959992751531e-001	 1.162577813581231e+000	 3.226289541142920e-002
 1.469762664112842e-001	 1.164090250503836e+000	-3.950900470843011e-003
 1.354810997610503e-001	 1.165484010498218e+000	-3.757074661383435e-002
 1.240121166256417e-001	 1.166760073550517e+000	-6.862900363080055e-002
 1.125709038379645e-001	 1.167919444458127e+000	-9.709794344341743e-002
 2.293317033326910e-001	 1.157499342751387e+000	 3.496927240537856e-001
 2.176341010224225e-001	 1.159755658590424e+000	 2.930383815305392e-001
 2.059508249998919e-001	 1.161887287931629e+000	 2.401659614928280e-001
 1.942836767277878e-001	 1.163895046360552e+000	 1.908188747664353e-001
 1.826344297290599e-001	 1.165779780182541e+000	 1.447595682275185e-001
 1.710048290535148e-001	 1.167542365473366e+000	 1.017776607547684e-001
 1.593965907779382e-001	 1.169183707123466e+000	 6.169777270998139e-002
 1.478114015395757e-001	 1.170704737877053e+000	 2.438699753088523e-002
 1.362509181027461e-001	 1.172106417367284e+000	-1.023803210268213e-002
 1.247167669583203e-001	 1.173389731148703e+000	-4.220452697401790e-002
 1.132105439557603e-001	 1.174555689728082e+000	-7.147741210793711e-002
 2.306274285552188e-001	 1.164039219580587e+000	 3.877737031643689e-001
 2.188637347360168e-001	 1.166308283614738e+000	 3.295894632206334e-001
 2.071144481481499e-001	 1.168451956671723e+000	 2.752824218990125e-001
 1.953813804325791e-001	 1.170471058945171e+000	 2.245926515188597e-001
 1.836663151326679e-001	 1.172366441522078e+000	 1.772797022879889e-001
 1.719710071577622e-001	 1.174138985428059e+000	 1.331310655152808e-001
 1.602971822804898e-001	 1.175789600666207e+000	 9.197032223616815e-002
 1.486465366676049e-001	 1.177319225250758e+000	 5.366492376629767e-002
 1.370207364441526e-001	 1.178728824236818e+000	 1.813355471342124e-002
 1.254214172906847e-001	 1.180019388747333e+000	-1.464696679453332e-002
 1.138501840732206e-001	 1.181191934998460e+000	-4.463529251705692e-002
 2.319231537776434e-001	 1.170579096410293e+000	 4.260242946682952e-001
 2.200933684494744e-001	 1.172860908639617e+000	 3.664231378865187e-001
 2.082780712962328e-001	 1.175016625412426e+000	 3.107978220215116e-001
 1.964790841371540e-001	 1.177047071530428e+000	 2.588838067466406e-001
 1.846982005360155e-001	 1.178953102862265e+000	 2.104364538223508e-001
 1.729371852617042e-001	 1.180735605383406e+000	 1.652398292086788e-001
 1.611977737826915e-001	 1.182395494209592e+000	 1.231151823270181e-001
 1.494816717952408e-001	 1.183933712625089e+000	 8.392904685691266e-002
 1.377905547851249e-001	 1.185351231106953e+000	 4.760091160277024e-002
 1.261260676225780e-001	 1.186649046346531e+000	 1.411041433008975e-002
 1.144898241901776e-001	 1.187828180269368e+000	-1.649598397958338e-002
 2.332188789999302e-001	 1.177118973240590e+000	 4.643958525072398e-001
 2.213230021627496e-001	 1.179413533665163e+000	 4.035051606809535e-001
 2.094416944440826e-001	 1.181581294153850e+000	 3.466920718851717e-001
 1.975767878414401e-001	 1.183623084116445e+000	 2.936860679960268e-001
 1.857300859390157e-001	 1.185539764203235e+000	 2.442369389953825e-001
 1.739033633652391e-001	 1.187332225339542e+000	 1.981239359661525e-001
 1.620983652844263e-001	 1.189001387753761e+000	 1.551645928262165e-001
 1.503168069223521e-001	 1.190548200000185e+000	 1.152231589880533e-001
 1.385603731255183e-001	 1.191973637977820e+000	 7.821858941773739e-002
 1.268307179538430e-001	 1.193278703946419e+000	 4.413204308010819e-002
 1.151294643064635e-001	 1.194464425540913e+000	 1.301384545860502e-002
 1.087330631335390e-001	 1.128101972841276e+000	-2.296999063248626e-001
 9.770859064514910e-002	 1.129110240434535e+000	-2.495997823373679e-001
 8.671394960130736e-002	 1.130007770653767e+000	-2.668563556784601e-001
 7.575060542968273e-002	 1.130795601078155e+000	-2.817479793502287e-001
 6.481999231755271e-002	 1.131474789559993e+000	-2.944874406260913e-001
 5.392351301257860e-002	 1.132046413292315e+000	-3.052195091576612e-001
 4.306253865301493e-002	 1.132511567881462e+000	-3.140189841725831e-001
 3.223840862678768e-002	 1.132871366425472e+000	-3.208892454649964e-001
 2.145243045885214e-002	 1.133126938599190e+000	-3.257613095344077e-001
 1.070587972621754e-002	 1.133279429746903e+000	-3.284933889834056e-001
 0.000000000000000e+000	 1.133329999983334e+000	-3.288749992743044e-001
 1.093727032498246e-001	 1.134738218110943e+000	-2.096878908877203e-001
 9.828337749012930e-002	 1.135752417004074e+000	-2.306161509659804e-001
 8.722405866335789e-002	 1.136655227092374e+000	-2.487897940317841e-001
 7.619622081778173e-002	 1.137447692058752e+000	-2.644964613182697e-001
 6.520130657750442e-002	 1.138130875978492e+000	-2.779550991114239e-001
 5.424072694206489e-002	 1.138705862381395e+000	-2.893133518500177e-001
 4.331586111564807e-002	 1.139173753318886e+000	-2.986454744246055e-001
 3.242805636533392e-002	 1.139535668436983e+000	-3.059507687724202e-001
 2.157862790779291e-002	 1.139792744056029e+000	-3.111525463857485e-001
 1.076885882381067e-002	 1.139946132257989e+000	-3.140976149811900e-001
 0.000000000000000e+000	 1.139996999982150e+000	-3.145599888509441e-001
 1.100123433667814e-001	 1.141374463380391e+000	-1.889583808330559e-001
 9.885816433581518e-002	 1.142394593573496e+000	-2.108788199000247e-001
 8.773416772613640e-002	 1.143302683530986e+000	-2.299334382963067e-001
 7.664183620661486e-002	 1.144099783039497e+000	-2.464195194576804e-001
 6.558262083817641e-002	 1.144786962397290e+000	-2.605624570232282e-001
 5.455794087223356e-002	 1.145365311470925e+000	-2.725129865704396e-001
 4.356918357889775e-002	 1.145835938756898e+000	-2.823449571920021e-001
 3.261770410439924e-002	 1.146199970449207e+000	-2.900536484262270e-001
 2.170482535711995e-002	 1.146458549513681e+000	-2.955546344395895e-001
 1.083183792161823e-002	 1.146612834769953e+000	-2.986831938577181e-001
 0.000000000000000e+000	 1.146663999981866e+000	-2.991976372433522e-001
 1.106519834842415e-001	 1.148010708649726e+000	-1.674210807193560e-001
 9.943295118203033e-002	 1.149036770142885e+000	-1.902899806220358e-001
 8.824427678946088e-002	 1.149950139969669e+000	-2.101831866761879e-001
 7.708745159599865e-002	 1.150751874020427e+000	-2.274080555454268e-001
 6.596393509938860e-002	 1.151443048816397e+000	-2.421967910179564e-001
 5.487515480291399e-002	 1.152024760560885e+000	-2.547035077945306e-001
 4.382250604260982e-002	 1.152498124195458e+000	-2.650018563109784e-001
 3.280735184385388e-002	 1.152864272462079e+000	-2.730832145431021e-001
 2.183102280673670e-002	 1.153124354972060e+000	-2.788554489899787e-001
 1.089481701958661e-002	 1.153279537282697e+000	-2.821422433899846e-001
 0.000000000000000e+000	 1.153330999982383e+000	-2.826860567139183e-001
 1.112916236020373e-001	 1.154646953919056e+000	-1.449882818312736e-001
 1.000077380285982e-001	 1.155678946712327e+000	-1.687543685284614e-001
 8.875438585314933e-002	 1.156597596408483e+000	-1.894374325292238e-001
 7.753306698574956e-002	 1.157403965001579e+000	-2.073554124868996e-001
 6.634524936096094e-002	 1.158099135235820e+000	-2.227477602676425e-001
 5.519236873393561e-002	 1.158684209651256e+000	-2.357723299826909e-001
 4.407582850663021e-002	 1.159160309634518e+000	-2.465028498120667e-001
 3.299699958356809e-002	 1.159528574475531e+000	-2.549269830265142e-001
 2.195722025654659e-002	 1.159790160431083e+000	-2.609449807151378e-001
 1.095779611766221e-002	 1.159946239796126e+000	-2.643689249444061e-001
 0.000000000000000e+000	 1.159997999983599e+000	-2.649253304668945e-001
 1.119312637200009e-001	 1.161283199188487e+000	-1.215748046879949e-001
 1.005825248753426e-001	 1.162321123281912e+000	-1.461792045481950e-001
 8.926449491701982e-002	 1.163245052847492e+000	-1.675970052607289e-001
 7.797868237568405e-002	 1.164056055982987e+000	-1.861573146716309e-001
 6.672656362271337e-002	 1.164755221655566e+000	-2.021073464867314e-001
 5.550958266512782e-002	 1.165343658742019e+000	-2.156091275093311e-001
 4.432915097080474e-002	 1.165822495074035e+000	-2.267368100060155e-001
 3.318664732341208e-002	 1.166192876489496e+000	-2.354745960848010e-001
 2.208341770645305e-002	 1.166455965890665e+000	-2.417152769264842e-001
 1.102077521579144e-002	 1.166612942310145e+000	-2.452593857763456e-001
 0.000000000000000e+000	 1.166664999985416e+000	-2.458174563347858e-001
 1.125709038379645e-001	 1.167919444458127e+000	-9.709794344341743e-002
 1.011573117220870e-001	 1.168963299851724e+000	-1.224741387030079e-001
 8.977460398089038e-002	 1.169892509286757e+000	-1.445651131973310e-001
 7.842429776561860e-002	 1.170708146964687e+000	-1.637118103374131e-001
 6.710787788446587e-002	 1.171411308075644e+000	-1.801697959864427e-001
 5.582679659632005e-002	 1.172003107833153e+000	-1.941057766310266e-001
 4.458247343497931e-002	 1.172484680513963e+000	-2.055947456080829e-001
 3.337629506325611e-002	 1.172857178503908e+000	-2.146177647771219e-001
 2.220961515635955e-002	 1.173121771350721e+000	-2.210603848222146e-001
 1.108375431392067e-002	 1.173279644824656e+000	-2.247117032959048e-001
 0.000000000000000e+000	 1.173331999987733e+000	-2.252662923846192e-001
 1.132105439557603e-001	 1.174555689728082e+000	-7.147741210793711e-002
 1.017320985686550e-001	 1.175605476421850e+000	-9.755119553344892e-002
 9.028471304457898e-002	 1.176539965726342e+000	-1.202472883635343e-001
 7.886991315536961e-002	 1.177360237946715e+000	-1.399192158650856e-001
 6.748919214603828e-002	 1.178067394496061e+000	-1.568315636791485e-001
 5.614401052734176e-002	 1.178662556924641e+000	-1.711562994113227e-001
 4.483579589899976e-002	 1.179146865954257e+000	-1.829697458188992e-001
 3.356594280297038e-002	 1.179521480518698e+000	-1.922502135034017e-001
 2.233581260616950e-002	 1.179787576811168e+000	-1.988762966616094e-001
 1.114673341199630e-002	 1.179946347339565e+000	-2.026258312236179e-001
 0.000000000000000e+000	 1.179998999990450e+000	-2.031775043687280e-001
 1.138501840732206e-001	 1.181191934998460e+000	-4.463529251705692e-002
 1.023068854148703e-001	 1.182247652992378e+000	-7.132472131475420e-002
 9.079482210790363e-002	 1.183187422166307e+000	-9.455133308368785e-002
 7.931552854475356e-002	 1.184012328929106e+000	-1.146820619286332e-001
 6.787050640725066e-002	 1.184723480916826e+000	-1.319912589554385e-001
 5.646122445802236e-002	 1.185322006016463e+000	-1.466568095284436e-001
 4.508911836271199e-002	 1.185809051394874e+000	-1.587569262844673e-001
 3.375559054242515e-002	 1.186185782533802e+000	-1.682676263628244e-001
 2.246201005578633e-002	 1.186453382271919e+000	-1.750608967875051e-001
 1.120971250996473e-002	 1.186613049854775e+000	-1.789035475598294e-001
 0.000000000000000e+000	 1.186665999993467e+000	-1.794585149458196e-001
 1.144898241901776e-001	 1.187828180269368e+000	-1.649598397958338e-002
 1.028816722605564e-001	 1.188889829563394e+000	-4.371133299679670e-002
 9.130493117068236e-002	 1.189834878606717e+000	-6.738726834177602e-002
 7.976114393358696e-002	 1.190664419911896e+000	-8.790504142439155e-002
 6.825182066792289e-002	 1.191379567337946e+000	-1.055495933589640e-001
 5.677843838819124e-002	 1.191981455108598e+000	-1.205054598883324e-001
 4.534244082596187e-002	 1.192471236835767e+000	-1.328533768633075e-001
 3.394523828149064e-002	 1.192850084549151e+000	-1.425675953095629e-001
 2.258820750511350e-002	 1.193119187732893e+000	-1.495139104237269e-001
 1.127269160777236e-002	 1.193279752370191e+000	-1.534484043000120e-001
 0.000000000000000e+000	 1.193332999996683e+000	-1.540184546056745e-001
 1.151294643064635e-001	 1.194464425540913e+000	 1.301384545860502e-002
 1.034564591055369e-001	 1.195532006134985e+000	-1.462986879610358e-002
 9.181504023273319e-002	 1.196482335047633e+000	-3.866728382729586e-002
 8.020675932168628e-002	 1.197316510895122e+000	-5.949495911503661e-002
 6.863313492787490e-002	 1.198035653759429e+000	-7.740932999070266e-002
 5.709565231767782e-002	 1.198640904201028e+000	-9.260239197587243e-002
 4.559576328859526e-002	 1.199133422276893e+000	-1.051581111294719e-001
 3.413488602003709e-002	 1.199514386564678e+000	-1.150495700326224e-001
 2.271440495405443e-002	 1.199784993194003e+000	-1.221368541781947e-001
 1.133567070536557e-002	 1.199946454885717e+000	-1.261656788241500e-001
 0.000000000000000e+000	 1.200000000000000e+000	-1.267681142284522e-001
 1.200000000000000e+000	 0.000000000000000e+000	 1.963926367046255e+001
 1.199946454885717e+000	 1.133567070536561e-002	 1.962298831681718e+001
 1.199784993194003e+000	 2.271440495405450e-002	 1.960943611038850e+001
 1.199514386564678e+000	 3.413488602003700e-002	 1.959703891935438e+001
 1.199133422276893e+000	 4.559576328859522e-002	 1.958426993845309e+001
 1.198640904201028e+000	 5.709565231767782e-002	 1.956964619603474e+001
 1.198035653759429e+000	 6.863313492787491e-002	 1.955173172497015e+001
 1.197316510895122e+000	 8.020675932168629e-002	 1.952914084141744e+001
 1.196482335047633e+000	 9.181504023273307e-002	 1.950054153277726e+001
 1.195532006134985e+000	 1.034564591055369e-001	 1.946465895504267e+001
 1.194464425540913e+000	 1.151294643064634e-001	 1.942027903849811e+001
 1.206667000003317e+000	 0.000000000000000e+000	 1.946098178478296e+001
 1.206613157401256e+000	 1.139864980270443e-002	 1.944488335583751e+001
 1.206450798655161e+000	 2.284060240253764e-002	 1.943162667147782e+001
 1.206178688580310e+000	 3.432453375796890e-002	 1.941964892583708e+001
 1.205795607718194e+000	 4.584908575049948e-002	 1.940742858130736e+001
 1.205300353293716e+000	 5.741286624635845e-002	 1.939348793238138e+001
 1.204691740181260e+000	 6.901444918697730e-002	 1.937639625088879e+001
 1.203968601878787e+000	 8.065237470892074e-002	 1.935477304527722e+001
 1.203129791489080e+000	 9.232514929392761e-002	 1.932729143577430e+001
 1.202174182707195e+000	 1.040312459496886e-001	 1.929268164610831e+001
 1.201100670813155e+000	 1.157691044219621e-001	 1.924973461117446e+001
 1.213334000006534e+000	 0.000000000000000e+000	 1.928758115800735e+001
 1.213279859916706e+000	 1.146162889980340e-002	 1.927167984937745e+001
 1.213116604116268e+000	 2.296679985059136e-002	 1.925872214160291e+001
 1.212842990595942e+000	 3.451418149532757e-002	 1.924715280437861e+001
 1.212457793159563e+000	 4.610240821172792e-002	 1.923545776521797e+001
 1.211959802386551e+000	 5.773008017429710e-002	 1.922216671413659e+001
 1.211347826603324e+000	 6.939576344530313e-002	 1.920585621781078e+001
 1.210620692862775e+000	 8.109799009537091e-002	 1.918515295420816e+001
 1.209777247930941e+000	 9.283525835435197e-002	 1.915873707005982e+001
 1.208816359279900e+000	 1.046060327931011e-001	 1.912534566234945e+001
 1.207736916085966e+000	 1.164087445367639e-001	 1.908377638366413e+001
 1.220001000009551e+000	 0.000000000000000e+000	 1.911884436269773e+001
 1.219946562431968e+000	 1.152460799669068e-002	 1.910316416615977e+001
 1.219782409577216e+000	 2.309299729826907e-002	 1.909051255198509e+001
 1.219507292611463e+000	 3.470382923218868e-002	 1.907934411682941e+001
 1.219119978600882e+000	 4.635573067237534e-002	 1.906815444994714e+001
 1.218619251479407e+000	 5.804729410160456e-002	 1.905548276340408e+001
 1.218003913025485e+000	 6.977707770297610e-002	 1.903991496968792e+001
 1.217272783846940e+000	 8.154360548117015e-002	 1.902008688646758e+001
 1.216424704373056e+000	 9.334536741414577e-002	 1.899468757143089e+001
 1.215458535852934e+000	 1.051808196359168e-001	 1.896246278890219e+001
 1.214373161359173e+000	 1.170483846510113e-001	 1.892221860856786e+001
 1.226668000012267e+000	 0.000000000000000e+000	 1.895456137952577e+001
 1.226613264946940e+000	 1.158758709339442e-002	 1.893912935195883e+001
 1.226448215037900e+000	 2.321919474562415e-002	 1.892679391289157e+001
 1.226171594626763e+000	 3.489347696862784e-002	 1.891602173990419e+001
 1.225782164042033e+000	 4.660905313253649e-002	 1.890532028048315e+001
 1.225278700572155e+000	 5.836450802839168e-002	 1.889324039308227e+001
 1.224659999447606e+000	 7.015839196011998e-002	 1.887837938264854e+001
 1.223924874831135e+000	 8.198922086645173e-002	 1.885938417023035e+001
 1.223072160815268e+000	 9.385547647344870e-002	 1.883495460018750e+001
 1.222100712426131e+000	 1.057556064782785e-001	 1.880384688725743e+001
 1.221009406632600e+000	 1.176880247648462e-001	 1.876487720431670e+001
 1.233335000014584e+000	 0.000000000000000e+000	 1.879452939704398e+001
 1.233279967461519e+000	 1.165056618994280e-002	 1.877937494207648e+001
 1.233114020498216e+000	 2.334539219271000e-002	 1.876736803863339e+001
 1.232835896641729e+000	 3.508312470472070e-002	 1.875698970250546e+001
 1.232444349482895e+000	 4.686237559230622e-002	 1.874676143648042e+001
 1.231938149664668e+000	 5.868172195476933e-002	 1.873524786820030e+001
 1.231316085869550e+000	 7.053970621685843e-002	 1.872105973799567e+001
 1.230576965815212e+000	 8.243483625134906e-002	 1.870285702800302e+001
 1.229719617257423e+000	 9.436558553240043e-002	 1.867935223670277e+001
 1.228742888999325e+000	 1.063303933203288e-001	 1.864931380171351e+001
 1.227645651906074e+000	 1.183276648784110e-001	 1.861156967222036e+001
 1.240002000016401e+000	 0.000000000000000e+000	 1.863855261791645e+001
 1.239946669975606e+000	 1.171354528636398e-002	 1.862370677987044e+001
 1.239779825958058e+000	 2.347158963957999e-002	 1.861204237822282e+001
 1.239500198656252e+000	 3.527277244054283e-002	 1.860205702832560e+001
 1.239106534923351e+000	 4.711569805177929e-002	 1.859228848661191e+001
 1.238597598756819e+000	 5.899893588084832e-002	 1.858131727181349e+001
 1.237972172291179e+000	 7.092102047331519e-002	 1.856776959942638e+001
 1.237229056799023e+000	 8.288045163599547e-002	 1.855032046493528e+001
 1.236367073699361e+000	 9.487569459114065e-002	 1.852769688058212e+001
 1.235385065572350e+000	 1.069051801622104e-001	 1.849868126912548e+001
 1.234281897179420e+000	 1.189673049918478e-001	 1.846211501653484e+001
 1.246669000017617e+000	 0.000000000000000e+000	 1.848644207136682e+001
 1.246613372489098e+000	 1.177652438268612e-002	 1.847193684110898e+001
 1.246445631417321e+000	 2.359778708628755e-002	 1.846062985147738e+001
 1.246164500670219e+000	 3.546242017616987e-002	 1.845103758353026e+001
 1.245768720363282e+000	 4.736902051105048e-002	 1.844171624764927e+001
 1.245257047848480e+000	 5.931614980673954e-002	 1.843126437528703e+001
 1.244628258712357e+000	 7.130233472961398e-002	 1.841832569431396e+001
 1.243881147782423e+000	 8.332606702052429e-002	 1.840159216088295e+001
 1.243014530140927e+000	 9.538580364980900e-002	 1.837980715327711e+001
 1.242027242145039e+000	 1.074799670040657e-001	 1.835176883182714e+001
 1.240918142452463e+000	 1.196069451052987e-001	 1.831633366743700e+001
 1.253336000018134e+000	 0.000000000000000e+000	 1.833801543161252e+001
 1.253280075001894e+000	 1.183950347893738e-002	 1.832388306393491e+001
 1.253111436875900e+000	 2.372398453288602e-002	 1.831294869036897e+001
 1.252828802683519e+000	 3.565206791167744e-002	 1.830374992933353e+001
 1.252430905802570e+000	 4.762234297021459e-002	 1.829486364809509e+001
 1.251916496939524e+000	 5.963336373255378e-002	 1.828490851280495e+001
 1.251284345132945e+000	 7.168364898587851e-002	 1.827254779890149e+001
 1.250533238765264e+000	 8.377168240506890e-002	 1.825649236608276e+001
 1.249661986581963e+000	 9.589591270854520e-002	 1.823550380402566e+001
 1.248669418717227e+000	 1.080547538460376e-001	 1.820839775360810e+001
 1.247554387725030e+000	 1.202465852189060e-001	 1.817404740679738e+001
 1.260003000017850e+000	 0.000000000000000e+000	 1.819309684206315e+001
 1.259946777513892e+000	 1.190248257514593e-002	 1.817936918423118e+001
 1.259777242333688e+000	 2.385018197942882e-002	 1.816882228542271e+001
 1.259493104696041e+000	 3.584171564714115e-002	 1.816001717928383e+001
 1.259093091241095e+000	 4.787566542936642e-002	 1.815155359619857e+001
 1.258575946029822e+000	 5.995057765840189e-002	 1.814207245994757e+001
 1.257940431552808e+000	 7.206496324223248e-002	 1.813025862726223e+001
 1.257185329747398e+000	 8.421729778976256e-002	 1.811484380030517e+001
 1.256309443022313e+000	 9.640602176748886e-002	 1.809460961899487e+001
 1.255311595288746e+000	 1.086295406882687e-001	 1.806839093863247e+001
 1.254190632996945e+000	 1.208862253328119e-001	 1.803507929664778e+001
 1.266670000016666e+000	 0.000000000000000e+000	 1.805151674507073e+001
 1.266613480024992e+000	 1.196546167133993e-002	 1.803822457618879e+001
 1.266443047790582e+000	 2.397637942596935e-002	 1.802807903698035e+001
 1.266157406707675e+000	 3.603136338263665e-002	 1.801966686108686e+001
 1.265755276678737e+000	 4.812898788860075e-002	 1.801161285219305e+001
 1.265235395119249e+000	 6.026779158439477e-002	 1.800258231618770e+001
 1.264596517971808e+000	 7.244627749879959e-002	 1.799128372388791e+001
 1.263837420728680e+000	 8.466291317473874e-002	 1.797647155535701e+001
 1.262956899461820e+000	 9.691613082677968e-002	 1.795694933350898e+001
 1.261953771859432e+000	 1.092043275309016e-001	 1.793157285319088e+001
 1.260826878268034e+000	 1.215258654471585e-001	 1.789925361024431e+001
 1.194464425540913e+000	 1.151294643064634e-001	 1.942027903849811e+001
 1.193278703946419e+000	 1.268307179538431e-001	 1.937105784985847e+001
 1.191973637977820e+000	 1.385603731255182e-001	 1.932079169130163e+001
 1.190548200000185e+000	 1.503168069223521e-001	 1.926859792655535e+001
 1.189001387753761e+000	 1.620983652844261e-001	 1.921366523972411e+001
 1.187332225339542e+000	 1.739033633652391e-001	 1.915525747337616e+001
 1.185539764203236e+000	 1.857300859390158e-001	 1.909271753493945e+001
 1.183623084116445e+000	 1.975767878414401e-001	 1.902547135894006e+001
 1.181581294153850e+000	 2.094416944440826e-001	 1.895303191059232e+001
 1.179413533665163e+000	 2.213230021627496e-001	 1.887500321417177e+001
 1.177118973240590e+000	 2.332188789999303e-001	 1.879108438748402e+001
 1.201100670813155e+000	 1.157691044219621e-001	 1.924973461117445e+001
 1.199908361547070e+000	 1.275353682843720e-001	 1.920209387338736e+001
 1.198596044849500e+000	 1.393301914652340e-001	 1.915354654713330e+001
 1.197162687376130e+000	 1.511519420488499e-001	 1.910321900938632e+001
 1.195607281298800e+000	 1.629989567856154e-001	 1.905030860991357e+001
 1.193928845296552e+000	 1.748695414682985e-001	 1.899408753646455e+001
 1.192126425545067e+000	 1.867619713416107e-001	 1.893390675745278e+001
 1.190199096703294e+000	 1.986744915453892e-001	 1.886920002970082e+001
 1.188145962896061e+000	 2.106053175916603e-001	 1.879948795671418e+001
 1.185966158691430e+000	 2.225526358758121e-001	 1.872438208078536e+001
 1.183658850071527e+000	 2.345146042220564e-001	 1.864358899002261e+001
 1.207736916085966e+000	 1.164087445367639e-001	 1.908377638366412e+001
 1.206538019148351e+000	 1.282400186142539e-001	 1.903765885467050e+001
 1.205218451721860e+000	 1.401000098043578e-001	 1.899076910353990e+001
 1.203777174752788e+000	 1.519870771748144e-001	 1.894224333865239e+001
 1.202213174844572e+000	 1.638995482863324e-001	 1.889128826300335e+001
 1.200525465254301e+000	 1.758357195709474e-001	 1.883718496440238e+001
 1.198713086887629e+000	 1.877938567438565e-001	 1.877929289284023e+001
 1.196775109290849e+000	 1.997721952490488e-001	 1.871705391264669e+001
 1.194710631638938e+000	 2.117689407390045e-001	 1.864999641487315e+001
 1.192518783718309e+000	 2.237822695886923e-001	 1.857773947308053e+001
 1.190198726903006e+000	 2.358103294440449e-001	 1.849999702341507e+001
 1.214373161359173e+000	 1.170483846510113e-001	 1.892221860856786e+001
 1.213167676750082e+000	 1.289446689436272e-001	 1.887756920713938e+001
 1.211840858594711e+000	 1.408698281430210e-001	 1.883227750725076e+001
 1.210391662129970e+000	 1.528222123003676e-001	 1.878549035472722e+001
 1.208819068390886e+000	 1.648001397866880e-001	 1.873642447927916e+001
 1.207122085212600e+000	 1.768018976732844e-001	 1.868437040764696e+001
 1.205299748230736e+000	 1.888257421458386e-001	 1.862869647409355e+001
 1.203351121878933e+000	 2.008698989524904e-001	 1.856885291593517e+001
 1.201275300382315e+000	 2.129325638861734e-001	 1.850437603952362e+001
 1.199071408745647e+000	 2.250119033014357e-001	 1.843489243975049e+001
 1.196738603734889e+000	 2.371060546659301e-001	 1.836012325374892e+001
 1.221009406632600e+000	 1.176880247648462e-001	 1.876487720431671e+001
 1.219797334352083e+000	 1.296493192726302e-001	 1.872164263985894e+001
 1.218463265467869e+000	 1.416396464813551e-001	 1.867789087316113e+001
 1.217006149507486e+000	 1.536573474256321e-001	 1.863278018138816e+001
 1.215424961937553e+000	 1.657007312867934e-001	 1.858553798027595e+001
 1.213718705171260e+000	 1.777680757754080e-001	 1.853546475818581e+001
 1.211886409574204e+000	 1.898576275476420e-001	 1.848193811820442e+001
 1.209927134467368e+000	 2.019676026557856e-001	 1.842441691606076e+001
 1.207839969126025e+000	 2.140961870332251e-001	 1.836244547926626e+001
 1.205624033773291e+000	 2.262415370140881e-001	 1.829565789044677e+001
 1.203278480567044e+000	 2.384017798877465e-001	 1.822378231534304e+001
 1.227645651906074e+000	 1.183276648784110e-001	 1.861156967222036e+001
 1.226426991954171e+000	 1.303539696014012e-001	 1.856969808480479e+001
 1.225085672341149e+000	 1.424094648194918e-001	 1.852742922139775e+001
 1.223620636885148e+000	 1.544924825507298e-001	 1.848393357222068e+001
 1.222030855484382e+000	 1.666013227867597e-001	 1.843844988406109e+001
 1.220315325130093e+000	 1.787342538774170e-001	 1.839028911322901e+001
 1.218473070917847e+000	 1.908895129493519e-001	 1.833883849778616e+001
 1.216503147055976e+000	 2.030653063590058e-001	 1.828356573691637e+001
 1.214404637869900e+000	 2.152598101802176e-001	 1.822402326284846e+001
 1.212176658801087e+000	 2.274711707266946e-001	 1.815985258820882e+001
 1.209818357399334e+000	 2.396975051095285e-001	 1.809078870908598e+001
 1.234281897179420e+000	 1.189673049918478e-001	 1.846211501653483e+001
 1.233056649556165e+000	 1.310586199300786e-001	 1.842155562690121e+001
 1.231708079214362e+000	 1.431792831575624e-001	 1.838071341690830e+001
 1.230235124262765e+000	 1.553276176757833e-001	 1.833877185932972e+001
 1.228636749031183e+000	 1.675019142866980e-001	 1.829498166262922e+001
 1.226911945088909e+000	 1.797004319794096e-001	 1.824866474083864e+001
 1.225059732261483e+000	 1.919213983510535e-001	 1.819921831447911e+001
 1.223079159644581e+000	 2.041630100622224e-001	 1.814611913050579e+001
 1.220969306613775e+000	 2.164234333272091e-001	 1.808892778670629e+001
 1.218729283828883e+000	 2.287008044393010e-001	 1.802729314334630e+001
 1.216358234231624e+000	 2.409932303313104e-001	 1.796095680215979e+001
 1.240918142452463e+000	 1.196069451052987e-001	 1.831633366743700e+001
 1.239686307157884e+000	 1.317632702588007e-001	 1.827703643671758e+001
 1.238330486087321e+000	 1.439491014956986e-001	 1.823756511147974e+001
 1.236849611640148e+000	 1.561627528009146e-001	 1.819711690427144e+001
 1.235242642577766e+000	 1.684025057867194e-001	 1.815495510132848e+001
 1.233508565047521e+000	 1.806666100814845e-001	 1.811041304742160e+001
 1.231646393604925e+000	 1.929532837528319e-001	 1.806289827407207e+001
 1.229655172233005e+000	 2.052607137655070e-001	 1.801189675924636e+001
 1.227533975357481e+000	 2.175870564742576e-001	 1.795697730398942e+001
 1.225281908856526e+000	 2.299304381519529e-001	 1.789779600871919e+001
 1.222898111063778e+000	 2.422889555531269e-001	 1.783410082909799e+001
 1.247554387725030e+000	 1.202465852189060e-001	 1.817404740679738e+001
 1.246315964759146e+000	 1.324679205877058e-001	 1.813596270572337e+001
 1.244952892959844e+000	 1.447189198340320e-001	 1.809780668809571e+001
 1.243464099017107e+000	 1.569978879262462e-001	 1.805879105112275e+001
 1.241848536123940e+000	 1.693030972869349e-001	 1.801819226024366e+001
 1.240105185005738e+000	 1.816327881837402e-001	 1.797535554701745e+001
 1.238233054947990e+000	 1.939851691547721e-001	 1.792969906327673e+001
 1.236231184821070e+000	 2.063584174689310e-001	 1.788071817980128e+001
 1.234098644100853e+000	 2.187506796214214e-001	 1.782798991501468e+001
 1.231834533883864e+000	 2.311600718646958e-001	 1.777117747636439e+001
 1.229437987895662e+000	 2.435846807750120e-001	 1.771003489412749e+001
 1.254190632996945e+000	 1.208862253328119e-001	 1.803507929664778e+001
 1.252945622359772e+000	 1.331725709169322e-001	 1.799815758400771e+001
 1.251575299831740e+000	 1.454887381726938e-001	 1.796126120754552e+001
 1.250078586393454e+000	 1.578330230519001e-001	 1.792361708160960e+001
 1.248454429669515e+000	 1.702036887874557e-001	 1.788451543746289e+001
 1.246701804963373e+000	 1.825989662862754e-001	 1.784331383231403e+001
 1.244819716290493e+000	 1.950170545569596e-001	 1.779944132809285e+001
 1.242807197408601e+000	 2.074561211725660e-001	 1.775240282838621e+001
 1.240663312843723e+000	 2.199143027687583e-001	 1.770178355909474e+001
 1.238387158910742e+000	 2.323897055775752e-001	 1.764725367541850e+001
 1.235977864727140e+000	 2.448804059970006e-001	 1.758857297474724e+001
 1.260826878268034e+000	 1.215258654471585e-001	 1.789925361024431e+001
 1.259575279959579e+000	 1.338772212466185e-001	 1.786344512037216e+001
 1.258197706702826e+000	 1.462585565118158e-001	 1.782775235720295e+001
 1.256693073768999e+000	 1.586681581779989e-001	 1.779141817221804e+001
 1.255060323214301e+000	 1.711042802883929e-001	 1.775374713415910e+001
 1.253298424920236e+000	 1.835651443891883e-001	 1.771410954732779e+001
 1.251406377632250e+000	 1.960489399594794e-001	 1.767194565370664e+001
 1.249383209995418e+000	 2.085538248764833e-001	 1.762677000749497e+001
 1.247227981585924e+000	 2.210779259163266e-001	 1.757817600769144e+001
 1.244939783937008e+000	 2.336193392906365e-001	 1.752584057128895e+001
 1.242517741558077e+000	 2.461761312191269e-001	 1.746952892649786e+001
 1.177118973240590e+000	 2.332188789999303e-001	 1.879108438748402e+001
 1.174696442867462e+000	 2.451292519865292e-001	 1.870214250905853e+001
 1.172145513679984e+000	 2.570504473736707e-001	 1.860913373695790e+001
 1.169465456418633e+000	 2.689805478137872e-001	 1.851199581393005e+001
 1.166655576875310e+000	 2.809176099841100e-001	 1.841076325334265e+001
 1.163715216807882e+000	 2.928596653018195e-001	 1.830557088652792e+001
 1.160643754840250e+000	 3.048047206734029e-001	 1.819665727934979e+001
 1.157440607346606e+000	 3.167507592780232e-001	 1.808436798569102e+001
 1.154105229318469e+000	 3.286957413846448e-001	 1.796915860380353e+001
 1.150637115213138e+000	 3.406376052026062e-001	 1.785159759986209e+001
 1.147035799782149e+000	 3.525742677652601e-001	 1.773236886163169e+001
 1.183658850071527e+000	 2.345146042220564e-001	 1.864358899002260e+001
 1.181222860523273e+000	 2.464911492558901e-001	 1.855789885936262e+001
 1.178657758798178e+000	 2.584785768177023e-001	 1.846818876833104e+001
 1.175962811585093e+000	 2.704749589074649e-001	 1.837440191464243e+001
 1.173137320819037e+000	 2.824783414056346e-001	 1.827657805267061e+001
 1.170180624600808e+000	 2.944867447922768e-001	 1.817485714325538e+001
 1.167092098102068e+000	 3.064981649005864e-001	 1.806948287904155e+001
 1.163871154454499e+000	 3.185105737046083e-001	 1.796080605218574e+001
 1.160517245621666e+000	 3.305219201409052e-001	 1.784928772941832e+001
 1.157029863252175e+000	 3.425301309638526e-001	 1.773550219774904e+001
 1.153408539512741e+000	 3.545331116341913e-001	 1.762013964258921e+001
 1.190198726903006e+000	 2.358103294440449e-001	 1.849999702341507e+001
 1.187749278179539e+000	 2.478530465251502e-001	 1.841747925648923e+001
 1.185170003916729e+000	 2.599067062616638e-001	 1.833098149316323e+001
 1.182460166751805e+000	 2.719693700010984e-001	 1.824045274283188e+001
 1.179619064762902e+000	 2.840390728271374e-001	 1.814593837895051e+001
 1.176646032393761e+000	 2.961138242827326e-001	 1.804758389617868e+001
 1.173540441363803e+000	 3.081916091277885e-001	 1.794563854965461e+001
 1.170301701562208e+000	 3.202703881312340e-001	 1.784045884234945e+001
 1.166929261924586e+000	 3.323480988972305e-001	 1.773251182450177e+001
 1.163422611290857e+000	 3.444226567251935e-001	 1.762237816733955e+001
 1.159781279242920e+000	 3.564919555032524e-001	 1.751075497168591e+001
 1.196738603734889e+000	 2.371060546659301e-001	 1.836012325374892e+001
 1.194275695836146e+000	 2.492149437943351e-001	 1.828069651358411e+001
 1.191682249035548e+000	 2.613348357055731e-001	 1.819732400287060e+001
 1.188957521918703e+000	 2.734637810946987e-001	 1.810996086273287e+001
 1.186100808706870e+000	 2.855998042486236e-001	 1.801865842436500e+001
 1.183111440186731e+000	 2.977409037731875e-001	 1.792356807852107e+001
 1.179988784625471e+000	 3.098850533550047e-001	 1.782494503403775e+001
 1.176732248669769e+000	 3.220302025578902e-001	 1.772315193042486e+001
 1.173341278227287e+000	 3.341742776536049e-001	 1.761866226750833e+001
 1.169815359329259e+000	 3.463151824866051e-001	 1.751206361321709e+001
 1.166154018972769e+000	 3.584507993724112e-001	 1.740406054890001e+001
 1.203278480567044e+000	 2.384017798877465e-001	 1.822378231534304e+001
 1.200802113492981e+000	 2.505768410634697e-001	 1.814736333886522e+001
 1.198194494154544e+000	 2.627629651494473e-001	 1.806702830947243e+001
 1.195454877085725e+000	 2.749581921882768e-001	 1.798273878281945e+001
 1.192582552650905e+000	 2.871605356700989e-001	 1.789455234646180e+001
 1.189576847979709e+000	 2.993679832636415e-001	 1.780262660684068e+001
 1.186437127887089e+000	 3.115784975822304e-001	 1.770722307251771e+001
 1.183162795777224e+000	 3.237900169845663e-001	 1.760871089775538e+001
 1.179753294529829e+000	 3.360004564100119e-001	 1.750757044838084e+001
 1.176208107367455e+000	 3.482077082480641e-001	 1.740439664987639e+001
 1.172526758702372e+000	 3.604096432416351e-001	 1.729990207583431e+001
 1.209818357399334e+000	 2.396975051095285e-001	 1.809078870908598e+001
 1.207328531149930e+000	 2.519387383325792e-001	 1.801729233988824e+001
 1.204706739273630e+000	 2.641910945933041e-001	 1.793990635633783e+001
 1.201952232252809e+000	 2.764526032818440e-001	 1.785859897357203e+001
 1.199064296594971e+000	 2.887212670915688e-001	 1.777343429346452e+001
 1.196042255772687e+000	 3.009950627540954e-001	 1.768457641439302e+001
 1.192885471148673e+000	 3.132719418094608e-001	 1.759229344480436e+001
 1.189593342884612e+000	 3.255498314112529e-001	 1.749696138370549e+001
 1.186165310832270e+000	 3.378266351664351e-001	 1.739906782894139e+001
 1.182600855405517e+000	 3.501002340095467e-001	 1.729921547201964e+001
 1.178899498431811e+000	 3.623684871108916e-001	 1.719812533633364e+001
 1.216358234231624e+000	 2.409932303313104e-001	 1.796095680215979e+001
 1.213854948806878e+000	 2.533006356016886e-001	 1.789029602913523e+001
 1.211218984392714e+000	 2.656192240371608e-001	 1.781577003017911e+001
 1.208449587419890e+000	 2.779470143754111e-001	 1.773735388640142e+001
 1.205546040539032e+000	 2.902819985130387e-001	 1.765511843063819e+001
 1.202507663565653e+000	 3.026221422445490e-001	 1.756923448543286e+001
 1.199333814410241e+000	 3.149653860366913e-001	 1.747997701270683e+001
 1.196023889991972e+000	 3.273096458379393e-001	 1.738772913725218e+001
 1.192577327134670e+000	 3.396528139228580e-001	 1.729298600380022e+001
 1.188993603443521e+000	 3.519927597710294e-001	 1.719635842520615e+001
 1.185272238161169e+000	 3.643273309801479e-001	 1.709857627727907e+001
 1.222898111063778e+000	 2.422889555531269e-001	 1.783410082909799e+001
 1.220381366463713e+000	 2.546625328708232e-001	 1.776618683087676e+001
 1.217731229511710e+000	 2.670473534810352e-001	 1.769443117424548e+001
 1.214946942586906e+000	 2.794414254689893e-001	 1.761881597368720e+001
 1.212027784483051e+000	 2.918427299345141e-001	 1.753941896767037e+001
 1.208973071358602e+000	 3.042492217350032e-001	 1.745641789042054e+001
 1.205782157671806e+000	 3.166588302639170e-001	 1.737009476363099e+001
 1.202454437099345e+000	 3.290694602646155e-001	 1.728084006922212e+001
 1.198989343437087e+000	 3.414789926792650e-001	 1.718915676176299e+001
 1.195386351481539e+000	 3.538852855324883e-001	 1.709566407684209e+001
 1.191644977890528e+000	 3.662861748493719e-001	 1.700110108955265e+001
 1.229437987895662e+000	 2.435846807750120e-001	 1.771003489412749e+001
 1.226907784120320e+000	 2.560244301400080e-001	 1.764477708925987e+001
 1.224243474630525e+000	 2.684754829249444e-001	 1.757570160267191e+001
 1.221444297753794e+000	 2.809358365625896e-001	 1.750279770988830e+001
 1.218509528426994e+000	 2.934034613560003e-001	 1.742615018702953e+001
 1.215438479151522e+000	 3.058763012254581e-001	 1.734594382209858e+001
 1.212230500933388e+000	 3.183522744911332e-001	 1.726246785482859e+001
 1.208884984206768e+000	 3.308292746912715e-001	 1.717612030515010e+001
 1.205401359739581e+000	 3.433051714356393e-001	 1.708741214771832e+001
 1.201779099519646e+000	 3.557778112939002e-001	 1.699697128749758e+001
 1.198017717619971e+000	 3.682450187185308e-001	 1.690554628916572e+001
 1.235977864727140e+000	 2.448804059970006e-001	 1.758857297474724e+001
 1.233434201776585e+000	 2.573863274092683e-001	 1.752587907757704e+001
 1.230755719749071e+000	 2.699036123689061e-001	 1.745939311594099e+001
 1.227941652920490e+000	 2.824302476562229e-001	 1.738911161368664e+001
 1.224991272370823e+000	 2.949641927775030e-001	 1.731512647326494e+001
 1.221903886944404e+000	 3.075033807159139e-001	 1.723762963240678e+001
 1.218678844195001e+000	 3.200457187183354e-001	 1.715691765837027e+001
 1.215315531314282e+000	 3.325890891178971e-001	 1.707339623873641e+001
 1.211813376042210e+000	 3.451313501919647e-001	 1.698758452498744e+001
 1.208171847557914e+000	 3.576703370552409e-001	 1.690011928253909e+001
 1.204390457349580e+000	 3.702038625875919e-001	 1.681175879854535e+001
 1.242517741558077e+000	 2.461761312191269e-001	 1.746952892649786e+001
 1.239960619432395e+000	 2.587482246786292e-001	 1.740930500867199e+001
 1.237267964867259e+000	 2.713317418129376e-001	 1.734531751741608e+001
 1.234439008086931e+000	 2.839246587499007e-001	 1.727757027112549e+001
 1.231473016314503e+000	 2.965249241990277e-001	 1.720616234321308e+001
 1.228369294737240e+000	 3.091304602063712e-001	 1.713129287020463e+001
 1.225127187456663e+000	 3.217391629455186e-001	 1.705326580681615e+001
 1.221746078421927e+000	 3.343489035444824e-001	 1.697249458588048e+001
 1.218225392345035e+000	 3.469575289482249e-001	 1.688950663811920e+001
 1.214564595596419e+000	 3.595628628164873e-001	 1.680494772406559e+001
 1.210763197079440e+000	 3.721627064565229e-001	 1.671958602797282e+001
 1.147035799782149e+000	 3.525742677652601e-001	 1.773236886163169e+001
 1.143300858591557e+000	 3.645036256715679e-001	 1.760810180988209e+001
 1.139431907944475e+000	 3.764235554931851e-001	 1.747557695638247e+001
 1.135428606500522e+000	 3.883319152483018e-001	 1.733588801457035e+001
 1.131290656299120e+000	 4.002265455830573e-001	 1.719025651108496e+001
 1.127017803469615e+000	 4.121052708129412e-001	 1.704003241456463e+001
 1.122609838913262e+000	 4.239658999937964e-001	 1.688669424844681e+001
 1.118066598955774e+000	 4.358062280216105e-001	 1.673184864746559e+001
 1.113387965969144e+000	 4.476240367602244e-001	 1.657722931836397e+001
 1.108573868961468e+000	 4.594170961960175e-001	 1.642469536652632e+001
 1.103624284133538e+000	 4.711831656185747e-001	 1.627622895180760e+001
 1.153408539512741e+000	 3.545331116341913e-001	 1.762013964258921e+001
 1.149652847611346e+000	 3.665287470647388e-001	 1.749985004356559e+001
 1.145762401719341e+000	 3.785149020297367e-001	 1.737143608950636e+001
 1.141736858599893e+000	 3.904894226468796e-001	 1.723600217597479e+001
 1.137575918636990e+000	 4.024501375652946e-001	 1.709478265478815e+001
 1.133279326549498e+000	 4.143948590127299e-001	 1.694914259582778e+001
 1.128846872076932e+000	 4.263213838725058e-001	 1.680057802503289e+001
 1.124278390635644e+000	 4.382274947894189e-001	 1.665071559662966e+001
 1.119573763944086e+000	 4.501109613037127e-001	 1.650131165844562e+001
 1.114732920615915e+000	 4.619695410121816e-001	 1.635425067034133e+001
 1.109755836719682e+000	 4.738009807553952e-001	 1.621154293736336e+001
 1.159781279242920e+000	 3.564919555032524e-001	 1.751075497168591e+001
 1.156004836630688e+000	 3.685538684580830e-001	 1.739431953178232e+001
 1.152092895493741e+000	 3.806062485665094e-001	 1.726990157227289e+001
 1.148045110698800e+000	 3.926469300457278e-001	 1.713861387140235e+001
 1.143861180974407e+000	 4.046737295478509e-001	 1.700170115770167e+001
 1.139540849628945e+000	 4.166844472128812e-001	 1.686054101246782e+001
 1.135083905240194e+000	 4.286768677516142e-001	 1.671664424092597e+001
 1.130490182315132e+000	 4.406487615576512e-001	 1.657165466843338e+001
 1.125759561918668e+000	 4.525978858476361e-001	 1.642734831886008e+001
 1.120891972270021e+000	 4.645219858287749e-001	 1.628563193345125e+001
 1.115887389305492e+000	 4.764187958926180e-001	 1.614854079004881e+001
 1.166154018972769e+000	 3.584507993724112e-001	 1.740406054890001e+001
 1.162356825649667e+000	 3.705789898515569e-001	 1.729136308600436e+001
 1.158423389267759e+000	 3.826975951034477e-001	 1.717083151674735e+001
 1.154353362797314e+000	 3.948044374447787e-001	 1.704358468919029e+001
 1.150146443311432e+000	 4.068973215306460e-001	 1.691087524844096e+001
 1.145802372708010e+000	 4.189740354133045e-001	 1.677409068769240e+001
 1.141320938403083e+000	 4.310323516310217e-001	 1.663475386076153e+001
 1.136701973994260e+000	 4.430700283262014e-001	 1.649452291074663e+001
 1.131945359892904e+000	 4.550848103918861e-001	 1.635519057017133e+001
 1.127051023923789e+000	 4.670744306456894e-001	 1.621868278913957e+001
 1.122018941890968e+000	 4.790366110301420e-001	 1.608705664959998e+001
 1.172526758702372e+000	 3.604096432416351e-001	 1.729990207583431e+001
 1.168708814668366e+000	 3.726041112451172e-001	 1.719083353181900e+001
 1.164753883041476e+000	 3.847889416404962e-001	 1.707408410926072e+001
 1.160661614895509e+000	 3.969619448439649e-001	 1.695077639805111e+001
 1.156431705648128e+000	 4.091209135136007e-001	 1.682216848630978e+001
 1.152063895786738e+000	 4.212636236139091e-001	 1.668965516810774e+001
 1.147557971565633e+000	 4.333878355106287e-001	 1.655476860582958e+001
 1.142913765673050e+000	 4.454912950949638e-001	 1.641917840000118e+001
 1.138131157866803e+000	 4.575717349363536e-001	 1.628469102013288e+001
 1.133210075577222e+000	 4.696268754628187e-001	 1.615324855126574e+001
 1.128150494476111e+000	 4.816544261678670e-001	 1.602692671248357e+001
 1.178899498431811e+000	 3.623684871108916e-001	 1.719812533633364e+001
 1.175060803686873e+000	 3.746292326387209e-001	 1.709258379949893e+001
 1.171084376814971e+000	 3.868802881775999e-001	 1.697951770979562e+001
 1.166969866993460e+000	 3.991194522432187e-001	 1.686005105414154e+001
 1.162716967984558e+000	 4.113445054966350e-001	 1.673544487492375e+001
 1.158325418865181e+000	 4.235532118146044e-001	 1.660709864277444e+001
 1.153795004727882e+000	 4.357433193903352e-001	 1.647655107744561e+001
 1.149125557351524e+000	 4.479125618638322e-001	 1.634548036776851e+001
 1.144316955840377e+000	 4.600586594809299e-001	 1.621570374237379e+001
 1.139369127230325e+000	 4.721793202800552e-001	 1.608917634396889e+001
 1.134282047060920e+000	 4.842722413056925e-001	 1.596798936154064e+001
 1.185272238161169e+000	 3.643273309801479e-001	 1.709857627727907e+001
 1.181412792705272e+000	 3.766543540323245e-001	 1.699646701458574e+001
 1.177414870588328e+000	 3.889716347147038e-001	 1.688699095126085e+001
 1.173278119091240e+000	 4.012769596424727e-001	 1.677127110793144e+001
 1.169002230320782e+000	 4.135680974796692e-001	 1.665056897558199e+001
 1.164586941943386e+000	 4.258428000152994e-001	 1.652628606199446e+001
 1.160032037889863e+000	 4.380988032700419e-001	 1.639996488007277e+001
 1.155337349029706e+000	 4.503338286327006e-001	 1.627328932714323e+001
 1.150502753813638e+000	 4.625455840255059e-001	 1.614808440497735e+001
 1.145528178883100e+000	 4.747317650972915e-001	 1.602631523138632e+001
 1.140413599645397e+000	 4.868900564435182e-001	 1.591008529579881e+001
 1.191644977890528e+000	 3.662861748493719e-001	 1.700110108955265e+001
 1.187764781723647e+000	 3.786794754258847e-001	 1.690233658848734e+001
 1.183745364361628e+000	 3.910629812517525e-001	 1.679636283865788e+001
 1.179586371188922e+000	 4.034344670416589e-001	 1.668429951087985e+001
 1.175287492656865e+000	 4.157916894626237e-001	 1.656740602039566e+001
 1.170848465021405e+000	 4.281323882159039e-001	 1.644708325584021e+001
 1.166269071051614e+000	 4.404542871496486e-001	 1.632487474420450e+001
 1.161549140707617e+000	 4.527550954014630e-001	 1.620246719893878e+001
 1.156688551786596e+000	 4.650325085699735e-001	 1.608169039895741e+001
 1.151687230535551e+000	 4.772842099144207e-001	 1.596451634738557e+001
 1.146545152229541e+000	 4.895078715812432e-001	 1.585305766044571e+001
 1.198017717619971e+000	 3.682450187185308e-001	 1.690554628916572e+001
 1.194116770742085e+000	 3.807045968193585e-001	 1.681004630908742e+001
 1.190075858134952e+000	 3.931543277886904e-001	 1.670749284814370e+001
 1.185894623286580e+000	 4.055919744407099e-001	 1.659899982192524e+001
 1.181572754992868e+000	 4.180152814454189e-001	 1.648582202518283e+001
 1.177109988099285e+000	 4.304219764163272e-001	 1.636935705243504e+001
 1.172506104213168e+000	 4.428097710290560e-001	 1.625114664901623e+001
 1.167760932385280e+000	 4.551763621700133e-001	 1.613287743770274e+001
 1.162874349759262e+000	 4.675194331142233e-001	 1.601638096663529e+001
 1.157846282187681e+000	 4.798366547313354e-001	 1.590363302531023e+001
 1.152676704813351e+000	 4.921256867187672e-001	 1.579675217695917e+001
 1.204390457349580e+000	 3.702038625875919e-001	 1.681175879854535e+001
 1.200468759760668e+000	 3.827297182127025e-001	 1.671945043136749e+001
 1.196406351908382e+000	 3.952456743254629e-001	 1.662024102599424e+001
 1.192202875384288e+000	 4.077494818395578e-001	 1.651523631379718e+001
 1.187858017328854e+000	 4.202388734279750e-001	 1.640568390213828e+001
 1.183371511177076e+000	 4.327115646164784e-001	 1.629297539599426e+001
 1.178743137374562e+000	 4.451652549081643e-001	 1.617864794479557e+001
 1.173972724062717e+000	 4.575976289382454e-001	 1.606438515755826e+001
 1.169060147731649e+000	 4.700063576581465e-001	 1.595201732992205e+001
 1.164005333839493e+000	 4.823890995479283e-001	 1.584352092773862e+001
 1.158808257396830e+000	 4.947435018559896e-001	 1.574101727338721e+001
 1.210763197079440e+000	 3.721627064565229e-001	 1.671958602797282e+001
 1.206820748779484e+000	 3.847548396058735e-001	 1.663040376804063e+001
 1.202736845682000e+000	 3.973370208620146e-001	 1.653446808747125e+001
 1.198511127482119e+000	 4.099069892381354e-001	 1.643287407915569e+001
 1.194143279664885e+000	 4.224624654102122e-001	 1.632685957228644e+001
 1.189633034254827e+000	 4.350011528162668e-001	 1.621780746463562e+001
 1.184980170535832e+000	 4.475207387868736e-001	 1.610724747515813e+001
 1.180184515739950e+000	 4.600188957060534e-001	 1.599685725787789e+001
 1.175245945703767e+000	 4.724932822016346e-001	 1.588846281850829e+001
 1.170164385490992e+000	 4.849415443640924e-001	 1.578403817625495e+001
 1.164939809979976e+000	 4.973613169928101e-001	 1.568570421477248e+001
 1.103624284133538e+000	 4.711831656185747e-001	 1.627622895180760e+001
 1.098540008418292e+000	 4.829182367932998e-001	 1.612461774738032e+001
 1.093320382371615e+000	 4.946218196740462e-001	 1.596223749126369e+001
 1.087965527553038e+000	 5.062916504278682e-001	 1.579064840175193e+001
 1.082475614551749e+000	 5.179254595134631e-001	 1.561145986953102e+001
 1.076850863358325e+000	 5.295209729733790e-001	 1.542632492741798e+001
 1.071091543696644e+000	 5.410759137449159e-001	 1.523693400347137e+001
 1.065197975315034e+000	 5.525880029883279e-001	 1.504500794330938e+001
 1.059170528235776e+000	 5.640549614308797e-001	 1.485229029185488e+001
 1.053009622962143e+000	 5.754745107252708e-001	 1.466053882945193e+001
 1.046715730642193e+000	 5.868443748208878e-001	 1.447151636233297e+001
 1.109755836719682e+000	 4.738009807553952e-001	 1.621154293736336e+001
 1.104643313615936e+000	 4.856012500296728e-001	 1.606563482427566e+001
 1.099394688196809e+000	 4.973698560662537e-001	 1.590856842223049e+001
 1.094010082697206e+000	 5.091045224547136e-001	 1.574194524284364e+001
 1.088489668654092e+000	 5.208029670445574e-001	 1.556741888126640e+001
 1.082833667280287e+000	 5.324629032446049e-001	 1.538668946567985e+001
 1.077042349798221e+000	 5.440820413411761e-001	 1.520149736688543e+001
 1.071116037732701e+000	 5.556580898336719e-001	 1.501361615259014e+001
 1.065055103161805e+000	 5.671887567860980e-001	 1.482484477548707e+001
 1.058859968925060e+000	 5.786717511930366e-001	 1.463699898908913e+001
 1.052531108788160e+000	 5.901047843585172e-001	 1.445190199045493e+001
 1.115887389305492e+000	 4.764187958926180e-001	 1.614854079004881e+001
 1.110746618813241e+000	 4.882842632663987e-001	 1.600817906849770e+001
 1.105468994021646e+000	 5.001178924587447e-001	 1.585625955733507e+001
 1.100054637840989e+000	 5.119173944817586e-001	 1.569443001728174e+001
 1.094503722756014e+000	 5.236804745757574e-001	 1.552439360269271e+001
 1.088816471201787e+000	 5.354048335158375e-001	 1.534790329069634e+001
 1.082993155899291e+000	 5.470881689373441e-001	 1.516675554598273e+001
 1.077034100149815e+000	 5.587281766788284e-001	 1.498278320455105e+001
 1.070939678087233e+000	 5.703225521410430e-001	 1.479784756434926e+001
 1.064710314887335e+000	 5.818689916604577e-001	 1.461382967573541e+001
 1.058346486933445e+000	 5.933651938957494e-001	 1.443262083002166e+001
 1.122018941890968e+000	 4.790366110301420e-001	 1.608705664959998e+001
 1.116849924010209e+000	 4.909672765033883e-001	 1.595207575127376e+001
 1.111543299846135e+000	 5.028659288514479e-001	 1.580513032655823e+001
 1.106099192984409e+000	 5.147302665089530e-001	 1.564791923223821e+001
 1.100517776857554e+000	 5.265579821070365e-001	 1.548220042654463e+001
 1.094799275122880e+000	 5.383467637870755e-001	 1.530978537808435e+001
 1.088943961999928e+000	 5.500942965334422e-001	 1.513253268479534e+001
 1.082952162566470e+000	 5.617982635238442e-001	 1.495234088489466e+001
 1.076824253012177e+000	 5.734563474957832e-001	 1.477114044653989e+001
 1.070560660849099e+000	 5.850662321276201e-001	 1.459088492805667e+001
 1.064161865078198e+000	 5.966256034326836e-001	 1.441354130607826e+001
 1.128150494476111e+000	 4.816544261678670e-001	 1.602692671248357e+001
 1.122953229206843e+000	 4.936502897405545e-001	 1.589715255366003e+001
 1.117617605670288e+000	 5.056139652442927e-001	 1.575500284575563e+001
 1.112143748127488e+000	 5.175431385362475e-001	 1.560223228039309e+001
 1.106531830958747e+000	 5.294354896383687e-001	 1.544065875503211e+001
 1.100782079043621e+000	 5.412886940583167e-001	 1.527215776209397e+001
 1.094894768100207e+000	 5.531004241294942e-001	 1.509865596130614e+001
 1.088870224982760e+000	 5.648683503687664e-001	 1.492212391583914e+001
 1.082708827936749e+000	 5.765901428503867e-001	 1.474456797769040e+001
 1.076411006810486e+000	 5.882634725946104e-001	 1.456802131304947e+001
 1.069977243222568e+000	 5.998860129694195e-001	 1.439453406403059e+001
 1.134282047060920e+000	 4.842722413056925e-001	 1.596798936154064e+001
 1.129056534403145e+000	 4.963333029778084e-001	 1.584323969651193e+001
 1.123691911494114e+000	 5.083620016372084e-001	 1.570570204876211e+001
 1.118188303270249e+000	 5.203560105635913e-001	 1.555719157592312e+001
 1.112545885059632e+000	 5.323129971697274e-001	 1.539959114140356e+001
 1.106764882964066e+000	 5.442306243295596e-001	 1.523484568437509e+001
 1.100845574200202e+000	 5.561065517255233e-001	 1.506495574498683e+001
 1.094788287398780e+000	 5.679384372136416e-001	 1.489197012392970e+001
 1.088593402861064e+000	 5.797239382049222e-001	 1.471797766048780e+001
 1.082261352771629e+000	 5.914607130615146e-001	 1.454509811864499e+001
 1.075792621366704e+000	 6.031464225060556e-001	 1.437547217663250e+001
 1.140413599645397e+000	 4.868900564435182e-001	 1.591008529579881e+001
 1.135159839599118e+000	 4.990163162150624e-001	 1.579017007076225e+001
 1.129766217317625e+000	 5.111100380301240e-001	 1.565705581988136e+001
 1.124232858412714e+000	 5.231688825909355e-001	 1.551262269089206e+001
 1.118559939160247e+000	 5.351905047010860e-001	 1.535882343186905e+001
 1.112747686884270e+000	 5.471725546008028e-001	 1.519767774300652e+001
 1.106796380299988e+000	 5.591126793215521e-001	 1.503126575444445e+001
 1.100706349814623e+000	 5.710085240585168e-001	 1.486172060775266e+001
 1.094477977785235e+000	 5.828577335594575e-001	 1.469122012384105e+001
 1.088111698732658e+000	 5.946579535284184e-001	 1.452197754564870e+001
 1.081607999510756e+000	 6.064068320426921e-001	 1.435623134995331e+001
 1.146545152229541e+000	 4.895078715812432e-001	 1.585305766044571e+001
 1.141263144794765e+000	 5.016993294522283e-001	 1.573777936799347e+001
 1.135840523140828e+000	 5.138580744229687e-001	 1.560889512674373e+001
 1.130277413554903e+000	 5.259817546182297e-001	 1.546835449202659e+001
 1.124573993260627e+000	 5.380680122324181e-001	 1.531818490786972e+001
 1.118730490804286e+000	 5.501144848720440e-001	 1.516048604177722e+001
 1.112747186399639e+000	 5.621188069176042e-001	 1.499742321517282e+001
 1.106624412230385e+000	 5.740786109034390e-001	 1.483121990555483e+001
 1.100362552709377e+000	 5.859915289140608e-001	 1.466414930170533e+001
 1.093962044693708e+000	 5.978551939954088e-001	 1.449852489904149e+001
 1.087423377654871e+000	 6.096672415794279e-001	 1.433669012836275e+001
 1.152676704813351e+000	 4.921256867187672e-001	 1.579675217695917e+001
 1.147366449990089e+000	 5.043823426892181e-001	 1.568590621129558e+001
 1.141914828963736e+000	 5.166061108156720e-001	 1.556105415352123e+001
 1.136321968696841e+000	 5.287946266454243e-001	 1.542421927786433e+001
 1.130588047360811e+000	 5.409455197636974e-001	 1.527750842868131e+001
 1.124713294724171e+000	 5.530564151432816e-001	 1.512310633970999e+001
 1.118697992499228e+000	 5.651249345137025e-001	 1.496326901740469e+001
 1.112542474646159e+000	 5.771486977484549e-001	 1.480031616277284e+001
 1.106247127633605e+000	 5.891253242688013e-001	 1.463662261157564e+001
 1.099812390654912e+000	 6.010524344625714e-001	 1.447460877866453e+001
 1.093238755799201e+000	 6.129276511163621e-001	 1.431673009857097e+001
 1.158808257396830e+000	 4.947435018559896e-001	 1.574101727338721e+001
 1.153469755185090e+000	 5.070653559259436e-001	 1.563439228639672e+001
 1.147989134786358e+000	 5.193541472081626e-001	 1.551337043448415e+001
 1.142366523838548e+000	 5.316074986724692e-001	 1.538005291625991e+001
 1.136602101460835e+000	 5.438230272948974e-001	 1.523663057433843e+001
 1.130696098643979e+000	 5.559983454145145e-001	 1.508537820081964e+001
 1.124648798598832e+000	 5.681310621098703e-001	 1.492864787406153e+001
 1.118460537062040e+000	 5.802187845936114e-001	 1.476886129947489e+001
 1.112131702558031e+000	 5.922591196237463e-001	 1.460850113266331e+001
 1.105662736616400e+000	 6.042496749299925e-001	 1.445010126931190e+001
 1.099054133943893e+000	 6.161880606535946e-001	 1.429623609275828e+001
 1.164939809979976e+000	 4.973613169928101e-001	 1.568570421477248e+001
 1.159573060379774e+000	 5.097483691623166e-001	 1.558308247305826e+001
 1.154063440608705e+000	 5.221021836003701e-001	 1.546568498788818e+001
 1.148411078980047e+000	 5.344203706993145e-001	 1.533569498223585e+001
 1.142616155560737e+000	 5.467005348259916e-001	 1.519539178886883e+001
 1.136678902563766e+000	 5.589402756857403e-001	 1.504714514409545e+001
 1.130599604698522e+000	 5.711371897061304e-001	 1.489340847879606e+001
 1.124378599478121e+000	 5.832888714389555e-001	 1.473671117771883e+001
 1.118016277482770e+000	 5.953929149789649e-001	 1.457964978376660e+001
 1.111513082578307e+000	 6.074469153977584e-001	 1.442487813025268e+001
 1.104869512089097e+000	 6.194484701912240e-001	 1.427509639082795e+001
 1.046715730642193e+000	 5.868443748208878e-001	 1.447151636233297e+001
 1.040288399370800e+000	 5.981639752992449e-001	 1.427984079317320e+001
 1.033729137081809e+000	 6.094293349560167e-001	 1.408112834711724e+001
 1.027038568530055e+000	 6.206381926269815e-001	 1.387857175353600e+001
 1.020217369346709e+000	 6.317882950541939e-001	 1.367537726087700e+001
 1.013266265976422e+000	 6.428773982974780e-001	 1.347474963171577e+001
 1.006186035567982e+000	 6.539032691487108e-001	 1.327987640101092e+001
 9.989775058181930e-001	 6.648636865471250e-001	 1.309391144277641e+001
 9.916415547687788e-001	 6.757564429938406e-001	 1.290850136969374e+001
 9.841791105561780e-001	 6.865793459638276e-001	 1.270446512816040e+001
 9.765911511141747e-001	 6.973302193134739e-001	 1.248247613143808e+001
 1.052531108788160e+000	 5.901047843585172e-001	 1.445190199045493e+001
 1.046068068335276e+000	 6.014872746504577e-001	 1.426448637917814e+001
 1.039472363878085e+000	 6.128152227678481e-001	 1.407070266697854e+001
 1.032744623642452e+000	 6.240863549838150e-001	 1.387383866311444e+001
 1.025885527013243e+000	 6.352984055216872e-001	 1.367719784992310e+001
 1.018895804471111e+000	 6.464491179743309e-001	 1.348408402177345e+001
 1.011776237482553e+000	 6.575362467262914e-001	 1.329778515646798e+001
 1.004527658342915e+000	 6.685575583769569e-001	 1.312109400073305e+001
 9.971509499721742e-001	 6.795108331629519e-001	 1.293606871305042e+001
 9.896470456633376e-001	 6.903938663779422e-001	 1.273296778402351e+001
 9.820169287834258e-001	 7.012044697880243e-001	 1.251295607404689e+001
 1.058346486933445e+000	 5.933651938957494e-001	 1.443262083002166e+001
 1.051847737299039e+000	 6.048105740012431e-001	 1.424947516926498e+001
 1.045215590673622e+000	 6.162011105792424e-001	 1.406067440076718e+001
 1.038450678754095e+000	 6.275345173402180e-001	 1.386959420461547e+001
 1.031553684679011e+000	 6.388085159887689e-001	 1.367962771929605e+001
 1.024525342965032e+000	 6.500208376507993e-001	 1.349416983281552e+001
 1.017366439396360e+000	 6.611692243035183e-001	 1.331660067554381e+001
 1.010077810866886e+000	 6.722514302064664e-001	 1.314622005229863e+001
 1.002660345174838e+000	 6.832652233317685e-001	 1.296144851266004e+001
 9.951149807697941e-001	 6.942083867917818e-001	 1.275958614599496e+001
 9.874427064520090e-001	 7.050787202623076e-001	 1.254182058434667e+001
 1.064161865078198e+000	 5.966256034326836e-001	 1.441354130607826e+001
 1.057627406262252e+000	 6.081338733517084e-001	 1.423468820017202e+001
 1.050958817468596e+000	 6.195869983903091e-001	 1.405093166710902e+001
 1.044156733865162e+000	 6.309826796962981e-001	 1.386572818342705e+001
 1.037221842344201e+000	 6.423186264555413e-001	 1.368255310970448e+001
 1.030154881458374e+000	 6.535925573269785e-001	 1.350488464207608e+001
 1.022956641309592e+000	 6.648022018804798e-001	 1.333618693474366e+001
 1.015627963390292e+000	 6.759453020357341e-001	 1.316887866039559e+001
 1.008169740376953e+000	 6.870196135003639e-001	 1.298467326726542e+001
 1.000582915875723e+000	 6.980229072054153e-001	 1.278433444466163e+001
 9.928684841200919e-001	 7.089529707363905e-001	 1.256906150249039e+001
 1.069977243222568e+000	 5.998860129694195e-001	 1.439453406403059e+001
 1.063407075225076e+000	 6.114571727019601e-001	 1.422000843641542e+001
 1.056702044263178e+000	 6.229728862011573e-001	 1.404136431613109e+001
 1.049862788975838e+000	 6.344308420521626e-001	 1.386213203297042e+001
 1.042890000008998e+000	 6.458287369221080e-001	 1.368586187568720e+001
 1.035784419951326e+000	 6.571642770029659e-001	 1.351610771209836e+001
 1.028546843222441e+000	 6.684351794572643e-001	 1.335603948912953e+001
 1.021178115913322e+000	 6.796391738648412e-001	 1.318912241649927e+001
 1.013679135578703e+000	 6.907740036688119e-001	 1.300578189459372e+001
 1.006050850981300e+000	 7.018374276189107e-001	 1.280723371316175e+001
 9.982942617878406e-001	 7.128272212103395e-001	 1.259467794223004e+001
 1.075792621366704e+000	 6.031464225060556e-001	 1.437547217663250e+001
 1.069186744187677e+000	 6.147804720521047e-001	 1.420532099066116e+001
 1.062445271057544e+000	 6.263587740118962e-001	 1.403186416000668e+001
 1.055568844086303e+000	 6.378790044079197e-001	 1.385869905227790e+001
 1.048558157673590e+000	 6.493388473885715e-001	 1.368944372716137e+001
 1.041413958444078e+000	 6.607359966788566e-001	 1.352772023326799e+001
 1.034137045135093e+000	 6.720681570339605e-001	 1.337367433686762e+001
 1.026728268436162e+000	 6.833330456938671e-001	 1.320700994660240e+001
 1.019188530780268e+000	 6.945283938371860e-001	 1.302481962917375e+001
 1.011518786086701e+000	 7.056519480323377e-001	 1.282831167247008e+001
 1.003720039455423e+000	 7.167014716842222e-001	 1.261867616155254e+001
 1.081607999510756e+000	 6.064068320426921e-001	 1.435623134995331e+001
 1.074966413150215e+000	 6.181037714022500e-001	 1.419051334274669e+001
 1.068188497851865e+000	 6.297446618226351e-001	 1.402232520191647e+001
 1.061274899196738e+000	 6.413271667636769e-001	 1.385532464184994e+001
 1.054226315338164e+000	 6.528489578550352e-001	 1.369319046920253e+001
 1.047043496936819e+000	 6.643077163547476e-001	 1.353960556462196e+001
 1.039727247047741e+000	 6.757011346106565e-001	 1.338871569019231e+001
 1.032278420959000e+000	 6.870269175228932e-001	 1.322260581795778e+001
 1.024697925981833e+000	 6.982827840055605e-001	 1.304183791905870e+001
 1.016986721192101e+000	 7.094664684457648e-001	 1.284760261595744e+001
 1.009145817123004e+000	 7.205757221581045e-001	 1.264106943303272e+001
 1.087423377654871e+000	 6.096672415794279e-001	 1.433669012836274e+001
 1.080746082112854e+000	 6.214270707525014e-001	 1.417547555740304e+001
 1.073931724646317e+000	 6.331305496334835e-001	 1.401264386348702e+001
 1.066980954307326e+000	 6.447753291195418e-001	 1.385190653785478e+001
 1.059894473002906e+000	 6.563590683216020e-001	 1.369699624012308e+001
 1.052673035429740e+000	 6.678794360307347e-001	 1.355149422196601e+001
 1.045317448960573e+000	 6.793341121874412e-001	 1.340124270547909e+001
 1.037828573482022e+000	 6.907207893519999e-001	 1.323598044448621e+001
 1.030207321183581e+000	 7.020371741740087e-001	 1.305689432149562e+001
 1.022454656297678e+000	 7.132809888592604e-001	 1.286514729325209e+001
 1.014571594790753e+000	 7.244499726320536e-001	 1.266187791391381e+001
 1.093238755799201e+000	 6.129276511163621e-001	 1.431673009857097e+001
 1.086525751075758e+000	 6.247503701029669e-001	 1.416010050072576e+001
 1.079674951441073e+000	 6.365164374445501e-001	 1.400271921076115e+001
 1.072687009418248e+000	 6.482234914756219e-001	 1.384834504473314e+001
 1.065562630668003e+000	 6.598691787883746e-001	 1.370075774791219e+001
 1.058302573923028e+000	 6.714511557069139e-001	 1.356128965757963e+001
 1.050907650873779e+000	 6.829670897644030e-001	 1.341134012234501e+001
 1.043378726005418e+000	 6.944146611812677e-001	 1.324720999089925e+001
 1.035716716385692e+000	 7.057915643426040e-001	 1.307005239758006e+001
 1.027922591403607e+000	 7.170955092728941e-001	 1.288099279342840e+001
 1.019997372458836e+000	 7.283242231061367e-001	 1.268112851592529e+001
 1.099054133943893e+000	 6.161880606535946e-001	 1.429623609275828e+001
 1.092305420039088e+000	 6.280736694537524e-001	 1.414428405544116e+001
 1.085418178236306e+000	 6.399023252559447e-001	 1.399245317875691e+001
 1.078393064529686e+000	 6.516716538320250e-001	 1.384454326626640e+001
 1.071230788333643e+000	 6.633792892554562e-001	 1.370437450509797e+001
 1.063932112416875e+000	 6.750228753833825e-001	 1.356843717906303e+001
 1.056497852787547e+000	 6.866000673416297e-001	 1.341909817372318e+001
 1.048928878529372e+000	 6.981085330107775e-001	 1.325637627558544e+001
 1.041226111588352e+000	 7.095459545114209e-001	 1.308138160593459e+001
 1.033390526510062e+000	 7.209100296867335e-001	 1.289519242754718e+001
 1.025423150127420e+000	 7.321984735804198e-001	 1.269885477484820e+001
 1.104869512089097e+000	 6.194484701912240e-001	 1.427509639082795e+001
 1.098085089003007e+000	 6.313969688049652e-001	 1.412792533501207e+001
 1.091161405032191e+000	 6.432882130677760e-001	 1.398175079466472e+001
 1.084099119641821e+000	 6.551198161888586e-001	 1.384040733516624e+001
 1.076898946000012e+000	 6.668893997229497e-001	 1.370774539619518e+001
 1.069561650911468e+000	 6.785945950602359e-001	 1.357303666693898e+001
 1.062088054702069e+000	 6.902330449192106e-001	 1.342461249456523e+001
 1.054479031054074e+000	 7.018024048406095e-001	 1.326356667230394e+001
 1.046735506791741e+000	 7.133003446805322e-001	 1.309095719544542e+001
 1.038858461617222e+000	 7.247245501008480e-001	 1.290780561057388e+001
 1.030848927796671e+000	 7.360727240549706e-001	 1.271509671983741e+001
 9.765911511141747e-001	 6.973302193134739e-001	 1.248247613143808e+001
 9.688787035538358e-001	 7.080069044459488e-001	 1.225361095075053e+001
 9.610428429529890e-001	 7.186072609821202e-001	 1.202788861819017e+001
 9.530846927590595e-001	 7.291291688273839e-001	 1.180480133279573e+001
 9.450054245837380e-001	 7.395705297771742e-001	 1.158378365328631e+001
 9.368062576740198e-001	 7.499292688767160e-001	 1.136421517695519e+001
 9.284884583374330e-001	 7.602033357655288e-001	 1.114542348995935e+001
 9.200533393219623e-001	 7.703907060048886e-001	 1.092668737266047e+001
 9.115022591512589e-001	 7.804893823864774e-001	 1.070724024133034e+001
 9.028366214158040e-001	 7.904973962204591e-001	 1.048627380528495e+001
 8.940578740207774e-001	 8.004128086012710e-001	 1.026294191640101e+001
 9.820169287834258e-001	 7.012044697880243e-001	 1.251295607404688e+001
 9.742616321499599e-001	 7.119404728035643e-001	 1.228689782067838e+001
 9.663822368137147e-001	 7.225997231538436e-001	 1.206451430577524e+001
 9.583798724637950e-001	 7.331800889653712e-001	 1.184519949979606e+001
 9.502557172211614e-001	 7.436794603763114e-001	 1.162828520883756e+001
 9.420109971067352e-001	 7.540957509037904e-001	 1.141304397599407e+001
 9.336469854634308e-001	 7.644268987958722e-001	 1.119869227084283e+001
 9.251650023326336e-001	 7.746708683663928e-001	 1.098439394997562e+001
 9.165664137857175e-001	 7.848256513108827e-001	 1.076926396903519e+001
 9.078526312112717e-001	 7.948892680017987e-001	 1.055237232436587e+001
 8.990251105587875e-001	 8.048597687613458e-001	 1.033274820016916e+001
 9.874427064520090e-001	 7.050787202623076e-001	 1.254182058434667e+001
 9.796445607454600e-001	 7.158740411609053e-001	 1.231877669859462e+001
 9.717216306738654e-001	 7.265921853252729e-001	 1.209986301693693e+001
 9.636750521680070e-001	 7.372310091030350e-001	 1.188438203986995e+001
 9.555060098581151e-001	 7.477883909750888e-001	 1.167156996831856e+001
 9.472157365390326e-001	 7.582622329304661e-001	 1.146059981861525e+001
 9.388055125890581e-001	 7.686504618257768e-001	 1.125058484192360e+001
 9.302766653429756e-001	 7.789510307274222e-001	 1.104058223030059e+001
 9.216305684198799e-001	 7.891619202347835e-001	 1.082959708901294e+001
 9.128686410064646e-001	 7.992811397826130e-001	 1.061658665226675e+001
 9.039923470965305e-001	 8.093067289208878e-001	 1.040046471718716e+001
 9.928684841200919e-001	 7.089529707363905e-001	 1.256906150249039e+001
 9.850274893404919e-001	 7.198076095180407e-001	 1.234921730396753e+001
 9.770610245335857e-001	 7.305846474964822e-001	 1.213388681843381e+001
 9.689702318718272e-001	 7.412819292404559e-001	 1.192228772192600e+001
 9.607563024947161e-001	 7.518973215735962e-001	 1.171356763872657e+001
 9.524204759710170e-001	 7.624287149568423e-001	 1.150680746123191e+001
 9.439640397144077e-001	 7.728740248553527e-001	 1.130102499019447e+001
 9.353883283530711e-001	 7.832311930880958e-001	 1.109517887680738e+001
 9.266947230538203e-001	 7.934981891583056e-001	 1.088817284541893e+001
 9.178846508014517e-001	 8.036730115630334e-001	 1.067886017309193e+001
 9.089595836340730e-001	 8.137536890800305e-001	 1.046604839979297e+001
 9.982942617878406e-001	 7.128272212103395e-001	 1.259467794223004e+001
 9.904104179352118e-001	 7.237411778750391e-001	 1.237819709325957e+001
 9.824004183930175e-001	 7.345771096675439e-001	 1.216654587877679e+001
 9.742654115753860e-001	 7.453328493777152e-001	 1.195886368542775e+001
 9.660065951310830e-001	 7.560062521719246e-001	 1.175421647320139e+001
 9.576252154027919e-001	 7.665951969830188e-001	 1.155160029157625e+001
 9.491225668395724e-001	 7.770975878847094e-001	 1.134994513159017e+001
 9.404999913630022e-001	 7.875113554485316e-001	 1.114811909459308e+001
 9.317588776876122e-001	 7.978344580815755e-001	 1.094493285564546e+001
 9.229006605963006e-001	 8.080648833431917e-001	 1.073914439683991e+001
 9.139268201714819e-001	 8.182006492389065e-001	 1.052946398328785e+001
 1.003720039455423e+000	 7.167014716842222e-001	 1.261867616155254e+001
 9.957933465297756e-001	 7.276747462319689e-001	 1.240570111637527e+001
 9.877398122523056e-001	 7.385695718385319e-001	 1.219780831341556e+001
 9.795605912788146e-001	 7.493837695148937e-001	 1.199406527717538e+001
 9.712568877673322e-001	 7.601151827701622e-001	 1.179346310219111e+001
 9.628299548344628e-001	 7.707616790090960e-001	 1.159492015695950e+001
 9.542810939646446e-001	 7.813211509139567e-001	 1.139728613897678e+001
 9.456116543728508e-001	 7.917915178088486e-001	 1.119934646095365e+001
 9.368230323213300e-001	 8.021707270047190e-001	 1.099982694534841e+001
 9.279166703910808e-001	 8.124567551232179e-001	 1.079739880156582e+001
 9.188940567088242e-001	 8.226476093976495e-001	 1.059068385752988e+001
 1.009145817123004e+000	 7.205757221581045e-001	 1.264106943303272e+001
 1.001176275124340e+000	 7.316083145888987e-001	 1.243172187325945e+001
 9.930792061115937e-001	 7.425620340095204e-001	 1.222765003041873e+001
 9.848557709822429e-001	 7.534346896520723e-001	 1.202785588884042e+001
 9.765071804035815e-001	 7.642241133684004e-001	 1.183126236554309e+001
 9.680346942661333e-001	 7.749281610351730e-001	 1.163671719355008e+001
 9.594396210897169e-001	 7.855447139432040e-001	 1.144299717117205e+001
 9.507233173827000e-001	 7.960716801691662e-001	 1.124881275662214e+001
 9.418871869550484e-001	 8.065069959278629e-001	 1.105281298429883e+001
 9.329326801858613e-001	 8.168486269032448e-001	 1.085359067616084e+001
 9.238612932461664e-001	 8.270945695563926e-001	 1.064968791886518e+001
 1.014571594790753e+000	 7.244499726320536e-001	 1.266187791391381e+001
 1.006559203719060e+000	 7.355418829458971e-001	 1.245625917063945e+001
 9.984185999710260e-001	 7.465544961805822e-001	 1.225605457663071e+001
 9.901509506858019e-001	 7.574856097893317e-001	 1.206020679522525e+001
 9.817574730399482e-001	 7.683330439667283e-001	 1.186757714548609e+001
 9.732394336979082e-001	 7.790946430613496e-001	 1.167694965663086e+001
 9.645981482148813e-001	 7.897682769725606e-001	 1.148703550295580e+001
 9.558349803926308e-001	 8.003518425296019e-001	 1.129647779793535e+001
 9.469513415888404e-001	 8.108432648511328e-001	 1.110385672303259e+001
 9.379486899807105e-001	 8.212404986834028e-001	 1.090769496372428e+001
 9.288285297835752e-001	 8.315415297152686e-001	 1.070646342238393e+001
 1.019997372458836e+000	 7.283242231061367e-001	 1.268112851592529e+001
 1.011942132314092e+000	 7.394754513030325e-001	 1.247931997890705e+001
 1.003757993830746e+000	 7.505469583517913e-001	 1.228301298428686e+001
 9.954461303896223e-001	 7.615365299267528e-001	 1.209109699321851e+001
 9.870077656765497e-001	 7.724419745652361e-001	 1.190237820047081e+001
 9.784441731298926e-001	 7.832611250877258e-001	 1.171558375179964e+001
 9.697566753402312e-001	 7.939918400021370e-001	 1.152936635603527e+001
 9.609466434027266e-001	 8.046320048902754e-001	 1.134230926989642e+001
 9.520154962227809e-001	 8.151795337746550e-001	 1.115293163026375e+001
 9.429646997756973e-001	 8.256323704638234e-001	 1.095969410550833e+001
 9.337957663211176e-001	 8.359884898744111e-001	 1.076100483449010e+001
 1.025423150127420e+000	 7.321984735804198e-001	 1.269885477484820e+001
 1.017325060909592e+000	 7.434090196603739e-001	 1.250091828913394e+001
 1.009097387690897e+000	 7.545394205232207e-001	 1.230852361806907e+001
 1.000741310093835e+000	 7.655874500644163e-001	 1.212051304142225e+001
 9.922580583135038e-001	 7.765509051640137e-001	 1.193564399983634e+001
 9.836489125621899e-001	 7.874276071144014e-001	 1.175259346707593e+001
 9.749152024658588e-001	 7.982154030320419e-001	 1.156996273092824e+001
 9.660583064130688e-001	 8.089121672513051e-001	 1.138628256009677e+001
 9.570796508569435e-001	 8.195158026985560e-001	 1.120001873103623e+001
 9.479807095708903e-001	 8.300242422446380e-001	 1.100957788541057e+001
 9.387630028588608e-001	 8.404354500339538e-001	 1.081331368577181e+001
 1.030848927796671e+000	 7.360727240549706e-001	 1.271509671983741e+001
 1.022707989505717e+000	 7.473425880179891e-001	 1.252107497021639e+001
 1.014436781551623e+000	 7.585318826949443e-001	 1.233259202258754e+001
 1.006036489798570e+000	 7.696383702024040e-001	 1.214844890042674e+001
 9.975083509509269e-001	 7.806598357631507e-001	 1.196736055927201e+001
 9.888536519949061e-001	 7.915940891414762e-001	 1.178796040588499e+001
 9.800737295918565e-001	 8.024389660623850e-001	 1.160880523973244e+001
 9.711699694237401e-001	 8.131923296128095e-001	 1.142838059346937e+001
 9.621438054914021e-001	 8.238520716229617e-001	 1.124510644558570e+001
 9.529967193663581e-001	 8.344161140259776e-001	 1.105734327499834e+001
 9.437302393968710e-001	 8.448824101940288e-001	 1.086339842416175e+001
 8.940578740207774e-001	 8.004128086012710e-001	 1.026294191640101e+001
 8.851688503052765e-001	 8.102322458949247e-001	 1.004022987899778e+001
 8.761697760389994e-001	 8.199553281727517e-001	 9.820925492984214e+000
 8.670622271925278e-001	 8.295802148305268e-001	 9.603949134471872e+000
 8.578478205858254e-001	 8.391050998512860e-001	 9.388208325303761e+000
 8.485282129332367e-001	 8.485282129332366e-001	 9.172602320316756e+000
 8.391050998512859e-001	 8.578478205858252e-001	 8.956026695608271e+000
 8.295802148305270e-001	 8.670622271925280e-001	 8.737377904929565e+000
 8.199553281727516e-001	 8.761697760389995e-001	 8.515557770969537e+000
 8.102322458949245e-001	 8.851688503052763e-001	 8.289477878209034e+000
 8.004128086012706e-001	 8.940578740207773e-001	 8.058063834221704e+000
 8.990251105587875e-001	 8.048597687613458e-001	 1.033274820016916e+001
 8.900867009089170e-001	 8.147337612121904e-001	 1.011335111475612e+001
 8.810376292857055e-001	 8.245108633148357e-001	 9.897038893446521e+000
 8.718794804155734e-001	 8.341892242389558e-001	 9.682748731368413e+000
 8.626138801012782e-001	 8.437670279336463e-001	 9.469406853003884e+000
 8.532424942616038e-001	 8.532424942616034e-001	 9.255933173786843e+000
 8.437670279336464e-001	 8.626138801012785e-001	 9.041245961174317e+000
 8.341892242389555e-001	 8.718794804155735e-001	 8.824266461305500e+000
 8.245108633148356e-001	 8.810376292857054e-001	 8.603923456985706e+000
 8.147337612121903e-001	 8.900867009089171e-001	 8.379157722632215e+000
 8.048597687613456e-001	 8.990251105587874e-001	 8.148926342009958e+000
 9.039923470965305e-001	 8.093067289208878e-001	 1.040046471718716e+001
 8.950045515122835e-001	 8.192352765289310e-001	 1.018419347656274e+001
 8.859054825321169e-001	 8.290663984564143e-001	 9.970721188891385e+000
 8.766967336382945e-001	 8.387982336469084e-001	 9.758999324382238e+000
 8.673799396163706e-001	 8.484289560155671e-001	 9.547970166384509e+000
 8.579567755895703e-001	 8.579567755895702e-001	 9.336571555957862e+000
 8.484289560155672e-001	 8.673799396163706e-001	 9.123741634705811e+000
 8.387982336469085e-001	 8.766967336382948e-001	 8.908423550934089e+000
 8.290663984564142e-001	 8.859054825321169e-001	 8.689570093799176e+000
 8.192352765289310e-001	 8.950045515122834e-001	 8.466148219993325e+000
 8.093067289208880e-001	 9.039923470965304e-001	 8.237143437700283e+000
 9.089595836340730e-001	 8.137536890800305e-001	 1.046604839979297e+001
 8.999224021154439e-001	 8.237367918452774e-001	 1.025272832267844e+001
 8.907733357783069e-001	 8.336219335976136e-001	 1.004195664496129e+001
 8.815139868607729e-001	 8.434072430545051e-001	 9.832696608936830e+000
 8.721459991311925e-001	 8.530908840971585e-001	 9.623903954595859e+000
 8.626710569172368e-001	 8.626710569172366e-001	 9.414531755868069e+000
 8.530908840971585e-001	 8.721459991311927e-001	 9.203535254239878e+000
 8.434072430545051e-001	 8.815139868607727e-001	 8.989876653718035e+000
 8.336219335976136e-001	 8.907733357783068e-001	 8.772529840682340e+000
 8.237367918452772e-001	 8.999224021154441e-001	 8.550484992036154e+000
 8.137536890800304e-001	 9.089595836340730e-001	 8.322753035245381e+000
 9.139268201714819e-001	 8.182006492389065e-001	 1.052946398328785e+001
 9.048402527184671e-001	 8.282383071613607e-001	 1.031893447056763e+001
 8.956411890243501e-001	 8.381774687385607e-001	 1.011073667369062e+001
 8.863312400830887e-001	 8.480162524618640e-001	 9.903843143736077e+000
 8.769120586458342e-001	 8.577528121785301e-001	 9.697220515354404e+000
 8.673853382447037e-001	 8.673853382447037e-001	 9.489834443446750e+000
 8.577528121785302e-001	 8.769120586458341e-001	 9.280654536662782e+000
 8.480162524618637e-001	 8.863312400830886e-001	 9.068659250549066e+000
 8.381774687385606e-001	 8.956411890243499e-001	 8.852840702723892e+000
 8.282383071613606e-001	 9.048402527184672e-001	 8.632209372300830e+000
 8.182006492389066e-001	 9.139268201714819e-001	 8.405798645959180e+000
 9.188940567088242e-001	 8.226476093976495e-001	 1.059068385752988e+001
 9.097581033214214e-001	 8.327398224773125e-001	 1.038279805872778e+001
 9.005090422703189e-001	 8.427330038793813e-001	 1.017705970496964e+001
 8.911484933053233e-001	 8.526252618691034e-001	 9.972448231284213e+000
 8.816781181603857e-001	 8.624147402597918e-001	 9.767938643960694e+000
 8.720996195720705e-001	 8.720996195720701e-001	 9.562506566498843e+000
 8.624147402597919e-001	 8.816781181603854e-001	 9.355133282153233e+000
 8.526252618691032e-001	 8.911484933053233e-001	 9.144810734725512e+000
 8.427330038793816e-001	 9.005090422703190e-001	 8.930546448760042e+000
 8.327398224773127e-001	 9.097581033214215e-001	 8.711368330135034e+000
 8.226476093976495e-001	 9.188940567088240e-001	 8.486329308197645e+000
 9.238612932461664e-001	 8.270945695563926e-001	 1.064968791886518e+001
 9.146759539243760e-001	 8.372413377932647e-001	 1.044431240855862e+001
 9.053768955162885e-001	 8.472885390202022e-001	 1.024093105777356e+001
 8.959657465275581e-001	 8.572342712763431e-001	 1.003852779791727e+001
 8.864441776749370e-001	 8.670766683410537e-001	 9.836083521602534e+000
 8.768139008994371e-001	 8.768139008994369e-001	 9.632581246768572e+000
 8.670766683410539e-001	 8.864441776749371e-001	 9.427011277519942e+000
 8.572342712763431e-001	 8.959657465275581e-001	 9.218376322099275e+000
 8.472885390202019e-001	 9.053768955162883e-001	 9.005696527891182e+000
 8.372413377932649e-001	 9.146759539243761e-001	 8.788014393162072e+000
 8.270945695563925e-001	 9.238612932461663e-001	 8.564399515385118e+000
 9.288285297835752e-001	 8.315415297152686e-001	 1.070646342238393e+001
 9.195938045273991e-001	 8.417428531093485e-001	 1.050347788626701e+001
 9.102447487623314e-001	 8.518440741611488e-001	 1.030236281116169e+001
 9.007829997498735e-001	 8.618432806837015e-001	 1.010210427336640e+001
 8.912102371895790e-001	 8.717385964224255e-001	 9.901686602968530e+000
 8.815281822269039e-001	 8.815281822269039e-001	 9.700097675115817e+000
 8.717385964224255e-001	 8.912102371895786e-001	 9.496334198472457e+000
 8.618432806837018e-001	 9.007829997498740e-001	 9.289406959997795e+000
 8.518440741611489e-001	 9.102447487623314e-001	 9.078345984632968e+000
 8.417428531093484e-001	 9.195938045273991e-001	 8.862205568261626e+000
 8.315415297152689e-001	 9.288285297835753e-001	 8.640069142448338e+000
 9.337957663211176e-001	 8.359884898744111e-001	 1.076100483449010e+001
 9.245116551305598e-001	 8.462443684256946e-001	 1.056030176480891e+001
 9.151126020085214e-001	 8.563996093023485e-001	 1.036137367506035e+001
 9.056002529723518e-001	 8.664522900912982e-001	 1.016320646986881e+001
 8.959762967044006e-001	 8.764005245040168e-001	 9.964785503200071e+000
 8.862424635545708e-001	 8.862424635545707e-001	 9.765101005839043e+000
 8.764005245040168e-001	 8.959762967044006e-001	 9.563153510868869e+000
 8.664522900912983e-001	 9.056002529723519e-001	 9.357959234969894e+000
 8.563996093023485e-001	 9.151126020085215e-001	 9.148555372754338e+000
 8.462443684256946e-001	 9.245116551305599e-001	 8.934005261118955e+000
 8.359884898744114e-001	 9.337957663211177e-001	 8.713403370716376e+000
 9.387630028588608e-001	 8.404354500339538e-001	 1.081331368577181e+001
 9.294295057339259e-001	 8.507458837424352e-001	 1.061479808586311e+001
 9.199804552549330e-001	 8.609551444439272e-001	 1.041798886083229e+001
 9.104175061950732e-001	 8.710612994992514e-001	 1.022186946084410e+001
 9.007423562194932e-001	 8.810624525859377e-001	 1.002542388420427e+001
 8.909567448825375e-001	 8.909567448825372e-001	 9.827642250175494e+000
 8.810624525859379e-001	 9.007423562194930e-001	 9.627526370975254e+000
 8.710612994992515e-001	 9.104175061950734e-001	 9.424095279395820e+000
 8.609551444439271e-001	 9.199804552549327e-001	 9.216390667852231e+000
 8.507458837424350e-001	 9.294295057339259e-001	 9.003482194396963e+000
 8.404354500339534e-001	 9.387630028588607e-001	 8.784472611343000e+000
 9.437302393968710e-001	 8.448824101940288e-001	 1.086339842416175e+001
 9.343473563375667e-001	 8.552473990597010e-001	 1.066698752184128e+001
 9.248483085016389e-001	 8.655106795860112e-001	 1.047223995164439e+001
 9.152347594181193e-001	 8.756703089076804e-001	 1.027813445915206e+001
 9.055084157349460e-001	 8.857243806682982e-001	 1.008365134035190e+001
 8.956710262109042e-001	 8.956710262109041e-001	 9.887778169010788e+000
 8.857243806682983e-001	 9.055084157349460e-001	 9.689515524773771e+000
 8.756703089076804e-001	 9.152347594181193e-001	 9.487882677004484e+000
 8.655106795860115e-001	 9.248483085016390e-001	 9.281923178707725e+000
 8.552473990597013e-001	 9.343473563375669e-001	 9.070710324578622e+000
 8.448824101940289e-001	 9.437302393968712e-001	 8.853352427307483e+000
 8.004128086012706e-001	 8.940578740207773e-001	 8.058063834221702e+000
 7.904973962204593e-001	 9.028366214158040e-001	 7.826753237512755e+000
 7.804893823864771e-001	 9.115022591512587e-001	 7.601377132786110e+000
 7.703907060048888e-001	 9.200533393219624e-001	 7.381390208979413e+000
 7.602033357655288e-001	 9.284884583374330e-001	 7.166290709626263e+000
 7.499292688767163e-001	 9.368062576740198e-001	 6.955622239745426e+000
 7.395705297771745e-001	 9.450054245837380e-001	 6.748975237615503e+000
 7.291291688273840e-001	 9.530846927590595e-001	 6.545988090486625e+000
 7.186072609821200e-001	 9.610428429529889e-001	 6.346347875610639e+000
 7.080069044459487e-001	 9.688787035538357e-001	 6.149790710502543e+000
 6.973302193134738e-001	 9.765911511141745e-001	 5.956101699053828e+000
 8.048597687613456e-001	 8.990251105587874e-001	 8.148926342009958e+000
 7.948892680017989e-001	 9.078526312112717e-001	 7.918814846316151e+000
 7.848256513108828e-001	 9.165664137857176e-001	 7.694731808066730e+000
 7.746708683663930e-001	 9.251650023326336e-001	 7.476060936367551e+000
 7.644268987958722e-001	 9.336469854634308e-001	 7.262230864778183e+000
 7.540957509037907e-001	 9.420109971067353e-001	 7.052717165265584e+000
 7.436794603763114e-001	 9.502557172211616e-001	 6.847044016382922e+000
 7.331800889653711e-001	 9.583798724637946e-001	 6.644785503500748e+000
 7.225997231538436e-001	 9.663822368137148e-001	 6.445566531313816e+000
 7.119404728035642e-001	 9.742616321499600e-001	 6.249063331463498e+000
 7.012044697880243e-001	 9.820169287834258e-001	 6.055003550907605e+000
 8.093067289208880e-001	 9.039923470965304e-001	 8.237143437700283e+000
 7.992811397826130e-001	 9.128686410064647e-001	 8.008277813529167e+000
 7.891619202347836e-001	 9.216305684198799e-001	 7.785528643332364e+000
 7.789510307274221e-001	 9.302766653429757e-001	 7.568209464716647e+000
 7.686504618257768e-001	 9.388055125890579e-001	 7.355680080269488e+000
 7.582622329304659e-001	 9.472157365390325e-001	 7.147348782620832e+000
 7.477883909750888e-001	 9.555060098581147e-001	 6.942674222986533e+000
 7.372310091030349e-001	 9.636750521680069e-001	 6.741166899754765e+000
 7.265921853252728e-001	 9.717216306738659e-001	 6.542390246151666e+000
 7.158740411609051e-001	 9.796445607454598e-001	 6.345961298712288e+000
 7.050787202623076e-001	 9.874427064520092e-001	 6.151550931170144e+000
 8.137536890800304e-001	 9.089595836340730e-001	 8.322753035245381e+000
 8.036730115630335e-001	 9.178846508014517e-001	 8.095181212471152e+000
 7.934981891583057e-001	 9.266947230538201e-001	 7.873806733356832e+000
 7.832311930880956e-001	 9.353883283530714e-001	 7.657873757926942e+000
 7.728740248553526e-001	 9.439640397144080e-001	 7.446674023944207e+000
 7.624287149568421e-001	 9.524204759710164e-001	 7.239549287262219e+000
 7.518973215735962e-001	 9.607563024947160e-001	 7.035893394831249e+000
 7.412819292404561e-001	 9.689702318718272e-001	 6.835153965611277e+000
 7.305846474964821e-001	 9.770610245335858e-001	 6.636833657205842e+000
 7.198076095180406e-001	 9.850274893404918e-001	 6.440490998791588e+000
 7.089529707363904e-001	 9.928684841200918e-001	 6.245740773906966e+000
 8.182006492389066e-001	 9.139268201714819e-001	 8.405798645959180e+000
 8.080648833431916e-001	 9.229006605963006e-001	 8.179569617586045e+000
 7.978344580815755e-001	 9.317588776876121e-001	 7.959610595555197e+000
 7.875113554485315e-001	 9.404999913630022e-001	 7.745097141569415e+000
 7.770975878847094e-001	 9.491225668395724e-001	 7.535253681588623e+000
 7.665951969830188e-001	 9.576252154027919e-001	 7.329356165807787e+000
 7.560062521719247e-001	 9.660065951310830e-001	 7.126734350360748e+000
 7.453328493777151e-001	 9.742654115753862e-001	 6.926773674670375e+000
 7.345771096675436e-001	 9.824004183930175e-001	 6.728916710988637e+000
 7.237411778750392e-001	 9.904104179352118e-001	 6.532664165520933e+000
 7.128272212103395e-001	 9.982942617878406e-001	 6.337575413607805e+000
 8.226476093976495e-001	 9.188940567088240e-001	 8.486329308197639e+000
 8.124567551232180e-001	 9.279166703910811e-001	 8.261493039401591e+000
 8.021707270047190e-001	 9.368230323213301e-001	 8.042990109827414e+000
 7.917915178088487e-001	 9.456116543728511e-001	 7.829928247198225e+000
 7.813211509139568e-001	 9.542810939646449e-001	 7.621465305290879e+000
 7.707616790090960e-001	 9.628299548344628e-001	 7.416812148014946e+000
 7.601151827701622e-001	 9.712568877673321e-001	 7.215235144197963e+000
 7.493837695148937e-001	 9.795605912788143e-001	 7.016058245619896e+000
 7.385695718385317e-001	 9.877398122523057e-001	 6.818664623533621e+000
 7.276747462319690e-001	 9.957933465297759e-001	 6.622497841846054e+000
 7.167014716842219e-001	 1.003720039455422e+000	 6.427062548310275e+000
 8.270945695563925e-001	 9.238612932461663e-001	 8.564399515385111e+000
 8.168486269032447e-001	 9.329326801858612e-001	 8.341006857740929e+000
 8.065069959278631e-001	 9.418871869550483e-001	 8.124000456570599e+000
 7.960716801691661e-001	 9.507233173826999e-001	 7.912420954773546e+000
 7.855447139432040e-001	 9.594396210897170e-001	 7.705360359867563e+000
 7.749281610351729e-001	 9.680346942661333e-001	 7.501965156793020e+000
 7.642241133684004e-001	 9.765071804035813e-001	 7.301439020312182e+000
 7.534346896520722e-001	 9.848557709822429e-001	 7.103045098117525e+000
 7.425620340095203e-001	 9.930792061115941e-001	 6.906107838541322e+000
 7.316083145888987e-001	 1.001176275124340e+000	 6.710014339789196e+000
 7.205757221581045e-001	 1.009145817123005e+000	 6.514215200878747e+000
 8.315415297152689e-001	 9.288285297835753e-001	 8.640069142448338e+000
 8.212404986834028e-001	 9.379486899807105e-001	 8.418171753250942e+000
 8.108432648511330e-001	 9.469513415888402e-001	 8.202702052935900e+000
 8.003518425296021e-001	 9.558349803926309e-001	 7.992634333269210e+000
 7.897682769725606e-001	 9.645981482148813e-001	 7.786995467429889e+000
 7.790946430613499e-001	 9.732394336979086e-001	 7.584868256327332e+000
 7.683330439667285e-001	 9.817574730399483e-001	 7.385394363289461e+000
 7.574856097893313e-001	 9.901509506858018e-001	 7.187776806781313e+000
 7.465544961805821e-001	 9.984185999710260e-001	 6.991281983656321e+000
 7.355418829458970e-001	 1.006559203719059e+000	 6.795241198565321e+000
 7.244499726320537e-001	 1.014571594790753e+000	 6.599051678507704e+000
 8.359884898744114e-001	 9.337957663211177e-001	 8.713403370716376e+000
 8.256323704638237e-001	 9.429646997756973e-001	 8.493053637307572e+000
 8.151795337746554e-001	 9.520154962227808e-001	 8.279160487391581e+000
 8.046320048902754e-001	 9.609466434027266e-001	 8.070632579526547e+000
 7.939918400021369e-001	 9.697566753402316e-001	 7.866432350158636e+000
 7.832611250877259e-001	 9.784441731298925e-001	 7.665579598386513e+000
 7.724419745652361e-001	 9.870077656765497e-001	 7.467154647773486e+000
 7.615365299267528e-001	 9.954461303896223e-001	 7.270301053358763e+000
 7.505469583517910e-001	 1.003757993830746e+000	 7.074227824942936e+000
 7.394754513030325e-001	 1.011942132314092e+000	 6.878211140936146e+000
 7.283242231061368e-001	 1.019997372458836e+000	 6.681595530515669e+000
 8.404354500339534e-001	 9.387630028588607e-001	 8.784472611343000e+000
 8.300242422446381e-001	 9.479807095708903e-001	 8.565723580362349e+000
 8.195158026985561e-001	 9.570796508569432e-001	 8.353446452654401e+000
 8.089121672513049e-001	 9.660583064130689e-001	 8.146484955427241e+000
 7.982154030320419e-001	 9.749152024658589e-001	 7.943737771353772e+000
 7.874276071144015e-001	 9.836489125621905e-001	 7.744162366879628e+000
 7.765509051640136e-001	 9.922580583135034e-001	 7.546778386148471e+000
 7.655874500644164e-001	 1.000741310093835e+000	 7.350670577139475e+000
 7.545394205232205e-001	 1.009097387690897e+000	 7.154991219626832e+000
 7.434090196603738e-001	 1.017325060909592e+000	 6.958962027867849e+000
 7.321984735804198e-001	 1.025423150127420e+000	 6.761875504491407e+000
 8.448824101940289e-001	 9.437302393968712e-001	 8.853352427307483e+000
 8.344161140259777e-001	 9.529967193663582e-001	 8.636257738784698e+000
 8.238520716229620e-001	 9.621438054914022e-001	 8.425635677052293e+000
 8.131923296128095e-001	 9.711699694237402e-001	 8.220265723440294e+000
 8.024389660623853e-001	 9.800737295918567e-001	 8.018983474822194e+000
 7.915940891414762e-001	 9.888536519949059e-001	 7.820684720727967e+000
 7.806598357631508e-001	 9.975083509509268e-001	 7.624329074526786e+000
 7.696383702024038e-001	 1.006036489798570e+000	 7.428943123681245e+000
 7.585318826949441e-001	 1.014436781551623e+000	 7.233623067167874e+000
 7.473425880179889e-001	 1.022707989505716e+000	 7.037536811550145e+000
 7.360727240549704e-001	 1.030848927796671e+000	 6.839925500855872e+000
 6.973302193134738e-001	 9.765911511141745e-001	 5.956101699053828e+000
 6.865793459638276e-001	 9.841791105561778e-001	 5.761970494223163e+000
 6.757564429938407e-001	 9.916415547687792e-001	 5.564868407372525e+000
 6.648636865471249e-001	 9.989775058181928e-001	 5.365776511625727e+000
 6.539032691487107e-001	 1.006186035567982e+000	 5.163582742405338e+000
 6.428773982974777e-001	 1.013266265976422e+000	 4.959634043814655e+000
 6.317882950541940e-001	 1.020217369346709e+000	 4.757009809236878e+000
 6.206381926269818e-001	 1.027038568530055e+000	 4.558884632270873e+000
 6.094293349560167e-001	 1.033729137081809e+000	 4.368508258709921e+000
 5.981639752992450e-001	 1.040288399370800e+000	 4.189185941038594e+000
 5.868443748208878e-001	 1.046715730642193e+000	 4.024259309177952e+000
 7.012044697880243e-001	 9.820169287834258e-001	 6.055003550907605e+000
 6.903938663779422e-001	 9.896470456633377e-001	 5.860144268324036e+000
 6.795108331629520e-001	 9.971509499721744e-001	 5.662124486153656e+000
 6.685575583769566e-001	 1.004527658342915e+000	 5.462081030318423e+000
 6.575362467262915e-001	 1.011776237482553e+000	 5.259919951443727e+000
 6.464491179743307e-001	 1.018895804471111e+000	 5.055537184774599e+000
 6.352984055216870e-001	 1.025885527013243e+000	 4.852078943215167e+000
 6.240863549838152e-001	 1.032744623642452e+000	 4.652851806157137e+000
 6.128152227678479e-001	 1.039472363878085e+000	 4.461239566778473e+000
 6.014872746504577e-001	 1.046068068335276e+000	 4.280682800703428e+000
 5.901047843585173e-001	 1.052531108788160e+000	 4.114658975453851e+000
 7.050787202623076e-001	 9.874427064520092e-001	 6.151550931170144e+000
 6.942083867917818e-001	 9.951149807697939e-001	 5.955997688366329e+000
 6.832652233317688e-001	 1.002660345174838e+000	 5.757117866866154e+000
 6.722514302064664e-001	 1.010077810866886e+000	 5.556140494746629e+000
 6.611692243035184e-001	 1.017366439396360e+000	 5.353863542120906e+000
 6.500208376507992e-001	 1.024525342965033e+000	 5.149348828504826e+000
 6.388085159887688e-001	 1.031553684679011e+000	 4.945347033601256e+000
 6.275345173402185e-001	 1.038450678754095e+000	 4.745291760215856e+000
 6.162011105792423e-001	 1.045215590673622e+000	 4.552695857690114e+000
 6.048105740012429e-001	 1.051847737299039e+000	 4.371130196972816e+000
 5.933651938957493e-001	 1.058346486933445e+000	 4.204203011764951e+000
 7.089529707363904e-001	 9.928684841200918e-001	 6.245740773906966e+000
 6.980229072054152e-001	 1.000582915875723e+000	 6.049516978715515e+000
 6.870196135003641e-001	 1.008169740376953e+000	 5.849822826852064e+000
 6.759453020357341e-001	 1.015627963390292e+000	 5.647973715963701e+000
 6.648022018804798e-001	 1.022956641309593e+000	 5.445293238872342e+000
 6.535925573269784e-001	 1.030154881458374e+000	 5.240937049636941e+000
 6.423186264555412e-001	 1.037221842344201e+000	 5.036669903110078e+000
 6.309826796962978e-001	 1.044156733865162e+000	 4.836047648671912e+000
 6.195869983903091e-001	 1.050958817468596e+000	 4.642707384186989e+000
 6.081338733517085e-001	 1.057627406262252e+000	 4.460345429174327e+000
 5.966256034326836e-001	 1.064161865078198e+000	 4.292695890102680e+000
 7.128272212103395e-001	 9.982942617878406e-001	 6.337575413607805e+000
 7.018374276189108e-001	 1.006050850981300e+000	 6.140693833500857e+000
 6.907740036688120e-001	 1.013679135578703e+000	 5.940219198054537e+000
 6.796391738648413e-001	 1.021178115913322e+000	 5.737547554843867e+000
 6.684351794572643e-001	 1.028546843222441e+000	 5.534148889503250e+000
 6.571642770029660e-001	 1.035784419951326e+000	 5.330175609548867e+000
 6.458287369221077e-001	 1.042890000008998e+000	 5.125908787427922e+000
 6.344308420521626e-001	 1.049862788975838e+000	 4.924967773251352e+000
 6.229728862011571e-001	 1.056702044263178e+000	 4.731109288700965e+000
 6.114571727019600e-001	 1.063407075225076e+000	 4.548150435486425e+000
 5.998860129694195e-001	 1.069977243222568e+000	 4.379946476704117e+000
 7.167014716842219e-001	 1.003720039455422e+000	 6.427062548310275e+000
 7.056519480323378e-001	 1.011518786086701e+000	 6.229525380479462e+000
 6.945283938371861e-001	 1.019188530780268e+000	 6.028292331093232e+000
 6.833330456938668e-001	 1.026728268436161e+000	 5.824834488293824e+000
 6.720681570339605e-001	 1.034137045135093e+000	 5.620701315766873e+000
 6.607359966788565e-001	 1.041413958444078e+000	 5.416944202690510e+000
 6.493388473885715e-001	 1.048558157673590e+000	 5.212930569373317e+000
 6.378790044079199e-001	 1.055568844086303e+000	 5.011905804926579e+000
 6.263587740118961e-001	 1.062445271057544e+000	 4.817741812515414e+000
 6.147804720521048e-001	 1.069186744187677e+000	 4.634371989424506e+000
 6.031464225060558e-001	 1.075792621366704e+000	 4.465768215850483e+000
 7.205757221581045e-001	 1.009145817123005e+000	 6.514215200878747e+000
 7.094664684457646e-001	 1.016986721192101e+000	 6.316014143132135e+000
 6.982827840055605e-001	 1.024697925981833e+000	 6.114033057663666e+000
 6.870269175228931e-001	 1.032278420959000e+000	 5.909812571497943e+000
 6.757011346106565e-001	 1.039727247047741e+000	 5.704976180188649e+000
 6.643077163547475e-001	 1.047043496936819e+000	 5.501128701602251e+000
 6.528489578550352e-001	 1.054226315338164e+000	 5.297608011903953e+000
 6.413271667636771e-001	 1.061274899196738e+000	 5.096721004662953e+000
 6.297446618226349e-001	 1.068188497851865e+000	 4.902450504083233e+000
 6.181037714022498e-001	 1.074966413150215e+000	 4.718841895645116e+000
 6.064068320426922e-001	 1.081607999510756e+000	 4.549979313152959e+000
 7.244499726320537e-001	 1.014571594790753e+000	 6.599051678507704e+000
 7.132809888592606e-001	 1.022454656297678e+000	 6.400168001058820e+000
 7.020371741740088e-001	 1.030207321183580e+000	 6.197437651326053e+000
 6.907207893519997e-001	 1.037828573482023e+000	 5.992465398654501e+000
 6.793341121874413e-001	 1.045317448960573e+000	 5.786943431764340e+000
 6.678794360307346e-001	 1.052673035429740e+000	 5.582646160130578e+000
 6.563590683216020e-001	 1.059894473002906e+000	 5.379819990006627e+000
 6.447753291195421e-001	 1.066980954307326e+000	 5.179278443195762e+000
 6.331305496334834e-001	 1.073931724646318e+000	 4.985086426531864e+000
 6.214270707525015e-001	 1.080746082112855e+000	 4.801397185096531e+000
 6.096672415794278e-001	 1.087423377654871e+000	 4.632402918339942e+000
 7.283242231061368e-001	 1.019997372458836e+000	 6.681595530515669e+000
 7.170955092728941e-001	 1.027922591403607e+000	 6.482000148730487e+000
 7.057915643426040e-001	 1.035716716385692e+000	 6.278507786740542e+000
 6.944146611812675e-001	 1.043378726005417e+000	 6.072782062265564e+000
 6.829670897644029e-001	 1.050907650873778e+000	 5.866578623480844e+000
 6.714511557069139e-001	 1.058302573923028e+000	 5.661739794791543e+000
 6.598691787883746e-001	 1.065562630668003e+000	 5.459451721516519e+000
 6.482234914756222e-001	 1.072687009418248e+000	 5.259449219879159e+000
 6.365164374445500e-001	 1.079674951441073e+000	 5.065506364387604e+000
 6.247503701029669e-001	 1.086525751075758e+000	 4.881880309537435e+000
 6.129276511163623e-001	 1.093238755799201e+000	 4.712867307567121e+000
 7.321984735804198e-001	 1.025423150127420e+000	 6.761875504491407e+000
 7.209100296867333e-001	 1.033390526510062e+000	 6.561529052666773e+000
 7.095459545114207e-001	 1.041226111588351e+000	 6.357250497408922e+000
 6.981085330107774e-001	 1.048928878529372e+000	 6.150757111027541e+000
 6.866000673416297e-001	 1.056497852787547e+000	 5.943862869990868e+000
 6.750228753833824e-001	 1.063932112416875e+000	 5.738472956223768e+000
 6.633792892554562e-001	 1.071230788333643e+000	 5.536394996904056e+000
 6.516716538320250e-001	 1.078393064529686e+000	 5.337110680640038e+000
 6.399023252559447e-001	 1.085418178236306e+000	 5.143573029545122e+000
 6.280736694537525e-001	 1.092305420039088e+000	 4.960139335448235e+000
 6.161880606535946e-001	 1.099054133943893e+000	 4.791206065267316e+000
 7.360727240549704e-001	 1.030848927796671e+000	 6.839925500855872e+000
 7.247245501008481e-001	 1.038858461617221e+000	 6.638778407089271e+000
 7.133003446805322e-001	 1.046735506791741e+000	 6.433678131975812e+000
 7.018024048406094e-001	 1.054479031054074e+000	 6.226390506379288e+000
 6.902330449192106e-001	 1.062088054702070e+000	 6.018782804050279e+000
 6.785945950602358e-001	 1.069561650911468e+000	 5.812818109572583e+000
 6.668893997229497e-001	 1.076898946000012e+000	 5.610549049459996e+000
 6.551198161888586e-001	 1.084099119641821e+000	 5.412146635067554e+000
 6.432882130677762e-001	 1.091161405032191e+000	 5.219155266513965e+000
 6.313969688049654e-001	 1.098085089003007e+000	 5.036028137359589e+000
 6.194484701912242e-001	 1.104869512089097e+000	 4.867258265557206e+000
 5.868443748208878e-001	 1.046715730642193e+000	 4.024259309177952e+000
 5.754745107252709e-001	 1.053009622962143e+000	 3.865183086768707e+000
 5.640549614308797e-001	 1.059170528235776e+000	 3.702340750425694e+000
 5.525880029883279e-001	 1.065197975315034e+000	 3.537523467070097e+000
 5.410759137449159e-001	 1.071091543696645e+000	 3.372472836034870e+000
 5.295209729733791e-001	 1.076850863358325e+000	 3.208870012700015e+000
 5.179254595134631e-001	 1.082475614551749e+000	 3.048325831482973e+000
 5.062916504278681e-001	 1.087965527553038e+000	 2.892371973120269e+000
 4.946218196740463e-001	 1.093320382371615e+000	 2.742453211778982e+000
 4.829182367932998e-001	 1.098540008418292e+000	 2.599920768125563e+000
 4.711831656185745e-001	 1.103624284133538e+000	 2.466026785148008e+000
 5.901047843585173e-001	 1.052531108788160e+000	 4.114658975453851e+000
 5.786717511930367e-001	 1.058859968925060e+000	 3.954464816491322e+000
 5.671887567860980e-001	 1.065055103161805e+000	 3.790269000303606e+000
 5.556580898336716e-001	 1.071116037732701e+000	 3.623912163175624e+000
 5.440820413411763e-001	 1.077042349798221e+000	 3.457182960359877e+000
 5.324629032446050e-001	 1.082833667280287e+000	 3.291806789899298e+000
 5.208029670445573e-001	 1.088489668654092e+000	 3.129435556186332e+000
 5.091045224547135e-001	 1.094010082697206e+000	 2.971638519703228e+000
 4.973698560662537e-001	 1.099394688196809e+000	 2.819894269640840e+000
 4.856012500296730e-001	 1.104643313615936e+000	 2.675583846351384e+000
 4.738009807553952e-001	 1.109755836719682e+000	 2.539985030924554e+000
 5.933651938957493e-001	 1.058346486933445e+000	 4.204203011764955e+000
 5.818689916604579e-001	 1.064710314887335e+000	 4.043043711586976e+000
 5.703225521410431e-001	 1.070939678087233e+000	 3.877605301496292e+000
 5.587281766788282e-001	 1.077034100149815e+000	 3.709785330742422e+000
 5.470881689373441e-001	 1.082993155899291e+000	 3.541426882580387e+000
 5.354048335158376e-001	 1.088816471201787e+000	 3.374306874718640e+000
 5.236804745757573e-001	 1.094503722756014e+000	 3.210125441280090e+000
 5.119173944817583e-001	 1.100054637840989e+000	 3.050496444280489e+000
 5.001178924587446e-001	 1.105468994021645e+000	 2.896939152541864e+000
 4.882842632663986e-001	 1.110746618813241e+000	 2.750871115867617e+000
 4.764187958926178e-001	 1.115887389305492e+000	 2.613602252282293e+000
 5.966256034326836e-001	 1.064161865078198e+000	 4.292695890102685e+000
 5.850662321276202e-001	 1.070560660849099e+000	 4.130712350464072e+000
 5.734563474957833e-001	 1.076824253012177e+000	 3.964131932882244e+000
 5.617982635238441e-001	 1.082952162566470e+000	 3.794916499831015e+000
 5.500942965334423e-001	 1.088943961999928e+000	 3.624970886592290e+000
 5.383467637870756e-001	 1.094799275122880e+000	 3.456130754582199e+000
 5.265579821070365e-001	 1.100517776857554e+000	 3.290151569386695e+000
 5.147302665089530e-001	 1.106099192984409e+000	 3.128698753135731e+000
 5.028659288514479e-001	 1.111543299846135e+000	 2.973339050406782e+000
 4.909672765033884e-001	 1.116849924010210e+000	 2.825533136389839e+000
 4.790366110301419e-001	 1.122018941890968e+000	 2.686629485681189e+000
 5.998860129694195e-001	 1.069977243222568e+000	 4.379946476704117e+000
 5.882634725946107e-001	 1.076411006810486e+000	 4.217267452919860e+000
 5.765901428503867e-001	 1.082708827936749e+000	 4.049635042042041e+000
 5.648683503687664e-001	 1.088870224982760e+000	 3.879082780323691e+000
 5.531004241294943e-001	 1.094894768100207e+000	 3.707584534608487e+000
 5.412886940583167e-001	 1.100782079043621e+000	 3.537041884595253e+000
 5.294354896383688e-001	 1.106531830958747e+000	 3.369272674456271e+000
 5.175431385362471e-001	 1.112143748127488e+000	 3.206000785134710e+000
 5.056139652442926e-001	 1.117617605670288e+000	 3.048847167829106e+000
 4.936502897405545e-001	 1.122953229206843e+000	 2.899322168358054e+000
 4.816544261678670e-001	 1.128150494476111e+000	 2.758819161352915e+000
 6.031464225060558e-001	 1.075792621366704e+000	 4.465768215850483e+000
 5.914607130615146e-001	 1.082261352771629e+000	 4.302510051698552e+000
 5.797239382049221e-001	 1.088593402861064e+000	 4.133904805382899e+000
 5.679384372136416e-001	 1.094788287398780e+000	 3.962065011382488e+000
 5.561065517255234e-001	 1.100845574200203e+000	 3.789040806671590e+000
 5.442306243295598e-001	 1.106764882964066e+000	 3.616806817785212e+000
 5.323129971697274e-001	 1.112545885059633e+000	 3.447250263361421e+000
 5.203560105635914e-001	 1.118188303270249e+000	 3.282160325247305e+000
 5.083620016372082e-001	 1.123691911494114e+000	 3.123218830055715e+000
 4.963333029778085e-001	 1.129056534403145e+000	 2.971992271859430e+000
 4.842722413056925e-001	 1.134282047060920e+000	 2.829925195594636e+000
 6.064068320426922e-001	 1.081607999510756e+000	 4.549979313152959e+000
 5.946579535284186e-001	 1.088111698732658e+000	 4.386245663685196e+000
 5.828577335594574e-001	 1.094477977785235e+000	 4.216735588032680e+000
 5.710085240585168e-001	 1.100706349814624e+000	 4.043647910782124e+000
 5.591126793215522e-001	 1.106796380299988e+000	 3.869116240124416e+000
 5.471725546008029e-001	 1.112747686884270e+000	 3.695195335367690e+000
 5.351905047010859e-001	 1.118559939160247e+000	 3.523848737568692e+000
 5.231688825909353e-001	 1.124232858412713e+000	 3.356937718191890e+000
 5.111100380301239e-001	 1.129766217317624e+000	 3.196211589116272e+000
 4.990163162150625e-001	 1.135159839599118e+000	 3.043299405715716e+000
 4.868900564435181e-001	 1.140413599645397e+000	 2.899703083235009e+000
 6.096672415794278e-001	 1.087423377654871e+000	 4.632402918339942e+000
 5.978551939954088e-001	 1.093962044693708e+000	 4.468284460752473e+000
 5.859915289140609e-001	 1.100362552709378e+000	 4.297926103503102e+000
 5.740786109034388e-001	 1.106624412230385e+000	 4.123620224118372e+000
 5.621188069176043e-001	 1.112747186399639e+000	 3.947591069044267e+000
 5.501144848720442e-001	 1.118730490804286e+000	 3.771980577041860e+000
 5.380680122324182e-001	 1.124573993260627e+000	 3.598835514889830e+000
 5.259817546182297e-001	 1.130277413554903e+000	 3.430095982192748e+000
 5.138580744229687e-001	 1.135840523140828e+000	 3.267585330096443e+000
 5.016993294522284e-001	 1.141263144794765e+000	 3.113001526728102e+000
 4.895078715812429e-001	 1.146545152229540e+000	 2.967909990263934e+000
 6.129276511163623e-001	 1.093238755799201e+000	 4.712867307567121e+000
 6.010524344625714e-001	 1.099812390654911e+000	 4.548441440268504e+000
 5.891253242688013e-001	 1.106247127633605e+000	 4.377279573139769e+000
 5.771486977484548e-001	 1.112542474646159e+000	 4.201774873898876e+000
 5.651249345137026e-001	 1.118697992499229e+000	 4.024249363636823e+000
 5.530564151432820e-001	 1.124713294724171e+000	 3.846939171310320e+000
 5.409455197636974e-001	 1.130588047360811e+000	 3.671981151309187e+000
 5.287946266454241e-001	 1.136321968696841e+000	 3.501400922850138e+000
 5.166061108156720e-001	 1.141914828963736e+000	 3.337102377542146e+000
 5.043823426892181e-001	 1.147366449990088e+000	 3.180858689071301e+000
 4.921256867187671e-001	 1.152676704813351e+000	 3.034304846623846e+000
 6.161880606535946e-001	 1.099054133943893e+000	 4.791206065267316e+000
 6.042496749299927e-001	 1.105662736616400e+000	 4.626536595280902e+000
 5.922591196237464e-001	 1.112131702558031e+000	 4.454603885360836e+000
 5.802187845936114e-001	 1.118460537062040e+000	 4.277909108519325e+000
 5.681310621098703e-001	 1.124648798598832e+000	 4.098879169593860e+000
 5.559983454145147e-001	 1.130696098643979e+000	 3.919851365824673e+000
 5.438230272948973e-001	 1.136602101460835e+000	 3.743059462881322e+000
 5.316074986724690e-001	 1.142366523838548e+000	 3.570621247116848e+000
 5.193541472081625e-001	 1.147989134786358e+000	 3.404527602000087e+000
 5.070653559259435e-001	 1.153469755185090e+000	 3.246633143835733e+000
 4.947435018559895e-001	 1.158808257396830e+000	 3.098648439148171e+000
 6.194484701912242e-001	 1.104869512089097e+000	 4.867258265557206e+000
 6.074469153977586e-001	 1.111513082578307e+000	 4.702395084390406e+000
 5.953929149789650e-001	 1.118016277482769e+000	 4.529711754694967e+000
 5.832888714389555e-001	 1.124378599478121e+000	 4.351824651129592e+000
 5.711371897061307e-001	 1.130599604698523e+000	 4.171272647417847e+000
 5.589402756857406e-001	 1.136678902563766e+000	 3.990501157757046e+000
 5.467005348259916e-001	 1.142616155560737e+000	 3.811847647699321e+000
 5.344203706993144e-001	 1.148411078980047e+000	 3.637528677377508e+000
 5.221021836003700e-001	 1.154063440608706e+000	 3.469628526680701e+000
 5.097483691623167e-001	 1.159573060379774e+000	 3.310089438707184e+000
 4.973613169928101e-001	 1.164939809979976e+000	 3.160703504653549e+000
 4.711831656185745e-001	 1.103624284133538e+000	 2.466026785148008e+000
 4.594170961960175e-001	 1.108573868961468e+000	 2.336326507012143e+000
 4.476240367602246e-001	 1.113387965969144e+000	 2.206448693541470e+000
 4.358062280216104e-001	 1.118066598955774e+000	 2.077532208797740e+000
 4.239658999937963e-001	 1.122609838913262e+000	 1.950597790275291e+000
 4.121052708129413e-001	 1.127017803469615e+000	 1.826548548571459e+000
 4.002265455830573e-001	 1.131290656299120e+000	 1.706171512329413e+000
 3.883319152483020e-001	 1.135428606500521e+000	 1.590140176165780e+000
 3.764235554931850e-001	 1.139431907944475e+000	 1.479018002840438e+000
 3.645036256715677e-001	 1.143300858591557e+000	 1.373262825038677e+000
 3.525742677652601e-001	 1.147035799782149e+000	 1.273232086856785e+000
 4.738009807553952e-001	 1.109755836719682e+000	 2.539985030924554e+000
 4.619695410121816e-001	 1.114732920615915e+000	 2.408590380723345e+000
 4.501109613037128e-001	 1.119573763944086e+000	 2.276967436825619e+000
 4.382274947894187e-001	 1.124278390635644e+000	 2.146275070397729e+000
 4.263213838725058e-001	 1.128846872076933e+000	 2.017548878898442e+000
 4.143948590127299e-001	 1.133279326549498e+000	 1.891701721042214e+000
 4.024501375652947e-001	 1.137575918636991e+000	 1.769525338930067e+000
 3.904894226468796e-001	 1.141736858599893e+000	 1.651693023449570e+000
 3.785149020297368e-001	 1.145762401719342e+000	 1.538763272356880e+000
 3.665287470647387e-001	 1.149652847611347e+000	 1.431184384349676e+000
 3.545331116341912e-001	 1.153408539512741e+000	 1.329299926968654e+000
 4.764187958926178e-001	 1.115887389305492e+000	 2.613602252282293e+000
 4.645219858287748e-001	 1.120891972270021e+000	 2.480563756241068e+000
 4.525978858476362e-001	 1.125759561918668e+000	 2.347257938313906e+000
 4.406487615576510e-001	 1.130490182315132e+000	 2.214861918790239e+000
 4.286768677516142e-001	 1.135083905240194e+000	 2.084424237856627e+000
 4.166844472128812e-001	 1.139540849628946e+000	 1.956865429710440e+000
 4.046737295478510e-001	 1.143861180974407e+000	 1.832979726944501e+000
 3.926469300457279e-001	 1.148045110698799e+000	 1.713437849641534e+000
 3.806062485665093e-001	 1.152092895493742e+000	 1.598790826690686e+000
 3.685538684580829e-001	 1.156004836630688e+000	 1.489474790512881e+000
 3.564919555032524e-001	 1.159781279242920e+000	 1.385816680710964e+000
 4.790366110301419e-001	 1.122018941890968e+000	 2.686629485681184e+000
 4.670744306456894e-001	 1.127051023923789e+000	 2.551999161539079e+000
 4.550848103918862e-001	 1.131945359892904e+000	 2.417075218434110e+000
 4.430700283262014e-001	 1.136701973994260e+000	 2.283051297886439e+000
 4.310323516310217e-001	 1.141320938403083e+000	 2.150986989439002e+000
 4.189740354133045e-001	 1.145802372708010e+000	 2.021808447798340e+000
 4.068973215306461e-001	 1.150146443311432e+000	 1.896310184583757e+000
 3.948044374447789e-001	 1.154353362797313e+000	 1.775157987418156e+000
 3.826975951034476e-001	 1.158423389267759e+000	 1.658892911909412e+000
 3.705789898515568e-001	 1.162356825649666e+000	 1.547936285527203e+000
 3.584507993724112e-001	 1.166154018972769e+000	 1.442595656495464e+000
 4.816544261678670e-001	 1.128150494476111e+000	 2.758819161352915e+000
 4.696268754628187e-001	 1.133210075577222e+000	 2.622650221452882e+000
 4.575717349363537e-001	 1.138131157866803e+000	 2.486175108811660e+000
 4.454912950949637e-001	 1.142913765673050e+000	 2.350602288348742e+000
 4.333878355106287e-001	 1.147557971565633e+000	 2.217000529336817e+000
 4.212636236139090e-001	 1.152063895786738e+000	 2.086299569461799e+000
 4.091209135136008e-001	 1.156431705648128e+000	 1.959291999098288e+000
 3.969619448439651e-001	 1.160661614895509e+000	 1.836636316777556e+000
 3.847889416404962e-001	 1.164753883041476e+000	 1.718861099375025e+000
 3.726041112451171e-001	 1.168708814668366e+000	 1.606370223771941e+000
 3.604096432416351e-001	 1.172526758702372e+000	 1.499449070655365e+000
 4.842722413056925e-001	 1.134282047060920e+000	 2.829925195594636e+000
 4.721793202800552e-001	 1.139369127230325e+000	 2.692271743717842e+000
 4.600586594809300e-001	 1.144316955840377e+000	 2.554314332418962e+000
 4.479125618638321e-001	 1.149125557351524e+000	 2.417274582239472e+000
 4.357433193903352e-001	 1.153795004727881e+000	 2.282228596199534e+000
 4.235532118146043e-001	 1.158325418865181e+000	 2.150107674683761e+000
 4.113445054966349e-001	 1.162716967984557e+000	 2.021700297455756e+000
 3.991194522432189e-001	 1.166969866993460e+000	 1.897655321965656e+000
 3.868802881775998e-001	 1.171084376814971e+000	 1.778486339393697e+000
 3.746292326387208e-001	 1.175060803686873e+000	 1.664577122876583e+000
 3.623684871108915e-001	 1.178899498431811e+000	 1.556188096040576e+000
 4.868900564435181e-001	 1.140413599645397e+000	 2.899703083235009e+000
 4.747317650972915e-001	 1.145528178883100e+000	 2.760619805180760e+000
 4.625455840255062e-001	 1.150502753813638e+000	 2.621250583892940e+000
 4.503338286327004e-001	 1.155337349029706e+000	 2.482828557828835e+000
 4.380988032700417e-001	 1.160032037889863e+000	 2.346435341335888e+000
 4.258428000152994e-001	 1.164586941943386e+000	 2.213001794288358e+000
 4.135680974796693e-001	 1.169002230320782e+000	 2.083310107107802e+000
 4.012769596424727e-001	 1.173278119091240e+000	 1.957997148448802e+000
 3.889716347147036e-001	 1.177414870588328e+000	 1.837559014868819e+000
 3.766543540323243e-001	 1.181412792705272e+000	 1.722356714535330e+000
 3.643273309801479e-001	 1.185272238161169e+000	 1.612622910494951e+000
 4.895078715812429e-001	 1.146545152229540e+000	 2.967909990263929e+000
 4.772842099144207e-001	 1.151687230535551e+000	 2.827451838176275e+000
 4.650325085699736e-001	 1.156688551786596e+000	 2.686742610016433e+000
 4.527550954014628e-001	 1.161549140707617e+000	 2.547025354556377e+000
 4.404542871496485e-001	 1.166269071051613e+000	 2.409385398550549e+000
 4.281323882159039e-001	 1.170848465021405e+000	 2.274751175070728e+000
 4.157916894626238e-001	 1.175287492656865e+000	 2.143896416841483e+000
 4.034344670416590e-001	 1.179586371188922e+000	 2.017443659937430e+000
 3.910629812517523e-001	 1.183745364361628e+000	 1.895868994956932e+000
 3.786794754258847e-001	 1.187764781723647e+000	 1.779507995274412e+000
 3.662861748493719e-001	 1.191644977890528e+000	 1.668562745219996e+000
 4.921256867187671e-001	 1.152676704813351e+000	 3.034304846623846e+000
 4.798366547313354e-001	 1.157846282187681e+000	 2.892526717066485e+000
 4.675194331142233e-001	 1.162874349759263e+000	 2.750550290356534e+000
 4.551763621700131e-001	 1.167760932385280e+000	 2.609626948140056e+000
 4.428097710290558e-001	 1.172506104213168e+000	 2.470843954117034e+000
 4.304219764163272e-001	 1.177109988099284e+000	 2.335125345036563e+000
 4.180152814454191e-001	 1.181572754992868e+000	 2.203234237714925e+000
 4.055919744407099e-001	 1.185894623286580e+000	 2.075776495455789e+000
 3.931543277886905e-001	 1.190075858134952e+000	 1.953205688726581e+000
 3.807045968193585e-001	 1.194116770742085e+000	 1.835829277168563e+000
 3.682450187185307e-001	 1.198017717619970e+000	 1.723815933030218e+000
 4.947435018559895e-001	 1.158808257396830e+000	 3.098648439148171e+000
 4.823890995479283e-001	 1.164005333839493e+000	 2.955604844933168e+000
 4.700063576581465e-001	 1.169060147731649e+000	 2.812434718054427e+000
 4.575976289382453e-001	 1.173972724062717e+000	 2.670396225828991e+000
 4.451652549081642e-001	 1.178743137374562e+000	 2.530576816875043e+000
 4.327115646164784e-001	 1.183371511177076e+000	 2.393894178749791e+000
 4.202388734279750e-001	 1.187858017328854e+000	 2.261098664069659e+000
 4.077494818395579e-001	 1.192202875384287e+000	 2.132777126454324e+000
 3.952456743254628e-001	 1.196406351908383e+000	 2.009358098820611e+000
 3.827297182127025e-001	 1.200468759760668e+000	 1.891118238508954e+000
 3.702038625875918e-001	 1.204390457349580e+000	 1.778189956502617e+000
 4.973613169928101e-001	 1.164939809979976e+000	 3.160703504653549e+000
 4.849415443640922e-001	 1.170164385490992e+000	 3.016448240419650e+000
 4.724932822016347e-001	 1.175245945703767e+000	 2.872158280760921e+000
 4.600188957060533e-001	 1.180184515739950e+000	 2.729097061792994e+000
 4.475207387868734e-001	 1.184980170535832e+000	 2.588350488453152e+000
 4.350011528162667e-001	 1.189633034254827e+000	 2.450827962782879e+000
 4.224624654102122e-001	 1.194143279664885e+000	 2.317264934622640e+000
 4.099069892381355e-001	 1.198511127482119e+000	 2.188226913968362e+000
 3.973370208620145e-001	 1.202736845682000e+000	 2.064114875118271e+000
 3.847548396058734e-001	 1.206820748779484e+000	 1.945171974428899e+000
 3.721627064565229e-001	 1.210763197079439e+000	 1.831491496025323e+000
 3.525742677652601e-001	 1.147035799782149e+000	 1.273232086856785e+000
 3.406376052026061e-001	 1.150637115213137e+000	 1.177448931000551e+000
 3.286957413846450e-001	 1.154105229318470e+000	 1.084481649004255e+000
 3.167507592780232e-001	 1.157440607346606e+000	 9.946245917886990e-001
 3.048047206734029e-001	 1.160643754840250e+000	 9.080996860292703e-001
 2.928596653018194e-001	 1.163715216807882e+000	 8.250647358329639e-001
 2.809176099841100e-001	 1.166655576875311e+000	 7.456221312022916e-001
 2.689805478137873e-001	 1.169465456418633e+000	 6.698278844186874e-001
 2.570504473736705e-001	 1.172145513679984e+000	 5.977009152983936e-001
 2.451292519865291e-001	 1.174696442867462e+000	 5.292325066834741e-001
 2.332188789999302e-001	 1.177118973240590e+000	 4.643958525072375e-001
 3.545331116341912e-001	 1.153408539512741e+000	 1.329299926968654e+000
 3.425301309638525e-001	 1.157029863252174e+000	 1.231627411079922e+000
 3.305219201409053e-001	 1.160517245621667e+000	 1.136758417769996e+000
 3.185105737046082e-001	 1.163871154454500e+000	 1.045011481843916e+000
 3.064981649005862e-001	 1.167092098102068e+000	 9.566299565198871e-001
 2.944867447922767e-001	 1.170180624600808e+000	 8.717905808098917e-001
 2.824783414056346e-001	 1.173137320819037e+000	 7.906124729255650e-001
 2.704749589074650e-001	 1.175962811585093e+000	 7.131664680134302e-001
 2.584785768177021e-001	 1.178657758798178e+000	 6.394847183127563e-001
 2.464911492558900e-001	 1.181222860523273e+000	 5.695704742385455e-001
 2.345146042220564e-001	 1.183658850071527e+000	 5.034079658931685e-001
 3.564919555032524e-001	 1.159781279242920e+000	 1.385816680710964e+000
 3.444226567251935e-001	 1.163422611290857e+000	 1.286332537024949e+000
 3.323480988972307e-001	 1.166929261924586e+000	 1.189642397404024e+000
 3.202703881312339e-001	 1.170301701562208e+000	 1.096087538646771e+000
 3.081916091277884e-001	 1.173540441363803e+000	 1.005931150904609e+000
 2.961138242827327e-001	 1.176646032393761e+000	 9.193671819484753e-001
 2.840390728271373e-001	 1.179619064762902e+000	 8.365296273653035e-001
 2.719693700010984e-001	 1.182460166751805e+000	 7.575021820662037e-001
 2.599067062616637e-001	 1.185170003916729e+000	 6.823281682470688e-001
 2.478530465251502e-001	 1.187749278179539e+000	 6.110206553648214e-001
 2.358103294440449e-001	 1.190198726903006e+000	 5.435726887001215e-001
 3.584507993724112e-001	 1.166154018972769e+000	 1.442595656495464e+000
 3.463151824866052e-001	 1.169815359329259e+000	 1.341389375327794e+000
 3.341742776536050e-001	 1.173341278227287e+000	 1.242970702652995e+000
 3.220302025578900e-001	 1.176732248669769e+000	 1.147702162061457e+000
 3.098850533550046e-001	 1.179988784625471e+000	 1.055865133804442e+000
 2.977409037731876e-001	 1.183111440186731e+000	 9.676689874182805e-001
 2.855998042486236e-001	 1.186100808706870e+000	 8.832606808552966e-001
 2.734637810946988e-001	 1.188957521918704e+000	 8.027347384918189e-001
 2.613348357055730e-001	 1.191682249035549e+000	 7.261435201189362e-001
 2.492149437943350e-001	 1.194275695836146e+000	 6.535076934397812e-001
 2.371060546659301e-001	 1.196738603734890e+000	 5.848268236270663e-001
 3.604096432416351e-001	 1.172526758702372e+000	 1.499449070655365e+000
 3.482077082480642e-001	 1.176208107367455e+000	 1.396621711511860e+000
 3.360004564100119e-001	 1.179753294529828e+000	 1.296579001386641e+000
 3.237900169845663e-001	 1.183162795777225e+000	 1.199703161804562e+000
 3.115784975822304e-001	 1.186437127887090e+000	 1.106292058633007e+000
 2.993679832636415e-001	 1.189576847979709e+000	 1.016568634813990e+000
 2.871605356700990e-001	 1.192582552650905e+000	 9.306908308783964e-001
 2.749581921882768e-001	 1.195454877085726e+000	 8.487619024942801e-001
 2.627629651494472e-001	 1.198194494154544e+000	 7.708410440399655e-001
 2.505768410634696e-001	 1.200802113492981e+000	 6.969542275865572e-001
 2.384017798877464e-001	 1.203278480567044e+000	 6.271051677369010e-001
 3.623684871108915e-001	 1.178899498431811e+000	 1.556188096040576e+000
 3.501002340095467e-001	 1.182600855405517e+000	 1.451852096758566e+000
 3.378266351664351e-001	 1.186165310832270e+000	 1.350301559350758e+000
 3.255498314112528e-001	 1.189593342884613e+000	 1.251936800418692e+000
 3.132719418094607e-001	 1.192885471148674e+000	 1.157070408871040e+000
 3.009950627540954e-001	 1.196042255772686e+000	 1.065936990810005e+000
 2.887212670915688e-001	 1.199064296594971e+000	 9.787034241732162e-001
 2.764526032818441e-001	 1.201952232252809e+000	 8.954795291889066e-001
 2.641910945933040e-001	 1.204706739273630e+000	 8.163290604106449e-001
 2.519387383325791e-001	 1.207328531149930e+000	 7.412809264899347e-001
 2.396975051095284e-001	 1.209818357399334e+000	 6.703405449322125e-001
 3.643273309801479e-001	 1.185272238161169e+000	 1.612622910494951e+000
 3.519927597710295e-001	 1.188993603443521e+000	 1.506901894350677e+000
 3.396528139228582e-001	 1.192577327134670e+000	 1.403971284674548e+000
 3.273096458379391e-001	 1.196023889991973e+000	 1.304247835936227e+000
 3.149653860366912e-001	 1.199333814410241e+000	 1.208057038980369e+000
 3.026221422445491e-001	 1.202507663565654e+000	 1.115643190403248e+000
 2.902819985130387e-001	 1.205546040539032e+000	 1.027179994382944e+000
 2.779470143754111e-001	 1.208449587419890e+000	 9.427815997267076e-001
 2.656192240371608e-001	 1.211218984392715e+000	 8.625139745809792e-001
 2.533006356016885e-001	 1.213854948806878e+000	 7.864065216465228e-001
 2.409932303313104e-001	 1.216358234231624e+000	 7.144638378397107e-001
 3.662861748493719e-001	 1.191644977890528e+000	 1.668562745219996e+000
 3.538852855324884e-001	 1.195386351481539e+000	 1.561591325935057e+000
 3.414789926792650e-001	 1.198989343437087e+000	 1.457419772137435e+000
 3.290694602646153e-001	 1.202454437099344e+000	 1.356479564249329e+000
 3.166588302639168e-001	 1.205782157671807e+000	 1.259107214966168e+000
 3.042492217350033e-001	 1.208973071358602e+000	 1.165554675759254e+000
 2.918427299345140e-001	 1.212027784483051e+000	 1.076000299265383e+000
 2.794414254689893e-001	 1.214946942586906e+000	 9.905602569391362e-001
 2.670473534810350e-001	 1.217731229511709e+000	 9.093003109969149e-001
 2.546625328708231e-001	 1.220381366463713e+000	 8.322478400715957e-001
 2.422889555531268e-001	 1.222898111063778e+000	 7.594040191269740e-001
 3.682450187185307e-001	 1.198017717619970e+000	 1.723815933030218e+000
 3.557778112939002e-001	 1.201779099519646e+000	 1.615739517615309e+000
 3.433051714356394e-001	 1.205401359739581e+000	 1.510477347206213e+000
 3.308292746912714e-001	 1.208884984206768e+000	 1.408473861193432e+000
 3.183522744911331e-001	 1.212230500933388e+000	 1.310074654605833e+000
 3.058763012254581e-001	 1.215438479151522e+000	 1.215537234675433e+000
 2.934034613560003e-001	 1.218509528426993e+000	 1.125042357474666e+000
 2.809358365625896e-001	 1.221444297753793e+000	 1.038705840520919e+000
 2.684754829249443e-001	 1.224243474630525e+000	 9.565907468523172e-001
 2.560244301400080e-001	 1.226907784120320e+000	 8.787198364817748e-001
 2.435846807750120e-001	 1.229437987895662e+000	 8.050881822698139e-001
 3.702038625875918e-001	 1.204390457349580e+000	 1.778189956502617e+000
 3.576703370552410e-001	 1.208171847557914e+000	 1.669164545879339e+000
 3.451313501919650e-001	 1.211813376042211e+000	 1.562973109850147e+000
 3.325890891178971e-001	 1.215315531314283e+000	 1.460071224356386e+000
 3.200457187183353e-001	 1.218678844195001e+000	 1.360811567354151e+000
 3.075033807159139e-001	 1.221903886944404e+000	 1.265455038677939e+000
 2.949641927775030e-001	 1.224991272370823e+000	 1.174182484939473e+000
 2.824302476562230e-001	 1.227941652920489e+000	 1.087106921766934e+000
 2.699036123689059e-001	 1.230755719749071e+000	 1.004286145263949e+000
 2.573863274092683e-001	 1.233434201776585e+000	 9.257356249744537e-001
 2.448804059970006e-001	 1.235977864727140e+000	 8.514415717960246e-001
 3.721627064565229e-001	 1.210763197079439e+000	 1.831491496025323e+000
 3.595628628164873e-001	 1.214564595596418e+000	 1.721683483365854e+000
 3.469575289482251e-001	 1.218225392345035e+000	 1.614734978140687e+000
 3.343489035444823e-001	 1.221746078421927e+000	 1.511110814623853e+000
 3.217391629455186e-001	 1.225127187456663e+000	 1.411168693936843e+000
 3.091304602063712e-001	 1.228369294737240e+000	 1.315170680761971e+000
 2.965249241990276e-001	 1.231473016314503e+000	 1.223295330843940e+000
 2.839246587499008e-001	 1.234439008086931e+000	 1.135650337884080e+000
 2.713317418129375e-001	 1.237267964867259e+000	 1.052285587987434e+000
 2.587482246786292e-001	 1.239960619432395e+000	 9.732065102206966e-001
 2.461761312191269e-001	 1.242517741558077e+000	 8.983876130172855e-001
 2.332188789999302e-001	 1.177118973240590e+000	 4.643958525072398e-001
 2.213230021627496e-001	 1.179413533665163e+000	 4.035051606809535e-001
 2.094416944440826e-001	 1.181581294153850e+000	 3.466920718851717e-001
 1.975767878414401e-001	 1.183623084116445e+000	 2.936860679960268e-001
 1.857300859390157e-001	 1.185539764203235e+000	 2.442369389953825e-001
 1.739033633652391e-001	 1.187332225339542e+000	 1.981239359661525e-001
 1.620983652844263e-001	 1.189001387753761e+000	 1.551645928262165e-001
 1.503168069223521e-001	 1.190548200000185e+000	 1.152231589880533e-001
 1.385603731255183e-001	 1.191973637977820e+000	 7.821858941773739e-002
 1.268307179538430e-001	 1.193278703946419e+000	 4.413204308010819e-002
 1.151294643064635e-001	 1.194464425540913e+000	 1.301384545860502e-002
 2.345146042220564e-001	 1.183658850071527e+000	 5.034079658931688e-001
 2.225526358758121e-001	 1.185966158691430e+000	 4.413045265252542e-001
 2.106053175916603e-001	 1.188145962896061e+000	 3.833736290332205e-001
 1.986744915453892e-001	 1.190199096703295e+000	 3.293389875321384e-001
 1.867619713416105e-001	 1.192126425545067e+000	 2.789450017928516e-001
 1.748695414682985e-001	 1.193928845296552e+000	 2.319662710016321e-001
 1.629989567856155e-001	 1.195607281298800e+000	 1.882167677770127e-001
 1.511519420488499e-001	 1.197162687376130e+000	 1.475586123701847e-001
 1.393301914652341e-001	 1.198596044849500e+000	 1.099103913933051e-001
 1.275353682843719e-001	 1.199908361547070e+000	 7.525497009116311e-002
 1.157691044219621e-001	 1.201100670813155e+000	 4.364675202934813e-002
 2.358103294440449e-001	 1.190198726903006e+000	 5.435726887001192e-001
 2.237822695886924e-001	 1.192518783718310e+000	 4.802811910648194e-001
 2.117689407390044e-001	 1.194710631638938e+000	 4.212406409328572e-001
 1.997721952490489e-001	 1.196775109290849e+000	 3.661707326400909e-001
 1.877938567438564e-001	 1.198713086887629e+000	 3.148121851836331e-001
 1.758357195709473e-001	 1.200525465254301e+000	 2.669366245589191e-001
 1.638995482863325e-001	 1.202213174844571e+000	 2.223561178834729e-001
 1.519870771748143e-001	 1.203777174752788e+000	 1.809322969002238e-001
 1.401000098043579e-001	 1.205218451721859e+000	 1.425850130215950e-001
 1.282400186142539e-001	 1.206538019148351e+000	 1.073004708955093e-001
 1.164087445367640e-001	 1.207736916085966e+000	 7.513879249288845e-002
 2.371060546659301e-001	 1.196738603734890e+000	 5.848268236270686e-001
 2.250119033014359e-001	 1.199071408745647e+000	 5.203840816457827e-001
 2.129325638861733e-001	 1.201275300382315e+000	 4.602542755883227e-001
 2.008698989524904e-001	 1.203351121878933e+000	 4.041546809944008e-001
 1.888257421458385e-001	 1.205299748230736e+000	 3.518238982405863e-001
 1.768018976732843e-001	 1.207122085212600e+000	 3.030321116671841e-001
 1.648001397866881e-001	 1.208819068390886e+000	 2.575909920299963e-001
 1.528222123003677e-001	 1.210391662129970e+000	 2.153631774628797e-001
 1.408698281430211e-001	 1.211840858594711e+000	 1.762712728674201e-001
 1.289446689436271e-001	 1.213167676750082e+000	 1.403063126114407e-001
 1.170483846510113e-001	 1.214373161359173e+000	 1.075356366099380e-001
 2.384017798877464e-001	 1.203278480567044e+000	 6.271051677369010e-001
 2.262415370140882e-001	 1.205624033773291e+000	 5.615601297037175e-001
 2.140961870332250e-001	 1.207839969126025e+000	 5.003737200156135e-001
 2.019676026557856e-001	 1.209927134467368e+000	 4.432622498583694e-001
 1.898576275476419e-001	 1.211886409574204e+000	 3.899636162592939e-001
 1.777680757754081e-001	 1.213718705171260e+000	 3.402479466290169e-001
 1.657007312867935e-001	 1.215424961937553e+000	 2.939278781608099e-001
 1.536573474256321e-001	 1.217006149507486e+000	 2.508684048072813e-001
 1.416396464813552e-001	 1.218463265467869e+000	 2.109962294281476e-001
 1.296493192726302e-001	 1.219797334352083e+000	 1.743085638411128e-001
 1.176880247648463e-001	 1.221009406632600e+000	 1.408813248554570e-001
 2.396975051095284e-001	 1.209818357399334e+000	 6.703405449322125e-001
 2.274711707266947e-001	 1.212176658801087e+000	 6.037543020894789e-001
 2.152598101802175e-001	 1.214404637869900e+000	 5.415562107349731e-001
 2.030653063590058e-001	 1.216503147055976e+000	 4.834629260042775e-001
 1.908895129493518e-001	 1.218473070917847e+000	 4.292129103218858e-001
 1.787342538774169e-001	 1.220315325130092e+000	 3.785774723923529e-001
 1.666013227867598e-001	 1.222030855484382e+000	 3.313714325748209e-001
 1.544924825507298e-001	 1.223620636885147e+000	 2.874633448257846e-001
 1.424094648194919e-001	 1.225085672341149e+000	 2.467852104133596e-001
 1.303539696014012e-001	 1.226426991954170e+000	 2.093416239177322e-001
 1.183276648784110e-001	 1.227645651906074e+000	 1.752182975498336e-001
 2.409932303313104e-001	 1.216358234231624e+000	 7.144638378397107e-001
 2.287008044393011e-001	 1.218729283828884e+000	 6.469096317799451e-001
 2.164234333272090e-001	 1.220969306613775e+000	 5.837570636154966e-001
 2.041630100622224e-001	 1.223079159644581e+000	 5.247242949543419e-001
 1.919213983510534e-001	 1.225059732261483e+000	 4.695514761470228e-001
 1.797004319794096e-001	 1.226911945088909e+000	 4.180121891733831e-001
 1.675019142866981e-001	 1.228636749031183e+000	 3.699245084361059e-001
 1.553276176757833e-001	 1.230235124262765e+000	 3.251616070214425e-001
 1.431792831575625e-001	 1.231708079214361e+000	 2.836618411861014e-001
 1.310586199300785e-001	 1.233056649556165e+000	 2.454382512920242e-001
 1.189673049918478e-001	 1.234281897179420e+000	 2.105874231130474e-001
 2.422889555531268e-001	 1.222898111063778e+000	 7.594040191269740e-001
 2.299304381519530e-001	 1.225281908856527e+000	 6.909672479936229e-001
 2.175870564742576e-001	 1.227533975357481e+000	 6.269297030972094e-001
 2.052607137655070e-001	 1.229655172233005e+000	 5.670120695691256e-001
 1.929532837528318e-001	 1.231646393604925e+000	 5.109571622527511e-001
 1.806666100814845e-001	 1.233508565047521e+000	 4.585417823595850e-001
 1.684025057867195e-001	 1.235242642577766e+000	 4.095881835326894e-001
 1.561627528009146e-001	 1.236849611640148e+000	 3.639750721916500e-001
 1.439491014956988e-001	 1.238330486087322e+000	 3.216480723956868e-001
 1.317632702588006e-001	 1.239686307157884e+000	 2.826295910868836e-001
 1.196069451052988e-001	 1.240918142452463e+000	 2.470280254738031e-001
 2.435846807750120e-001	 1.229437987895662e+000	 8.050881822698139e-001
 2.311600718646959e-001	 1.231834533883864e+000	 7.358664057358461e-001
 2.187506796214213e-001	 1.234098644100853e+000	 6.710256908149315e-001
 2.063584174689311e-001	 1.236231184821071e+000	 6.102901180031114e-001
 1.939851691547721e-001	 1.238233054947990e+000	 5.534059974581210e-001
 1.816327881837402e-001	 1.240105185005738e+000	 5.001541497185473e-001
 1.693030972869350e-001	 1.241848536123940e+000	 4.503617873110827e-001
 1.569978879262462e-001	 1.243464099017107e+000	 4.039139193597613e-001
 1.447189198340320e-001	 1.244952892959844e+000	 3.607642068305878e-001
 1.324679205877057e-001	 1.246315964759147e+000	 3.209452018566275e-001
 1.202465852189061e-001	 1.247554387725030e+000	 2.845779106636228e-001
 2.448804059970006e-001	 1.235977864727140e+000	 8.514415717960246e-001
 2.323897055775752e-001	 1.238387158910742e+000	 7.815445147943053e-001
 2.199143027687582e-001	 1.240663312843723e+000	 7.159947536445452e-001
 2.074561211725660e-001	 1.242807197408601e+000	 6.545204910571947e-001
 1.950170545569596e-001	 1.244819716290493e+000	 5.968722177472617e-001
 1.825989662862753e-001	 1.246701804963373e+000	 5.428354279382647e-001
 1.702036887874558e-001	 1.248454429669516e+000	 4.922429272124804e-001
 1.578330230519001e-001	 1.250078586393454e+000	 4.449866519801184e-001
 1.454887381726939e-001	 1.251575299831740e+000	 4.010289255232297e-001
 1.331725709169322e-001	 1.252945622359772e+000	 3.604130815719261e-001
 1.208862253328119e-001	 1.254190632996945e+000	 3.232733926307028e-001
 2.461761312191269e-001	 1.242517741558077e+000	 8.983876130172855e-001
 2.336193392906366e-001	 1.244939783937008e+000	 8.279371682037278e-001
 2.210779259163265e-001	 1.247227981585924e+000	 7.617848111930741e-001
 2.085538248764833e-001	 1.249383209995418e+000	 6.996634489455172e-001
 1.960489399594793e-001	 1.251406377632249e+000	 6.413282925201007e-001
 1.835651443891883e-001	 1.253298424920236e+000	 5.865700185249548e-001
 1.711042802883929e-001	 1.255060323214301e+000	 5.352275143369462e-001
 1.586681581779989e-001	 1.256693073768999e+000	 4.872001234456766e-001
 1.462585565118158e-001	 1.258197706702826e+000	 4.424593131323623e-001
 1.338772212466184e-001	 1.259575279959579e+000	 4.010596928697444e-001
 1.215258654471585e-001	 1.260826878268034e+000	 3.631493182971298e-001
 1.151294643064635e-001	 1.194464425540913e+000	 1.301384545860502e-002
 1.034564591055369e-001	 1.195532006134985e+000	-1.462986879610358e-002
 9.181504023273319e-002	 1.196482335047633e+000	-3.866728382729586e-002
 8.020675932168628e-002	 1.197316510895122e+000	-5.949495911503661e-002
 6.863313492787490e-002	 1.198035653759429e+000	-7.740932999070266e-002
 5.709565231767782e-002	 1.198640904201028e+000	-9.260239197587243e-002
 4.559576328859526e-002	 1.199133422276893e+000	-1.051581111294719e-001
 3.413488602003709e-002	 1.199514386564678e+000	-1.150495700326224e-001
 2.271440495405443e-002	 1.199784993194003e+000	-1.221368541781947e-001
 1.133567070536557e-002	 1.199946454885717e+000	-1.261656788241500e-001
 0.000000000000000e+000	 1.200000000000000e+000	-1.267681142284522e-001
 1.157691044219621e-001	 1.201100670813155e+000	 4.364675202934813e-002
 1.040312459496887e-001	 1.202174182707194e+000	 1.559149215688528e-002
 9.232514929392774e-002	 1.203129791489081e+000	-8.794778388436165e-003
 8.065237470892070e-002	 1.203968601878787e+000	-2.992314224293958e-002
 6.901444918697729e-002	 1.204691740181260e+000	-4.810067949421320e-002
 5.741286624635846e-002	 1.205300353293715e+000	-6.352592526012804e-002
 4.584908575049953e-002	 1.205795607718194e+000	-7.628507928683879e-002
 3.432453375796898e-002	 1.206178688580310e+000	-8.634897782021536e-002
 2.284060240253756e-002	 1.206450798655162e+000	-9.357083296435598e-002
 1.139864980270439e-002	 1.206613157401256e+000	-9.768473986011381e-002
 0.000000000000000e+000	 1.206667000003317e+000	-9.830613093934387e-002
 1.164087445367640e-001	 1.207736916085966e+000	 7.513879249288845e-002
 1.046060327931011e-001	 1.208816359279900e+000	 4.660737400713248e-002
 9.283525835435209e-002	 1.209777247930941e+000	 2.180906091043932e-002
 8.109799009537087e-002	 1.210620692862776e+000	 3.207650027375991e-004
 6.939576344530311e-002	 1.211347826603324e+000	-1.817267799753429e-002
 5.773008017429712e-002	 1.211959802386552e+000	-3.387373513284941e-002
 4.610240821172797e-002	 1.212457793159563e+000	-4.686818139318151e-002
 3.451418149532765e-002	 1.212842990595942e+000	-5.712189430342236e-002
 2.296679985059128e-002	 1.213116604116268e+000	-6.447844359518655e-002
 1.146162889980336e-002	 1.213279859916706e+000	-6.865747658347564e-002
 0.000000000000000e+000	 1.213334000006534e+000	-6.925491513227552e-002
 1.170483846510113e-001	 1.214373161359173e+000	 1.075356366099380e-001
 1.051808196359169e-001	 1.215458535852934e+000	 7.847032181259915e-002
 9.334536741414588e-002	 1.216424704373055e+000	 5.320263659750548e-002
 8.154360548117007e-002	 1.217272783846940e+000	 3.129985773822425e-002
 6.977707770297609e-002	 1.218003913025485e+000	 1.244115356325367e-002
 5.804729410160458e-002	 1.218619251479407e+000	-3.577407389040749e-003
 4.635573067237538e-002	 1.219119978600882e+000	-1.683865319348154e-002
 3.470382923218876e-002	 1.219507292611463e+000	-2.730092240534738e-002
 2.309299729826899e-002	 1.219782409577216e+000	-3.479550113946617e-002
 1.152460799669064e-002	 1.219946562431969e+000	-3.902488429163197e-002
 0.000000000000000e+000	 1.220001000009551e+000	-3.956272829329220e-002
 1.176880247648463e-001	 1.221009406632600e+000	 1.408813248554570e-001
 1.057556064782786e-001	 1.222100712426131e+000	 1.112313250490083e-001
 9.385547647344883e-002	 1.223072160815268e+000	 8.544287075533755e-002
 8.198922086645168e-002	 1.223924874831135e+000	 6.307582766371335e-002
 7.015839196011997e-002	 1.224659999447606e+000	 4.380597020437529e-002
 5.836450802839169e-002	 1.225278700572155e+000	 2.743023028302235e-002
 4.660905313253656e-002	 1.225782164042033e+000	 1.387111305827124e-002
 3.489347696862794e-002	 1.226171594626763e+000	 3.180267504793307e-003
 2.321919474562407e-002	 1.226448215037900e+000	-4.458794920178676e-003
 1.158758709339438e-002	 1.226613264946940e+000	-8.728834754418276e-003
 0.000000000000000e+000	 1.226668000012267e+000	-9.178605495674123e-003
 1.183276648784110e-001	 1.227645651906074e+000	 1.752182975498336e-001
 1.063303933203289e-001	 1.228742888999325e+000	 1.449398465847767e-001
 9.436558553240053e-002	 1.229719617257423e+000	 1.185852338384631e-001
 8.243483625134901e-002	 1.230576965815211e+000	 9.570899166288305e-002
 7.053970621685841e-002	 1.231316085869550e+000	 7.598563116597543e-002
 5.868172195476935e-002	 1.231938149664668e+000	 5.921513607664715e-002
 4.686237559230626e-002	 1.232444349482895e+000	 4.532759565618961e-002
 3.508312470472078e-002	 1.232835896641730e+000	 3.438696367240828e-002
 2.334539219270992e-002	 1.233114020498216e+000	 2.659393622384312e-002
 1.165056618994276e-002	 1.233279967461519e+000	 2.228794682372986e-002
 0.000000000000000e+000	 1.233335000014584e+000	 2.194766550720461e-002
 1.189673049918478e-001	 1.234281897179420e+000	 2.105874231130474e-001
 1.069051801622104e-001	 1.235385065572350e+000	 1.796438507668398e-001
 9.487569459114074e-002	 1.236367073699361e+000	 1.526837725927988e-001
 8.288045163599542e-002	 1.237229056799023e+000	 1.292583195049366e-001
 7.092102047331518e-002	 1.237972172291179e+000	 1.090427272866652e-001
 5.899893588084834e-002	 1.238597598756819e+000	 9.184208095382436e-002
 4.711569805177934e-002	 1.239106534923351e+000	 7.759616962860361e-002
 3.527277244054292e-002	 1.239500198656252e+000	 6.638343818167738e-002
 2.347158963957991e-002	 1.239779825958058e+000	 5.842402788136247e-002
 1.171354528636394e-002	 1.239946669975606e+000	 5.408190409829521e-002
 0.000000000000000e+000	 1.240002000016401e+000	 5.386556451416373e-002
 1.196069451052988e-001	 1.240918142452463e+000	 2.470280254738031e-001
 1.074799670040658e-001	 1.242027242145039e+000	 2.153898306518291e-001
 9.538580364980913e-002	 1.243014530140927e+000	 1.877911371133262e-001
 8.332606702052425e-002	 1.243881147782423e+000	 1.637814606783807e-001
 7.130233472961396e-002	 1.244628258712357e+000	 1.430386075131959e-001
 5.931614980673955e-002	 1.245257047848480e+000	 1.253746746791093e-001
 4.736902051105052e-002	 1.245768720363282e+000	 1.107411320916697e-001
 3.546242017616995e-002	 1.246164500670219e+000	 9.923297137060823e-002
 2.359778708628747e-002	 1.246445631417321e+000	 9.109191324282272e-002
 1.177652438268608e-002	 1.246613372489098e+000	 8.670867116546370e-002
 0.000000000000000e+000	 1.246669000017617e+000	 8.662385845983045e-002
 1.202465852189061e-001	 1.247554387725030e+000	 2.845779106636230e-001
 1.080547538460377e-001	 1.248669418717227e+000	 2.522228344134561e-001
 9.589591270854529e-002	 1.249661986581963e+000	 2.239586070704245e-001
 8.377168240506883e-002	 1.250533238765264e+000	 1.993347703915465e-001
 7.168364898587848e-002	 1.251284345132945e+000	 1.780334045814701e-001
 5.963336373255377e-002	 1.251916496939524e+000	 1.598753910319208e-001
 4.762234297021464e-002	 1.252430905802570e+000	 1.448257267966427e-001
 3.565206791167753e-002	 1.252828802683519e+000	 1.329978754704723e-001
 2.372398453288595e-002	 1.253111436875899e+000	 1.246571455367363e-001
 1.183950347893734e-002	 1.253280075001894e+000	 1.202230934528079e-001
 0.000000000000000e+000	 1.253336000018134e+000	 1.202706203730837e-001
 1.208862253328119e-001	 1.254190632996945e+000	 3.232733926307028e-001
 1.086295406882688e-001	 1.255311595288746e+000	 2.901864909563851e-001
 9.640602176748894e-002	 1.256309443022313e+000	 2.612361171353448e-001
 8.421729778976253e-002	 1.257185329747398e+000	 2.359733347703318e-001
 7.206496324223245e-002	 1.257940431552808e+000	 2.140860598932667e-001
 5.995057765840191e-002	 1.258575946029822e+000	 1.954055922254863e-001
 4.787566542936647e-002	 1.259093091241094e+000	 1.799121679037432e-001
 3.584171564714124e-002	 1.259493104696042e+000	 1.677395174960999e-001
 2.385018197942875e-002	 1.259777242333688e+000	 1.591784197537226e-001
 1.190248257514589e-002	 1.259946777513892e+000	 1.546792479474690e-001
 0.000000000000000e+000	 1.260003000017850e+000	 1.548532477332179e-001
 1.215258654471585e-001	 1.260826878268034e+000	 3.631493182971298e-001
 1.092043275309017e-001	 1.261953771859433e+000	 3.293230347670150e-001
 9.691613082677979e-002	 1.262956899461820e+000	 2.996722816358721e-001
 8.466291317473867e-002	 1.263837420728680e+000	 2.737509952818333e-001
 7.244627749879956e-002	 1.264596517971808e+000	 2.512543476242002e-001
 6.026779158439477e-002	 1.265235395119248e+000	 2.320255525655476e-001
 4.812898788860080e-002	 1.265755276678738e+000	 2.160616630090934e-001
 3.603136338263674e-002	 1.266157406707675e+000	 2.035183414158083e-001
 2.397637942596927e-002	 1.266443047790582e+000	 1.947135936859951e-001
 1.196546167133989e-002	 1.266613480024992e+000	 1.901304627856864e-001
 0.000000000000000e+000	 1.266670000016666e+000	 1.904184802468786e-001
 1.266670000016666e+000	 0.000000000000000e+000	 1.805151674507073e+001
 1.266613480024992e+000	 1.196546167133993e-002	 1.803822457618879e+001
 1.266443047790582e+000	 2.397637942596935e-002	 1.802807903698035e+001
 1.266157406707675e+000	 3.603136338263665e-002	 1.801966686108686e+001
 1.265755276678737e+000	 4.812898788860075e-002	 1.801161285219305e+001
 1.265235395119249e+000	 6.026779158439477e-002	 1.800258231618770e+001
 1.264596517971808e+000	 7.244627749879959e-002	 1.799128372388791e+001
 1.263837420728680e+000	 8.466291317473874e-002	 1.797647155535701e+001
 1.262956899461820e+000	 9.691613082677968e-002	 1.795694933350898e+001
 1.261953771859432e+000	 1.092043275309016e-001	 1.793157285319088e+001
 1.260826878268034e+000	 1.215258654471585e-001	 1.789925361024431e+001
 1.273336000014533e+000	 0.000000000000000e+000	 1.791340145327240e+001
 1.273279182579763e+000	 1.202843132115452e-002	 1.790057978920574e+001
 1.273107853425699e+000	 2.410255794388701e-002	 1.789085508468874e+001
 1.272820709123039e+000	 3.622098267249431e-002	 1.788284184963921e+001
 1.272416462837583e+000	 4.838227235153148e-002	 1.787519200034132e+001
 1.271893845340308e+000	 6.058495793091617e-002	 1.786659721797732e+001
 1.271251606026819e+000	 7.282753456140230e-002	 1.785579152989835e+001
 1.270488513945260e+000	 8.510846172113706e-002	 1.784155408145315e+001
 1.269603358831772e+000	 9.742616337399153e-002	 1.782271210686977e+001
 1.268594952152506e+000	 1.097790281603267e-001	 1.779814410614555e+001
 1.267462128151162e+000	 1.221654096208289e-001	 1.776678323315719e+001
 1.280002000011600e+000	 0.000000000000000e+000	 1.777884226756592e+001
 1.279944885133735e+000	 1.209140097100544e-002	 1.776652802020464e+001
 1.279772659060017e+000	 2.422873646188870e-002	 1.775724772344763e+001
 1.279484011537602e+000	 3.641060196249200e-002	 1.774964554727340e+001
 1.279077648995626e+000	 4.863555681466329e-002	 1.774240240421838e+001
 1.278552295560567e+000	 6.090212427770170e-002	 1.773423822706791e+001
 1.277906694081026e+000	 7.320879162433074e-002	 1.772391446536743e+001
 1.277139607161034e+000	 8.555401026791813e-002	 1.771023678173665e+001
 1.276249818200917e+000	 9.793619592163502e-002	 1.769205795731336e+001
 1.275236132444767e+000	 1.103537287902210e-001	 1.766828101406982e+001
 1.274097378033473e+000	 1.228049537949910e-001	 1.763786255995039e+001
 1.286668000008066e+000	 0.000000000000000e+000	 1.764768903572017e+001
 1.286610587687107e+000	 1.215437062091539e-002	 1.763591341783014e+001
 1.286437464693734e+000	 2.435491498000737e-002	 1.762709681748052e+001
 1.286147313951564e+000	 3.660022125266233e-002	 1.761991496813115e+001
 1.285738835153068e+000	 4.888884127802010e-002	 1.761307967804411e+001
 1.285210745780221e+000	 6.121929062475997e-002	 1.760534102036304e+001
 1.284561782134628e+000	 7.359004868757393e-002	 1.759548974144721e+001
 1.283790700376198e+000	 8.599955881504895e-002	 1.758235987854553e+001
 1.282896277569445e+000	 9.844622846965515e-002	 1.756483159699643e+001
 1.281877312736405e+000	 1.109284294205094e-001	 1.754183425551179e+001
 1.280732627915153e+000	 1.234444979695540e-001	 1.751234970625544e+001
 1.293334000004133e+000	 0.000000000000000e+000	 1.751979724258349e+001
 1.293276290240078e+000	 1.221734027090708e-002	 1.750858520348088e+001
 1.293102270327051e+000	 2.448109349827594e-002	 1.750024674592676e+001
 1.292810616365125e+000	 3.678984054303802e-002	 1.749349109033920e+001
 1.292400021310106e+000	 4.914212574162577e-002	 1.748706285641036e+001
 1.291869195999470e+000	 6.153645697209958e-002	 1.747974415921086e+001
 1.291216870187819e+000	 7.397130575112082e-002	 1.747035692581660e+001
 1.290441793590945e+000	 8.644510736249655e-002	 1.745776543111417e+001
 1.289542736937548e+000	 9.895626101799682e-002	 1.744087906386038e+001
 1.288518493027608e+000	 1.115031300511167e-001	 1.741865533239525e+001
 1.287367877796385e+000	 1.240840421444269e-001	 1.739010311750772e+001
 1.300000000000000e+000	 0.000000000000000e+000	 1.739502786555818e+001
 1.299941992792850e+000	 1.228030992100324e-002	 1.738439753459584e+001
 1.299767075960168e+000	 2.460727201672739e-002	 1.737654627451438e+001
 1.299473918778485e+000	 3.697945983365172e-002	 1.737021873663726e+001
 1.299061207466941e+000	 4.939541020550416e-002	 1.736419428442953e+001
 1.298527646218511e+000	 6.185362331972914e-002	 1.735728898963498e+001
 1.297871958240795e+000	 7.435256281496032e-002	 1.734835785355048e+001
 1.297092886805471e+000	 8.689065591022803e-002	 1.733629725763221e+001
 1.296189196305420e+000	 9.946629356660502e-002	 1.732004765542460e+001
 1.295159673318565e+000	 1.120778306819678e-001	 1.729859651608411e+001
 1.294003127677352e+000	 1.247235863195187e-001	 1.727098152781115e+001
 1.306665999995867e+000	 0.000000000000000e+000	 1.727324723449864e+001
 1.306607695345621e+000	 1.234327957122657e-002	 1.726320937212899e+001
 1.306431881593283e+000	 2.473345053539462e-002	 1.725584843117388e+001
 1.306137221191842e+000	 3.716907912453604e-002	 1.724994645868905e+001
 1.305722393623771e+000	 4.964869466967915e-002	 1.724431951129781e+001
 1.305186096437542e+000	 6.217078966765730e-002	 1.723781954570018e+001
 1.304527046293756e+000	 7.473381987908150e-002	 1.722933654083503e+001
 1.303743980019968e+000	 8.733620445821037e-002	 1.721780085984948e+001
 1.302835655673249e+000	 9.997632611542476e-002	 1.720218586481510e+001
 1.301800853609464e+000	 1.126525313129877e-001	 1.718151079536205e+001
 1.300638377558238e+000	 1.253631304947386e-001	 1.715484392038780e+001
 1.313331999991934e+000	 0.000000000000000e+000	 1.715432689587624e+001
 1.313273397898593e+000	 1.240624922159980e-002	 1.714488435206225e+001
 1.313096687226598e+000	 2.485962905431060e-002	 1.713801038545291e+001
 1.312800523605397e+000	 3.735869841572368e-002	 1.713252642494567e+001
 1.312383579780795e+000	 4.990197913417459e-002	 1.712728718715136e+001
 1.311844546656761e+000	 6.248795601589267e-002	 1.712118245590277e+001
 1.311182134346894e+000	 7.511507694347333e-002	 1.711313910142714e+001
 1.310395073234634e+000	 8.778175300641061e-002	 1.710212335013570e+001
 1.309482115041231e+000	 1.004863586644009e-001	 1.708714331894912e+001
 1.308442033900491e+000	 1.132272319441013e-001	 1.706725182625921e+001
 1.307273627439228e+000	 1.260026746699954e-001	 1.704154948955603e+001
 1.319997999988401e+000	 0.000000000000000e+000	 1.703814348105998e+001
 1.319939100451964e+000	 1.246921887214562e-002	 1.702929066081552e+001
 1.319761492860313e+000	 2.498580757350825e-002	 1.702289333159740e+001
 1.319463826019349e+000	 3.754831770724729e-002	 1.701781431193561e+001
 1.319044765938211e+000	 5.015526359901441e-002	 1.701294896309960e+001
 1.318502996876366e+000	 6.280512236444387e-002	 1.700722685247733e+001
 1.317837222400410e+000	 7.549633400812474e-002	 1.699961366576163e+001
 1.317046166449661e+000	 8.822730155479584e-002	 1.698911338090883e+001
 1.316128574409554e+000	 1.009963912134785e-001	 1.697477071879916e+001
 1.315083214191836e+000	 1.138019325752334e-001	 1.695567388366036e+001
 1.313908877320505e+000	 1.266422188451984e-001	 1.693095760418365e+001
 1.326663999985467e+000	 0.000000000000000e+000	 1.692457857856816e+001
 1.326604803005934e+000	 1.253218852288676e-002	 1.691630091441556e+001
 1.326426298494626e+000	 2.511198609302054e-002	 1.691036237517048e+001
 1.326127128433897e+000	 3.773793699913954e-002	 1.690566919886080e+001
 1.325705952096220e+000	 5.040854806422242e-002	 1.690115939432333e+001
 1.325161447096555e+000	 6.312228871331949e-002	 1.689580428351816e+001
 1.324492310454498e+000	 7.587759107302469e-002	 1.688861030261267e+001
 1.323697259665244e+000	 8.867285010333309e-002	 1.687862107634818e+001
 1.322775033778411e+000	 1.015064237626025e-001	 1.686491978166416e+001
 1.321724394483688e+000	 1.143766332063090e-001	 1.684663181463273e+001
 1.320544127202253e+000	 1.272817630202566e-001	 1.682292777256331e+001
 1.333329999983334e+000	 0.000000000000000e+000	 1.681351863764207e+001
 1.333270505560705e+000	 1.259515817384592e-002	 1.680579204129240e+001
 1.333091104129737e+000	 2.523816461288039e-002	 1.680028642308493e+001
 1.332790430849242e+000	 3.792755629143307e-002	 1.679595346538340e+001
 1.332367138255019e+000	 5.066183252982254e-002	 1.679177584613084e+001
 1.331819897317526e+000	 6.343945506252818e-002	 1.678676862781691e+001
 1.331147398509354e+000	 7.625884813816217e-002	 1.677998094322037e+001
 1.330348352881577e+000	 8.911839865198935e-002	 1.677049796631292e+001
 1.329421493147995e+000	 1.020164563117177e-001	 1.675744318537643e+001
 1.328365574776235e+000	 1.149513338372529e-001	 1.673998099341207e+001
 1.327179377084656e+000	 1.279213071950790e-001	 1.671731960866126e+001
 1.260826878268034e+000	 1.215258654471585e-001	 1.789925361024431e+001
 1.259575279959579e+000	 1.338772212466185e-001	 1.786344512037216e+001
 1.258197706702826e+000	 1.462585565118158e-001	 1.782775235720295e+001
 1.256693073768999e+000	 1.586681581779989e-001	 1.779141817221804e+001
 1.255060323214301e+000	 1.711042802883929e-001	 1.775374713415910e+001
 1.253298424920236e+000	 1.835651443891883e-001	 1.771410954732779e+001
 1.251406377632250e+000	 1.960489399594794e-001	 1.767194565370664e+001
 1.249383209995418e+000	 2.085538248764833e-001	 1.762677000749497e+001
 1.247227981585924e+000	 2.210779259163266e-001	 1.757817600769144e+001
 1.244939783937008e+000	 2.336193392906365e-001	 1.752584057128895e+001
 1.242517741558077e+000	 2.461761312191269e-001	 1.746952892649786e+001
 1.267462128151162e+000	 1.221654096208289e-001	 1.776678323315719e+001
 1.266203943159526e+000	 1.345817658845979e-001	 1.773205112677571e+001
 1.264819120261608e+000	 1.470282593845123e-001	 1.769751913407375e+001
 1.263306569020112e+000	 1.595031680406209e-001	 1.766244653832449e+001
 1.261665225923675e+000	 1.720047367078512e-001	 1.762615256345594e+001
 1.259894055432673e+000	 1.845311775730764e-001	 1.758802039959049e+001
 1.257992051023324e+000	 1.970806705873169e-001	 1.754750142713307e+001
 1.255958236228826e+000	 2.096513639334076e-001	 1.750411962819746e+001
 1.253791665676258e+000	 2.222413745294195e-001	 1.745747617108819e+001
 1.251491426117940e+000	 2.348487885680753e-001	 1.740725415037450e+001
 1.249056637455896e+000	 2.474716620923479e-001	 1.735322346181911e+001
 1.274097378033473e+000	 1.228049537949910e-001	 1.763786255995039e+001
 1.272832606358652e+000	 1.352863105230743e-001	 1.760418901924585e+001
 1.271440533819566e+000	 1.477979622576952e-001	 1.757079387220641e+001
 1.269920064270398e+000	 1.603381779037054e-001	 1.753695311345459e+001
 1.268270128632225e+000	 1.729051931277369e-001	 1.750200069591368e+001
 1.266489685944298e+000	 1.854972107573488e-001	 1.746533256140902e+001
 1.264577724413605e+000	 1.981124012154900e-001	 1.742641088525180e+001
 1.262533262461468e+000	 2.107489029906158e-001	 1.738476852381121e+001
 1.260355349765869e+000	 2.234048231427441e-001	 1.734001365089548e+001
 1.258043068298207e+000	 2.360782378456961e-001	 1.729183456546076e+001
 1.255595533353124e+000	 2.487671929657066e-001	 1.724000464976941e+001
 1.280732627915153e+000	 1.234444979695540e-001	 1.751234970625544e+001
 1.279461269557136e+000	 1.359908551619469e-001	 1.747972475784977e+001
 1.278061947376870e+000	 1.485676651312594e-001	 1.744744972632724e+001
 1.276533559520022e+000	 1.611731877671476e-001	 1.741481759247553e+001
 1.274875031340109e+000	 1.738056495479502e-001	 1.738117710515766e+001
 1.273085316455256e+000	 1.864632439419134e-001	 1.734593681482584e+001
 1.271163397803229e+000	 1.991441318439169e-001	 1.730856933717267e+001
 1.269108288693471e+000	 2.118464420480375e-001	 1.726861583616198e+001
 1.266919033854871e+000	 2.245682717562428e-001	 1.722569071238050e+001
 1.264594710477906e+000	 2.373076871234534e-001	 1.717948647922533e+001
 1.262134429249846e+000	 2.500627238391685e-001	 1.712977880591587e+001
 1.287367877796385e+000	 1.240840421444269e-001	 1.739010311750772e+001
 1.286089932755156e+000	 1.366953998011148e-001	 1.735852416957275e+001
 1.284683360933694e+000	 1.493373680050998e-001	 1.732735930737463e+001
 1.283147054769149e+000	 1.620081976308432e-001	 1.729591876766024e+001
 1.281479934047482e+000	 1.747061059683912e-001	 1.726356615494495e+001
 1.279680946965695e+000	 1.874292771266784e-001	 1.722972247581856e+001
 1.277749071192331e+000	 2.001758624725156e-001	 1.719387042027825e+001
 1.275683314924959e+000	 2.129439811056030e-001	 1.715555887958937e+001
 1.273482717943375e+000	 2.257317203698579e-001	 1.711440768675127e+001
 1.271146352657140e+000	 2.385371364013019e-001	 1.707011256209426e+001
 1.268673325146146e+000	 2.513582547126994e-001	 1.702245024287281e+001
 1.294003127677352e+000	 1.247235863195187e-001	 1.727098152781115e+001
 1.292718595952890e+000	 1.373999444404773e-001	 1.724045291994456e+001
 1.291304774490208e+000	 1.501070708791112e-001	 1.721039466628862e+001
 1.289760550017942e+000	 1.628432074946875e-001	 1.718013452403783e+001
 1.288084836754500e+000	 1.756065623889601e-001	 1.714905100546958e+001
 1.286276577475762e+000	 1.883953103115517e-001	 1.711657741094956e+001
 1.284334744581047e+000	 2.012075931012045e-001	 1.708220612660440e+001
 1.282258341156058e+000	 2.140415201632420e-001	 1.704549317644085e+001
 1.280046402031495e+000	 2.268951689835316e-001	 1.700606301514291e+001
 1.277697994836005e+000	 2.397665856791959e-001	 1.696361354409734e+001
 1.275212221042108e+000	 2.526537855862646e-001	 1.691792132939895e+001
 1.300638377558238e+000	 1.253631304947386e-001	 1.715484392038781e+001
 1.299347259150517e+000	 1.381044890799334e-001	 1.712537648592832e+001
 1.297926188046585e+000	 1.508767737531886e-001	 1.709642727876476e+001
 1.296374045266569e+000	 1.636782173585764e-001	 1.706734183543473e+001
 1.294689739461321e+000	 1.765070188095572e-001	 1.703751362010880e+001
 1.292872207985603e+000	 1.893613434964411e-001	 1.700638805423182e+001
 1.290920417969516e+000	 2.022393237299017e-001	 1.697346682923596e+001
 1.288833367386893e+000	 2.151390592208845e-001	 1.693831249240447e+001
 1.286610086119343e+000	 2.280586175972063e-001	 1.690055329229109e+001
 1.284249637014603e+000	 2.409960349570901e-001	 1.685988826628182e+001
 1.281751116937819e+000	 2.539493164598298e-001	 1.681609254894840e+001
 1.307273627439228e+000	 1.260026746699954e-001	 1.704154948955603e+001
 1.305975922348214e+000	 1.388090337193822e-001	 1.701316013002630e+001
 1.304547601602998e+000	 1.516464766272270e-001	 1.698532803093781e+001
 1.302987540515192e+000	 1.645132272224049e-001	 1.695741676118114e+001
 1.301294642168099e+000	 1.774074752300823e-001	 1.692883477259424e+001
 1.299467838495365e+000	 1.903273766812550e-001	 1.689903942420281e+001
 1.297506091357872e+000	 2.032710543585255e-001	 1.686754130871715e+001
 1.295408393617587e+000	 2.162365982784606e-001	 1.683390887168615e+001
 1.293173770207031e+000	 2.292220662108245e-001	 1.679777330990261e+001
 1.290801279193031e+000	 2.422254842349390e-001	 1.675883373170022e+001
 1.288290012833362e+000	 2.552448473333605e-001	 1.671686255769549e+001
 1.313908877320505e+000	 1.266422188451984e-001	 1.693095760418365e+001
 1.312604585546162e+000	 1.395135783587231e-001	 1.690366887556080e+001
 1.311169015159617e+000	 1.524161795011211e-001	 1.687696720596198e+001
 1.309601035763976e+000	 1.653482370860691e-001	 1.685023444345999e+001
 1.307899544874992e+000	 1.783079316504358e-001	 1.682289405459372e+001
 1.306063469005196e+000	 1.912934098659010e-001	 1.679441514119909e+001
 1.304091764746253e+000	 2.043027849869941e-001	 1.676431677947629e+001
 1.301983419848268e+000	 2.173341373359000e-001	 1.673217267203692e+001
 1.299737454294674e+000	 2.303855148243285e-001	 1.669761609973502e+001
 1.297352921371389e+000	 2.434549335126970e-001	 1.666034515598710e+001
 1.294828908728823e+000	 2.565403782068224e-001	 1.662012824205154e+001
 1.320544127202253e+000	 1.272817630202566e-001	 1.682292777256331e+001
 1.319233248744538e+000	 1.402181229978549e-001	 1.679676748308752e+001
 1.317790428716616e+000	 1.531858823747659e-001	 1.677121447145706e+001
 1.316214531013087e+000	 1.661832469494639e-001	 1.674566910527525e+001
 1.314504447582156e+000	 1.792083880705177e-001	 1.671956988368827e+001
 1.312659099515241e+000	 1.922594430502873e-001	 1.669239744482504e+001
 1.310677438134795e+000	 2.053345156152258e-001	 1.666367891626397e+001
 1.308558446079059e+000	 2.184316763931329e-001	 1.663299259963581e+001
 1.306301138382382e+000	 2.315489634376604e-001	 1.659997297639442e+001
 1.303904563549776e+000	 2.446843827903187e-001	 1.656431601753987e+001
 1.301367804624286e+000	 2.578359090801811e-001	 1.652578477569130e+001
 1.327179377084656e+000	 1.279213071950790e-001	 1.671731960866126e+001
 1.325861911943521e+000	 1.409226676366771e-001	 1.669232042790263e+001
 1.324411842274167e+000	 1.539555852480564e-001	 1.666793886778908e+001
 1.322828026262688e+000	 1.670182568124853e-001	 1.664359404901818e+001
 1.321109350289747e+000	 1.801088444902282e-001	 1.661873951173140e+001
 1.319254730025648e+000	 1.932254762343219e-001	 1.659286721160827e+001
 1.317263111523635e+000	 2.063662462431386e-001	 1.656551188060460e+001
 1.315133472310086e+000	 2.195292154500891e-001	 1.653625574383290e+001
 1.312864822470269e+000	 2.327124120507629e-001	 1.650473357986210e+001
 1.310456205728293e+000	 2.459138320677585e-001	 1.647063810731653e+001
 1.307906700519837e+000	 2.591314399534021e-001	 1.643372567610719e+001
 1.242517741558077e+000	 2.461761312191269e-001	 1.746952892649786e+001
 1.239960619432395e+000	 2.587482246786292e-001	 1.740930500867199e+001
 1.237267964867259e+000	 2.713317418129376e-001	 1.734531751741608e+001
 1.234439008086931e+000	 2.839246587499007e-001	 1.727757027112549e+001
 1.231473016314503e+000	 2.965249241990277e-001	 1.720616234321308e+001
 1.228369294737240e+000	 3.091304602063712e-001	 1.713129287020463e+001
 1.225127187456663e+000	 3.217391629455186e-001	 1.705326580681615e+001
 1.221746078421927e+000	 3.343489035444824e-001	 1.697249458588048e+001
 1.218225392345035e+000	 3.469575289482249e-001	 1.688950663811920e+001
 1.214564595596419e+000	 3.595628628164873e-001	 1.680494772406559e+001
 1.210763197079440e+000	 3.721627064565229e-001	 1.671958602797282e+001
 1.249056637455896e+000	 2.474716620923479e-001	 1.735322346181911e+001
 1.246486058173964e+000	 2.601099176737307e-001	 1.729537835362522e+001
 1.243779233197095e+000	 2.727596570483445e-001	 1.723380001711453e+001
 1.240935388698524e+000	 2.854188456931735e-001	 1.716849995746365e+001
 1.237953788045028e+000	 2.980854215225694e-001	 1.709958473514017e+001
 1.234833732767343e+000	 3.107572956471091e-001	 1.702726092940375e+001
 1.231574563515257e+000	 3.234323531687461e-001	 1.695184005869098e+001
 1.228175660995893e+000	 3.361084540120542e-001	 1.687374341461697e+001
 1.224636446893741e+000	 3.487834337912915e-001	 1.679350676332279e+001
 1.220956384770955e+000	 3.614551047129524e-001	 1.671178486507810e+001
 1.217134980946447e+000	 3.741212565134122e-001	 1.662935576045258e+001
 1.255595533353124e+000	 2.487671929657066e-001	 1.724000464976941e+001
 1.253011496915032e+000	 2.614716106689328e-001	 1.718445237271883e+001
 1.250290501526536e+000	 2.741875722838214e-001	 1.712519680205577e+001
 1.247431769309838e+000	 2.869130326364903e-001	 1.706225785764313e+001
 1.244434559775391e+000	 2.996459188461332e-001	 1.699575016510542e+001
 1.241298170797401e+000	 3.123841310878485e-001	 1.692588817675707e+001
 1.238021939573915e+000	 3.251255433919548e-001	 1.685299125989751e+001
 1.234605243570019e+000	 3.378680044795857e-001	 1.677748870805246e+001
 1.231047501442685e+000	 3.506093386342928e-001	 1.669992462760144e+001
 1.227348173945781e+000	 3.633473466093230e-001	 1.662096264927753e+001
 1.223506764813771e+000	 3.760798065701715e-001	 1.654139041130107e+001
 1.262134429249846e+000	 2.500627238391685e-001	 1.712977880591586e+001
 1.259536935655672e+000	 2.628333036642103e-001	 1.707643436842460e+001
 1.256801769855638e+000	 2.756154875193508e-001	 1.701941554743815e+001
 1.253928149920911e+000	 2.884072195798404e-001	 1.695875134479447e+001
 1.250915331505615e+000	 3.012064161697133e-001	 1.689456496707619e+001
 1.247762608827421e+000	 3.140109665285888e-001	 1.682707910618971e+001
 1.244469315632632e+000	 3.268187336151491e-001	 1.675662119838751e+001
 1.241034826144292e+000	 3.396275549470866e-001	 1.668362861614350e+001
 1.237458555991849e+000	 3.524352434772453e-001	 1.660865374400745e+001
 1.233739963120879e+000	 3.652395885056229e-001	 1.653236888647382e+001
 1.229878548681392e+000	 3.780383566268333e-001	 1.645557095304343e+001
 1.268673325146146e+000	 2.513582547126994e-001	 1.702245024287281e+001
 1.266062374395950e+000	 2.641949966595379e-001	 1.697122967405361e+001
 1.263313038184454e+000	 2.770434027549149e-001	 1.691636203501350e+001
 1.260424530531780e+000	 2.899014065232126e-001	 1.685788601587560e+001
 1.257396103235723e+000	 3.027669134933045e-001	 1.679593385725196e+001
 1.254227046857416e+000	 3.156378019693298e-001	 1.673073679289751e+001
 1.250916691691409e+000	 3.285119238383342e-001	 1.666263048249565e+001
 1.247464408718702e+000	 3.413871054145676e-001	 1.659206038779279e+001
 1.243869610541214e+000	 3.542611483201652e-001	 1.651958704187150e+001
 1.240131752296229e+000	 3.671318304018756e-001	 1.644589115811843e+001
 1.236250332549294e+000	 3.799969066834299e-001	 1.637177852244846e+001
 1.275212221042108e+000	 2.526537855862646e-001	 1.691792132939895e+001
 1.272587813135937e+000	 2.655566896548908e-001	 1.686874171951882e+001
 1.269824306513037e+000	 2.784713179904967e-001	 1.681594022497287e+001
 1.266920911142484e+000	 2.913955934665959e-001	 1.675956576911804e+001
 1.263876874965741e+000	 3.043274108169011e-001	 1.669976001648411e+001
 1.260691484887394e+000	 3.172646374100713e-001	 1.663676298013288e+001
 1.257364067750244e+000	 3.302051140615146e-001	 1.657091863146120e+001
 1.253893991293237e+000	 3.431466558820383e-001	 1.650268046445464e+001
 1.250280665090766e+000	 3.560870531630688e-001	 1.643261696281851e+001
 1.246523541471813e+000	 3.690240722981045e-001	 1.636141691503518e+001
 1.242622116417461e+000	 3.819554567399942e-001	 1.628989451925801e+001
 1.281751116937819e+000	 2.539493164598298e-001	 1.681609254894840e+001
 1.279113251875702e+000	 2.669183826502437e-001	 1.676887209646896e+001
 1.276335574841441e+000	 2.798992332260784e-001	 1.671805232714295e+001
 1.273417291753062e+000	 2.928897804099790e-001	 1.666369288074254e+001
 1.270357646695690e+000	 3.058879081404976e-001	 1.660594517194735e+001
 1.267155922917366e+000	 3.188914728508127e-001	 1.654505816524533e+001
 1.263811443809134e+000	 3.318983042846949e-001	 1.648138416523010e+001
 1.260323573867888e+000	 3.449062063495089e-001	 1.641538457306913e+001
 1.256691719640487e+000	 3.579129580059724e-001	 1.634763555618284e+001
 1.252915330647610e+000	 3.709163141943335e-001	 1.627883357464473e+001
 1.248993900285875e+000	 3.839140067965583e-001	 1.620980070452803e+001
 1.288290012833362e+000	 2.552448473333605e-001	 1.671686255769549e+001
 1.285638690615317e+000	 2.682800756455714e-001	 1.667152062281677e+001
 1.282846843169720e+000	 2.813271484616426e-001	 1.662259887151727e+001
 1.279913672363551e+000	 2.943839673533512e-001	 1.657016808097140e+001
 1.276838418425593e+000	 3.074484054640888e-001	 1.651438967808900e+001
 1.273620360947340e+000	 3.205183082915538e-001	 1.645552168500320e+001
 1.270258819868077e+000	 3.335914945078801e-001	 1.639392469356247e+001
 1.266753156442643e+000	 3.466657568169896e-001	 1.633006781834806e+001
 1.263102774190359e+000	 3.597388628488922e-001	 1.626453457384414e+001
 1.259307119823602e+000	 3.728085560905861e-001	 1.619802861770076e+001
 1.255365684154520e+000	 3.858725568531549e-001	 1.613137929859466e+001
 1.294828908728823e+000	 2.565403782068224e-001	 1.662012824205154e+001
 1.292164129354848e+000	 2.696417686408488e-001	 1.657658540668295e+001
 1.289358111497927e+000	 2.827550636971719e-001	 1.652947877814597e+001
 1.286410052973988e+000	 2.958781542967013e-001	 1.647889062936137e+001
 1.283319190155475e+000	 3.090089027876691e-001	 1.642499259688191e+001
 1.280084798977327e+000	 3.221451437322941e-001	 1.636805180022180e+001
 1.276706195927072e+000	 3.352846847310744e-001	 1.630843700447054e+001
 1.273182739017491e+000	 3.484253072844907e-001	 1.624662477443602e+001
 1.269513828740366e+000	 3.615647676918448e-001	 1.618320556450426e+001
 1.265698908999770e+000	 3.747007979868861e-001	 1.611888968455465e+001
 1.261737468023377e+000	 3.878311069098167e-001	 1.605451307867896e+001
 1.301367804624286e+000	 2.578359090801811e-001	 1.652578477569130e+001
 1.298689568094366e+000	 2.710034616360509e-001	 1.648396290977641e+001
 1.295869379826117e+000	 2.841829789326488e-001	 1.643858942640625e+001
 1.292906433584414e+000	 2.973723412400182e-001	 1.638975838948162e+001
 1.289799961885357e+000	 3.105694001112327e-001	 1.633765177740541e+001
 1.286549237007336e+000	 3.237719791730334e-001	 1.628254577972241e+001
 1.283153571986116e+000	 3.369778749542830e-001	 1.622481715201021e+001
 1.279612321592421e+000	 3.501848577520221e-001	 1.616494957596828e+001
 1.275924883290491e+000	 3.633906725348460e-001	 1.610353996742471e+001
 1.272090698176094e+000	 3.765930398832567e-001	 1.604130467096585e+001
 1.268109251892432e+000	 3.897896569665759e-001	 1.597908547614259e+001
 1.307906700519837e+000	 2.591314399534021e-001	 1.643372567610719e+001
 1.305215006833941e+000	 2.723651546311524e-001	 1.639354801022989e+001
 1.302380648154344e+000	 2.856108941680557e-001	 1.634982672367605e+001
 1.299402814194865e+000	 2.988665281832908e-001	 1.630266790295944e+001
 1.296280733615264e+000	 3.121298974347746e-001	 1.625226393477788e+001
 1.293013675037378e+000	 3.253988146137714e-001	 1.619889998364581e+001
 1.289600948045209e+000	 3.386710651775105e-001	 1.614296054344904e+001
 1.286041904167421e+000	 3.519444082195941e-001	 1.608493600854672e+001
 1.282335937840718e+000	 3.652165773779125e-001	 1.602542920564395e+001
 1.278482487352557e+000	 3.784852817797219e-001	 1.596516182347351e+001
 1.274481035761665e+000	 3.917482070234652e-001	 1.590498067340733e+001
 1.210763197079440e+000	 3.721627064565229e-001	 1.671958602797282e+001
 1.206820748779484e+000	 3.847548396058735e-001	 1.663040376804063e+001
 1.202736845682000e+000	 3.973370208620146e-001	 1.653446808747125e+001
 1.198511127482119e+000	 4.099069892381354e-001	 1.643287407915570e+001
 1.194143279664885e+000	 4.224624654102122e-001	 1.632685957228643e+001
 1.189633034254827e+000	 4.350011528162668e-001	 1.621780746463562e+001
 1.184980170535832e+000	 4.475207387868736e-001	 1.610724747515813e+001
 1.180184515739950e+000	 4.600188957060534e-001	 1.599685725787789e+001
 1.175245945703767e+000	 4.724932822016346e-001	 1.588846281850829e+001
 1.170164385490992e+000	 4.849415443640924e-001	 1.578403817625495e+001
 1.164939809979976e+000	 4.973613169928101e-001	 1.568570421477248e+001
 1.217134980946447e+000	 3.741212565134122e-001	 1.662935576045258e+001
 1.213171785047885e+000	 3.867796572458214e-001	 1.654323235559376e+001
 1.209066389929284e+000	 3.994280537120125e-001	 1.645049675103804e+001
 1.204818433389631e+000	 4.120641730264683e-001	 1.635223157385604e+001
 1.200427599258805e+000	 4.246857238699562e-001	 1.624966305253528e+001
 1.195893618151086e+000	 4.372903975945734e-001	 1.614416357086698e+001
 1.191216268188817e+000	 4.498758693602014e-001	 1.603725363737888e+001
 1.186395375694846e+000	 4.624397993015102e-001	 1.593060320908759e+001
 1.181430815852335e+000	 4.749798337245844e-001	 1.582603230878839e+001
 1.176322513330638e+000	 4.874936063321756e-001	 1.572551087606790e+001
 1.171070442875903e+000	 4.999787394765238e-001	 1.563115779373057e+001
 1.223506764813771e+000	 3.760798065701715e-001	 1.654139041130107e+001
 1.219522821316593e+000	 3.888044748855961e-001	 1.645824826535958e+001
 1.215395934176838e+000	 4.015190865617895e-001	 1.636862938306557e+001
 1.211125739297355e+000	 4.142213568145306e-001	 1.627360270807144e+001
 1.206711918852863e+000	 4.269089823293816e-001	 1.617438179491264e+001
 1.202154202047399e+000	 4.395796423725173e-001	 1.607232759682903e+001
 1.197452365841776e+000	 4.522309999331303e-001	 1.596895066424205e+001
 1.192606235649638e+000	 4.648607028965430e-001	 1.586591269040100e+001
 1.187615686000735e+000	 4.774663852470990e-001	 1.576502734110875e+001
 1.182480641170070e+000	 4.900456682998303e-001	 1.566826030636924e+001
 1.177201075771599e+000	 5.025961619598356e-001	 1.557772851329091e+001
 1.229878548681392e+000	 3.780383566268333e-001	 1.645557095304343e+001
 1.225873857585599e+000	 3.908292925252413e-001	 1.637532593875349e+001
 1.221725478424662e+000	 4.036101194114011e-001	 1.628873565438661e+001
 1.217433045205305e+000	 4.163785406023902e-001	 1.619685409463737e+001
 1.212996238447089e+000	 4.291322407885680e-001	 1.610088101723437e+001
 1.208414785943816e+000	 4.418688871501895e-001	 1.600216497727745e+001
 1.203688463494770e+000	 4.545861305057600e-001	 1.590220576723454e+001
 1.198817095604402e+000	 4.672816064912578e-001	 1.580265619677719e+001
 1.193800556149054e+000	 4.799529367692876e-001	 1.570532314697820e+001
 1.188638769009385e+000	 4.925977302671635e-001	 1.561216783429359e+001
 1.183331708667162e+000	 5.052135844428459e-001	 1.552530522122359e+001
 1.236250332549294e+000	 3.799969066834299e-001	 1.637177852244846e+001
 1.232224893854889e+000	 3.928541101647999e-001	 1.629434037934568e+001
 1.228055022672758e+000	 4.057011522609021e-001	 1.621068616894718e+001
 1.223740351113495e+000	 4.185357243901146e-001	 1.612185362218670e+001
 1.219280558041513e+000	 4.313554992475949e-001	 1.602902752621629e+001
 1.214675369840381e+000	 4.441581319276804e-001	 1.593354301809960e+001
 1.209924561147862e+000	 4.569412610781907e-001	 1.583688827907068e+001
 1.205027955559215e+000	 4.697025100857605e-001	 1.574070656112530e+001
 1.199985426297380e+000	 4.824394882912582e-001	 1.564679747800372e+001
 1.194796896848678e+000	 4.951497922342820e-001	 1.555711749348427e+001
 1.189462341562692e+000	 5.078310069256553e-001	 1.547377954136220e+001
 1.242622116417461e+000	 3.819554567399942e-001	 1.628989451925801e+001
 1.238575930124457e+000	 3.948789278043152e-001	 1.621516725264922e+001
 1.234384566921126e+000	 4.077921851103480e-001	 1.613435256549620e+001
 1.230047657021941e+000	 4.206929081777715e-001	 1.604847055957495e+001
 1.225564877636165e+000	 4.335787577065424e-001	 1.595868982545763e+001
 1.220935953737142e+000	 4.464473767050806e-001	 1.586633100866719e+001
 1.216160658801114e+000	 4.592963916505214e-001	 1.577286977121193e+001
 1.211238815514154e+000	 4.721234136801573e-001	 1.567993907777699e+001
 1.206170296445803e+000	 4.849260398131203e-001	 1.558933073608585e+001
 1.200955024688047e+000	 4.977018542012932e-001	 1.550299612176753e+001
 1.195592974458290e+000	 5.104484294083644e-001	 1.542304601949795e+001
 1.248993900285875e+000	 3.839140067965583e-001	 1.620980070452803e+001
 1.244926966394291e+000	 3.969037454438305e-001	 1.613768298563631e+001
 1.240714111169767e+000	 4.098832179597941e-001	 1.605960761909646e+001
 1.236354962930655e+000	 4.228500919654281e-001	 1.597657566019426e+001
 1.231849197231075e+000	 4.358020161654896e-001	 1.588973822335552e+001
 1.227196537634143e+000	 4.487366214824807e-001	 1.580040033413691e+001
 1.222396756454587e+000	 4.616515222228523e-001	 1.571002417132735e+001
 1.217449675469295e+000	 4.745443172745541e-001	 1.562023162586599e+001
 1.212355166594411e+000	 4.874125913349823e-001	 1.553280610346379e+001
 1.207113152527589e+000	 5.002539161683046e-001	 1.544969349859409e+001
 1.201723607354055e+000	 5.130658518910735e-001	 1.537300226893300e+001
 1.255365684154520e+000	 3.858725568531549e-001	 1.613137929859466e+001
 1.251278002664382e+000	 3.989285630833892e-001	 1.606176486599348e+001
 1.247043655418682e+000	 4.119742508092951e-001	 1.598632534246296e+001
 1.242662268839654e+000	 4.250072757531525e-001	 1.590604126617956e+001
 1.238133516826273e+000	 4.380252746245166e-001	 1.582204494095245e+001
 1.233457121531434e+000	 4.510258662599718e-001	 1.573562458770119e+001
 1.228632854108345e+000	 4.640066527952828e-001	 1.564822788069619e+001
 1.223660535424715e+000	 4.769652208690567e-001	 1.556146479261890e+001
 1.218540036743293e+000	 4.898991428569531e-001	 1.547710967261516e+001
 1.213271280367399e+000	 5.028059781354234e-001	 1.539710248225543e+001
 1.207854240250086e+000	 5.156832743738828e-001	 1.532354911570479e+001
 1.261737468023377e+000	 3.878311069098167e-001	 1.605451307867896e+001
 1.257629038934719e+000	 4.009533807230342e-001	 1.598729114112388e+001
 1.253373199667872e+000	 4.140652836589066e-001	 1.591438108713489e+001
 1.248969574748952e+000	 4.271644595410121e-001	 1.583674141251124e+001
 1.244417836421790e+000	 4.402485330837030e-001	 1.575548421971991e+001
 1.239717705429057e+000	 4.533151110376436e-001	 1.567187968279040e+001
 1.234868951762449e+000	 4.663617833679126e-001	 1.558735989155526e+001
 1.229871395380491e+000	 4.793861244637716e-001	 1.550352199655945e+001
 1.224724906892536e+000	 4.923856943791414e-001	 1.542213057601639e+001
 1.219429408207575e+000	 5.053580401027564e-001	 1.534511914688353e+001
 1.213984873146484e+000	 5.183006968568933e-001	 1.527459074349385e+001
 1.268109251892432e+000	 3.897896569665759e-001	 1.597908547614259e+001
 1.263980075205293e+000	 4.029781983628091e-001	 1.591414111690664e+001
 1.259702743917337e+000	 4.161563165086835e-001	 1.584365164448700e+001
 1.255276880658563e+000	 4.293216433290745e-001	 1.576855193101751e+001
 1.250702156017655e+000	 4.424717915431283e-001	 1.568993242927930e+001
 1.245978289327063e+000	 4.556043558155878e-001	 1.560904396522909e+001
 1.241105049416963e+000	 4.687169139408416e-001	 1.552730190439252e+001
 1.236082255336699e+000	 4.818070280588044e-001	 1.544628961062978e+001
 1.230909777042229e+000	 4.948722459016561e-001	 1.536776111576767e+001
 1.225587536048212e+000	 5.079101020704109e-001	 1.529364291924101e+001
 1.220115506043348e+000	 5.209181193402052e-001	 1.522603483822534e+001
 1.274481035761665e+000	 3.917482070234652e-001	 1.590498067340733e+001
 1.270331111476093e+000	 4.050030160027568e-001	 1.584219525622079e+001
 1.266032288167079e+000	 4.182473493586814e-001	 1.577401534658620e+001
 1.261584186568501e+000	 4.314788271174073e-001	 1.570135055428049e+001
 1.256986475613899e+000	 4.446950500028725e-001	 1.562526817506364e+001
 1.252238873225494e+000	 4.578936005938943e-001	 1.554699832534653e+001
 1.247341147071948e+000	 4.710720445141692e-001	 1.546793844518900e+001
 1.242293115293416e+000	 4.842279316542610e-001	 1.538965708523221e+001
 1.237094647192461e+000	 4.973587974246059e-001	 1.531389689308815e+001
 1.231745663889408e+000	 5.104621640384943e-001	 1.524257671530978e+001
 1.226246138940778e+000	 5.235355418239187e-001	 1.517779273237552e+001
 1.164939809979976e+000	 4.973613169928101e-001	 1.568570421477248e+001
 1.159573060379774e+000	 5.097483691623166e-001	 1.558308247305826e+001
 1.154063440608705e+000	 5.221021836003701e-001	 1.546568498788818e+001
 1.148411078980047e+000	 5.344203706993145e-001	 1.533569498223584e+001
 1.142616155560737e+000	 5.467005348259916e-001	 1.519539178886883e+001
 1.136678902563766e+000	 5.589402756857403e-001	 1.504714514409545e+001
 1.130599604698522e+000	 5.711371897061304e-001	 1.489340847879606e+001
 1.124378599478121e+000	 5.832888714389555e-001	 1.473671117771883e+001
 1.118016277482770e+000	 5.953929149789649e-001	 1.457964978376660e+001
 1.111513082578307e+000	 6.074469153977584e-001	 1.442487813025268e+001
 1.104869512089097e+000	 6.194484701912240e-001	 1.427509639082795e+001
 1.171070442875903e+000	 4.999787394765238e-001	 1.563115779373057e+001
 1.165675450124151e+000	 5.124309799664151e-001	 1.553235033000907e+001
 1.160136835330482e+000	 5.248498078073975e-001	 1.541841023265635e+001
 1.154454727483430e+000	 5.372328208162187e-001	 1.529160451406949e+001
 1.148629307597547e+000	 5.495776107524130e-001	 1.515430293858254e+001
 1.142660809107865e+000	 5.618817646894811e-001	 1.500897230812733e+001
 1.136549518222081e+000	 5.741428664059041e-001	 1.485816971035801e+001
 1.130295774229504e+000	 5.863584977945160e-001	 1.470453469840509e+001
 1.123899969765807e+000	 5.985262402887011e-001	 1.455078037733060e+001
 1.117362551032718e+000	 6.106436763038349e-001	 1.439968337878283e+001
 1.110684017971820e+000	 6.227083906923381e-001	 1.425407271226924e+001
 1.177201075771599e+000	 5.025961619598356e-001	 1.557772851329091e+001
 1.171777839868310e+000	 5.151135907701613e-001	 1.548258505158211e+001
 1.166210230052084e+000	 5.275974320141417e-001	 1.537198096613714e+001
 1.160498375986703e+000	 5.400452709329231e-001	 1.524826655778763e+001
 1.154642459634335e+000	 5.524546866787284e-001	 1.511390148732104e+001
 1.148642715652043e+000	 5.648232536932150e-001	 1.497144905830736e+001
 1.142499431745828e+000	 5.771485431057705e-001	 1.482356942713791e+001
 1.136212948981187e+000	 5.894281241502639e-001	 1.467301170756710e+001
 1.129783662049258e+000	 6.016595655987103e-001	 1.452260494311468e+001
 1.123212019487647e+000	 6.138404372102553e-001	 1.437524792729338e+001
 1.116498523855155e+000	 6.259683111938493e-001	 1.423389785874378e+001
 1.183331708667162e+000	 5.052135844428459e-001	 1.552530522122359e+001
 1.177880229612348e+000	 5.177962015736433e-001	 1.543368257975191e+001
 1.172283624773600e+000	 5.303450562206736e-001	 1.532629811594235e+001
 1.166542024489947e+000	 5.428577210494781e-001	 1.520558487737422e+001
 1.160655611671164e+000	 5.553317626049648e-001	 1.507409184965064e+001
 1.154624622196344e+000	 5.677647426969438e-001	 1.493447824191828e+001
 1.148449345269787e+000	 5.801542198057058e-001	 1.478950666390335e+001
 1.142130123733177e+000	 5.924977505061526e-001	 1.464203515981922e+001
 1.135667354333106e+000	 6.047928909089242e-001	 1.449500807072761e+001
 1.129061487943063e+000	 6.170371981169346e-001	 1.435144570372646e+001
 1.122313029739053e+000	 6.292282316956586e-001	 1.421443279365838e+001
 1.189462341562692e+000	 5.078310069256553e-001	 1.547377954136220e+001
 1.183982619356362e+000	 5.204788123769490e-001	 1.538554173873776e+001
 1.178357019495120e+000	 5.330926804270639e-001	 1.528126562816835e+001
 1.172585672993239e+000	 5.456701711659333e-001	 1.516346642040058e+001
 1.166668763708096e+000	 5.582088385311481e-001	 1.503478181649433e+001
 1.160606528740812e+000	 5.707062317006687e-001	 1.489796630184331e+001
 1.154399258793986e+000	 5.831598965056877e-001	 1.475588429555946e+001
 1.148047298485480e+000	 5.955673768621349e-001	 1.461150211857599e+001
 1.141551046617341e+000	 6.079262162192751e-001	 1.446787875021566e+001
 1.134910956398930e+000	 6.202339590237861e-001	 1.432815534994610e+001
 1.128127535623464e+000	 6.324881521976661e-001	 1.419554352857142e+001
 1.195592974458290e+000	 5.104484294083644e-001	 1.542304601949795e+001
 1.190085009100449e+000	 5.231614231801667e-001	 1.533806438895403e+001
 1.184430414216734e+000	 5.358403046333834e-001	 1.523679062834197e+001
 1.178629321496656e+000	 5.484826212823389e-001	 1.512182148489349e+001
 1.172681915745194e+000	 5.610859144573051e-001	 1.499588272683945e+001
 1.166588435285495e+000	 5.736477207043924e-001	 1.486182345202321e+001
 1.160349172318449e+000	 5.861655732056925e-001	 1.472260921525609e+001
 1.153964473238100e+000	 5.986370032181640e-001	 1.458131393570360e+001
 1.147434738901945e+000	 6.110595415296941e-001	 1.444111055214895e+001
 1.140760424855218e+000	 6.234307199307239e-001	 1.430526040114552e+001
 1.133942041508339e+000	 6.357480726997732e-001	 1.417710130080461e+001
 1.201723607354055e+000	 5.130658518910735e-001	 1.537300226893299e+001
 1.196187398844709e+000	 5.258440339833845e-001	 1.529115558051452e+001
 1.190503808938531e+000	 5.385879288397029e-001	 1.519278358184404e+001
 1.184672970000277e+000	 5.512950713987442e-001	 1.508056388563547e+001
 1.178695067782521e+000	 5.639629903834621e-001	 1.495730963886135e+001
 1.172570341830435e+000	 5.765892097081160e-001	 1.482596385234084e+001
 1.166299085843203e+000	 5.891712499056977e-001	 1.468959251196461e+001
 1.159881647991045e+000	 6.017066295741933e-001	 1.455137643071312e+001
 1.153318431186906e+000	 6.141928668401130e-001	 1.441460180734909e+001
 1.146609893311894e+000	 6.266274808376617e-001	 1.428264946502410e+001
 1.139756547393629e+000	 6.390079932018798e-001	 1.415898275098195e+001
 1.207854240250086e+000	 5.156832743738828e-001	 1.532354911570479e+001
 1.202289788589236e+000	 5.285266447866904e-001	 1.524472370630676e+001
 1.196577203660602e+000	 5.413355530460930e-001	 1.514915845383001e+001
 1.190716618504179e+000	 5.541075215151995e-001	 1.503961111991701e+001
 1.184708219820140e+000	 5.668400663096455e-001	 1.491898150048349e+001
 1.178552248375679e+000	 5.795306987118412e-001	 1.479030578295550e+001
 1.172248999368273e+000	 5.921769266056794e-001	 1.465674964754432e+001
 1.165798822744318e+000	 6.047762559301756e-001	 1.452160006951069e+001
 1.159202123472210e+000	 6.173261921504637e-001	 1.438825578627089e+001
 1.152459361768924e+000	 6.298242417445134e-001	 1.426021640074295e+001
 1.145571053279286e+000	 6.422679137038877e-001	 1.414107010049884e+001
 1.213984873146484e+000	 5.183006968568933e-001	 1.527459074349385e+001
 1.208392178334129e+000	 5.312092555901723e-001	 1.519868065465147e+001
 1.202650598383037e+000	 5.440831772526249e-001	 1.510583286866540e+001
 1.196760267008440e+000	 5.569199716317547e-001	 1.499888453276122e+001
 1.190721371858112e+000	 5.697171422358817e-001	 1.488082131939316e+001
 1.184534154921272e+000	 5.824721877155700e-001	 1.475477181810411e+001
 1.178198912893685e+000	 5.951826033056150e-001	 1.462400063331499e+001
 1.171715997497927e+000	 6.078458822860643e-001	 1.449190014272176e+001
 1.165085815757842e+000	 6.204595174606781e-001	 1.436198087805026e+001
 1.158308830226277e+000	 6.330210026511924e-001	 1.423786049766674e+001
 1.151385559165260e+000	 6.455278342056968e-001	 1.412325132892416e+001
 1.220115506043348e+000	 5.209181193402052e-001	 1.522603483822534e+001
 1.214494568079485e+000	 5.338918663939185e-001	 1.515294196156150e+001
 1.208723993105924e+000	 5.468308014593692e-001	 1.506272826889280e+001
 1.202803915513139e+000	 5.597324217484591e-001	 1.495830948163824e+001
 1.196734523896502e+000	 5.725942181621972e-001	 1.484275633253342e+001
 1.190516061467258e+000	 5.854136767193038e-001	 1.471928899938999e+001
 1.184148826419464e+000	 5.981882800054812e-001	 1.459127020615543e+001
 1.177633172251877e+000	 6.109155086418121e-001	 1.446219694360289e+001
 1.170969508043789e+000	 6.235928427706871e-001	 1.433569076923084e+001
 1.164158298683920e+000	 6.362177635576132e-001	 1.421548665389936e+001
 1.157200065051501e+000	 6.487877547072080e-001	 1.410542035133727e+001
 1.226246138940778e+000	 5.235355418239187e-001	 1.517779273237551e+001
 1.220596957825401e+000	 5.365744771980168e-001	 1.510742696261475e+001
 1.214797387829354e+000	 5.495784256663966e-001	 1.501977007374736e+001
 1.208847564018351e+000	 5.625448718653632e-001	 1.491781550068856e+001
 1.202747675935371e+000	 5.754712940886186e-001	 1.480471817508824e+001
 1.196497968013682e+000	 5.883551657230444e-001	 1.468378900857618e+001
 1.190098739945637e+000	 6.011939567052549e-001	 1.455848800414184e+001
 1.183550347006174e+000	 6.139851349973728e-001	 1.443241594555720e+001
 1.176853200330036e+000	 6.267261680804233e-001	 1.430930462217964e+001
 1.170007767141820e+000	 6.394145244636895e-001	 1.419300555462054e+001
 1.163014570937961e+000	 6.520476752083219e-001	 1.408747719560243e+001
 1.104869512089097e+000	 6.194484701912240e-001	 1.427509639082795e+001
 1.098085089003007e+000	 6.313969688049652e-001	 1.412792533501207e+001
 1.091161405032191e+000	 6.432882130677760e-001	 1.398175079466472e+001
 1.084099119641821e+000	 6.551198161888586e-001	 1.384040733516624e+001
 1.076898946000012e+000	 6.668893997229497e-001	 1.370774539619518e+001
 1.069561650911468e+000	 6.785945950602359e-001	 1.357303666693898e+001
 1.062088054702069e+000	 6.902330449192106e-001	 1.342461249456524e+001
 1.054479031054074e+000	 7.018024048406095e-001	 1.326356667230394e+001
 1.046735506791741e+000	 7.133003446805322e-001	 1.309095719544542e+001
 1.038858461617222e+000	 7.247245501008480e-001	 1.290780561057388e+001
 1.030848927796671e+000	 7.360727240549706e-001	 1.271509671983741e+001
 1.110684017971820e+000	 6.227083906923381e-001	 1.425407271226923e+001
 1.103863891060642e+000	 6.347197696866972e-001	 1.411178381149352e+001
 1.096903770387911e+000	 6.466735930223382e-001	 1.397134798452560e+001
 1.089804318889317e+000	 6.585674613477011e-001	 1.383663073150249e+001
 1.082566253486110e+000	 6.703989837006782e-001	 1.371019322717711e+001
 1.075190345018397e+000	 6.821657790063734e-001	 1.357585980177335e+001
 1.067677418129123e+000	 6.938654775778139e-001	 1.342858199464799e+001
 1.060028351098407e+000	 7.054957226177467e-001	 1.326940084135991e+001
 1.052244075628034e+000	 7.170541717196199e-001	 1.309931674263134e+001
 1.044325576575955e+000	 7.285384983658311e-001	 1.291928887584090e+001
 1.036273891640754e+000	 7.399463934213199e-001	 1.273023498217564e+001
 1.116498523855155e+000	 6.259683111938493e-001	 1.423389785874378e+001
 1.109642693118966e+000	 6.380425705688563e-001	 1.409657490222194e+001
 1.102646135744382e+000	 6.500589729773376e-001	 1.396192523154275e+001
 1.095509518137610e+000	 6.620151065069738e-001	 1.383384380898924e+001
 1.088233560973034e+000	 6.739085676788197e-001	 1.371136449830809e+001
 1.080819039126168e+000	 6.857369629528982e-001	 1.357760968675294e+001
 1.073266781557023e+000	 6.974979102367745e-001	 1.343163751475080e+001
 1.065577671143576e+000	 7.091890403952124e-001	 1.327443431142938e+001
 1.057752644465140e+000	 7.208079987590110e-001	 1.310694097199422e+001
 1.049792691535468e+000	 7.323524466311011e-001	 1.293005243502749e+001
 1.041698855485570e+000	 7.438200627879527e-001	 1.274461755643989e+001
 1.122313029739053e+000	 6.292282316956586e-001	 1.421443279365838e+001
 1.115421495177916e+000	 6.413653714513357e-001	 1.408214561343708e+001
 1.108388501101529e+000	 6.534443529326649e-001	 1.395331592460294e+001
 1.101214717386616e+000	 6.654627516665709e-001	 1.383186670678557e+001
 1.093900868460696e+000	 6.774181516572718e-001	 1.371126885471417e+001
 1.086447733234689e+000	 6.893081468997160e-001	 1.357829129647126e+001
 1.078856144985671e+000	 7.011303428960078e-001	 1.343378015334049e+001
 1.071126991189482e+000	 7.128823581729308e-001	 1.327866514665730e+001
 1.063261213302960e+000	 7.245618257986404e-001	 1.311382580027531e+001
 1.055259806495660e+000	 7.361663948966014e-001	 1.294009098712058e+001
 1.047123819331021e+000	 7.476937321548193e-001	 1.275823889377549e+001
 1.128127535623464e+000	 6.324881521976661e-001	 1.419554352857143e+001
 1.121200297237431e+000	 6.446881723340283e-001	 1.406834832641533e+001
 1.114130866459280e+000	 6.568297328882105e-001	 1.394535911876184e+001
 1.106919916636253e+000	 6.689103968263843e-001	 1.383011174129599e+001
 1.099568175949008e+000	 6.809277356359336e-001	 1.370992312223448e+001
 1.092076427343866e+000	 6.928793308467319e-001	 1.357791685075032e+001
 1.084445508414973e+000	 7.047627755554290e-001	 1.343501830046683e+001
 1.076676311236026e+000	 7.165756759508273e-001	 1.328209873067795e+001
 1.068769782141392e+000	 7.283156528384416e-001	 1.311997447285770e+001
 1.060726921456431e+000	 7.399803431622750e-001	 1.294940654981879e+001
 1.052548783177006e+000	 7.515674015218691e-001	 1.277110073467487e+001
 1.133942041508339e+000	 6.357480726997732e-001	 1.417710130080462e+001
 1.126979099297446e+000	 6.480109732168279e-001	 1.405504097286227e+001
 1.119873231817559e+000	 6.602151128438663e-001	 1.393789970869464e+001
 1.112625115886439e+000	 6.723580419863071e-001	 1.382703411815821e+001
 1.105235483437879e+000	 6.844373196147020e-001	 1.370735116128366e+001
 1.097705121453605e+000	 6.964505147938525e-001	 1.357650566342342e+001
 1.090034871844829e+000	 7.083952082149518e-001	 1.343536748217022e+001
 1.082225631283110e+000	 7.202689937288271e-001	 1.328474760737528e+001
 1.074278350980340e+000	 7.320694798783510e-001	 1.312539740162533e+001
 1.066194036417681e+000	 7.437942914280661e-001	 1.295800829525537e+001
 1.057973747023426e+000	 7.554410708890517e-001	 1.278321194334986e+001
 1.139756547393629e+000	 6.390079932018798e-001	 1.415898275098195e+001
 1.132757901357898e+000	 6.513337740996277e-001	 1.404208721039714e+001
 1.125615597176293e+000	 6.636004927995228e-001	 1.393078860238954e+001
 1.118330315137091e+000	 6.758056871462320e-001	 1.382253683910444e+001
 1.110902790927220e+000	 6.879469035934759e-001	 1.370358372120872e+001
 1.103333815563813e+000	 7.000216987409836e-001	 1.357408399171320e+001
 1.095624235275144e+000	 7.120276408744931e-001	 1.343485020557099e+001
 1.087774951330634e+000	 7.239623115068550e-001	 1.328663132239203e+001
 1.079786919819701e+000	 7.358233069183022e-001	 1.313011200362101e+001
 1.071661151379311e+000	 7.476082396939175e-001	 1.296591238655364e+001
 1.063398710870180e+000	 7.593147402563173e-001	 1.279458834294914e+001
 1.145571053279286e+000	 6.422679137038877e-001	 1.414107010049884e+001
 1.138536703418726e+000	 6.546565749823208e-001	 1.402935659812619e+001
 1.131357962535409e+000	 6.669858727550705e-001	 1.392387686927870e+001
 1.124035514388128e+000	 6.792533323060525e-001	 1.381666251708147e+001
 1.116570098416944e+000	 6.914564875721528e-001	 1.369865829512173e+001
 1.108962509674396e+000	 7.035928826880307e-001	 1.357068488618534e+001
 1.101213598705821e+000	 7.156600735339670e-001	 1.343349580461595e+001
 1.093324271378501e+000	 7.276556292848364e-001	 1.328777626536205e+001
 1.085295488659378e+000	 7.395771339582308e-001	 1.313414254047637e+001
 1.077128266341220e+000	 7.514221879597718e-001	 1.297314181518354e+001
 1.068823674717169e+000	 7.631884096236151e-001	 1.280525255158960e+001
 1.151385559165260e+000	 6.455278342056968e-001	 1.412325132892416e+001
 1.144315505479866e+000	 6.579793758648005e-001	 1.401672477230180e+001
 1.137100327894832e+000	 6.703712527104010e-001	 1.391610735323222e+001
 1.129740713639465e+000	 6.827009774656603e-001	 1.380946030404198e+001
 1.122237405906962e+000	 6.949660715506317e-001	 1.369261897519114e+001
 1.114591203785260e+000	 7.071640666348995e-001	 1.356634804125617e+001
 1.106802962136764e+000	 7.192925061932889e-001	 1.343134028645850e+001
 1.098873591426612e+000	 7.313489470626965e-001	 1.328821551283940e+001
 1.090804057499271e+000	 7.433309609980714e-001	 1.313751995858513e+001
 1.082595381303308e+000	 7.552361362255734e-001	 1.297972623909286e+001
 1.074248638564292e+000	 7.670620789908953e-001	 1.281523381917382e+001
 1.157200065051501e+000	 6.487877547072080e-001	 1.410542035133727e+001
 1.150094307541256e+000	 6.613021767469599e-001	 1.400407362206424e+001
 1.142842693254488e+000	 6.737566326654046e-001	 1.390682096894678e+001
 1.135445912891022e+000	 6.861486226249490e-001	 1.380098575199395e+001
 1.127904713397183e+000	 6.984756555288100e-001	 1.368551630837728e+001
 1.120219897896312e+000	 7.107352505814967e-001	 1.356111964623546e+001
 1.112392325567875e+000	 7.229249388523745e-001	 1.342842617845126e+001
 1.104422911474868e+000	 7.350422648403597e-001	 1.328798867190118e+001
 1.096312626339280e+000	 7.470847880377582e-001	 1.314028172999495e+001
 1.088062496265477e+000	 7.590500844912654e-001	 1.298570182158339e+001
 1.079673602411449e+000	 7.709357483581074e-001	 1.282456786496461e+001
 1.163014570937961e+000	 6.520476752083219e-001	 1.408747719560243e+001
 1.155873109602832e+000	 6.646249776286929e-001	 1.399129146526324e+001
 1.148585058614304e+000	 6.771420126199730e-001	 1.389608506839163e+001
 1.141151112142714e+000	 6.895962677838111e-001	 1.379130067437366e+001
 1.133572020887520e+000	 7.019852395065859e-001	 1.367740715259456e+001
 1.125848592007459e+000	 7.143064345277265e-001	 1.355505223688527e+001
 1.117981688999059e+000	 7.265573715111380e-001	 1.342480237572829e+001
 1.109972231523171e+000	 7.387355826177517e-001	 1.328714172439889e+001
 1.101821195179304e+000	 7.508386150772266e-001	 1.314247169399118e+001
 1.093529611227624e+000	 7.628640327567903e-001	 1.299111107090858e+001
 1.085098566258542e+000	 7.748094177252014e-001	 1.283329671589234e+001
 1.030848927796671e+000	 7.360727240549706e-001	 1.271509671983741e+001
 1.022707989505717e+000	 7.473425880179891e-001	 1.252107497021639e+001
 1.014436781551623e+000	 7.585318826949443e-001	 1.233259202258754e+001
 1.006036489798570e+000	 7.696383702024040e-001	 1.214844890042674e+001
 9.975083509509269e-001	 7.806598357631507e-001	 1.196736055927201e+001
 9.888536519949061e-001	 7.915940891414762e-001	 1.178796040588499e+001
 9.800737295918565e-001	 8.024389660623850e-001	 1.160880523973245e+001
 9.711699694237401e-001	 8.131923296128095e-001	 1.142838059346937e+001
 9.621438054914021e-001	 8.238520716229617e-001	 1.124510644558570e+001
 9.529967193663581e-001	 8.344161140259776e-001	 1.105734327499834e+001
 9.437302393968710e-001	 8.448824101940288e-001	 1.086339842416175e+001
 1.036273891640754e+000	 7.399463934213199e-001	 1.273023498217564e+001
 1.028090110703659e+000	 7.512755663701751e-001	 1.254010632431271e+001
 1.019775374543992e+000	 7.625237460276317e-001	 1.235548461749586e+001
 1.011330875266677e+000	 7.736886827331343e-001	 1.217513438188735e+001
 1.002757856084381e+000	 7.847681500539400e-001	 1.199773305076512e+001
 9.940576107562282e-001	 7.957599462279669e-001	 1.182187563051454e+001
 9.852314829779033e-001	 8.066618955904691e-001	 1.164607979659580e+001
 9.762808657236762e-001	 8.174718499826220e-001	 1.146879140151248e+001
 9.672072005409863e-001	 8.281876901401470e-001	 1.128839036716386e+001
 9.580119767982906e-001	 8.388073270601095e-001	 1.110319693045639e+001
 9.486967308869592e-001	 8.493287033440607e-001	 1.091147820772549e+001
 1.041698855485570e+000	 7.438200627879527e-001	 1.274461755643988e+001
 1.033472231902282e+000	 7.552085447226570e-001	 1.255831029174503e+001
 1.025113967536979e+000	 7.665156093606413e-001	 1.237746183855995e+001
 1.016625260735336e+000	 7.777389952642229e-001	 1.220080381280971e+001
 1.008007361218321e+000	 7.888764643451286e-001	 1.202697980187269e+001
 9.992615695179733e-001	 7.999258033149022e-001	 1.185455016121861e+001
 9.903892363643124e-001	 8.108848251190414e-001	 1.168199726092154e+001
 9.813917620239231e-001	 8.217513703529624e-001	 1.150773115742478e+001
 9.722705955908413e-001	 8.325233086578918e-001	 1.133009566215288e+001
 9.630272342304665e-001	 8.431985400948195e-001	 1.114737477493924e+001
 9.536632223772814e-001	 8.537749964946746e-001	 1.095779944678981e+001
 1.047123819331021e+000	 7.476937321548193e-001	 1.275823889377549e+001
 1.038854353101484e+000	 7.591415230753883e-001	 1.257568205253776e+001
 1.030452560530485e+000	 7.705074726939275e-001	 1.239852052168809e+001
 1.021919646204449e+000	 7.817893077956220e-001	 1.222545656349525e+001
 1.013256866352648e+000	 7.929847786366678e-001	 1.205510354458005e+001
 1.004465528280040e+000	 8.040916604022279e-001	 1.188599086507854e+001
 9.955469897509849e-001	 8.151077546480426e-001	 1.171656935184399e+001
 9.865026583243810e-001	 8.260308907237651e-001	 1.154521709041040e+001
 9.773339906408669e-001	 8.368589271761237e-001	 1.137024566652955e+001
 9.680424916627864e-001	 8.475897531300306e-001	 1.118990678433546e+001
 9.586297138677377e-001	 8.582212896457886e-001	 1.100239922461384e+001
 1.052548783177006e+000	 7.515674015218691e-001	 1.277110073467487e+001
 1.044236474301167e+000	 7.630745014283223e-001	 1.259222402752846e+001
 1.035791153524410e+000	 7.744993360274444e-001	 1.241866467725269e+001
 1.027214031673916e+000	 7.858396203272857e-001	 1.224909909579792e+001
 1.018506371487263e+000	 7.970930929285075e-001	 1.208211400418097e+001
 1.009669487042330e+000	 8.082575174898905e-001	 1.191621149011890e+001
 1.000704743137819e+000	 8.193306841774135e-001	 1.174981454413966e+001
 9.916135546249502e-001	 8.303104110949647e-001	 1.158127304824364e+001
 9.823973856909621e-001	 8.411945456947709e-001	 1.140887018713864e+001
 9.730577490951501e-001	 8.519809661656644e-001	 1.123082924818250e+001
 9.635962053582278e-001	 8.626675827973180e-001	 1.104532077246278e+001
 1.057973747023426e+000	 7.554410708890517e-001	 1.278321194334986e+001
 1.049618595501230e+000	 7.670074797814130e-001	 1.260794571217516e+001
 1.041129746518654e+000	 7.784911993611470e-001	 1.243790532408835e+001
 1.032508417143636e+000	 7.898899328591671e-001	 1.227174479804070e+001
 1.023755876622064e+000	 8.012014072205981e-001	 1.210802773581428e+001
 1.014873445804742e+000	 8.124233745778354e-001	 1.194523250413285e+001
 1.005862496524717e+000	 8.235536137070948e-001	 1.178175790998224e+001
 9.967244509255303e-001	 8.345899314664957e-001	 1.161592934256063e+001
 9.874607807410282e-001	 8.455301642137624e-001	 1.144600535109323e+001
 9.780730065274571e-001	 8.563721792016433e-001	 1.127018462371855e+001
 9.685626968486518e-001	 8.671138759491810e-001	 1.108661332881600e+001
 1.063398710870180e+000	 7.593147402563173e-001	 1.279458834294914e+001
 1.055000716701573e+000	 7.709404581346138e-001	 1.262286351120148e+001
 1.046468339513117e+000	 7.824830626949891e-001	 1.245626032430393e+001
 1.037802802613509e+000	 7.939402453912196e-001	 1.229341382070765e+001
 1.029005381756952e+000	 8.053097215128897e-001	 1.213286796171786e+001
 1.020077404567176e+000	 8.165892316660085e-001	 1.197308093415432e+001
 1.011020249911577e+000	 8.277765432370262e-001	 1.181243096125664e+001
 1.001835347226022e+000	 8.388694518382924e-001	 1.164922259460918e+001
 9.925241757909649e-001	 8.498657827330259e-001	 1.148169345552431e+001
 9.830882639596080e-001	 8.607633922378900e-001	 1.130802139015886e+001
 9.735291883389100e-001	 8.715601691012934e-001	 1.112633199866614e+001
 1.068823674717169e+000	 7.631884096236151e-001	 1.280525255158960e+001
 1.060382837902096e+000	 7.748734364878774e-001	 1.263700057405126e+001
 1.051806932507698e+000	 7.864749260289258e-001	 1.247375421888162e+001
 1.043097188083436e+000	 7.979905579233964e-001	 1.231413291288106e+001
 1.034254886891827e+000	 8.094180358053328e-001	 1.215666440917422e+001
 1.025281363329533e+000	 8.207550887543560e-001	 1.199979020655088e+001
 1.016178003298301e+000	 8.319994727671491e-001	 1.184187149241151e+001
 1.006946243526324e+000	 8.431489722102895e-001	 1.168119558144190e+001
 9.975875708406714e-001	 8.542014012524897e-001	 1.151598281766336e+001
 9.881035213915023e-001	 8.651546052743258e-001	 1.134439390318732e+001
 9.784956798289021e-001	 8.760064622535720e-001	 1.116453761290453e+001
 1.074248638564292e+000	 7.670620789908953e-001	 1.281523381917382e+001
 1.065764959102699e+000	 7.788064148411578e-001	 1.265038663112261e+001
 1.057145525502298e+000	 7.904667893629110e-001	 1.249041806403248e+001
 1.048391573553316e+000	 8.020408704556507e-001	 1.233393525939954e+001
 1.039504392026589e+000	 8.135263500978776e-001	 1.217945314912297e+001
 1.030485322091712e+000	 8.249209458428238e-001	 1.202539998771808e+001
 1.021335756684786e+000	 8.362224022974037e-001	 1.187012342383172e+001
 1.012057139826338e+000	 8.474284925824217e-001	 1.171189708253680e+001
 1.002650965890049e+000	 8.585370197720823e-001	 1.154892762524945e+001
 9.931187788230408e-001	 8.695458183108743e-001	 1.137936224965755e+001
 9.834621713185283e-001	 8.804527554059347e-001	 1.120129658779145e+001
 1.079673602411449e+000	 7.709357483581074e-001	 1.282456786496462e+001
 1.071147080303283e+000	 7.827393931944082e-001	 1.266305783075568e+001
 1.062484118496817e+000	 7.944586526969000e-001	 1.250628926828474e+001
 1.053685959023049e+000	 8.060911829879361e-001	 1.235286031871041e+001
 1.044753897161138e+000	 8.176346643904751e-001	 1.220127643541703e+001
 1.035689280853614e+000	 8.290868029313576e-001	 1.204995602535125e+001
 1.026493510070935e+000	 8.404453318277302e-001	 1.189723664571313e+001
 1.017168036125963e+000	 8.517080129546233e-001	 1.174138172682864e+001
 1.007714360938997e+000	 8.628726382917317e-001	 1.158058778724731e+001
 9.981340362541230e-001	 8.739370313474563e-001	 1.141299210249358e+001
 9.884286628076887e-001	 8.848990485582965e-001	 1.123668078450668e+001
 1.085098566258542e+000	 7.748094177252014e-001	 1.283329671589234e+001
 1.076529201503747e+000	 7.866723715475821e-001	 1.267505657694526e+001
 1.067822711491155e+000	 7.984505160308466e-001	 1.252141143027690e+001
 1.058980344492536e+000	 8.101414955202057e-001	 1.237095366139296e+001
 1.050003402295374e+000	 8.217429786830747e-001	 1.222218254470043e+001
 1.040893239615138e+000	 8.332526600199040e-001	 1.207350999027763e+001
 1.031651263456647e+000	 8.446682613580696e-001	 1.192326686241945e+001
 1.022278932425099e+000	 8.559875333268288e-001	 1.176970984014012e+001
 1.012777755987415e+000	 8.672082568113665e-001	 1.161102878486596e+001
 1.003149293684649e+000	 8.783282443839943e-001	 1.144535457578555e+001
 9.933951542962829e-001	 8.893453417105752e-001	 1.127076736877944e+001
 9.437302393968710e-001	 8.448824101940288e-001	 1.086339842416175e+001
 9.343473563375667e-001	 8.552473990597010e-001	 1.066698752184128e+001
 9.248483085016389e-001	 8.655106795860112e-001	 1.047223995164439e+001
 9.152347594181193e-001	 8.756703089076804e-001	 1.027813445915206e+001
 9.055084157349460e-001	 8.857243806682982e-001	 1.008365134035190e+001
 8.956710262109042e-001	 8.956710262109041e-001	 9.887778169010785e+000
 8.857243806682983e-001	 9.055084157349460e-001	 9.689515524773771e+000
 8.756703089076804e-001	 9.152347594181193e-001	 9.487882677004480e+000
 8.655106795860115e-001	 9.248483085016390e-001	 9.281923178707725e+000
 8.552473990597013e-001	 9.343473563375669e-001	 9.070710324578620e+000
 8.448824101940289e-001	 9.437302393968712e-001	 8.853352427307483e+000
 9.486967308869592e-001	 8.493287033440607e-001	 1.091147820772548e+001
 9.392644693008143e-001	 8.597482391840500e-001	 1.071709954322889e+001
 9.297154316072044e-001	 8.700655314325843e-001	 1.052436237780488e+001
 9.200512900896849e-001	 8.802786269998228e-001	 1.033223855811005e+001
 9.102737603776350e-001	 8.903856094969239e-001	 1.013970240423013e+001
 9.003846004328947e-001	 9.003846004328946e-001	 9.945736600749454e+000
 8.903856094969240e-001	 9.102737603776351e-001	 9.749338090431468e+000
 8.802786269998226e-001	 9.200512900896849e-001	 9.549523924050819e+000
 8.700655314325844e-001	 9.297154316072043e-001	 9.345337019203580e+000
 8.597482391840496e-001	 9.392644693008142e-001	 9.135851780586888e+000
 8.493287033440606e-001	 9.486967308869591e-001	 8.920179534314011e+000
 9.536632223772814e-001	 8.537749964946746e-001	 1.095779944678981e+001
 9.441815822643049e-001	 8.642490793089671e-001	 1.076538814571106e+001
 9.345825547130385e-001	 8.746203832796977e-001	 1.057461362735229e+001
 9.248678207615561e-001	 8.848869450924649e-001	 1.038443869605087e+001
 9.150391050206755e-001	 8.950468383260026e-001	 1.019382949064979e+001
 9.050981746552862e-001	 9.050981746552862e-001	 1.000176154837951e+001
 8.950468383260025e-001	 9.150391050206754e-001	 9.807225873551893e+000
 8.848869450924650e-001	 9.248678207615562e-001	 9.609234963086070e+000
 8.746203832796977e-001	 9.345825547130385e-001	 9.406828740119076e+000
 8.642490793089671e-001	 9.441815822643049e-001	 9.199080346593327e+000
 8.537749964946746e-001	 9.536632223772812e-001	 8.985101745761197e+000
 9.586297138677377e-001	 8.582212896457886e-001	 1.100239922461384e+001
 9.490986952279386e-001	 8.687499194343656e-001	 1.081189728326199e+001
 9.394496778190408e-001	 8.791752351272595e-001	 1.062304364898186e+001
 9.296843514336336e-001	 8.894952631855135e-001	 1.043478996683387e+001
 9.198044496639684e-001	 8.997080671554369e-001	 1.024609201524303e+001
 9.098117488779829e-001	 9.098117488779827e-001	 1.005591595190236e+001
 8.997080671554371e-001	 9.198044496639686e-001	 9.863244567015473e+000
 8.894952631855135e-001	 9.296843514336336e-001	 9.667083494323830e+000
 8.791752351272593e-001	 9.394496778190407e-001	 9.466467329548456e+000
 8.687499194343655e-001	 9.490986952279387e-001	 9.260465605478967e+000
 8.582212896457886e-001	 9.586297138677375e-001	 9.048188572969471e+000
 9.635962053582278e-001	 8.626675827973180e-001	 1.104532077246278e+001
 9.540158081916156e-001	 8.732507595601574e-001	 1.085667689798652e+001
 9.443168009251123e-001	 8.837300869751786e-001	 1.066970823820108e+001
 9.345008821058185e-001	 8.941035812788736e-001	 1.048335318737921e+001
 9.245697943074160e-001	 9.043692959851324e-001	 1.029655500948100e+001
 9.145253231008851e-001	 9.145253231008849e-001	 1.010826827538430e+001
 9.043692959851323e-001	 9.245697943074160e-001	 9.917465310317555e+000
 8.941035812788736e-001	 9.345008821058184e-001	 9.723142600308275e+000
 8.837300869751789e-001	 9.443168009251123e-001	 9.524327105601049e+000
 8.732507595601573e-001	 9.540158081916156e-001	 9.320082428566465e+000
 8.626675827973181e-001	 9.635962053582274e-001	 9.109514783618218e+000
 9.685626968486518e-001	 8.671138759491810e-001	 1.108661332881600e+001
 9.589329211552358e-001	 8.777515996862553e-001	 1.089978278461792e+001
 9.491839240311524e-001	 8.882849388233640e-001	 1.071466890691287e+001
 9.393174127780104e-001	 8.987118993724509e-001	 1.053019477214641e+001
 9.293351389509182e-001	 9.090305248149910e-001	 1.034528899987075e+001
 9.192388973238956e-001	 9.192388973238954e-001	 1.015889239071097e+001
 9.090305248149909e-001	 9.293351389509182e-001	 9.969964577734009e+000
 8.987118993724508e-001	 9.393174127780105e-001	 9.777490638354257e+000
 8.882849388233639e-001	 9.491839240311523e-001	 9.580487612996562e+000
 8.777515996862554e-001	 9.589329211552359e-001	 9.378010876266417e+000
 8.671138759491809e-001	 9.685626968486518e-001	 9.169160306346683e+000
 9.735291883389100e-001	 8.715601691012934e-001	 1.112633199866614e+001
 9.638500341186992e-001	 8.822524398125708e-001	 1.094127645497360e+001
 9.540510471370610e-001	 8.928397906717235e-001	 1.075799275283496e+001
 9.441339434501102e-001	 9.033202174661514e-001	 1.057538660733777e+001
 9.341004835943767e-001	 9.136917536449165e-001	 1.039236988677858e+001
 9.239524715469168e-001	 9.239524715469170e-001	 1.020786746087658e+001
 9.136917536449166e-001	 9.341004835943765e-001	 1.002082406593678e+001
 9.033202174661514e-001	 9.441339434501103e-001	 9.830211132366042e+000
 8.928397906717234e-001	 9.540510471370609e-001	 9.635033518973424e+000
 8.822524398125704e-001	 9.638500341186989e-001	 9.434336097972597e+000
 8.715601691012934e-001	 9.735291883389100e-001	 9.227210134553175e+000
 9.784956798289021e-001	 8.760064622535720e-001	 1.116453761290453e+001
 9.687671470819058e-001	 8.867532799390160e-001	 1.098122500236985e+001
 9.589181702427395e-001	 8.973946425201665e-001	 1.079975232876171e+001
 9.489504741220182e-001	 9.079285355598812e-001	 1.061900592483762e+001
 9.388658282376924e-001	 9.183529824748138e-001	 1.043787882289011e+001
 9.286660457698506e-001	 9.286660457698507e-001	 1.025527782282273e+001
 9.183529824748138e-001	 9.388658282376924e-001	 1.007013058108128e+001
 9.079285355598811e-001	 9.489504741220182e-001	 9.881392664054417e+000
 8.973946425201665e-001	 9.589181702427395e-001	 9.688054508530863e+000
 8.867532799390161e-001	 9.687671470819059e-001	 9.489148231239485e+000
 8.760064622535722e-001	 9.784956798289021e-001	 9.283754229424025e+000
 9.834621713185283e-001	 8.804527554059347e-001	 1.120129658779145e+001
 9.736842600447556e-001	 8.912541200655042e-001	 1.101970096599719e+001
 9.637852933480873e-001	 9.019494943686012e-001	 1.084002551167256e+001
 9.537670047936347e-001	 9.125368536535453e-001	 1.066113517589603e+001
 9.436311728807664e-001	 9.230142113045854e-001	 1.048190209132198e+001
 9.333796199925991e-001	 9.333796199925990e-001	 1.030121286984380e+001
 9.230142113045853e-001	 9.436311728807661e-001	 1.011797592538344e+001
 9.125368536535454e-001	 9.537670047936350e-001	 9.931128763575781e+000
 9.019494943686012e-001	 9.637852933480871e-001	 9.739645179032410e+000
 8.912541200655043e-001	 9.736842600447561e-001	 9.542542300262070e+000
 8.804527554059345e-001	 9.834621713185284e-001	 9.338887422218397e+000
 9.884286628076887e-001	 8.848990485582965e-001	 1.123668078450668e+001
 9.786013730071491e-001	 8.957549601919467e-001	 1.105678219525806e+001
 9.686524164530039e-001	 9.065043462169358e-001	 1.087889537169479e+001
 9.585835354648612e-001	 9.171451717470502e-001	 1.070186190456614e+001
 9.483965175234997e-001	 9.276754401341349e-001	 1.052453098339643e+001
 9.380931942150645e-001	 9.380931942150644e-001	 1.034576693357334e+001
 9.276754401341348e-001	 9.483965175234996e-001	 1.016445678320402e+001
 9.171451717470505e-001	 9.585835354648611e-001	 9.979517799611624e+000
 9.065043462169357e-001	 9.686524164530038e-001	 9.789904934189888e+000
 8.957549601919469e-001	 9.786013730071496e-001	 9.594618113685327e+000
 8.848990485582966e-001	 9.884286628076888e-001	 9.392709315833784e+000
 9.933951542962829e-001	 8.893453417105752e-001	 1.127076736877945e+001
 9.835184859689858e-001	 9.002558003182557e-001	 1.109255171406759e+001
 9.735195395573906e-001	 9.110591980650797e-001	 1.091645004092372e+001
 9.634000661355969e-001	 9.217534898403010e-001	 1.074127862090323e+001
 9.531618621657936e-001	 9.323366689633666e-001	 1.056586167609130e+001
 9.428067684371487e-001	 9.428067684371487e-001	 1.038903916556639e+001
 9.323366689633666e-001	 9.531618621657936e-001	 1.020967460665762e+001
 9.217534898403014e-001	 9.634000661355970e-001	 1.002666286890947e+001
 9.110591980650801e-001	 9.735195395573908e-001	 9.838937877451709e+000
 9.002558003182558e-001	 9.835184859689861e-001	 9.645480161766956e+000
 8.893453417105754e-001	 9.933951542962831e-001	 9.445324185680482e+000
 8.448824101940289e-001	 9.437302393968712e-001	 8.853352427307483e+000
 8.344161140259777e-001	 9.529967193663582e-001	 8.636257738784696e+000
 8.238520716229620e-001	 9.621438054914022e-001	 8.425635677052291e+000
 8.131923296128095e-001	 9.711699694237402e-001	 8.220265723440294e+000
 8.024389660623853e-001	 9.800737295918567e-001	 8.018983474822194e+000
 7.915940891414762e-001	 9.888536519949059e-001	 7.820684720727967e+000
 7.806598357631508e-001	 9.975083509509268e-001	 7.624329074526791e+000
 7.696383702024038e-001	 1.006036489798570e+000	 7.428943123681246e+000
 7.585318826949441e-001	 1.014436781551623e+000	 7.233623067167869e+000
 7.473425880179889e-001	 1.022707989505716e+000	 7.037536811550145e+000
 7.360727240549704e-001	 1.030848927796671e+000	 6.839925500855872e+000
 8.493287033440606e-001	 9.486967308869591e-001	 8.920179534314011e+000
 8.388073270601094e-001	 9.580119767982903e-001	 8.704764520922781e+000
 8.281876901401469e-001	 9.672072005409864e-001	 8.495806941099559e+000
 8.174718499826219e-001	 9.762808657236761e-001	 8.292024500820284e+000
 8.066618955904692e-001	 9.852314829779032e-001	 8.092192230025532e+000
 7.957599462279668e-001	 9.940576107562282e-001	 7.895146810360743e+000
 7.847681500539400e-001	 1.002757856084381e+000	 7.699790445229721e+000
 7.736886827331343e-001	 1.011330875266676e+000	 7.505094235525335e+000
 7.625237460276317e-001	 1.019775374543992e+000	 7.310101027587606e+000
 7.512755663701749e-001	 1.028090110703659e+000	 7.113927703410959e+000
 7.399463934213199e-001	 1.036273891640754e+000	 6.915766886914122e+000
 8.537749964946746e-001	 9.536632223772812e-001	 8.985101745761197e+000
 8.431985400948194e-001	 9.630272342304667e-001	 8.771363513490977e+000
 8.325233086578918e-001	 9.722705955908412e-001	 8.564051301576063e+000
 8.217513703529624e-001	 9.813917620239232e-001	 8.361825239437586e+000
 8.108848251190414e-001	 9.903892363643124e-001	 8.163404102493832e+000
 7.999258033149023e-001	 9.992615695179731e-001	 7.967569889036766e+000
 7.888764643451287e-001	 1.008007361218321e+000	 7.773171927349213e+000
 7.777389952642227e-001	 1.016625260735336e+000	 7.579130474762345e+000
 7.665156093606410e-001	 1.025113967536979e+000	 7.384439773617577e+000
 7.552085447226569e-001	 1.033472231902282e+000	 7.188170532683002e+000
 7.438200627879529e-001	 1.041698855485570e+000	 6.989471806449946e+000
 8.582212896457886e-001	 9.586297138677375e-001	 9.048188572969465e+000
 8.475897531300307e-001	 9.680424916627867e-001	 8.836124109466471e+000
 8.368589271761239e-001	 9.773339906408669e-001	 8.630438539730235e+000
 8.260308907237651e-001	 9.865026583243810e-001	 8.429738542988002e+000
 8.151077546480426e-001	 9.955469897509850e-001	 8.232690880126270e+000
 8.040916604022279e-001	 1.004465528280041e+000	 8.038027218447356e+000
 7.929847786366677e-001	 1.013256866352648e+000	 7.844548474271926e+000
 7.817893077956223e-001	 1.021919646204450e+000	 7.651128633396642e+000
 7.705074726939272e-001	 1.030452560530486e+000	 7.456718012758304e+000
 7.591415230753880e-001	 1.038854353101484e+000	 7.260345930339996e+000
 7.476937321548192e-001	 1.047123819331021e+000	 7.061122754350247e+000
 8.626675827973181e-001	 9.635962053582274e-001	 9.109514783618218e+000
 8.519809661656643e-001	 9.730577490951501e-001	 8.899120922096779e+000
 8.411945456947708e-001	 9.823973856909618e-001	 8.695043604860564e+000
 8.303104110949648e-001	 9.916135546249503e-001	 8.495840115635220e+000
 8.193306841774136e-001	 1.000704743137819e+000	 8.300129369125761e+000
 8.082575174898905e-001	 1.009669487042330e+000	 8.106596982624815e+000
 7.970930929285076e-001	 1.018506371487263e+000	 7.913999852758685e+000
 7.858396203272857e-001	 1.027214031673916e+000	 7.721170195646868e+000
 7.744993360274443e-001	 1.035791153524410e+000	 7.527019012186698e+000
 7.630745014283221e-001	 1.044236474301167e+000	 7.330538943956373e+000
 7.515674015218692e-001	 1.052548783177006e+000	 7.130806489338735e+000
 8.671138759491809e-001	 9.685626968486518e-001	 9.169160306346683e+000
 8.563721792016433e-001	 9.780730065274570e-001	 8.960433693690293e+000
 8.455301642137625e-001	 9.874607807410281e-001	 8.757946527819270e+000
 8.345899314664957e-001	 9.967244509255303e-001	 8.560210680714286e+000
 8.235536137070946e-001	 1.005862496524717e+000	 8.365801318342946e+000
 8.124233745778354e-001	 1.014873445804742e+000	 8.173362218330905e+000
 8.012014072205979e-001	 1.023755876622064e+000	 7.981610579739114e+000
 7.898899328591672e-001	 1.032508417143636e+000	 7.789341281461454e+000
 7.784911993611466e-001	 1.041129746518654e+000	 7.595430549273183e+000
 7.670074797814130e-001	 1.049618595501230e+000	 7.398838995457541e+000
 7.554410708890518e-001	 1.057973747023426e+000	 7.198613999151836e+000
 8.715601691012934e-001	 9.735291883389100e-001	 9.227210134553175e+000
 8.607633922378900e-001	 9.830882639596080e-001	 9.020147203548719e+000
 8.498657827330257e-001	 9.925241757909645e-001	 8.819232333590771e+000
 8.388694518382923e-001	 1.001835347226022e+000	 8.622935898426556e+000
 8.277765432370263e-001	 1.011020249911578e+000	 8.429793342522792e+000
 8.165892316660086e-001	 1.020077404567176e+000	 8.238410744245771e+000
 8.053097215128898e-001	 1.029005381756952e+000	 8.047469857796594e+000
 7.939402453912194e-001	 1.037802802613509e+000	 7.855732588611445e+000
 7.824830626949888e-001	 1.046468339513116e+000	 7.662044860550121e+000
 7.709404581346137e-001	 1.055000716701573e+000	 7.465339837193151e+000
 7.593147402563171e-001	 1.063398710870180e+000	 7.264640463904064e+000
 8.760064622535722e-001	 9.784956798289021e-001	 9.283754229424025e+000
 8.651546052743261e-001	 9.881035213915024e-001	 9.078351175075692e+000
 8.542014012524900e-001	 9.975875708406715e-001	 8.878990952978560e+000
 8.431489722102895e-001	 1.006946243526324e+000	 8.684106282567653e+000
 8.319994727671490e-001	 1.016178003298301e+000	 8.492196844494323e+000
 8.207550887543560e-001	 1.025281363329533e+000	 8.301835089004142e+000
 8.094180358053328e-001	 1.034254886891827e+000	 8.111671509392410e+000
 7.979905579233962e-001	 1.043097188083436e+000	 7.920439333407916e+000
 7.864749260289256e-001	 1.051806932507698e+000	 7.726958589186383e+000
 7.748734364878774e-001	 1.060382837902096e+000	 7.530139506391034e+000
 7.631884096236152e-001	 1.068823674717169e+000	 7.328985217704854e+000
 8.804527554059345e-001	 9.834621713185284e-001	 9.338887422218397e+000
 8.695458183108742e-001	 9.931187788230407e-001	 9.135140182088154e+000
 8.585370197720824e-001	 1.002650965890049e+000	 8.937317133431879e+000
 8.474284925824215e-001	 1.012057139826338e+000	 8.743817116318123e+000
 8.362224022974037e-001	 1.021335756684787e+000	 8.553107936339590e+000
 8.249209458428238e-001	 1.030485322091712e+000	 8.363732418116216e+000
 8.135263500978778e-001	 1.039504392026589e+000	 8.174313909874751e+000
 8.020408704556508e-001	 1.048391573553316e+000	 7.983561190094836e+000
 7.904667893629112e-001	 1.057145525502298e+000	 7.790272731021956e+000
 7.788064148411577e-001	 1.065764959102699e+000	 7.593340278053644e+000
 7.670620789908954e-001	 1.074248638564292e+000	 7.391751708592106e+000
 8.848990485582966e-001	 9.884286628076888e-001	 9.392709315833784e+000
 8.739370313474562e-001	 9.981340362541229e-001	 9.190613554359516e+000
 8.628726382917320e-001	 1.007714360938997e+000	 8.994310349041792e+000
 8.517080129546235e-001	 1.017168036125963e+000	 8.802168367133376e+000
 8.404453318277300e-001	 1.026493510070935e+000	 8.612627359578225e+000
 8.290868029313578e-001	 1.035689280853614e+000	 8.424204459813069e+000
 8.176346643904749e-001	 1.044753897161138e+000	 8.235499919314112e+000
 8.060911829879359e-001	 1.053685959023049e+000	 8.045202228963202e+000
 7.944586526968999e-001	 1.062484118496817e+000	 7.852092579212449e+000
 7.827393931944081e-001	 1.071147080303283e+000	 7.655048616344304e+000
 7.709357483581073e-001	 1.079673602411449e+000	 7.453047456837958e+000
 8.893453417105754e-001	 9.933951542962831e-001	 9.445324185680477e+000
 8.783282443839946e-001	 1.003149293684649e+000	 9.244875282422578e+000
 8.672082568113666e-001	 1.012777755987415e+000	 9.050074709736611e+000
 8.559875333268284e-001	 1.022278932425099e+000	 8.859264600761136e+000
 8.446682613580697e-001	 1.031651263456647e+000	 8.670860404402863e+000
 8.332526600199038e-001	 1.040893239615138e+000	 8.483357429855921e+000
 8.217429786830746e-001	 1.050003402295374e+000	 8.295336813205227e+000
 8.101414955202058e-001	 1.058980344492536e+000	 8.105470853231365e+000
 7.984505160308463e-001	 1.067822711491155e+000	 7.912527667533368e+000
 7.866723715475820e-001	 1.076529201503747e+000	 7.715375124523340e+000
 7.748094177252015e-001	 1.085098566258542e+000	 7.512984011686612e+000
 7.360727240549704e-001	 1.030848927796671e+000	 6.839925500855872e+000
 7.247245501008481e-001	 1.038858461617221e+000	 6.638778407089270e+000
 7.133003446805322e-001	 1.046735506791741e+000	 6.433678131975817e+000
 7.018024048406094e-001	 1.054479031054074e+000	 6.226390506379293e+000
 6.902330449192106e-001	 1.062088054702070e+000	 6.018782804050279e+000
 6.785945950602358e-001	 1.069561650911468e+000	 5.812818109572583e+000
 6.668893997229497e-001	 1.076898946000012e+000	 5.610549049459996e+000
 6.551198161888586e-001	 1.084099119641821e+000	 5.412146635067554e+000
 6.432882130677762e-001	 1.091161405032191e+000	 5.219155266513965e+000
 6.313969688049654e-001	 1.098085089003007e+000	 5.036028137359589e+000
 6.194484701912242e-001	 1.104869512089097e+000	 4.867258265557202e+000
 7.399463934213199e-001	 1.036273891640754e+000	 6.915766886914122e+000
 7.285384983658308e-001	 1.044325576575955e+000	 6.713814400417881e+000
 7.170541717196202e-001	 1.052244075628034e+000	 6.507915389075563e+000
 7.054957226177469e-001	 1.060028351098407e+000	 6.299876715221933e+000
 6.938654775778140e-001	 1.067677418129124e+000	 6.091611389839045e+000
 6.821657790063734e-001	 1.075190345018397e+000	 5.885132823880179e+000
 6.703989837006784e-001	 1.082566253486109e+000	 5.682548418373156e+000
 6.585674613477011e-001	 1.089804318889317e+000	 5.485033792827318e+000
 6.466735930223382e-001	 1.096903770387911e+000	 5.292816680531667e+000
 6.347197696866973e-001	 1.103863891060642e+000	 5.110192539826144e+000
 6.227083906923382e-001	 1.110684017971820e+000	 4.941744339566064e+000
 7.438200627879529e-001	 1.041698855485570e+000	 6.989471806449946e+000
 7.323524466311011e-001	 1.049792691535468e+000	 6.786760583901837e+000
 7.208079987590111e-001	 1.057752644465140e+000	 6.580149300777720e+000
 7.091890403952122e-001	 1.065577671143576e+000	 6.371475960351266e+000
 6.974979102367745e-001	 1.073266781557023e+000	 6.162689292062732e+000
 6.857369629528982e-001	 1.080819039126168e+000	 5.955842908453324e+000
 6.739085676788197e-001	 1.088233560973034e+000	 5.753088776081934e+000
 6.620151065069740e-001	 1.095509518137610e+000	 5.556315741617094e+000
 6.500589729773375e-001	 1.102646135744382e+000	 5.365184200368987e+000
 6.380425705688562e-001	 1.109642693118966e+000	 5.183336860732307e+000
 6.259683111938496e-001	 1.116498523855156e+000	 5.015437197714563e+000
 7.476937321548192e-001	 1.047123819331021e+000	 7.061122754350247e+000
 7.361663948966012e-001	 1.055259806495660e+000	 6.857699457114599e+000
 7.245618257986405e-001	 1.063261213302959e+000	 6.650458870277345e+000
 7.128823581729309e-001	 1.071126991189482e+000	 6.441260421152365e+000
 7.011303428960075e-001	 1.078856144985671e+000	 6.232078716829249e+000
 6.893081468997159e-001	 1.086447733234689e+000	 6.024997628853842e+000
 6.774181516572720e-001	 1.093900868460696e+000	 5.822203666669140e+000
 6.654627516665709e-001	 1.101214717386616e+000	 5.625952907652659e+000
 6.534443529326648e-001	 1.108388501101529e+000	 5.436197227903672e+000
 6.413653714513354e-001	 1.115421495177917e+000	 5.255377710714719e+000
 6.292282316956586e-001	 1.122313029739053e+000	 5.088229160412554e+000
 7.515674015218692e-001	 1.052548783177006e+000	 7.130806489338735e+000
 7.399803431622750e-001	 1.060726921456431e+000	 6.926717657629995e+000
 7.283156528384416e-001	 1.068769782141392e+000	 6.718927173275779e+000
 7.165756759508271e-001	 1.076676311236026e+000	 6.509306340417065e+000
 7.047627755554287e-001	 1.084445508414972e+000	 6.299845976971250e+000
 6.928793308467321e-001	 1.092076427343866e+000	 6.092650449118777e+000
 6.809277356359335e-001	 1.099568175949008e+000	 5.889930968871849e+000
 6.689103968263844e-001	 1.106919916636253e+000	 5.693998169017743e+000
 6.568297328882107e-001	 1.114130866459280e+000	 5.505801058554213e+000
 6.446881723340283e-001	 1.121200297237431e+000	 5.326237363117403e+000
 6.324881521976661e-001	 1.128127535623464e+000	 5.160018020925770e+000
 7.554410708890518e-001	 1.057973747023426e+000	 7.198613999151836e+000
 7.437942914280661e-001	 1.066194036417681e+000	 6.993905932855669e+000
 7.320694798783510e-001	 1.074278350980339e+000	 6.785641334828483e+000
 7.202689937288270e-001	 1.082225631283110e+000	 6.575694004640956e+000
 7.083952082149517e-001	 1.090034871844829e+000	 6.366061474316982e+000
 6.964505147938526e-001	 1.097705121453605e+000	 6.158859014605421e+000
 6.844373196147021e-001	 1.105235483437879e+000	 5.956312878196510e+000
 6.723580419863073e-001	 1.112625115886439e+000	 5.760752793980181e+000
 6.602151128438665e-001	 1.119873231817559e+000	 5.573947110023352e+000
 6.480109732168280e-001	 1.126979099297446e+000	 5.395843967865693e+000
 6.357480726997732e-001	 1.133942041508339e+000	 5.230707243496399e+000
 7.593147402563171e-001	 1.063398710870180e+000	 7.264640463904064e+000
 7.476082396939174e-001	 1.071661151379311e+000	 7.059359109946672e+000
 7.358233069183023e-001	 1.079786919819701e+000	 6.850692504214066e+000
 7.239623115068550e-001	 1.087774951330634e+000	 6.640507722334763e+000
 7.120276408744931e-001	 1.095624235275144e+000	 6.430799680007835e+000
 7.000216987409835e-001	 1.103333815563813e+000	 6.223685132967439e+000
 6.879469035934759e-001	 1.110902790927220e+000	 6.021395887280210e+000
 6.758056871462324e-001	 1.118330315137091e+000	 5.826271233811831e+000
 6.636004927995226e-001	 1.125615597176293e+000	 5.640593149636102e+000
 6.513337740996277e-001	 1.132757901357899e+000	 5.464131764160501e+000
 6.390079932018798e-001	 1.139756547393630e+000	 5.300206160530935e+000
 7.631884096236152e-001	 1.068823674717169e+000	 7.328985217704854e+000
 7.514221879597717e-001	 1.077128266341220e+000	 7.123176063866782e+000
 7.395771339582310e-001	 1.085295488659378e+000	 6.914175827894462e+000
 7.276556292848365e-001	 1.093324271378501e+000	 6.703835800417091e+000
 7.156600735339670e-001	 1.101213598705821e+000	 6.494139112935014e+000
 7.035928826880307e-001	 1.108962509674396e+000	 6.287194753323174e+000
 6.914564875721528e-001	 1.116570098416944e+000	 6.085230764562202e+000
 6.792533323060526e-001	 1.124035514388128e+000	 5.890586640214935e+000
 6.669858727550704e-001	 1.131357962535409e+000	 5.705704935950839e+000
 6.546565749823209e-001	 1.138536703418727e+000	 5.531041292030850e+000
 6.422679137038875e-001	 1.145571053279286e+000	 5.368430168891330e+000
 7.670620789908954e-001	 1.074248638564292e+000	 7.391751708592106e+000
 7.552361362255734e-001	 1.082595381303309e+000	 7.185459683662323e+000
 7.433309609980717e-001	 1.090804057499271e+000	 6.976190420636003e+000
 7.313489470626963e-001	 1.098873591426612e+000	 6.765770518759026e+000
 7.192925061932891e-001	 1.106802962136764e+000	 6.556162316361380e+000
 7.071640666348995e-001	 1.114591203785260e+000	 6.349457943684317e+000
 6.949660715506316e-001	 1.122237405906962e+000	 6.147872531325752e+000
 6.827009774656603e-001	 1.129740713639465e+000	 5.953736587442416e+000
 6.703712527104010e-001	 1.137100327894832e+000	 5.769487562814287e+000
 6.579793758648006e-001	 1.144315505479867e+000	 5.596519602788137e+000
 6.455278342056967e-001	 1.151385559165260e+000	 5.435300925318072e+000
 7.709357483581073e-001	 1.079673602411449e+000	 7.453047456837958e+000
 7.590500844912653e-001	 1.088062496265476e+000	 7.246316837013864e+000
 7.470847880377584e-001	 1.096312626339279e+000	 7.036839334853361e+000
 7.350422648403597e-001	 1.104422911474868e+000	 6.826408102943805e+000
 7.229249388523744e-001	 1.112392325567876e+000	 6.616955832791230e+000
 7.107352505814967e-001	 1.120219897896312e+000	 6.410548866702786e+000
 6.984756555288101e-001	 1.127904713397183e+000	 6.209380437165326e+000
 6.861486226249490e-001	 1.135445912891022e+000	 6.015763046403717e+000
 6.737566326654046e-001	 1.142842693254488e+000	 5.832120004979263e+000
 6.613021767469600e-001	 1.150094307541256e+000	 5.660520468418087e+000
 6.487877547072080e-001	 1.157200065051501e+000	 5.500746541018581e+000
 7.748094177252015e-001	 1.085098566258542e+000	 7.512984011686612e+000
 7.628640327567904e-001	 1.093529611227624e+000	 7.305858333122024e+000
 7.508386150772266e-001	 1.101821195179304e+000	 7.096229528241335e+000
 7.387355826177516e-001	 1.109972231523171e+000	 6.885848695306438e+000
 7.265573715111381e-001	 1.117981688999059e+000	 6.676610177149756e+000
 7.143064345277267e-001	 1.125848592007459e+000	 6.470545753798304e+000
 7.019852395065859e-001	 1.133572020887520e+000	 6.269817933937858e+000
 6.895962677838112e-001	 1.141151112142714e+000	 6.076712357390250e+000
 6.771420126199729e-001	 1.148585058614304e+000	 5.893629327145653e+000
 6.646249776286930e-001	 1.155873109602832e+000	 5.723004589950119e+000
 6.520476752083220e-001	 1.163014570937961e+000	 5.564701775448597e+000
 6.194484701912242e-001	 1.104869512089097e+000	 4.867258265557202e+000
 6.074469153977586e-001	 1.111513082578307e+000	 4.702395084390410e+000
 5.953929149789650e-001	 1.118016277482769e+000	 4.529711754694971e+000
 5.832888714389555e-001	 1.124378599478121e+000	 4.351824651129592e+000
 5.711371897061307e-001	 1.130599604698523e+000	 4.171272647417847e+000
 5.589402756857406e-001	 1.136678902563766e+000	 3.990501157757046e+000
 5.467005348259916e-001	 1.142616155560737e+000	 3.811847647699321e+000
 5.344203706993144e-001	 1.148411078980047e+000	 3.637528677377508e+000
 5.221021836003700e-001	 1.154063440608706e+000	 3.469628526680701e+000
 5.097483691623167e-001	 1.159573060379774e+000	 3.310089438707184e+000
 4.973613169928101e-001	 1.164939809979976e+000	 3.160703504653545e+000
 6.227083906923382e-001	 1.110684017971820e+000	 4.941744339566064e+000
 6.106436763038349e-001	 1.117362551032718e+000	 4.776802775524514e+000
 5.985262402887011e-001	 1.123899969765807e+000	 4.603446131128993e+000
 5.863584977945159e-001	 1.130295774229504e+000	 4.424413761050725e+000
 5.741428664059041e-001	 1.136549518222081e+000	 4.242364226034142e+000
 5.618817646894811e-001	 1.142660809107865e+000	 4.059858687769591e+000
 5.495776107524130e-001	 1.148629307597547e+000	 3.879345828865569e+000
 5.372328208162185e-001	 1.154454727483429e+000	 3.703148362962696e+000
 5.248498078073973e-001	 1.160136835330483e+000	 3.533451186312165e+000
 5.124309799664153e-001	 1.165675450124152e+000	 3.372291208412563e+000
 4.999787394765237e-001	 1.171070442875904e+000	 3.221548885687463e+000
 6.259683111938496e-001	 1.116498523855156e+000	 5.015437197714564e+000
 6.138404372102554e-001	 1.123212019487647e+000	 4.850591783358254e+000
 6.016595655987103e-001	 1.129783662049258e+000	 4.676690677904563e+000
 5.894281241502638e-001	 1.136212948981187e+000	 4.496604598802415e+000
 5.771485431057702e-001	 1.142499431745827e+000	 4.313120165575608e+000
 5.648232536932151e-001	 1.148642715652043e+000	 4.128922618502811e+000
 5.524546866787283e-001	 1.154642459634335e+000	 3.946580119605384e+000
 5.400452709329230e-001	 1.160498375986704e+000	 3.768529703238613e+000
 5.275974320141417e-001	 1.166210230052084e+000	 3.597064929392879e+000
 5.151135907701613e-001	 1.171777839868310e+000	 3.434325278620447e+000
 5.025961619598355e-001	 1.177201075771599e+000	 3.282287313442811e+000
 6.292282316956586e-001	 1.122313029739053e+000	 5.088229160412549e+000
 6.170371981169345e-001	 1.129061487943062e+000	 4.923630858181533e+000
 6.047928909089244e-001	 1.135667354333106e+000	 4.749293310674282e+000
 5.924977505061525e-001	 1.142130123733177e+000	 4.568226947632303e+000
 5.801542198057059e-001	 1.148449345269787e+000	 4.383354779406759e+000
 5.677647426969439e-001	 1.154624622196344e+000	 4.197494409562580e+000
 5.553317626049646e-001	 1.160655611671164e+000	 4.013341688624041e+000
 5.428577210494782e-001	 1.166542024489948e+000	 3.833456078581741e+000
 5.303450562206735e-001	 1.172283624773600e+000	 3.660247783122319e+000
 5.177962015736434e-001	 1.177880229612347e+000	 3.495966683884899e+000
 5.052135844428459e-001	 1.183331708667162e+000	 3.342693108495268e+000
 6.324881521976661e-001	 1.128127535623464e+000	 5.160018020925770e+000
 6.202339590237862e-001	 1.134910956398930e+000	 4.995794032049099e+000
 6.079262162192751e-001	 1.141551046617340e+000	 4.821106996130174e+000
 5.955673768621347e-001	 1.148047298485480e+000	 4.639115375244178e+000
 5.831598965056877e-001	 1.154399258793986e+000	 4.452886866622487e+000
 5.707062317006689e-001	 1.160606528740813e+000	 4.265379679073052e+000
 5.582088385311482e-001	 1.166668763708096e+000	 4.079425511028977e+000
 5.456701711659332e-001	 1.172585672993239e+000	 3.897714302255085e+000
 5.330926804270640e-001	 1.178357019495120e+000	 3.722780816099486e+000
 5.204788123769490e-001	 1.183982619356362e+000	 3.556993094030448e+000
 5.078310069256554e-001	 1.189462341562693e+000	 3.402542809163698e+000
 6.357480726997732e-001	 1.133942041508339e+000	 5.230707243496399e+000
 6.234307199307241e-001	 1.140760424855218e+000	 5.066960801403481e+000
 6.110595415296942e-001	 1.147434738901945e+000	 4.891989920430202e+000
 5.986370032181640e-001	 1.153964473238100e+000	 4.709109389283214e+000
 5.861655732056927e-001	 1.160349172318449e+000	 4.521539855807460e+000
 5.736477207043924e-001	 1.166588435285495e+000	 4.332388336878858e+000
 5.610859144573051e-001	 1.172681915745194e+000	 4.144630492100617e+000
 5.484826212823386e-001	 1.178629321496656e+000	 3.961094735830259e+000
 5.358403046333832e-001	 1.184430414216734e+000	 3.784448246422465e+000
 5.231614231801670e-001	 1.190085009100450e+000	 3.617184915915637e+000
 5.104484294083644e-001	 1.195592974458290e+000	 3.461615267868186e+000
 6.390079932018798e-001	 1.139756547393630e+000	 5.300206160530940e+000
 6.266274808376618e-001	 1.146609893311894e+000	 5.137016309011574e+000
 6.141928668401129e-001	 1.153318431186906e+000	 4.961805657143676e+000
 6.017066295741932e-001	 1.159881647991045e+000	 4.778053592511294e+000
 5.891712499056977e-001	 1.166299085843203e+000	 4.589141948622831e+000
 5.765892097081161e-001	 1.172570341830435e+000	 4.398334717682429e+000
 5.639629903834620e-001	 1.178695067782521e+000	 4.208759591073641e+000
 5.512950713987439e-001	 1.184672970000277e+000	 4.023391404662005e+000
 5.385879288397028e-001	 1.190503808938531e+000	 3.845037549863331e+000
 5.258440339833846e-001	 1.196187398844709e+000	 3.676325395262527e+000
 5.130658518910735e-001	 1.201723607354055e+000	 3.519691747523534e+000
 6.422679137038875e-001	 1.145571053279286e+000	 5.368430168891330e+000
 6.298242417445136e-001	 1.152459361768924e+000	 5.205851525240123e+000
 6.173261921504638e-001	 1.159202123472209e+000	 5.030423334734365e+000
 6.047762559301755e-001	 1.165798822744318e+000	 4.845797837686736e+000
 5.921769266056797e-001	 1.172248999368273e+000	 4.655526263227781e+000
 5.795306987118414e-001	 1.178552248375679e+000	 4.463037714113924e+000
 5.668400663096455e-001	 1.184708219820140e+000	 4.271619944924116e+000
 5.541075215151993e-001	 1.190716618504179e+000	 4.084402113412974e+000
 5.413355530460930e-001	 1.196577203660602e+000	 3.904339568108837e+000
 5.285266447866905e-001	 1.202289788589236e+000	 3.734200718547636e+000
 5.156832743738828e-001	 1.207854240250086e+000	 3.576556017967271e+000
 6.455278342056967e-001	 1.151385559165260e+000	 5.435300925318072e+000
 6.330210026511927e-001	 1.158308830226277e+000	 5.273363428689895e+000
 6.204595174606779e-001	 1.165085815757842e+000	 5.097717803597655e+000
 6.078458822860643e-001	 1.171715997497927e+000	 4.912197382154661e+000
 5.951826033056150e-001	 1.178198912893685e+000	 4.720530977540538e+000
 5.824721877155701e-001	 1.184534154921272e+000	 4.526320909741934e+000
 5.697171422358817e-001	 1.190721371858112e+000	 4.333022992163392e+000
 5.569199716317543e-001	 1.196760267008440e+000	 4.143928561628957e+000
 5.440831772526249e-001	 1.202650598383037e+000	 3.962148617070361e+000
 5.312092555901725e-001	 1.208392178334129e+000	 3.790600114956189e+000
 5.183006968568933e-001	 1.213984873146484e+000	 3.631994452421815e+000
 6.487877547072080e-001	 1.157200065051501e+000	 5.500746541018581e+000
 6.362177635576135e-001	 1.164158298683920e+000	 5.339455186215542e+000
 6.235928427706872e-001	 1.170969508043789e+000	 5.163569802665079e+000
 6.109155086418121e-001	 1.177633172251877e+000	 4.977113042160150e+000
 5.981882800054812e-001	 1.184148826419464e+000	 4.783999472345892e+000
 5.854136767193040e-001	 1.190516061467257e+000	 4.588012712020962e+000
 5.725942181621971e-001	 1.196734523896502e+000	 4.392784596638128e+000
 5.597324217484589e-001	 1.202803915513138e+000	 4.201776459361505e+000
 5.468308014593691e-001	 1.208723993105924e+000	 4.018262595256440e+000
 5.338918663939186e-001	 1.214494568079485e+000	 3.845315958391563e+000
 5.209181193402052e-001	 1.220115506043348e+000	 3.685796123987702e+000
 6.520476752083220e-001	 1.163014570937961e+000	 5.564701775448603e+000
 6.394145244636896e-001	 1.170007767141820e+000	 5.404036332347782e+000
 6.267261680804235e-001	 1.176853200330036e+000	 5.227866125593947e+000
 6.139851349973728e-001	 1.183550347006173e+000	 5.040411346894854e+000
 6.011939567052548e-001	 1.190098739945637e+000	 4.845780474253864e+000
 5.883551657230446e-001	 1.196497968013681e+000	 4.647946485184137e+000
 5.754712940886185e-001	 1.202747675935370e+000	 4.450725171338426e+000
 5.625448718653630e-001	 1.208847564018352e+000	 4.257755642835235e+000
 5.495784256663967e-001	 1.214797387829354e+000	 4.072483092208101e+000
 5.365744771980170e-001	 1.220596957825402e+000	 3.898143869544512e+000
 5.235355418239186e-001	 1.226246138940778e+000	 3.737752902168249e+000
 4.973613169928101e-001	 1.164939809979976e+000	 3.160703504653549e+000
 4.849415443640922e-001	 1.170164385490992e+000	 3.016448240419650e+000
 4.724932822016347e-001	 1.175245945703767e+000	 2.872158280760921e+000
 4.600188957060533e-001	 1.180184515739950e+000	 2.729097061792989e+000
 4.475207387868734e-001	 1.184980170535832e+000	 2.588350488453148e+000
 4.350011528162667e-001	 1.189633034254827e+000	 2.450827962782879e+000
 4.224624654102122e-001	 1.194143279664885e+000	 2.317264934622640e+000
 4.099069892381355e-001	 1.198511127482119e+000	 2.188226913968362e+000
 3.973370208620145e-001	 1.202736845682000e+000	 2.064114875118275e+000
 3.847548396058734e-001	 1.206820748779484e+000	 1.945171974428894e+000
 3.721627064565229e-001	 1.210763197079439e+000	 1.831491496025328e+000
 4.999787394765237e-001	 1.171070442875904e+000	 3.221548885687463e+000
 4.874936063321755e-001	 1.176322513330638e+000	 3.076148716278564e+000
 4.749798337245845e-001	 1.181430815852335e+000	 2.930821534987123e+000
 4.624397993015102e-001	 1.186395375694847e+000	 2.786832199434181e+000
 4.498758693602014e-001	 1.191216268188818e+000	 2.645260959866002e+000
 4.372903975945733e-001	 1.195893618151085e+000	 2.507004567064006e+000
 4.246857238699564e-001	 1.200427599258805e+000	 2.372778958088362e+000
 4.120641730264684e-001	 1.204818433389632e+000	 2.243123456932671e+000
 3.994280537120125e-001	 1.209066389929284e+000	 2.118406417752338e+000
 3.867796572458213e-001	 1.213171785047885e+000	 1.998832229736043e+000
 3.741212565134123e-001	 1.217134980946448e+000	 1.884449594962495e+000
 5.025961619598355e-001	 1.177201075771599e+000	 3.282287313442811e+000
 4.900456682998302e-001	 1.182480641170070e+000	 3.135822539800004e+000
 4.774663852470992e-001	 1.187615686000735e+000	 2.989549006167937e+000
 4.648607028965427e-001	 1.192606235649638e+000	 2.844726867437606e+000
 4.522309999331303e-001	 1.197452365841777e+000	 2.702424277633039e+000
 4.395796423725173e-001	 1.202154202047399e+000	 2.563518591384511e+000
 4.269089823293816e-001	 1.206711918852863e+000	 2.428699200165568e+000
 4.142213568145308e-001	 1.211125739297355e+000	 2.298471938133956e+000
 4.015190865617894e-001	 1.215395934176837e+000	 2.173164982674958e+000
 3.888044748855962e-001	 1.219522821316593e+000	 2.052936165877057e+000
 3.760798065701715e-001	 1.223506764813771e+000	 1.937781605176985e+000
 5.052135844428459e-001	 1.183331708667162e+000	 3.342693108495272e+000
 4.925977302671635e-001	 1.188638769009385e+000	 3.195244145732163e+000
 4.799529367692876e-001	 1.193800556149054e+000	 3.048114753730650e+000
 4.672816064912577e-001	 1.198817095604402e+000	 2.902554367918131e+000
 4.545861305057600e-001	 1.203688463494771e+000	 2.759612705731713e+000
 4.418688871501896e-001	 1.208414785943816e+000	 2.620141075521185e+000
 4.291322407885680e-001	 1.212996238447089e+000	 2.484795378700732e+000
 4.163785406023902e-001	 1.217433045205305e+000	 2.354040737665988e+000
 4.036101194114010e-001	 1.221725478424662e+000	 2.228157671928496e+000
 3.908292925252412e-001	 1.225873857585598e+000	 2.107249735756593e+000
 3.780383566268333e-001	 1.229878548681392e+000	 1.991252522358208e+000
 5.078310069256554e-001	 1.189462341562693e+000	 3.402542809163698e+000
 4.951497922342820e-001	 1.194796896848678e+000	 3.254189788791604e+000
 4.824394882912584e-001	 1.199985426297380e+000	 3.106294307338128e+000
 4.697025100857603e-001	 1.205027955559215e+000	 2.960089170119675e+000
 4.569412610781906e-001	 1.209924561147862e+000	 2.816599417249445e+000
 4.441581319276803e-001	 1.214675369840381e+000	 2.676643753773120e+000
 4.313554992475949e-001	 1.219280558041513e+000	 2.540837733129376e+000
 4.185357243901147e-001	 1.223740351113495e+000	 2.409598624042137e+000
 4.057011522609020e-001	 1.228055022672757e+000	 2.283151880566351e+000
 3.928541101647999e-001	 1.232224893854889e+000	 2.161539125532885e+000
 3.799969066834300e-001	 1.236250332549295e+000	 2.044627549128742e+000
 5.104484294083644e-001	 1.195592974458290e+000	 3.461615267868186e+000
 4.977018542012933e-001	 1.200955024688048e+000	 3.312437634777463e+000
 4.849260398131204e-001	 1.206170296445803e+000	 3.163864752220907e+000
 4.721234136801572e-001	 1.211238815514154e+000	 3.017106989486073e+000
 4.592963916505213e-001	 1.216160658801114e+000	 2.873158566774066e+000
 4.464473767050806e-001	 1.220935953737142e+000	 2.732799120307746e+000
 4.335787577065425e-001	 1.225564877636165e+000	 2.596597082469411e+000
 4.206929081777716e-001	 1.230047657021941e+000	 2.464914804583737e+000
 4.077921851103478e-001	 1.234384566921126e+000	 2.337915339238033e+000
 3.948789278043151e-001	 1.238575930124457e+000	 2.215570789256158e+000
 3.819554567399942e-001	 1.242622116417461e+000	 2.097672121643984e+000
 5.130658518910735e-001	 1.201723607354055e+000	 3.519691747523534e+000
 5.002539161683045e-001	 1.207113152527589e+000	 3.369767851690092e+000
 4.874125913349823e-001	 1.212355166594411e+000	 3.220604814507048e+000
 4.745443172745539e-001	 1.217449675469295e+000	 3.073384866746079e+000
 4.616515222228522e-001	 1.222396756454587e+000	 2.929065362831492e+000
 4.487366214824807e-001	 1.227196537634143e+000	 2.788380494602952e+000
 4.358020161654897e-001	 1.231849197231075e+000	 2.651844883477938e+000
 4.228500919654282e-001	 1.236354962930655e+000	 2.519758976052427e+000
 4.098832179597938e-001	 1.240714111169767e+000	 2.392216157114098e+000
 3.969037454438305e-001	 1.244926966394291e+000	 2.269111483950499e+000
 3.839140067965583e-001	 1.248993900285875e+000	 2.150151936752792e+000
 5.156832743738828e-001	 1.207854240250086e+000	 3.576556017967266e+000
 5.028059781354233e-001	 1.213271280367399e+000	 3.425962700858621e+000
 4.898991428569532e-001	 1.218540036743292e+000	 3.276294946555090e+000
 4.769652208690566e-001	 1.223660535424715e+000	 3.128701247012222e+000
 4.640066527952827e-001	 1.228632854108345e+000	 2.984096140368317e+000
 4.510258662599716e-001	 1.233457121531433e+000	 2.843162086986267e+000
 4.380252746245167e-001	 1.238133516826273e+000	 2.706353288968394e+000
 4.250072757531527e-001	 1.242662268839654e+000	 2.573901375522178e+000
 4.119742508092950e-001	 1.247043655418682e+000	 2.445822865138509e+000
 3.989285630833890e-001	 1.251278002664381e+000	 2.321928305128020e+000
 3.858725568531548e-001	 1.255365684154519e+000	 2.201832979697395e+000
 5.183006968568933e-001	 1.213984873146484e+000	 3.631994452421815e+000
 5.053580401027563e-001	 1.219429408207575e+000	 3.480806628071854e+000
 4.923856943791415e-001	 1.224724906892536e+000	 3.330717412285075e+000
 4.793861244637714e-001	 1.229871395380491e+000	 3.182836058894276e+000
 4.663617833679127e-001	 1.234868951762450e+000	 3.038028433280445e+000
 4.533151110376437e-001	 1.239717705429057e+000	 2.896919064263592e+000
 4.402485330837031e-001	 1.244417836421790e+000	 2.759895206279646e+000
 4.271644595410123e-001	 1.248969574748952e+000	 2.627112831478686e+000
 4.140652836589063e-001	 1.253373199667872e+000	 2.498504459597816e+000
 4.009533807230341e-001	 1.257629038934719e+000	 2.373788722715941e+000
 3.878311069098167e-001	 1.261737468023377e+000	 2.252481552337145e+000
 5.209181193402052e-001	 1.220115506043348e+000	 3.685796123987707e+000
 5.079101020704109e-001	 1.225587536048212e+000	 3.534086354719149e+000
 4.948722459016564e-001	 1.230909777042229e+000	 3.383656372511203e+000
 4.818070280588042e-001	 1.236082255336699e+000	 3.235570793622887e+000
 4.687169139408416e-001	 1.241105049416963e+000	 3.090641046982344e+000
 4.556043558155877e-001	 1.245978289327062e+000	 2.949427615437849e+000
 4.424717915431284e-001	 1.250702156017655e+000	 2.812244355895810e+000
 4.293216433290747e-001	 1.255276880658563e+000	 2.679164815141537e+000
 4.161563165086835e-001	 1.259702743917338e+000	 2.550030445997925e+000
 4.029781983628090e-001	 1.263980075205293e+000	 2.424460617383025e+000
 3.897896569665759e-001	 1.268109251892432e+000	 2.301864301872534e+000
 5.235355418239186e-001	 1.226246138940778e+000	 3.737752902168249e+000
 5.104621640384944e-001	 1.231745663889408e+000	 3.585590968933758e+000
 4.973587974246062e-001	 1.237094647192462e+000	 3.434897970273337e+000
 4.842279316542609e-001	 1.242293115293416e+000	 3.286688584189157e+000
 4.710720445141691e-001	 1.247341147071947e+000	 3.141714131019396e+000
 4.578936005938943e-001	 1.252238873225494e+000	 3.000465017511845e+000
 4.446950500028725e-001	 1.256986475613899e+000	 2.863175330206301e+000
 4.314788271174074e-001	 1.261584186568501e+000	 2.729829491997541e+000
 4.182473493586813e-001	 1.266032288167079e+000	 2.600170883231590e+000
 4.050030160027568e-001	 1.270331111476093e+000	 2.473712317254648e+000
 3.917482070234653e-001	 1.274481035761665e+000	 2.349748250057213e+000
 3.721627064565229e-001	 1.210763197079439e+000	 1.831491496025328e+000
 3.595628628164873e-001	 1.214564595596418e+000	 1.721683483365854e+000
 3.469575289482251e-001	 1.218225392345035e+000	 1.614734978140687e+000
 3.343489035444823e-001	 1.221746078421927e+000	 1.511110814623848e+000
 3.217391629455186e-001	 1.225127187456663e+000	 1.411168693936838e+000
 3.091304602063712e-001	 1.228369294737240e+000	 1.315170680761971e+000
 2.965249241990276e-001	 1.231473016314503e+000	 1.223295330843940e+000
 2.839246587499008e-001	 1.234439008086931e+000	 1.135650337884080e+000
 2.713317418129375e-001	 1.237267964867259e+000	 1.052285587987429e+000
 2.587482246786292e-001	 1.239960619432395e+000	 9.732065102206966e-001
 2.461761312191269e-001	 1.242517741558077e+000	 8.983876130172855e-001
 3.741212565134123e-001	 1.217134980946448e+000	 1.884449594962495e+000
 3.614551047129524e-001	 1.220956384770954e+000	 1.773887356635221e+000
 3.487834337912915e-001	 1.224636446893741e+000	 1.666194792933678e+000
 3.361084540120542e-001	 1.228175660995894e+000	 1.561849666493997e+000
 3.234323531687461e-001	 1.231574563515257e+000	 1.461218219231981e+000
 3.107572956471090e-001	 1.234833732767343e+000	 1.364567049517924e+000
 2.980854215225695e-001	 1.237953788045028e+000	 1.272075646871184e+000
 2.854188456931736e-001	 1.240935388698524e+000	 1.183849469002753e+000
 2.727596570483444e-001	 1.243779233197095e+000	 1.099933445546885e+000
 2.601099176737307e-001	 1.246486058173964e+000	 1.020325793219216e+000
 2.474716620923479e-001	 1.249056637455896e+000	 9.449920283385874e-001
 3.760798065701715e-001	 1.223506764813771e+000	 1.937781605176985e+000
 3.633473466093230e-001	 1.227348173945781e+000	 1.826348924454206e+000
 3.506093386342929e-001	 1.231047501442685e+000	 1.717761178089450e+000
 3.378680044795857e-001	 1.234605243570019e+000	 1.612518156764818e+000
 3.251255433919547e-001	 1.238021939573915e+000	 1.511003618079601e+000
 3.123841310878484e-001	 1.241298170797400e+000	 1.413497538079271e+000
 2.996459188461332e-001	 1.244434559775390e+000	 1.320189048242008e+000
 2.869130326364904e-001	 1.247431769309838e+000	 1.231189938867478e+000
 2.741875722838213e-001	 1.250290501526536e+000	 1.146548609334214e+000
 2.614716106689327e-001	 1.253011496915032e+000	 1.066264346040797e+000
 2.487671929657066e-001	 1.255595533353124e+000	 9.903018101023433e-001
 3.780383566268333e-001	 1.229878548681392e+000	 1.991252522358208e+000
 3.652395885056231e-001	 1.233739963120879e+000	 1.878833857536626e+000
 3.524352434772453e-001	 1.237458555991848e+000	 1.769203358884386e+000
 3.396275549470866e-001	 1.241034826144292e+000	 1.662891709641091e+000
 3.268187336151491e-001	 1.244469315632632e+000	 1.560308917739324e+000
 3.140109665285887e-001	 1.247762608827421e+000	 1.461756936091019e+000
 3.012064161697134e-001	 1.250915331505614e+000	 1.367442997456032e+000
 2.884072195798406e-001	 1.253928149920910e+000	 1.277493540908857e+000
 2.756154875193506e-001	 1.256801769855639e+000	 1.191968606380986e+000
 2.628333036642103e-001	 1.259536935655672e+000	 1.110876574116224e+000
 2.500627238391685e-001	 1.262134429249846e+000	 1.034189127131981e+000
 3.799969066834300e-001	 1.236250332549295e+000	 2.044627549128742e+000
 3.671318304018756e-001	 1.240131752296229e+000	 1.931108009813432e+000
 3.542611483201653e-001	 1.243869610541214e+000	 1.820290695634575e+000
 3.413871054145674e-001	 1.247464408718702e+000	 1.712745815010041e+000
 3.285119238383341e-001	 1.250916691691410e+000	 1.608918123823009e+000
 3.156378019693297e-001	 1.254227046857416e+000	 1.509139909346524e+000
 3.027669134933046e-001	 1.257396103235724e+000	 1.413644719105414e+000
 2.899014065232127e-001	 1.260424530531780e+000	 1.322581707665033e+000
 2.770434027549148e-001	 1.263313038184454e+000	 1.236030473757161e+000
 2.641949966595379e-001	 1.266062374395950e+000	 1.154016260511679e+000
 2.513582547126994e-001	 1.268673325146146e+000	 1.076525392830132e+000
 3.819554567399942e-001	 1.242622116417461e+000	 2.097672121643984e+000
 3.690240722981045e-001	 1.246523541471813e+000	 1.982937437687315e+000
 3.560870531630689e-001	 1.250280665090766e+000	 1.870792696975513e+000
 3.431466558820381e-001	 1.253893991293237e+000	 1.761856037033265e+000
 3.302051140615145e-001	 1.257364067750244e+000	 1.656615225369647e+000
 3.172646374100713e-001	 1.260691484887395e+000	 1.555441002428260e+000
 3.043274108169011e-001	 1.263876874965741e+000	 1.458601201055875e+000
 2.913955934665959e-001	 1.266920911142484e+000	 1.366275511383808e+000
 2.784713179904966e-001	 1.269824306513037e+000	 1.278570759368298e+000
 2.655566896548907e-001	 1.272587813135937e+000	 1.195536567604365e+000
 2.526537855862645e-001	 1.275212221042108e+000	 1.117181268297574e+000
 3.839140067965583e-001	 1.248993900285875e+000	 2.150151936752792e+000
 3.709163141943336e-001	 1.252915330647610e+000	 2.034088419946169e+000
 3.579129580059725e-001	 1.256691719640487e+000	 1.920479033875335e+000
 3.449062063495089e-001	 1.260323573867889e+000	 1.809998023496322e+000
 3.318983042846948e-001	 1.263811443809134e+000	 1.703184200685002e+000
 3.188914728508125e-001	 1.267155922917366e+000	 1.600454642086264e+000
 3.058879081404977e-001	 1.270357646695690e+000	 1.502119196322354e+000
 2.928897804099790e-001	 1.273417291753062e+000	 1.408395665252648e+000
 2.798992332260782e-001	 1.276335574841441e+000	 1.319425523301138e+000
 2.669183826502436e-001	 1.279113251875703e+000	 1.235290039197665e+000
 2.539493164598297e-001	 1.281751116937818e+000	 1.156026665791244e+000
 3.858725568531548e-001	 1.255365684154519e+000	 2.201832979697395e+000
 3.728085560905861e-001	 1.259307119823602e+000	 2.084327478318305e+000
 3.597388628488922e-001	 1.263102774190358e+000	 1.969119554344164e+000
 3.466657568169896e-001	 1.266753156442644e+000	 1.856947515891266e+000
 3.335914945078799e-001	 1.270258819868077e+000	 1.748409023915842e+000
 3.205183082915538e-001	 1.273620360947340e+000	 1.643975141335636e+000
 3.074484054640888e-001	 1.276838418425593e+000	 1.544005225617431e+000
 2.943839673533513e-001	 1.279913672363551e+000	 1.448762525236914e+000
 2.813271484616424e-001	 1.282846843169720e+000	 1.358430339691826e+000
 2.682800756455714e-001	 1.285638690615317e+000	 1.273128603074136e+000
 2.552448473333605e-001	 1.288290012833362e+000	 1.192930752507134e+000
 3.878311069098167e-001	 1.261737468023377e+000	 2.252481552337145e+000
 3.747007979868861e-001	 1.265698908999770e+000	 2.133421398638119e+000
 3.615647676918447e-001	 1.269513828740366e+000	 2.016484298821358e+000
 3.484253072844906e-001	 1.273182739017491e+000	 1.902480360207221e+000
 3.352846847310744e-001	 1.276706195927072e+000	 1.792073672337517e+000
 3.221451437322941e-001	 1.280084798977327e+000	 1.685796704239168e+000
 3.090089027876690e-001	 1.283319190155474e+000	 1.584065580545242e+000
 2.958781542967014e-001	 1.286410052973988e+000	 1.487196092500310e+000
 2.827550636971718e-001	 1.289358111497928e+000	 1.395420299105899e+000
 2.696417686408488e-001	 1.292164129354848e+000	 1.308903573961217e+000
 2.565403782068224e-001	 1.294828908728823e+000	 1.227761954677811e+000
 3.897896569665759e-001	 1.268109251892432e+000	 2.301864301872534e+000
 3.765930398832567e-001	 1.272090698176095e+000	 2.181137252608840e+000
 3.633906725348460e-001	 1.275924883290492e+000	 2.062343516214654e+000
 3.501848577520221e-001	 1.279612321592420e+000	 1.946372518400970e+000
 3.369778749542830e-001	 1.283153571986116e+000	 1.833962134324110e+000
 3.237719791730334e-001	 1.286549237007336e+000	 1.725713431358299e+000
 3.105694001112328e-001	 1.289799961885357e+000	 1.622106327419861e+000
 2.973723412400183e-001	 1.292906433584414e+000	 1.523516016395753e+000
 2.841829789326487e-001	 1.295869379826117e+000	 1.430230011403910e+000
 2.710034616360508e-001	 1.298689568094366e+000	 1.342465656900789e+000
 2.578359090801811e-001	 1.301367804624286e+000	 1.260387961973327e+000
 3.917482070234653e-001	 1.274481035761665e+000	 2.349748250057213e+000
 3.784852817797219e-001	 1.278482487352557e+000	 2.227242420135570e+000
 3.652165773779126e-001	 1.282335937840718e+000	 2.106467680567880e+000
 3.519444082195939e-001	 1.286041904167421e+000	 1.988400080527952e+000
 3.386710651775104e-001	 1.289600948045209e+000	 1.873858417982711e+000
 3.253988146137712e-001	 1.293013675037378e+000	 1.763519325845109e+000
 3.121298974347747e-001	 1.296280733615264e+000	 1.657933311686724e+000
 2.988665281832910e-001	 1.299402814194865e+000	 1.557541597995530e+000
 2.856108941680556e-001	 1.302380648154343e+000	 1.462693609083506e+000
 2.723651546311524e-001	 1.305215006833941e+000	 1.373664951004946e+000
 2.591314399534020e-001	 1.307906700519837e+000	 1.290675732194202e+000
 2.461761312191269e-001	 1.242517741558077e+000	 8.983876130172855e-001
 2.336193392906366e-001	 1.244939783937008e+000	 8.279371682037324e-001
 2.210779259163265e-001	 1.247227981585924e+000	 7.617848111930741e-001
 2.085538248764833e-001	 1.249383209995418e+000	 6.996634489455219e-001
 1.960489399594793e-001	 1.251406377632249e+000	 6.413282925201054e-001
 1.835651443891883e-001	 1.253298424920236e+000	 5.865700185249502e-001
 1.711042802883929e-001	 1.255060323214301e+000	 5.352275143369462e-001
 1.586681581779989e-001	 1.256693073768999e+000	 4.872001234456766e-001
 1.462585565118158e-001	 1.258197706702826e+000	 4.424593131323623e-001
 1.338772212466184e-001	 1.259575279959579e+000	 4.010596928697444e-001
 1.215258654471585e-001	 1.260826878268034e+000	 3.631493182971252e-001
 2.474716620923479e-001	 1.249056637455896e+000	 9.449920283385874e-001
 2.348487885680754e-001	 1.251491426117940e+000	 8.740103854817262e-001
 2.222413745294195e-001	 1.253791665676258e+000	 8.072893002126726e-001
 2.096513639334077e-001	 1.255958236228826e+000	 7.445648313257290e-001
 1.970806705873169e-001	 1.257992051023325e+000	 6.855953178373611e-001
 1.845311775730764e-001	 1.259894055432673e+000	 6.301750010059162e-001
 1.720047367078512e-001	 1.261665225923674e+000	 5.781472214236458e-001
 1.595031680406209e-001	 1.263306569020112e+000	 5.294171045279205e-001
 1.470282593845124e-001	 1.264819120261609e+000	 4.839636539101811e-001
 1.345817658845979e-001	 1.266203943159526e+000	 4.418511781748902e-001
 1.221654096208289e-001	 1.267462128151162e+000	 4.032399837573848e-001
 2.487671929657066e-001	 1.255595533353124e+000	 9.903018101023435e-001
 2.360782378456962e-001	 1.258043068298206e+000	 9.187152375595971e-001
 2.234048231427441e-001	 1.260355349765869e+000	 8.513901199115317e-001
 2.107489029906158e-001	 1.262533262461468e+000	 7.880620241630935e-001
 1.981124012154900e-001	 1.264577724413606e+000	 7.284887356687769e-001
 1.854972107573487e-001	 1.266489685944298e+000	 6.724643589283342e-001
 1.729051931277370e-001	 1.268270128632225e+000	 6.198329845323299e-001
 1.603381779037054e-001	 1.269920064270398e+000	 5.705018325046676e-001
 1.477979622576953e-001	 1.271440533819566e+000	 5.244537885087149e-001
 1.352863105230743e-001	 1.272832606358652e+000	 4.817592559510347e-001
 1.228049537949910e-001	 1.274097378033473e+000	 4.425872538733065e-001
 2.500627238391685e-001	 1.262134429249846e+000	 1.034189127131981e+000
 2.373076871234534e-001	 1.264594710477906e+000	 9.619418610686521e-001
 2.245682717562427e-001	 1.266919033854871e+000	 8.939950233310651e-001
 2.118464420480375e-001	 1.269108288693471e+000	 8.300799624939701e-001
 1.991441318439168e-001	 1.271163397803228e+000	 7.699501444674881e-001
 1.864632439419134e-001	 1.273085316455257e+000	 7.133957506739522e-001
 1.738056495479503e-001	 1.274875031340109e+000	 6.602578332217444e-001
 1.611731877671476e-001	 1.276533559520021e+000	 6.104419341352306e-001
 1.485676651312594e-001	 1.278061947376870e+000	 5.639310821097990e-001
 1.359908551619469e-001	 1.279461269557136e+000	 5.207980870200484e-001
 1.234444979695541e-001	 1.280732627915154e+000	 4.812170594842618e-001
 2.513582547126994e-001	 1.268673325146146e+000	 1.076525392830132e+000
 2.385371364013019e-001	 1.271146352657140e+000	 1.003579514702584e+000
 2.257317203698578e-001	 1.273482717943375e+000	 9.350107822082319e-001
 2.129439811056030e-001	 1.275683314924959e+000	 8.705425145771326e-001
 2.001758624725155e-001	 1.277749071192331e+000	 8.099200070298308e-001
 1.874292771266784e-001	 1.279680946965695e+000	 7.529256453446944e-001
 1.747061059683913e-001	 1.281479934047481e+000	 6.993935680357608e-001
 1.620081976308431e-001	 1.283147054769148e+000	 6.492237799243757e-001
 1.493373680050998e-001	 1.284683360933694e+000	 6.023956274806670e-001
 1.366953998011148e-001	 1.286089932755156e+000	 5.589805532800160e-001
 1.240840421444269e-001	 1.287367877796385e+000	 5.191540542081122e-001
 2.526537855862645e-001	 1.275212221042108e+000	 1.117181268297574e+000
 2.397665856791959e-001	 1.277697994836005e+000	 1.043516584040199e+000
 2.268951689835315e-001	 1.280046402031495e+000	 9.743431934957063e-001
 2.140415201632420e-001	 1.282258341156058e+000	 9.093724901008730e-001
 2.012075931012044e-001	 1.284334744581047e+000	 8.483376603741646e-001
 1.883953103115516e-001	 1.286276577475762e+000	 7.910093342917342e-001
 1.756065623889603e-001	 1.288084836754500e+000	 7.372107736550607e-001
 1.628432074946875e-001	 1.289760550017942e+000	 6.868324988588123e-001
 1.501070708791112e-001	 1.291304774490208e+000	 6.398462612524288e-001
 1.373999444404772e-001	 1.292718595952890e+000	 5.963182754758531e-001
 1.247235863195188e-001	 1.294003127677352e+000	 5.564216336502376e-001
 2.539493164598297e-001	 1.281751116937818e+000	 1.156026665791249e+000
 2.409960349570902e-001	 1.284249637014603e+000	 1.081640586591619e+000
 2.280586175972063e-001	 1.286610086119343e+000	 1.011897086001037e+000
 2.151390592208846e-001	 1.288833367386893e+000	 9.464916484112597e-001
 2.022393237299016e-001	 1.290920417969516e+000	 8.851413255466327e-001
 1.893613434964411e-001	 1.292872207985603e+000	 8.276009424825757e-001
 1.765070188095572e-001	 1.294689739461321e+000	 7.736788318019312e-001
 1.636782173585763e-001	 1.296374045266569e+000	 7.232519928195207e-001
 1.508767737531887e-001	 1.297926188046585e+000	 6.762805798026809e-001
 1.381044890799333e-001	 1.299347259150517e+000	 6.328216305073837e-001
 1.253631304947386e-001	 1.300638377558239e+000	 5.930419540803481e-001
 2.552448473333605e-001	 1.288290012833362e+000	 1.192930752507134e+000
 2.422254842349390e-001	 1.290801279193031e+000	 1.117838177064627e+000
 2.292220662108245e-001	 1.293173770207031e+000	 1.047576327141287e+000
 2.162365982784606e-001	 1.295408393617587e+000	 9.818207067574475e-001
 2.032710543585254e-001	 1.297506091357872e+000	 9.202681173533804e-001
 1.903273766812550e-001	 1.299467838495365e+000	 8.626534397091559e-001
 1.774074752300824e-001	 1.301294642168099e+000	 8.087659339039957e-001
 1.645132272224049e-001	 1.302987540515192e+000	 7.584649506776885e-001
 1.516464766272271e-001	 1.304547601602997e+000	 7.116949547514103e-001
 1.388090337193821e-001	 1.305975922348215e+000	 6.684997682827374e-001
 1.260026746699955e-001	 1.307273627439228e+000	 6.290359506007811e-001
 2.565403782068224e-001	 1.294828908728823e+000	 1.227761954677811e+000
 2.434549335126970e-001	 1.297352921371389e+000	 1.151995152839790e+000
 2.303855148243285e-001	 1.299737454294674e+000	 1.081283829810561e+000
 2.173341373359000e-001	 1.301983419848267e+000	 1.015279348556583e+000
 2.043027849869940e-001	 1.304091764746253e+000	 9.536540540237148e-001
 1.912934098659010e-001	 1.306063469005196e+000	 8.961186516413052e-001
 1.783079316504359e-001	 1.307899544874993e+000	 8.424390935291228e-001
 1.653482370860691e-001	 1.309601035763976e+000	 7.924528620895018e-001
 1.524161795011212e-001	 1.311169015159617e+000	 7.460845480852105e-001
 1.395135783587230e-001	 1.312604585546162e+000	 7.033606281424131e-001
 1.266422188451985e-001	 1.313908877320505e+000	 6.644233548233798e-001
 2.578359090801811e-001	 1.301367804624286e+000	 1.260387961973327e+000
 2.446843827903188e-001	 1.303904563549777e+000	 1.183996459649815e+000
 2.315489634376604e-001	 1.306301138382382e+000	 1.112921559354027e+000
 2.184316763931329e-001	 1.308558446079059e+000	 1.046786231676866e+000
 2.053345156152256e-001	 1.310677438134795e+000	 9.852340668061840e-001
 1.922594430502873e-001	 1.312659099515241e+000	 9.279472707372893e-001
 1.792083880705178e-001	 1.314504447582156e+000	 8.746641585975703e-001
 1.661832469494639e-001	 1.316214531013087e+000	 8.251960309941764e-001
 1.531858823747661e-001	 1.317790428716616e+000	 7.794433269247119e-001
 1.402181229978549e-001	 1.319233248744538e+000	 7.374109548607879e-001
 1.272817630202567e-001	 1.320544127202253e+000	 6.992227120698407e-001
 2.591314399534020e-001	 1.307906700519837e+000	 1.290675732194202e+000
 2.459138320677586e-001	 1.310456205728292e+000	 1.213726197454441e+000
 2.327124120507628e-001	 1.312864822470269e+000	 1.142390540647666e+000
 2.195292154500892e-001	 1.315133472310086e+000	 1.076258996736131e+000
 2.063662462431385e-001	 1.317263111523635e+000	 1.014942009498535e+000
 1.932254762343219e-001	 1.319254730025648e+000	 9.580888670064910e-001
 1.801088444902284e-001	 1.321109350289747e+000	 9.054058233776546e-001
 1.670182568124852e-001	 1.322828026262688e+000	 8.566735888344986e-001
 1.539555852480564e-001	 1.324411842274167e+000	 8.117640779458342e-001
 1.409226676366770e-001	 1.325861911943520e+000	 7.706563142444632e-001
 1.279213071950790e-001	 1.327179377084656e+000	 7.334513981136636e-001
 1.215258654471585e-001	 1.260826878268034e+000	 3.631493182971252e-001
 1.092043275309017e-001	 1.261953771859433e+000	 3.293230347670197e-001
 9.691613082677979e-002	 1.262956899461820e+000	 2.996722816358768e-001
 8.466291317473867e-002	 1.263837420728680e+000	 2.737509952818333e-001
 7.244627749879956e-002	 1.264596517971808e+000	 2.512543476242002e-001
 6.026779158439477e-002	 1.265235395119248e+000	 2.320255525655429e-001
 4.812898788860080e-002	 1.265755276678738e+000	 2.160616630090981e-001
 3.603136338263674e-002	 1.266157406707675e+000	 2.035183414158036e-001
 2.397637942596927e-002	 1.266443047790582e+000	 1.947135936859951e-001
 1.196546167133989e-002	 1.266613480024992e+000	 1.901304627856864e-001
 0.000000000000000e+000	 1.266670000016666e+000	 1.904184802468786e-001
 1.221654096208289e-001	 1.267462128151162e+000	 4.032399837573848e-001
 1.097790281603268e-001	 1.268594952152505e+000	 3.687430773312537e-001
 9.742616337399165e-002	 1.269603358831772e+000	 3.384592796024714e-001
 8.510846172113702e-002	 1.270488513945260e+000	 3.119436057104729e-001
 7.282753456140229e-002	 1.271251606026819e+000	 2.888967853611139e-001
 6.058495793091617e-002	 1.271893845340308e+000	 2.691723554766987e-001
 4.838227235153152e-002	 1.272416462837583e+000	 2.527827117407374e-001
 3.622098267249440e-002	 1.272820709123038e+000	 2.399041011038628e-001
 2.410255794388693e-002	 1.273107853425699e+000	 2.308805443564687e-001
 1.202843132115448e-002	 1.273279182579763e+000	 2.262266847290483e-001
 0.000000000000000e+000	 1.273336000014533e+000	 2.266294097233098e-001
 1.228049537949910e-001	 1.274097378033473e+000	 4.425872538733065e-001
 1.103537287902211e-001	 1.275236132444767e+000	 4.075665785892226e-001
 9.793619592163512e-002	 1.276249818200917e+000	 3.768000321521086e-001
 8.555401026791810e-002	 1.277139607161034e+000	 3.498388342895990e-001
 7.320879162433072e-002	 1.277906694081026e+000	 3.263845218266806e-001
 6.090212427770172e-002	 1.278552295560567e+000	 3.062963429785647e-001
 4.863555681466335e-002	 1.279077648995626e+000	 2.895975778863202e-001
 3.641060196249207e-002	 1.279484011537602e+000	 2.764807665190032e-001
 2.422873646188863e-002	 1.279772659060017e+000	 2.673118323440477e-001
 1.209140097100540e-002	 1.279944885133735e+000	 2.626330972453824e-001
 0.000000000000000e+000	 1.280002000011600e+000	 2.631650746564448e-001
 1.234444979695541e-001	 1.280732627915154e+000	 4.812170594842618e-001
 1.109284294205094e-001	 1.281877312736405e+000	 4.458299229298212e-001
 9.844622846965527e-002	 1.282896277569445e+000	 4.147397860625129e-001
 8.599955881504889e-002	 1.283790700376198e+000	 3.874891482377209e-001
 7.359004868757393e-002	 1.284561782134628e+000	 3.637755544269201e-001
 6.121929062475998e-002	 1.285210745780222e+000	 3.434593068678425e-001
 4.888884127802014e-002	 1.285738835153067e+000	 3.265700693073892e-001
 3.660022125266242e-002	 1.286147313951564e+000	 3.133123439916926e-001
 2.435491498000729e-002	 1.286437464693734e+000	 3.040698090650071e-001
 1.215437062091535e-002	 1.286610587687107e+000	 2.994085113527767e-001
 0.000000000000000e+000	 1.286668000008066e+000	 3.000788327969413e-001
 1.240840421444269e-001	 1.287367877796385e+000	 5.191540542081122e-001
 1.115031300511167e-001	 1.288518493027609e+000	 4.835682303504469e-001
 9.895626101799694e-002	 1.289542736937548e+000	 4.523225502202103e-001
 8.644510736249651e-002	 1.290441793590945e+000	 4.249458150742694e-001
 7.397130575112079e-002	 1.291216870187819e+000	 4.011267287890686e-001
 6.153645697209958e-002	 1.291869195999470e+000	 3.807219428595236e-001
 4.914212574162582e-002	 1.292400021310106e+000	 3.637629593349162e-001
 3.678984054303811e-002	 1.292810616365125e+000	 3.504618708307914e-001
 2.448109349827586e-002	 1.293102270327051e+000	 3.412159245170416e-001
 1.221734027090705e-002	 1.293276290240078e+000	 3.366109045210650e-001
 0.000000000000000e+000	 1.293334000004133e+000	 3.374232747469426e-001
 1.247235863195188e-001	 1.294003127677352e+000	 5.564216336502376e-001
 1.120778306819679e-001	 1.295159673318565e+000	 5.208153769216031e-001
 9.946629356660514e-002	 1.296189196305419e+000	 4.895911170573999e-001
 8.689065591022796e-002	 1.297092886805471e+000	 4.622589247496715e-001
 7.435256281496031e-002	 1.297871958240795e+000	 4.384937613075996e-001
 6.185362331972916e-002	 1.298527646218511e+000	 4.181438732840760e-001
 4.939541020550421e-002	 1.299061207466941e+000	 4.012380093550983e-001
 3.697945983365180e-002	 1.299473918778485e+000	 3.879914375445053e-001
 2.460727201672730e-002	 1.299767075960167e+000	 3.788107488871007e-001
 1.228030992100320e-002	 1.299941992792850e+000	 3.742974414262522e-001
 0.000000000000000e+000	 1.300000000000000e+000	 3.752502436275331e-001
 1.253631304947386e-001	 1.300638377558239e+000	 5.930419540803481e-001
 1.126525313129878e-001	 1.301800853609463e+000	 5.576040146703922e-001
 9.997632611542487e-002	 1.302835655673249e+000	 5.265870833642717e-001
 8.733620445821029e-002	 1.303743980019968e+000	 4.994774111166029e-001
 7.473381987908148e-002	 1.304527046293756e+000	 4.759312610139869e-001
 6.217078966765732e-002	 1.305186096437542e+000	 4.557836690969209e-001
 4.964869466967921e-002	 1.305722393623771e+000	 4.390559907107163e-001
 3.716907912453613e-002	 1.306137221191842e+000	 4.259622093838046e-001
 2.473345053539453e-002	 1.306431881593283e+000	 4.169139934991666e-001
 1.234327957122654e-002	 1.306607695345621e+000	 4.125244940693745e-001
 0.000000000000000e+000	 1.306665999995867e+000	 4.136108541434050e-001
 1.260026746699955e-001	 1.307273627439228e+000	 6.290359506007811e-001
 1.132272319441014e-001	 1.308442033900490e+000	 5.939655909003657e-001
 1.004863586644010e-001	 1.309482115041230e+000	 5.633508704979718e-001
 8.778175300641054e-002	 1.310395073234634e+000	 5.366490727713056e-001
 7.511507694347330e-002	 1.311182134346895e+000	 5.134927507952355e-001
 6.248795601589269e-002	 1.311844546656761e+000	 4.936988712277441e-001
 4.990197913417467e-002	 1.312383579780795e+000	 4.772767059356641e-001
 3.735869841572378e-002	 1.312800523605397e+000	 4.644344472317988e-001
 2.485962905431051e-002	 1.313096687226598e+000	 4.555845311251867e-001
 1.240624922159976e-002	 1.313273397898592e+000	 4.513476612847684e-001
 0.000000000000000e+000	 1.313331999991934e+000	 4.525555110672214e-001
 1.266422188451985e-001	 1.313908877320505e+000	 6.644233548233798e-001
 1.138019325752335e-001	 1.315083214191837e+000	 6.299303669713300e-001
 1.009963912134786e-001	 1.316128574409554e+000	 5.999217440118219e-001
 8.822730155479577e-002	 1.317046166449661e+000	 5.738205932829784e-001
 7.549633400812469e-002	 1.317837222400410e+000	 5.512306879829999e-001
 6.280512236444388e-002	 1.318502996876366e+000	 5.319460112905604e-001
 5.015526359901446e-002	 1.319044765938211e+000	 5.159590093542001e-001
 3.754831770724738e-002	 1.319463826019349e+000	 5.034675278617457e-001
 2.498580757350817e-002	 1.319761492860312e+000	 4.948804156811139e-001
 1.246921887214558e-002	 1.319939100451963e+000	 4.908217876553661e-001
 0.000000000000000e+000	 1.319997999988401e+000	 4.921339271637823e-001
 1.272817630202567e-001	 1.320544127202253e+000	 6.992227120698407e-001
 1.143766332063090e-001	 1.321724394483688e+000	 6.655274365527714e-001
 1.015064237626026e-001	 1.322775033778411e+000	 6.363378327219893e-001
 8.867285010333303e-002	 1.323697259665244e+000	 6.110375608349278e-001
 7.587759107302468e-002	 1.324492310454497e+000	 5.891964843346418e-001
 6.312228871331950e-002	 1.325161447096555e+000	 5.705806316759244e-001
 5.040854806422248e-002	 1.325705952096220e+000	 5.551608270633426e-001
 3.773793699913963e-002	 1.326127128433897e+000	 5.431199635869737e-001
 2.511198609302046e-002	 1.326426298494625e+000	 5.348589013295800e-001
 1.253218852288672e-002	 1.326604803005934e+000	 5.310009818575979e-001
 0.000000000000000e+000	 1.326663999985467e+000	 5.323951405740945e-001
 1.279213071950790e-001	 1.327179377084656e+000	 7.334513981136638e-001
 1.149513338372529e-001	 1.328365574776235e+000	 7.007847433761177e-001
 1.020164563117179e-001	 1.329421493147995e+000	 6.726361472329688e-001
 8.911839865198931e-002	 1.330348352881577e+000	 6.483444872984815e-001
 7.625884813816214e-002	 1.331147398509354e+000	 6.274405254305506e-001
 6.343945506252818e-002	 1.331819897317526e+000	 6.096573050541410e-001
 5.066183252982257e-002	 1.332367138255019e+000	 5.949391763189036e-001
 3.792755629143316e-002	 1.332790430849241e+000	 5.834494213235130e-001
 2.523816461288030e-002	 1.333091104129737e+000	 5.755764610103972e-001
 1.259515817384588e-002	 1.333270505560705e+000	 5.719386344587307e-001
 0.000000000000000e+000	 1.333329999983334e+000	 5.733873717180510e-001
 1.333329999983334e+000	 0.000000000000000e+000	 1.681351863764207e+001
 1.333270505560705e+000	 1.259515817384592e-002	 1.680579204129240e+001
 1.333091104129737e+000	 2.523816461288039e-002	 1.680028642308493e+001
 1.332790430849242e+000	 3.792755629143307e-002	 1.679595346538340e+001
 1.332367138255019e+000	 5.066183252982254e-002	 1.679177584613084e+001
 1.331819897317526e+000	 6.343945506252818e-002	 1.678676862781691e+001
 1.331147398509354e+000	 7.625884813816217e-002	 1.677998094322037e+001
 1.330348352881577e+000	 8.911839865198935e-002	 1.677049796631292e+001
 1.329421493147995e+000	 1.020164563117177e-001	 1.675744318537643e+001
 1.328365574776235e+000	 1.149513338372529e-001	 1.673998099341207e+001
 1.327179377084656e+000	 1.279213071950790e-001	 1.671731960866126e+001
 1.339996999982150e+000	 0.000000000000000e+000	 1.670508438981094e+001
 1.339937208071804e+000	 1.265813727142634e-002	 1.669785045241901e+001
 1.339756909586625e+000	 2.536436206177347e-002	 1.669267443324145e+001
 1.339454732860854e+000	 3.811720402987907e-002	 1.668855616256463e+001
 1.339029323692610e+000	 5.091515499229016e-002	 1.668452956943800e+001
 1.338479346406849e+000	 6.375666899177583e-002	 1.667966419176068e+001
 1.337803484928172e+000	 7.664016239779914e-002	 1.667306683154396e+001
 1.337000443862567e+000	 8.956401403969964e-002	 1.666388336239023e+001
 1.336068949587062e+000	 1.025265653733129e-001	 1.665130069907630e+001
 1.335007751346290e+000	 1.155261206817234e-001	 1.663454893939731e+001
 1.333815622354874e+000	 1.285609473108182e-001	 1.661290368867067e+001
 1.346663999981866e+000	 0.000000000000000e+000	 1.659941117294462e+001
 1.346603910583804e+000	 1.272111636919941e-002	 1.659263606611716e+001
 1.346422715044412e+000	 2.549055951097095e-002	 1.658776557163481e+001
 1.346119034873362e+000	 3.830685176867194e-002	 1.658384383778756e+001
 1.345691509131092e+000	 5.116847745508962e-002	 1.657994890848648e+001
 1.345138795497052e+000	 6.407388292129493e-002	 1.657519417398527e+001
 1.344459571347860e+000	 7.702147665761393e-002	 1.656872996642684e+001
 1.343652534844408e+000	 9.000962942747341e-002	 1.655974530776892e+001
 1.342716406026956e+000	 1.030366744348489e-001	 1.654746982021134e+001
 1.341649927917139e+000	 1.161009075260168e-001	 1.653117580954186e+001
 1.340451867625848e+000	 1.292005874262800e-001	 1.651018053208576e+001
 1.353330999982383e+000	 0.000000000000000e+000	 1.649639785419368e+001
 1.353270613096603e+000	 1.278409546711693e-002	 1.649005328060384e+001
 1.353088520502998e+000	 2.561675696039653e-002	 1.648546934897978e+001
 1.352783336886667e+000	 3.849649950772439e-002	 1.648173500083360e+001
 1.352353694570366e+000	 5.142179991813674e-002	 1.647797272364698e+001
 1.351798244588041e+000	 6.439109685101513e-002	 1.647333993763829e+001
 1.351115657768319e+000	 7.740279091755783e-002	 1.646703052703296e+001
 1.350304625827005e+000	 9.045524481528788e-002	 1.645827652390982e+001
 1.349363862467584e+000	 1.035467834963302e-001	 1.644634995498904e+001
 1.348292104488696e+000	 1.166756943701628e-001	 1.643056486205026e+001
 1.347088112897492e+000	 1.298402275415133e-001	 1.641027950696442e+001
 1.359997999983599e+000	 0.000000000000000e+000	 1.639594315592785e+001
 1.359937315610102e+000	 1.284707456513073e-002	 1.639000639312839e+001
 1.359754325962284e+000	 2.574295440997401e-002	 1.638569391530422e+001
 1.359447638900670e+000	 3.868614724694920e-002	 1.638213991997973e+001
 1.359015880010333e+000	 5.167512238134727e-002	 1.637851165611299e+001
 1.358457693679716e+000	 6.470831078086613e-002	 1.637401074236373e+001
 1.357771744189456e+000	 7.778410517758207e-002	 1.636787462956918e+001
 1.356956716810264e+000	 9.090086020312037e-002	 1.635937821602077e+001
 1.356011318908855e+000	 1.040568925577615e-001	 1.634783562616257e+001
 1.354934281060870e+000	 1.172504812141908e-001	 1.633260216367959e+001
 1.353724358169724e+000	 1.304798676565676e-001	 1.631307645027045e+001
 1.366664999985416e+000	 0.000000000000000e+000	 1.629794565926733e+001
 1.366604018124201e+000	 1.291005366319264e-002	 1.629239963299366e+001
 1.366420131422168e+000	 2.586915185962713e-002	 1.628834745674391e+001
 1.366111940915269e+000	 3.887579498625917e-002	 1.628496903447156e+001
 1.365678065450894e+000	 5.192844484463698e-002	 1.628147668376406e+001
 1.365117142771979e+000	 6.502552471077756e-002	 1.627711638111229e+001
 1.364427830611170e+000	 7.816541943763790e-002	 1.627116915111344e+001
 1.363608807794090e+000	 9.134647559094825e-002	 1.626295260872575e+001
 1.362658775350676e+000	 1.045670016191473e-001	 1.625182266545771e+001
 1.361576457633574e+000	 1.178252680581307e-001	 1.623717541075252e+001
 1.360360603442459e+000	 1.311195077714921e-001	 1.621844918018189e+001
 1.373331999987733e+000	 0.000000000000000e+000	 1.620230380751127e+001
 1.373270720638800e+000	 1.297303276125448e-002	 1.619713716723218e+001
 1.373085936882552e+000	 2.599534930927962e-002	 1.619333820248496e+001
 1.372776242930367e+000	 3.906544272556702e-002	 1.619013296174687e+001
 1.372340250891950e+000	 5.218176730792168e-002	 1.618677912768264e+001
 1.371776591864732e+000	 6.534273864067913e-002	 1.618256718496123e+001
 1.371083917033369e+000	 7.854673369767661e-002	 1.617682173174811e+001
 1.370260898778388e+000	 9.179209097874876e-002	 1.616890294452086e+001
 1.369306231792957e+000	 1.050771106804921e-001	 1.615820820736243e+001
 1.368218634206720e+000	 1.184000549020120e-001	 1.614417391729325e+001
 1.366996848715614e+000	 1.317591478863360e-001	 1.612627747758831e+001
 1.379998999990449e+000	 0.000000000000000e+000	 1.610891590946674e+001
 1.379937423153799e+000	 1.303601185926808e-002	 1.610412310611634e+001
 1.379751742343335e+000	 2.612154675885525e-002	 1.610057443149876e+001
 1.379440544945863e+000	 3.925509046478554e-002	 1.609754250443514e+001
 1.379002436333403e+000	 5.243508977111712e-002	 1.609433065845608e+001
 1.378436040957878e+000	 6.565995257050049e-002	 1.609027402775534e+001
 1.377740003455954e+000	 7.892804795764939e-002	 1.608474077657434e+001
 1.376912989763065e+000	 9.223770636649928e-002	 1.607713348219809e+001
 1.375953688235605e+000	 1.055872197418005e-001	 1.606689068299589e+001
 1.374860810780218e+000	 1.189748417458644e-001	 1.605348860337958e+001
 1.373633093989104e+000	 1.323987880011485e-001	 1.603644306796725e+001
 1.386665999993466e+000	 0.000000000000000e+000	 1.601768014268183e+001
 1.386604125669099e+000	 1.309899095718526e-002	 1.601326150850806e+001
 1.386417547804418e+000	 2.624774420827780e-002	 1.600996447907595e+001
 1.386104846961657e+000	 3.944473820382747e-002	 1.600710865714116e+001
 1.385664621775152e+000	 5.268841223413907e-002	 1.600404330227202e+001
 1.385095490051318e+000	 6.597716650017133e-002	 1.600014833057440e+001
 1.384396089878828e+000	 7.930936221750755e-002	 1.599483545761209e+001
 1.383565080748026e+000	 9.268332175417705e-002	 1.598754949523718e+001
 1.382601144678529e+000	 1.060973288030771e-001	 1.597776981405347e+001
 1.381502987353983e+000	 1.195496285897177e-001	 1.596501198370435e+001
 1.380269339262846e+000	 1.330384281159790e-001	 1.594882960362741e+001
 1.393332999996683e+000	 0.000000000000000e+000	 1.592849455658579e+001
 1.393270828184598e+000	 1.316197005495783e-002	 1.592445638705327e+001
 1.393083353265701e+000	 2.637394165747098e-002	 1.592141674316704e+001
 1.392769148977652e+000	 3.963438594260560e-002	 1.591874261301973e+001
 1.392326807217099e+000	 5.294173469690337e-002	 1.591582944681319e+001
 1.391754939144953e+000	 6.629438042962124e-002	 1.591210206603306e+001
 1.391052176301896e+000	 7.969067647720234e-002	 1.590701571558845e+001
 1.390217171733176e+000	 9.312893714175946e-002	 1.590005727016698e+001
 1.389248601121635e+000	 1.066074378643263e-001	 1.589074660682580e+001
 1.388145163927923e+000	 1.201244154336013e-001	 1.587863815633893e+001
 1.386905584536755e+000	 1.336780682308766e-001	 1.586332264630639e+001
 1.400000000000000e+000	 0.000000000000000e+000	 1.584125707553958e+001
 1.399937530700196e+000	 1.322494915253764e-002	 1.583761171322628e+001
 1.399749158727085e+000	 2.650013910635858e-002	 1.583483969053502e+001
 1.399433450993745e+000	 3.982403368103266e-002	 1.583235577014820e+001
 1.398988992659146e+000	 5.319505715932572e-002	 1.582960184695888e+001
 1.398414388238686e+000	 6.661159435877999e-002	 1.582604776241871e+001
 1.397708262725060e+000	 8.007199073668501e-002	 1.582119226161919e+001
 1.396869262718420e+000	 9.357455252922370e-002	 1.581456410489725e+001
 1.395896057564835e+000	 1.071175469255528e-001	 1.580572334628910e+001
 1.394787340501952e+000	 1.206992022775451e-001	 1.579426279169197e+001
 1.393541829810749e+000	 1.343177083458907e-001	 1.577980965011066e+001
 1.327179377084656e+000	 1.279213071950790e-001	 1.671731960866126e+001
 1.325861911943521e+000	 1.409226676366771e-001	 1.669232042790263e+001
 1.324411842274167e+000	 1.539555852480564e-001	 1.666793886778908e+001
 1.322828026262688e+000	 1.670182568124853e-001	 1.664359404901818e+001
 1.321109350289747e+000	 1.801088444902282e-001	 1.661873951173140e+001
 1.319254730025648e+000	 1.932254762343219e-001	 1.659286721160827e+001
 1.317263111523635e+000	 2.063662462431386e-001	 1.656551188060460e+001
 1.315133472310086e+000	 2.195292154500891e-001	 1.653625574383290e+001
 1.312864822470269e+000	 2.327124120507629e-001	 1.650473357986210e+001
 1.310456205728293e+000	 2.459138320677585e-001	 1.647063810731653e+001
 1.307906700519837e+000	 2.591314399534021e-001	 1.643372567610719e+001
 1.333815622354874e+000	 1.285609473108182e-001	 1.661290368867068e+001
 1.332491569542165e+000	 1.416273179673805e-001	 1.658912513463855e+001
 1.331034249143765e+000	 1.547254035878931e-001	 1.656597691521671e+001
 1.329442513636407e+000	 1.678533919390620e-001	 1.654288827432708e+001
 1.327715243832375e+000	 1.810094359914642e-001	 1.651932794998869e+001
 1.325851349980052e+000	 1.941916543374044e-001	 1.649479929014793e+001
 1.323849772862681e+000	 2.073981316457405e-001	 1.646884462565295e+001
 1.321709484894016e+000	 2.206269191540353e-001	 1.644105002207150e+001
 1.319429491209501e+000	 2.338760351983323e-001	 1.641105039788391e+001
 1.317008830751625e+000	 2.471434657808105e-001	 1.637853499202919e+001
 1.314446577348017e+000	 2.604271651755172e-001	 1.634325315907410e+001
 1.340451867625848e+000	 1.292005874262800e-001	 1.651018053208576e+001
 1.339121227141517e+000	 1.423319682977339e-001	 1.648714787651434e+001
 1.337656656014014e+000	 1.554952219273348e-001	 1.646481929245591e+001
 1.336057001010716e+000	 1.686885270652219e-001	 1.644269337652219e+001
 1.334321137375528e+000	 1.819100274922824e-001	 1.642029628342772e+001
 1.332447969934912e+000	 1.951578324400848e-001	 1.639716131999861e+001
 1.330436434202115e+000	 2.084300170479688e-001	 1.637269170710895e+001
 1.328285497478265e+000	 2.217246228576455e-001	 1.634644425717874e+001
 1.325994159948987e+000	 2.350396583456089e-001	 1.631805460816429e+001
 1.323561455775152e+000	 2.483730994936152e-001	 1.628720918403473e+001
 1.320986454176337e+000	 2.617228903974281e-001	 1.625365110101290e+001
 1.347088112897492e+000	 1.298402275415133e-001	 1.641027950696442e+001
 1.345750884741497e+000	 1.430366186277980e-001	 1.638802980536599e+001
 1.344279062884841e+000	 1.562650402664456e-001	 1.636642158217839e+001
 1.342671488385547e+000	 1.695236621910270e-001	 1.634498024015352e+001
 1.340927030919145e+000	 1.828106189927365e-001	 1.632325632361151e+001
 1.339044589890175e+000	 1.961240105424044e-001	 1.630082806985611e+001
 1.337023095541889e+000	 2.094619024498504e-001	 1.627730424246155e+001
 1.334861510062792e+000	 2.228223265609310e-001	 1.625232726048705e+001
 1.332558828688690e+000	 2.362032814925881e-001	 1.622556022341674e+001
 1.330114080798836e+000	 2.496027332061524e-001	 1.619647790798272e+001
 1.327526331004762e+000	 2.630186156191023e-001	 1.616474323633495e+001
 1.353724358169724e+000	 1.304798676565676e-001	 1.631307645027045e+001
 1.352380542342027e+000	 1.437412689576333e-001	 1.629165858051925e+001
 1.350901469756175e+000	 1.570348586052899e-001	 1.627081151497647e+001
 1.349285975760837e+000	 1.703587973165388e-001	 1.625008769213926e+001
 1.347532924463167e+000	 1.837112104928801e-001	 1.622906243501049e+001
 1.345641209845789e+000	 1.970901886444053e-001	 1.620733643318763e+001
 1.343609756881957e+000	 2.104937878514123e-001	 1.618453851192515e+001
 1.341437522647555e+000	 2.239200302639025e-001	 1.616032870281855e+001
 1.339123497428572e+000	 2.373669046392645e-001	 1.613440163063807e+001
 1.336666705822646e+000	 2.508323669184024e-001	 1.610649023061202e+001
 1.334066207833258e+000	 2.643143408405080e-001	 1.607636981011858e+001
 1.360360603442459e+000	 1.311195077714921e-001	 1.621844918018189e+001
 1.359010199943027e+000	 1.444459192873007e-001	 1.619790248001523e+001
 1.357523876627944e+000	 1.578046769439323e-001	 1.617785024495033e+001
 1.355900463136519e+000	 1.711939324418187e-001	 1.615787217988958e+001
 1.354138818007536e+000	 1.846118019927668e-001	 1.613756877515422e+001
 1.352237829801701e+000	 1.980563667461289e-001	 1.611656372176690e+001
 1.350196418222271e+000	 2.115256732526815e-001	 1.609450661855581e+001
 1.348013535232513e+000	 2.250177339665709e-001	 1.607107598631920e+001
 1.345688166168596e+000	 2.385305277856329e-001	 1.604598260419436e+001
 1.343219330846545e+000	 2.520620006303451e-001	 1.601897318317560e+001
 1.340606084661794e+000	 2.656100660616129e-001	 1.598983439140755e+001
 1.366996848715614e+000	 1.317591478863360e-001	 1.612627747758831e+001
 1.365639857544422e+000	 1.451505696168609e-001	 1.610663207930703e+001
 1.364146283500072e+000	 1.585744952824371e-001	 1.608740150774835e+001
 1.362514950512526e+000	 1.720290675669288e-001	 1.606819296601847e+001
 1.360744711552191e+000	 1.855123934924504e-001	 1.604863250009331e+001
 1.358834449757856e+000	 1.990225448476168e-001	 1.602836734974822e+001
 1.356783079562785e+000	 2.125575586536849e-001	 1.600706859590264e+001
 1.354589547817624e+000	 2.261154376689472e-001	 1.598443412020380e+001
 1.352252834908725e+000	 2.396941509316883e-001	 1.596019189260693e+001
 1.349771955870499e+000	 2.532916343419605e-001	 1.593410360253960e+001
 1.347145961490334e+000	 2.669057912823845e-001	 1.590596864894353e+001
 1.373633093989104e+000	 1.323987880011485e-001	 1.603644306796725e+001
 1.372269515146129e+000	 1.458552199463743e-001	 1.601772022668125e+001
 1.370768690372490e+000	 1.593443136208687e-001	 1.599933159053076e+001
 1.369129437888794e+000	 1.728642026919303e-001	 1.598091209385175e+001
 1.367350605097073e+000	 1.864129849919844e-001	 1.596211372645603e+001
 1.365431069714203e+000	 1.999887229489109e-001	 1.594260782259641e+001
 1.363369740903453e+000	 2.135894440544495e-001	 1.592208765068263e+001
 1.361165560402846e+000	 2.272131413710424e-001	 1.590027132015105e+001
 1.358817503648921e+000	 2.408577740774254e-001	 1.587690502185810e+001
 1.356324580894474e+000	 2.545212680532286e-001	 1.585176661822506e+001
 1.353685838318846e+000	 2.682015165027911e-001	 1.582466959909622e+001
 1.380269339262846e+000	 1.330384281159790e-001	 1.594882960362741e+001
 1.378899172748071e+000	 1.465598702759018e-001	 1.593104201919970e+001
 1.377391097245123e+000	 1.601141319592913e-001	 1.591350930257667e+001
 1.375743925265254e+000	 1.736993378168850e-001	 1.589589435366916e+001
 1.373956498642124e+000	 1.873135764914223e-001	 1.587787549429832e+001
 1.372027689670689e+000	 2.009549010500525e-001	 1.585914869752043e+001
 1.369956402244226e+000	 2.146213294550026e-001	 1.583943012177533e+001
 1.367741572988138e+000	 2.283108450728675e-001	 1.581845896683817e+001
 1.365382172389146e+000	 2.420213972228390e-001	 1.579600066855325e+001
 1.362877205918434e+000	 2.557509017641294e-001	 1.577185044921626e+001
 1.360225715147297e+000	 2.694972417228001e-001	 1.574583724023609e+001
 1.386905584536755e+000	 1.336780682308766e-001	 1.586332264630639e+001
 1.385528830350171e+000	 1.472645206055041e-001	 1.584647477914467e+001
 1.384013504117901e+000	 1.608839502977697e-001	 1.582980594651270e+001
 1.382358412641842e+000	 1.745344729418547e-001	 1.581300724965573e+001
 1.380562392187283e+000	 1.882141679908180e-001	 1.579578373072104e+001
 1.378624309627261e+000	 2.019210791510837e-001	 1.577785654470097e+001
 1.376543063585058e+000	 2.156532148553707e-001	 1.575896544000775e+001
 1.374317585573459e+000	 2.294085487744333e-001	 1.573887156523144e+001
 1.371946841129365e+000	 2.431850203679240e-001	 1.571736061966620e+001
 1.369429830942346e+000	 2.569805354746430e-001	 1.569424636510960e+001
 1.366765591975652e+000	 2.707929669423796e-001	 1.566937451623494e+001
 1.393541829810749e+000	 1.343177083458907e-001	 1.577980965011066e+001
 1.392158487952350e+000	 1.479691709352418e-001	 1.576389803095071e+001
 1.390635910990750e+000	 1.616537686363681e-001	 1.574809529014248e+001
 1.388972900018493e+000	 1.753696080669007e-001	 1.573212096753926e+001
 1.387168285732491e+000	 1.891147594902250e-001	 1.571570721422788e+001
 1.385220929583866e+000	 2.028872572520458e-001	 1.569860090928492e+001
 1.383129724925903e+000	 2.166851002555812e-001	 1.568056608870289e+001
 1.380893598158766e+000	 2.305062524757509e-001	 1.566138670460730e+001
 1.378511509869538e+000	 2.443486435126755e-001	 1.564086973295244e+001
 1.375982455966176e+000	 2.582101691847494e-001	 1.561884864783909e+001
 1.373305468803879e+000	 2.720886921614973e-001	 1.559518728042323e+001
 1.307906700519837e+000	 2.591314399534021e-001	 1.643372567610719e+001
 1.305215006833941e+000	 2.723651546311524e-001	 1.639354801022989e+001
 1.302380648154344e+000	 2.856108941680557e-001	 1.634982672367605e+001
 1.299402814194865e+000	 2.988665281832908e-001	 1.630266790295944e+001
 1.296280733615264e+000	 3.121298974347746e-001	 1.625226393477788e+001
 1.293013675037378e+000	 3.253988146137714e-001	 1.619889998364581e+001
 1.289600948045209e+000	 3.386710651775105e-001	 1.614296054344904e+001
 1.286041904167421e+000	 3.519444082195941e-001	 1.608493600854671e+001
 1.282335937840718e+000	 3.652165773779125e-001	 1.602542920564395e+001
 1.278482487352557e+000	 3.784852817797219e-001	 1.596516182347351e+001
 1.274481035761665e+000	 3.917482070234652e-001	 1.590498067340733e+001
 1.314446577348017e+000	 2.604271651755172e-001	 1.634325315907410e+001
 1.311741424487327e+000	 2.737270519005023e-001	 1.630472955817854e+001
 1.308892893270573e+000	 2.870390236120768e-001	 1.626267224981335e+001
 1.305900169359915e+000	 3.003609392769588e-001	 1.621719731384770e+001
 1.302762477558189e+000	 3.136906288562903e-001	 1.616850532384470e+001
 1.299479082830132e+000	 3.270258941042208e-001	 1.611688801298204e+001
 1.296049291307467e+000	 3.403645094046873e-001	 1.606273503040440e+001
 1.292472451276313e+000	 3.537042226461742e-001	 1.600654073228407e+001
 1.288747954145378e+000	 3.670427561341693e-001	 1.594891094728251e+001
 1.284875235393391e+000	 3.803778075409664e-001	 1.589056965174545e+001
 1.280853775494218e+000	 3.937070508923963e-001	 1.583236548587411e+001
 1.320986454176337e+000	 2.617228903974281e-001	 1.625365110101290e+001
 1.318267842140804e+000	 2.750889491696858e-001	 1.621688200274536e+001
 1.315405138386855e+000	 2.884671530559646e-001	 1.617659714395238e+001
 1.312397524524987e+000	 3.018553503705233e-001	 1.613291834933120e+001
 1.309244221501116e+000	 3.152513602777307e-001	 1.608604991248043e+001
 1.305944490622876e+000	 3.286529735946223e-001	 1.603628546092633e+001
 1.302497634569714e+000	 3.420579536318444e-001	 1.598401492906072e+001
 1.298902998385200e+000	 3.554640370727650e-001	 1.592973158188378e+001
 1.295159970450051e+000	 3.688689348904707e-001	 1.587403902767717e+001
 1.291267983434265e+000	 3.822703333022945e-001	 1.581765815318811e+001
 1.287226515226850e+000	 3.956658947614563e-001	 1.576143391063919e+001
 1.327526331004762e+000	 2.630186156191023e-001	 1.616474323633495e+001
 1.324794259794340e+000	 2.764508464386623e-001	 1.612983710072903e+001
 1.321917383503154e+000	 2.898952824996736e-001	 1.609144094696597e+001
 1.318894879690042e+000	 3.033497614639366e-001	 1.604967809851989e+001
 1.315725965443999e+000	 3.168120916990478e-001	 1.600475210291172e+001
 1.312409898415560e+000	 3.302800530849295e-001	 1.595695380682713e+001
 1.308945977831890e+000	 3.437513978589381e-001	 1.590666855760986e+001
 1.305333545494019e+000	 3.572238514993261e-001	 1.585438347260871e+001
 1.301571986754666e+000	 3.706951136467797e-001	 1.580069471289599e+001
 1.297660731475104e+000	 3.841628590636720e-001	 1.574631469314109e+001
 1.293599254959479e+000	 3.976247386306125e-001	 1.569207915497465e+001
 1.334066207833258e+000	 2.643143408405080e-001	 1.607636981011858e+001
 1.331320677447898e+000	 2.778127437073906e-001	 1.604342642173714e+001
 1.328429628619433e+000	 2.913234119431576e-001	 1.600704302184754e+001
 1.325392234855040e+000	 3.048441725571505e-001	 1.596732351785832e+001
 1.322207709386794e+000	 3.183728231201935e-001	 1.592446624384081e+001
 1.318875306208132e+000	 3.319071325750965e-001	 1.587875458752300e+001
 1.315394321093939e+000	 3.454448420859252e-001	 1.583056443249520e+001
 1.311764092602703e+000	 3.589836659258176e-001	 1.578037168628468e+001
 1.307984003059153e+000	 3.725212924030594e-001	 1.572875982916894e+001
 1.304053479515829e+000	 3.860553848250641e-001	 1.567642741366874e+001
 1.299971994692022e+000	 3.995835824998310e-001	 1.562419544002423e+001
 1.340606084661794e+000	 2.656100660616129e-001	 1.598983439140755e+001
 1.337847095101447e+000	 2.791746409758307e-001	 1.595805427285183e+001
 1.334941873735656e+000	 2.927515413863712e-001	 1.592331447897084e+001
 1.331889590019940e+000	 3.063385836501171e-001	 1.588570148043466e+001
 1.328689453329455e+000	 3.199335545411200e-001	 1.584504668770262e+001
 1.325340714000539e+000	 3.335342120650767e-001	 1.580154946221512e+001
 1.321842664355803e+000	 3.471382863127622e-001	 1.575557134058093e+001
 1.318194639711190e+000	 3.607434803521993e-001	 1.570757195046222e+001
 1.314396019363438e+000	 3.743474711592730e-001	 1.565811684875252e+001
 1.310446227556364e+000	 3.879479105864364e-001	 1.560788532585304e+001
 1.306344734424396e+000	 4.015424263690787e-001	 1.555767809926434e+001
 1.347145961490334e+000	 2.669057912823845e-001	 1.590596864894353e+001
 1.344373512754951e+000	 2.805365382439415e-001	 1.587526764994720e+001
 1.341454118851785e+000	 2.941796708292684e-001	 1.584167298425506e+001
 1.338386945184701e+000	 3.078329947427883e-001	 1.580532848590504e+001
 1.335171197271936e+000	 3.214942859617793e-001	 1.576643431610851e+001
 1.331806121792732e+000	 3.351612915548239e-001	 1.572520027727031e+001
 1.328291007617424e+000	 3.488317305394058e-001	 1.568155841117216e+001
 1.324625186819415e+000	 3.625032947784311e-001	 1.563586051736109e+001
 1.320808035667453e+000	 3.761736499153836e-001	 1.558864897551992e+001
 1.316838975596630e+000	 3.898404363477547e-001	 1.554057840176416e+001
 1.312717474156519e+000	 4.035012702383219e-001	 1.549242367660512e+001
 1.353685838318846e+000	 2.682015165027911e-001	 1.582466959909622e+001
 1.350899930408376e+000	 2.818984355116824e-001	 1.579508352767230e+001
 1.347966363967785e+000	 2.956078002718034e-001	 1.576266485904354e+001
 1.344884300349283e+000	 3.093274058351162e-001	 1.572756082592232e+001
 1.341652941214191e+000	 3.230550173821236e-001	 1.568997191052522e+001
 1.338271529584657e+000	 3.367883710442921e-001	 1.565015746650510e+001
 1.334739350878743e+000	 3.505251747658126e-001	 1.560844178409968e+001
 1.331055733927312e+000	 3.642631092044733e-001	 1.556511424260542e+001
 1.327220051971125e+000	 3.779998286713540e-001	 1.552024023028593e+001
 1.323231723636551e+000	 3.917329621089841e-001	 1.547439766612056e+001
 1.319090213888307e+000	 4.054601141075276e-001	 1.542833002414353e+001
 1.360225715147297e+000	 2.694972417228001e-001	 1.574583724023609e+001
 1.357426348061687e+000	 2.832603327790126e-001	 1.571741433942053e+001
 1.354478609083619e+000	 2.970359297139307e-001	 1.568621407855587e+001
 1.351381655513645e+000	 3.108218169270527e-001	 1.565238398226071e+001
 1.348134685156176e+000	 3.246157488021045e-001	 1.561612158835227e+001
 1.344736937376264e+000	 3.384154505334348e-001	 1.557768006634244e+001
 1.341187694139704e+000	 3.522186189919392e-001	 1.553737429201467e+001
 1.337486281034819e+000	 3.660229236302852e-001	 1.549558738930941e+001
 1.333632068274384e+000	 3.798260074271477e-001	 1.545277774912936e+001
 1.329624471676048e+000	 3.936254878700904e-001	 1.540923528764852e+001
 1.325462953619678e+000	 4.074189579766622e-001	 1.536529639958015e+001
 1.366765591975652e+000	 2.707929669423796e-001	 1.566937451623494e+001
 1.363952765714852e+000	 2.846222300458915e-001	 1.564217534422508e+001
 1.360990854199249e+000	 2.984640591556040e-001	 1.561224733899939e+001
 1.357879010677747e+000	 3.123162280185499e-001	 1.557973525447592e+001
 1.354616429097844e+000	 3.261764802216743e-001	 1.554483046391419e+001
 1.351202345167504e+000	 3.400425300222060e-001	 1.550777657596559e+001
 1.347636037400247e+000	 3.539120632177420e-001	 1.546887552001732e+001
 1.343916828141869e+000	 3.677827380558271e-001	 1.542849411293064e+001
 1.340044084577158e+000	 3.816521861827275e-001	 1.538707111764919e+001
 1.336017219715046e+000	 3.955180136310391e-001	 1.534512480230170e+001
 1.331835693350548e+000	 4.093778018456922e-001	 1.530322356331113e+001
 1.373305468803879e+000	 2.720886921614973e-001	 1.559518728042323e+001
 1.370479183367836e+000	 2.859841273122784e-001	 1.556928459314941e+001
 1.367503099314640e+000	 2.998921885967780e-001	 1.554069402589460e+001
 1.364376365841549e+000	 3.138106391095596e-001	 1.550955454294846e+001
 1.361098173039150e+000	 3.277372116407852e-001	 1.547604817760993e+001
 1.357667752958321e+000	 3.416696095105594e-001	 1.544040564668737e+001
 1.354084380660317e+000	 3.556055074431779e-001	 1.540291244785035e+001
 1.350347375248399e+000	 3.695425524810588e-001	 1.536391545282959e+001
 1.346456100879377e+000	 3.834783649380567e-001	 1.532383000782979e+001
 1.342409967753466e+000	 3.974105393917957e-001	 1.528314755065731e+001
 1.338208433080836e+000	 4.113366457145844e-001	 1.524244375195781e+001
 1.274481035761665e+000	 3.917482070234652e-001	 1.590498067340733e+001
 1.270331111476093e+000	 4.050030160027568e-001	 1.584219525622079e+001
 1.266032288167079e+000	 4.182473493586814e-001	 1.577401534658620e+001
 1.261584186568501e+000	 4.314788271174073e-001	 1.570135055428049e+001
 1.256986475613899e+000	 4.446950500028725e-001	 1.562526817506364e+001
 1.252238873225494e+000	 4.578936005938943e-001	 1.554699832534653e+001
 1.247341147071948e+000	 4.710720445141692e-001	 1.546793844518900e+001
 1.242293115293416e+000	 4.842279316542610e-001	 1.538965708523221e+001
 1.237094647192461e+000	 4.973587974246059e-001	 1.531389689308815e+001
 1.231745663889408e+000	 5.104621640384943e-001	 1.524257671530978e+001
 1.226246138940778e+000	 5.235355418239187e-001	 1.517779273237551e+001
 1.280853775494218e+000	 3.937070508923963e-001	 1.583236548587411e+001
 1.276683100497812e+000	 4.070281373959295e-001	 1.577166559838432e+001
 1.272362781943674e+000	 4.203386958952362e-001	 1.570571875511952e+001
 1.267892438669269e+000	 4.336363345159897e-001	 1.563540963977816e+001
 1.263271737952744e+000	 4.469186419851159e-001	 1.556178279512100e+001
 1.258500396305879e+000	 4.601831887936905e-001	 1.548604811003090e+001
 1.253578180235638e+000	 4.734275283928874e-001	 1.540958566934917e+001
 1.248504906972856e+000	 4.866491984220788e-001	 1.533394987911131e+001
 1.243280445166594e+000	 4.998457219681045e-001	 1.526087277965453e+001
 1.237904715542784e+000	 5.130146088546692e-001	 1.519226645961782e+001
 1.232377691525745e+000	 5.261533569607503e-001	 1.513022448513728e+001
 1.287226515226850e+000	 3.956658947614563e-001	 1.576143391063919e+001
 1.283035089519661e+000	 4.090532587892841e-001	 1.570279662826400e+001
 1.278693275720454e+000	 4.224300424320308e-001	 1.563904485302390e+001
 1.274200690770286e+000	 4.357938419148706e-001	 1.557104061780981e+001
 1.269557000291902e+000	 4.491422339677152e-001	 1.549980799193406e+001
 1.264761919386638e+000	 4.624727769938941e-001	 1.542653892653270e+001
 1.259815213399763e+000	 4.757830122720565e-001	 1.535259845720918e+001
 1.254716698652781e+000	 4.890704651903787e-001	 1.527952917349287e+001
 1.249466243141255e+000	 5.023326465121009e-001	 1.520905486446228e+001
 1.244063767196715e+000	 5.155670536713387e-001	 1.514308325037880e+001
 1.238509244111277e+000	 5.287711720980507e-001	 1.508370771142732e+001
 1.293599254959479e+000	 3.976247386306125e-001	 1.569207915497465e+001
 1.289387078541550e+000	 4.110783801827868e-001	 1.563548716662888e+001
 1.285023769497329e+000	 4.245213889690289e-001	 1.557389779656712e+001
 1.280508942871458e+000	 4.379513493140114e-001	 1.550815257786182e+001
 1.275842262631276e+000	 4.513658259506280e-001	 1.543925726125006e+001
 1.271023442467676e+000	 4.647623651944605e-001	 1.536838802521221e+001
 1.266052246564224e+000	 4.781384961516295e-001	 1.529689703778224e+001
 1.260928490333093e+000	 4.914917319591130e-001	 1.522631727654446e+001
 1.255652041116344e+000	 5.048195710565490e-001	 1.515836651297088e+001
 1.250222818851101e+000	 5.181194984884608e-001	 1.509495036769410e+001
 1.244640796697276e+000	 5.313889872357854e-001	 1.503816434453000e+001
 1.299971994692022e+000	 3.995835824998310e-001	 1.562419544002423e+001
 1.295739067563394e+000	 4.131035015764033e-001	 1.556963730273246e+001
 1.291354263274208e+000	 4.266127355061942e-001	 1.551018328095414e+001
 1.286817194972689e+000	 4.401088567133724e-001	 1.544665643445340e+001
 1.282127524970770e+000	 4.535894179338115e-001	 1.538004622537347e+001
 1.277284965548894e+000	 4.670519533953436e-001	 1.531151509971196e+001
 1.272289279728921e+000	 4.804939800315584e-001	 1.524240441505215e+001
 1.267140282013694e+000	 4.939129987282336e-001	 1.517423961781363e+001
 1.261837839091760e+000	 5.073064956014023e-001	 1.510873457290583e+001
 1.256381870505843e+000	 5.206719433059938e-001	 1.504779494905284e+001
 1.250772349283640e+000	 5.340068023739211e-001	 1.499352056424077e+001
 1.306344734424396e+000	 4.015424263690787e-001	 1.555767809926434e+001
 1.302091056585105e+000	 4.151286229700997e-001	 1.550514849871477e+001
 1.297684757051000e+000	 4.287040820434901e-001	 1.544780865043766e+001
 1.293125447073886e+000	 4.422663641129139e-001	 1.538646504268265e+001
 1.288412787310288e+000	 4.558130099172235e-001	 1.532209275383341e+001
 1.283546488630194e+000	 4.693415415964984e-001	 1.525584241239103e+001
 1.278526312893757e+000	 4.828494639117961e-001	 1.518904649777925e+001
 1.273352073694481e+000	 4.963342654976929e-001	 1.512322488196877e+001
 1.268023637067405e+000	 5.097934201466150e-001	 1.506008951145816e+001
 1.262540922160840e+000	 5.232243881238962e-001	 1.500154812947290e+001
 1.256903901870271e+000	 5.366246175124240e-001	 1.494970693939197e+001
 1.312717474156519e+000	 4.035012702383219e-001	 1.549242367660512e+001
 1.308443045606594e+000	 4.171537443638418e-001	 1.544192369361378e+001
 1.304015250827613e+000	 4.307954285808809e-001	 1.538668300801539e+001
 1.299433699174955e+000	 4.444238715125973e-001	 1.532749331334474e+001
 1.294698049649734e+000	 4.580366019008214e-001	 1.526531708361808e+001
 1.289808011711478e+000	 4.716311297978786e-001	 1.520129491933127e+001
 1.284763346058632e+000	 4.852049477922950e-001	 1.513675222889376e+001
 1.279563865375358e+000	 4.987555322674430e-001	 1.507320514215566e+001
 1.274209435043177e+000	 5.122803446921408e-001	 1.501236555213946e+001
 1.268699973815992e+000	 5.257768329421260e-001	 1.495614518135109e+001
 1.263035454457067e+000	 5.392424326512596e-001	 1.490665857015503e+001
 1.319090213888307e+000	 4.054601141075276e-001	 1.542833002414353e+001
 1.314795034627774e+000	 4.191788657575951e-001	 1.537986740699976e+001
 1.310345744603956e+000	 4.328867751183299e-001	 1.532671732472781e+001
 1.305741951275802e+000	 4.465813789123832e-001	 1.526965832763659e+001
 1.300983311989010e+000	 4.602601938845619e-001	 1.520964193899110e+001
 1.296069534792650e+000	 4.739207179994396e-001	 1.514780039493011e+001
 1.291000379223446e+000	 4.875604316730077e-001	 1.508545371449125e+001
 1.285775657056222e+000	 5.011767990374352e-001	 1.502411599298228e+001
 1.280395233018978e+000	 5.147672692379334e-001	 1.496550081130445e+001
 1.274859025471199e+000	 5.283292777606418e-001	 1.491152565403264e+001
 1.269167007043930e+000	 5.418602477903944e-001	 1.486431523012764e+001
 1.325462953619678e+000	 4.074189579766622e-001	 1.536529639958015e+001
 1.321147023648559e+000	 4.212039871513260e-001	 1.531888584224474e+001
 1.316676238379938e+000	 4.349781216558010e-001	 1.526782454856972e+001
 1.312050203376333e+000	 4.487388863122319e-001	 1.521287945146216e+001
 1.307268574328022e+000	 4.624837858684034e-001	 1.515499265090324e+001
 1.302331057873609e+000	 4.762103062011355e-001	 1.509528955609363e+001
 1.297237412388103e+000	 4.899159155538866e-001	 1.503508635244318e+001
 1.291987448736975e+000	 5.035980658076227e-001	 1.497589668314489e+001
 1.286581030994707e+000	 5.172541937839468e-001	 1.491943743435215e+001
 1.281018077126362e+000	 5.308817225794016e-001	 1.486763351310889e+001
 1.275298559630759e+000	 5.444780629297946e-001	 1.482262150821218e+001
 1.331835693350548e+000	 4.093778018456922e-001	 1.530322356331113e+001
 1.327499012668862e+000	 4.232291085450001e-001	 1.525888698943956e+001
 1.323006732155468e+000	 4.370694681932577e-001	 1.520991971302917e+001
 1.318358455476455e+000	 4.508963937121044e-001	 1.515707844935196e+001
 1.313553836666673e+000	 4.647073778523029e-001	 1.510129727601389e+001
 1.308592580954259e+000	 4.784998944029210e-001	 1.504369618604383e+001
 1.303474445552502e+000	 4.922713994348845e-001	 1.498558896063591e+001
 1.298199240417519e+000	 5.060193325779568e-001	 1.492849024770709e+001
 1.292766828970265e+000	 5.197411183301344e-001	 1.487412173161610e+001
 1.287177128781380e+000	 5.334341673983635e-001	 1.482441727945288e+001
 1.281430112217454e+000	 5.470958780694262e-001	 1.478152695029330e+001
 1.338208433080836e+000	 4.113366457145844e-001	 1.524244375195781e+001
 1.333851001688592e+000	 4.252542299385834e-001	 1.519978567240372e+001
 1.329337225930455e+000	 4.391608147306638e-001	 1.515292004526533e+001
 1.324666707576071e+000	 4.530539011119613e-001	 1.510217959800895e+001
 1.319839099004865e+000	 4.669309698362181e-001	 1.504848671533467e+001
 1.314854104034503e+000	 4.807894826047506e-001	 1.499295725775202e+001
 1.309711478716544e+000	 4.946268833159535e-001	 1.493690390484993e+001
 1.304411032097752e+000	 5.084405993483900e-001	 1.488184364004368e+001
 1.298952626945552e+000	 5.222280428764503e-001	 1.482950431395466e+001
 1.293336180436153e+000	 5.359866122174863e-001	 1.478183016800130e+001
 1.287561664803915e+000	 5.497136932092553e-001	 1.474098620072036e+001
 1.226246138940778e+000	 5.235355418239187e-001	 1.517779273237551e+001
 1.220596957825401e+000	 5.365744771980168e-001	 1.510742696261475e+001
 1.214797387829354e+000	 5.495784256663966e-001	 1.501977007374736e+001
 1.208847564018351e+000	 5.625448718653632e-001	 1.491781550068856e+001
 1.202747675935371e+000	 5.754712940886186e-001	 1.480471817508823e+001
 1.196497968013682e+000	 5.883551657230444e-001	 1.468378900857618e+001
 1.190098739945637e+000	 6.011939567052549e-001	 1.455848800414184e+001
 1.183550347006174e+000	 6.139851349973728e-001	 1.443241594555720e+001
 1.176853200330036e+000	 6.267261680804233e-001	 1.430930462217964e+001
 1.170007767141820e+000	 6.394145244636895e-001	 1.419300555462054e+001
 1.163014570937961e+000	 6.520476752083219e-001	 1.408747719560243e+001
 1.232377691525745e+000	 5.261533569607503e-001	 1.513022448513728e+001
 1.226700263021949e+000	 5.392574904344009e-001	 1.506251261042179e+001
 1.220871693653703e+000	 5.523264620586145e-001	 1.497735257851083e+001
 1.214892119162068e+000	 5.653577438922185e-001	 1.487781308343616e+001
 1.208761730037767e+000	 5.783488016197220e-001	 1.476713082999217e+001
 1.202480771936284e+000	 5.912970959942786e-001	 1.464870507726146e+001
 1.196049546048495e+000	 6.042000843015227e-001	 1.452609077055087e+001
 1.189468409425784e+000	 6.170552218427235e-001	 1.440299020914022e+001
 1.182737775258663e+000	 6.298599634356477e-001	 1.428324320485733e+001
 1.175858113107952e+000	 6.426117649314611e-001	 1.417081569484707e+001
 1.168829949087690e+000	 6.553080847459571e-001	 1.406978678097110e+001
 1.238509244111277e+000	 5.287711720980507e-001	 1.508370771142732e+001
 1.232803568219056e+000	 5.419405036712032e-001	 1.501858528103043e+001
 1.226945999478585e+000	 5.550744984511792e-001	 1.493587194032546e+001
 1.220936674306278e+000	 5.681706159193329e-001	 1.483870759813850e+001
 1.214775784140606e+000	 5.812263091509863e-001	 1.473040674373834e+001
 1.208463575859269e+000	 5.942390262655702e-001	 1.461445306460613e+001
 1.202000352151671e+000	 6.072062118977436e-001	 1.449449261231905e+001
 1.195386471845647e+000	 6.201253086879278e-001	 1.437432546135264e+001
 1.188622350187476e+000	 6.329937587906361e-001	 1.425789581340340e+001
 1.181708459074210e+000	 6.458090053989225e-001	 1.414928050839726e+001
 1.174645327237490e+000	 6.585684942832285e-001	 1.405267591265256e+001
 1.244640796697276e+000	 5.313889872357854e-001	 1.503816434453000e+001
 1.238906873416620e+000	 5.446235169084013e-001	 1.497556433868951e+001
 1.233020305303900e+000	 5.578225348440832e-001	 1.489524383944691e+001
 1.226981229450880e+000	 5.709834879467168e-001	 1.480040991461919e+001
 1.220789838243787e+000	 5.841038166824406e-001	 1.469445084158143e+001
 1.214446379782539e+000	 5.971809565369676e-001	 1.458093081352229e+001
 1.207951158255066e+000	 6.102123394939857e-001	 1.446358315292932e+001
 1.201304534265663e+000	 6.231953955330730e-001	 1.434630197442170e+001
 1.194506925116377e+000	 6.361275541454937e-001	 1.423313224702710e+001
 1.187558805040492e+000	 6.490062458661944e-001	 1.412825821478126e+001
 1.180460705387259e+000	 6.618289038202686e-001	 1.403599014406493e+001
 1.250772349283640e+000	 5.340068023739211e-001	 1.499352056424078e+001
 1.245010178614542e+000	 5.473065301459731e-001	 1.493337379395786e+001
 1.239094611129547e+000	 5.605705712373188e-001	 1.485538900843253e+001
 1.233025784595776e+000	 5.737963599743795e-001	 1.476283636506057e+001
 1.226803892347210e+000	 5.869813242141136e-001	 1.465917392314944e+001
 1.220429183705992e+000	 6.001228868085193e-001	 1.454804245318361e+001
 1.213901964358580e+000	 6.132184670903178e-001	 1.443325871183647e+001
 1.207222596685732e+000	 6.262654823782473e-001	 1.431880712206310e+001
 1.200391500045263e+000	 6.392613495003259e-001	 1.420882980577608e+001
 1.193409151006699e+000	 6.522034863333969e-001	 1.410761492560391e+001
 1.186276083536898e+000	 6.650893133572102e-001	 1.401958330201214e+001
 1.256903901870271e+000	 5.366246175124240e-001	 1.494970693939197e+001
 1.251113483812722e+000	 5.499895433838962e-001	 1.489194244809174e+001
 1.245168916955427e+000	 5.633186076308789e-001	 1.481623337793474e+001
 1.239070339740865e+000	 5.766092320023309e-001	 1.472590889075581e+001
 1.232817946450777e+000	 5.898588317460343e-001	 1.462449280971600e+001
 1.226411987629527e+000	 6.030648170802745e-001	 1.451569854639054e+001
 1.219852770462114e+000	 6.162245946868086e-001	 1.440342245150762e+001
 1.213140659105751e+000	 6.293355692235377e-001	 1.429173552579098e+001
 1.206276074974036e+000	 6.423951448552380e-001	 1.418487343572137e+001
 1.199259496972731e+000	 6.554007268006509e-001	 1.408722478824538e+001
 1.192091461686306e+000	 6.683497228941863e-001	 1.400320065431003e+001
 1.263035454457067e+000	 5.392424326512596e-001	 1.490665857015504e+001
 1.257216789011060e+000	 5.526725566221481e-001	 1.485120403728946e+001
 1.251243222781439e+000	 5.660666440247560e-001	 1.477770822244262e+001
 1.245114894886047e+000	 5.794221040305814e-001	 1.468955518891017e+001
 1.238832000554385e+000	 5.927363392782314e-001	 1.459033049163244e+001
 1.232394791553046e+000	 6.060067473522817e-001	 1.448381623721339e+001
 1.225803576565566e+000	 6.192307222835267e-001	 1.437398452486709e+001
 1.219058721525625e+000	 6.324056560690328e-001	 1.426498920176610e+001
 1.212160649902596e+000	 6.455289402103351e-001	 1.416115587482230e+001
 1.205109842938485e+000	 6.585979672680770e-001	 1.406697013036761e+001
 1.197906839835384e+000	 6.716101324313292e-001	 1.398609520185705e+001
 1.269167007043930e+000	 5.418602477903944e-001	 1.486431523012764e+001
 1.263320094209456e+000	 5.553555698607069e-001	 1.481109737679840e+001
 1.257317528607485e+000	 5.688146804189427e-001	 1.473975030597344e+001
 1.251159450031222e+000	 5.822349760591403e-001	 1.465370885948908e+001
 1.244846054657936e+000	 5.956138468107336e-001	 1.455661627591308e+001
 1.238377595476449e+000	 6.089486776245893e-001	 1.445231939890385e+001
 1.231754382668837e+000	 6.222368498805404e-001	 1.434486222313252e+001
 1.224976783945250e+000	 6.354757429148198e-001	 1.423847770816456e+001
 1.218045224830843e+000	 6.486627355657232e-001	 1.413757779944772e+001
 1.210960188903866e+000	 6.617952077357959e-001	 1.404674160521883e+001
 1.203722217984031e+000	 6.748705419687716e-001	 1.396819979533308e+001
 1.275298559630759e+000	 5.444780629297946e-001	 1.482262150821218e+001
 1.269423399407810e+000	 5.580385830995502e-001	 1.477156650488877e+001
 1.263391834433463e+000	 5.715627168134314e-001	 1.470230202771622e+001
 1.257204005176290e+000	 5.850478480880179e-001	 1.461830955211271e+001
 1.250860108761329e+000	 5.984913543435702e-001	 1.452328593396954e+001
 1.244360399399635e+000	 6.118906078972457e-001	 1.442113878206577e+001
 1.237705188771828e+000	 6.252429774779184e-001	 1.431598012402832e+001
 1.230894846364528e+000	 6.385458297609863e-001	 1.421211829304969e+001
 1.223929799758676e+000	 6.517965309215072e-001	 1.411404797153126e+001
 1.216810534868771e+000	 6.649924482039284e-001	 1.402643833770927e+001
 1.209537596132148e+000	 6.781309515066470e-001	 1.394957144447168e+001
 1.281430112217454e+000	 5.470958780694262e-001	 1.478152695029330e+001
 1.275526704606021e+000	 5.607215963386558e-001	 1.473256082669840e+001
 1.269466140259273e+000	 5.743107532082148e-001	 1.466531156762803e+001
 1.263248560321152e+000	 5.878607201172238e-001	 1.458330311299456e+001
 1.256874162864464e+000	 6.013688618767694e-001	 1.449028184948824e+001
 1.250343203322505e+000	 6.148325381703006e-001	 1.439021216307719e+001
 1.243655994874438e+000	 6.282491050757292e-001	 1.428727024036444e+001
 1.236812908783358e+000	 6.416159166076205e-001	 1.418583604272992e+001
 1.229814374685995e+000	 6.549303262777925e-001	 1.409048338634021e+001
 1.222660880833101e+000	 6.681896886725949e-001	 1.400590412660878e+001
 1.215352974279634e+000	 6.813913610450872e-001	 1.393027339437995e+001
 1.287561664803915e+000	 5.497136932092553e-001	 1.474098620072036e+001
 1.281630009803991e+000	 5.634046095780015e-001	 1.469403525795360e+001
 1.275540446084816e+000	 5.770587896032857e-001	 1.462873303198592e+001
 1.269293115465706e+000	 5.906735921467680e-001	 1.454864173192270e+001
 1.262888216967242e+000	 6.042463694103605e-001	 1.445755316644739e+001
 1.256326007244957e+000	 6.177744684438015e-001	 1.435948449275430e+001
 1.249606800976565e+000	 6.312552326740413e-001	 1.425867216896822e+001
 1.242730971201641e+000	 6.446860034548100e-001	 1.415956403058632e+001
 1.235698949612701e+000	 6.580641216346842e-001	 1.406680942083674e+001
 1.228511226796755e+000	 6.713869291419161e-001	 1.398467305528463e+001
 1.221168352426389e+000	 6.846517705842250e-001	 1.391037497485598e+001
 1.163014570937961e+000	 6.520476752083219e-001	 1.408747719560243e+001
 1.155873109602832e+000	 6.646249776286929e-001	 1.399129146526324e+001
 1.148585058614304e+000	 6.771420126199730e-001	 1.389608506839163e+001
 1.141151112142714e+000	 6.895962677838111e-001	 1.379130067437366e+001
 1.133572020887520e+000	 7.019852395065859e-001	 1.367740715259456e+001
 1.125848592007459e+000	 7.143064345277265e-001	 1.355505223688527e+001
 1.117981688999059e+000	 7.265573715111380e-001	 1.342480237572830e+001
 1.109972231523171e+000	 7.387355826177517e-001	 1.328714172439889e+001
 1.101821195179304e+000	 7.508386150772266e-001	 1.314247169399118e+001
 1.093529611227624e+000	 7.628640327567903e-001	 1.299111107090857e+001
 1.085098566258542e+000	 7.748094177252014e-001	 1.283329671589234e+001
 1.168829949087690e+000	 6.553080847459571e-001	 1.406978678097110e+001
 1.161652778571524e+000	 6.679482769799122e-001	 1.397860875288551e+001
 1.154328285415150e+000	 6.805279004318178e-001	 1.388435589016073e+001
 1.146857167259933e+000	 6.930444301406756e-001	 1.378080636087252e+001
 1.139240178559023e+000	 7.054953499741441e-001	 1.366863334127060e+001
 1.131478130507162e+000	 7.178781542047006e-001	 1.354842564452321e+001
 1.123571890918583e+000	 7.301903490889223e-001	 1.342068619231513e+001
 1.115522384052679e+000	 7.424294544479033e-001	 1.328583104870229e+001
 1.107330590387213e+000	 7.545930052468109e-001	 1.314418903476330e+001
 1.098997546338916e+000	 7.666785531715749e-001	 1.299600193815185e+001
 1.090524343931437e+000	 7.786836682006677e-001	 1.284142532697987e+001
 1.174645327237490e+000	 6.585684942832285e-001	 1.405267591265256e+001
 1.167432447540242e+000	 6.712715763307389e-001	 1.396543076783972e+001
 1.160071512215981e+000	 6.839137882432631e-001	 1.387204773583184e+001
 1.152563222377106e+000	 6.964925924971537e-001	 1.376986258585614e+001
 1.144908336230456e+000	 7.090054604413443e-001	 1.365949633732579e+001
 1.137107669006771e+000	 7.214498738813563e-001	 1.354148117979969e+001
 1.129162092837993e+000	 7.338233266664368e-001	 1.341625895874627e+001
 1.121072536582053e+000	 7.461233262778365e-001	 1.328418024695126e+001
 1.112839985594964e+000	 7.583473954162310e-001	 1.314550402081405e+001
 1.104465481450024e+000	 7.704930735862463e-001	 1.300039795618192e+001
 1.095950121604115e+000	 7.825579186760658e-001	 1.284893935353273e+001
 1.180460705387259e+000	 6.618289038202686e-001	 1.403599014406493e+001
 1.173212116508882e+000	 6.745948756813138e-001	 1.395151442129323e+001
 1.165814739016700e+000	 6.872996760544552e-001	 1.385916994482180e+001
 1.158269277494137e+000	 6.999407548533922e-001	 1.375847437099912e+001
 1.150576493901720e+000	 7.125155709083308e-001	 1.364999870206571e+001
 1.142737207506194e+000	 7.250215935578347e-001	 1.353422079787647e+001
 1.134752294757199e+000	 7.374563042438156e-001	 1.341152387141642e+001
 1.126622689111209e+000	 7.498171981076808e-001	 1.328219559351431e+001
 1.118349380802482e+000	 7.621017855856068e-001	 1.314642782672972e+001
 1.109933416560885e+000	 7.743075940009153e-001	 1.300431700363253e+001
 1.101375899276528e+000	 7.864321691514963e-001	 1.285586515969184e+001
 1.186276083536898e+000	 6.650893133572102e-001	 1.401958330201214e+001
 1.178991785477346e+000	 6.779181750317777e-001	 1.393688232780087e+001
 1.171557965817204e+000	 6.906855638655393e-001	 1.384573901588571e+001
 1.163975332610925e+000	 7.033889172095377e-001	 1.374665391775050e+001
 1.156244651572721e+000	 7.160256813752506e-001	 1.364015015957661e+001
 1.148366746005336e+000	 7.285933132342778e-001	 1.352665356327491e+001
 1.140342496676112e+000	 7.410892818211960e-001	 1.340649114723669e+001
 1.132172841640063e+000	 7.535110699375641e-001	 1.327989026001446e+001
 1.123858776009693e+000	 7.658561757550579e-001	 1.314697836766938e+001
 1.115401351671433e+000	 7.781221144156914e-001	 1.300778351060386e+001
 1.106801676948623e+000	 7.903064196270588e-001	 1.286223544051799e+001
 1.192091461686306e+000	 6.683497228941863e-001	 1.400320065431003e+001
 1.184771454445534e+000	 6.812414743822718e-001	 1.392156404004703e+001
 1.177301192617397e+000	 6.940714516766612e-001	 1.383177843884953e+001
 1.169681387727372e+000	 7.068370795657385e-001	 1.373442043429964e+001
 1.161912809243362e+000	 7.195357918422488e-001	 1.362996742007640e+001
 1.153996284504104e+000	 7.321650329108280e-001	 1.351879547075976e+001
 1.145932698594644e+000	 7.447222593987140e-001	 1.340117784318932e+001
 1.137722994168534e+000	 7.572049417676150e-001	 1.327728413468131e+001
 1.129368171216523e+000	 7.696105659247043e-001	 1.314718011963142e+001
 1.120869286781606e+000	 7.819366348306854e-001	 1.301082828094452e+001
 1.112227454620352e+000	 7.941806701028538e-001	 1.286808904737970e+001
 1.197906839835384e+000	 6.716101324313292e-001	 1.398609520185705e+001
 1.190551123413346e+000	 6.845647737329372e-001	 1.390559588762110e+001
 1.183044419417176e+000	 6.974573394879658e-001	 1.381731852756789e+001
 1.175387442843380e+000	 7.102852419221407e-001	 1.372179996384564e+001
 1.167580966913544e+000	 7.230459023094709e-001	 1.361947400462176e+001
 1.159625823002403e+000	 7.357367525876272e-001	 1.351066926760013e+001
 1.151522900512705e+000	 7.483552369765053e-001	 1.339560767725084e+001
 1.143273146696537e+000	 7.608988135979621e-001	 1.327440364303765e+001
 1.134877566422896e+000	 7.733649560946659e-001	 1.314706394099003e+001
 1.126337221891338e+000	 7.857511552460075e-001	 1.301348831571422e+001
 1.117653232291664e+000	 7.980549205789822e-001	 1.287347081440300e+001
 1.203722217984031e+000	 6.748705419687716e-001	 1.396819979533308e+001
 1.196330792380682e+000	 6.878880730839148e-001	 1.388902081687207e+001
 1.188787646216445e+000	 7.008432272996003e-001	 1.380239625406690e+001
 1.181093497958850e+000	 7.137334042788914e-001	 1.370882521412906e+001
 1.173249124583171e+000	 7.265560127770632e-001	 1.360870007112424e+001
 1.165255361500140e+000	 7.393084722648167e-001	 1.350230427716037e+001
 1.157113102430205e+000	 7.519882145547062e-001	 1.338981085063993e+001
 1.148823299223990e+000	 7.645926854287342e-001	 1.327128156987394e+001
 1.140386961628738e+000	 7.771193462650626e-001	 1.314666689525873e+001
 1.131805157000568e+000	 7.895656756617677e-001	 1.301580663778632e+001
 1.123079009962507e+000	 8.019291710555436e-001	 1.287843138594802e+001
 1.209537596132148e+000	 6.781309515066470e-001	 1.394957144447168e+001
 1.202110461347441e+000	 6.912113724353453e-001	 1.387188823180546e+001
 1.194530873015101e+000	 7.042291151117091e-001	 1.378705508383009e+001
 1.186799553073684e+000	 7.171815666361385e-001	 1.369553538818218e+001
 1.178917282252147e+000	 7.300661232451708e-001	 1.359768224163296e+001
 1.170884899997221e+000	 7.428801919425390e-001	 1.349373622377675e+001
 1.162703304347055e+000	 7.556211921334526e-001	 1.338382387134163e+001
 1.154373451750810e+000	 7.682865572600593e-001	 1.326795688246843e+001
 1.145896356833974e+000	 7.808737364360138e-001	 1.314603207504100e+001
 1.137273092109230e+000	 7.933801960780769e-001	 1.301783211755087e+001
 1.128504787632834e+000	 8.058034215326391e-001	 1.288302704507586e+001
 1.215352974279634e+000	 6.813913610450872e-001	 1.393027339437995e+001
 1.207890130313525e+000	 6.945346717873699e-001	 1.385425383598719e+001
 1.200274099813047e+000	 7.076150029244384e-001	 1.377134481219163e+001
 1.192505608187781e+000	 7.206297289940284e-001	 1.368197601625691e+001
 1.184585439920374e+000	 7.335762337139400e-001	 1.358646343083950e+001
 1.176514438493552e+000	 7.464519116209352e-001	 1.348500705887593e+001
 1.168293506263165e+000	 7.592541697128802e-001	 1.337768937886989e+001
 1.159923604276914e+000	 7.719804290920662e-001	 1.326447455501103e+001
 1.151405752038531e+000	 7.846281266076394e-001	 1.314520842712621e+001
 1.142741027217261e+000	 7.971947164950446e-001	 1.301961929968343e+001
 1.133930565302592e+000	 8.096776720103682e-001	 1.288731954297609e+001
 1.221168352426389e+000	 6.846517705842250e-001	 1.391037497485598e+001
 1.213669799278833e+000	 6.978579711401302e-001	 1.383617947542123e+001
 1.206017326610182e+000	 7.110008907379337e-001	 1.375532140179770e+001
 1.198211663301045e+000	 7.240778913527084e-001	 1.366819878889081e+001
 1.190253597587755e+000	 7.370863441835159e-001	 1.357509267576586e+001
 1.182143976989039e+000	 7.500236313001479e-001	 1.347616478829532e+001
 1.173883708178447e+000	 7.628871472931258e-001	 1.337145597022204e+001
 1.165473756802219e+000	 7.756743009248834e-001	 1.326088539418968e+001
 1.156915147242332e+000	 7.883825167800594e-001	 1.314425057869414e+001
 1.148208962324598e+000	 8.010092369127815e-001	 1.302122823094168e+001
 1.139356342971731e+000	 8.135519224888317e-001	 1.289137592931876e+001
 1.085098566258542e+000	 7.748094177252014e-001	 1.283329671589234e+001
 1.076529201503747e+000	 7.866723715475821e-001	 1.267505657694526e+001
 1.067822711491155e+000	 7.984505160308466e-001	 1.252141143027690e+001
 1.058980344492536e+000	 8.101414955202057e-001	 1.237095366139296e+001
 1.050003402295374e+000	 8.217429786830747e-001	 1.222218254470043e+001
 1.040893239615138e+000	 8.332526600199040e-001	 1.207350999027763e+001
 1.031651263456647e+000	 8.446682613580696e-001	 1.192326686241945e+001
 1.022278932425099e+000	 8.559875333268288e-001	 1.176970984014012e+001
 1.012777755987415e+000	 8.672082568113665e-001	 1.161102878486597e+001
 1.003149293684649e+000	 8.783282443839943e-001	 1.144535457578555e+001
 9.933951542962829e-001	 8.893453417105752e-001	 1.127076736877944e+001
 1.090524343931437e+000	 7.786836682006677e-001	 1.284142532697987e+001
 1.081912130102921e+000	 7.906059399064089e-001	 1.268635459199083e+001
 1.073162105354262e+000	 8.024429782041105e-001	 1.253573202379028e+001
 1.064275524198938e+000	 8.141924156600732e-001	 1.238814629704574e+001
 1.055253694933738e+000	 8.258519092844207e-001	 1.224209253120933e+001
 1.046097979048090e+000	 8.374191420494838e-001	 1.209597814109942e+001
 1.036809790582231e+000	 8.488918243911607e-001	 1.194812927620799e+001
 1.027390595434792e+000	 8.602676956912462e-001	 1.179679781826336e+001
 1.017841910620453e+000	 8.715445257387533e-001	 1.164016890146544e+001
 1.008165303478405e+000	 8.827201161682627e-001	 1.147636891488650e+001
 9.983623908324757e-001	 8.937923018733837e-001	 1.130347394182525e+001
 1.095950121604115e+000	 7.825579186760658e-001	 1.284893935353273e+001
 1.087295058701843e+000	 7.945395082652035e-001	 1.269690925220608e+001
 1.078501499217072e+000	 8.064354403773669e-001	 1.254918820799859e+001
 1.069570703904998e+000	 8.182433357999499e-001	 1.240436205722407e+001
 1.060503987571714e+000	 8.299608398857832e-001	 1.226092254145856e+001
 1.051302718480609e+000	 8.415856240790786e-001	 1.211727326232587e+001
 1.041968317707342e+000	 8.531153874242557e-001	 1.197173624263945e+001
 1.032502258443979e+000	 8.645478580556495e-001	 1.182255906277131e+001
 1.022906065252958e+000	 8.758807946660987e-001	 1.166792253583666e+001
 1.013181313271613e+000	 8.871119879524556e-001	 1.150594888019230e+001
 1.003329627368119e+000	 8.982392620360757e-001	 1.133471034288515e+001
 1.101375899276528e+000	 7.864321691514963e-001	 1.285586515969184e+001
 1.092677987300476e+000	 7.984730766240552e-001	 1.270675597353966e+001
 1.083840893079570e+000	 8.104279025506974e-001	 1.256182381962591e+001
 1.074865883610720e+000	 8.222942559399072e-001	 1.241965256857958e+001
 1.065754280209328e+000	 8.340697704872252e-001	 1.227873135977620e+001
 1.056507457912742e+000	 8.457521061087439e-001	 1.213746066074104e+001
 1.047126844832045e+000	 8.573389504574061e-001	 1.199415895123601e+001
 1.037613921452742e+000	 8.688280204200858e-001	 1.184707000023292e+001
 1.027970219885028e+000	 8.802170635934490e-001	 1.169437069852006e+001
 1.018197323064383e+000	 8.915038597366195e-001	 1.153417940442841e+001
 1.008296863903329e+000	 9.026862221987012e-001	 1.136456475513649e+001
 1.106801676948623e+000	 7.903064196270588e-001	 1.286223544051799e+001
 1.098060915898787e+000	 8.024066449830550e-001	 1.271593627516493e+001
 1.089180286941740e+000	 8.144203647241820e-001	 1.257368858762642e+001
 1.080161063316109e+000	 8.263451760800170e-001	 1.243407515598204e+001
 1.071004572846603e+000	 8.381787010888107e-001	 1.229558329190057e+001
 1.061712197344534e+000	 8.499185881385367e-001	 1.215661100509903e+001
 1.052285371956406e+000	 8.615625134906624e-001	 1.201547381152260e+001
 1.042725584461163e+000	 8.731081827846019e-001	 1.187041215277226e+001
 1.033034374516761e+000	 8.845533325208502e-001	 1.171959938867318e+001
 1.023213332856823e+000	 8.958957315208017e-001	 1.156115031944010e+001
 1.013264100438222e+000	 9.071331823613102e-001	 1.139313018869806e+001
 1.112227454620352e+000	 7.941806701028538e-001	 1.286808904737970e+001
 1.103443844496742e+000	 8.063402133422929e-001	 1.272449760847532e+001
 1.094519680803567e+000	 8.184128268979014e-001	 1.258483796571812e+001
 1.085456243021168e+000	 8.303960962203504e-001	 1.244769267851602e+001
 1.076254865483564e+000	 8.422876316906022e-001	 1.231154800436325e+001
 1.066916936776029e+000	 8.540850701685137e-001	 1.217480016881430e+001
 1.057443899080488e+000	 8.657860765240758e-001	 1.203576229894162e+001
 1.047837247469324e+000	 8.773883451492456e-001	 1.189267198712157e+001
 1.038098529148254e+000	 8.888896014483473e-001	 1.174369944617218e+001
 1.028229342649043e+000	 9.002876033050488e-001	 1.158695621125080e+001
 1.018231336972914e+000	 9.115801425239533e-001	 1.142050433854687e+001
 1.117653232291664e+000	 7.980549205789822e-001	 1.287347081440300e+001
 1.108826773094307e+000	 8.102737817018594e-001	 1.273249318701697e+001
 1.099859074665035e+000	 8.224052890719364e-001	 1.259533296573114e+001
 1.090751422725903e+000	 8.344470163609796e-001	 1.246057336617918e+001
 1.081505158120238e+000	 8.463965622926637e-001	 1.232670036446860e+001
 1.072121676207273e+000	 8.582515521987304e-001	 1.219210907314992e+001
 1.062602426204357e+000	 8.700096395576972e-001	 1.205511080117560e+001
 1.052948910477308e+000	 8.816685075140641e-001	 1.191394076400052e+001
 1.043162683779604e+000	 8.932258703759864e-001	 1.176676640396491e+001
 1.033245352441153e+000	 9.046794750894069e-001	 1.161169627530198e+001
 1.023198573507524e+000	 9.160271026866799e-001	 1.144678944255502e+001
 1.123079009962507e+000	 8.019291710555436e-001	 1.287843138594803e+001
 1.114209701691448e+000	 8.142073500618448e-001	 1.273998181732270e+001
 1.105198468526130e+000	 8.263977512463679e-001	 1.260523999174334e+001
 1.096046602430319e+000	 8.384979365019762e-001	 1.247279065725987e+001
 1.086755450756648e+000	 8.505054928950590e-001	 1.234112028085004e+001
 1.077326415638312e+000	 8.624180342292440e-001	 1.220862353088774e+001
 1.067760953328076e+000	 8.742332025915777e-001	 1.207361046486310e+001
 1.058060573485198e+000	 8.859486698791049e-001	 1.193431438780602e+001
 1.048226838410909e+000	 8.975621393038130e-001	 1.178890034066159e+001
 1.038261362233259e+000	 9.090713468739226e-001	 1.163547417186650e+001
 1.028165810042165e+000	 9.204740628495401e-001	 1.147209213964459e+001
 1.128504787632834e+000	 8.058034215326391e-001	 1.288302704507586e+001
 1.119592630288131e+000	 8.181409184223392e-001	 1.274702773062009e+001
 1.110537862386833e+000	 8.303902134212757e-001	 1.261463067497707e+001
 1.101341782134418e+000	 8.425488566434111e-001	 1.248442303636815e+001
 1.092005743392820e+000	 8.546144234978502e-001	 1.235489254458162e+001
 1.082531155069191e+000	 8.665845162601109e-001	 1.222443409046291e+001
 1.072919480451713e+000	 8.784567656257682e-001	 1.209135704269461e+001
 1.063172236493076e+000	 8.902288322444147e-001	 1.195389325660716e+001
 1.053290993042266e+000	 9.018984082318732e-001	 1.181020573335950e+001
 1.043277372025473e+000	 9.134632186586423e-001	 1.165839788163212e+001
 1.033133046576956e+000	 9.249210230125845e-001	 1.149652332805313e+001
 1.133930565302592e+000	 8.096776720103682e-001	 1.288731954297609e+001
 1.124975558884321e+000	 8.220744867834334e-001	 1.275370041538282e+001
 1.115877256247132e+000	 8.343826755967413e-001	 1.262358170943047e+001
 1.106636961838206e+000	 8.465997767853563e-001	 1.249555387310243e+001
 1.097256036028779e+000	 8.587233541011022e-001	 1.236810667082943e+001
 1.087735894499954e+000	 8.707509982913869e-001	 1.223963588054842e+001
 1.078078007575330e+000	 8.826803286603194e-001	 1.210845074087733e+001
 1.068283899501023e+000	 8.945089946100412e-001	 1.197278211243083e+001
 1.058355147673773e+000	 9.062346771602122e-001	 1.183079131069061e+001
 1.048293381817903e+000	 9.178550904436129e-001	 1.168057956144692e+001
 1.038100283112013e+000	 9.293679831758626e-001	 1.152019802370919e+001
 1.139356342971731e+000	 8.135519224888317e-001	 1.289137592931876e+001
 1.130358487479987e+000	 8.260080551452174e-001	 1.276007445069764e+001
 1.121216650107010e+000	 8.383751377728456e-001	 1.263217468822069e+001
 1.111932141541688e+000	 8.506506969278836e-001	 1.250627126132667e+001
 1.102506328664550e+000	 8.628322847048778e-001	 1.238085674102186e+001
 1.092940633930648e+000	 8.749174803231294e-001	 1.225432845507370e+001
 1.083236534698992e+000	 8.869038916952824e-001	 1.212499606695407e+001
 1.073395562509123e+000	 8.987891569760318e-001	 1.199108989183160e+001
 1.063419302305526e+000	 9.105709460888763e-001	 1.185076990608691e+001
 1.053309391610658e+000	 9.222469622288806e-001	 1.170213540022247e+001
 1.043067519647452e+000	 9.338149433394247e-001	 1.154323521871217e+001
 9.933951542962829e-001	 8.893453417105752e-001	 1.127076736877944e+001
 9.835184859689858e-001	 9.002558003182557e-001	 1.109255171406759e+001
 9.735195395573906e-001	 9.110591980650797e-001	 1.091645004092372e+001
 9.634000661355969e-001	 9.217534898403010e-001	 1.074127862090323e+001
 9.531618621657936e-001	 9.323366689633666e-001	 1.056586167609130e+001
 9.428067684371487e-001	 9.428067684371487e-001	 1.038903916556638e+001
 9.323366689633666e-001	 9.531618621657936e-001	 1.020967460665762e+001
 9.217534898403014e-001	 9.634000661355970e-001	 1.002666286890947e+001
 9.110591980650801e-001	 9.735195395573908e-001	 9.838937877451709e+000
 9.002558003182558e-001	 9.835184859689861e-001	 9.645480161766951e+000
 8.893453417105754e-001	 9.933951542962831e-001	 9.445324185680477e+000
 9.983623908324757e-001	 8.937923018733837e-001	 1.130347394182525e+001
 9.884363365709108e-001	 9.047573156379061e-001	 1.112692118481790e+001
 9.783873928026629e-001	 9.156147332090736e-001	 1.095259094026999e+001
 9.682173193576339e-001	 9.263624992500780e-001	 1.077927302684078e+001
 9.579279216807665e-001	 9.369985970464639e-001	 1.060576553524598e+001
 9.475210497656301e-001	 9.475210497656299e-001	 1.043088287266985e+001
 9.369985970464638e-001	 9.579279216807664e-001	 1.025346384732444e+001
 9.263624992500781e-001	 9.682173193576340e-001	 1.007237972905857e+001
 9.156147332090737e-001	 9.783873928026630e-001	 9.886542220629931e+000
 9.047573156379061e-001	 9.884363365709107e-001	 9.694911273504678e+000
 8.937923018733837e-001	 9.983623908324757e-001	 9.496502681838178e+000
 1.003329627368119e+000	 8.982392620360757e-001	 1.133471034288515e+001
 9.933541871722980e-001	 9.092588309573922e-001	 1.115979214357998e+001
 9.832552460474230e-001	 9.201702683528507e-001	 1.098720747249497e+001
 9.730345725791934e-001	 9.309715086595817e-001	 1.081571937724796e+001
 9.626939811953059e-001	 9.416605251292318e-001	 1.064409950342355e+001
 9.522353310937285e-001	 9.522353310937285e-001	 1.047113640407317e+001
 9.416605251292319e-001	 9.626939811953059e-001	 1.029564389498900e+001
 9.309715086595817e-001	 9.730345725791934e-001	 1.011646938958872e+001
 9.201702683528505e-001	 9.832552460474229e-001	 9.932502145891300e+000
 9.092588309573920e-001	 9.933541871722980e-001	 9.742681357254929e+000
 8.982392620360759e-001	 1.003329627368119e+000	 9.546004018308119e+000
 1.008296863903329e+000	 9.026862221987012e-001	 1.136456475513649e+001
 9.982720377732672e-001	 9.137603462767701e-001	 1.119125569720650e+001
 9.881230992917871e-001	 9.247258034964742e-001	 1.102039369020747e+001
 9.778518258003882e-001	 9.355805180688869e-001	 1.085071468514568e+001
 9.674600407095173e-001	 9.463224532117566e-001	 1.068096355986043e+001
 9.569496124215389e-001	 9.569496124215388e-001	 1.050990270089783e+001
 9.463224532117563e-001	 9.674600407095172e-001	 1.033632063706954e+001
 9.355805180688868e-001	 9.778518258003882e-001	 1.015904065641526e+001
 9.247258034964744e-001	 9.881230992917869e-001	 9.976929336855809e+000
 9.137603462767698e-001	 9.982720377732671e-001	 9.788904919962366e+000
 9.026862221987012e-001	 1.008296863903329e+000	 9.593945456982533e+000
 1.013264100438222e+000	 9.071331823613102e-001	 1.139313018869806e+001
 1.003189888373937e+000	 9.182618615960960e-001	 1.122140771747380e+001
 9.929909525358738e-001	 9.292813386400107e-001	 1.105224835177204e+001
 9.826690790213313e-001	 9.401895274780689e-001	 1.088436061260495e+001
 9.722261002235053e-001	 9.509843812941224e-001	 1.071646227817423e+001
 9.616638937491582e-001	 9.616638937491581e-001	 1.054728924555619e+001
 9.509843812941226e-001	 9.722261002235054e-001	 1.037560445027732e+001
 9.401895274780689e-001	 9.826690790213314e-001	 1.020020677332458e+001
 9.292813386400108e-001	 9.929909525358741e-001	 1.001993986363016e+001
 9.182618615960960e-001	 1.003189888373937e+000	 9.833700803147519e+000
 9.071331823613102e-001	 1.013264100438222e+000	 9.640448541312631e+000
 1.018231336972914e+000	 9.115801425239533e-001	 1.142050433854687e+001
 1.008107738974426e+000	 9.227633769154262e-001	 1.125034870192386e+001
 9.978588057798009e-001	 9.338368737835240e-001	 1.108287478531412e+001
 9.874863322421351e-001	 9.447985368872026e-001	 1.091676333814796e+001
 9.769921597373756e-001	 9.556463093764158e-001	 1.075070469739251e+001
 9.663781750766814e-001	 9.663781750766810e-001	 1.058340793663749e+001
 9.556463093764158e-001	 9.769921597373759e-001	 1.041361007958325e+001
 9.447985368872026e-001	 9.874863322421351e-001	 1.024008530524210e+001
 9.338368737835242e-001	 9.978588057798010e-001	 1.006165407059037e+001
 9.227633769154262e-001	 1.008107738974426e+000	 9.877192075417078e+000
 9.115801425239533e-001	 1.018231336972915e+000	 9.685638993752091e+000
 1.023198573507524e+000	 9.160271026866799e-001	 1.144678944255502e+001
 1.013025589574854e+000	 9.272648922348176e-001	 1.127818363477130e+001
 1.002726659023686e+000	 9.383924089270798e-001	 1.111238075273010e+001
 9.923035854629124e-001	 9.494075462963626e-001	 1.094803342409350e+001
 9.817582192512335e-001	 9.603082374587222e-001	 1.078380419286172e+001
 9.710924564042047e-001	 9.710924564042044e-001	 1.061837496360581e+001
 9.603082374587223e-001	 9.817582192512335e-001	 1.045045651692683e+001
 9.494075462963627e-001	 9.923035854629125e-001	 1.027879802117080e+001
 9.383924089270798e-001	 1.002726659023686e+000	 1.010219646376523e+001
 9.272648922348177e-001	 1.013025589574854e+000	 9.919505924498218e+000
 9.160271026866796e-001	 1.023198573507524e+000	 9.729646612645725e+000
 1.028165810042165e+000	 9.204740628495401e-001	 1.147209213964459e+001
 1.017943440175341e+000	 9.317664075543262e-001	 1.130502184787013e+001
 1.007594512267646e+000	 9.429479440707428e-001	 1.114087831369840e+001
 9.971208386837761e-001	 9.540165557056242e-001	 1.097828568384252e+001
 9.865242787651832e-001	 9.649701655411264e-001	 1.081587834703571e+001
 9.758067377318234e-001	 9.758067377318230e-001	 1.065231068131436e+001
 9.649701655411265e-001	 9.865242787651832e-001	 1.048626687967780e+001
 9.540165557056242e-001	 9.971208386837762e-001	 1.031647077681442e+001
 9.429479440707428e-001	 1.007594512267646e+000	 1.014169559783074e+001
 9.317664075543263e-001	 1.017943440175341e+000	 9.960773548811877e+000
 9.204740628495404e-001	 1.028165810042166e+000	 9.772605168581515e+000
 1.033133046576956e+000	 9.249210230125845e-001	 1.149652332805313e+001
 1.022861290776004e+000	 9.362679228740091e-001	 1.133097688174010e+001
 1.012462365511799e+000	 9.475034792145779e-001	 1.116848368969686e+001
 1.001938091904838e+000	 9.586255651150618e-001	 1.100763904911323e+001
 9.912903382793308e-001	 9.696320936237141e-001	 1.084704882015240e+001
 9.805210190596337e-001	 9.805210190596339e-001	 1.068533948434591e+001
 9.696320936237144e-001	 9.912903382793309e-001	 1.052116828885610e+001
 9.586255651150618e-001	 1.001938091904838e+000	 1.035323339689236e+001
 9.475034792145778e-001	 1.012462365511799e+000	 1.018028396272942e+001
 9.362679228740091e-001	 1.022861290776005e+000	 1.000113004859981e+001
 9.249210230125846e-001	 1.033133046576956e+000	 9.814652300223527e+000
 1.038100283112013e+000	 9.293679831758626e-001	 1.152019802370919e+001
 1.027779141376965e+000	 9.407694381939217e-001	 1.135616634664999e+001
 1.017330218756263e+000	 9.520590143586497e-001	 1.119531712802113e+001
 1.006755345126213e+000	 9.632345745247507e-001	 1.103621643712133e+001
 9.960563977937810e-001	 9.742940217065712e-001	 1.087744122079832e+001
 9.852353003877321e-001	 9.852353003877318e-001	 1.071758968118160e+001
 9.742940217065713e-001	 9.960563977937811e-001	 1.055529174712201e+001
 9.632345745247505e-001	 1.006755345126213e+000	 1.038921955716077e+001
 9.520590143586497e-001	 1.017330218756263e+000	 1.021809786992889e+001
 9.407694381939216e-001	 1.027779141376965e+000	 1.004071431662181e+001
 9.293679831758627e-001	 1.038100283112013e+000	 9.855929409643478e+000
 1.043067519647452e+000	 9.338149433394247e-001	 1.154323521871217e+001
 1.032696991978341e+000	 9.452709535141213e-001	 1.138071178375559e+001
 1.022198072001155e+000	 9.566145495030239e-001	 1.122150276580732e+001
 1.011572598348012e+000	 9.678435839347662e-001	 1.106414461771018e+001
 1.000822457308639e+000	 9.789559497897831e-001	 1.090718497636818e+001
 9.899495817162132e-001	 9.899495817162133e-001	 1.074919336820676e+001
 9.789559497897830e-001	 1.000822457308639e+000	 1.058877201654005e+001
 9.678435839347661e-001	 1.011572598348011e+000	 1.042456666614548e+001
 9.566145495030243e-001	 1.022198072001155e+000	 1.025527733832839e+001
 9.452709535141209e-001	 1.032696991978341e+000	 1.007966892843532e+001
 9.338149433394248e-001	 1.043067519647452e+000	 9.896581557168794e+000
 8.893453417105754e-001	 9.933951542962831e-001	 9.445324185680477e+000
 8.783282443839946e-001	 1.003149293684649e+000	 9.244875282422576e+000
 8.672082568113666e-001	 1.012777755987415e+000	 9.050074709736615e+000
 8.559875333268284e-001	 1.022278932425099e+000	 8.859264600761142e+000
 8.446682613580697e-001	 1.031651263456647e+000	 8.670860404402863e+000
 8.332526600199038e-001	 1.040893239615138e+000	 8.483357429855916e+000
 8.217429786830746e-001	 1.050003402295374e+000	 8.295336813205221e+000
 8.101414955202058e-001	 1.058980344492536e+000	 8.105470853231365e+000
 7.984505160308463e-001	 1.067822711491155e+000	 7.912527667533372e+000
 7.866723715475820e-001	 1.076529201503747e+000	 7.715375124523340e+000
 7.748094177252015e-001	 1.085098566258542e+000	 7.512984011686616e+000
 8.937923018733837e-001	 9.983623908324757e-001	 9.496502681838178e+000
 8.827201161682626e-001	 1.008165303478404e+000	 9.297688242301016e+000
 8.715445257387531e-001	 1.017841910620452e+000	 9.104369769545738e+000
 8.602676956912464e-001	 1.027390595434792e+000	 8.914865806510413e+000
 8.488918243911606e-001	 1.036809790582231e+000	 8.727570533662131e+000
 8.374191420494836e-001	 1.046097979048090e+000	 8.540960561247688e+000
 8.258519092844205e-001	 1.055253694933738e+000	 8.353601128671492e+000
 8.141924156600734e-001	 1.064275524198938e+000	 8.164151656111722e+000
 8.024429782041104e-001	 1.073162105354262e+000	 7.971370597590965e+000
 7.906059399064089e-001	 1.081912130102921e+000	 7.774119549262337e+000
 7.786836682006676e-001	 1.090524343931436e+000	 7.571366571649052e+000
 8.982392620360759e-001	 1.003329627368119e+000	 9.546004018308119e+000
 8.871119879524554e-001	 1.013181313271613e+000	 9.348805372956997e+000
 8.758807946660990e-001	 1.022906065252958e+000	 9.156946322134250e+000
 8.645478580556493e-001	 1.032502258443979e+000	 8.968724088952261e+000
 8.531153874242556e-001	 1.041968317707342e+000	 8.782513920886904e+000
 8.415856240790786e-001	 1.051302718480609e+000	 8.596776133284012e+000
 8.299608398857833e-001	 1.060503987571715e+000	 8.410062544775657e+000
 8.182433357999499e-001	 1.069570703904998e+000	 8.221022247662335e+000
 8.064354403773668e-001	 1.078501499217072e+000	 8.028406660523626e+000
 7.945395082652034e-001	 1.087295058701842e+000	 7.831073814983809e+000
 7.825579186760656e-001	 1.095950121604114e+000	 7.627991833673902e+000
 9.026862221987012e-001	 1.008296863903329e+000	 9.593945456982533e+000
 8.915038597366195e-001	 1.018197323064383e+000	 9.398346589650119e+000
 8.802170635934493e-001	 1.027970219885028e+000	 9.207926778700196e+000
 8.688280204200855e-001	 1.037613921452742e+000	 9.020964151100147e+000
 8.573389504574059e-001	 1.047126844832045e+000	 8.835817310594242e+000
 8.457521061087441e-001	 1.056507457912742e+000	 8.650932636222120e+000
 8.340697704872252e-001	 1.065754280209328e+000	 8.464850957267151e+000
 8.222942559399072e-001	 1.074865883610720e+000	 8.276213545582747e+000
 8.104279025506973e-001	 1.083840893079570e+000	 8.083767370557323e+000
 7.984730766240554e-001	 1.092677987300476e+000	 7.886369566764992e+000
 7.864321691514962e-001	 1.101375899276527e+000	 7.682991069592424e+000
 9.071331823613102e-001	 1.013264100438222e+000	 9.640448541312631e+000
 8.958957315208017e-001	 1.023213332856823e+000	 9.446436034852315e+000
 8.845533325208500e-001	 1.033034374516761e+000	 9.257437722186534e+000
 8.731081827846016e-001	 1.042725584461163e+000	 9.071714811146491e+000
 8.615625134906623e-001	 1.052285371956406e+000	 8.887611504831815e+000
 8.499185881385368e-001	 1.061712197344533e+000	 8.703562559131370e+000
 8.381787010888104e-001	 1.071004572846602e+000	 8.518100200926785e+000
 8.263451760800170e-001	 1.080161063316109e+000	 8.329860345771843e+000
 8.144203647241820e-001	 1.089180286941740e+000	 8.137588058250339e+000
 8.024066449830547e-001	 1.098060915898786e+000	 7.940142203129681e+000
 7.903064196270588e-001	 1.106801676948623e+000	 7.736499240812488e+000
 9.115801425239533e-001	 1.018231336972915e+000	 9.685638993752091e+000
 9.002876033050489e-001	 1.028229342649043e+000	 9.493201980816544e+000
 8.888896014483472e-001	 1.038098529148253e+000	 9.305609815136769e+000
 8.773883451492457e-001	 1.047837247469324e+000	 9.121108915748740e+000
 8.657860765240759e-001	 1.057443899080488e+000	 8.938031282015521e+000
 8.540850701685137e-001	 1.066916936776029e+000	 8.754802314377534e+000
 8.422876316906023e-001	 1.076254865483564e+000	 8.569947979773815e+000
 8.303960962203505e-001	 1.085456243021168e+000	 8.382101258310238e+000
 8.184128268979012e-001	 1.094519680803568e+000	 8.190007812276276e+000
 8.063402133422929e-001	 1.103443844496742e+000	 7.992530823643288e+000
 7.941806701028539e-001	 1.112227454620352e+000	 7.788654951707065e+000
 9.160271026866796e-001	 1.023198573507524e+000	 9.729646612645725e+000
 9.046794750894069e-001	 1.033245352441152e+000	 9.538776731507456e+000
 8.932258703759863e-001	 1.043162683779604e+000	 9.352577706833150e+000
 8.816685075140642e-001	 1.052948910477309e+000	 9.169283252514557e+000
 8.700096395576972e-001	 1.062602426204357e+000	 8.987215314879348e+000
 8.582515521987303e-001	 1.072121676207273e+000	 8.804792161137602e+000
 8.463965622926639e-001	 1.081505158120238e+000	 8.620535796218469e+000
 8.344470163609796e-001	 1.090751422725903e+000	 8.433078642302641e+000
 8.224052890719366e-001	 1.099859074665036e+000	 8.241169419989570e+000
 8.102737817018594e-001	 1.108826773094307e+000	 8.043678175204679e+000
 7.980549205789823e-001	 1.117653232291664e+000	 7.839600401618657e+000
 9.204740628495404e-001	 1.028165810042166e+000	 9.772605168581515e+000
 9.090713468739228e-001	 1.038261362233259e+000	 9.583296523918794e+000
 8.975621393038131e-001	 1.048226838410909e+000	 9.398479939739941e+000
 8.859486698791049e-001	 1.058060573485198e+000	 9.216378461712429e+000
 8.742332025915781e-001	 1.067760953328077e+000	 9.035306087571545e+000
 8.624180342292440e-001	 1.077326415638311e+000	 8.853676127975664e+000
 8.505054928950588e-001	 1.086755450756648e+000	 8.670008879195638e+000
 8.384979365019760e-001	 1.096046602430318e+000	 8.482938539621372e+000
 8.263977512463675e-001	 1.105198468526129e+000	 8.291219306807586e+000
 8.142073500618446e-001	 1.114209701691448e+000	 8.093730597079523e+000
 8.019291710555438e-001	 1.123079009962507e+000	 7.889481335529970e+000
 9.249210230125846e-001	 1.033133046576956e+000	 9.814652300223532e+000
 9.134632186586426e-001	 1.043277372025473e+000	 9.626901428797421e+000
 9.018984082318733e-001	 1.053290993042266e+000	 9.443458855277106e+000
 8.902288322444149e-001	 1.063172236493076e+000	 9.262538947232430e+000
 8.784567656257680e-001	 1.072919480451713e+000	 9.082449811922471e+000
 8.665845162601106e-001	 1.082531155069190e+000	 8.901601934515174e+000
 8.546144234978504e-001	 1.092005743392820e+000	 8.718516111313592e+000
 8.425488566434111e-001	 1.101341782134418e+000	 8.531830607586219e+000
 8.303902134212757e-001	 1.110537862386834e+000	 8.340307474455363e+000
 8.181409184223392e-001	 1.119592630288131e+000	 8.142837964716751e+000
 8.058034215326392e-001	 1.128504787632834e+000	 7.938446993441971e+000
 9.293679831758627e-001	 1.038100283112013e+000	 9.855929409643478e+000
 9.178550904436130e-001	 1.048293381817903e+000	 9.669735250792343e+000
 9.062346771602124e-001	 1.058355147673773e+000	 9.487660498945500e+000
 8.945089946100413e-001	 1.068283899501023e+000	 9.307912786826060e+000
 8.826803286603192e-001	 1.078078007575330e+000	 9.128796342913994e+000
 8.707509982913870e-001	 1.087735894499954e+000	 8.948720912234341e+000
 8.587233541011023e-001	 1.097256036028779e+000	 8.766209955051393e+000
 8.465997767853564e-001	 1.106636961838207e+000	 8.579908050618492e+000
 8.343826755967414e-001	 1.115877256247132e+000	 8.388587438105819e+000
 8.220744867834335e-001	 1.124975558884322e+000	 8.191153632389918e+000
 8.096776720103682e-001	 1.133930565302592e+000	 7.986650058505727e+000
 9.338149433394248e-001	 1.043067519647452e+000	 9.896581557168791e+000
 9.222469622288808e-001	 1.053309391610658e+000	 9.711945428049528e+000
 9.105709460888766e-001	 1.063419302305526e+000	 9.531234524825745e+000
 8.987891569760318e-001	 1.073395562509123e+000	 9.352651641646093e+000
 8.869038916952824e-001	 1.083236534698992e+000	 9.174499093376168e+000
 8.749174803231293e-001	 1.092940633930648e+000	 8.995187924415257e+000
 8.628322847048777e-001	 1.102506328664550e+000	 8.813246378036901e+000
 8.506506969278835e-001	 1.111932141541688e+000	 8.627327550899464e+000
 8.383751377728452e-001	 1.121216650107010e+000	 8.436216162456834e+000
 8.260080551452174e-001	 1.130358487479987e+000	 8.238834374702243e+000
 8.135519224888317e-001	 1.139356342971731e+000	 8.034246603947427e+000
 7.748094177252015e-001	 1.085098566258542e+000	 7.512984011686616e+000
 7.628640327567904e-001	 1.093529611227624e+000	 7.305858333122024e+000
 7.508386150772266e-001	 1.101821195179304e+000	 7.096229528241335e+000
 7.387355826177516e-001	 1.109972231523171e+000	 6.885848695306438e+000
 7.265573715111381e-001	 1.117981688999059e+000	 6.676610177149756e+000
 7.143064345277267e-001	 1.125848592007459e+000	 6.470545753798300e+000
 7.019852395065859e-001	 1.133572020887520e+000	 6.269817933937858e+000
 6.895962677838112e-001	 1.141151112142714e+000	 6.076712357390254e+000
 6.771420126199729e-001	 1.148585058614304e+000	 5.893629327145653e+000
 6.646249776286930e-001	 1.155873109602832e+000	 5.723004589950115e+000
 6.520476752083220e-001	 1.163014570937961e+000	 5.564701775448603e+000
 7.786836682006676e-001	 1.090524343931436e+000	 7.571366571649052e+000
 7.666785531715749e-001	 1.098997546338916e+000	 7.363891522698152e+000
 7.545930052468111e-001	 1.107330590387213e+000	 7.154167791808015e+000
 7.424294544479030e-001	 1.115522384052680e+000	 6.943898314594907e+000
 7.301903490889224e-001	 1.123571890918583e+000	 6.734932942508356e+000
 7.178781542047006e-001	 1.131478130507162e+000	 6.529262733083503e+000
 7.054953499741441e-001	 1.139240178559023e+000	 6.329013309781748e+000
 6.930444301406760e-001	 1.146857167259933e+000	 6.136437303017035e+000
 6.805279004318179e-001	 1.154328285415150e+000	 5.953905890549688e+000
 6.679482769799123e-001	 1.161652778571525e+000	 5.783899461943372e+000
 6.553080847459574e-001	 1.168829949087691e+000	 5.627136605626896e+000
 7.825579186760656e-001	 1.095950121604114e+000	 7.627991833673902e+000
 7.704930735862464e-001	 1.104465481450025e+000	 7.420214967874210e+000
 7.583473954162309e-001	 1.112839985594964e+000	 7.210452758566781e+000
 7.461233262778366e-001	 1.121072536582053e+000	 7.000356332871506e+000
 7.338233266664367e-001	 1.129162092837993e+000	 6.791727428590259e+000
 7.214498738813561e-001	 1.137107669006771e+000	 6.586512794213808e+000
 7.090054604413444e-001	 1.144908336230456e+000	 6.386797628598753e+000
 6.964925924971539e-001	 1.152563222377107e+000	 6.194798071296967e+000
 6.839137882432630e-001	 1.160071512215981e+000	 6.012852761321158e+000
 6.712715763307390e-001	 1.167432447540242e+000	 5.843413488849242e+000
 6.585684942832285e-001	 1.174645327237490e+000	 5.688047837269286e+000
 7.864321691514962e-001	 1.101375899276527e+000	 7.682991069592424e+000
 7.743075940009153e-001	 1.109933416560885e+000	 7.474958495713465e+000
 7.621017855856068e-001	 1.118349380802482e+000	 7.265211239914427e+000
 7.498171981076808e-001	 1.126622689111209e+000	 7.055345042415485e+000
 7.374563042438157e-001	 1.134752294757199e+000	 6.847109975670570e+000
 7.250215935578346e-001	 1.142737207506194e+000	 6.642404966299933e+000
 7.125155709083311e-001	 1.150576493901721e+000	 6.443271326100408e+000
 6.999407548533921e-001	 1.158269277494137e+000	 6.251885302455828e+000
 6.872996760544550e-001	 1.165814739016700e+000	 6.070549665488955e+000
 6.745948756813137e-001	 1.173212116508882e+000	 5.901684356229685e+000
 6.618289038202687e-001	 1.180460705387259e+000	 5.747448604595046e+000
 7.903064196270588e-001	 1.106801676948623e+000	 7.736499240812488e+000
 7.781221144156915e-001	 1.115401351671433e+000	 7.528255568456411e+000
 7.658561757550582e-001	 1.123858776009693e+000	 7.318573646675769e+000
 7.535110699375642e-001	 1.132172841640063e+000	 7.108990315964933e+000
 7.410892818211962e-001	 1.140342496676113e+000	 6.901200500431094e+000
 7.285933132342778e-001	 1.148366746005336e+000	 6.697051863876697e+000
 7.160256813752505e-001	 1.156244651572722e+000	 6.498538443679887e+000
 7.033889172095378e-001	 1.163975332610925e+000	 6.307793272088808e+000
 6.906855638655390e-001	 1.171557965817204e+000	 6.127080001782628e+000
 6.779181750317775e-001	 1.178991785477346e+000	 5.958783559722136e+000
 6.650893133572102e-001	 1.186276083536898e+000	 5.805358338726615e+000
 7.941806701028539e-001	 1.112227454620352e+000	 7.788654951707065e+000
 7.819366348306852e-001	 1.120869286781606e+000	 7.580243242408897e+000
 7.696105659247045e-001	 1.129368171216522e+000	 7.370673952951661e+000
 7.572049417676151e-001	 1.137722994168534e+000	 7.161421575012066e+000
 7.447222593987140e-001	 1.145932698594644e+000	 6.954122468214368e+000
 7.321650329108282e-001	 1.153996284504104e+000	 6.750569662653723e+000
 7.195357918422488e-001	 1.161912809243362e+000	 6.552706607223147e+000
 7.068370795657383e-001	 1.169681387727372e+000	 6.362619872621158e+000
 6.940714516766607e-001	 1.177301192617397e+000	 6.182530825364976e+000
 6.812414743822718e-001	 1.184771454445535e+000	 6.014786296534726e+000
 6.683497228941862e-001	 1.192091461686306e+000	 5.861848276286894e+000
 7.980549205789823e-001	 1.117653232291664e+000	 7.839600401618657e+000
 7.857511552460074e-001	 1.126337221891338e+000	 7.631062125375925e+000
 7.733649560946661e-001	 1.134877566422896e+000	 7.421649658463005e+000
 7.608988135979622e-001	 1.143273146696537e+000	 7.212771756553989e+000
 7.483552369765054e-001	 1.151522900512705e+000	 7.006002863712667e+000
 7.357367525876271e-001	 1.159625823002403e+000	 6.803078073692835e+000
 7.230459023094710e-001	 1.167580966913544e+000	 6.605887004347838e+000
 7.102852419221404e-001	 1.175387442843380e+000	 6.416466593213656e+000
 6.974573394879657e-001	 1.183044419417177e+000	 6.236992830029956e+000
 6.845647737329372e-001	 1.190551123413346e+000	 6.069771449595597e+000
 6.716101324313291e-001	 1.197906839835384e+000	 5.917227615896596e+000
 8.019291710555438e-001	 1.123079009962507e+000	 7.889481335529970e+000
 7.895656756617676e-001	 1.131805157000568e+000	 7.680856332694527e+000
 7.771193462650629e-001	 1.140386961628738e+000	 7.471641749436153e+000
 7.645926854287342e-001	 1.148823299223991e+000	 7.263177278355647e+000
 7.519882145547064e-001	 1.157113102430205e+000	 7.056972160140062e+000
 7.393084722648167e-001	 1.165255361500140e+000	 6.854700316057004e+000
 7.265560127770631e-001	 1.173249124583170e+000	 6.658194360121843e+000
 7.137334042788917e-001	 1.181093497958850e+000	 6.469438498160931e+000
 7.008432272996001e-001	 1.188787646216445e+000	 6.290560328920607e+000
 6.878880730839149e-001	 1.196330792380682e+000	 6.123821570252782e+000
 6.748705419687716e-001	 1.203722217984031e+000	 5.971607741191582e+000
 8.058034215326392e-001	 1.128504787632834e+000	 7.938446993441971e+000
 7.933801960780769e-001	 1.137273092109230e+000	 7.729773441907839e+000
 7.808737364360139e-001	 1.145896356833975e+000	 7.520794658085802e+000
 7.682865572600591e-001	 1.154373451750810e+000	 7.312778002766994e+000
 7.556211921334525e-001	 1.162703304347055e+000	 7.107164286945954e+000
 7.428801919425387e-001	 1.170884899997221e+000	 6.905563087992303e+000
 7.300661232451707e-001	 1.178917282252146e+000	 6.709746911312677e+000
 7.171815666361384e-001	 1.186799553073683e+000	 6.521644203836468e+000
 7.042291151117088e-001	 1.194530873015102e+000	 6.343331233816636e+000
 6.912113724353454e-001	 1.202110461347441e+000	 6.177022859578174e+000
 6.781309515066470e-001	 1.209537596132148e+000	 6.025062217868219e+000
 8.096776720103682e-001	 1.133930565302592e+000	 7.986650058505727e+000
 7.971947164950446e-001	 1.142741027217261e+000	 7.777964446131600e+000
 7.846281266076395e-001	 1.151405752038531e+000	 7.569256220737889e+000
 7.719804290920660e-001	 1.159923604276914e+000	 7.361717199149966e+000
 7.592541697128803e-001	 1.168293506263165e+000	 7.156716596110311e+000
 7.464519116209351e-001	 1.176514438493552e+000	 6.955796536685234e+000
 7.335762337139400e-001	 1.184585439920374e+000	 6.760666379219196e+000
 7.206297289940287e-001	 1.192505608187781e+000	 6.573195854229408e+000
 7.076150029244382e-001	 1.200274099813047e+000	 6.395407033037028e+000
 6.945346717873701e-001	 1.207890130313525e+000	 6.229465148318781e+000
 6.813913610450871e-001	 1.215352974279634e+000	 6.077668297053402e+000
 8.135519224888317e-001	 1.139356342971731e+000	 8.034246603947427e+000
 8.010092369127815e-001	 1.148208962324598e+000	 7.825583706150465e+000
 7.883825167800594e-001	 1.156915147242333e+000	 7.617177634638074e+000
 7.756743009248837e-001	 1.165473756802219e+000	 7.410141504958308e+000
 7.628871472931256e-001	 1.173883708178447e+000	 7.205769827075269e+000
 7.500236313001479e-001	 1.182143976989039e+000	 7.005534226645390e+000
 7.370863441835159e-001	 1.190253597587755e+000	 6.811077941127747e+000
 7.240778913527087e-001	 1.198211663301045e+000	 6.624209095124560e+000
 7.110008907379337e-001	 1.206017326610182e+000	 6.446892768008997e+000
 6.978579711401304e-001	 1.213669799278833e+000	 6.281241875543269e+000
 6.846517705842252e-001	 1.221168352426390e+000	 6.129506895742193e+000
 6.520476752083220e-001	 1.163014570937961e+000	 5.564701775448603e+000
 6.394145244636896e-001	 1.170007767141820e+000	 5.404036332347782e+000
 6.267261680804235e-001	 1.176853200330036e+000	 5.227866125593952e+000
 6.139851349973728e-001	 1.183550347006173e+000	 5.040411346894854e+000
 6.011939567052548e-001	 1.190098739945637e+000	 4.845780474253869e+000
 5.883551657230446e-001	 1.196497968013681e+000	 4.647946485184142e+000
 5.754712940886185e-001	 1.202747675935370e+000	 4.450725171338422e+000
 5.625448718653630e-001	 1.208847564018352e+000	 4.257755642835235e+000
 5.495784256663967e-001	 1.214797387829354e+000	 4.072483092208101e+000
 5.365744771980170e-001	 1.220596957825402e+000	 3.898143869544507e+000
 5.235355418239186e-001	 1.226246138940778e+000	 3.737752902168249e+000
 6.553080847459574e-001	 1.168829949087691e+000	 5.627136605626892e+000
 6.426117649314612e-001	 1.175858113107952e+000	 5.467167648617630e+000
 6.298599634356479e-001	 1.182737775258663e+000	 5.290777120845086e+000
 6.170552218427237e-001	 1.189468409425784e+000	 5.102384965462830e+000
 6.042000843015226e-001	 1.196049546048495e+000	 4.906295578014247e+000
 5.912970959942788e-001	 1.202480771936284e+000	 4.706673078044051e+000
 5.783488016197220e-001	 1.208761730037767e+000	 4.507518755319484e+000
 5.653577438922183e-001	 1.214892119162068e+000	 4.312650781933107e+000
 5.523264620586147e-001	 1.220871693653703e+000	 4.125686262613353e+000
 5.392574904344010e-001	 1.226700263021949e+000	 3.950025676629436e+000
 5.261533569607503e-001	 1.232377691525745e+000	 3.788839745875802e+000
 6.585684942832285e-001	 1.174645327237490e+000	 5.688047837269286e+000
 6.458090053989228e-001	 1.181708459074210e+000	 5.528941617620374e+000
 6.329937587906362e-001	 1.188622350187476e+000	 5.352507430725857e+000
 6.201253086879276e-001	 1.195386471845647e+000	 5.163361240739861e+000
 6.072062118977436e-001	 1.202000352151671e+000	 4.965999288535105e+000
 5.942390262655704e-001	 1.208463575859270e+000	 4.764772414452215e+000
 5.812263091509863e-001	 1.214775784140606e+000	 4.563862630916096e+000
 5.681706159193327e-001	 1.220936674306278e+000	 4.367262039213298e+000
 5.550744984511793e-001	 1.226945999478585e+000	 4.178754165174525e+000
 5.419405036712033e-001	 1.232803568219056e+000	 4.001897768981901e+000
 5.287711720980506e-001	 1.238509244111277e+000	 3.840013164915881e+000
 6.618289038202687e-001	 1.180460705387259e+000	 5.747448604595054e+000
 6.490062458661946e-001	 1.187558805040492e+000	 5.589353148475992e+000
 6.361275541454936e-001	 1.194506925116376e+000	 5.413032399472152e+000
 6.231953955330729e-001	 1.201304534265663e+000	 5.223294797991251e+000
 6.102123394939858e-001	 1.207951158255066e+000	 5.024824538932948e+000
 5.971809565369678e-001	 1.214446379782539e+000	 4.822154937819320e+000
 5.841038166824406e-001	 1.220789838243787e+000	 4.619644124146506e+000
 5.709834879467165e-001	 1.226981229450880e+000	 4.421453159311831e+000
 5.578225348440833e-001	 1.233020305303900e+000	 4.231526656307608e+000
 5.446235169084013e-001	 1.238906873416620e+000	 4.053575958234260e+000
 5.313889872357853e-001	 1.244640796697276e+000	 3.891064912676723e+000
 6.650893133572102e-001	 1.186276083536898e+000	 5.805358338726615e+000
 6.522034863333970e-001	 1.193409151006699e+000	 5.648402955329309e+000
 6.392613495003260e-001	 1.200391500045263e+000	 5.472332729486302e+000
 6.262654823782471e-001	 1.207222596685732e+000	 5.282145218655200e+000
 6.132184670903177e-001	 1.213901964358580e+000	 5.082708861105321e+000
 6.001228868085198e-001	 1.220429183705992e+000	 4.878735377163836e+000
 5.869813242141138e-001	 1.226803892347210e+000	 4.674754577178629e+000
 5.737963599743791e-001	 1.233025784595776e+000	 4.475091676650297e+000
 5.605705712373186e-001	 1.239094611129547e+000	 4.283847198194650e+000
 5.473065301459732e-001	 1.245010178614542e+000	 4.104879519233180e+000
 5.340068023739212e-001	 1.250772349283641e+000	 3.941790103678219e+000
 6.683497228941862e-001	 1.192091461686306e+000	 5.861848276286894e+000
 6.554007268006509e-001	 1.199259496972730e+000	 5.706097765425618e+000
 6.423951448552381e-001	 1.206276074974036e+000	 5.530394678985673e+000
 6.293355692235376e-001	 1.213140659105751e+000	 5.339877226819408e+000
 6.162245946868087e-001	 1.219852770462114e+000	 5.139594560348717e+000
 6.030648170802748e-001	 1.226411987629527e+000	 4.934432909245858e+000
 5.898588317460345e-001	 1.232817946450777e+000	 4.729089497417040e+000
 5.766092320023306e-001	 1.239070339740865e+000	 4.528049050968468e+000
 5.633186076308788e-001	 1.245168916955427e+000	 4.335562980315463e+000
 5.499895433838962e-001	 1.251113483812722e+000	 4.155631297186144e+000
 5.366246175124240e-001	 1.256903901870271e+000	 3.991987306007678e+000
 6.716101324313291e-001	 1.197906839835384e+000	 5.917227615896596e+000
 6.585979672680772e-001	 1.205109842938485e+000	 5.762450525794904e+000
 6.455289402103352e-001	 1.212160649902596e+000	 5.587210258348477e+000
 6.324056560690328e-001	 1.219058721525625e+000	 5.396460874505475e+000
 6.192307222835267e-001	 1.225803576565566e+000	 5.195428888917181e+000
 6.060067473522817e-001	 1.232394791553047e+000	 4.989171319797171e+000
 5.927363392782314e-001	 1.238832000554385e+000	 4.782548705858916e+000
 5.794221040305811e-001	 1.245114894886047e+000	 4.580200802320465e+000
 5.660666440247560e-001	 1.251243222781440e+000	 4.386525040656860e+000
 5.526725566221482e-001	 1.257216789011060e+000	 4.205657814716221e+000
 5.392424326512596e-001	 1.263035454457068e+000	 4.041458633903378e+000
 6.748705419687716e-001	 1.203722217984031e+000	 5.971607741191578e+000
 6.617952077357960e-001	 1.210960188903866e+000	 5.817480608590722e+000
 6.486627355657232e-001	 1.218045224830843e+000	 5.642777425198599e+000
 6.354757429148196e-001	 1.224976783945250e+000	 5.451871725798755e+000
 6.222368498805404e-001	 1.231754382668837e+000	 5.250164218559363e+000
 6.089486776245892e-001	 1.238377595476449e+000	 5.042879163879373e+000
 5.956138468107337e-001	 1.244846054657936e+000	 4.835036484748067e+000
 5.822349760591402e-001	 1.251159450031222e+000	 4.631426645558831e+000
 5.688146804189426e-001	 1.257317528607485e+000	 4.436588386616468e+000
 5.553555698607069e-001	 1.263320094209456e+000	 4.254789378826372e+000
 5.418602477903944e-001	 1.269167007043930e+000	 4.090009840486788e+000
 6.781309515066470e-001	 1.209537596132148e+000	 6.025062217868214e+000
 6.649924482039283e-001	 1.216810534868771e+000	 5.871214015130861e+000
 6.517965309215071e-001	 1.223929799758676e+000	 5.697100278271588e+000
 6.385458297609863e-001	 1.230894846364528e+000	 5.506091039865389e+000
 6.252429774779184e-001	 1.237705188771828e+000	 5.303758212062752e+000
 6.118906078972459e-001	 1.244360399399635e+000	 5.095489925396922e+000
 5.984913543435699e-001	 1.250860108761329e+000	 4.886461724550035e+000
 5.850478480880177e-001	 1.257204005176291e+000	 4.681610624319347e+000
 5.715627168134314e-001	 1.263391834433463e+000	 4.485612115601389e+000
 5.580385830995502e-001	 1.269423399407810e+000	 4.302860187778311e+000
 5.444780629297945e-001	 1.275298559630759e+000	 4.137450410630936e+000
 6.813913610450871e-001	 1.215352974279634e+000	 6.077668297053403e+000
 6.681896886725949e-001	 1.222660880833101e+000	 5.923719497204979e+000
 6.549303262777922e-001	 1.229814374685995e+000	 5.750189250104951e+000
 6.416159166076205e-001	 1.236812908783358e+000	 5.559105952891972e+000
 6.282491050757294e-001	 1.243655994874437e+000	 5.356173993845668e+000
 6.148325381703006e-001	 1.250343203322504e+000	 5.146942175795436e+000
 6.013688618767693e-001	 1.256874162864464e+000	 4.936738070270750e+000
 5.878607201172236e-001	 1.263248560321152e+000	 4.730641244526948e+000
 5.743107532082147e-001	 1.269466140259273e+000	 4.533459535343869e+000
 5.607215963386559e-001	 1.275526704606021e+000	 4.349708437887720e+000
 5.470958780694262e-001	 1.281430112217454e+000	 4.183593653969021e+000
 6.846517705842252e-001	 1.221168352426390e+000	 6.129506895742193e+000
 6.713869291419162e-001	 1.228511226796755e+000	 5.975292896151183e+000
 6.580641216346844e-001	 1.235698949612701e+000	 5.802061298588856e+000
 6.446860034548100e-001	 1.242730971201640e+000	 5.610909658982333e+000
 6.312552326740415e-001	 1.249606800976566e+000	 5.407380319624140e+000
 6.177744684438016e-001	 1.256326007244957e+000	 5.197179731972478e+000
 6.042463694103604e-001	 1.262888216967242e+000	 4.985784067138147e+000
 5.906735921467679e-001	 1.269293115465707e+000	 4.778411607433561e+000
 5.770587896032855e-001	 1.275540446084816e+000	 4.579998283931741e+000
 5.634046095780015e-001	 1.281630009803991e+000	 4.395176430239335e+000
 5.497136932092552e-001	 1.287561664803915e+000	 4.228256798030484e+000
 5.235355418239186e-001	 1.226246138940778e+000	 3.737752902168254e+000
 5.104621640384944e-001	 1.231745663889408e+000	 3.585590968933763e+000
 4.973587974246062e-001	 1.237094647192462e+000	 3.434897970273337e+000
 4.842279316542609e-001	 1.242293115293416e+000	 3.286688584189157e+000
 4.710720445141691e-001	 1.247341147071947e+000	 3.141714131019396e+000
 4.578936005938943e-001	 1.252238873225494e+000	 3.000465017511845e+000
 4.446950500028725e-001	 1.256986475613899e+000	 2.863175330206305e+000
 4.314788271174074e-001	 1.261584186568501e+000	 2.729829491997546e+000
 4.182473493586813e-001	 1.266032288167079e+000	 2.600170883231586e+000
 4.050030160027568e-001	 1.270331111476093e+000	 2.473712317254648e+000
 3.917482070234653e-001	 1.274481035761665e+000	 2.349748250057213e+000
 5.261533569607503e-001	 1.232377691525745e+000	 3.788839745875797e+000
 5.130146088546691e-001	 1.237904715542784e+000	 3.636291833440180e+000
 4.998457219681046e-001	 1.243280445166595e+000	 3.485381509507671e+000
 4.866491984220787e-001	 1.248504906972856e+000	 3.337080247525808e+000
 4.734275283928873e-001	 1.253578180235638e+000	 3.192085774520800e+000
 4.601831887936905e-001	 1.258500396305879e+000	 3.050824707650331e+000
 4.469186419851158e-001	 1.263271737952744e+000	 2.913457412536364e+000
 4.336363345159897e-001	 1.267892438669269e+000	 2.779884994288309e+000
 4.203386958952361e-001	 1.272362781943674e+000	 2.649758319207851e+000
 4.070281373959293e-001	 1.276683100497812e+000	 2.522488953383805e+000
 3.937070508923962e-001	 1.280853775494218e+000	 2.397261893784277e+000
 5.287711720980506e-001	 1.238509244111277e+000	 3.840013164915881e+000
 5.155670536713385e-001	 1.244063767196715e+000	 3.687130171394442e+000
 5.023326465121009e-001	 1.249466243141255e+000	 3.536008560249163e+000
 4.890704651903785e-001	 1.254716698652781e+000	 3.387595136175787e+000
 4.757830122720564e-001	 1.259815213399763e+000	 3.242552504615480e+000
 4.624727769938942e-001	 1.264761919386638e+000	 3.101261866832175e+000
 4.491422339677152e-001	 1.269557000291902e+000	 2.963828111506003e+000
 4.357938419148707e-001	 1.274200690770285e+000	 2.830087110787480e+000
 4.224300424320306e-001	 1.278693275720454e+000	 2.699615115427957e+000
 4.090532587892840e-001	 1.283035089519661e+000	 2.571740131459348e+000
 3.956658947614563e-001	 1.287226515226850e+000	 2.445555149954720e+000
 5.313889872357853e-001	 1.244640796697276e+000	 3.891064912676723e+000
 5.181194984884607e-001	 1.250222818851101e+000	 3.737876822059012e+000
 5.048195710565490e-001	 1.255652041116343e+000	 3.586535090425434e+000
 4.914917319591128e-001	 1.260928490333094e+000	 3.437980120203073e+000
 4.781384961516293e-001	 1.266052246564224e+000	 3.292857587607291e+000
 4.647623651944605e-001	 1.271023442467676e+000	 3.151521362621031e+000
 4.513658259506281e-001	 1.275842262631276e+000	 3.014038802542248e+000
 4.379513493140115e-001	 1.280508942871457e+000	 2.880198324049047e+000
 4.245213889690288e-001	 1.285023769497329e+000	 2.749519145027755e+000
 4.110783801827867e-001	 1.289387078541550e+000	 2.621263074850631e+000
 3.976247386306124e-001	 1.293599254959479e+000	 2.494448220541392e+000
 5.340068023739212e-001	 1.250772349283641e+000	 3.941790103678219e+000
 5.206719433059939e-001	 1.256381870505843e+000	 3.788305863757574e+000
 5.073064956014023e-001	 1.261837839091760e+000	 3.636720109471684e+000
 4.939129987282335e-001	 1.267140282013694e+000	 3.487984844410828e+000
 4.804939800315585e-001	 1.272289279728921e+000	 3.342746734732332e+000
 4.670519533953437e-001	 1.277284965548894e+000	 3.201350120767375e+000
 4.535894179338115e-001	 1.282127524970770e+000	 3.063842481573270e+000
 4.401088567133724e-001	 1.286817194972689e+000	 2.929982254412669e+000
 4.266127355061940e-001	 1.291354263274209e+000	 2.799248896981190e+000
 4.131035015764032e-001	 1.295739067563394e+000	 2.670855067288892e+000
 3.995835824998310e-001	 1.299971994692022e+000	 2.543760784465035e+000
 5.366246175124240e-001	 1.256903901870271e+000	 3.991987306007678e+000
 5.232243881238962e-001	 1.262540922160840e+000	 3.838194692772187e+000
 5.097934201466150e-001	 1.268023637067405e+000	 3.686325736252256e+000
 4.963342654976928e-001	 1.273352073694482e+000	 3.537361787710318e+000
 4.828494639117959e-001	 1.278526312893757e+000	 3.391968155279356e+000
 4.693415415964982e-001	 1.283546488630194e+000	 3.250497174239347e+000
 4.558130099172236e-001	 1.288412787310289e+000	 3.112993812003944e+000
 4.422663641129142e-001	 1.293125447073886e+000	 2.979203706809398e+000
 4.287040820434900e-001	 1.297684757051000e+000	 2.848583524498021e+000
 4.151286229700996e-001	 1.302091056585104e+000	 2.720313504470550e+000
 4.015424263690787e-001	 1.306344734424396e+000	 2.593312053876228e+000
 5.392424326512596e-001	 1.263035454457068e+000	 4.041458633903378e+000
 5.257768329421260e-001	 1.268699973815992e+000	 3.887324102605660e+000
 5.122803446921409e-001	 1.274209435043177e+000	 3.735117267489236e+000
 4.987555322674426e-001	 1.279563865375357e+000	 3.585866323084028e+000
 4.852049477922950e-001	 1.284763346058632e+000	 3.440272610316950e+000
 4.716311297978787e-001	 1.289808011711478e+000	 3.298713712825137e+000
 4.580366019008214e-001	 1.294698049649734e+000	 3.161249172165411e+000
 4.444238715125974e-001	 1.299433699174956e+000	 3.027628717909161e+000
 4.307954285808808e-001	 1.304015250827613e+000	 2.897302893575079e+000
 4.171537443638417e-001	 1.308443045606594e+000	 2.769435945587329e+000
 4.035012702383219e-001	 1.312717474156519e+000	 2.642920830109369e+000
 5.418602477903944e-001	 1.269167007043930e+000	 4.090009840486784e+000
 5.283292777606419e-001	 1.274859025471199e+000	 3.935478363596799e+000
 5.147672692379336e-001	 1.280395233018978e+000	 3.782863246684153e+000
 5.011767990374353e-001	 1.285775657056222e+000	 3.633256778113438e+000
 4.875604316730076e-001	 1.291000379223447e+000	 3.487413467009077e+000
 4.739207179994396e-001	 1.296069534792649e+000	 3.345753133287990e+000
 4.602601938845620e-001	 1.300983311989011e+000	 3.208366703233048e+000
 4.465813789123833e-001	 1.305741951275802e+000	 3.075024603597531e+000
 4.328867751183296e-001	 1.310345744603956e+000	 2.945187631697487e+000
 4.191788657575951e-001	 1.314795034627775e+000	 2.818020164795005e+000
 4.054601141075276e-001	 1.319090213888307e+000	 2.692405559316406e+000
 5.444780629297945e-001	 1.275298559630759e+000	 4.137450410630936e+000
 5.308817225794015e-001	 1.281018077126362e+000	 3.982445302873588e+000
 5.172541937839469e-001	 1.286581030994707e+000	 3.829335533514502e+000
 5.035980658076223e-001	 1.291987448736975e+000	 3.679294496060082e+000
 4.899159155538865e-001	 1.297237412388103e+000	 3.533146753499173e+000
 4.762103062011355e-001	 1.302331057873609e+000	 3.391371090048223e+000
 4.624837858684034e-001	 1.307268574328022e+000	 3.254106357589764e+000
 4.487388863122321e-001	 1.312050203376334e+000	 3.121160006766061e+000
 4.349781216558008e-001	 1.316676238379938e+000	 2.992019176687559e+000
 4.212039871513260e-001	 1.321147023648560e+000	 2.865864202611477e+000
 4.074189579766622e-001	 1.325462953619678e+000	 2.741584387792781e+000
 5.470958780694262e-001	 1.281430112217454e+000	 4.183593653969021e+000
 5.334341673983635e-001	 1.287177128781379e+000	 4.028016384638035e+000
 5.197411183301345e-001	 1.292766828970265e+000	 3.874309373691498e+000
 5.060193325779567e-001	 1.298199240417519e+000	 3.723743897476592e+000
 4.922713994348842e-001	 1.303474445552502e+000	 3.577231214340683e+000
 4.784998944029212e-001	 1.308592580954260e+000	 3.435325546386664e+000
 4.647073778523031e-001	 1.313553836666673e+000	 3.298229947621466e+000
 4.508963937121045e-001	 1.318358455476454e+000	 3.165804945413500e+000
 4.370694681932574e-001	 1.323006732155468e+000	 3.037579825692316e+000
 4.232291085450000e-001	 1.327499012668861e+000	 2.912766417257525e+000
 4.093778018456922e-001	 1.331835693350548e+000	 2.790275217004996e+000
 5.497136932092552e-001	 1.287561664803915e+000	 4.228256798030484e+000
 5.359866122174862e-001	 1.293336180436153e+000	 4.071986790765847e+000
 5.222280428764503e-001	 1.298952626945552e+000	 3.917563469259738e+000
 5.084405993483899e-001	 1.304411032097752e+000	 3.766372542332418e+000
 4.946268833159535e-001	 1.309711478716544e+000	 3.619428366460256e+000
 4.807894826047505e-001	 1.314854104034503e+000	 3.477376826139590e+000
 4.669309698362182e-001	 1.319839099004865e+000	 3.340501194931366e+000
 4.530539011119615e-001	 1.324666707576071e+000	 3.208730861041109e+000
 4.391608147306637e-001	 1.329337225930455e+000	 3.081652784307377e+000
 4.252542299385832e-001	 1.333851001688592e+000	 2.958502051278860e+000
 4.113366457145843e-001	 1.338208433080836e+000	 2.836198344981238e+000
 3.917482070234653e-001	 1.274481035761665e+000	 2.349748250057213e+000
 3.784852817797219e-001	 1.278482487352557e+000	 2.227242420135566e+000
 3.652165773779126e-001	 1.282335937840718e+000	 2.106467680567880e+000
 3.519444082195939e-001	 1.286041904167421e+000	 1.988400080527957e+000
 3.386710651775104e-001	 1.289600948045209e+000	 1.873858417982715e+000
 3.253988146137712e-001	 1.293013675037378e+000	 1.763519325845104e+000
 3.121298974347747e-001	 1.296280733615264e+000	 1.657933311686724e+000
 2.988665281832910e-001	 1.299402814194865e+000	 1.557541597995530e+000
 2.856108941680556e-001	 1.302380648154343e+000	 1.462693609083502e+000
 2.723651546311524e-001	 1.305215006833941e+000	 1.373664951004946e+000
 2.591314399534020e-001	 1.307906700519837e+000	 1.290675732194206e+000
 3.937070508923962e-001	 1.280853775494218e+000	 2.397261893784277e+000
 3.803778075409665e-001	 1.284875235393391e+000	 2.273128803523743e+000
 3.670427561341694e-001	 1.288747954145378e+000	 2.150585746033503e+000
 3.537042226461742e-001	 1.292472451276313e+000	 2.030691743178962e+000
 3.403645094046872e-001	 1.296049291307467e+000	 1.914342588883855e+000
 3.270258941042208e-001	 1.299479082830132e+000	 1.802286297368808e+000
 3.136906288562903e-001	 1.302762477558189e+000	 1.695139543989518e+000
 3.003609392769588e-001	 1.305900169359914e+000	 1.593404940956274e+000
 2.870390236120766e-001	 1.308892893270572e+000	 1.497488989280774e+000
 2.737270519005022e-001	 1.311741424487327e+000	 1.407720548532593e+000
 2.604271651755172e-001	 1.314446577348017e+000	 1.324369667340838e+000
 3.956658947614563e-001	 1.287226515226850e+000	 2.445555149954720e+000
 3.822703333022947e-001	 1.291267983434266e+000	 2.320225981576923e+000
 3.688689348904707e-001	 1.295159970450051e+000	 2.196477212731867e+000
 3.554640370727649e-001	 1.298902998385200e+000	 2.075436427873474e+000
 3.420579536318443e-001	 1.302497634569714e+000	 1.958061624766841e+000
 3.286529735946222e-001	 1.305944490622877e+000	 1.845157064038923e+000
 3.152513602777308e-001	 1.309244221501116e+000	 1.737390151098476e+000
 3.018553503705234e-001	 1.312397524524987e+000	 1.635309187839314e+000
 2.884671530559645e-001	 1.315405138386855e+000	 1.539361830550359e+000
 2.750889491696856e-001	 1.318267842140804e+000	 1.449914090670931e+000
 2.617228903974281e-001	 1.320986454176337e+000	 1.367269716389801e+000
 3.976247386306124e-001	 1.293599254959479e+000	 2.494448220541392e+000
 3.841628590636720e-001	 1.297660731475104e+000	 2.368377603800326e+000
 3.706951136467798e-001	 1.301571986754666e+000	 2.244006794306356e+000
 3.572238514993260e-001	 1.305333545494019e+000	 2.122517649225139e+000
 3.437513978589380e-001	 1.308945977831890e+000	 2.004915693207476e+000
 3.302800530849296e-001	 1.312409898415560e+000	 1.892046408664780e+000
 3.168120916990478e-001	 1.315725965443999e+000	 1.784612598930819e+000
 3.033497614639366e-001	 1.318894879690042e+000	 1.683192656698745e+000
 2.898952824996735e-001	 1.321917383503154e+000	 1.588259569063846e+000
 2.764508464386620e-001	 1.324794259794340e+000	 1.500200490699230e+000
 2.630186156191024e-001	 1.327526331004762e+000	 1.419336718067566e+000
 3.995835824998310e-001	 1.299971994692022e+000	 2.543760784465035e+000
 3.860553848250641e-001	 1.304053479515829e+000	 2.417426246090286e+000
 3.725212924030595e-001	 1.307984003059152e+000	 2.293037667639017e+000
 3.589836659258175e-001	 1.311764092602703e+000	 2.171817005356568e+000
 3.454448420859251e-001	 1.315394321093939e+000	 2.054802744893609e+000
 3.319071325750965e-001	 1.318875306208132e+000	 1.942866671898425e+000
 3.183728231201936e-001	 1.322207709386794e+000	 1.836731756800325e+000
 3.048441725571506e-001	 1.325392234855040e+000	 1.736990980963825e+000
 2.913234119431575e-001	 1.328429628619433e+000	 1.644126930289052e+000
 2.778127437073906e-001	 1.331320677447899e+000	 1.558531982499140e+000
 2.643143408405080e-001	 1.334066207833259e+000	 1.480425478137206e+000
 4.015424263690787e-001	 1.306344734424396e+000	 2.593312053876228e+000
 3.879479105864365e-001	 1.310446227556364e+000	 2.467213471687768e+000
 3.743474711592731e-001	 1.314396019363438e+000	 2.343431537116330e+000
 3.607434803521992e-001	 1.318194639711191e+000	 2.223214244212597e+000
 3.471382863127622e-001	 1.321842664355803e+000	 2.107618580795008e+000
 3.335342120650767e-001	 1.325340714000539e+000	 1.997527819157915e+000
 3.199335545411201e-001	 1.328689453329455e+000	 1.893669963071446e+000
 3.063385836501172e-001	 1.331889590019940e+000	 1.796637172883913e+000
 2.927515413863709e-001	 1.334941873735656e+000	 1.706469736969328e+000
 2.791746409758307e-001	 1.337847095101447e+000	 1.621365832671149e+000
 2.656100660616128e-001	 1.340606084661794e+000	 1.541430356705613e+000
 4.035012702383219e-001	 1.312717474156519e+000	 2.642920830109369e+000
 3.898404363477547e-001	 1.316838975596630e+000	 2.517579891546313e+000
 3.761736499153837e-001	 1.320808035667453e+000	 2.395048698105485e+000
 3.625032947784311e-001	 1.324625186819415e+000	 2.276587328913635e+000
 3.488317305394058e-001	 1.328291007617424e+000	 2.163256918252277e+000
 3.351612915548239e-001	 1.331806121792732e+000	 2.055937506382989e+000
 3.214942859617793e-001	 1.335171197271935e+000	 1.954837265868109e+000
 3.078329947427883e-001	 1.338386945184701e+000	 1.858089498621948e+000
 2.941796708292682e-001	 1.341454118851785e+000	 1.765828405992821e+000
 2.805365382439414e-001	 1.344373512754951e+000	 1.678500782898979e+000
 2.669057912823845e-001	 1.347145961490334e+000	 1.596571206699923e+000
 4.054601141075276e-001	 1.319090213888307e+000	 2.692405559316406e+000
 3.917329621089840e-001	 1.323231723636551e+000	 2.568365224133739e+000
 3.779998286713541e-001	 1.327220051971125e+000	 2.447748099662105e+000
 3.642631092044731e-001	 1.331055733927313e+000	 2.331812502185910e+000
 3.505251747658125e-001	 1.334739350878743e+000	 2.221344729322309e+000
 3.367883710442921e-001	 1.338271529584657e+000	 2.114630781066420e+000
 3.230550173821236e-001	 1.341652941214191e+000	 2.011587543449398e+000
 3.093274058351163e-001	 1.344884300349283e+000	 1.912709651774938e+000
 2.956078002718033e-001	 1.347966363967786e+000	 1.818483334341672e+000
 2.818984355116824e-001	 1.350899930408376e+000	 1.729398769748056e+000
 2.682015165027910e-001	 1.353685838318846e+000	 1.645961875286389e+000
 4.074189579766622e-001	 1.325462953619678e+000	 2.741584387792781e+000
 3.936254878700904e-001	 1.329624471676048e+000	 2.619408354689757e+000
 3.798260074271477e-001	 1.333632068274384e+000	 2.501375427828813e+000
 3.660229236302851e-001	 1.337486281034819e+000	 2.386700605074989e+000
 3.522186189919391e-001	 1.341187694139704e+000	 2.274684944390335e+000
 3.384154505334348e-001	 1.344736937376265e+000	 2.165920081393308e+000
 3.246157488021045e-001	 1.348134685156175e+000	 2.060960635587944e+000
 3.108218169270528e-001	 1.351381655513645e+000	 1.960337762518551e+000
 2.970359297139304e-001	 1.354478609083619e+000	 1.864572113151436e+000
 2.832603327790124e-001	 1.357426348061687e+000	 1.774186206089923e+000
 2.694972417228000e-001	 1.360225715147297e+000	 1.689716221660861e+000
 4.093778018456922e-001	 1.331835693350548e+000	 2.790275217004996e+000
 3.955180136310391e-001	 1.336017219715046e+000	 2.669823930802580e+000
 3.816521861827276e-001	 1.340044084577158e+000	 2.550939596115333e+000
 3.677827380558270e-001	 1.343916828141869e+000	 2.434176190583639e+000
 3.539120632177420e-001	 1.347636037400248e+000	 2.320209056082016e+000
 3.400425300222060e-001	 1.351202345167503e+000	 2.209660050186582e+000
 3.261764802216743e-001	 1.354616429097843e+000	 2.103111760915960e+000
 3.123162280185499e-001	 1.357879010677747e+000	 2.001121112799543e+000
 2.984640591556039e-001	 1.360990854199249e+000	 1.904232367351773e+000
 2.846222300458913e-001	 1.363952765714852e+000	 1.812989524989862e+000
 2.707929669423796e-001	 1.366765591975652e+000	 1.727948138897642e+000
 4.113366457145843e-001	 1.338208433080836e+000	 2.836198344981238e+000
 3.974105393917957e-001	 1.342409967753466e+000	 2.713598481984578e+000
 3.834783649380568e-001	 1.346456100879377e+000	 2.592545442826075e+000
 3.695425524810588e-001	 1.350347375248399e+000	 2.473807647686714e+000
 3.556055074431778e-001	 1.354084380660318e+000	 2.358082681007227e+000
 3.416696095105594e-001	 1.357667752958321e+000	 2.246012214618762e+000
 3.277372116407853e-001	 1.361098173039149e+000	 2.138196307309070e+000
 3.138106391095596e-001	 1.364376365841549e+000	 2.035207080754010e+000
 2.998921885967779e-001	 1.367503099314640e+000	 1.937601776276765e+000
 2.859841273122783e-001	 1.370479183367836e+000	 1.845935200918160e+000
 2.720886921614973e-001	 1.373305468803879e+000	 1.760771574838484e+000
 2.591314399534020e-001	 1.307906700519837e+000	 1.290675732194202e+000
 2.459138320677586e-001	 1.310456205728292e+000	 1.213726197454441e+000
 2.327124120507628e-001	 1.312864822470269e+000	 1.142390540647666e+000
 2.195292154500892e-001	 1.315133472310086e+000	 1.076258996736136e+000
 2.063662462431385e-001	 1.317263111523635e+000	 1.014942009498530e+000
 1.932254762343219e-001	 1.319254730025648e+000	 9.580888670064910e-001
 1.801088444902284e-001	 1.321109350289747e+000	 9.054058233776546e-001
 1.670182568124852e-001	 1.322828026262688e+000	 8.566735888344986e-001
 1.539555852480564e-001	 1.324411842274167e+000	 8.117640779458342e-001
 1.409226676366770e-001	 1.325861911943520e+000	 7.706563142444632e-001
 1.279213071950790e-001	 1.327179377084656e+000	 7.334513981136636e-001
 2.604271651755172e-001	 1.314446577348017e+000	 1.324369667340838e+000
 2.471434657808106e-001	 1.317008830751625e+000	 1.247427984677729e+000
 2.338760351983321e-001	 1.319429491209501e+000	 1.176402724280792e+000
 2.206269191540353e-001	 1.321709484894015e+000	 1.110843713891024e+000
 2.073981316457405e-001	 1.323849772862682e+000	 1.050320593432489e+000
 1.941916543374044e-001	 1.325851349980052e+000	 9.944421155897601e-001
 1.810094359914643e-001	 1.327715243832375e+000	 9.428749213745634e-001
 1.678533919390619e-001	 1.329442513636407e+000	 8.953616687192698e-001
 1.547254035878933e-001	 1.331034249143765e+000	 8.517384002128555e-001
 1.416273179673805e-001	 1.332491569542165e+000	 8.119510446515340e-001
 1.285609473108183e-001	 1.333815622354874e+000	 7.760144122331221e-001
 2.617228903974281e-001	 1.320986454176337e+000	 1.367269716389801e+000
 2.483730994936152e-001	 1.323561455775152e+000	 1.291393225881540e+000
 2.350396583456089e-001	 1.325994159948987e+000	 1.221710245876342e+000
 2.217246228576456e-001	 1.328285497478264e+000	 1.157719267690537e+000
 2.084300170479687e-001	 1.330436434202115e+000	 1.098938274155719e+000
 1.951578324400848e-001	 1.332447969934913e+000	 1.044924735178598e+000
 1.819100274922825e-001	 1.334321137375528e+000	 9.950806059041235e-001
 1.686885270652219e-001	 1.336057001010715e+000	 9.481593226919988e-001
 1.554952219273349e-001	 1.337656656014013e+000	 9.040642907993565e-001
 1.423319682977338e-001	 1.339121227141517e+000	 8.629648184055265e-001
 1.292005874262800e-001	 1.340451867625848e+000	 8.251572309025965e-001
 2.630186156191024e-001	 1.327526331004762e+000	 1.419336718067566e+000
 2.496027332061525e-001	 1.330114080798836e+000	 1.345588032383542e+000
 2.362032814925880e-001	 1.332558828688690e+000	 1.278284677294643e+000
 2.228223265609310e-001	 1.334861510062792e+000	 1.216390970572100e+000
 2.094619024498503e-001	 1.337023095541889e+000	 1.158032317311961e+000
 1.961240105424044e-001	 1.339044589890175e+000	 1.102857125635153e+000
 1.828106189927366e-001	 1.340927030919145e+000	 1.050708241878909e+000
 1.695236621910270e-001	 1.342671488385547e+000	 1.001528874903525e+000
 1.562650402664457e-001	 1.344279062884842e+000	 9.553715564481756e-001
 1.430366186277979e-001	 1.345750884741497e+000	 9.124066269597713e-001
 1.298402275415134e-001	 1.347088112897492e+000	 8.729302611359892e-001
 2.643143408405080e-001	 1.334066207833259e+000	 1.480425478137206e+000
 2.508323669184024e-001	 1.336666705822646e+000	 1.407909406081849e+000
 2.373669046392645e-001	 1.339123497428572e+000	 1.339719999157886e+000
 2.239200302639025e-001	 1.341437522647555e+000	 1.275459831579747e+000
 2.104937878514122e-001	 1.343609756881957e+000	 1.214800708137665e+000
 1.970901886444053e-001	 1.345641209845789e+000	 1.157494162395359e+000
 1.837112104928802e-001	 1.347532924463167e+000	 1.103381436484648e+000
 1.703587973165388e-001	 1.349285975760837e+000	 1.052402956946109e+000
 1.570348586052901e-001	 1.350901469756175e+000	 1.004607321595751e+000
 1.437412689576333e-001	 1.352380542342027e+000	 9.601598126339557e-001
 1.304798676565677e-001	 1.353724358169724e+000	 9.193504512367046e-001
 2.656100660616128e-001	 1.340606084661794e+000	 1.541430356705613e+000
 2.520620006303451e-001	 1.343219330846545e+000	 1.466632427135538e+000
 2.385305277856329e-001	 1.345688166168596e+000	 1.396331434649049e+000
 2.250177339665709e-001	 1.348013535232513e+000	 1.330125605163051e+000
 2.115256732526814e-001	 1.350196418222271e+000	 1.267681201588227e+000
 1.980563667461289e-001	 1.352237829801700e+000	 1.208743056071718e+000
 1.846118019927670e-001	 1.354138818007535e+000	 1.153144580924936e+000
 1.711939324418187e-001	 1.355900463136519e+000	 1.100817273894124e+000
 1.578046769439324e-001	 1.357523876627943e+000	 1.051799733901904e+000
 1.444459192873007e-001	 1.359010199943028e+000	 1.006246203581842e+000
 1.311195077714922e-001	 1.360360603442459e+000	 9.644346548660537e-001
 2.669057912823845e-001	 1.347145961490334e+000	 1.596571206699923e+000
 2.532916343419605e-001	 1.349771955870499e+000	 1.520001762363931e+000
 2.396941509316883e-001	 1.352252834908725e+000	 1.448103653574908e+000
 2.261154376689472e-001	 1.354589547817624e+000	 1.380464427651422e+000
 2.125575586536847e-001	 1.356783079562785e+000	 1.316738544999590e+000
 1.990225448476168e-001	 1.358834449757856e+000	 1.256657948446037e+000
 1.855123934924506e-001	 1.360744711552191e+000	 1.200042107991337e+000
 1.720290675669288e-001	 1.362514950512526e+000	 1.146807557896902e+000
 1.585744952824372e-001	 1.364146283500072e+000	 1.096976943425754e+000
 1.451505696168608e-001	 1.365639857544421e+000	 1.050687594704082e+000
 1.317591478863360e-001	 1.366996848715613e+000	 1.008199645021275e+000
 2.682015165027910e-001	 1.353685838318846e+000	 1.645961875286389e+000
 2.545212680532287e-001	 1.356324580894474e+000	 1.568118234207520e+000
 2.408577740774253e-001	 1.358817503648921e+000	 1.495124887620477e+000
 2.272131413710425e-001	 1.361165560402846e+000	 1.426552488548455e+000
 2.135894440544495e-001	 1.363369740903453e+000	 1.362037548348686e+000
 1.999887229489109e-001	 1.365431069714203e+000	 1.301293045916763e+000
 1.864129849919845e-001	 1.367350605097073e+000	 1.244118508703308e+000
 1.728642026919303e-001	 1.369129437888793e+000	 1.190409583746015e+000
 1.593443136208687e-001	 1.370768690372489e+000	 1.140167117286941e+000
 1.458552199463742e-001	 1.372269515146129e+000	 1.093505761613952e+000
 1.323987880011486e-001	 1.373633093989104e+000	 1.050662127558627e+000
 2.694972417228000e-001	 1.360225715147297e+000	 1.689716221660861e+000
 2.557509017641295e-001	 1.362877205918434e+000	 1.611082702432614e+000
 2.420213972228390e-001	 1.365382172389146e+000	 1.537483426351786e+000
 2.283108450728675e-001	 1.367741572988138e+000	 1.468466050099086e+000
 2.146213294550024e-001	 1.369956402244226e+000	 1.403643102607947e+000
 2.009549010500525e-001	 1.372027689670689e+000	 1.342702636661737e+000
 1.873135764914224e-001	 1.373956498642124e+000	 1.285418348344931e+000
 1.736993378168850e-001	 1.375743925265254e+000	 1.231659183897395e+000
 1.601141319592915e-001	 1.377391097245124e+000	 1.181398453825305e+000
 1.465598702759018e-001	 1.378899172748072e+000	 1.134722474136381e+000
 1.330384281159791e-001	 1.380269339262846e+000	 1.091838754278552e+000
 2.707929669423796e-001	 1.366765591975652e+000	 1.727948138897642e+000
 2.569805354746431e-001	 1.369429830942346e+000	 1.648996085067458e+000
 2.431850203679240e-001	 1.371946841129365e+000	 1.575267637118064e+000
 2.294085487744333e-001	 1.374317585573458e+000	 1.506281466080092e+000
 2.156532148553706e-001	 1.376543063585058e+000	 1.441620197395909e+000
 2.019210791510837e-001	 1.378624309627261e+000	 1.380941107160913e+000
 1.882141679908181e-001	 1.380562392187283e+000	 1.323986281920990e+000
 1.745344729418547e-001	 1.382358412641843e+000	 1.270592262959779e+000
 1.608839502977698e-001	 1.384013504117901e+000	 1.220699196273184e+000
 1.472645206055041e-001	 1.385528830350171e+000	 1.174359509357803e+000
 1.336780682308767e-001	 1.386905584536756e+000	 1.131746135588710e+000
 2.720886921614973e-001	 1.373305468803879e+000	 1.760771574838484e+000
 2.582101691847495e-001	 1.375982455966176e+000	 1.681959378450035e+000
 2.443486435126754e-001	 1.378511509869538e+000	 1.608565984137190e+000
 2.305062524757509e-001	 1.380893598158766e+000	 1.540075199845376e+000
 2.166851002555811e-001	 1.383129724925904e+000	 1.476033937944850e+000
 2.028872572520457e-001	 1.385220929583866e+000	 1.416062958098190e+000
 1.891147594902251e-001	 1.387168285732491e+000	 1.359867069044004e+000
 1.753696080669008e-001	 1.388972900018493e+000	 1.307244811671473e+000
 1.616537686363682e-001	 1.390635910990750e+000	 1.258097645961881e+000
 1.479691709352418e-001	 1.392158487952350e+000	 1.212438664241191e+000
 1.343177083458908e-001	 1.393541829810749e+000	 1.170400852756249e+000
 1.279213071950790e-001	 1.327179377084656e+000	 7.334513981136638e-001
 1.149513338372529e-001	 1.328365574776235e+000	 7.007847433761177e-001
 1.020164563117179e-001	 1.329421493147995e+000	 6.726361472329688e-001
 8.911839865198931e-002	 1.330348352881577e+000	 6.483444872984768e-001
 7.625884813816214e-002	 1.331147398509354e+000	 6.274405254305506e-001
 6.343945506252818e-002	 1.331819897317526e+000	 6.096573050541410e-001
 5.066183252982257e-002	 1.332367138255019e+000	 5.949391763189083e-001
 3.792755629143316e-002	 1.332790430849241e+000	 5.834494213235130e-001
 2.523816461288030e-002	 1.333091104129737e+000	 5.755764610104018e-001
 1.259515817384588e-002	 1.333270505560705e+000	 5.719386344587307e-001
 0.000000000000000e+000	 1.333329999983334e+000	 5.733873717180510e-001
 1.285609473108183e-001	 1.333815622354874e+000	 7.760144122331221e-001
 1.155261206817235e-001	 1.335007751346290e+000	 7.440934341370635e-001
 1.025265653733130e-001	 1.336068949587062e+000	 7.161982454020281e-001
 8.956401403969960e-002	 1.337000443862567e+000	 6.918104219947602e-001
 7.664016239779911e-002	 1.337803484928172e+000	 6.705886400151431e-001
 6.375666899177584e-002	 1.338479346406849e+000	 6.523757380565818e-001
 5.091515499229021e-002	 1.339029323692610e+000	 6.372053106898578e-001
 3.811720402987917e-002	 1.339454732860853e+000	 6.253078423693499e-001
 2.536436206177339e-002	 1.339756909586625e+000	 6.171163904157814e-001
 1.265813727142630e-002	 1.339937208071804e+000	 6.132718250424086e-001
 0.000000000000000e+000	 1.339996999982150e+000	 6.146276156493090e-001
 1.292005874262800e-001	 1.340451867625848e+000	 8.251572309025965e-001
 1.161009075260169e-001	 1.341649927917140e+000	 7.914834551133122e-001
 1.030366744348490e-001	 1.342716406026955e+000	 7.620911684704945e-001
 9.000962942747333e-002	 1.343652534844408e+000	 7.364465737943082e-001
 7.702147665761394e-002	 1.344459571347860e+000	 7.141920759530095e-001
 6.407388292129493e-002	 1.345138795497052e+000	 6.951534238243754e-001
 5.116847745508968e-002	 1.345691509131092e+000	 6.793463878688575e-001
 3.830685176867202e-002	 1.346119034873362e+000	 6.669829829431608e-001
 2.549055951097086e-002	 1.346422715044412e+000	 6.584772452605144e-001
 1.272111636919936e-002	 1.346603910583804e+000	 6.544505716328799e-001
 0.000000000000000e+000	 1.346663999981866e+000	 6.557366107311218e-001
 1.298402275415134e-001	 1.347088112897492e+000	 8.729302611359890e-001
 1.166756943701629e-001	 1.348292104488696e+000	 8.377909178085861e-001
 1.035467834963304e-001	 1.349363862467584e+000	 8.071380745981434e-001
 9.045524481528781e-002	 1.350304625827005e+000	 7.804282929502400e-001
 7.740279091755781e-002	 1.351115657768319e+000	 7.572933005399748e-001
 6.439109685101514e-002	 1.351798244588041e+000	 7.375472029575111e-001
 5.142179991813679e-002	 1.352353694570366e+000	 7.211932361820885e-001
 3.849649950772448e-002	 1.352783336886667e+000	 7.084300698325555e-001
 2.561675696039644e-002	 1.353088520502998e+000	 6.996576703665339e-001
 1.278409546711689e-002	 1.353270613096603e+000	 6.954827325433575e-001
 0.000000000000000e+000	 1.353330999982383e+000	 6.967236693967148e-001
 1.304798676565677e-001	 1.353724358169724e+000	 9.193504512367047e-001
 1.172504812141909e-001	 1.354934281060870e+000	 8.830290019938397e-001
 1.040568925577616e-001	 1.356011318908854e+000	 8.513492207517053e-001
 9.090086020312033e-002	 1.356956716810264e+000	 8.237636906070546e-001
 7.778410517758207e-002	 1.357771744189455e+000	 7.998989870449366e-001
 6.470831078086614e-002	 1.358457693679716e+000	 7.795629493729812e-001
 5.167512238134731e-002	 1.359015880010333e+000	 7.627514988290720e-001
 3.868614724694930e-002	 1.359447638900669e+000	 7.496550137259402e-001
 2.574295440997393e-002	 1.359754325962284e+000	 7.406642710780675e-001
 1.284707456513069e-002	 1.359937315610102e+000	 7.363759632282063e-001
 0.000000000000000e+000	 1.359997999983599e+000	 7.375977802310649e-001
 1.311195077714922e-001	 1.360360603442459e+000	 9.644346548660537e-001
 1.178252680581308e-001	 1.361576457633574e+000	 9.272107389329990e-001
 1.045670016191474e-001	 1.362658775350676e+000	 8.947346619682453e-001
 9.134647559094819e-002	 1.363608807794089e+000	 8.664606255455052e-001
 7.816541943763786e-002	 1.364427830611171e+000	 8.420155114348176e-001
 6.502552471077758e-002	 1.365117142771979e+000	 8.212062027189327e-001
 5.192844484463705e-002	 1.365678065450894e+000	 8.040264581825725e-001
 3.887579498625927e-002	 1.366111940915269e+000	 7.906633507206593e-001
 2.586915185962704e-002	 1.366420131422168e+000	 7.815032795210052e-001
 1.291005366319260e-002	 1.366604018124201e+000	 7.771375647247754e-001
 0.000000000000000e+000	 1.366664999985416e+000	 7.783676158691257e-001
 1.317591478863360e-001	 1.366996848715613e+000	 1.008199645021275e+000
 1.184000549020121e-001	 1.368218634206720e+000	 9.703490250587762e-001
 1.050771106804922e-001	 1.369306231792957e+000	 9.373042647485909e-001
 9.179209097874870e-002	 1.370260898778388e+000	 9.085267172742155e-001
 7.854673369767656e-002	 1.371083917033369e+000	 8.836489651135062e-001
 6.534273864067915e-002	 1.371776591864733e+000	 8.624821806769901e-001
 5.218176730792173e-002	 1.372340250891950e+000	 8.450230475282303e-001
 3.906544272556711e-002	 1.372776242930367e+000	 8.314602533539576e-001
 2.599534930927954e-002	 1.373085936882552e+000	 8.221805647392316e-001
 1.297303276125444e-002	 1.373270720638800e+000	 8.177744926808456e-001
 0.000000000000000e+000	 1.373331999987733e+000	 8.190415406656471e-001
 1.323987880011486e-001	 1.373633093989104e+000	 1.050662127558627e+000
 1.189748417458646e-001	 1.374860810780218e+000	 1.012456635215698e+000
 1.055872197418007e-001	 1.375953688235605e+000	 9.790677200348072e-001
 9.223770636649922e-002	 1.376912989763065e+000	 9.499693587226420e-001
 7.892804795764938e-002	 1.377740003455954e+000	 9.248051672793514e-001
 6.565995257050052e-002	 1.378436040957878e+000	 9.033957908952612e-001
 5.243508977111717e-002	 1.379002436333403e+000	 8.857458624634833e-001
 3.925509046478562e-002	 1.379440544945863e+000	 8.720505413104523e-001
 2.612154675885518e-002	 1.379751742343335e+000	 8.627016425367085e-001
 1.303601185926804e-002	 1.379937423153799e+000	 8.582933661173563e-001
 0.000000000000000e+000	 1.379998999990449e+000	 8.596276181412956e-001
 1.330384281159791e-001	 1.380269339262846e+000	 1.091838754278552e+000
 1.195496285897178e-001	 1.381502987353983e+000	 1.053546235486895e+000
 1.060973288030772e-001	 1.382601144678529e+000	 1.020034555790221e+000
 9.268332175417700e-002	 1.383565080748026e+000	 9.907957285522000e-001
 7.930936221750753e-002	 1.384396089878828e+000	 9.654896769137114e-001
 6.597716650017131e-002	 1.385095490051317e+000	 9.439516425746868e-001
 5.268841223413914e-002	 1.385664621775152e+000	 9.261991719590708e-001
 3.944473820382756e-002	 1.386104846961657e+000	 9.124386918221176e-001
 2.624774420827772e-002	 1.386417547804419e+000	 9.030716850351004e-001
 1.309899095718521e-002	 1.386604125669099e+000	 8.987004759420234e-001
 0.000000000000000e+000	 1.386665999993466e+000	 9.001336182148837e-001
 1.336780682308767e-001	 1.386905584536756e+000	 1.131746135588710e+000
 1.201244154336015e-001	 1.388145163927923e+000	 1.093630395616388e+000
 1.066074378643264e-001	 1.389248601121635e+000	 1.060214149189708e+000
 9.312893714175938e-002	 1.390217171733176e+000	 1.031012803095058e+000
 7.969067647720229e-002	 1.391052176301896e+000	 1.005707804415194e+000
 6.629438042962126e-002	 1.391754939144953e+000	 9.841540577118180e-001
 5.294173469690341e-002	 1.392326807217099e+000	 9.663869291035778e-001
 3.963438594260568e-002	 1.392769148977652e+000	 9.526288497653701e-001
 2.637394165747090e-002	 1.393083353265701e+000	 9.432955299551459e-001
 1.316197005495779e-002	 1.393270828184597e+000	 9.390017932140333e-001
 0.000000000000000e+000	 1.393332999996683e+000	 9.405670242281800e-001
 1.343177083458908e-001	 1.393541829810749e+000	 1.170400852756249e+000
 1.206992022775452e-001	 1.394787340501952e+000	 1.132721601040465e+000
 1.071175469255529e-001	 1.395896057564835e+000	 1.099615738437569e+000
 9.357455252922366e-002	 1.396869262718420e+000	 1.070627367934133e+000
 8.007199073668500e-002	 1.397708262725060e+000	 1.045464622887313e+000
 6.661159435878002e-002	 1.398414388238686e+000	 1.024007082015024e+000
 5.319505715932576e-002	 1.398988992659145e+000	 1.006312781532885e+000
 3.982403368103277e-002	 1.399433450993745e+000	 9.926248374681285e-001
 2.650013910635849e-002	 1.399749158727085e+000	 9.833776896332003e-001
 1.322494915253760e-002	 1.399937530700197e+000	 9.792029771766349e-001
 0.000000000000000e+000	 1.400000000000000e+000	 9.809350397679926e-001
 1.400000000000000e+000	 0.000000000000000e+000	 1.584125707553958e+001
 1.399937530700196e+000	 1.322494915253764e-002	 1.583761171322628e+001
 1.399749158727085e+000	 2.650013910635858e-002	 1.583483969053502e+001
 1.399433450993745e+000	 3.982403368103266e-002	 1.583235577014820e+001
 1.398988992659146e+000	 5.319505715932572e-002	 1.582960184695888e+001
 1.398414388238686e+000	 6.661159435877999e-002	 1.582604776241871e+001
 1.397708262725060e+000	 8.007199073668501e-002	 1.582119226161919e+001
 1.396869262718420e+000	 9.357455252922370e-002	 1.581456410489725e+001
 1.395896057564835e+000	 1.071175469255528e-001	 1.580572334628910e+001
 1.394787340501952e+000	 1.206992022775451e-001	 1.579426279169197e+001
 1.393541829810749e+000	 1.343177083458907e-001	 1.577980965011066e+001
 1.406667000003317e+000	 0.000000000000000e+000	 1.575592922427987e+001
 1.406604233215796e+000	 1.328792824988832e-002	 1.575268339307802e+001
 1.406414964188467e+000	 2.662633655488255e-002	 1.575018423533967e+001
 1.406097753009839e+000	 4.001368141904158e-002	 1.574789387247037e+001
 1.405651178101191e+000	 5.344837962134028e-002	 1.574530016686571e+001
 1.405073837332419e+000	 6.692880828759104e-002	 1.574191744039000e+001
 1.404364349148224e+000	 8.045330499591424e-002	 1.573728733533158e+001
 1.403521353703664e+000	 9.402016791654727e-002	 1.573097983016054e+001
 1.402543514008033e+000	 1.076276559867538e-001	 1.572259442271770e+001
 1.401429517075981e+000	 1.212739891215650e-001	 1.571176149403462e+001
 1.400178075084743e+000	 1.349573484610524e-001	 1.569814386653807e+001
 1.413334000006534e+000	 0.000000000000000e+000	 1.567249720989967e+001
 1.413270935731295e+000	 1.335090734702079e-002	 1.566964596809556e+001
 1.413080769649750e+000	 2.675253400305789e-002	 1.566741535488067e+001
 1.412762055025833e+000	 4.020332915664571e-002	 1.566531364823512e+001
 1.412313363543139e+000	 5.370170208295459e-002	 1.566287348762429e+001
 1.411733286426055e+000	 6.724602221605305e-002	 1.565965249876629e+001
 1.411020435571292e+000	 8.083461925487839e-002	 1.565523406056804e+001
 1.410173444688814e+000	 9.446578330370806e-002	 1.564922822707878e+001
 1.409190970451141e+000	 1.081377650478981e-001	 1.564127281738944e+001
 1.408071693649921e+000	 1.218487759656230e-001	 1.563103468701150e+001
 1.406814320358652e+000	 1.355969885763210e-001	 1.561821119486082e+001
 1.420001000009550e+000	 0.000000000000000e+000	 1.559089527737690e+001
 1.419937638246594e+000	 1.341388644395782e-002	 1.558843092111370e+001
 1.419746575110834e+000	 2.687873145091777e-002	 1.558646243591303e+001
 1.419426357041627e+000	 4.039297689387860e-002	 1.558454306993991e+001
 1.418975548984888e+000	 5.395502454419458e-002	 1.558224906543455e+001
 1.418392735519495e+000	 6.756323614417874e-002	 1.557918019191997e+001
 1.417676521994166e+000	 8.121593351357331e-002	 1.557496042121487e+001
 1.416825535673774e+000	 9.491139869068395e-002	 1.556923875761135e+001
 1.415838426894064e+000	 1.086478741089467e-001	 1.556169023643873e+001
 1.414713870223685e+000	 1.224235628096673e-001	 1.555201710487684e+001
 1.413450565632394e+000	 1.362366286916378e-001	 1.553995019950932e+001
 1.426668000012267e+000	 0.000000000000000e+000	 1.551105687237810e+001
 1.426604340761593e+000	 1.347686554072213e-002	 1.550896919654744e+001
 1.426412380571617e+000	 2.700492889849541e-002	 1.550725457033266e+001
 1.426090659057124e+000	 4.058262463077374e-002	 1.550551004095958e+001
 1.425637734426340e+000	 5.420834700508608e-002	 1.550335429481885e+001
 1.425052184612641e+000	 6.788045007198061e-002	 1.550042810125983e+001
 1.424332608416751e+000	 8.159724777199492e-002	 1.549639489776562e+001
 1.423477626658451e+000	 9.535701407745295e-002	 1.549094153036832e+001
 1.422485883336712e+000	 1.091579831698611e-001	 1.548377916281234e+001
 1.421356046797183e+000	 1.229983496536462e-001	 1.547464436865164e+001
 1.420086810905885e+000	 1.368762688069441e-001	 1.546330042113377e+001
 1.433335000014584e+000	 0.000000000000000e+000	 1.543291465984786e+001
 1.433271043276193e+000	 1.353984463733650e-002	 1.543119121675895e+001
 1.433078186032001e+000	 2.713112634582401e-002	 1.542972056947018e+001
 1.432754961072221e+000	 4.077227236736464e-002	 1.542814240792668e+001
 1.432299919867397e+000	 5.446166946565503e-002	 1.542611671925871e+001
 1.431711633705393e+000	 6.819766399947121e-002	 1.542332414430309e+001
 1.430988694838949e+000	 8.197856203013895e-002	 1.541946647501686e+001
 1.430129717642750e+000	 9.580262946399305e-002	 1.541426730712943e+001
 1.429133339778993e+000	 1.096680922306027e-001	 1.540747286182037e+001
 1.427998223370329e+000	 1.235731364975080e-001	 1.539885299092680e+001
 1.426723056179039e+000	 1.375159089221810e-001	 1.538820238088934e+001
 1.440002000016400e+000	 0.000000000000000e+000	 1.535640054208225e+001
 1.439937745790292e+000	 1.360282373382367e-002	 1.535502689796826e+001
 1.439743991491886e+000	 2.725732379293675e-002	 1.535378897798215e+001
 1.439419263086821e+000	 4.096192010368484e-002	 1.535236797275514e+001
 1.438962105307957e+000	 5.471499192592728e-002	 1.535046404151199e+001
 1.438371082797657e+000	 6.851487792666318e-002	 1.534779658345736e+001
 1.437644781260665e+000	 8.235987628800125e-002	 1.534410464949601e+001
 1.436781808626576e+000	 9.624824485028219e-002	 1.533914750910768e+001
 1.435780796220814e+000	 1.101782012911326e-001	 1.533270538643661e+001
 1.434640399943034e+000	 1.241479233412010e-001	 1.532458038041082e+001
 1.433359301451774e+000	 1.381555490372899e-001	 1.531459758445201e+001
 1.446669000017617e+000	 0.000000000000000e+000	 1.528144567630201e+001
 1.446604448303791e+000	 1.366580283020638e-002	 1.528040566572199e+001
 1.446409796951171e+000	 2.738352123986684e-002	 1.527938808735125e+001
 1.446083565100823e+000	 4.115156783976783e-002	 1.527811450431710e+001
 1.445624290747924e+000	 5.496831438592878e-002	 1.527632413362046e+001
 1.445030531889331e+000	 6.883209185356902e-002	 1.527377403452191e+001
 1.444300867681801e+000	 8.274119054557767e-002	 1.527023943662883e+001
 1.443433899609835e+000	 9.669386023629835e-002	 1.526551422296597e+001
 1.442428252662086e+000	 1.106883103514124e-001	 1.525941158235604e+001
 1.441282576515208e+000	 1.247227101846735e-001	 1.525176484622990e+001
 1.439995546724006e+000	 1.387951891522120e-001	 1.524242852577353e+001
 1.453336000018133e+000	 0.000000000000000e+000	 1.520798049174257e+001
 1.453271150816591e+000	 1.372878192650738e-002	 1.520725646993554e+001
 1.453075602409757e+000	 2.750971868664748e-002	 1.520644594900987e+001
 1.452747867114129e+000	 4.134121557564712e-002	 1.520530974978541e+001
 1.452286476187199e+000	 5.522163684568538e-002	 1.520362504661794e+001
 1.451689980980320e+000	 6.914930578020138e-002	 1.520118547491761e+001
 1.450956954102260e+000	 8.312250480286403e-002	 1.519780137765601e+001
 1.450085990592432e+000	 9.713947562201948e-002	 1.519330020659428e+001
 1.449075709102714e+000	 1.111984194114033e-001	 1.518752709281687e+001
 1.447924753086763e+000	 1.252974970278738e-001	 1.518034560198874e+001
 1.446631791995650e+000	 1.394348292668886e-001	 1.517163869058425e+001
 1.460003000017850e+000	 0.000000000000000e+000	 1.513593470627540e+001
 1.459937853328589e+000	 1.379176102274943e-002	 1.513550779952107e+001
 1.459741407867544e+000	 2.763591613331187e-002	 1.513489038709713e+001
 1.459412169126637e+000	 4.153086331135624e-002	 1.513388144565116e+001
 1.458948661625681e+000	 5.547495930522300e-002	 1.513229501994829e+001
 1.458349430070524e+000	 6.946651970657282e-002	 1.512996025165339e+001
 1.457613040521948e+000	 8.350381905985617e-002	 1.512672154630592e+001
 1.456738081574272e+000	 9.758509100742355e-002	 1.512243889465585e+001
 1.455723165542607e+000	 1.117085284710666e-001	 1.511698836319575e+001
 1.454566929657614e+000	 1.258722838707501e-001	 1.511026276959967e+001
 1.453268037266624e+000	 1.400744693812609e-001	 1.510217255965142e+001
 1.466670000016666e+000	 0.000000000000000e+000	 1.506523734257627e+001
 1.466604555839689e+000	 1.385474011895528e-002	 1.506508769661526e+001
 1.466407213324432e+000	 2.776211357989323e-002	 1.506464901086277e+001
 1.466076471138249e+000	 4.172051104692869e-002	 1.506375732842799e+001
 1.465610847063272e+000	 5.572828176456753e-002	 1.506226249060266e+001
 1.465008879159847e+000	 6.978373363269590e-002	 1.506002808903855e+001
 1.464269126940766e+000	 8.388513331654994e-002	 1.505693155523212e+001
 1.463390172555262e+000	 9.803070639248858e-002	 1.505286440390844e+001
 1.462370621981674e+000	 1.122186375303636e-001	 1.504773264538153e+001
 1.461209106227669e+000	 1.264470707132508e-001	 1.504145738288732e+001
 1.459904282536843e+000	 1.407141094952702e-001	 1.503397561180121e+001
 1.393541829810749e+000	 1.343177083458907e-001	 1.577980965011066e+001
 1.392158487952350e+000	 1.479691709352418e-001	 1.576389803095071e+001
 1.390635910990750e+000	 1.616537686363681e-001	 1.574809529014248e+001
 1.388972900018493e+000	 1.753696080669007e-001	 1.573212096753926e+001
 1.387168285732491e+000	 1.891147594902250e-001	 1.571570721422788e+001
 1.385220929583866e+000	 2.028872572520458e-001	 1.569860090928492e+001
 1.383129724925903e+000	 2.166851002555812e-001	 1.568056608870289e+001
 1.380893598158766e+000	 2.305062524757509e-001	 1.566138670460730e+001
 1.378511509869538e+000	 2.443486435126755e-001	 1.564086973295244e+001
 1.375982455966176e+000	 2.582101691847494e-001	 1.561884864783909e+001
 1.373305468803879e+000	 2.720886921614973e-001	 1.559518728042323e+001
 1.400178075084743e+000	 1.349573484610524e-001	 1.569814386653807e+001
 1.398788145554529e+000	 1.486738212651560e-001	 1.568314044905130e+001
 1.397258317863598e+000	 1.624235869751318e-001	 1.566818097562865e+001
 1.395587387395139e+000	 1.762047431920685e-001	 1.565301406090797e+001
 1.393774179277689e+000	 1.900153509896848e-001	 1.563739961311292e+001
 1.391817549540452e+000	 2.038534353529740e-001	 1.562111089379604e+001
 1.389716386266716e+000	 2.177169856556605e-001	 1.560393689314723e+001
 1.387469610744020e+000	 2.316039561768371e-001	 1.558568503956317e+001
 1.385076178609633e+000	 2.455122666571001e-001	 1.556618426227939e+001
 1.382535080989893e+000	 2.594398028944461e-001	 1.554528842585604e+001
 1.379845345631952e+000	 2.733844173801429e-001	 1.552288015516901e+001
 1.406814320358652e+000	 1.355969885763210e-001	 1.561821119486082e+001
 1.405417803156628e+000	 1.493784715952082e-001	 1.560407081773775e+001
 1.403880724736372e+000	 1.631934053140298e-001	 1.558991186959827e+001
 1.402201874771716e+000	 1.770398783173379e-001	 1.557551306160347e+001
 1.400380072822822e+000	 1.909159424891910e-001	 1.556066295530139e+001
 1.398414169496971e+000	 2.048196134538770e-001	 1.554516195955581e+001
 1.396303047607457e+000	 2.187488710556334e-001	 1.552882464641562e+001
 1.394045623329195e+000	 2.327016598777327e-001	 1.551148240521382e+001
 1.391640847349633e+000	 2.466758898012533e-001	 1.549298645433233e+001
 1.389087706013494e+000	 2.606694366038011e-001	 1.547321123009350e+001
 1.386385222459880e+000	 2.746801425983934e-001	 1.545205817213656e+001
 1.413450565632394e+000	 1.362366286916378e-001	 1.553995019950932e+001
 1.412047460758571e+000	 1.500831219253405e-001	 1.552663126093599e+001
 1.410503131609001e+000	 1.639632236530120e-001	 1.551323228837207e+001
 1.408816362148159e+000	 1.778750134426724e-001	 1.549956309318648e+001
 1.406985966367831e+000	 1.918165339887250e-001	 1.548544176983424e+001
 1.405010789453377e+000	 2.057857915547572e-001	 1.547069662417257e+001
 1.402889708948090e+000	 2.197807564555245e-001	 1.545516842406516e+001
 1.400621635914264e+000	 2.337993635784845e-001	 1.543871299217949e+001
 1.398205516089526e+000	 2.478395129452028e-001	 1.542120416106479e+001
 1.395640331036978e+000	 2.618990703128996e-001	 1.540253711066680e+001
 1.392925099287674e+000	 2.759758678163474e-001	 1.538263210836598e+001
 1.420086810905885e+000	 1.368762688069441e-001	 1.546330042113377e+001
 1.418677118360277e+000	 1.507877722554953e-001	 1.545076496785094e+001
 1.417125538481412e+000	 1.647330419920284e-001	 1.543808772284854e+001
 1.415430849524404e+000	 1.787101485680357e-001	 1.542511058381832e+001
 1.413591859912662e+000	 1.927171254882679e-001	 1.541168204159125e+001
 1.411607409409621e+000	 2.067519696556165e-001	 1.539765903404231e+001
 1.409476370288579e+000	 2.208126418553584e-001	 1.538290912560004e+001
 1.407197648499203e+000	 2.348970672791393e-001	 1.536731303289824e+001
 1.404770184829297e+000	 2.490031360890161e-001	 1.535076751733285e+001
 1.402192956060347e+000	 2.631287040218273e-001	 1.533318866539392e+001
 1.399464976115353e+000	 2.772715930341038e-001	 1.531451557761464e+001
 1.426723056179039e+000	 1.375159089221810e-001	 1.538820238088934e+001
 1.425306775961670e+000	 1.514924225856142e-001	 1.537641619650080e+001
 1.423747945353533e+000	 1.655028603310288e-001	 1.536442484057934e+001
 1.422045336900386e+000	 1.795452836933910e-001	 1.535210326616509e+001
 1.420197753457256e+000	 1.936177169878016e-001	 1.533933120830668e+001
 1.418204029365658e+000	 2.077181477564575e-001	 1.532599495775549e+001
 1.416063031628888e+000	 2.218445272551594e-001	 1.531198946354449e+001
 1.413773661083987e+000	 2.359947709797438e-001	 1.529722078563927e+001
 1.411334853568936e+000	 2.501667592327608e-001	 1.528160891912043e+001
 1.408745581083601e+000	 2.643583377306693e-001	 1.526509101150359e+001
 1.406004852942930e+000	 2.785673182517614e-001	 1.524762499481888e+001
 1.433359301451774e+000	 1.381555490372899e-001	 1.531459758445201e+001
 1.431936433562669e+000	 1.521970729156394e-001	 1.530353027697141e+001
 1.430370352225293e+000	 1.662726786699633e-001	 1.529219148757199e+001
 1.428659824276040e+000	 1.803804188187018e-001	 1.528049017705339e+001
 1.426803647001559e+000	 1.945183084873071e-001	 1.526833815737805e+001
 1.424800649321441e+000	 2.086843258572822e-001	 1.525565177935522e+001
 1.422649692968980e+000	 2.228764126549521e-001	 1.524235395244482e+001
 1.420349673668591e+000	 2.370924746803448e-001	 1.522837651853996e+001
 1.417899522308429e+000	 2.513303823765045e-001	 1.521366300190129e+001
 1.415298206106741e+000	 2.655879714395113e-001	 1.519817175761154e+001
 1.412544729770422e+000	 2.798630434694193e-001	 1.518187954097309e+001
 1.439995546724006e+000	 1.387951891522120e-001	 1.524242852577353e+001
 1.438566091163198e+000	 1.529017232455130e-001	 1.523205361440041e+001
 1.436992759096619e+000	 1.670424970087816e-001	 1.522133668982890e+001
 1.435274311651301e+000	 1.812155539439319e-001	 1.521022165688513e+001
 1.433409540545514e+000	 1.954188999867661e-001	 1.519865322247439e+001
 1.431397269276922e+000	 2.096505039580927e-001	 1.518657849145241e+001
 1.429236354308818e+000	 2.239082980547608e-001	 1.517394889780251e+001
 1.426925686252988e+000	 2.381901783809889e-001	 1.516072249366538e+001
 1.424464191047764e+000	 2.524940055203147e-001	 1.514686661913286e+001
 1.421850831129768e+000	 2.668176051484385e-001	 1.513236097595515e+001
 1.419084606597842e+000	 2.811587686871757e-001	 1.511720112841225e+001
 1.446631791995650e+000	 1.394348292668886e-001	 1.517163869058425e+001
 1.445195748763177e+000	 1.536063735751771e-001	 1.516193369169946e+001
 1.443615165967438e+000	 1.678123153474337e-001	 1.515181065463110e+001
 1.441888799026105e+000	 1.820506890690446e-001	 1.514124934881989e+001
 1.440015434089065e+000	 1.963194914861598e-001	 1.513022817995024e+001
 1.437993889232055e+000	 2.106166820588915e-001	 1.511872568820237e+001
 1.435823015648367e+000	 2.249401834546103e-001	 1.510672238494027e+001
 1.433501698837155e+000	 2.392878820817230e-001	 1.509420295109032e+001
 1.431028859786927e+000	 2.536576286642590e-001	 1.508115882087802e+001
 1.428403456152683e+000	 2.680472388575365e-001	 1.506759117487916e+001
 1.425624483425207e+000	 2.824544939051299e-001	 1.505351436648546e+001
 1.453268037266624e+000	 1.400744693812609e-001	 1.510217255965142e+001
 1.451825406362528e+000	 1.543110239045736e-001	 1.509311907202305e+001
 1.450237572837680e+000	 1.685821336858696e-001	 1.508356477157437e+001
 1.448503286400388e+000	 1.828858241940033e-001	 1.507352619773180e+001
 1.446621327632154e+000	 1.972200829854697e-001	 1.506301624507255e+001
 1.444590509186792e+000	 2.115828601596805e-001	 1.505204555814691e+001
 1.442409676987587e+000	 2.259720688545247e-001	 1.504062426780390e+001
 1.440077711421066e+000	 2.403855857825940e-001	 1.502876409300219e+001
 1.437593528525907e+000	 2.548212518084049e-001	 1.501648083255070e+001
 1.434956081175486e+000	 2.692768725668907e-001	 1.500379727156394e+001
 1.432164360252531e+000	 2.837502191233804e-001	 1.499074652760765e+001
 1.459904282536843e+000	 1.407141094952702e-001	 1.503397561180121e+001
 1.458455063961172e+000	 1.550156742336446e-001	 1.502555940099200e+001
 1.456859979707271e+000	 1.693519520240392e-001	 1.501655161336646e+001
 1.455117773774083e+000	 1.837209593187718e-001	 1.500700644894798e+001
 1.453227221174727e+000	 1.981206744846772e-001	 1.499697206806494e+001
 1.451187129141089e+000	 2.125490382604623e-001	 1.498649187692660e+001
 1.448996338326446e+000	 2.270039542545288e-001	 1.497560615770152e+001
 1.446653724004697e+000	 2.414832894836484e-001	 1.496435406782519e+001
 1.444158197264690e+000	 2.559848749528201e-001	 1.495277603378103e+001
 1.441508706198178e+000	 2.705065062765864e-001	 1.494091656498870e+001
 1.438704237079830e+000	 2.850459443420262e-001	 1.492882751367747e+001
 1.373305468803879e+000	 2.720886921614973e-001	 1.559518728042323e+001
 1.370479183367836e+000	 2.859841273122784e-001	 1.556928459314941e+001
 1.367503099314640e+000	 2.998921885967780e-001	 1.554069402589460e+001
 1.364376365841549e+000	 3.138106391095596e-001	 1.550955454294846e+001
 1.361098173039150e+000	 3.277372116407852e-001	 1.547604817760993e+001
 1.357667752958321e+000	 3.416696095105594e-001	 1.544040564668737e+001
 1.354084380660317e+000	 3.556055074431779e-001	 1.540291244785035e+001
 1.350347375248399e+000	 3.695425524810588e-001	 1.536391545282958e+001
 1.346456100879377e+000	 3.834783649380567e-001	 1.532383000782979e+001
 1.342409967753466e+000	 3.974105393917957e-001	 1.528314755065731e+001
 1.338208433080836e+000	 4.113366457145844e-001	 1.524244375195781e+001
 1.379845345631952e+000	 2.733844173801429e-001	 1.552288015516901e+001
 1.377005601020615e+000	 2.873460245781569e-001	 1.549831750316955e+001
 1.374015344429769e+000	 3.013203180374325e-001	 1.547109775591616e+001
 1.370873721005026e+000	 3.153050502000594e-001	 1.544135255487936e+001
 1.367579916980069e+000	 3.292979430594138e-001	 1.540925309470496e+001
 1.364133160748690e+000	 3.432966889984715e-001	 1.537501573820833e+001
 1.360532723919882e+000	 3.572989516682236e-001	 1.533890812781953e+001
 1.356777922354375e+000	 3.713023669059578e-001	 1.530125580738420e+001
 1.352868117181002e+000	 3.853045436931127e-001	 1.526244936659127e+001
 1.348802715791267e+000	 3.993030651523371e-001	 1.522295211842148e+001
 1.344581172810493e+000	 4.132954895833138e-001	 1.518330831788577e+001
 1.386385222459880e+000	 2.746801425983934e-001	 1.545205817213656e+001
 1.383532018673209e+000	 2.887079218436095e-001	 1.542883603780533e+001
 1.380527589544668e+000	 3.027484474776506e-001	 1.540297748146077e+001
 1.377371076168225e+000	 3.167994612901308e-001	 1.537460674926807e+001
 1.374061660920658e+000	 3.308586744776357e-001	 1.534388434775845e+001
 1.370598568538679e+000	 3.449237684860104e-001	 1.531101266249392e+001
 1.366981067179019e+000	 3.589923958929374e-001	 1.527624208651943e+001
 1.363208469459881e+000	 3.730621813305708e-001	 1.523987767342316e+001
 1.359280133482124e+000	 3.871307224479301e-001	 1.520228632818774e+001
 1.355195463828543e+000	 4.011955909126852e-001	 1.516390454712752e+001
 1.350953912539618e+000	 4.152543334518899e-001	 1.512524671606389e+001
 1.392925099287674e+000	 2.759758678163474e-001	 1.538263210836598e+001
 1.390058436325648e+000	 2.900698191087422e-001	 1.536074249869538e+001
 1.387039834659383e+000	 3.041765769175411e-001	 1.533623010828286e+001
 1.383868431331207e+000	 3.182938723798801e-001	 1.530921172150088e+001
 1.380543404860995e+000	 3.324194058955513e-001	 1.527983731074945e+001
 1.377063976328380e+000	 3.465508479732667e-001	 1.524829566184482e+001
 1.373429410437834e+000	 3.606858401173979e-001	 1.521482052226989e+001
 1.369639016565036e+000	 3.748219957549626e-001	 1.517969728802900e+001
 1.365692149782871e+000	 3.889569012025585e-001	 1.514327024320901e+001
 1.361588211865426e+000	 4.030881166728738e-001	 1.510595036445170e+001
 1.357326652268343e+000	 4.172131773203306e-001	 1.506822370038368e+001
 1.399464976115353e+000	 2.772715930341038e-001	 1.531451557761464e+001
 1.396584853977964e+000	 2.914317163736618e-001	 1.529394229539948e+001
 1.393552079773962e+000	 3.056047063572134e-001	 1.527075586116823e+001
 1.390365786494034e+000	 3.197882834694137e-001	 1.524506553730406e+001
 1.387025148801159e+000	 3.339801373132609e-001	 1.521701091985645e+001
 1.383529384117886e+000	 3.481779274603316e-001	 1.518676757358426e+001
 1.379877753696433e+000	 3.623792843416840e-001	 1.515455320267176e+001
 1.376069563669956e+000	 3.765818101791978e-001	 1.512063437378899e+001
 1.372104166083367e+000	 3.907830799570470e-001	 1.508533380652529e+001
 1.367980959902047e+000	 4.049806424329365e-001	 1.504903824432143e+001
 1.363699391996801e+000	 4.191720211886540e-001	 1.501220691685003e+001
 1.406004852942930e+000	 2.785673182517614e-001	 1.524762499481888e+001
 1.403111271630186e+000	 2.927936136384749e-001	 1.522834390287348e+001
 1.400064324888450e+000	 3.070328357967761e-001	 1.520645823567811e+001
 1.396863141656769e+000	 3.212826945588386e-001	 1.518206968001903e+001
 1.393506892741225e+000	 3.355408687308651e-001	 1.515530761753130e+001
 1.389994791907289e+000	 3.498050069472954e-001	 1.512633477220254e+001
 1.386326096954921e+000	 3.640727285658740e-001	 1.509535340609747e+001
 1.382500110774756e+000	 3.783416246033408e-001	 1.506261208090951e+001
 1.378516182383736e+000	 3.926092587114449e-001	 1.502841300130508e+001
 1.374373707938537e+000	 4.068731681929065e-001	 1.499311995411578e+001
 1.370072131725126e+000	 4.211308650568782e-001	 1.495716685524390e+001
 1.412544729770422e+000	 2.798630434694193e-001	 1.518187954097309e+001
 1.409637689282345e+000	 2.941555109032878e-001	 1.516385881950209e+001
 1.406576570002893e+000	 3.084609652363380e-001	 1.514324395055511e+001
 1.403360496819475e+000	 3.227771056482615e-001	 1.512012899860720e+001
 1.399988636681273e+000	 3.371016001484642e-001	 1.509463329733372e+001
 1.396460199696681e+000	 3.514320864342495e-001	 1.506690711225678e+001
 1.392774440213403e+000	 3.657661727900466e-001	 1.503713786389485e+001
 1.388930657879554e+000	 3.801014390274559e-001	 1.500555692996565e+001
 1.384928198684105e+000	 3.944354374658012e-001	 1.497244704355344e+001
 1.380766455975028e+000	 4.087656939528171e-001	 1.493815030223647e+001
 1.376444871453451e+000	 4.230897089250208e-001	 1.490307680096847e+001
 1.419084606597842e+000	 2.811587686871757e-001	 1.511720112841225e+001
 1.416164106934472e+000	 2.955174081682074e-001	 1.510040152567181e+001
 1.413088815117339e+000	 3.098890946760084e-001	 1.508102290076993e+001
 1.409857851982213e+000	 3.242715167377888e-001	 1.505915165636053e+001
 1.406470380621380e+000	 3.386623315661588e-001	 1.503489724950169e+001
 1.402925607486154e+000	 3.530591659212842e-001	 1.500839787200106e+001
 1.399222783471986e+000	 3.674596170142805e-001	 1.497982670328097e+001
 1.395361204984467e+000	 3.818612534516081e-001	 1.494939875526523e+001
 1.391340214984599e+000	 3.962616162201654e-001	 1.491737832715417e+001
 1.387159204011649e+000	 4.106582197127023e-001	 1.488408708603663e+001
 1.382817611181910e+000	 4.250485527931002e-001	 1.484991278707337e+001
 1.425624483425207e+000	 2.824544939051299e-001	 1.505351436648546e+001
 1.422690524586597e+000	 2.968793054333399e-001	 1.503788944286544e+001
 1.419601060231832e+000	 3.113172241158961e-001	 1.501970811118757e+001
 1.416355207145046e+000	 3.257659278275273e-001	 1.499904908029547e+001
 1.412952124561622e+000	 3.402230629840488e-001	 1.497601210723421e+001
 1.409391015275801e+000	 3.546862454084906e-001	 1.495072369772420e+001
 1.405671126730774e+000	 3.691530612386543e-001	 1.492334339090447e+001
 1.401791752089610e+000	 3.836210678758615e-001	 1.489407064880763e+001
 1.397752231285342e+000	 3.980877949745867e-001	 1.486315236939949e+001
 1.393551952048531e+000	 4.125507454725953e-001	 1.483089104009651e+001
 1.389190350910635e+000	 4.270073966611341e-001	 1.479765354645089e+001
 1.432164360252531e+000	 2.837502191233804e-001	 1.499074652760765e+001
 1.429216942238750e+000	 2.982412026987919e-001	 1.497624289326329e+001
 1.426113305346421e+000	 3.127453535561098e-001	 1.495921569083399e+001
 1.422852562308036e+000	 3.272603389175837e-001	 1.493973591120828e+001
 1.419433868502080e+000	 3.417837944022349e-001	 1.491789379366368e+001
 1.415856423065714e+000	 3.563133248959594e-001	 1.489380454877182e+001
 1.412119469989871e+000	 3.708465054632466e-001	 1.486761467705395e+001
 1.408222299195100e+000	 3.853808823002810e-001	 1.483950890481838e+001
 1.404164247586460e+000	 3.999139737291144e-001	 1.480971775699190e+001
 1.399944700085807e+000	 4.144432712325296e-001	 1.477852578483476e+001
 1.395563090639759e+000	 4.289662405291407e-001	 1.474628046419893e+001
 1.438704237079830e+000	 2.850459443420262e-001	 1.492882751367747e+001
 1.435743359890963e+000	 2.996030999646700e-001	 1.491538505983356e+001
 1.432625550461151e+000	 3.141734829967587e-001	 1.489946478774385e+001
 1.429349917471245e+000	 3.287547500080645e-001	 1.488112995437067e+001
 1.425915612442830e+000	 3.433445258208175e-001	 1.486046146949581e+001
 1.422321830855985e+000	 3.579404043837813e-001	 1.483756364323170e+001
 1.418567813249386e+000	 3.725399496881361e-001	 1.481257054049305e+001
 1.414652846301054e+000	 3.871406967249310e-001	 1.478565296484121e+001
 1.410576263888079e+000	 4.017401524837974e-001	 1.475702609250296e+001
 1.406337448123607e+000	 4.163357969925386e-001	 1.472695777544463e+001
 1.401935830369417e+000	 4.309250843971382e-001	 1.469577753014545e+001
 1.338208433080836e+000	 4.113366457145844e-001	 1.524244375195781e+001
 1.333851001688592e+000	 4.252542299385834e-001	 1.519978567240372e+001
 1.329337225930455e+000	 4.391608147306638e-001	 1.515292004526533e+001
 1.324666707576071e+000	 4.530539011119613e-001	 1.510217959800895e+001
 1.319839099004865e+000	 4.669309698362181e-001	 1.504848671533467e+001
 1.314854104034503e+000	 4.807894826047506e-001	 1.499295725775202e+001
 1.309711478716544e+000	 4.946268833159535e-001	 1.493690390484993e+001
 1.304411032097752e+000	 5.084405993483900e-001	 1.488184364004368e+001
 1.298952626945552e+000	 5.222280428764503e-001	 1.482950431395466e+001
 1.293336180436153e+000	 5.359866122174863e-001	 1.478183016800130e+001
 1.287561664803915e+000	 5.497136932092553e-001	 1.474098620072036e+001
 1.344581172810493e+000	 4.132954895833138e-001	 1.518330831788577e+001
 1.340202990707700e+000	 4.272793513320475e-001	 1.514171826856046e+001
 1.335667719704843e+000	 4.412521612679873e-001	 1.509631764346077e+001
 1.330974959675125e+000	 4.552114085117662e-001	 1.504765303466410e+001
 1.326124361342539e+000	 4.691545618201075e-001	 1.499610319507683e+001
 1.321115627114275e+000	 4.830790708065788e-001	 1.494269389904309e+001
 1.315948511880162e+000	 4.969823671970455e-001	 1.488873514804596e+001
 1.310622823777606e+000	 5.108618661188716e-001	 1.483574459726252e+001
 1.305138424920496e+000	 5.247149674228440e-001	 1.478545452527879e+001
 1.299495232090610e+000	 5.385390570367218e-001	 1.473981774774056e+001
 1.293693217390069e+000	 5.523315083492396e-001	 1.470101235348725e+001
 1.350953912539618e+000	 4.152543334518899e-001	 1.512524671606389e+001
 1.346554979726282e+000	 4.293044727253902e-001	 1.508465500660618e+001
 1.341998213478724e+000	 4.433435078052140e-001	 1.504042937494259e+001
 1.337283211773701e+000	 4.573689159114934e-001	 1.499318975861739e+001
 1.332409623679769e+000	 4.713781538039353e-001	 1.494369606910104e+001
 1.327377150193642e+000	 4.853686590083604e-001	 1.489253848399491e+001
 1.322185545043416e+000	 4.993378510781066e-001	 1.484080076285249e+001
 1.316834615457133e+000	 5.132831328893411e-001	 1.478999662635022e+001
 1.311324222895143e+000	 5.272018919692492e-001	 1.474185798985935e+001
 1.305654283744792e+000	 5.410915018559989e-001	 1.469834128370126e+001
 1.299824769975957e+000	 5.549493234893046e-001	 1.466163257588121e+001
 1.357326652268343e+000	 4.172131773203306e-001	 1.506822370038368e+001
 1.352906968744470e+000	 4.313295941186147e-001	 1.502858011338953e+001
 1.348328707252225e+000	 4.454348543423331e-001	 1.498548729010978e+001
 1.343591463871916e+000	 4.595264233111200e-001	 1.493956367755722e+001
 1.338694886016667e+000	 4.736017457876672e-001	 1.489157590862333e+001
 1.333638673272708e+000	 4.876582472100505e-001	 1.484245109045402e+001
 1.328422578206398e+000	 5.016933349590825e-001	 1.479306976539366e+001
 1.323046407136414e+000	 5.157043996597350e-001	 1.474457636220867e+001
 1.317510020869568e+000	 5.296888165155945e-001	 1.469869634769138e+001
 1.311813335398765e+000	 5.436439466752397e-001	 1.465738476440732e+001
 1.305956322561644e+000	 5.575671386293675e-001	 1.462283050967189e+001
 1.363699391996801e+000	 4.191720211886540e-001	 1.501220691685003e+001
 1.359258957762394e+000	 4.333547155117243e-001	 1.497348045042647e+001
 1.354659201025470e+000	 4.475262008793348e-001	 1.493149498256299e+001
 1.349899715969893e+000	 4.616839307106232e-001	 1.488686540638437e+001
 1.344980148353344e+000	 4.758253377712688e-001	 1.484035305059457e+001
 1.339900196351570e+000	 4.899478354116039e-001	 1.479287810326485e+001
 1.334659611369197e+000	 5.040488188399183e-001	 1.474553259118836e+001
 1.329258198815530e+000	 5.181256664299906e-001	 1.469946456233374e+001
 1.323695818843844e+000	 5.321757410618093e-001	 1.465595575514964e+001
 1.317972387052602e+000	 5.461963914943674e-001	 1.461693712871665e+001
 1.312087875147197e+000	 5.601849537693447e-001	 1.458459521891228e+001
 1.370072131725126e+000	 4.211308650568782e-001	 1.495716685524390e+001
 1.365610946780186e+000	 4.353798369047222e-001	 1.491934547009140e+001
 1.360989694798589e+000	 4.496175474162086e-001	 1.487845843175168e+001
 1.356207968067750e+000	 4.638414381099804e-001	 1.483511503515093e+001
 1.351265410689909e+000	 4.780489297547055e-001	 1.479006895709183e+001
 1.346161719430332e+000	 4.922374236129757e-001	 1.474423081364498e+001
 1.340896644531904e+000	 5.064043027205591e-001	 1.469868129352900e+001
 1.335469990494566e+000	 5.205469332000442e-001	 1.465468485315552e+001
 1.329881616818045e+000	 5.346626656078232e-001	 1.461362702674763e+001
 1.324131438706370e+000	 5.487488363133046e-001	 1.457699241035064e+001
 1.318219427732684e+000	 5.628027689091538e-001	 1.454692133612919e+001
 1.376444871453451e+000	 4.230897089250208e-001	 1.490307680096847e+001
 1.371962935797978e+000	 4.374049582976122e-001	 1.486616717180318e+001
 1.367320188571709e+000	 4.517088939529443e-001	 1.482638596239661e+001
 1.362516220165607e+000	 4.659989455091683e-001	 1.478433484426966e+001
 1.357550673026475e+000	 4.802725217379431e-001	 1.474075751510485e+001
 1.352423242509094e+000	 4.945270118141209e-001	 1.469655238785350e+001
 1.347133677694612e+000	 5.087597866009511e-001	 1.465278587701233e+001
 1.341681782173601e+000	 5.229681999698325e-001	 1.461070626842602e+001
 1.336067414792247e+000	 5.371495901535648e-001	 1.457175815439971e+001
 1.330290490360137e+000	 5.513012811319733e-001	 1.453754988202429e+001
 1.324350980318171e+000	 5.654205840487115e-001	 1.450980920819967e+001
 1.382817611181910e+000	 4.250485527931002e-001	 1.484991278707337e+001
 1.378314924815902e+000	 4.394300796903972e-001	 1.481394005820724e+001
 1.373650682344955e+000	 4.538002404895319e-001	 1.477528820375602e+001
 1.368824472263584e+000	 4.681564529081642e-001	 1.473454926580596e+001
 1.363835935363151e+000	 4.824961137209468e-001	 1.469245465622010e+001
 1.358684765587958e+000	 4.968166000149945e-001	 1.464988797549490e+001
 1.353370710857411e+000	 5.111152704810391e-001	 1.460789845072405e+001
 1.347893573852718e+000	 5.253894667392928e-001	 1.456771497974867e+001
 1.342253212766523e+000	 5.396365146989636e-001	 1.453076076390997e+001
 1.336449542013973e+000	 5.538537259502966e-001	 1.449866850688098e+001
 1.330482532903725e+000	 5.680383991879353e-001	 1.447326504192293e+001
 1.389190350910635e+000	 4.270073966611341e-001	 1.479765354645089e+001
 1.384666913834088e+000	 4.414552010830808e-001	 1.476266109135312e+001
 1.379981176118456e+000	 4.558915870259609e-001	 1.472517804874101e+001
 1.375132724361800e+000	 4.703139603069455e-001	 1.468578484450079e+001
 1.370121197700050e+000	 4.847197057036825e-001	 1.464519831853730e+001
 1.364946288667022e+000	 4.991061882155512e-001	 1.460428467133093e+001
 1.359607744020392e+000	 5.134707543607685e-001	 1.456407305229762e+001
 1.354105365531999e+000	 5.278107335083615e-001	 1.452576977779545e+001
 1.348439010740948e+000	 5.421234392439488e-001	 1.449077316186698e+001
 1.342608593667948e+000	 5.564061707681970e-001	 1.446068893776235e+001
 1.336614085489412e+000	 5.706562143267417e-001	 1.443734624297301e+001
 1.395563090639759e+000	 4.289662405291407e-001	 1.474628046419893e+001
 1.391018902852671e+000	 4.434803224756665e-001	 1.471232964886786e+001
 1.386311669892336e+000	 4.579829335622214e-001	 1.467607061288423e+001
 1.381440976460375e+000	 4.724714677054894e-001	 1.463807019853386e+001
 1.376406460037280e+000	 4.869432976861156e-001	 1.459902840824049e+001
 1.371207811746390e+000	 5.013957764157462e-001	 1.455979147668911e+001
 1.365844777183646e+000	 5.158262382400847e-001	 1.452136560820646e+001
 1.360317157211526e+000	 5.302320002769754e-001	 1.448493136804954e+001
 1.354624808715595e+000	 5.446103637884494e-001	 1.445185871140524e+001
 1.348767645322129e+000	 5.589586155855971e-001	 1.442372262875394e+001
 1.342745638075299e+000	 5.732740294650479e-001	 1.440231938081838e+001
 1.401935830369417e+000	 4.309250843971382e-001	 1.469577753014545e+001
 1.397370891871779e+000	 4.455054438681575e-001	 1.466294748012579e+001
 1.392642163666725e+000	 4.600742800983028e-001	 1.462798319316727e+001
 1.387749228559429e+000	 4.746289751037728e-001	 1.459143598003490e+001
 1.382691722374954e+000	 4.891668896682116e-001	 1.455398676083435e+001
 1.377469334826162e+000	 5.036853646155344e-001	 1.451645926048070e+001
 1.372081810347265e+000	 5.181817221189332e-001	 1.447983389363683e+001
 1.366528948891380e+000	 5.326532670450713e-001	 1.444526232862348e+001
 1.360810606690540e+000	 5.470972883323950e-001	 1.441408271485969e+001
 1.354926696976586e+000	 5.615110604024198e-001	 1.438783555313486e+001
 1.348877190661454e+000	 5.758918446027711e-001	 1.436828018246238e+001
 1.287561664803915e+000	 5.497136932092553e-001	 1.474098620072036e+001
 1.281630009803991e+000	 5.634046095780015e-001	 1.469403525795360e+001
 1.275540446084816e+000	 5.770587896032857e-001	 1.462873303198592e+001
 1.269293115465706e+000	 5.906735921467680e-001	 1.454864173192270e+001
 1.262888216967242e+000	 6.042463694103605e-001	 1.445755316644739e+001
 1.256326007244957e+000	 6.177744684438015e-001	 1.435948449275430e+001
 1.249606800976565e+000	 6.312552326740413e-001	 1.425867216896822e+001
 1.242730971201641e+000	 6.446860034548100e-001	 1.415956403058632e+001
 1.235698949612701e+000	 6.580641216346842e-001	 1.406680942083674e+001
 1.228511226796755e+000	 6.713869291419161e-001	 1.398467305528463e+001
 1.221168352426389e+000	 6.846517705842250e-001	 1.391037497485598e+001
 1.293693217390069e+000	 5.523315083492396e-001	 1.470101235348725e+001
 1.287733315001646e+000	 5.660876228175537e-001	 1.465605913420012e+001
 1.281614751910021e+000	 5.798068259986222e-001	 1.459268061490538e+001
 1.275337670609884e+000	 5.934864641766428e-001	 1.451447337252814e+001
 1.268902271069594e+000	 6.071238769443510e-001	 1.442527080874543e+001
 1.262308811166927e+000	 6.207163987177730e-001	 1.432913911105779e+001
 1.255557607078149e+000	 6.342613602728952e-001	 1.423037137130221e+001
 1.248649033619314e+000	 6.477560903026103e-001	 1.413347977864228e+001
 1.241583524538735e+000	 6.611979169922528e-001	 1.404318581363908e+001
 1.234361572759677e+000	 6.745841696119737e-001	 1.396294412852140e+001
 1.226983730572359e+000	 6.879121801241521e-001	 1.389013110778087e+001
 1.299824769975957e+000	 5.549493234893046e-001	 1.466163257588121e+001
 1.293836620199028e+000	 5.687706360572362e-001	 1.461871360350641e+001
 1.287689057734931e+000	 5.825548623941472e-001	 1.455727777824728e+001
 1.281382225753736e+000	 5.962993362067713e-001	 1.448095242636508e+001
 1.274916325171580e+000	 6.100013844786647e-001	 1.439360898256803e+001
 1.268291615088483e+000	 6.236583289921399e-001	 1.429935917830488e+001
 1.261508413179267e+000	 6.372674878722167e-001	 1.420254934078413e+001
 1.254567096036469e+000	 6.508261771509483e-001	 1.410775271615097e+001
 1.247468099464197e+000	 6.643317123504247e-001	 1.401975974003007e+001
 1.240211918721977e+000	 6.777814100826946e-001	 1.394098667739194e+001
 1.232799108717664e+000	 6.911725896647932e-001	 1.386977048907013e+001
 1.305956322561644e+000	 5.575671386293675e-001	 1.462283050967189e+001
 1.299939925396204e+000	 5.714536492969610e-001	 1.458197986969760e+001
 1.293763363559621e+000	 5.853028987897693e-001	 1.452250179135643e+001
 1.287426780897345e+000	 5.991122082370586e-001	 1.444805068606662e+001
 1.280930379273292e+000	 6.128788920132045e-001	 1.436253242027923e+001
 1.274274419009729e+000	 6.266002592668021e-001	 1.427010074642978e+001
 1.267459219280038e+000	 6.402736154719032e-001	 1.417515179721678e+001
 1.260485158453235e+000	 6.538962639997189e-001	 1.408231655292579e+001
 1.253352674389232e+000	 6.674655077090929e-001	 1.399644217184082e+001
 1.246062264683813e+000	 6.809786505539669e-001	 1.391885606592246e+001
 1.238614486862472e+000	 6.944329992060319e-001	 1.384933246533807e+001
 1.312087875147197e+000	 5.601849537693447e-001	 1.458459521891228e+001
 1.306043230593243e+000	 5.741366625366410e-001	 1.454584505463171e+001
 1.299837669384164e+000	 5.880509351853972e-001	 1.448833634735490e+001
 1.293471336040790e+000	 6.019250802674105e-001	 1.441574688196442e+001
 1.286944433374820e+000	 6.157563995478727e-001	 1.433201331223952e+001
 1.280257222930769e+000	 6.295421895416601e-001	 1.424132785026242e+001
 1.273410025380575e+000	 6.432797430718522e-001	 1.414813297105392e+001
 1.266403220869743e+000	 6.569663508488171e-001	 1.405711403833397e+001
 1.259237249313980e+000	 6.705993030681478e-001	 1.397299412445750e+001
 1.251912610645338e+000	 6.841758910256783e-001	 1.389661383568149e+001
 1.244429865006946e+000	 6.976934087477517e-001	 1.382886275805886e+001
 1.318219427732684e+000	 5.628027689091538e-001	 1.454692133612919e+001
 1.312146535790214e+000	 5.768196757761883e-001	 1.451030234522422e+001
 1.305911975208633e+000	 5.907989715809392e-001	 1.445477171045116e+001
 1.299515891184154e+000	 6.047379522977323e-001	 1.438402682912969e+001
 1.292958487476256e+000	 6.186339070825722e-001	 1.430203145302499e+001
 1.286240026851705e+000	 6.324841198166135e-001	 1.421301265237087e+001
 1.279360831480996e+000	 6.462858706719616e-001	 1.412145574631164e+001
 1.272321283286121e+000	 6.600364376981375e-001	 1.403209710172181e+001
 1.265121824238586e+000	 6.737330984274819e-001	 1.394939817544210e+001
 1.257762956606709e+000	 6.873731314977173e-001	 1.387432754829134e+001
 1.250245243151254e+000	 7.009538182898363e-001	 1.380841329616133e+001
 1.324350980318171e+000	 5.654205840487115e-001	 1.450980920819967e+001
 1.318249840987185e+000	 5.795026890155154e-001	 1.447535114026369e+001
 1.311986281033103e+000	 5.935470079763046e-001	 1.442180486315785e+001
 1.305560446327517e+000	 6.075508243279292e-001	 1.435288357445325e+001
 1.298972541577693e+000	 6.215114146172055e-001	 1.427257438782773e+001
 1.292222830772642e+000	 6.354260500915626e-001	 1.418513558823936e+001
 1.285311637581417e+000	 6.492919982721286e-001	 1.409509180398030e+001
 1.278239345702499e+000	 6.631065245475751e-001	 1.400722699351804e+001
 1.271006399163193e+000	 6.768668937869868e-001	 1.392574209023643e+001
 1.263613302568079e+000	 6.905703719699720e-001	 1.385207062899989e+001
 1.256060621295562e+000	 7.042142278321688e-001	 1.378804204989244e+001
 1.330482532903725e+000	 5.680383991879353e-001	 1.447326504192293e+001
 1.324353146184225e+000	 5.821857022545347e-001	 1.444099719702518e+001
 1.318060586857646e+000	 5.962950443714010e-001	 1.438943965342121e+001
 1.311605001470963e+000	 6.103636963579071e-001	 1.432231754376337e+001
 1.304986595679221e+000	 6.243889221516753e-001	 1.424363755903186e+001
 1.298205634693682e+000	 6.383679803664074e-001	 1.415768551177064e+001
 1.291262443681955e+000	 6.522981258722513e-001	 1.406902176592098e+001
 1.284157408119006e+000	 6.661766113970248e-001	 1.398247442699222e+001
 1.276890974087942e+000	 6.800006891465542e-001	 1.390211919201250e+001
 1.269463648529604e+000	 6.937676124423298e-001	 1.382992221127993e+001
 1.261875999440038e+000	 7.074746373746336e-001	 1.376781286590942e+001
 1.336614085489412e+000	 5.706562143267417e-001	 1.443734624297301e+001
 1.330456451381401e+000	 5.848687154931584e-001	 1.440725277768738e+001
 1.324134892682336e+000	 5.990430807661378e-001	 1.435768694166510e+001
 1.317649556614571e+000	 6.131765683875711e-001	 1.429233668897979e+001
 1.311000649780933e+000	 6.272664296858844e-001	 1.421522445295913e+001
 1.304188438614927e+000	 6.413099106410480e-001	 1.413065984110247e+001
 1.297213249782725e+000	 6.553042534722270e-001	 1.404323533923144e+001
 1.290075470535772e+000	 6.692466982463816e-001	 1.395781588922312e+001
 1.282775549012976e+000	 6.831344845060754e-001	 1.387862821636628e+001
 1.275313994491440e+000	 6.969648529146795e-001	 1.380796698242312e+001
 1.267691377584844e+000	 7.107350469171134e-001	 1.374779530356078e+001
 1.342745638075299e+000	 5.732740294650479e-001	 1.440231938081838e+001
 1.336559756578783e+000	 5.875517287312995e-001	 1.437416622193854e+001
 1.330209198507246e+000	 6.017911171604234e-001	 1.432656474775224e+001
 1.323694111758423e+000	 6.159894404168262e-001	 1.426295663530369e+001
 1.317014703882919e+000	 6.301439372197351e-001	 1.418734674677907e+001
 1.310171242536484e+000	 6.442518409153849e-001	 1.410406470472852e+001
 1.303164055883844e+000	 6.583103810719529e-001	 1.401773146106616e+001
 1.295993532952928e+000	 6.723167850955397e-001	 1.393330420624617e+001
 1.288660123938438e+000	 6.862682798654428e-001	 1.385537316679495e+001
 1.281164340453741e+000	 7.001620933869084e-001	 1.378629503009579e+001
 1.273506755730149e+000	 7.139954564594921e-001	 1.372806447231820e+001
 1.348877190661454e+000	 5.758918446027711e-001	 1.436828018246238e+001
 1.342663061776438e+000	 5.902347419688698e-001	 1.434193104095515e+001
 1.336283504332451e+000	 6.045391535541665e-001	 1.429611129483279e+001
 1.329738666902602e+000	 6.188023124455790e-001	 1.423420082844145e+001
 1.323028757985271e+000	 6.330214447531308e-001	 1.416002445557842e+001
 1.316154046458454e+000	 6.471937711893181e-001	 1.407791508791324e+001
 1.309114861985428e+000	 6.613165086713273e-001	 1.399251844389618e+001
 1.301911595370601e+000	 6.753868719443946e-001	 1.390906041423353e+001
 1.294544698864472e+000	 6.894020752245478e-001	 1.383246317093217e+001
 1.287014686416663e+000	 7.033593338589054e-001	 1.376500168982711e+001
 1.279322133876119e+000	 7.172558660016536e-001	 1.370870087032277e+001
 1.221168352426389e+000	 6.846517705842250e-001	 1.391037497485598e+001
 1.213669799278833e+000	 6.978579711401302e-001	 1.383617947542123e+001
 1.206017326610182e+000	 7.110008907379337e-001	 1.375532140179770e+001
 1.198211663301045e+000	 7.240778913527084e-001	 1.366819878889081e+001
 1.190253597587755e+000	 7.370863441835159e-001	 1.357509267576586e+001
 1.182143976989039e+000	 7.500236313001479e-001	 1.347616478829532e+001
 1.173883708178447e+000	 7.628871472931258e-001	 1.337145597022204e+001
 1.165473756802219e+000	 7.756743009248834e-001	 1.326088539418968e+001
 1.156915147242332e+000	 7.883825167800594e-001	 1.314425057869414e+001
 1.148208962324598e+000	 8.010092369127815e-001	 1.302122823094168e+001
 1.139356342971731e+000	 8.135519224888317e-001	 1.289137592931876e+001
 1.226983730572359e+000	 6.879121801241521e-001	 1.389013110778087e+001
 1.219449468243310e+000	 7.011812704937224e-001	 1.381787764806675e+001
 1.211760553406452e+000	 7.143867785522950e-001	 1.373914991301548e+001
 1.203917718413423e+000	 7.275260537122790e-001	 1.365431753616572e+001
 1.195921755254242e+000	 7.405964546539967e-001	 1.356363011127482e+001
 1.187773515483636e+000	 7.535953509802705e-001	 1.346721481979138e+001
 1.179473910092858e+000	 7.665201248742765e-001	 1.336507483079988e+001
 1.171023909326686e+000	 7.793681727585921e-001	 1.325708850614810e+001
 1.162424542445345e+000	 7.921369069533466e-001	 1.314300943769734e+001
 1.153676897431213e+000	 8.048237573313516e-001	 1.302246733748519e+001
 1.144782120640234e+000	 8.174261729680852e-001	 1.289496979510575e+001
 1.232799108717664e+000	 6.911725896647932e-001	 1.386977048907012e+001
 1.225229137207087e+000	 7.045045698480690e-001	 1.379952963271448e+001
 1.217503780201996e+000	 7.177726663674401e-001	 1.372296054804904e+001
 1.209623773525056e+000	 7.309742160726523e-001	 1.364040892318625e+001
 1.201589912919977e+000	 7.441065651252894e-001	 1.355209770920236e+001
 1.193403053977485e+000	 7.571670706612037e-001	 1.345812468401480e+001
 1.185064112006538e+000	 7.701531024562266e-001	 1.335846081263243e+001
 1.176574061850452e+000	 7.830620445930802e-001	 1.325294943769307e+001
 1.167933937647704e+000	 7.958912971273850e-001	 1.314130632825224e+001
 1.159144832537233e+000	 8.086382777506355e-001	 1.302312060844912e+001
 1.150207898308219e+000	 8.213004234480066e-001	 1.289785658099365e+001
 1.238614486862472e+000	 6.944329992060319e-001	 1.384933246533807e+001
 1.231008806170338e+000	 7.078278692030473e-001	 1.378115997676459e+001
 1.223247006996993e+000	 7.211585541832412e-001	 1.370676661119495e+001
 1.215329828636130e+000	 7.344223784336932e-001	 1.362647854696483e+001
 1.207258070585148e+000	 7.476166755972522e-001	 1.354049686927444e+001
 1.199032592470775e+000	 7.607387903427998e-001	 1.344889506192604e+001
 1.190654313919673e+000	 7.737860800388232e-001	 1.335161731920198e+001
 1.182124214373700e+000	 7.867559164281895e-001	 1.324847771303993e+001
 1.173443332849581e+000	 7.996456873020111e-001	 1.313916024453415e+001
 1.164612767642822e+000	 8.124527981704673e-001	 1.302321980226197e+001
 1.155633675975835e+000	 8.251746739284291e-001	 1.290008404305060e+001
 1.244429865006946e+000	 6.976934087477517e-001	 1.382886275805886e+001
 1.236788475133239e+000	 7.111511685585370e-001	 1.376279977488325e+001
 1.228990233791627e+000	 7.245444419995696e-001	 1.369058805910959e+001
 1.221035883746832e+000	 7.378705407952682e-001	 1.361253869625470e+001
 1.212926228249946e+000	 7.511267860697443e-001	 1.352883565825473e+001
 1.204662130963697e+000	 7.643105100249108e-001	 1.343953321439422e+001
 1.196244515832452e+000	 7.774190576219127e-001	 1.334455418602618e+001
 1.187674366896613e+000	 7.904497882637617e-001	 1.324368908152602e+001
 1.178952728051152e+000	 8.034000774770631e-001	 1.313659614161224e+001
 1.170080702748144e+000	 8.162673185906819e-001	 1.302280231844412e+001
 1.161059453643234e+000	 8.290489244091865e-001	 1.290170520481563e+001
 1.250245243151254e+000	 7.009538182898363e-001	 1.380841329616133e+001
 1.242568144095964e+000	 7.144744679144152e-001	 1.374448649246794e+001
 1.234733460586078e+000	 7.279303298162979e-001	 1.367445131694205e+001
 1.226741938857349e+000	 7.413187031572424e-001	 1.359860816212891e+001
 1.218594385914560e+000	 7.546368965426242e-001	 1.351712861673065e+001
 1.210291669456439e+000	 7.678822297073895e-001	 1.343005278692896e+001
 1.201834717745062e+000	 7.810520352053412e-001	 1.333728748505274e+001
 1.193224519419372e+000	 7.941436600996370e-001	 1.323860532336093e+001
 1.184462123252591e+000	 8.071544676523775e-001	 1.313364474421990e+001
 1.175548637853362e+000	 8.200818390111134e-001	 1.302191101103363e+001
 1.166485231310565e+000	 8.329231748901119e-001	 1.290277817698725e+001
 1.256060621295562e+000	 7.042142278321688e-001	 1.378804204989244e+001
 1.248347813058690e+000	 7.177977672705599e-001	 1.372626379057172e+001
 1.240476687380531e+000	 7.313162176332978e-001	 1.365838909606837e+001
 1.232447993967869e+000	 7.447668655194811e-001	 1.358471205025874e+001
 1.224262543579179e+000	 7.581470070157511e-001	 1.350539656765113e+001
 1.215921207949192e+000	 7.714539493900888e-001	 1.342047361617365e+001
 1.207424919657691e+000	 7.846850127889552e-001	 1.332983933078162e+001
 1.198774671942160e+000	 7.978375319356575e-001	 1.323325405702660e+001
 1.189971518454072e+000	 8.109088578277917e-001	 1.313034235705538e+001
 1.181016572958641e+000	 8.238963594315962e-001	 1.302059400338400e+001
 1.171911008977979e+000	 8.367974253710390e-001	 1.290336597828139e+001
 1.261875999440038e+000	 7.074746373746336e-001	 1.376781286590942e+001
 1.254127482021592e+000	 7.211210666268496e-001	 1.370818135223949e+001
 1.246219914175166e+000	 7.347021054504418e-001	 1.364244021337684e+001
 1.238154049078578e+000	 7.482150278818500e-001	 1.357088159483752e+001
 1.229930701243992e+000	 7.616571174889840e-001	 1.349366642656174e+001
 1.221550746442145e+000	 7.750256690728600e-001	 1.341082153810427e+001
 1.213015121570523e+000	 7.883179903726010e-001	 1.332223768805833e+001
 1.204324824465157e+000	 8.015314037716643e-001	 1.322766854827337e+001
 1.195480913655770e+000	 8.146632480031428e-001	 1.312673067656463e+001
 1.186484508064144e+000	 8.277108798519648e-001	 1.301890450428795e+001
 1.177336786645625e+000	 8.406716758518008e-001	 1.290353635742453e+001
 1.267691377584844e+000	 7.107350469171134e-001	 1.374779530356078e+001
 1.259907150984843e+000	 7.244443659831625e-001	 1.369029471021015e+001
 1.251963140970167e+000	 7.380879932676013e-001	 1.362664941205396e+001
 1.243860104189663e+000	 7.516631902442145e-001	 1.355715397409707e+001
 1.235598858909190e+000	 7.651672279621811e-001	 1.348197101348102e+001
 1.227180284935487e+000	 7.785973887555560e-001	 1.340112819787707e+001
 1.218605323483748e+000	 7.919509679561250e-001	 1.331451618148478e+001
 1.209874976988547e+000	 8.052252756074982e-001	 1.322188752066195e+001
 1.200990308857859e+000	 8.184176381782674e-001	 1.312285660415724e+001
 1.191952443170035e+000	 8.315254002720536e-001	 1.301690062538591e+001
 1.182762564313656e+000	 8.445459263322308e-001	 1.290336161624257e+001
 1.273506755730149e+000	 7.139954564594921e-001	 1.372806447231820e+001
 1.265686819948621e+000	 7.277676653393762e-001	 1.367266507594228e+001
 1.257706367765714e+000	 7.414738810846485e-001	 1.361106718382288e+001
 1.249566159301312e+000	 7.551113526064400e-001	 1.354357212736496e+001
 1.241267016574961e+000	 7.686773384352018e-001	 1.347034886636662e+001
 1.232809823429408e+000	 7.821691084380293e-001	 1.339143086127483e+001
 1.224195525397553e+000	 7.955839455393742e-001	 1.330671390639612e+001
 1.215425129512512e+000	 8.089191474430005e-001	 1.321595496760107e+001
 1.206499704060513e+000	 8.221720283530030e-001	 1.311877206081097e+001
 1.197420378276477e+000	 8.353399206916965e-001	 1.301464519981732e+001
 1.188188341982220e+000	 8.484201768121623e-001	 1.290291843381280e+001
 1.279322133876119e+000	 7.172558660016536e-001	 1.370870087032277e+001
 1.271466488913099e+000	 7.310909646953697e-001	 1.365535916991967e+001
 1.263449594561992e+000	 7.448597689014561e-001	 1.359574959258859e+001
 1.255272214413711e+000	 7.585595149683920e-001	 1.353018457361472e+001
 1.246935174241497e+000	 7.721874489079046e-001	 1.345884405612002e+001
 1.238439361924098e+000	 7.857408281201320e-001	 1.338177222769892e+001
 1.229785727312124e+000	 7.992169231221942e-001	 1.329887524135405e+001
 1.220975282037234e+000	 8.126130192780127e-001	 1.320991996583334e+001
 1.212009099263907e+000	 8.259264185271869e-001	 1.311453380301990e+001
 1.202888313383635e+000	 8.391544411107291e-001	 1.301220560207579e+001
 1.193614119651469e+000	 8.522944272914291e-001	 1.290228769164317e+001
 1.139356342971731e+000	 8.135519224888317e-001	 1.289137592931876e+001
 1.130358487479987e+000	 8.260080551452174e-001	 1.276007445069764e+001
 1.121216650107010e+000	 8.383751377728456e-001	 1.263217468822069e+001
 1.111932141541688e+000	 8.506506969278836e-001	 1.250627126132667e+001
 1.102506328664550e+000	 8.628322847048778e-001	 1.238085674102186e+001
 1.092940633930648e+000	 8.749174803231294e-001	 1.225432845507371e+001
 1.083236534698992e+000	 8.869038916952824e-001	 1.212499606695406e+001
 1.073395562509123e+000	 8.987891569760318e-001	 1.199108989183160e+001
 1.063419302305526e+000	 9.105709460888763e-001	 1.185076990608691e+001
 1.053309391610658e+000	 9.222469622288806e-001	 1.170213540022247e+001
 1.043067519647452e+000	 9.338149433394247e-001	 1.154323521871217e+001
 1.144782120640234e+000	 8.174261729680852e-001	 1.289496979510576e+001
 1.135741416075119e+000	 8.299416235077390e-001	 1.276589653825951e+001
 1.126556043966473e+000	 8.423675999496276e-001	 1.264013591202884e+001
 1.117227321244882e+000	 8.547016170710257e-001	 1.251628690057948e+001
 1.107756621300165e+000	 8.669412153092041e-001	 1.239284489505511e+001
 1.098145373361320e+000	 8.790839623553601e-001	 1.226820860868266e+001
 1.088395061822759e+000	 8.911274547306766e-001	 1.214068779021340e+001
 1.078507225517445e+000	 9.030693193424029e-001	 1.200851169826072e+001
 1.068483456937606e+000	 9.149072150178814e-001	 1.186983829205341e+001
 1.058325401403822e+000	 9.266388340144638e-001	 1.172276408730530e+001
 1.048034756183361e+000	 9.382619035032933e-001	 1.156533461936817e+001
 1.150207898308219e+000	 8.213004234480066e-001	 1.289785658099365e+001
 1.141124344669825e+000	 8.338751918708751e-001	 1.277090164776516e+001
 1.131895437825615e+000	 8.463600621269652e-001	 1.264718552323275e+001
 1.122522500947869e+000	 8.587525372146619e-001	 1.252531107715120e+001
 1.113006913935690e+000	 8.710501459139628e-001	 1.240377579278102e+001
 1.103350112792018e+000	 8.832504443879650e-001	 1.228097879488042e+001
 1.093553588946664e+000	 8.953510177663915e-001	 1.215522870171374e+001
 1.083618888526008e+000	 9.073494817090502e-001	 1.202475226288627e+001
 1.073547611570015e+000	 9.192434839471292e-001	 1.188770373754977e+001
 1.063341411197388e+000	 9.310307058002686e-001	 1.174217496048159e+001
 1.053001992719719e+000	 9.427088636673785e-001	 1.158620603679218e+001
 1.155633675975835e+000	 8.251746739284291e-001	 1.290008404305060e+001
 1.146507273264239e+000	 8.378087602344601e-001	 1.277515424900674e+001
 1.137234831684552e+000	 8.503525243046958e-001	 1.265340296565064e+001
 1.127817680650742e+000	 8.628034573586337e-001	 1.253343649537446e+001
 1.118257206571198e+000	 8.751590765190012e-001	 1.241375371077514e+001
 1.108554852222792e+000	 8.874169264207961e-001	 1.229275319850895e+001
 1.098712116070736e+000	 8.995745808022863e-001	 1.216874125395314e+001
 1.088730551534819e+000	 9.116296440758385e-001	 1.203994068772256e+001
 1.078611766202740e+000	 9.235797528764896e-001	 1.190450039758930e+001
 1.068357420991321e+000	 9.354225775861725e-001	 1.176050565208334e+001
 1.057969229256477e+000	 9.471558238315647e-001	 1.160598902508606e+001
 1.161059453643234e+000	 8.290489244091865e-001	 1.290170520481564e+001
 1.151890201858494e+000	 8.417423285983281e-001	 1.277872369938227e+001
 1.142574225543397e+000	 8.543449864826558e-001	 1.265887223091917e+001
 1.133112860353597e+000	 8.668543775027816e-001	 1.254076010751707e+001
 1.123507499206761e+000	 8.792680071241641e-001	 1.242288691331123e+001
 1.113759591653694e+000	 8.915834084537054e-001	 1.230364977117498e+001
 1.103870643195002e+000	 9.037981438382184e-001	 1.218135148413819e+001
 1.093842214543883e+000	 9.159098064426332e-001	 1.205420951580371e+001
 1.083675920835766e+000	 9.279160218058362e-001	 1.192036576229191e+001
 1.073373430785588e+000	 9.398144493720536e-001	 1.177789706074096e+001
 1.062936465793583e+000	 9.516027839957343e-001	 1.162482637219514e+001
 1.166485231310565e+000	 8.329231748901119e-001	 1.290277817698725e+001
 1.157273130452726e+000	 8.456758969623131e-001	 1.278168407035222e+001
 1.147913619402268e+000	 8.583374486606824e-001	 1.266368169115407e+001
 1.138408040056528e+000	 8.709052976469462e-001	 1.254738295209176e+001
 1.128757791842452e+000	 8.833769377292983e-001	 1.243128749577348e+001
 1.118964331084774e+000	 8.957498904865452e-001	 1.231379007922689e+001
 1.109029170319491e+000	 9.080217068740475e-001	 1.219318886619774e+001
 1.098953877553206e+000	 9.201899688092993e-001	 1.206769458671643e+001
 1.088740075469078e+000	 9.322522907350391e-001	 1.193544051542877e+001
 1.078389440580155e+000	 9.442063211577895e-001	 1.179449321243941e+001
 1.067903702330989e+000	 9.560497441597712e-001	 1.164286396298629e+001
 1.171911008977979e+000	 8.367974253710390e-001	 1.290336597828139e+001
 1.162656059047067e+000	 8.496094653262503e-001	 1.278411397485689e+001
 1.153253013261278e+000	 8.623299108386122e-001	 1.266792393238360e+001
 1.143703219759631e+000	 8.749562177909689e-001	 1.255340999276983e+001
 1.134008084478345e+000	 8.874858683342495e-001	 1.243907122852353e+001
 1.124169070516083e+000	 8.999163725191670e-001	 1.232329915205967e+001
 1.114187697444231e+000	 9.122452699096308e-001	 1.220438616301738e+001
 1.104065540562796e+000	 9.244701311757015e-001	 1.208053489226381e+001
 1.093804230102663e+000	 9.365885596639706e-001	 1.194986839302417e+001
 1.083405450374990e+000	 9.485981929432582e-001	 1.181044112157851e+001
 1.072870938868645e+000	 9.604967043235582e-001	 1.166025064229665e+001
 1.177336786645625e+000	 8.406716758518008e-001	 1.290353635742453e+001
 1.168038987641652e+000	 8.535430336899728e-001	 1.278609639566591e+001
 1.158592407120543e+000	 8.663223730162815e-001	 1.267169558873059e+001
 1.148998399463000e+000	 8.790071379346902e-001	 1.255894995788096e+001
 1.139258377114512e+000	 8.915947989388634e-001	 1.244635740121229e+001
 1.129373809947671e+000	 9.040828545514228e-001	 1.233230533073805e+001
 1.119346224569249e+000	 9.164688329448273e-001	 1.221507927888413e+001
 1.109177203572658e+000	 9.287502935417051e-001	 1.209287243225237e+001
 1.098868384736506e+000	 9.409248285925020e-001	 1.196379604201394e+001
 1.088421460170060e+000	 9.529900647283366e-001	 1.182589065204011e+001
 1.077838175406501e+000	 9.649436644869789e-001	 1.167713807795624e+001
 1.182762564313656e+000	 8.445459263322308e-001	 1.290336161624257e+001
 1.173421916236615e+000	 8.574766020533158e-001	 1.278771851462860e+001
 1.163931800980180e+000	 8.703148351935284e-001	 1.267509717731908e+001
 1.154293579166728e+000	 8.830580580779516e-001	 1.256411518047978e+001
 1.144508669751025e+000	 8.957037295429865e-001	 1.245326866751738e+001
 1.134578549379588e+000	 9.082493365831645e-001	 1.234094011692645e+001
 1.124504751694574e+000	 9.206923959794957e-001	 1.222540711213798e+001
 1.114288866582798e+000	 9.330304559071755e-001	 1.210485207040102e+001
 1.103932539370592e+000	 9.452610975205055e-001	 1.197737287895810e+001
 1.093437469965330e+000	 9.573819365129036e-001	 1.184099437825952e+001
 1.082805411944507e+000	 9.693906246499160e-001	 1.169368062378203e+001
 1.188188341982220e+000	 8.484201768121623e-001	 1.290291843381280e+001
 1.178804844832091e+000	 8.614101704161132e-001	 1.278907154279644e+001
 1.169271194840301e+000	 8.743072973701889e-001	 1.267823293388275e+001
 1.159588758870912e+000	 8.871089782205932e-001	 1.256902143896125e+001
 1.149758962387959e+000	 8.998126601464643e-001	 1.245993089029577e+001
 1.139783288811885e+000	 9.124158186142443e-001	 1.234933802211648e+001
 1.129663278820234e+000	 9.249159590134939e-001	 1.223551140802036e+001
 1.119400529593223e+000	 9.373106182719772e-001	 1.211662139036659e+001
 1.108996694004907e+000	 9.495973664478518e-001	 1.199075094880655e+001
 1.098453479760768e+000	 9.617738082968365e-001	 1.185590744630316e+001
 1.087772648482614e+000	 9.738375848122531e-001	 1.171003518254822e+001
 1.193614119651469e+000	 8.522944272914291e-001	 1.290228769164317e+001
 1.184187773428212e+000	 8.653437387781996e-001	 1.279025055139112e+001
 1.174610588701024e+000	 8.782997595461004e-001	 1.268121064905175e+001
 1.164883938575646e+000	 8.911598983624565e-001	 1.257378779820729e+001
 1.155009255025385e+000	 9.039215907491438e-001	 1.246647298713734e+001
 1.144988028244612e+000	 9.165823006445137e-001	 1.235763641714300e+001
 1.134821805946257e+000	 9.291395220466800e-001	 1.224553661171649e+001
 1.124512192603938e+000	 9.415907806359750e-001	 1.212833055188309e+001
 1.114060848639436e+000	 9.539336353744131e-001	 1.200408478371495e+001
 1.103469489556340e+000	 9.661656800800127e-001	 1.187078743494959e+001
 1.092739885020771e+000	 9.782845449738733e-001	 1.172636106892961e+001
 1.043067519647452e+000	 9.338149433394247e-001	 1.154323521871217e+001
 1.032696991978341e+000	 9.452709535141213e-001	 1.138071178375559e+001
 1.022198072001155e+000	 9.566145495030239e-001	 1.122150276580732e+001
 1.011572598348012e+000	 9.678435839347662e-001	 1.106414461771018e+001
 1.000822457308639e+000	 9.789559497897831e-001	 1.090718497636818e+001
 9.899495817162132e-001	 9.899495817162133e-001	 1.074919336820676e+001
 9.789559497897830e-001	 1.000822457308639e+000	 1.058877201654005e+001
 9.678435839347661e-001	 1.011572598348011e+000	 1.042456666614548e+001
 9.566145495030243e-001	 1.022198072001155e+000	 1.025527733832838e+001
 9.452709535141209e-001	 1.032696991978341e+000	 1.007966892843532e+001
 9.338149433394248e-001	 1.043067519647452e+000	 9.896581557168792e+000
 1.048034756183361e+000	 9.382619035032933e-001	 1.156533461936817e+001
 1.037614842580221e+000	 9.497724688346354e-001	 1.140431237969075e+001
 1.027065925246561e+000	 9.611700846477366e-001	 1.124673783089301e+001
 1.016389851570314e+000	 9.724525933451523e-001	 1.109111732154031e+001
 1.005588516823978e+000	 9.836178778734041e-001	 1.093596867135084e+001
 9.946638630451422e-001	 9.946638630451422e-001	 1.077983221306953e+001
 9.836178778734039e-001	 1.005588516823978e+000	 1.062128194483976e+001
 9.724525933451519e-001	 1.016389851570314e+000	 1.045893670578832e+001
 9.611700846477363e-001	 1.027065925246561e+000	 1.029147128542291e+001
 9.497724688346353e-001	 1.037614842580221e+000	 1.011762737604605e+001
 9.382619035032931e-001	 1.048034756183361e+000	 9.936224276725490e+000
 1.053001992719719e+000	 9.427088636673785e-001	 1.158620603679218e+001
 1.042532693182573e+000	 9.542739841553807e-001	 1.142667648086092e+001
 1.031933778492439e+000	 9.657256197927074e-001	 1.127072764436753e+001
 1.021207104793070e+000	 9.770616027558350e-001	 1.111683518519743e+001
 1.010354576339740e+000	 9.882798059573643e-001	 1.096348648879089e+001
 9.993781443744535e-001	 9.993781443744535e-001	 1.080919205541537e+001
 9.882798059573644e-001	 1.010354576339740e+000	 1.065249700694546e+001
 9.770616027558350e-001	 1.021207104793070e+000	 1.049199262321789e+001
 9.657256197927076e-001	 1.031933778492439e+000	 1.032632781581300e+001
 9.542739841553805e-001	 1.042532693182573e+000	 1.015422044563814e+001
 9.427088636673786e-001	 1.053001992719719e+000	 9.974468389970989e+000
 1.057969229256477e+000	 9.471558238315647e-001	 1.160598902508606e+001
 1.047450543785332e+000	 9.587754994762444e-001	 1.144794473177481e+001
 1.036801631738713e+000	 9.702811549378291e-001	 1.129361381553731e+001
 1.026024358016198e+000	 9.816706121667101e-001	 1.114144064735691e+001
 1.015120635855834e+000	 9.929417340415637e-001	 1.098988154987065e+001
 1.004092425704052e+000	 1.004092425704052e+000	 1.083741653919329e+001
 9.929417340415642e-001	 1.015120635855834e+000	 1.068256119569253e+001
 9.816706121667098e-001	 1.026024358016198e+000	 1.052387857106750e+001
 9.702811549378294e-001	 1.036801631738713e+000	 1.035999103676766e+001
 9.587754994762442e-001	 1.047450543785332e+000	 1.018959197722623e+001
 9.471558238315647e-001	 1.057969229256477e+000	 1.001145723061069e+001
 1.062936465793583e+000	 9.516027839957343e-001	 1.162482637219514e+001
 1.052368394388436e+000	 9.632770147971145e-001	 1.146826100068057e+001
 1.041669484985311e+000	 9.748366900829936e-001	 1.131554117595489e+001
 1.030841611239612e+000	 9.862796215776729e-001	 1.116507937561636e+001
 1.019886695372170e+000	 9.976036621259025e-001	 1.101530021905273e+001
 1.008806707033843e+000	 1.008806707033843e+000	 1.086465257314464e+001
 9.976036621259025e-001	 1.019886695372170e+000	 1.071162179680806e+001
 9.862796215776728e-001	 1.030841611239612e+000	 1.055474202894726e+001
 9.748366900829935e-001	 1.041669484985311e+000	 1.039260842196848e+001
 9.632770147971146e-001	 1.052368394388437e+000	 1.022388922135977e+001
 9.516027839957345e-001	 1.062936465793583e+000	 1.004733759100451e+001
 1.067903702330989e+000	 9.560497441597712e-001	 1.164286396298629e+001
 1.057286244991822e+000	 9.677785301178790e-001	 1.148777224449310e+001
 1.046537338232156e+000	 9.793922252280916e-001	 1.133665764633328e+001
 1.035658864463231e+000	 9.908886309886190e-001	 1.118790013553035e+001
 1.024652754888659e+000	 1.002265590210279e+000	 1.103989197536762e+001
 1.013520988363730e+000	 1.013520988363730e+000	 1.089105020447320e+001
 1.002265590210279e+000	 1.024652754888659e+000	 1.073982926509069e+001
 9.908886309886190e-001	 1.035658864463231e+000	 1.058473368225550e+001
 9.793922252280914e-001	 1.046537338232156e+000	 1.042433069307221e+001
 9.677785301178788e-001	 1.057286244991822e+000	 1.025726272355278e+001
 9.560497441597713e-001	 1.067903702330989e+000	 1.008225960957518e+001
 1.072870938868645e+000	 9.604967043235582e-001	 1.166025064229665e+001
 1.062204095595425e+000	 9.722800454384258e-001	 1.150662837366846e+001
 1.051405191479176e+000	 9.839477603730165e-001	 1.135711410338199e+001
 1.040476117686970e+000	 9.954976403994443e-001	 1.121005465954448e+001
 1.029418814405209e+000	 1.006927518294594e+000	 1.106380928357766e+001
 1.018235269693616e+000	 1.018235269693616e+000	 1.091676249236963e+001
 1.006927518294594e+000	 1.029418814405210e+000	 1.076733710042152e+001
 9.954976403994444e-001	 1.040476117686970e+000	 1.061400730080162e+001
 9.839477603730163e-001	 1.051405191479176e+000	 1.045531170106473e+001
 9.722800454384258e-001	 1.062204095595425e+000	 1.028986620848451e+001
 9.604967043235583e-001	 1.072870938868645e+000	 1.011637665796554e+001
 1.077838175406501e+000	 9.649436644869789e-001	 1.167713807795624e+001
 1.067121946199183e+000	 9.767815607586421e-001	 1.152498211702653e+001
 1.056273044726295e+000	 9.885032955176587e-001	 1.137706424656905e+001
 1.045293370910748e+000	 1.000106649810044e+000	 1.123169751583080e+001
 1.034184873921732e+000	 1.011589446378747e+000	 1.108720746522175e+001
 1.022949551023407e+000	 1.022949551023407e+000	 1.094194538139463e+001
 1.011589446378747e+000	 1.034184873921732e+000	 1.079430172361458e+001
 1.000106649810044e+000	 1.045293370910748e+000	 1.064271961724581e+001
 9.885032955176586e-001	 1.056273044726295e+000	 1.048570830741129e+001
 9.767815607586423e-001	 1.067121946199183e+000	 1.032185646397555e+001
 9.649436644869790e-001	 1.077838175406501e+000	 1.014984522795274e+001
 1.082805411944507e+000	 9.693906246499160e-001	 1.169368062378203e+001
 1.072039796803032e+000	 9.812830760784168e-001	 1.154298888652386e+001
 1.061140897973439e+000	 9.930588306619105e-001	 1.139666446480961e+001
 1.050110624134479e+000	 1.004715659220315e+000	 1.125298597703022e+001
 1.038950933438136e+000	 1.016251374462636e+000	 1.111024456954307e+001
 1.027663832353006e+000	 1.027663832353006e+000	 1.096675757472529e+001
 1.016251374462637e+000	 1.038950933438136e+000	 1.082088235210808e+001
 1.004715659220314e+000	 1.050110624134479e+000	 1.067103020536142e+001
 9.930588306619106e-001	 1.061140897973439e+000	 1.051568026500950e+001
 9.812830760784168e-001	 1.072039796803032e+000	 1.035339322474802e+001
 9.693906246499159e-001	 1.082805411944507e+000	 1.018282481812764e+001
 1.087772648482614e+000	 9.738375848122531e-001	 1.171003518254822e+001
 1.076957647406907e+000	 9.857845913976362e-001	 1.156080664197825e+001
 1.066008751220533e+000	 9.976143658056642e-001	 1.141607370308495e+001
 1.054927877358083e+000	 1.009324668630150e+000	 1.127407988890262e+001
 1.043716992954331e+000	 1.020913302546162e+000	 1.113308124430596e+001
 1.032378113682318e+000	 1.032378113682317e+000	 1.099136040726873e+001
 1.020913302546162e+000	 1.043716992954331e+000	 1.084724087550477e+001
 1.009324668630150e+000	 1.054927877358083e+000	 1.069910135812674e+001
 9.976143658056641e-001	 1.066008751220533e+000	 1.054539009895247e+001
 9.857845913976369e-001	 1.076957647406908e+000	 1.038463905597763e+001
 9.738375848122530e-001	 1.087772648482613e+000	 1.021547782034610e+001
 1.092739885020771e+000	 9.782845449738733e-001	 1.172636106892961e+001
 1.081875498010749e+000	 9.902861067161902e-001	 1.157859575574679e+001
 1.070876604467505e+000	 1.002169900948811e+000	 1.143545332899362e+001
 1.059745130581474e+000	 1.013933678039448e+000	 1.129514153888864e+001
 1.048483052470228e+000	 1.025575230629225e+000	 1.115588060650307e+001
 1.037092395011246e+000	 1.037092395011246e+000	 1.101591771864853e+001
 1.025575230629225e+000	 1.048483052470228e+000	 1.087354173096554e+001
 1.013933678039448e+000	 1.059745130581474e+000	 1.072709796564905e+001
 1.002169900948811e+000	 1.070876604467505e+000	 1.057500298710760e+001
 9.902861067161898e-001	 1.081875498010748e+000	 1.041575923664143e+001
 9.782845449738733e-001	 1.092739885020771e+000	 1.024796940596011e+001
 9.338149433394248e-001	 1.043067519647452e+000	 9.896581557168792e+000
 9.222469622288808e-001	 1.053309391610658e+000	 9.711945428049530e+000
 9.105709460888766e-001	 1.063419302305526e+000	 9.531234524825747e+000
 8.987891569760318e-001	 1.073395562509123e+000	 9.352651641646096e+000
 8.869038916952824e-001	 1.083236534698992e+000	 9.174499093376168e+000
 8.749174803231293e-001	 1.092940633930648e+000	 8.995187924415253e+000
 8.628322847048777e-001	 1.102506328664550e+000	 8.813246378036901e+000
 8.506506969278835e-001	 1.111932141541688e+000	 8.627327550899461e+000
 8.383751377728452e-001	 1.121216650107010e+000	 8.436216162456834e+000
 8.260080551452174e-001	 1.130358487479987e+000	 8.238834374702238e+000
 8.135519224888317e-001	 1.139356342971731e+000	 8.034246603947421e+000
 9.382619035032931e-001	 1.048034756183361e+000	 9.936224276725490e+000
 9.266388340144641e-001	 1.058325401403822e+000	 9.753127124097013e+000
 9.149072150178818e-001	 1.068483456937606e+000	 9.573754233917377e+000
 9.030693193424028e-001	 1.078507225517445e+000	 9.396306518014034e+000
 8.911274547306765e-001	 1.088395061822759e+000	 9.219087463768018e+000
 8.790839623553599e-001	 1.098145373361320e+000	 9.040512634335062e+000
 8.669412153092042e-001	 1.107756621300166e+000	 8.859118411633466e+000
 8.547016170710254e-001	 1.117227321244882e+000	 8.673569904179898e+000
 8.423675999496273e-001	 1.126556043966473e+000	 8.482667947058753e+000
 8.299416235077390e-001	 1.135741416075119e+000	 8.285355127152974e+000
 8.174261729680850e-001	 1.144782120640234e+000	 8.080720773192418e+000
 9.427088636673786e-001	 1.053001992719719e+000	 9.974468389970989e+000
 9.310307058002686e-001	 1.063341411197388e+000	 9.792869147716232e+000
 9.192434839471291e-001	 1.073547611570015e+000	 9.614785757065304e+000
 9.073494817090499e-001	 1.083618888526008e+000	 9.438421242057057e+000
 8.953510177663914e-001	 1.093553588946664e+000	 9.262084447217919e+000
 8.832504443879650e-001	 1.103350112792018e+000	 9.084199830511841e+000
 8.710501459139629e-001	 1.113006913935690e+000	 8.903316480822214e+000
 8.587525372146621e-001	 1.122522500947869e+000	 8.718116279433243e+000
 8.463600621269652e-001	 1.131895437825615e+000	 8.527421130296238e+000
 8.338751918708751e-001	 1.141124344669825e+000	 8.330199189859465e+000
 8.213004234480067e-001	 1.150207898308220e+000	 8.125570033821475e+000
 9.471558238315647e-001	 1.057969229256477e+000	 1.001145723061069e+001
 9.354225775861725e-001	 1.068357420991321e+000	 9.831314757828839e+000
 9.235797528764902e-001	 1.078611766202740e+000	 9.654473339881658e+000
 9.116296440758384e-001	 1.088730551534819e+000	 9.479142028262372e+000
 8.995745808022859e-001	 1.098712116070736e+000	 9.303639129291589e+000
 8.874169264207962e-001	 1.108554852222792e+000	 9.126402291416001e+000
 8.751590765190013e-001	 1.118257206571198e+000	 8.945997798332812e+000
 8.628034573586336e-001	 1.127817680650742e+000	 8.761128984727190e+000
 8.503525243046958e-001	 1.137234831684552e+000	 8.570643696869457e+000
 8.378087602344598e-001	 1.146507273264239e+000	 8.373540726438984e+000
 8.251746739284291e-001	 1.155633675975835e+000	 8.168975152702277e+000
 9.516027839957345e-001	 1.062936465793583e+000	 1.004733759100451e+001
 9.398144493720535e-001	 1.073373430785587e+000	 9.868610710562699e+000
 9.279160218058367e-001	 1.083675920835766e+000	 9.692964741330641e+000
 9.159098064426330e-001	 1.093842214543882e+000	 9.518618598627029e+000
 9.037981438382182e-001	 1.103870643195002e+000	 9.343904075660751e+000
 8.915834084537055e-001	 1.113759591653694e+000	 9.167276227101301e+000
 8.792680071241643e-001	 1.123507499206761e+000	 8.987322939290140e+000
 8.668543775027814e-001	 1.133112860353597e+000	 8.802773601148813e+000
 8.543449864826556e-001	 1.142574225543397e+000	 8.612506795430043e+000
 8.417423285983280e-001	 1.151890201858494e+000	 8.415556936222451e+000
 8.290489244091865e-001	 1.161059453643234e+000	 8.211119785551370e+000
 9.560497441597713e-001	 1.067903702330989e+000	 1.008225960957518e+001
 9.442063211577898e-001	 1.078389440580155e+000	 9.904907150043201e+000
 9.322522907350391e-001	 1.088740075469078e+000	 9.730411128585915e+000
 9.201899688092993e-001	 1.098953877553206e+000	 9.557004082230513e+000
 9.080217068740473e-001	 1.109029170319491e+000	 9.383035237007773e+000
 8.957498904865454e-001	 1.118964331084774e+000	 9.206981190022338e+000
 8.833769377292984e-001	 1.128757791842452e+000	 9.027455758496380e+000
 8.709052976469461e-001	 1.138408040056528e+000	 8.843218907064712e+000
 8.583374486606820e-001	 1.147913619402268e+000	 8.653184670298803e+000
 8.456758969623133e-001	 1.157273130452726e+000	 8.456427993870024e+000
 8.329231748901119e-001	 1.166485231310565e+000	 8.252190424857327e+000
 9.604967043235583e-001	 1.072870938868645e+000	 1.011637665796554e+001
 9.485981929432580e-001	 1.083405450374991e+000	 9.940357498906160e+000
 9.365885596639709e-001	 1.093804230102663e+000	 9.766966971564175e+000
 9.244701311757015e-001	 1.104065540562796e+000	 9.594454914422729e+000
 9.122452699096307e-001	 1.114187697444231e+000	 9.421191853471735e+000
 8.999163725191670e-001	 1.124169070516083e+000	 9.245679985307165e+000
 8.874858683342496e-001	 1.134008084478345e+000	 9.066563307066076e+000
 8.749562177909694e-001	 1.143703219759631e+000	 8.882636801619952e+000
 8.623299108386117e-001	 1.153253013261278e+000	 8.692854592295651e+000
 8.496094653262503e-001	 1.162656059047067e+000	 8.496336987966940e+000
 8.367974253710389e-001	 1.171911008977979e+000	 8.292376346637669e+000
 9.649436644869790e-001	 1.077838175406501e+000	 1.014984522795274e+001
 9.529900647283366e-001	 1.088421460170060e+000	 9.975118348539565e+000
 9.409248285925023e-001	 1.098868384736506e+000	 9.802789937144906e+000
 9.287502935417051e-001	 1.109177203572658e+000	 9.631130735642355e+000
 9.164688329448273e-001	 1.119346224569249e+000	 9.458536358650422e+000
 9.040828545514228e-001	 1.129373809947671e+000	 9.283538580503061e+000
 8.915947989388634e-001	 1.139258377114511e+000	 9.104815748435472e+000
 8.790071379346903e-001	 1.148998399462999e+000	 8.921202227502315e+000
 8.663223730162815e-001	 1.158592407120544e+000	 8.731696788714805e+000
 8.535430336899729e-001	 1.168038987641652e+000	 8.535469858629716e+000
 8.406716758518007e-001	 1.177336786645626e+000	 8.331869556066824e+000
 9.693906246499159e-001	 1.082805411944507e+000	 1.018282481812763e+001
 9.573819365129036e-001	 1.093437469965330e+000	 1.000934934906346e+001
 9.452610975205054e-001	 1.103932539370591e+000	 9.838040783086703e+000
 9.330304559071753e-001	 1.114288866582798e+000	 9.667194289874775e+000
 9.206923959794955e-001	 1.124504751694574e+000	 9.495234283176762e+000
 9.082493365831647e-001	 1.134578549379588e+000	 9.320726014808781e+000
 8.957037295429865e-001	 1.144508669751025e+000	 9.142386273766265e+000
 8.830580580779516e-001	 1.154293579166728e+000	 8.959093092993694e+000
 8.703148351935284e-001	 1.163931800980180e+000	 8.769894372470096e+000
 8.574766020533160e-001	 1.173421916236616e+000	 8.574015334158633e+000
 8.445459263322307e-001	 1.182762564313656e+000	 8.370864732010512e+000
 9.738375848122530e-001	 1.087772648482613e+000	 1.021547782034610e+001
 9.617738082968365e-001	 1.098453479760768e+000	 1.004321309905750e+001
 9.495973664478518e-001	 1.108996694004906e+000	 9.872883251651324e+000
 9.373106182719767e-001	 1.119400529593222e+000	 9.702811322762601e+000
 9.249159590134939e-001	 1.129663278820234e+000	 9.531454157876388e+000
 9.124158186142443e-001	 1.139783288811884e+000	 9.357414307814764e+000
 8.998126601464644e-001	 1.149758962387959e+000	 9.179451016762380e+000
 8.871089782205931e-001	 1.159588758870912e+000	 8.996490193333578e+000
 8.743072973701890e-001	 1.169271194840301e+000	 8.807633270438116e+000
 8.614101704161131e-001	 1.178804844832091e+000	 8.612164866762457e+000
 8.484201768121625e-001	 1.188188341982220e+000	 8.409559170502678e+000
 9.782845449738733e-001	 1.092739885020771e+000	 1.024796940596011e+001
 9.661656800800127e-001	 1.103469489556340e+000	 1.007687503504143e+001
 9.539336353744131e-001	 1.114060848639436e+000	 9.907483962941264e+000
 9.415907806359750e-001	 1.124512192603938e+000	 9.738150479380558e+000
 9.291395220466797e-001	 1.134821805946257e+000	 9.567367416527286e+000
 9.165823006445141e-001	 1.144988028244612e+000	 9.393778367761737e+000
 9.039215907491438e-001	 1.155009255025385e+000	 9.216188967919660e+000
 8.911598983624566e-001	 1.164883938575646e+000	 9.033577131413260e+000
 8.782997595461003e-001	 1.174610588701024e+000	 8.845102151024065e+000
 8.653437387781996e-001	 1.184187773428212e+000	 8.650112567387200e+000
 8.522944272914295e-001	 1.193614119651469e+000	 8.448152727198629e+000
 8.135519224888317e-001	 1.139356342971731e+000	 8.034246603947421e+000
 8.010092369127815e-001	 1.148208962324598e+000	 7.825583706150471e+000
 7.883825167800594e-001	 1.156915147242333e+000	 7.617177634638074e+000
 7.756743009248837e-001	 1.165473756802219e+000	 7.410141504958308e+000
 7.628871472931256e-001	 1.173883708178447e+000	 7.205769827075269e+000
 7.500236313001479e-001	 1.182143976989039e+000	 7.005534226645390e+000
 7.370863441835159e-001	 1.190253597587755e+000	 6.811077941127746e+000
 7.240778913527087e-001	 1.198211663301045e+000	 6.624209095124560e+000
 7.110008907379337e-001	 1.206017326610182e+000	 6.446892768008997e+000
 6.978579711401304e-001	 1.213669799278833e+000	 6.281241875543269e+000
 6.846517705842252e-001	 1.221168352426390e+000	 6.129506895742193e+000
 8.174261729680850e-001	 1.144782120640234e+000	 8.080720773192418e+000
 8.048237573313514e-001	 1.153676897431212e+000	 7.872133579808691e+000
 7.921369069533464e-001	 1.162424542445345e+000	 7.664087393254881e+000
 7.793681727585916e-001	 1.171023909326686e+000	 7.457612613572182e+000
 7.665201248742765e-001	 1.179473910092858e+000	 7.253925014678232e+000
 7.535953509802706e-001	 1.187773515483636e+000	 7.054421689617737e+000
 7.405964546539967e-001	 1.195921755254242e+000	 6.860675734240592e+000
 7.275260537122790e-001	 1.203917718413423e+000	 6.674429672650326e+000
 7.143867785522949e-001	 1.211760553406453e+000	 6.497587636688527e+000
 7.011812704937224e-001	 1.219449468243310e+000	 6.332206320635643e+000
 6.879121801241522e-001	 1.226983730572359e+000	 6.180484741120748e+000
 8.213004234480067e-001	 1.150207898308220e+000	 8.125570033821475e+000
 8.086382777506354e-001	 1.159144832537233e+000	 7.917134539296912e+000
 7.958912971273850e-001	 1.167933937647703e+000	 7.709535951701343e+000
 7.830620445930799e-001	 1.176574061850452e+000	 7.503717102541743e+000
 7.701531024562266e-001	 1.185064112006538e+000	 7.300810094622926e+000
 7.571670706612037e-001	 1.193403053977485e+000	 7.102132488822969e+000
 7.441065651252894e-001	 1.201589912919977e+000	 6.909182192278047e+000
 7.309742160726525e-001	 1.209623773525056e+000	 6.723631050200241e+000
 7.177726663674400e-001	 1.217503780201996e+000	 6.547317152749970e+000
 7.045045698480690e-001	 1.225229137207087e+000	 6.382235877563243e+000
 6.911725896647931e-001	 1.232799108717664e+000	 6.230529697620193e+000
 8.251746739284291e-001	 1.155633675975835e+000	 8.168975152702277e+000
 8.124527981704675e-001	 1.164612767642822e+000	 7.960772704454360e+000
 7.996456873020114e-001	 1.173443332849581e+000	 7.753711959758662e+000
 7.867559164281894e-001	 1.182124214373700e+000	 7.548643407625246e+000
 7.737860800388232e-001	 1.190654313919673e+000	 7.346610628165166e+000
 7.607387903427997e-001	 1.199032592470775e+000	 7.148846738494664e+000
 7.476166755972523e-001	 1.207258070585149e+000	 6.956769502399828e+000
 7.344223784336936e-001	 1.215329828636131e+000	 6.771975104812739e+000
 7.211585541832408e-001	 1.223247006996993e+000	 6.596230601602206e+000
 7.078278692030474e-001	 1.231008806170338e+000	 6.431465064654548e+000
 6.944329992060320e-001	 1.238614486862471e+000	 6.279759451585385e+000
 8.290489244091865e-001	 1.161059453643234e+000	 8.211119785551370e+000
 8.162673185906820e-001	 1.170080702748144e+000	 8.003236948924643e+000
 8.034000774770631e-001	 1.178952728051152e+000	 7.796806726387341e+000
 7.904497882637616e-001	 1.187674366896613e+000	 7.592582567348594e+000
 7.774190576219128e-001	 1.196244515832452e+000	 7.391514758910972e+000
 7.643105100249108e-001	 1.204662130963697e+000	 7.194747148568321e+000
 7.511267860697443e-001	 1.212926228249947e+000	 7.003612492373856e+000
 7.378705407952680e-001	 1.221035883746832e+000	 6.819626428376208e+000
 7.245444419995694e-001	 1.228990233791626e+000	 6.644480084873509e+000
 7.111511685585371e-001	 1.236788475133239e+000	 6.480031342767775e+000
 6.976934087477518e-001	 1.244429865006946e+000	 6.328294780965118e+000
 8.329231748901119e-001	 1.166485231310565e+000	 8.252190424857327e+000
 8.200818390111133e-001	 1.175548637853362e+000	 8.044718856061197e+000
 8.071544676523778e-001	 1.184462123252591e+000	 7.839014182606634e+000
 7.941436600996371e-001	 1.193224519419372e+000	 7.635728191873143e+000
 7.810520352053411e-001	 1.201834717745062e+000	 7.435713186720993e+000
 7.678822297073895e-001	 1.210291669456439e+000	 7.240019002709718e+000
 7.546368965426239e-001	 1.218594385914559e+000	 7.049888611832523e+000
 7.413187031572424e-001	 1.226741938857349e+000	 6.866752311257965e+000
 7.279303298162979e-001	 1.234733460586078e+000	 6.692220505595937e+000
 7.144744679144153e-001	 1.242568144095964e+000	 6.528075101238143e+000
 7.009538182898363e-001	 1.250245243151254e+000	 6.376259541271614e+000
 8.367974253710389e-001	 1.171911008977979e+000	 8.292376346637669e+000
 8.238963594315963e-001	 1.181016572958641e+000	 8.085412673533106e+000
 8.109088578277918e-001	 1.189971518454072e+000	 7.880530842963306e+000
 7.978375319356579e-001	 1.198774671942160e+000	 7.678276430377725e+000
 7.846850127889553e-001	 1.207424919657691e+000	 7.479399140081234e+000
 7.714539493900886e-001	 1.215921207949192e+000	 7.284850134771434e+000
 7.581470070157512e-001	 1.224262543579179e+000	 7.095777911959233e+000
 7.447668655194814e-001	 1.232447993967869e+000	 6.913522724388185e+000
 7.313162176332976e-001	 1.240476687380530e+000	 6.739609551883180e+000
 7.177977672705600e-001	 1.248347813058690e+000	 6.575739642386522e+000
 7.042142278321688e-001	 1.256060621295562e+000	 6.423780650190246e+000
 8.406716758518007e-001	 1.177336786645626e+000	 8.331869556066824e+000
 8.277108798519649e-001	 1.186484508064144e+000	 8.125515266668961e+000
 8.146632480031427e-001	 1.195480913655770e+000	 7.921555765639367e+000
 8.015314037716642e-001	 1.204324824465157e+000	 7.720425936999342e+000
 7.883179903726010e-001	 1.213015121570523e+000	 7.522768346978495e+000
 7.750256690728599e-001	 1.221550746442145e+000	 7.329430903738610e+000
 7.616571174889841e-001	 1.229930701243992e+000	 7.141463023659332e+000
 7.482150278818498e-001	 1.238154049078578e+000	 6.960110299847282e+000
 7.347021054504418e-001	 1.246219914175166e+000	 6.786807679158472e+000
 7.211210666268496e-001	 1.254127482021592e+000	 6.623171164642232e+000
 7.074746373746335e-001	 1.261875999440038e+000	 6.470988070879622e+000
 8.445459263322307e-001	 1.182762564313656e+000	 8.370864732010512e+000
 8.315254002720534e-001	 1.191952443170034e+000	 8.165226070580513e+000
 8.184176381782676e-001	 1.200990308857859e+000	 7.962290511236321e+000
 8.052252756074980e-001	 1.209874976988547e+000	 7.762377835380357e+000
 7.919509679561250e-001	 1.218605323483748e+000	 7.566019004334527e+000
 7.785973887555560e-001	 1.227180284935487e+000	 7.373954167203777e+000
 7.651672279621811e-001	 1.235598858909190e+000	 7.187129134260036e+000
 7.516631902442146e-001	 1.243860104189664e+000	 7.006690310003814e+000
 7.380879932676014e-001	 1.251963140970167e+000	 6.833978090973250e+000
 7.244443659831625e-001	 1.259907150984843e+000	 6.670518744316473e+000
 7.107350469171134e-001	 1.267691377584844e+000	 6.518014794009085e+000
 8.484201768121625e-001	 1.188188341982220e+000	 8.409559170502678e+000
 8.353399206916966e-001	 1.197420378276476e+000	 8.204747041106314e+000
 8.221720283530033e-001	 1.206499704060513e+000	 8.002939100284374e+000
 8.089191474430003e-001	 1.215425129512512e+000	 7.804335681865449e+000
 7.955839455393743e-001	 1.224195525397553e+000	 7.609351746045141e+000
 7.821691084380293e-001	 1.232809823429408e+000	 7.418615253422555e+000
 7.686773384352019e-001	 1.241267016574962e+000	 7.232963962790570e+000
 7.551113526064400e-001	 1.249566159301312e+000	 7.053440645251987e+000
 7.414738810846488e-001	 1.257706367765715e+000	 6.881286718465728e+000
 7.277676653393762e-001	 1.265686819948620e+000	 6.717934316075056e+000
 7.139954564594923e-001	 1.273506755730149e+000	 6.564996818569880e+000
 8.522944272914295e-001	 1.193614119651469e+000	 8.448152727198629e+000
 8.391544411107291e-001	 1.202888313383635e+000	 8.244282604610824e+000
 8.259264185271869e-001	 1.212009099263907e+000	 8.043707969513163e+000
 8.126130192780124e-001	 1.220975282037234e+000	 7.846505427393383e+000
 7.992169231221942e-001	 1.229785727312124e+000	 7.652969609663985e+000
 7.857408281201320e-001	 1.238439361924098e+000	 7.463611931994353e+000
 7.721874489079046e-001	 1.246935174241497e+000	 7.279157733882814e+000
 7.585595149683921e-001	 1.255272214413711e+000	 7.100541790389881e+000
 7.448597689014560e-001	 1.263449594561992e+000	 6.928902198499145e+000
 7.310909646953698e-001	 1.271466488913099e+000	 6.765572652149496e+000
 7.172558660016536e-001	 1.279322133876119e+000	 6.612073131500917e+000
 6.846517705842252e-001	 1.221168352426390e+000	 6.129506895742193e+000
 6.713869291419162e-001	 1.228511226796755e+000	 5.975292896151188e+000
 6.580641216346844e-001	 1.235698949612701e+000	 5.802061298588852e+000
 6.446860034548100e-001	 1.242730971201640e+000	 5.610909658982338e+000
 6.312552326740415e-001	 1.249606800976566e+000	 5.407380319624140e+000
 6.177744684438016e-001	 1.256326007244957e+000	 5.197179731972478e+000
 6.042463694103604e-001	 1.262888216967242e+000	 4.985784067138147e+000
 5.906735921467679e-001	 1.269293115465707e+000	 4.778411607433557e+000
 5.770587896032855e-001	 1.275540446084816e+000	 4.579998283931741e+000
 5.634046095780015e-001	 1.281630009803991e+000	 4.395176430239340e+000
 5.497136932092552e-001	 1.287561664803915e+000	 4.228256798030480e+000
 6.879121801241522e-001	 1.226983730572359e+000	 6.180484741120752e+000
 6.745841696119737e-001	 1.234361572759676e+000	 6.025938388202530e+000
 6.611979169922529e-001	 1.241583524538735e+000	 5.852695865475663e+000
 6.477560903026101e-001	 1.248649033619314e+000	 5.661529991861015e+000
 6.342613602728952e-001	 1.255557607078149e+000	 5.457460352340053e+000
 6.207163987177733e-001	 1.262308811166927e+000	 5.246351068216552e+000
 6.071238769443510e-001	 1.268902271069594e+000	 5.033826600182941e+000
 5.934864641766425e-001	 1.275337670609884e+000	 4.825243291183035e+000
 5.798068259986223e-001	 1.281614751910021e+000	 4.625664156997229e+000
 5.660876228175538e-001	 1.287733315001646e+000	 4.439836996706235e+000
 5.523315083492395e-001	 1.293693217390069e+000	 4.272175869794729e+000
 6.911725896647931e-001	 1.232799108717664e+000	 6.230529697620193e+000
 6.777814100826947e-001	 1.240211918721977e+000	 6.075633140767748e+000
 6.643317123504249e-001	 1.247468099464197e+000	 5.902093067740255e+000
 6.508261771509482e-001	 1.254567096036469e+000	 5.711015338916419e+000
 6.372674878722168e-001	 1.261508413179268e+000	 5.506519146025299e+000
 6.236583289921400e-001	 1.268291615088482e+000	 5.294629290042435e+000
 6.100013844786650e-001	 1.274916325171581e+000	 5.081121271149623e+000
 5.962993362067712e-001	 1.281382225753736e+000	 4.871491963080394e+000
 5.825548623941472e-001	 1.287689057734931e+000	 4.670933639386491e+000
 5.687706360572362e-001	 1.293836620199028e+000	 4.484311425772430e+000
 5.549493234893047e-001	 1.299824769975957e+000	 4.316144226507632e+000
 6.944329992060320e-001	 1.238614486862471e+000	 6.279759451585385e+000
 6.809786505539669e-001	 1.246062264683812e+000	 6.124477199331728e+000
 6.674655077090929e-001	 1.253352674389232e+000	 5.950320113341412e+000
 6.538962639997187e-001	 1.260485158453236e+000	 5.759399050218184e+000
 6.402736154719031e-001	 1.267459219280037e+000	 5.554566907741105e+000
 6.266002592668025e-001	 1.274274419009730e+000	 5.342003096036496e+000
 6.128788920132045e-001	 1.280930379273291e+000	 5.127636987346032e+000
 5.991122082370584e-001	 1.287426780897344e+000	 4.917108530267171e+000
 5.853028987897692e-001	 1.293763363559621e+000	 4.715741494055971e+000
 5.714536492969611e-001	 1.299939925396203e+000	 4.528520247765032e+000
 5.575671386293674e-001	 1.305956322561644e+000	 4.360070123498120e+000
 6.976934087477518e-001	 1.244429865006946e+000	 6.328294780965118e+000
 6.841758910256786e-001	 1.251912610645338e+000	 6.172573849372259e+000
 6.705993030681478e-001	 1.259237249313980e+000	 5.997655894138636e+000
 6.569663508488168e-001	 1.266403220869743e+000	 5.806720856810116e+000
 6.432797430718523e-001	 1.273410025380575e+000	 5.601619705691491e+000
 6.295421895416602e-001	 1.280257222930769e+000	 5.388466527273716e+000
 6.157563995478725e-001	 1.286944433374819e+000	 5.173347482722567e+000
 6.019250802674104e-001	 1.293471336040790e+000	 4.962048215019220e+000
 5.880509351853972e-001	 1.299837669384164e+000	 4.760026293349566e+000
 5.741366625366411e-001	 1.306043230593243e+000	 4.572387303723217e+000
 5.601849537693447e-001	 1.312087875147197e+000	 4.403864636406893e+000
 7.009538182898363e-001	 1.250245243151254e+000	 6.376259541271614e+000
 6.873731314977174e-001	 1.257762956606708e+000	 6.220029602110986e+000
 6.737330984274820e-001	 1.265121824238586e+000	 6.044274883237008e+000
 6.600364376981373e-001	 1.272321283286121e+000	 5.853027055983586e+000
 6.462858706719616e-001	 1.279360831480996e+000	 5.647699644943407e+000
 6.324841198166136e-001	 1.286240026851705e+000	 5.434019133923506e+000
 6.186339070825723e-001	 1.292958487476257e+000	 5.218231475811201e+000
 6.047379522977322e-001	 1.299515891184154e+000	 5.006270704476337e+000
 5.907989715809392e-001	 1.305911975208633e+000	 4.803730560985430e+000
 5.768196757761884e-001	 1.312146535790214e+000	 4.615839880124350e+000
 5.628027689091538e-001	 1.318219427732684e+000	 4.447441789137326e+000
 7.042142278321688e-001	 1.256060621295562e+000	 6.423780650190246e+000
 6.905703719699718e-001	 1.263613302568079e+000	 6.266954179004102e+000
 6.768668937869867e-001	 1.271006399163192e+000	 6.090269917991373e+000
 6.631065245475751e-001	 1.278239345702499e+000	 5.898370695448359e+000
 6.492919982721289e-001	 1.285311637581418e+000	 5.692835042107380e+000
 6.354260500915626e-001	 1.292222830772642e+000	 5.478666140865647e+000
 6.215114146172055e-001	 1.298972541577693e+000	 5.262272826719348e+000
 6.075508243279292e-001	 1.305560446327517e+000	 5.049740299465781e+000
 5.935470079763043e-001	 1.311986281033102e+000	 4.846800913171637e+000
 5.795026890155153e-001	 1.318249840987185e+000	 4.658808842758289e+000
 5.654205840487115e-001	 1.324350980318171e+000	 4.490718680962924e+000
 7.074746373746335e-001	 1.261875999440038e+000	 6.470988070879622e+000
 6.937676124423302e-001	 1.269463648529605e+000	 6.313460495014206e+000
 6.800006891465539e-001	 1.276890974087941e+000	 6.135737155291284e+000
 6.661766113970249e-001	 1.284157408119007e+000	 5.942811756433429e+000
 6.522981258722511e-001	 1.291262443681955e+000	 5.737060599009720e+000
 6.383679803664075e-001	 1.298205634693681e+000	 5.522418612355763e+000
 6.243889221516753e-001	 1.304986595679221e+000	 5.305460693217751e+000
 6.103636963579070e-001	 1.311605001470963e+000	 5.092426062455247e+000
 5.962950443714009e-001	 1.318060586857646e+000	 4.889188198875522e+000
 5.821857022545347e-001	 1.324353146184225e+000	 4.701228769772282e+000
 5.680383991879352e-001	 1.330482532903724e+000	 4.533615612820163e+000
 7.107350469171134e-001	 1.267691377584844e+000	 6.518014794009085e+000
 6.969648529146796e-001	 1.275313994491440e+000	 6.359664640701775e+000
 6.831344845060754e-001	 1.282775549012977e+000	 6.180776053962383e+000
 6.692466982463814e-001	 1.290075470535772e+000	 5.986515460305907e+000
 6.553042534722271e-001	 1.297213249782725e+000	 5.780417575390771e+000
 6.413099106410484e-001	 1.304188438614928e+000	 5.565293615766370e+000
 6.272664296858843e-001	 1.311000649780932e+000	 5.347789685946985e+000
 6.131765683875708e-001	 1.317649556614571e+000	 5.134301964658803e+000
 5.990430807661377e-001	 1.324134892682336e+000	 4.930847639271700e+000
 5.848687154931586e-001	 1.330456451381401e+000	 4.743038083918014e+000
 5.706562143267417e-001	 1.336614085489412e+000	 4.576309212752936e+000
 7.139954564594923e-001	 1.273506755730149e+000	 6.564996818569879e+000
 7.001620933869085e-001	 1.281164340453741e+000	 6.405685863174199e+000
 6.862682798654428e-001	 1.288660123938439e+000	 6.225489356101365e+000
 6.723167850955396e-001	 1.295993532952928e+000	 6.029744581702540e+000
 6.583103810719532e-001	 1.303164055883844e+000	 5.822953960658295e+000
 6.442518409153852e-001	 1.310171242536484e+000	 5.607314384431701e+000
 6.301439372197351e-001	 1.317014703882919e+000	 5.389260022771848e+000
 6.159894404168262e-001	 1.323694111758423e+000	 5.175347032325516e+000
 6.017911171604232e-001	 1.330209198507246e+000	 4.971738966401564e+000
 5.875517287312996e-001	 1.336559756578783e+000	 4.784535609972786e+000
 5.732740294650478e-001	 1.342745638075299e+000	 4.620175656819305e+000
 7.172558660016536e-001	 1.279322133876119e+000	 6.612073131500917e+000
 7.033593338589055e-001	 1.287014686416663e+000	 6.451646545928145e+000
 6.894020752245480e-001	 1.294544698864472e+000	 6.269983067373447e+000
 6.753868719443947e-001	 1.301911595370602e+000	 6.072593025674099e+000
 6.613165086713274e-001	 1.309114861985427e+000	 5.864724644728658e+000
 6.471937711893183e-001	 1.316154046458454e+000	 5.648510479631170e+000
 6.330214447531305e-001	 1.323028757985271e+000	 5.429877682311178e+000
 6.188023124455789e-001	 1.329738666902602e+000	 5.215545492234131e+000
 6.045391535541663e-001	 1.336283504332451e+000	 5.012215095263413e+000
 5.902347419688699e-001	 1.342663061776438e+000	 4.827687119673732e+000
 5.758918446027709e-001	 1.348877190661454e+000	 4.665699147802910e+000
 5.497136932092552e-001	 1.287561664803915e+000	 4.228256798030490e+000
 5.359866122174862e-001	 1.293336180436153e+000	 4.071986790765847e+000
 5.222280428764503e-001	 1.298952626945552e+000	 3.917563469259743e+000
 5.084405993483899e-001	 1.304411032097752e+000	 3.766372542332413e+000
 4.946268833159535e-001	 1.309711478716544e+000	 3.619428366460256e+000
 4.807894826047505e-001	 1.314854104034503e+000	 3.477376826139585e+000
 4.669309698362182e-001	 1.319839099004865e+000	 3.340501194931366e+000
 4.530539011119615e-001	 1.324666707576071e+000	 3.208730861041104e+000
 4.391608147306637e-001	 1.329337225930455e+000	 3.081652784307377e+000
 4.252542299385832e-001	 1.333851001688592e+000	 2.958502051278860e+000
 4.113366457145843e-001	 1.338208433080836e+000	 2.836198344981233e+000
 5.523315083492395e-001	 1.293693217390069e+000	 4.272175869794729e+000
 5.385390570367218e-001	 1.299495232090610e+000	 4.115285941241821e+000
 5.247149674228443e-001	 1.305138424920496e+000	 3.960248637445327e+000
 5.108618661188715e-001	 1.310622823777607e+000	 3.808574633803189e+000
 4.969823671970454e-001	 1.315948511880163e+000	 3.661391626647921e+000
 4.830790708065787e-001	 1.321115627114275e+000	 3.519447093616511e+000
 4.691545618201076e-001	 1.326124361342539e+000	 3.383114131603536e+000
 4.552114085117663e-001	 1.330974959675125e+000	 3.252400253055139e+000
 4.412521612679873e-001	 1.335667719704843e+000	 3.126588702072121e+000
 4.272793513320475e-001	 1.340202990707701e+000	 3.002488186391318e+000
 4.132954895833138e-001	 1.344581172810493e+000	 2.877926594261648e+000
 5.549493234893047e-001	 1.299824769975957e+000	 4.316144226507636e+000
 5.410915018559988e-001	 1.305654283744792e+000	 4.158908590452930e+000
 5.272018919692492e-001	 1.311324222895143e+000	 4.003586306905904e+000
 5.132831328893409e-001	 1.316834615457133e+000	 3.851817657345683e+000
 4.993378510781066e-001	 1.322185545043417e+000	 3.704847880910968e+000
 4.853686590083604e-001	 1.327377150193642e+000	 3.563529808826683e+000
 4.713781538039354e-001	 1.332409623679769e+000	 3.428329675974271e+000
 4.573689159114936e-001	 1.337283211773700e+000	 3.298469552762123e+000
 4.433435078052139e-001	 1.341998213478724e+000	 3.171389298100295e+000
 4.293044727253903e-001	 1.346554979726283e+000	 3.045432198082871e+000
 4.152543334518897e-001	 1.350953912539617e+000	 2.918823872586404e+000
 5.575671386293674e-001	 1.305956322561644e+000	 4.360070123498119e+000
 5.436439466752399e-001	 1.311813335398765e+000	 4.202752443445148e+000
 5.296888165155946e-001	 1.317510020869568e+000	 4.047465078703977e+000
 5.157043996597350e-001	 1.323046407136414e+000	 3.895982515219203e+000
 5.016933349590823e-001	 1.328422578206398e+000	 3.749671687937838e+000
 4.876582472100503e-001	 1.333638673272707e+000	 3.609490678597149e+000
 4.736017457876673e-001	 1.338694886016667e+000	 3.474759823771597e+000
 4.595264233111201e-001	 1.343591463871916e+000	 3.343784535639864e+000
 4.454348543423330e-001	 1.348328707252225e+000	 3.215222263969375e+000
 4.313295941186147e-001	 1.352906968744470e+000	 3.087551514029385e+000
 4.172131773203306e-001	 1.357326652268342e+000	 2.959095827629552e+000
 5.601849537693447e-001	 1.312087875147197e+000	 4.403864636406893e+000
 5.461963914943675e-001	 1.317972387052602e+000	 4.246717549473567e+000
 5.321757410618095e-001	 1.323695818843844e+000	 4.091775443089275e+000
 5.181256664299905e-001	 1.329258198815531e+000	 3.940951566864581e+000
 5.040488188399180e-001	 1.334659611369196e+000	 3.795698622037721e+000
 4.899478354116040e-001	 1.339900196351570e+000	 3.655838796164812e+000
 4.758253377712690e-001	 1.344980148353344e+000	 3.520376970271537e+000
 4.616839307106233e-001	 1.349899715969893e+000	 3.388281962688716e+000
 4.475262008793347e-001	 1.354659201025471e+000	 3.258316904393955e+000
 4.333547155117242e-001	 1.359258957762394e+000	 3.129063997119072e+000
 4.191720211886539e-001	 1.363699391996801e+000	 2.998948589376257e+000
 5.628027689091538e-001	 1.318219427732684e+000	 4.447441789137326e+000
 5.487488363133045e-001	 1.324131438706370e+000	 4.290706423551943e+000
 5.346626656078232e-001	 1.329881616818045e+000	 4.136409894894187e+000
 5.205469332000440e-001	 1.335469990494566e+000	 3.986560630377727e+000
 5.064043027205591e-001	 1.340896644531904e+000	 3.841773615389411e+000
 4.922374236129757e-001	 1.346161719430332e+000	 3.701614612911508e+000
 4.780489297547056e-001	 1.351265410689909e+000	 3.565397459303436e+000
 4.638414381099803e-001	 1.356207968067750e+000	 3.432202655369864e+000
 4.496175474162085e-001	 1.360989694798590e+000	 3.300902894076348e+000
 4.353798369047222e-001	 1.365610946780186e+000	 3.170187933250542e+000
 4.211308650568782e-001	 1.370072131725126e+000	 3.038588760697992e+000
 5.654205840487115e-001	 1.324350980318171e+000	 4.490718680962924e+000
 5.513012811319733e-001	 1.330290490360137e+000	 4.334624167163503e+000
 5.371495901535648e-001	 1.336067414792247e+000	 4.181271384852478e+000
 5.229681999698324e-001	 1.341681782173601e+000	 4.032242507519978e+000
 5.087597866009510e-001	 1.347133677694612e+000	 3.887614508839438e+000
 4.945270118141210e-001	 1.352423242509094e+000	 3.747080898987900e+000
 4.802725217379431e-001	 1.357550673026475e+000	 3.610073299675010e+000
 4.659989455091683e-001	 1.362516220165607e+000	 3.475787728236222e+000
 4.517088939529443e-001	 1.367320188571709e+000	 3.343210261585857e+000
 4.374049582976120e-001	 1.371962935797978e+000	 3.211142018346811e+000
 4.230897089250207e-001	 1.376444871453451e+000	 3.078223407163404e+000
 5.680383991879352e-001	 1.330482532903724e+000	 4.533615612820163e+000
 5.538537259502967e-001	 1.336449542013974e+000	 4.378499550901311e+000
 5.396365146989636e-001	 1.342253212766523e+000	 4.226457479395542e+000
 5.253894667392928e-001	 1.347893573852719e+000	 4.078086281930295e+000
 5.111152704810392e-001	 1.353370710857411e+000	 3.933494804066597e+000
 4.968166000149945e-001	 1.358684765587958e+000	 3.792500549946770e+000
 4.824961137209469e-001	 1.363835935363151e+000	 3.654656702737672e+000
 4.681564529081643e-001	 1.368824472263584e+000	 3.519278568584484e+000
 4.538002404895318e-001	 1.373650682344955e+000	 3.385469372466501e+000
 4.394300796903970e-001	 1.378314924815902e+000	 3.252145344615474e+000
 4.250485527931001e-001	 1.382817611181910e+000	 3.118060046113948e+000
 5.706562143267417e-001	 1.336614085489412e+000	 4.576309212752936e+000
 5.564061707681970e-001	 1.342608593667948e+000	 4.423086563427209e+000
 5.421234392439489e-001	 1.348439010740948e+000	 4.272255196520546e+000
 5.278107335083614e-001	 1.354105365531999e+000	 4.124375958221299e+000
 5.134707543607684e-001	 1.359607744020392e+000	 3.979688010075449e+000
 4.991061882155511e-001	 1.364946288667022e+000	 3.838136557887947e+000
 4.847197057036826e-001	 1.370121197700050e+000	 3.699400057532496e+000
 4.703139603069457e-001	 1.375132724361800e+000	 3.562916815346584e+000
 4.558915870259609e-001	 1.379981176118456e+000	 3.427910911599478e+000
 4.414552010830806e-001	 1.384666913834088e+000	 3.293417386073125e+000
 4.270073966611341e-001	 1.389190350910635e+000	 3.158306635021784e+000
 5.732740294650478e-001	 1.342745638075299e+000	 4.620175656819305e+000
 5.589586155855971e-001	 1.348767645322129e+000	 4.468784793780200e+000
 5.446103637884494e-001	 1.354624808715595e+000	 4.318958842525651e+000
 5.302320002769753e-001	 1.360317157211525e+000	 4.171395411968121e+000
 5.158262382400847e-001	 1.365844777183646e+000	 4.026467609369507e+000
 5.013957764157462e-001	 1.371207811746390e+000	 3.884251981859105e+000
 4.869432976861156e-001	 1.376406460037280e+000	 3.744555905193532e+000
 4.724714677054895e-001	 1.381440976460375e+000	 3.606944337247897e+000
 4.579829335622211e-001	 1.386311669892337e+000	 3.470765864841729e+000
 4.434803224756664e-001	 1.391018902852671e+000	 3.335177983363607e+000
 4.289662405291407e-001	 1.395563090639759e+000	 3.199171559160191e+000
 5.758918446027709e-001	 1.348877190661454e+000	 4.665699147802910e+000
 5.615110604024198e-001	 1.354926696976587e+000	 4.515898676081808e+000
 5.470972883323950e-001	 1.360810606690540e+000	 4.366862438769178e+000
 5.326532670450713e-001	 1.366528948891380e+000	 4.219428350737156e+000
 5.181817221189331e-001	 1.372081810347265e+000	 4.074107023403333e+000
 5.036853646155343e-001	 1.377469334826162e+000	 3.931109917533981e+000
 4.891668896682118e-001	 1.382691722374954e+000	 3.790376912636393e+000
 4.746289751037728e-001	 1.387749228559429e+000	 3.651603210260008e+000
 4.600742800983026e-001	 1.392642163666725e+000	 3.514265499965604e+000
 4.455054438681574e-001	 1.397370891871780e+000	 3.377647327887988e+000
 4.309250843971381e-001	 1.401935830369417e+000	 3.240863618601179e+000
 4.113366457145843e-001	 1.338208433080836e+000	 2.836198344981233e+000
 3.974105393917957e-001	 1.342409967753466e+000	 2.713598481984578e+000
 3.834783649380568e-001	 1.346456100879377e+000	 2.592545442826075e+000
 3.695425524810588e-001	 1.350347375248399e+000	 2.473807647686714e+000
 3.556055074431778e-001	 1.354084380660318e+000	 2.358082681007223e+000
 3.416696095105594e-001	 1.357667752958321e+000	 2.246012214618762e+000
 3.277372116407853e-001	 1.361098173039149e+000	 2.138196307309070e+000
 3.138106391095596e-001	 1.364376365841549e+000	 2.035207080754010e+000
 2.998921885967779e-001	 1.367503099314640e+000	 1.937601776276765e+000
 2.859841273122783e-001	 1.370479183367836e+000	 1.845935200918160e+000
 2.720886921614973e-001	 1.373305468803879e+000	 1.760771574838484e+000
 4.132954895833138e-001	 1.344581172810493e+000	 2.877926594261648e+000
 3.993030651523370e-001	 1.348802715791266e+000	 2.753086195859505e+000
 3.853045436931127e-001	 1.352868117181002e+000	 2.630025548311459e+000
 3.713023669059576e-001	 1.356777922354374e+000	 2.509526813891753e+000
 3.572989516682235e-001	 1.360532723919882e+000	 2.392298769176193e+000
 3.432966889984714e-001	 1.364133160748689e+000	 2.278991846015585e+000
 3.292979430594139e-001	 1.367579916980069e+000	 2.170212531715855e+000
 3.153050502000596e-001	 1.370873721005026e+000	 2.066537129683809e+000
 3.013203180374323e-001	 1.374015344429769e+000	 1.968524886405603e+000
 2.873460245781569e-001	 1.377005601020615e+000	 1.876730494736246e+000
 2.733844173801429e-001	 1.379845345631952e+000	 1.791715987062277e+000
 4.152543334518897e-001	 1.350953912539617e+000	 2.918823872586404e+000
 4.011955909126853e-001	 1.355195463828543e+000	 2.792001805265870e+000
 3.871307224479303e-001	 1.359280133482124e+000	 2.667220528236955e+000
 3.730621813305708e-001	 1.363208469459882e+000	 2.545264073397810e+000
 3.589923958929374e-001	 1.366981067179019e+000	 2.426840619132225e+000
 3.449237684860103e-001	 1.370598568538679e+000	 2.312597665105429e+000
 3.308586744776357e-001	 1.374061660920658e+000	 2.203136547908010e+000
 3.167994612901309e-001	 1.377371076168225e+000	 2.099026300166650e+000
 3.027484474776503e-001	 1.380527589544668e+000	 2.000816860436777e+000
 2.887079218436093e-001	 1.383532018673209e+000	 1.909051645392090e+000
 2.746801425983933e-001	 1.386385222459879e+000	 1.824279499459878e+000
 4.172131773203306e-001	 1.357326652268342e+000	 2.959095827629552e+000
 4.030881166728740e-001	 1.361588211865426e+000	 2.830538558893451e+000
 3.889569012025585e-001	 1.365692149782872e+000	 2.704310436308205e+000
 3.748219957549624e-001	 1.369639016565036e+000	 2.581185669157637e+000
 3.606858401173979e-001	 1.373429410437834e+000	 2.461860229251160e+000
 3.465508479732667e-001	 1.377063976328380e+000	 2.346967175233008e+000
 3.324194058955513e-001	 1.380543404860995e+000	 2.237091298245589e+000
 3.182938723798802e-001	 1.383868431331206e+000	 2.132783092947608e+000
 3.041765769175411e-001	 1.387039834659384e+000	 2.034572062705639e+000
 2.900698191087421e-001	 1.390058436325648e+000	 1.942979372044863e+000
 2.759758678163474e-001	 1.392925099287674e+000	 1.858529863141566e+000
 4.191720211886539e-001	 1.363699391996801e+000	 2.998948589376257e+000
 4.049806424329367e-001	 1.367980959902048e+000	 2.868890238511380e+000
 3.907830799570471e-001	 1.372104166083367e+000	 2.741475917465456e+000
 3.765818101791976e-001	 1.376069563669956e+000	 2.617458498061500e+000
 3.623792843416839e-001	 1.379877753696433e+000	 2.497510316332548e+000
 3.481779274603316e-001	 1.383529384117886e+000	 2.382238661756230e+000
 3.339801373132610e-001	 1.387025148801159e+000	 2.272200567188057e+000
 3.197882834694139e-001	 1.390365786494034e+000	 2.167916904932188e+000
 3.056047063572133e-001	 1.393552079773962e+000	 2.069885799298389e+000
 2.914317163736617e-001	 1.396584853977964e+000	 1.978595370350087e+000
 2.772715930341038e-001	 1.399464976115353e+000	 1.894535827320809e+000
 4.211308650568782e-001	 1.370072131725126e+000	 3.038588760697992e+000
 4.068731681929064e-001	 1.374373707938537e+000	 2.907251151827490e+000
 3.926092587114450e-001	 1.378516182383736e+000	 2.778898202454798e+000
 3.783416246033405e-001	 1.382500110774756e+000	 2.654250106716460e+000
 3.640727285658739e-001	 1.386326096954921e+000	 2.533944312160718e+000
 3.498050069472954e-001	 1.389994791907289e+000	 2.418551189029290e+000
 3.355408687308650e-001	 1.393506892741225e+000	 2.308588978421445e+000
 3.212826945588388e-001	 1.396863141656769e+000	 2.204538026248949e+000
 3.070328357967758e-001	 1.400064324888450e+000	 2.106854314908017e+000
 2.927936136384748e-001	 1.403111271630186e+000	 2.015982309049334e+000
 2.785673182517615e-001	 1.406004852942930e+000	 1.932367135647577e+000
 4.230897089250207e-001	 1.376444871453451e+000	 3.078223407163404e+000
 4.087656939528173e-001	 1.380766455975027e+000	 2.945816124612957e+000
 3.944354374658013e-001	 1.384928198684105e+000	 2.816759101701839e+000
 3.801014390274559e-001	 1.388930657879554e+000	 2.691728686578064e+000
 3.657661727900466e-001	 1.392774440213404e+000	 2.571316359470834e+000
 3.514320864342495e-001	 1.396460199696681e+000	 2.456044596856760e+000
 3.371016001484642e-001	 1.399988636681272e+000	 2.346381991517884e+000
 3.227771056482616e-001	 1.403360496819475e+000	 2.242757636902462e+000
 3.084609652363379e-001	 1.406576570002893e+000	 2.145574789351826e+000
 2.941555109032878e-001	 1.409637689282346e+000	 2.055223826281735e+000
 2.798630434694192e-001	 1.412544729770422e+000	 1.972094522316091e+000
 4.250485527931001e-001	 1.382817611181910e+000	 3.118060046113948e+000
 4.106582197127024e-001	 1.387159204011648e+000	 2.984780492116670e+000
 3.962616162201657e-001	 1.391340214984599e+000	 2.855240998514648e+000
 3.818612534516080e-001	 1.395361204984467e+000	 2.730063068457034e+000
 3.674596170142805e-001	 1.399222783471986e+000	 2.609781307344400e+000
 3.530591659212842e-001	 1.402925607486154e+000	 2.494859496431392e+000
 3.386623315661588e-001	 1.406470380621379e+000	 2.385705898138803e+000
 3.242715167377889e-001	 1.409857851982213e+000	 2.282687803038854e+000
 3.098890946760083e-001	 1.413088815117338e+000	 2.186145333753695e+000
 2.955174081682073e-001	 1.416164106934472e+000	 2.096404525618576e+000
 2.811587686871757e-001	 1.419084606597842e+000	 2.013789707955489e+000
 4.270073966611341e-001	 1.389190350910635e+000	 3.158306635021784e+000
 4.125507454725953e-001	 1.393551952048531e+000	 3.024340089793041e+000
 3.980877949745868e-001	 1.397752231285342e+000	 2.894526841634931e+000
 3.836210678758616e-001	 1.401791752089610e+000	 2.769422716418537e+000
 3.691530612386543e-001	 1.405671126730774e+000	 2.649494706049384e+000
 3.546862454084905e-001	 1.409391015275801e+000	 2.535137265772297e+000
 3.402230629840488e-001	 1.412952124561623e+000	 2.426687817799419e+000
 3.257659278275275e-001	 1.416355207145046e+000	 2.324441472828954e+000
 3.113172241158959e-001	 1.419601060231833e+000	 2.228664986411151e+000
 2.968793054333397e-001	 1.422690524586597e+000	 2.139609971839839e+000
 2.824544939051298e-001	 1.425624483425207e+000	 2.057525395308076e+000
 4.289662405291407e-001	 1.395563090639759e+000	 3.199171559160191e+000
 4.144432712325297e-001	 1.399944700085807e+000	 3.064691243362232e+000
 3.999139737291143e-001	 1.404164247586460e+000	 2.934800137158657e+000
 3.853808823002809e-001	 1.408222299195100e+000	 2.809977721095804e+000
 3.708465054632466e-001	 1.412119469989872e+000	 2.690612801343755e+000
 3.563133248959594e-001	 1.415856423065714e+000	 2.577020044682272e+000
 3.417837944022349e-001	 1.419433868502080e+000	 2.469455693208897e+000
 3.272603389175837e-001	 1.422852562308036e+000	 2.368132471984632e+000
 3.127453535561096e-001	 1.426113305346421e+000	 2.273233708348188e+000
 2.982412026987918e-001	 1.429216942238750e+000	 2.184926686450647e+000
 2.837502191233803e-001	 1.432164360252531e+000	 2.103375264704019e+000
 4.309250843971381e-001	 1.401935830369417e+000	 3.240863618601179e+000
 4.163357969925388e-001	 1.406337448123606e+000	 3.106030758225723e+000
 4.017401524837977e-001	 1.410576263888079e+000	 2.976244939846038e+000
 3.871406967249308e-001	 1.414652846301055e+000	 2.851898792434086e+000
 3.725399496881360e-001	 1.418567813249386e+000	 2.733292528258131e+000
 3.579404043837813e-001	 1.422321830855985e+000	 2.620650729238153e+000
 3.433445258208177e-001	 1.425915612442830e+000	 2.514138285197879e+000
 3.287547500080646e-001	 1.429349917471246e+000	 2.413875498921100e+000
 3.141734829967585e-001	 1.432625550461151e+000	 2.319952378571638e+000
 2.996030999646699e-001	 1.435743359890963e+000	 2.232442142955597e+000
 2.850459443420262e-001	 1.438704237079830e+000	 2.151413969338861e+000
 2.720886921614973e-001	 1.373305468803879e+000	 1.760771574838484e+000
 2.582101691847495e-001	 1.375982455966176e+000	 1.681959378450035e+000
 2.443486435126754e-001	 1.378511509869538e+000	 1.608565984137190e+000
 2.305062524757509e-001	 1.380893598158766e+000	 1.540075199845376e+000
 2.166851002555811e-001	 1.383129724925904e+000	 1.476033937944850e+000
 2.028872572520457e-001	 1.385220929583866e+000	 1.416062958098190e+000
 1.891147594902251e-001	 1.387168285732491e+000	 1.359867069044004e+000
 1.753696080669008e-001	 1.388972900018493e+000	 1.307244811671473e+000
 1.616537686363682e-001	 1.390635910990750e+000	 1.258097645961881e+000
 1.479691709352418e-001	 1.392158487952350e+000	 1.212438664241191e+000
 1.343177083458908e-001	 1.393541829810749e+000	 1.170400852756249e+000
 2.733844173801429e-001	 1.379845345631952e+000	 1.791715987062277e+000
 2.594398028944461e-001	 1.382535080989893e+000	 1.713285794405135e+000
 2.455122666571000e-001	 1.385076178609633e+000	 1.640444783996460e+000
 2.316039561768371e-001	 1.387469610744021e+000	 1.572644571084691e+000
 2.177169856556604e-001	 1.389716386266716e+000	 1.509399028774667e+000
 2.038534353529740e-001	 1.391817549540453e+000	 1.450295067198681e+000
 1.900153509896849e-001	 1.393774179277689e+000	 1.395002867059151e+000
 1.762047431920685e-001	 1.395587387395139e+000	 1.343285591409493e+000
 1.624235869751318e-001	 1.397258317863597e+000	 1.295008599698773e+000
 1.486738212651559e-001	 1.398788145554529e+000	 1.250148187888611e+000
 1.349573484610525e-001	 1.400178075084743e+000	 1.208799877941068e+000
 2.746801425983933e-001	 1.386385222459879e+000	 1.824279499459878e+000
 2.606694366038011e-001	 1.389087706013494e+000	 1.746257999434701e+000
 2.466758898012532e-001	 1.391640847349633e+000	 1.673941362625688e+000
 2.327016598777328e-001	 1.394045623329195e+000	 1.606760071746187e+000
 2.187488710556333e-001	 1.396303047607457e+000	 1.544205961037060e+000
 2.048196134538770e-001	 1.398414169496971e+000	 1.485843009231748e+000
 1.909159424891912e-001	 1.400380072822822e+000	 1.431317582861193e+000
 1.770398783173379e-001	 1.402201874771716e+000	 1.380368155351188e+000
 1.631934053140300e-001	 1.403880724736372e+000	 1.332834527431822e+000
 1.493784715952081e-001	 1.405417803156628e+000	 1.288666574107716e+000
 1.355969885763211e-001	 1.406814320358652e+000	 1.247932542831993e+000
 2.759758678163474e-001	 1.392925099287674e+000	 1.858529863141566e+000
 2.618990703128997e-001	 1.395640331036978e+000	 1.780931992673661e+000
 2.478395129452027e-001	 1.398205516089525e+000	 1.709101511862309e+000
 2.337993635784846e-001	 1.400621635914264e+000	 1.642458708007485e+000
 2.197807564555245e-001	 1.402889708948090e+000	 1.580484255378779e+000
 2.057857915547572e-001	 1.405010789453377e+000	 1.522729999362352e+000
 1.918165339887250e-001	 1.406985966367832e+000	 1.468829187438649e+000
 1.778750134426725e-001	 1.408816362148160e+000	 1.418506174085155e+000
 1.639632236530121e-001	 1.410503131609001e+000	 1.371585626710579e+000
 1.500831219253405e-001	 1.412047460758570e+000	 1.328001259354783e+000
 1.362366286916379e-001	 1.413450565632394e+000	 1.287804120212199e+000
 2.772715930341038e-001	 1.399464976115353e+000	 1.894535827320809e+000
 2.631287040218273e-001	 1.402192956060347e+000	 1.817364771028862e+000
 2.490031360890160e-001	 1.404770184829297e+000	 1.745971994178010e+000
 2.348970672791394e-001	 1.407197648499203e+000	 1.679778406377668e+000
 2.208126418553583e-001	 1.409476370288579e+000	 1.618264282971740e+000
 2.067519696556165e-001	 1.411607409409621e+000	 1.560980017644290e+000
 1.927171254882681e-001	 1.413591859912662e+000	 1.507556318860698e+000
 1.787101485680357e-001	 1.415430849524405e+000	 1.457713878963749e+000
 1.647330419920285e-001	 1.417125538481411e+000	 1.411272544664883e+000
 1.507877722554951e-001	 1.418677118360277e+000	 1.368160017242007e+000
 1.368762688069441e-001	 1.420086810905885e+000	 1.328420109960379e+000
 2.785673182517615e-001	 1.406004852942930e+000	 1.932367135647577e+000
 2.643583377306694e-001	 1.408745581083601e+000	 1.855614325493580e+000
 2.501667592327607e-001	 1.411334853568936e+000	 1.784600539335243e+000
 2.359947709797438e-001	 1.413773661083987e+000	 1.718758011010655e+000
 2.218445272551593e-001	 1.416063031628888e+000	 1.657577263732897e+000
 2.077181477564574e-001	 1.418204029365658e+000	 1.600617808325043e+000
 1.936177169878017e-001	 1.420197753457256e+000	 1.547518282799881e+000
 1.795452836933910e-001	 1.422045336900386e+000	 1.498006063906765e+000
 1.655028603310289e-001	 1.423747945353533e+000	 1.451906381102601e+000
 1.514924225856141e-001	 1.425306775961670e+000	 1.409150962886130e+000
 1.375159089221811e-001	 1.426723056179039e+000	 1.369786244543855e+000
 2.798630434694192e-001	 1.412544729770422e+000	 1.972094522316091e+000
 2.655879714395114e-001	 1.415298206106741e+000	 1.895739637275532e+000
 2.513303823765045e-001	 1.417899522308429e+000	 1.825035840897348e+000
 2.370924746803448e-001	 1.420349673668590e+000	 1.759437280885954e+000
 2.228764126549521e-001	 1.422649692968980e+000	 1.698455264413256e+000
 2.086843258572822e-001	 1.424800649321441e+000	 1.641668879025350e+000
 1.945183084873072e-001	 1.426803647001559e+000	 1.588735052917224e+000
 1.803804188187018e-001	 1.428659824276040e+000	 1.539398087061300e+000
 1.662726786699633e-001	 1.430370352225293e+000	 1.493498691448625e+000
 1.521970729156393e-001	 1.431936433562669e+000	 1.450982557075366e+000
 1.381555490372899e-001	 1.433359301451775e+000	 1.411908494312111e+000
 2.811587686871757e-001	 1.419084606597842e+000	 2.013789707955489e+000
 2.668176051484386e-001	 1.421850831129768e+000	 1.937800673753854e+000
 2.524940055203146e-001	 1.424464191047764e+000	 1.867327552591120e+000
 2.381901783809890e-001	 1.426925686252988e+000	 1.801856886865206e+000
 2.239082980547608e-001	 1.429236354308818e+000	 1.740931196570440e+000
 2.096505039580927e-001	 1.431397269276922e+000	 1.684159499798021e+000
 1.954188999867662e-001	 1.433409540545514e+000	 1.631227271122239e+000
 1.812155539439319e-001	 1.435274311651301e+000	 1.581905872316729e+000
 1.670424970087817e-001	 1.436992759096619e+000	 1.536061489521858e+000
 1.529017232455130e-001	 1.438566091163198e+000	 1.493663610259798e+000
 1.387951891522120e-001	 1.439995546724006e+000	 1.454793072598941e+000
 2.824544939051298e-001	 1.425624483425207e+000	 2.057525395308076e+000
 2.680472388575366e-001	 1.428403456152684e+000	 1.981858384266534e+000
 2.536576286642590e-001	 1.431028859786927e+000	 1.911526284530842e+000
 2.392878820817231e-001	 1.433501698837155e+000	 1.846058408622356e+000
 2.249401834546101e-001	 1.435823015648366e+000	 1.785038814426084e+000
 2.106166820588915e-001	 1.437993889232055e+000	 1.728116702068316e+000
 1.963194914861600e-001	 1.440015434089065e+000	 1.675016247705391e+000
 1.820506890690446e-001	 1.441888799026105e+000	 1.625545910686234e+000
 1.678123153474339e-001	 1.443615165967438e+000	 1.579607250162615e+000
 1.536063735751770e-001	 1.445195748763177e+000	 1.537203286374363e+000
 1.394348292668886e-001	 1.446631791995650e+000	 1.498446440637287e+000
 2.837502191233803e-001	 1.432164360252531e+000	 2.103375264704019e+000
 2.692768725668908e-001	 1.434956081175486e+000	 2.027974695732403e+000
 2.548212518084049e-001	 1.437593528525907e+000	 1.957683599305939e+000
 2.403855857825941e-001	 1.440077711421066e+000	 1.892084331457705e+000
 2.259720688545246e-001	 1.442409676987588e+000	 1.830812712607163e+000
 2.115828601596805e-001	 1.444590509186793e+000	 1.773568277462474e+000
 1.972200829854698e-001	 1.446621327632154e+000	 1.720123961352114e+000
 1.828858241940033e-001	 1.448503286400387e+000	 1.670335261552278e+000
 1.685821336858697e-001	 1.450237572837680e+000	 1.624148911710403e+000
 1.543110239045736e-001	 1.451825406362528e+000	 1.581611106496144e+000
 1.400744693812610e-001	 1.453268037266624e+000	 1.542875312296249e+000
 2.850459443420262e-001	 1.438704237079830e+000	 2.151413969338861e+000
 2.705065062765865e-001	 1.441508706198178e+000	 2.076212508119621e+000
 2.559848749528201e-001	 1.444158197264690e+000	 2.005852007937621e+000
 2.414832894836484e-001	 1.446653724004696e+000	 1.939978042993943e+000
 2.270039542545287e-001	 1.448996338326446e+000	 1.878288323782695e+000
 2.125490382604623e-001	 1.451187129141089e+000	 1.820542776526930e+000
 1.981206744846773e-001	 1.453227221174727e+000	 1.766573059038399e+000
 1.837209593187718e-001	 1.455117773774083e+000	 1.716291553785343e+000
 1.693519520240392e-001	 1.456859979707270e+000	 1.669699878340833e+000
 1.550156742336445e-001	 1.458455063961172e+000	 1.626896952344228e+000
 1.407141094952703e-001	 1.459904282536842e+000	 1.588086658639723e+000
 1.343177083458908e-001	 1.393541829810749e+000	 1.170400852756249e+000
 1.206992022775452e-001	 1.394787340501952e+000	 1.132721601040465e+000
 1.071175469255529e-001	 1.395896057564835e+000	 1.099615738437569e+000
 9.357455252922366e-002	 1.396869262718420e+000	 1.070627367934133e+000
 8.007199073668500e-002	 1.397708262725060e+000	 1.045464622887313e+000
 6.661159435878002e-002	 1.398414388238686e+000	 1.024007082015024e+000
 5.319505715932576e-002	 1.398988992659145e+000	 1.006312781532885e+000
 3.982403368103277e-002	 1.399433450993745e+000	 9.926248374681285e-001
 2.650013910635849e-002	 1.399749158727085e+000	 9.833776896332003e-001
 1.322494915253760e-002	 1.399937530700197e+000	 9.792029771766349e-001
 0.000000000000000e+000	 1.400000000000000e+000	 9.809350397679926e-001
 1.349573484610525e-001	 1.400178075084743e+000	 1.208799877941068e+000
 1.212739891215651e-001	 1.401429517075980e+000	 1.171665940178030e+000
 1.076276559867540e-001	 1.402543514008033e+000	 1.138970531660519e+000
 9.402016791654722e-002	 1.403521353703664e+000	 1.110285218798368e+000
 8.045330499591420e-002	 1.404364349148224e+000	 1.085343534642957e+000
 6.692880828759104e-002	 1.405073837332419e+000	 1.064048388642906e+000
 5.344837962134032e-002	 1.405651178101191e+000	 1.046479084182519e+000
 4.001368141904168e-002	 1.406097753009839e+000	 1.032897957447716e+000
 2.662633655488246e-002	 1.406414964188468e+000	 1.023756649508790e+000
 1.328792824988827e-002	 1.406604233215796e+000	 1.019702021816153e+000
 0.000000000000000e+000	 1.406667000003317e+000	 1.021581709746543e+000
 1.355969885763211e-001	 1.406814320358652e+000	 1.247932542831993e+000
 1.218487759656231e-001	 1.408071693649921e+000	 1.211303586062068e+000
 1.081377650478982e-001	 1.409190970451141e+000	 1.179005402742290e+000
 9.446578330370802e-002	 1.410173444688814e+000	 1.150629376799699e+000
 8.083461925487838e-002	 1.411020435571292e+000	 1.125926826402720e+000
 6.724602221605308e-002	 1.411733286426055e+000	 1.104816412928306e+000
 5.370170208295465e-002	 1.412313363543139e+000	 1.087391168353738e+000
 4.020332915664581e-002	 1.412762055025833e+000	 1.073925155167875e+000
 2.675253400305781e-002	 1.413080769649750e+000	 1.064879771115763e+000
 1.335090734702075e-002	 1.413270935731295e+000	 1.060909709256085e+000
 0.000000000000000e+000	 1.413334000006534e+000	 1.062868568577690e+000
 1.362366286916379e-001	 1.413450565632394e+000	 1.287804120212199e+000
 1.224235628096674e-001	 1.414713870223685e+000	 1.251638182335095e+000
 1.086478741089468e-001	 1.415838426894065e+000	 1.219723002686860e+000
 9.491139869068389e-002	 1.416825535673774e+000	 1.191662267397792e+000
 8.121593351357331e-002	 1.417676521994166e+000	 1.167217593028598e+000
 6.756323614417877e-002	 1.418392735519495e+000	 1.146315938947154e+000
 5.395502454419462e-002	 1.418975548984888e+000	 1.129056648813166e+000
 4.039297689387870e-002	 1.419426357041628e+000	 1.115718135825191e+000
 2.687873145091769e-002	 1.419746575110834e+000	 1.106764224477798e+000
 1.341388644395777e-002	 1.419937638246595e+000	 1.102850159633683e+000
 0.000000000000000e+000	 1.420001000009550e+000	 1.104828278747565e+000
 1.368762688069441e-001	 1.420086810905885e+000	 1.328420109960379e+000
 1.229983496536463e-001	 1.421356046797183e+000	 1.292673494637318e+000
 1.091579831698613e-001	 1.422485883336712e+000	 1.261126003897041e+000
 9.535701407745290e-002	 1.423477626658451e+000	 1.233386240307031e+000
 8.159724777199491e-002	 1.424332608416751e+000	 1.209218758901992e+000
 6.788045007198064e-002	 1.425052184612641e+000	 1.188551486947101e+000
 5.420834700508614e-002	 1.425637734426340e+000	 1.171482783523627e+000
 4.058262463077385e-002	 1.426090659057124e+000	 1.158288154191067e+000
 2.700492889849534e-002	 1.426412380571618e+000	 1.149426633926920e+000
 1.347686554072209e-002	 1.426604340761593e+000	 1.145546849473819e+000
 0.000000000000000e+000	 1.426668000012267e+000	 1.147492757555998e+000
 1.375159089221811e-001	 1.426723056179039e+000	 1.369786244543855e+000
 1.235731364975081e-001	 1.427998223370329e+000	 1.334413417108169e+000
 1.096680922306028e-001	 1.429133339778993e+000	 1.303217107590320e+000
 9.580262946399300e-002	 1.430129717642750e+000	 1.275803577774043e+000
 8.197856203013890e-002	 1.430988694838949e+000	 1.251933087078069e+000
 6.819766399947123e-002	 1.431711633705393e+000	 1.231527323432506e+000
 5.446166946565508e-002	 1.432299919867397e+000	 1.214676484761921e+000
 4.077227236736475e-002	 1.432754961072221e+000	 1.201646026927854e+000
 2.713112634582392e-002	 1.433078186032001e+000	 1.192883091818695e+000
 1.353984463733646e-002	 1.433271043276193e+000	 1.189022627061552e+000
 0.000000000000000e+000	 1.433335000014584e+000	 1.190893194447792e+000
 1.381555490372899e-001	 1.433359301451775e+000	 1.411908494312111e+000
 1.241479233412011e-001	 1.434640399943033e+000	 1.376861978672066e+000
 1.101782012911328e-001	 1.435780796220815e+000	 1.345999050980126e+000
 9.624824485028212e-002	 1.436781808626576e+000	 1.318916502612854e+000
 8.235987628800122e-002	 1.437644781260665e+000	 1.295363188170113e+000
 6.851487792666318e-002	 1.438371082797657e+000	 1.275247470959037e+000
 5.471499192592734e-002	 1.438962105307958e+000	 1.258644329929882e+000
 4.096192010368493e-002	 1.439419263086821e+000	 1.245802144560311e+000
 2.725732379293666e-002	 1.439743991491885e+000	 1.237149171867964e+000
 1.360282373382363e-002	 1.439937745790292e+000	 1.233299727388687e+000
 0.000000000000000e+000	 1.440002000016400e+000	 1.235060067861161e+000
 1.387951891522120e-001	 1.439995546724006e+000	 1.454793072598941e+000
 1.247227101846736e-001	 1.441282576515208e+000	 1.420023349118481e+000
 1.106883103514126e-001	 1.442428252662085e+000	 1.389474614235260e+000
 9.669386023629828e-002	 1.443433899609835e+000	 1.362727185996356e+000
 8.274119054557766e-002	 1.444300867681801e+000	 1.339511528983288e+000
 6.883209185356908e-002	 1.445030531889332e+000	 1.319715717652249e+000
 5.496831438592883e-002	 1.445624290747925e+000	 1.303392572056751e+000
 4.115156783976792e-002	 1.446083565100824e+000	 1.290766483115056e+000
 2.738352123986675e-002	 1.446409796951171e+000	 1.282239942115857e+000
 1.366580283020633e-002	 1.446604448303791e+000	 1.278399786685596e+000
 0.000000000000000e+000	 1.446669000017617e+000	 1.280023161612390e+000
 1.394348292668886e-001	 1.446631791995650e+000	 1.498446440637287e+000
 1.252974970278738e-001	 1.447924753086764e+000	 1.463901844977928e+000
 1.111984194114034e-001	 1.449075709102713e+000	 1.433646627223306e+000
 9.713947562201938e-002	 1.450085990592432e+000	 1.407237755018643e+000
 8.312250480286401e-002	 1.450956954102260e+000	 1.384380440893198e+000
 6.914930578020141e-002	 1.451689980980320e+000	 1.364935626456065e+000
 5.522163684568544e-002	 1.452286476187199e+000	 1.348927150012803e+000
 4.134121557564721e-002	 1.452747867114128e+000	 1.336548615436044e+000
 2.750971868664739e-002	 1.453075602409757e+000	 1.328169977536719e+000
 1.372878192650734e-002	 1.453271150816591e+000	 1.324343856552677e+000
 0.000000000000000e+000	 1.453336000018133e+000	 1.325811580827606e+000
 1.400744693812610e-001	 1.453268037266624e+000	 1.542875312296249e+000
 1.258722838707502e-001	 1.454566929657613e+000	 1.508501935205190e+000
 1.117085284710667e-001	 1.455723165542607e+000	 1.478517976045318e+000
 9.758509100742349e-002	 1.456738081574272e+000	 1.452450300034634e+000
 8.350381905985616e-002	 1.457613040521948e+000	 1.429972127986778e+000
 6.946651970657285e-002	 1.458349430070525e+000	 1.410910544122334e+000
 5.547495930522307e-002	 1.458948661625681e+000	 1.395253698437806e+000
 4.153086331135633e-002	 1.459412169126637e+000	 1.383157722190594e+000
 2.763591613331179e-002	 1.459741407867544e+000	 1.374953372300577e+000
 1.379176102274939e-002	 1.459937853328589e+000	 1.371152417707271e+000
 0.000000000000000e+000	 1.460003000017850e+000	 1.372453767439107e+000
 1.407141094952703e-001	 1.459904282536842e+000	 1.588086658639723e+000
 1.264470707132509e-001	 1.461209106227669e+000	 1.553828246672069e+000
 1.122186375303638e-001	 1.462370621981674e+000	 1.524091609365952e+000
 9.803070639248851e-002	 1.463390172555262e+000	 1.498366881777600e+000
 8.388513331654991e-002	 1.464269126940766e+000	 1.476288674971940e+000
 6.978373363269591e-002	 1.465008879159846e+000	 1.457643609947154e+000
 5.572828176456757e-002	 1.465610847063272e+000	 1.442377557393245e+000
 4.172051104692880e-002	 1.466076471138249e+000	 1.430602602570036e+000
 2.776211357989313e-002	 1.466407213324432e+000	 1.422603751700857e+000
 1.385474011895523e-002	 1.466604555839689e+000	 1.418845393351907e+000
 0.000000000000000e+000	 1.466670000016666e+000	 1.419977515258798e+000
 1.466670000016666e+000	 0.000000000000000e+000	 1.506523734257627e+001
 1.466604555839689e+000	 1.385474011895528e-002	 1.506508769661526e+001
 1.466407213324432e+000	 2.776211357989323e-002	 1.506464901086277e+001
 1.466076471138249e+000	 4.172051104692869e-002	 1.506375732842799e+001
 1.465610847063272e+000	 5.572828176456753e-002	 1.506226249060266e+001
 1.465008879159847e+000	 6.978373363269590e-002	 1.506002808903855e+001
 1.464269126940766e+000	 8.388513331654994e-002	 1.505693155523212e+001
 1.463390172555262e+000	 9.803070639248858e-002	 1.505286440390844e+001
 1.462370621981674e+000	 1.122186375303636e-001	 1.504773264538153e+001
 1.461209106227669e+000	 1.264470707132508e-001	 1.504145738288732e+001
 1.459904282536843e+000	 1.407141094952702e-001	 1.503397561180121e+001
 1.473336000014533e+000	 0.000000000000000e+000	 1.499611086076995e+001
 1.473270258394459e+000	 1.391770976875623e-002	 1.499622707954898e+001
 1.473072018959543e+000	 2.788829209775665e-002	 1.499595624948270e+001
 1.472739773553593e+000	 4.191013033666514e-002	 1.499517166382381e+001
 1.472272033222072e+000	 5.598156622728418e-002	 1.499375914376714e+001
 1.471667329380818e+000	 7.010089997888505e-002	 1.499161691365914e+001
 1.470924214995623e+000	 8.426639037867754e-002	 1.498865561248666e+001
 1.470041265771596e+000	 9.847625493824477e-002	 1.498479845865139e+001
 1.469017081351258e+000	 1.127286700767428e-001	 1.497998158334441e+001
 1.467850286520215e+000	 1.270217713416299e-001	 1.497415454879907e+001
 1.466539532419245e+000	 1.413536536676589e-001	 1.496728106866135e+001
 1.480002000011599e+000	 0.000000000000000e+000	 1.492876775344656e+001
 1.479935960948430e+000	 1.398067941857050e-002	 1.492914854634953e+001
 1.479736824593857e+000	 2.801447061561839e-002	 1.492903923431077e+001
 1.479403075968142e+000	 4.209974962636292e-002	 1.492835180267699e+001
 1.478933219380080e+000	 5.623485068990968e-002	 1.492700947818145e+001
 1.478325779601007e+000	 7.041806632492183e-002	 1.492494652432810e+001
 1.477579303049710e+000	 8.464764744058920e-002	 1.492210817183543e+001
 1.476692358987179e+000	 9.892180348372628e-002	 1.491845070154904e+001
 1.475663540720116e+000	 1.132387026228000e-001	 1.491394169537649e+001
 1.474491466812067e+000	 1.275964719696582e-001	 1.490856047180238e+001
 1.473174782300993e+000	 1.419931978396938e-001	 1.490229872355267e+001
 1.486668000008066e+000	 0.000000000000000e+000	 1.486315237935031e+001
 1.486601663501801e+000	 1.404364906842489e-002	 1.486379816618960e+001
 1.486401630227571e+000	 2.814064913352657e-002	 1.486384538571853e+001
 1.486066378382094e+000	 4.228936891608644e-002	 1.486324613109755e+001
 1.485594405537496e+000	 5.648813515252010e-002	 1.486196243483977e+001
 1.484984229820612e+000	 7.073523267088945e-002	 1.485996598155267e+001
 1.484234391103225e+000	 8.502890450237158e-002	 1.485723795432062e+001
 1.483343452202206e+000	 9.936735202901935e-002	 1.485376903253449e+001
 1.482310000088439e+000	 1.137487351686180e-001	 1.484955955695630e+001
 1.481132647103413e+000	 1.281711725974123e-001	 1.484461987885900e+001
 1.479810032182270e+000	 1.426327420114425e-001	 1.483897091113911e+001
 1.493334000004133e+000	 0.000000000000000e+000	 1.479920815400073e+001
 1.493267366054773e+000	 1.410661871834616e-002	 1.480012127108884e+001
 1.493066435860886e+000	 2.826682765152936e-002	 1.480032159219154e+001
 1.492729680795649e+000	 4.247898820590017e-002	 1.479980270803194e+001
 1.492255591694520e+000	 5.674141961519150e-002	 1.479856683203522e+001
 1.491642680039831e+000	 7.105239901687119e-002	 1.479662442764943e+001
 1.490889479156365e+000	 8.541016156411121e-002	 1.479399396768615e+001
 1.489994545416871e+000	 9.981290057421020e-002	 1.479070184387445e+001
 1.488956459456420e+000	 1.142587677142795e-001	 1.478678244265069e+001
 1.487773827394441e+000	 1.287458732249686e-001	 1.478227840430344e+001
 1.486445282063260e+000	 1.432722861829729e-001	 1.477724108370262e+001
 1.500000000000000e+000	 0.000000000000000e+000	 1.473687757065108e+001
 1.499933068607544e+000	 1.416958836836110e-002	 1.473806247594979e+001
 1.499731241494002e+000	 2.839300616967488e-002	 1.473841422919018e+001
 1.499392983209006e+000	 4.266860749586857e-002	 1.473796928268829e+001
 1.498916777851350e+000	 5.699470407799986e-002	 1.473677138108084e+001
 1.498301130258862e+000	 7.136956536295040e-002	 1.473487110048676e+001
 1.497544567209325e+000	 8.579141862589465e-002	 1.473232551785916e+001
 1.496645638631369e+000	 1.002584491193852e-001	 1.472919802910207e+001
 1.495602918824250e+000	 1.147688002598673e-001	 1.472555833220384e+001
 1.494415007685339e+000	 1.293205738524035e-001	 1.472148259278749e+001
 1.493080531944146e+000	 1.439118303543528e-001	 1.471705381063745e+001
 1.506665999995867e+000	 0.000000000000000e+000	 1.467610222069065e+001
 1.506598771160316e+000	 1.423255801849648e-002	 1.467756569806085e+001
 1.506396047127118e+000	 2.851918468801127e-002	 1.467806917750385e+001
 1.506056285622365e+000	 4.285822678605605e-002	 1.467769331148544e+001
 1.505577964008184e+000	 5.724798854102124e-002	 1.467652470159030e+001
 1.504959580477903e+000	 7.168673170921033e-002	 1.467465534682601e+001
 1.504199655262302e+000	 8.617267568780851e-002	 1.467218222007502e+001
 1.503296731845894e+000	 1.007039976646305e-001	 1.466920699164144e+001
 1.502249378192121e+000	 1.152788328054642e-001	 1.466583591637204e+001
 1.501056187976295e+000	 1.298952744797935e-001	 1.466217990203021e+001
 1.499715781825113e+000	 1.445513745256498e-001	 1.465835477781473e+001
 1.513331999991934e+000	 0.000000000000000e+000	 1.461682281350751e+001
 1.513264473713287e+000	 1.429552766877910e-002	 1.461857417608171e+001
 1.513060852760435e+000	 2.864536320658669e-002	 1.461923184111444e+001
 1.512719588035926e+000	 4.304784607652708e-002	 1.461892197454147e+001
 1.512239150165223e+000	 5.750127300433167e-002	 1.461777533633150e+001
 1.511618030697151e+000	 7.200389805573429e-002	 1.461592663527427e+001
 1.510854743315492e+000	 8.655393274993935e-002	 1.461351400965600e+001
 1.509947825060642e+000	 1.011495462100326e-001	 1.461067865313387e+001
 1.508895837560224e+000	 1.157888653511530e-001	 1.460756460251251e+001
 1.507697368267498e+000	 1.304699751072152e-001	 1.460431870537899e+001
 1.506351031706344e+000	 1.451909186969318e-001	 1.460109078681997e+001
 1.519997999988401e+000	 0.000000000000000e+000	 1.455897919582870e+001
 1.519930176266659e+000	 1.435849731923572e-002	 1.456103048852850e+001
 1.519725658394152e+000	 2.877154172544927e-002	 1.456184716458398e+001
 1.519382890449889e+000	 4.323746536734608e-002	 1.456160219171505e+001
 1.518900336322665e+000	 5.775455746800721e-002	 1.456047176566643e+001
 1.518276480916806e+000	 7.232106440260555e-002	 1.455863456886008e+001
 1.517509831369094e+000	 8.693518981237375e-002	 1.455627115245473e+001
 1.516598918275806e+000	 1.015950947556775e-001	 1.455356346147442e+001
 1.515542296928752e+000	 1.162988978970165e-001	 1.455069451993336e+001
 1.514338548559136e+000	 1.310446757347449e-001	 1.454784829418752e+001
 1.512986281588025e+000	 1.458304628682665e-001	 1.454520975406915e+001
 1.526663999985467e+000	 0.000000000000000e+000	 1.450251037055403e+001
 1.526595878820630e+000	 1.442146696989313e-002	 1.450487657177270e+001
 1.526390464028469e+000	 2.889772024464717e-002	 1.450585964998057e+001
 1.526046192864452e+000	 4.342708465857750e-002	 1.450568063821386e+001
 1.525561522480708e+000	 5.800784193212387e-002	 1.450456242158933e+001
 1.524934931137064e+000	 7.263823074990737e-002	 1.450272889724403e+001
 1.524164919423301e+000	 8.731644687519830e-002	 1.450040425497268e+001
 1.523250011491580e+000	 1.020406433016516e-001	 1.449781239856833e+001
 1.522188756297896e+000	 1.168089304431374e-001	 1.449517652501245e+001
 1.520979728851398e+000	 1.316193763624592e-001	 1.449271888001659e+001
 1.519621531470337e+000	 1.464700070397217e-001	 1.449066070980597e+001
 1.533329999983334e+000	 0.000000000000000e+000	 1.444735451509813e+001
 1.533261581375402e+000	 1.448443662077811e-002	 1.445005373756945e+001
 1.533055269663588e+000	 2.902389876422853e-002	 1.445121337335792e+001
 1.532709495279816e+000	 4.361670395028579e-002	 1.445110375978283e+001
 1.532222708639554e+000	 5.826112639675773e-002	 1.444999570137669e+001
 1.531593381358125e+000	 7.295539709772311e-002	 1.444815952857511e+001
 1.530820007478312e+000	 8.769770393849954e-002	 1.444586427416313e+001
 1.529901104708160e+000	 1.024861918480413e-001	 1.444337698781528e+001
 1.528835215667849e+000	 1.173189629895985e-001	 1.444096220609158e+001
 1.527620909144472e+000	 1.321940769904346e-001	 1.443888159666254e+001
 1.526256781353464e+000	 1.471095512113651e-001	 1.443739379698398e+001
 1.459904282536843e+000	 1.407141094952702e-001	 1.503397561180121e+001
 1.458455063961172e+000	 1.550156742336446e-001	 1.502555940099200e+001
 1.456859979707271e+000	 1.693519520240392e-001	 1.501655161336646e+001
 1.455117773774083e+000	 1.837209593187718e-001	 1.500700644894797e+001
 1.453227221174727e+000	 1.981206744846772e-001	 1.499697206806494e+001
 1.451187129141089e+000	 2.125490382604623e-001	 1.498649187692660e+001
 1.448996338326446e+000	 2.270039542545288e-001	 1.497560615770152e+001
 1.446653724004697e+000	 2.414832894836484e-001	 1.496435406782519e+001
 1.444158197264690e+000	 2.559848749528201e-001	 1.495277603378103e+001
 1.441508706198178e+000	 2.705065062765864e-001	 1.494091656498870e+001
 1.438704237079830e+000	 2.850459443420262e-001	 1.492882751367747e+001
 1.466539532419245e+000	 1.413536536676589e-001	 1.496728106866135e+001
 1.465083727160154e+000	 1.557202188700866e-001	 1.495950067993829e+001
 1.463481393264815e+000	 1.701216548949307e-001	 1.495103307389112e+001
 1.461731269023666e+000	 1.845559691793192e-001	 1.494196977541792e+001
 1.459832123882273e+000	 1.990211309017990e-001	 1.493239382204836e+001
 1.457782759651406e+000	 2.135150714417698e-001	 1.492238093785881e+001
 1.455582011715130e+000	 2.280356848795699e-001	 1.491200105480199e+001
 1.453228750235476e+000	 2.425808285375987e-001	 1.490132020693437e+001
 1.450721881352207e+000	 2.571483235628104e-001	 1.489040282359740e+001
 1.448060348376166e+000	 2.717359555508530e-001	 1.487931444805315e+001
 1.445243132974653e+000	 2.863414752120758e-001	 1.486812490836940e+001
 1.473174782300993e+000	 1.419931978396938e-001	 1.490229872355267e+001
 1.471712390358529e+000	 1.564247635062024e-001	 1.489516113121713e+001
 1.470102806821810e+000	 1.708913577655507e-001	 1.488724005112663e+001
 1.468344764272761e+000	 1.853909790396714e-001	 1.487866280740300e+001
 1.466437026589401e+000	 1.999215873188175e-001	 1.486954579584236e+001
 1.464378390161382e+000	 2.144811046230759e-001	 1.485999554708805e+001
 1.462167685103552e+000	 2.290674155047152e-001	 1.485011014002507e+001
 1.459803776466075e+000	 2.436783675917570e-001	 1.483998099163956e+001
 1.457285565439627e+000	 2.583117721731038e-001	 1.482969505022001e+001
 1.454611990554142e+000	 2.729654048255037e-001	 1.481933741927347e+001
 1.451782028869550e+000	 2.876370060825698e-001	 1.480899443988087e+001
 1.479810032182270e+000	 1.426327420114425e-001	 1.483897091113911e+001
 1.478341053556476e+000	 1.571293081420489e-001	 1.483248066347354e+001
 1.476724220378426e+000	 1.716610606359441e-001	 1.482511053083106e+001
 1.474958259521535e+000	 1.862259888998599e-001	 1.481702213378793e+001
 1.473041929296268e+000	 2.008220437357504e-001	 1.480836373091878e+001
 1.470974020671162e+000	 2.154471378043844e-001	 1.479927117208606e+001
 1.468753358491847e+000	 2.300991461299552e-001	 1.478986920464462e+001
 1.466378802696617e+000	 2.447759066461008e-001	 1.478027315957320e+001
 1.463849249527063e+000	 2.594752207836671e-001	 1.477059104523359e+001
 1.461163632732205e+000	 2.741948541004960e-001	 1.476092607701487e+001
 1.458320924764607e+000	 2.889325369534591e-001	 1.475137967152421e+001
 1.486445282063260e+000	 1.432722861829729e-001	 1.477724108370261e+001
 1.484969716754174e+000	 1.578338527776833e-001	 1.477140050616763e+001
 1.483345633934837e+000	 1.724307635061557e-001	 1.476458400632836e+001
 1.481571754770152e+000	 1.870609987599162e-001	 1.475698602112220e+001
 1.479646832003032e+000	 2.017225001526154e-001	 1.474878519968567e+001
 1.477569651180895e+000	 2.164131709856990e-001	 1.474014524755754e+001
 1.475339031880151e+000	 2.311308767552800e-001	 1.473121612637248e+001
 1.472953828927230e+000	 2.458734457006079e-001	 1.472213563682941e+001
 1.470412933614629e+000	 2.606386693944667e-001	 1.471303141346676e+001
 1.467715274910457e+000	 2.754243033757872e-001	 1.470402336039430e+001
 1.464859820659907e+000	 2.902280678246939e-001	 1.469522655759177e+001
 1.493080531944146e+000	 1.439118303543528e-001	 1.471705381063744e+001
 1.491598379951801e+000	 1.585383974131627e-001	 1.471186320551712e+001
 1.489967047491214e+000	 1.732004663762303e-001	 1.470560147101280e+001
 1.488185250018776e+000	 1.878960086198719e-001	 1.469849440281182e+001
 1.486251734709848e+000	 2.026229565694304e-001	 1.469074959150201e+001
 1.484165281690726e+000	 2.173792041670235e-001	 1.468255715842559e+001
 1.481924705268603e+000	 2.321626073806800e-001	 1.467409084947329e+001
 1.479528855158037e+000	 2.469709847552560e-001	 1.466550951537969e+001
 1.476976617702436e+000	 2.618021180054691e-001	 1.465695900789159e+001
 1.474266917088996e+000	 2.766537526513346e-001	 1.464857452185938e+001
 1.471398716555536e+000	 2.915235986962250e-001	 1.464048341382100e+001
 1.499715781825113e+000	 1.445513745256498e-001	 1.465835477781473e+001
 1.498227043149535e+000	 1.592429420485439e-001	 1.465381262037498e+001
 1.496588461047729e+000	 1.739701692462126e-001	 1.464810541084806e+001
 1.494798745267572e+000	 1.887310184797587e-001	 1.464148886835818e+001
 1.492856637416871e+000	 2.035234129862128e-001	 1.463419809878657e+001
 1.490760912200803e+000	 2.183452373483616e-001	 1.462644822295225e+001
 1.488510378657336e+000	 2.331943380061452e-001	 1.461843536504962e+001
 1.486103881389163e+000	 2.480685238100225e-001	 1.461033803068708e+001
 1.483540301790597e+000	 2.629655666166408e-001	 1.460231890474302e+001
 1.480818559267920e+000	 2.778832019270955e-001	 1.459452710000054e+001
 1.477937612451580e+000	 2.928191295680030e-001	 1.458710088809958e+001
 1.506351031706344e+000	 1.451909186969318e-001	 1.460109078681997e+001
 1.504855706347555e+000	 1.599474866838842e-001	 1.459719391804324e+001
 1.503209874604554e+000	 1.747398721161476e-001	 1.459203979685941e+001
 1.501412240516705e+000	 1.895660283396078e-001	 1.458591265264237e+001
 1.499461540124259e+000	 2.044238694029805e-001	 1.457907370321865e+001
 1.497356542711271e+000	 2.193112705297171e-001	 1.457176167599027e+001
 1.495096052046490e+000	 2.342260686316661e-001	 1.456419369149180e+001
 1.492678907620734e+000	 2.491660628648855e-001	 1.455656653951164e+001
 1.490103985879224e+000	 2.641290152279486e-001	 1.454905837884965e+001
 1.487370201447330e+000	 2.791126512030274e-001	 1.454183089258860e+001
 1.484476508348123e+000	 2.941146604399786e-001	 1.453503193140251e+001
 1.512986281588025e+000	 1.458304628682665e-001	 1.454520975406915e+001
 1.511484369546039e+000	 1.606520313192406e-001	 1.454195357002543e+001
 1.509831288161861e+000	 1.755095749860801e-001	 1.453735007762047e+001
 1.508025735766339e+000	 1.904010381994511e-001	 1.453171062525376e+001
 1.506066442832168e+000	 2.053243258197512e-001	 1.452532116202689e+001
 1.503952173222280e+000	 2.202773037110939e-001	 1.451844265236246e+001
 1.501681725436199e+000	 2.352577992572329e-001	 1.451131185508750e+001
 1.499253933852874e+000	 2.502636019198224e-001	 1.450414249790260e+001
 1.496667669968431e+000	 2.652924638393589e-001	 1.449712687917095e+001
 1.493921843627324e+000	 2.803421004790874e-001	 1.449043792983164e+001
 1.491015404245248e+000	 2.954101913121023e-001	 1.448423176895459e+001
 1.519621531470337e+000	 1.464700070397217e-001	 1.449066070980597e+001
 1.518113032745165e+000	 1.613565759546701e-001	 1.448803934771968e+001
 1.516452701719823e+000	 1.762792778560549e-001	 1.448398317173389e+001
 1.514639231016640e+000	 1.912360480593200e-001	 1.447882927986137e+001
 1.512671345540754e+000	 2.062247822365425e-001	 1.447288699436443e+001
 1.510547803733974e+000	 2.212433368924957e-001	 1.446643817036377e+001
 1.508267398826601e+000	 2.362895298828358e-001	 1.445973787078605e+001
 1.505828960085709e+000	 2.513611409748112e-001	 1.445301543937007e+001
 1.503231354058331e+000	 2.664559124508381e-001	 1.444647600453363e+001
 1.500473485808002e+000	 2.815715497552332e-001	 1.444030244784380e+001
 1.497554300143043e+000	 2.967057221843249e-001	 1.443465787161129e+001
 1.526256781353464e+000	 1.471095512113651e-001	 1.443739379698398e+001
 1.524741695945114e+000	 1.620611205902299e-001	 1.443540031805363e+001
 1.523074115278612e+000	 1.770489807261168e-001	 1.443188746030680e+001
 1.521252726267772e+000	 1.920710579192460e-001	 1.442721672362666e+001
 1.519276248250174e+000	 2.071252386533722e-001	 1.442171946776713e+001
 1.517143434246501e+000	 2.222093700739263e-001	 1.441569711538343e+001
 1.514853072217832e+000	 2.373212605084653e-001	 1.440942172311321e+001
 1.512403986319364e+000	 2.524586800298292e-001	 1.440313695323204e+001
 1.509795038149035e+000	 2.676193610623530e-001	 1.439705947956161e+001
 1.507025127989463e+000	 2.828009990314218e-001	 1.439138086231989e+001
 1.504093196041590e+000	 2.980012530565968e-001	 1.438626992745103e+001
 1.438704237079830e+000	 2.850459443420262e-001	 1.492882751367747e+001
 1.435743359890963e+000	 2.996030999646700e-001	 1.491538505983356e+001
 1.432625550461151e+000	 3.141734829967587e-001	 1.489946478774385e+001
 1.429349917471245e+000	 3.287547500080645e-001	 1.488112995437068e+001
 1.425915612442830e+000	 3.433445258208175e-001	 1.486046146949581e+001
 1.422321830855985e+000	 3.579404043837813e-001	 1.483756364323170e+001
 1.418567813249386e+000	 3.725399496881361e-001	 1.481257054049305e+001
 1.414652846301054e+000	 3.871406967249310e-001	 1.478565296484121e+001
 1.410576263888079e+000	 4.017401524837974e-001	 1.475702609250296e+001
 1.406337448123607e+000	 4.163357969925386e-001	 1.472695777544463e+001
 1.401935830369417e+000	 4.309250843971382e-001	 1.469577753014545e+001
 1.445243132974653e+000	 2.863414752120758e-001	 1.486812490836940e+001
 1.442268798629569e+000	 3.009647929566778e-001	 1.485568191305859e+001
 1.439136818788142e+000	 3.156013982292188e-001	 1.484081756681463e+001
 1.435846298080186e+000	 3.302489369485938e-001	 1.482358750460929e+001
 1.432396384170960e+000	 3.449050231418640e-001	 1.480406345462577e+001
 1.428786268884011e+000	 3.595672398223045e-001	 1.478233900877459e+001
 1.425015189306273e+000	 3.742331399094486e-001	 1.475853601131175e+001
 1.421082428873726e+000	 3.889002471908951e-001	 1.473281158897641e+001
 1.416987318435939e+000	 4.035660573255574e-001	 1.470536584446106e+001
 1.412729237297769e+000	 4.182280388879797e-001	 1.467645023311510e+001
 1.408307614236544e+000	 4.328836344532539e-001	 1.464637664053564e+001
 1.451782028869550e+000	 2.876370060825698e-001	 1.480899443988087e+001
 1.448794237368335e+000	 3.023264859491649e-001	 1.479749408377444e+001
 1.445648087115373e+000	 3.170293134621682e-001	 1.478363491470570e+001
 1.442342678689445e+000	 3.317431238896014e-001	 1.476746517539976e+001
 1.438877155899481e+000	 3.464655204633587e-001	 1.474904751144611e+001
 1.435250706912494e+000	 3.611940752612289e-001	 1.472846475948946e+001
 1.431462565363673e+000	 3.759263301311030e-001	 1.470582636480099e+001
 1.427512011446956e+000	 3.906597976571303e-001	 1.468127545268454e+001
 1.423398372984390e+000	 4.053919621675100e-001	 1.465499657658512e+001
 1.419121026472544e+000	 4.201202807835300e-001	 1.462722416385295e+001
 1.414679398104287e+000	 4.348421845093938e-001	 1.459825167787088e+001
 1.458320924764607e+000	 2.889325369534591e-001	 1.475137967152421e+001
 1.455319676107329e+000	 3.036881789420780e-001	 1.474076793484328e+001
 1.452159355442899e+000	 3.184572286955533e-001	 1.472786494459021e+001
 1.448839059299059e+000	 3.332373108310347e-001	 1.471271177816964e+001
 1.445357927628414e+000	 3.480260177852528e-001	 1.469536209570497e+001
 1.441715144941439e+000	 3.628209107005124e-001	 1.467588794050212e+001
 1.437909941421575e+000	 3.776195203530645e-001	 1.465438618030267e+001
 1.433941594020721e+000	 3.924193481236123e-001	 1.463098561485584e+001
 1.429809427533400e+000	 4.072178670096429e-001	 1.460585477376557e+001
 1.425512815647887e+000	 4.220125226791909e-001	 1.457921042666066e+001
 1.421051181972596e+000	 4.368007345655731e-001	 1.455132682548729e+001
 1.464859820659907e+000	 2.902280678246939e-001	 1.469522655759177e+001
 1.461845114846621e+000	 3.050498719353638e-001	 1.468545226896252e+001
 1.458670623770774e+000	 3.198851439293194e-001	 1.467345827322103e+001
 1.455335439909068e+000	 3.347314977728410e-001	 1.465927870712851e+001
 1.451838699357781e+000	 3.495865151074976e-001	 1.464295834116071e+001
 1.448179582970851e+000	 3.644477461401131e-001	 1.462455838676929e+001
 1.444357317479972e+000	 3.793127105752995e-001	 1.460416295596731e+001
 1.440371176595002e+000	 3.941788985903175e-001	 1.458188619988070e+001
 1.436220482082934e+000	 4.090437718519439e-001	 1.455788015134821e+001
 1.431904604823757e+000	 4.239047645749627e-001	 1.453234329475330e+001
 1.427422965841425e+000	 4.387592846218074e-001	 1.450552988401865e+001
 1.471398716555536e+000	 2.915235986962250e-001	 1.464048341382100e+001
 1.468370553586280e+000	 3.064115649289692e-001	 1.463149829688253e+001
 1.465181892099049e+000	 3.213130591634124e-001	 1.462036798641980e+001
 1.461831820519507e+000	 3.362256847149676e-001	 1.460711990154724e+001
 1.458319471087602e+000	 3.511470124300444e-001	 1.459179001817290e+001
 1.454644021000736e+000	 3.660745815799878e-001	 1.457442867750577e+001
 1.450804693538856e+000	 3.810059007977738e-001	 1.455510705854333e+001
 1.446800759169773e+000	 3.959384490572215e-001	 1.453392434233097e+001
 1.442631536632960e+000	 4.108696766944009e-001	 1.451101559424077e+001
 1.438296394000109e+000	 4.257970064708468e-001	 1.448656038862840e+001
 1.433794749710720e+000	 4.407178346781115e-001	 1.446079219797193e+001
 1.477937612451580e+000	 2.928191295680030e-001	 1.458710088809958e+001
 1.474895992326376e+000	 3.077732579228409e-001	 1.457885960587284e+001
 1.471693160427779e+000	 3.227409743977778e-001	 1.456854960483360e+001
 1.468328201130414e+000	 3.377198716573617e-001	 1.455619180833662e+001
 1.464800242817900e+000	 3.527075097528448e-001	 1.454181349263578e+001
 1.461108459031100e+000	 3.677014170200944e-001	 1.452545409100763e+001
 1.457252069598216e+000	 3.826990910204532e-001	 1.450717167362808e+001
 1.453230341745015e+000	 3.976979995243009e-001	 1.448705013218050e+001
 1.449042591183444e+000	 4.126955815370016e-001	 1.446520709664825e+001
 1.444688183176903e+000	 4.276892483668440e-001	 1.444180260986556e+001
 1.440166533580434e+000	 4.426763847345017e-001	 1.441704858314575e+001
 1.484476508348123e+000	 2.941146604399786e-001	 1.453503193140251e+001
 1.481421431066978e+000	 3.091349509169256e-001	 1.452749212842862e+001
 1.478204428757018e+000	 3.241688896323617e-001	 1.451796104995182e+001
 1.474824581741826e+000	 3.392140585999710e-001	 1.450645334491626e+001
 1.471281014548694e+000	 3.542680070758498e-001	 1.449298768524294e+001
 1.467572897061949e+000	 3.693282524603908e-001	 1.447759255985941e+001
 1.463699445658044e+000	 3.843922812433036e-001	 1.446031275636676e+001
 1.459659924320704e+000	 3.994575499915312e-001	 1.444121656054844e+001
 1.455453645734352e+000	 4.145214863797339e-001	 1.442040370241750e+001
 1.451079972354095e+000	 4.295814902629558e-001	 1.439801407563325e+001
 1.446538317450518e+000	 4.446349347909926e-001	 1.437423725486488e+001
 1.491015404245248e+000	 2.954101913121023e-001	 1.448423176895459e+001
 1.487946869808157e+000	 3.104966439111703e-001	 1.447735411121078e+001
 1.484715697086819e+000	 3.255968048671096e-001	 1.446856261037456e+001
 1.481320962353781e+000	 3.407082455427425e-001	 1.445786586236425e+001
 1.477761786280008e+000	 3.558285043990112e-001	 1.444527403107334e+001
 1.474037335093288e+000	 3.709550879008343e-001	 1.443080462651317e+001
 1.470146821718332e+000	 3.860854714662914e-001	 1.441448898258529e+001
 1.466089506896819e+000	 4.012171004588888e-001	 1.439637946594962e+001
 1.461864700285650e+000	 4.163473912225856e-001	 1.437655744597230e+001
 1.457471761531642e+000	 4.314737321591827e-001	 1.435514205388074e+001
 1.452910101320921e+000	 4.465934848476001e-001	 1.433229975700632e+001
 1.497554300143043e+000	 2.967057221843249e-001	 1.443465787161129e+001
 1.494472308549981e+000	 3.118583369055215e-001	 1.442840608421222e+001
 1.491226965417235e+000	 3.270247201019672e-001	 1.442031690832557e+001
 1.487817342966315e+000	 3.422024324856235e-001	 1.441039310883985e+001
 1.484242558011860e+000	 3.573890017222800e-001	 1.439863643948847e+001
 1.480501773125123e+000	 3.725819233413825e-001	 1.438505339922872e+001
 1.476594197779069e+000	 3.877786616893817e-001	 1.436966170034362e+001
 1.472519089473338e+000	 4.029766509263497e-001	 1.435249748103556e+001
 1.468275754837306e+000	 4.181732960655446e-001	 1.433362329382082e+001
 1.463863550709501e+000	 4.333659740555259e-001	 1.431313689919488e+001
 1.459281885191594e+000	 4.485520349043394e-001	 1.429118089179265e+001
 1.504093196041590e+000	 2.980012530565968e-001	 1.438626992745103e+001
 1.500997747292520e+000	 3.132200298999261e-001	 1.438061083014292e+001
 1.497738233748321e+000	 3.284526353368806e-001	 1.437318886640174e+001
 1.494313723579467e+000	 3.436966194285618e-001	 1.436400119327021e+001
 1.490723329744274e+000	 3.589494990456078e-001	 1.435304125433198e+001
 1.486966211157460e+000	 3.742087587819934e-001	 1.434030450836326e+001
 1.483041573840250e+000	 3.894718519125411e-001	 1.432579488189739e+001
 1.478948672050239e+000	 4.047362013938897e-001	 1.430953197981225e+001
 1.474686809389286e+000	 4.199992009085986e-001	 1.429155908661848e+001
 1.470255339887630e+000	 4.352582159519864e-001	 1.427195198930087e+001
 1.465653669062488e+000	 4.505105849612260e-001	 1.425082865032915e+001
 1.401935830369417e+000	 4.309250843971382e-001	 1.469577753014545e+001
 1.397370891871779e+000	 4.455054438681575e-001	 1.466294748012579e+001
 1.392642163666725e+000	 4.600742800983028e-001	 1.462798319316727e+001
 1.387749228559429e+000	 4.746289751037728e-001	 1.459143598003490e+001
 1.382691722374954e+000	 4.891668896682116e-001	 1.455398676083435e+001
 1.377469334826162e+000	 5.036853646155344e-001	 1.451645926048070e+001
 1.372081810347265e+000	 5.181817221189332e-001	 1.447983389363684e+001
 1.366528948891380e+000	 5.326532670450713e-001	 1.444526232862348e+001
 1.360810606690540e+000	 5.470972883323950e-001	 1.441408271485969e+001
 1.354926696976586e+000	 5.615110604024198e-001	 1.438783555313487e+001
 1.348877190661454e+000	 5.758918446027711e-001	 1.436828018246238e+001
 1.408307614236544e+000	 4.328836344532539e-001	 1.464637664053564e+001
 1.403721928140800e+000	 4.475302615075406e-001	 1.461470654374031e+001
 1.398971707915128e+000	 4.621653129479083e-001	 1.458105830339902e+001
 1.394056534468547e+000	 4.767861588918578e-001	 1.454596716309914e+001
 1.388976041970940e+000	 4.913901481278337e-001	 1.451009441718162e+001
 1.383729918724911e+000	 5.059746093938343e-001	 1.447424072937221e+001
 1.378317908003116e+000	 5.205368526923688e-001	 1.443936016538309e+001
 1.372739808849457e+000	 5.350741706407586e-001	 1.440657492986996e+001
 1.366995476842530e+000	 5.495838398557151e-001	 1.437719079308842e+001
 1.361084824819811e+000	 5.640631223710400e-001	 1.435271318722893e+001
 1.355007823561020e+000	 5.785092670872235e-001	 1.433486394673643e+001
 1.414679398104287e+000	 4.348421845093938e-001	 1.459825167787088e+001
 1.410072964410428e+000	 4.495550791468633e-001	 1.456772567145067e+001
 1.405301252164111e+000	 4.642563457973713e-001	 1.453535405870292e+001
 1.400363840378210e+000	 4.789433426797219e-001	 1.450165686605102e+001
 1.395260361567427e+000	 4.936134065871611e-001	 1.446727688880943e+001
 1.389990502624114e+000	 5.082638541717731e-001	 1.443299313484047e+001
 1.384554005659376e+000	 5.228919832653841e-001	 1.439973500651337e+001
 1.378950668807896e+000	 5.374950742359759e-001	 1.436859721225138e+001
 1.373180346994846e+000	 5.520703913785263e-001	 1.434085539381562e+001
 1.367242952663334e+000	 5.666151843391242e-001	 1.431798245000056e+001
 1.361138456460870e+000	 5.811266895711268e-001	 1.430166553162272e+001
 1.421051181972596e+000	 4.368007345655731e-001	 1.455132682548729e+001
 1.416424000680605e+000	 4.515798967861565e-001	 1.452192357971630e+001
 1.411630796413619e+000	 4.663473786467382e-001	 1.449078716816855e+001
 1.406671146288361e+000	 4.811005264674270e-001	 1.445842323778312e+001
 1.401544681164364e+000	 4.958366650462715e-001	 1.442545719520972e+001
 1.396251086523720e+000	 5.105530989494411e-001	 1.439264777722120e+001
 1.390790103315994e+000	 5.252471138380813e-001	 1.436090138359835e+001
 1.385161528766653e+000	 5.399159778308346e-001	 1.433128716469166e+001
 1.379365217147443e+000	 5.545569429009455e-001	 1.430505285063373e+001
 1.373401080507109e+000	 5.691672463067921e-001	 1.428364130359281e+001
 1.367269089360954e+000	 5.837441120545979e-001	 1.426870776854346e+001
 1.427422965841425e+000	 4.387592846218074e-001	 1.450552988401865e+001
 1.422775036951282e+000	 4.536047144254504e-001	 1.447722278493370e+001
 1.417960340663596e+000	 4.684384114960553e-001	 1.444727826336957e+001
 1.412978452198947e+000	 4.832577102550353e-001	 1.441618841287035e+001
 1.407829000761696e+000	 4.980599235052413e-001	 1.438456234619957e+001
 1.402511670423681e+000	 5.128423437269288e-001	 1.435313989410476e+001
 1.397026200972924e+000	 5.276022444105624e-001	 1.432280609056801e+001
 1.391372388725682e+000	 5.423368814254453e-001	 1.429460643768666e+001
 1.385550087300275e+000	 5.570434944230900e-001	 1.426976293800342e+001
 1.379559208351090e+000	 5.717193082741620e-001	 1.424969087641264e+001
 1.373399722261223e+000	 5.863615345377534e-001	 1.423601632773331e+001
 1.433794749710720e+000	 4.407178346781115e-001	 1.446079219797193e+001
 1.429126073222402e+000	 4.556295320647760e-001	 1.443354952396079e+001
 1.424289884913989e+000	 4.705294443453696e-001	 1.440475181417714e+001
 1.419285758109915e+000	 4.854148940426089e-001	 1.437487842401245e+001
 1.414113320359371e+000	 5.002831819641476e-001	 1.434452325233200e+001
 1.408772254323946e+000	 5.151315885043268e-001	 1.431440857005199e+001
 1.403262298630117e+000	 5.299573749829295e-001	 1.428539965906544e+001
 1.397583248684935e+000	 5.447577850199196e-001	 1.425852025562414e+001
 1.391734957453297e+000	 5.595300459450763e-001	 1.423496878686129e+001
 1.385717336195230e+000	 5.742713702413534e-001	 1.421613538334015e+001
 1.379530355161627e+000	 5.889789570207107e-001	 1.420361964435555e+001
 1.440166533580434e+000	 4.426763847345017e-001	 1.441704858314575e+001
 1.435477109493914e+000	 4.576543497041642e-001	 1.439083367558435e+001
 1.430619429164743e+000	 4.726204771947272e-001	 1.436313604558163e+001
 1.425593064021210e+000	 4.875720778302098e-001	 1.433442311551497e+001
 1.420397639957336e+000	 5.025064404230675e-001	 1.430527463634030e+001
 1.415032838224463e+000	 5.174208332817257e-001	 1.427639664730319e+001
 1.409498396287527e+000	 5.323125055552848e-001	 1.424863626971893e+001
 1.403794108644368e+000	 5.471786886143681e-001	 1.422299732991250e+001
 1.397919827606464e+000	 5.620165974670217e-001	 1.420065680089274e+001
 1.391875464039482e+000	 5.768234322084858e-001	 1.418298204642616e+001
 1.385660988062116e+000	 5.915963795035859e-001	 1.417154884489561e+001
 1.446538317450518e+000	 4.446349347909926e-001	 1.437423725486488e+001
 1.441828145765765e+000	 4.596791673436457e-001	 1.434900868290222e+001
 1.436948973415803e+000	 4.747115100441747e-001	 1.432236285549236e+001
 1.431900369932776e+000	 4.897292616179004e-001	 1.429475605777712e+001
 1.426681959555538e+000	 5.047296988820778e-001	 1.426675494558341e+001
 1.421293422125183e+000	 5.197100780592155e-001	 1.423905063744953e+001
 1.415734493945104e+000	 5.346676361277298e-001	 1.421247366430388e+001
 1.410004968603934e+000	 5.495995922089024e-001	 1.418800977289357e+001
 1.404104697759729e+000	 5.645031489890430e-001	 1.416681657345027e+001
 1.398033591883801e+000	 5.793754941756774e-001	 1.415024101606304e+001
 1.391791620962641e+000	 5.942138019864963e-001	 1.413983767382430e+001
 1.452910101320921e+000	 4.465934848476001e-001	 1.433229975700632e+001
 1.448179182037901e+000	 4.617039849832513e-001	 1.430801147659141e+001
 1.443278517667114e+000	 4.768025428937587e-001	 1.428236773348448e+001
 1.438207675844560e+000	 4.918864454057426e-001	 1.425581446275508e+001
 1.432966279153926e+000	 5.069529573412555e-001	 1.422890626546260e+001
 1.427554006026055e+000	 5.219993228368872e-001	 1.420232063403766e+001
 1.421970591602801e+000	 5.370227667003673e-001	 1.417687305876747e+001
 1.416215828563587e+000	 5.520204958036332e-001	 1.415353301251502e+001
 1.410289567913049e+000	 5.669897005112574e-001	 1.413344080509632e+001
 1.404191719728141e+000	 5.819275561430481e-001	 1.411792529261451e+001
 1.397922253863151e+000	 5.968312244695583e-001	 1.410852242052203e+001
 1.459281885191594e+000	 4.485520349043394e-001	 1.429118089179265e+001
 1.454530218310268e+000	 4.637288026230114e-001	 1.426778239903537e+001
 1.449608061918620e+000	 4.788935757435255e-001	 1.424308968046487e+001
 1.444514981756508e+000	 4.940436291937986e-001	 1.421753910037120e+001
 1.439250598752446e+000	 5.091762158006776e-001	 1.419167423377893e+001
 1.433814589927030e+000	 5.242885676148311e-001	 1.416616022607864e+001
 1.428206689260569e+000	 5.393778972732990e-001	 1.414179905708944e+001
 1.422426688523280e+000	 5.544413993986719e-001	 1.411954570773976e+001
 1.416474438066377e+000	 5.694762520337816e-001	 1.410052522175268e+001
 1.410349847572454e+000	 5.844796181107167e-001	 1.408605064848999e+001
 1.404052886763597e+000	 5.994486469528891e-001	 1.407764184645614e+001
 1.465653669062488e+000	 4.505105849612260e-001	 1.425082865032915e+001
 1.460881254582814e+000	 4.657536202629573e-001	 1.422826512928420e+001
 1.455937606170270e+000	 4.809846085935220e-001	 1.420447112922849e+001
 1.450822287668566e+000	 4.962008129821307e-001	 1.417987421584064e+001
 1.445534918351047e+000	 5.113994742604213e-001	 1.415500795600325e+001
 1.440075173828056e+000	 5.265778123931375e-001	 1.413052641243364e+001
 1.434442786918362e+000	 5.417330278466270e-001	 1.410721956595363e+001
 1.428637548482970e+000	 5.568623029941296e-001	 1.408602966466934e+001
 1.422659308219669e+000	 5.719628035567329e-001	 1.406806849343720e+001
 1.416507975416695e+000	 5.870316800788020e-001	 1.405463555065030e+001
 1.410183519663929e+000	 6.020660694366057e-001	 1.404723711260377e+001
 1.348877190661454e+000	 5.758918446027711e-001	 1.436828018246238e+001
 1.342663061776438e+000	 5.902347419688698e-001	 1.434193104095515e+001
 1.336283504332451e+000	 6.045391535541665e-001	 1.429611129483279e+001
 1.329738666902602e+000	 6.188023124455790e-001	 1.423420082844145e+001
 1.323028757985271e+000	 6.330214447531308e-001	 1.416002445557842e+001
 1.316154046458454e+000	 6.471937711893181e-001	 1.407791508791324e+001
 1.309114861985428e+000	 6.613165086713273e-001	 1.399251844389618e+001
 1.301911595370601e+000	 6.753868719443946e-001	 1.390906041423353e+001
 1.294544698864472e+000	 6.894020752245478e-001	 1.383246317093217e+001
 1.287014686416663e+000	 7.033593338589054e-001	 1.376500168982710e+001
 1.279322133876119e+000	 7.172558660016536e-001	 1.370870087032277e+001
 1.355007823561020e+000	 5.785092670872235e-001	 1.433486394673643e+001
 1.348765451524407e+000	 5.929173527739513e-001	 1.431016616527552e+001
 1.342356899057681e+000	 6.072867777624577e-001	 1.426596104696876e+001
 1.335782315409221e+000	 6.216147625640550e-001	 1.420560435095478e+001
 1.329041910025039e+000	 6.358985206814514e-001	 1.413279011952009e+001
 1.322135953005187e+000	 6.501352601952950e-001	 1.405174980225004e+001
 1.315064775511268e+000	 6.643221853736749e-001	 1.396714743594152e+001
 1.307828770123901e+000	 6.784564983028588e-001	 1.388476873639891e+001
 1.300428391149066e+000	 6.925354005374994e-001	 1.380959777818417e+001
 1.292864154872291e+000	 7.065560947684821e-001	 1.374380219211214e+001
 1.285136639759758e+000	 7.205157865065180e-001	 1.368943339122277e+001
 1.361138456460870e+000	 5.811266895711268e-001	 1.430166553162272e+001
 1.354867841272664e+000	 5.955999635784846e-001	 1.427844763596469e+001
 1.348430293783214e+000	 6.100344019702138e-001	 1.423569384505014e+001
 1.341825963916171e+000	 6.244272126820184e-001	 1.417672940971540e+001
 1.335055062065178e+000	 6.387755966092875e-001	 1.410519838055750e+001
 1.328117859552339e+000	 6.530767492008194e-001	 1.402514231701091e+001
 1.321014689037577e+000	 6.673278620756021e-001	 1.394121527150012e+001
 1.313745944877724e+000	 6.815261246609314e-001	 1.386015411760324e+001
 1.306312083434239e+000	 6.956687258500838e-001	 1.378651935626978e+001
 1.298713623328551e+000	 7.097528556777062e-001	 1.372245457533712e+001
 1.290951145644077e+000	 7.237757070110322e-001	 1.367003166830404e+001
 1.367269089360954e+000	 5.837441120545979e-001	 1.426870776854346e+001
 1.360970231021149e+000	 5.982825743825796e-001	 1.424682254930612e+001
 1.354503688508985e+000	 6.127820261775336e-001	 1.420537666777212e+001
 1.347869612423378e+000	 6.272396627995539e-001	 1.414765951305611e+001
 1.341068214105600e+000	 6.416526725367080e-001	 1.407727947961965e+001
 1.334099766099807e+000	 6.560182382059423e-001	 1.399818288801993e+001
 1.326964602564244e+000	 6.703335387771426e-001	 1.391496891844004e+001
 1.319663119631949e+000	 6.845957510186308e-001	 1.383541652637524e+001
 1.312195775719856e+000	 6.988020511623030e-001	 1.376341782703819e+001
 1.304563091785300e+000	 7.129496165865686e-001	 1.370113439317689e+001
 1.296765651528928e+000	 7.270356275151803e-001	 1.365065269312000e+001
 1.373399722261223e+000	 5.863615345377534e-001	 1.423601632773331e+001
 1.367072620769810e+000	 6.009651851863458e-001	 1.421534052896922e+001
 1.360577083234930e+000	 6.155296503845165e-001	 1.417507879346966e+001
 1.353913260930768e+000	 6.300521129167457e-001	 1.411847933854083e+001
 1.347081366146221e+000	 6.445297484637816e-001	 1.404910906643764e+001
 1.340081672647496e+000	 6.589597272107155e-001	 1.397087288858245e+001
 1.332914516091158e+000	 6.733392154783306e-001	 1.388866475961723e+001
 1.325580294386450e+000	 6.876653773759736e-001	 1.381075926810904e+001
 1.318079468005786e+000	 7.019353764741605e-001	 1.374048648142831e+001
 1.310412560242396e+000	 7.161463774950609e-001	 1.368002067482399e+001
 1.302580157414160e+000	 7.302955480189453e-001	 1.363145711266909e+001
 1.379530355161627e+000	 5.889789570207107e-001	 1.420361964435555e+001
 1.373175010518588e+000	 6.036477959898938e-001	 1.418405365782027e+001
 1.366650477960983e+000	 6.182772745912598e-001	 1.414487173592136e+001
 1.359956909438264e+000	 6.328645630336793e-001	 1.408927565676798e+001
 1.353094518186951e+000	 6.474068243905763e-001	 1.402078503942238e+001
 1.346063579195304e+000	 6.619012162151902e-001	 1.394325707717441e+001
 1.338864429618206e+000	 6.763448921792001e-001	 1.386241057773782e+001
 1.331497469141105e+000	 6.907350037329777e-001	 1.378638887801596e+001
 1.323963160291892e+000	 7.050687017856593e-001	 1.371792186557413e+001
 1.316262028699694e+000	 7.193431384031742e-001	 1.365929580278306e+001
 1.308394663299624e+000	 7.335554685223119e-001	 1.361260909745713e+001
 1.385660988062116e+000	 5.915963795035859e-001	 1.417154884489561e+001
 1.379277400267429e+000	 6.063304067933328e-001	 1.415301640980819e+001
 1.372723872687082e+000	 6.210248987978638e-001	 1.411482918007170e+001
 1.366000557945791e+000	 6.356770131504382e-001	 1.406013726930094e+001
 1.359107670227705e+000	 6.502839003171606e-001	 1.399240726675424e+001
 1.352045485743133e+000	 6.648427052194170e-001	 1.391544238519704e+001
 1.344814343145278e+000	 6.793505688797844e-001	 1.383627887678165e+001
 1.337414643895790e+000	 6.938046300896604e-001	 1.376244037656136e+001
 1.329846852578039e+000	 7.082020270968021e-001	 1.369592366683728e+001
 1.322111497157053e+000	 7.225398993108999e-001	 1.363914539074726e+001
 1.314209169185171e+000	 7.368153890252628e-001	 1.359427620983283e+001
 1.391791620962641e+000	 5.942138019864963e-001	 1.413983767382430e+001
 1.385379790016275e+000	 6.090130175967728e-001	 1.412228558192200e+001
 1.378797267413160e+000	 6.237725230044265e-001	 1.408502691767401e+001
 1.372044206453275e+000	 6.384894632671082e-001	 1.403115494641230e+001
 1.365120822268397e+000	 6.531609762436034e-001	 1.396407752467227e+001
 1.358027392290884e+000	 6.677841942234478e-001	 1.388756323387393e+001
 1.350764256672261e+000	 6.823562455801177e-001	 1.381046838858333e+001
 1.343331818650383e+000	 6.968742564460391e-001	 1.373889582632563e+001
 1.335730544864097e+000	 7.113353524075916e-001	 1.367466302615950e+001
 1.327960965614328e+000	 7.257366602182296e-001	 1.361975816155049e+001
 1.320023675070649e+000	 7.400753095277823e-001	 1.357662927258925e+001
 1.397922253863151e+000	 5.968312244695583e-001	 1.410852242052203e+001
 1.391482179765073e+000	 6.116956284003237e-001	 1.409192022621928e+001
 1.384870662139153e+000	 6.265201472110472e-001	 1.405554278285670e+001
 1.378087854960640e+000	 6.413019133837734e-001	 1.400242136464762e+001
 1.371133974308938e+000	 6.560380521699728e-001	 1.393589943552207e+001
 1.364009298838458e+000	 6.707256832273331e-001	 1.386003125361899e+001
 1.356714170199044e+000	 6.853619222802337e-001	 1.378517470822879e+001
 1.349248993404759e+000	 6.999438828021314e-001	 1.371593028217527e+001
 1.341614237149928e+000	 7.144686777180310e-001	 1.365406083096164e+001
 1.333810434071377e+000	 7.289334211251541e-001	 1.360132421540307e+001
 1.325838180955911e+000	 7.433352300298545e-001	 1.355984223782224e+001
 1.404052886763597e+000	 5.994486469528891e-001	 1.407764184645614e+001
 1.397584569513765e+000	 6.143782392040952e-001	 1.406198158192196e+001
 1.390944056864996e+000	 6.292677714178239e-001	 1.402645658761460e+001
 1.384131503467812e+000	 6.441143635005187e-001	 1.397403104421443e+001
 1.377147126349243e+000	 6.589151280963376e-001	 1.390797840557029e+001
 1.369991205385755e+000	 6.736671722311245e-001	 1.383310988767893e+001
 1.362664083725515e+000	 6.883675989801661e-001	 1.376058983426765e+001
 1.355166168158795e+000	 7.030135091579541e-001	 1.369372930955177e+001
 1.347497929435399e+000	 7.176020030281235e-001	 1.363423047813794e+001
 1.339659902528057e+000	 7.321301820316656e-001	 1.358378582334208e+001
 1.331652686840806e+000	 7.465951505314625e-001	 1.354409205603835e+001
 1.410183519663929e+000	 6.020660694366057e-001	 1.404723711260377e+001
 1.403686959262296e+000	 6.170608500081971e-001	 1.403253300757824e+001
 1.397017451590627e+000	 6.320153956248561e-001	 1.399785005722853e+001
 1.390175151974715e+000	 6.469268136174284e-001	 1.394608028620154e+001
 1.383160278389224e+000	 6.617922040227658e-001	 1.388042156259229e+001
 1.375973111932677e+000	 6.766086612348735e-001	 1.380699036651101e+001
 1.368613997251564e+000	 6.913732756799494e-001	 1.373690220222592e+001
 1.361083342912368e+000	 7.060831355135255e-001	 1.367247499298107e+001
 1.353381621720377e+000	 7.207353283378716e-001	 1.361534421174399e+001
 1.345509370984224e+000	 7.353269429377547e-001	 1.356713052675873e+001
 1.337467192725185e+000	 7.498550710325906e-001	 1.352943494941231e+001
 1.279322133876119e+000	 7.172558660016536e-001	 1.370870087032277e+001
 1.271466488913099e+000	 7.310909646953697e-001	 1.365535916991967e+001
 1.263449594561992e+000	 7.448597689014561e-001	 1.359574959258859e+001
 1.255272214413711e+000	 7.585595149683920e-001	 1.353018457361471e+001
 1.246935174241497e+000	 7.721874489079046e-001	 1.345884405612002e+001
 1.238439361924098e+000	 7.857408281201320e-001	 1.338177222769892e+001
 1.229785727312124e+000	 7.992169231221942e-001	 1.329887524135405e+001
 1.220975282037234e+000	 8.126130192780127e-001	 1.320991996583334e+001
 1.212009099263907e+000	 8.259264185271869e-001	 1.311453380301990e+001
 1.202888313383635e+000	 8.391544411107291e-001	 1.301220560207579e+001
 1.193614119651469e+000	 8.522944272914291e-001	 1.290228769164317e+001
 1.285136639759758e+000	 7.205157865065180e-001	 1.368943339122277e+001
 1.277245290971400e+000	 7.344137655810575e-001	 1.363811761494069e+001
 1.269191959918177e+000	 7.482451488601338e-001	 1.358044852456329e+001
 1.260977413661517e+000	 7.620071601314624e-001	 1.351675353735355e+001
 1.252602481727787e+000	 7.756970328899256e-001	 1.344722772221321e+001
 1.244068056031136e+000	 7.893120120705770e-001	 1.337193039143614e+001
 1.235375090739231e+000	 8.028493557850693e-001	 1.329078270018563e+001
 1.226524602081588e+000	 8.163063370593355e-001	 1.320356630040448e+001
 1.217517668100205e+000	 8.296802455703223e-001	 1.310992308822063e+001
 1.208355428342368e+000	 8.429683893795678e-001	 1.300935607574142e+001
 1.199039083495551e+000	 8.561680966613903e-001	 1.290123140950333e+001
 1.290951145644077e+000	 7.237757070110322e-001	 1.367003166830404e+001
 1.283024093030423e+000	 7.377365664663843e-001	 1.362071845155801e+001
 1.274934325275120e+000	 7.516305288184263e-001	 1.356494948644808e+001
 1.266682612910105e+000	 7.654548052941124e-001	 1.350307060134495e+001
 1.258269789214880e+000	 7.792066168714839e-001	 1.343529564602539e+001
 1.249696750138987e+000	 7.928831960205117e-001	 1.336170292945844e+001
 1.240964454167154e+000	 8.064817884473835e-001	 1.328223268890048e+001
 1.232073922126751e+000	 8.199996548400456e-001	 1.319668563866876e+001
 1.223026236937295e+000	 8.334340726127941e-001	 1.310472263911295e+001
 1.213822543301870e+000	 8.467823376476982e-001	 1.300586551791250e+001
 1.204464047340367e+000	 8.600417660306019e-001	 1.289949906696914e+001
 1.296765651528928e+000	 7.270356275151803e-001	 1.365065269311999e+001
 1.288802895090015e+000	 7.410593673513299e-001	 1.360329923491613e+001
 1.280676690632666e+000	 7.550159087763153e-001	 1.354937296602151e+001
 1.272387812159327e+000	 7.689024504563309e-001	 1.348924155738412e+001
 1.263937096702628e+000	 7.827162008525765e-001	 1.342314129239395e+001
 1.255325444247508e+000	 7.964543799699438e-001	 1.335117334146085e+001
 1.246553817595757e+000	 8.101142211091577e-001	 1.327330109166757e+001
 1.237623242172595e+000	 8.236929726201788e-001	 1.318934858158001e+001
 1.228534805775061e+000	 8.371878996546550e-001	 1.309900008323726e+001
 1.219289658262030e+000	 8.505962859151863e-001	 1.300180086473088e+001
 1.209889011185817e+000	 8.639154353991482e-001	 1.289715915768173e+001
 1.302580157414160e+000	 7.302955480189453e-001	 1.363145711266909e+001
 1.294581697150023e+000	 7.443821682358760e-001	 1.358600137124848e+001
 1.286419055990660e+000	 7.584012887337839e-001	 1.353384345706583e+001
 1.278093011409026e+000	 7.723500956181048e-001	 1.347537631878094e+001
 1.269604404190879e+000	 7.862257848331998e-001	 1.341086232510514e+001
 1.260954138356556e+000	 8.000255639188816e-001	 1.334042936677025e+001
 1.252143181024903e+000	 8.137466537704131e-001	 1.326406803754087e+001
 1.243172562218992e+000	 8.273862903997703e-001	 1.318162994611384e+001
 1.234043374613380e+000	 8.409417266959555e-001	 1.309282720248183e+001
 1.224756773222739e+000	 8.544102341821005e-001	 1.299723311349485e+001
 1.215313975031800e+000	 8.677891047671119e-001	 1.289428411300802e+001
 1.308394663299624e+000	 7.335554685223119e-001	 1.361260909745713e+001
 1.300360499210294e+000	 7.477049691200033e-001	 1.356896997608961e+001
 1.292161421348948e+000	 7.617866686908141e-001	 1.351848930888958e+001
 1.283798210659051e+000	 7.757977407794225e-001	 1.346158876234607e+001
 1.275271711679485e+000	 7.897353688133503e-001	 1.339856044248584e+001
 1.266582832465985e+000	 8.035967478673327e-001	 1.332956281467424e+001
 1.257732544454452e+000	 8.173790864311703e-001	 1.325461772664359e+001
 1.248721882265810e+000	 8.310796081788572e-001	 1.317360858841298e+001
 1.239551943452133e+000	 8.446955537367477e-001	 1.308627975427823e+001
 1.230223888183886e+000	 8.582241824485075e-001	 1.299223714297657e+001
 1.220738938878217e+000	 8.716627741345753e-001	 1.289095012253522e+001
 1.314209169185171e+000	 7.368153890252628e-001	 1.359427620983283e+001
 1.306139301270674e+000	 7.510277700036923e-001	 1.355235373296105e+001
 1.297903786707376e+000	 7.651720486473885e-001	 1.350344257649805e+001
 1.289503409909248e+000	 7.792453859402714e-001	 1.344799657116985e+001
 1.280939019168297e+000	 7.932449527930245e-001	 1.338634121390818e+001
 1.272211526575653e+000	 8.071679318153050e-001	 1.331866939575632e+001
 1.263321907884269e+000	 8.210115190914508e-001	 1.324503825742753e+001
 1.254271202312923e+000	 8.347729259574741e-001	 1.316536722805006e+001
 1.245060512291201e+000	 8.484493807770828e-001	 1.307943729393252e+001
 1.235691003145361e+000	 8.620381307144748e-001	 1.298689153487034e+001
 1.226163902724966e+000	 8.755364435016215e-001	 1.288723695566616e+001
 1.320023675070649e+000	 7.400753095277823e-001	 1.357662927258925e+001
 1.311918103331010e+000	 7.543505708869248e-001	 1.353630475251732e+001
 1.303646152065790e+000	 7.685574286034900e-001	 1.348883887138992e+001
 1.295208609159464e+000	 7.826930311006397e-001	 1.343472107817092e+001
 1.286606326657166e+000	 7.967545367722192e-001	 1.337431391717883e+001
 1.277840220685413e+000	 8.107391157628058e-001	 1.330784855420680e+001
 1.268911271314218e+000	 8.246439517512760e-001	 1.323542145497380e+001
 1.259820522360200e+000	 8.384662437356580e-001	 1.315699227337351e+001
 1.250569081130463e+000	 8.522032078170125e-001	 1.307238299805687e+001
 1.241158118107053e+000	 8.658520789800703e-001	 1.298127839633519e+001
 1.231588866571949e+000	 8.794101128683336e-001	 1.288322778428089e+001
 1.325838180955911e+000	 7.433352300298545e-001	 1.355984223782224e+001
 1.317696905391148e+000	 7.576733717696806e-001	 1.352097843213661e+001
 1.309388517424035e+000	 7.719428085591007e-001	 1.347481721296282e+001
 1.300913808409549e+000	 7.861406762605158e-001	 1.342188711038902e+001
 1.292273634145942e+000	 8.002641207509306e-001	 1.336259137678654e+001
 1.283468914795125e+000	 8.143102997098430e-001	 1.329720330107928e+001
 1.274500634744160e+000	 8.282763844106668e-001	 1.322586270030295e+001
 1.265369842407514e+000	 8.421595615134447e-001	 1.314857364790310e+001
 1.256077649969800e+000	 8.559570348565883e-001	 1.306520348906854e+001
 1.246625233068853e+000	 8.696660272453608e-001	 1.297548318359920e+001
 1.237013830419063e+000	 8.832837822347940e-001	 1.287900900643303e+001
 1.331652686840806e+000	 7.465951505314625e-001	 1.354409205603835e+001
 1.323475707450936e+000	 7.609961726519411e-001	 1.350653331594406e+001
 1.315130882781956e+000	 7.753281885142023e-001	 1.346151988050762e+001
 1.306619007659346e+000	 7.895883214198862e-001	 1.340962283400135e+001
 1.297940941634475e+000	 8.037737047291553e-001	 1.335128980298005e+001
 1.289097608904642e+000	 8.178814836564250e-001	 1.328684004846390e+001
 1.280089998173959e+000	 8.319088170696446e-001	 1.321646076066382e+001
 1.270919162454734e+000	 8.458528792908694e-001	 1.314020461774284e+001
 1.261586218809091e+000	 8.597108618958619e-001	 1.305798866072254e+001
 1.252092348030650e+000	 8.734799755104138e-001	 1.296959452659315e+001
 1.242438794266210e+000	 8.871574516010856e-001	 1.287467007104735e+001
 1.337467192725185e+000	 7.498550710325906e-001	 1.352943494941231e+001
 1.329254509510220e+000	 7.643189735336878e-001	 1.349313095525310e+001
 1.320873248139401e+000	 7.787135684687788e-001	 1.344909226577443e+001
 1.312324206908703e+000	 7.930359665787399e-001	 1.339805960003849e+001
 1.303608249122617e+000	 8.072832887068897e-001	 1.334052863165355e+001
 1.294726303013822e+000	 8.214526676025593e-001	 1.327686844454927e+001
 1.285679361603477e+000	 8.355412497282297e-001	 1.320731762077094e+001
 1.276468482501733e+000	 8.495461970679689e-001	 1.313198161998158e+001
 1.267094787648218e+000	 8.634646889348845e-001	 1.305083150464790e+001
 1.257559462992334e+000	 8.772939237752969e-001	 1.296370405458106e+001
 1.247863758113289e+000	 8.910311209672919e-001	 1.287030330358983e+001
 1.193614119651469e+000	 8.522944272914291e-001	 1.290228769164317e+001
 1.184187773428212e+000	 8.653437387781996e-001	 1.279025055139113e+001
 1.174610588701024e+000	 8.782997595461004e-001	 1.268121064905175e+001
 1.164883938575646e+000	 8.911598983624565e-001	 1.257378779820729e+001
 1.155009255025385e+000	 9.039215907491438e-001	 1.246647298713733e+001
 1.144988028244612e+000	 9.165823006445137e-001	 1.235763641714300e+001
 1.134821805946257e+000	 9.291395220466800e-001	 1.224553661171649e+001
 1.124512192603938e+000	 9.415907806359750e-001	 1.212833055188309e+001
 1.114060848639436e+000	 9.539336353744131e-001	 1.200408478371495e+001
 1.103469489556340e+000	 9.661656800800127e-001	 1.187078743494959e+001
 1.092739885020771e+000	 9.782845449738733e-001	 1.172636106892961e+001
 1.199039083495551e+000	 8.561680966613903e-001	 1.290123140950333e+001
 1.189569894626156e+000	 8.692767171336990e-001	 1.279099784775750e+001
 1.179949181693395e+000	 8.822916228817611e-001	 1.268374451496382e+001
 1.170178324043753e+000	 8.952102108957880e-001	 1.257809333667572e+001
 1.160258760158835e+000	 9.080299050421431e-001	 1.247253347124992e+001
 1.150191987005923e+000	 9.207481577328160e-001	 1.236542948578498e+001
 1.139979559332279e+000	 9.333624515761817e-001	 1.225503063891551e+001
 1.129623088903830e+000	 9.458703010068277e-001	 1.213948122491963e+001
 1.119124243688950e+000	 9.582692538922897e-001	 1.201683192398093e+001
 1.108484746988168e+000	 9.705568931145264e-001	 1.188505209409139e+001
 1.097706376510712e+000	 9.827308381240307e-001	 1.174204293108880e+001
 1.204464047340367e+000	 8.600417660306019e-001	 1.289949906696914e+001
 1.194952015824789e+000	 8.732096954884189e-001	 1.279103671464788e+001
 1.185287774686401e+000	 8.862834862166201e-001	 1.268552499089088e+001
 1.175472709512434e+000	 8.992605234283049e-001	 1.258159044177033e+001
 1.165508265292791e+000	 9.121382193343226e-001	 1.247772292765995e+001
 1.155395945767666e+000	 9.249140148203019e-001	 1.237228393562899e+001
 1.145137312718654e+000	 9.375853811048774e-001	 1.226351603543053e+001
 1.134733985203993e+000	 9.501498213768944e-001	 1.214955343266805e+001
 1.124187638738652e+000	 9.626048724094066e-001	 1.202843356280603e+001
 1.113500004420099e+000	 9.749481061483156e-001	 1.189810966004833e+001
 1.102672868000670e+000	 9.871771312735052e-001	 1.175646422582654e+001
 1.209889011185817e+000	 8.639154353991482e-001	 1.289715915768173e+001
 1.200334137024022e+000	 8.771426738424566e-001	 1.279043892759133e+001
 1.190626367679964e+000	 8.902753495507885e-001	 1.268662835176323e+001
 1.180767094981621e+000	 9.033108359601296e-001	 1.258436109140214e+001
 1.170757770427195e+000	 9.162465336258145e-001	 1.248213022258656e+001
 1.160599904529793e+000	 9.290798719071129e-001	 1.237829668399088e+001
 1.150295066105347e+000	 9.418083106329169e-001	 1.227109890569290e+001
 1.139844881504405e+000	 9.544293417463268e-001	 1.215866357176980e+001
 1.129251033788531e+000	 9.669404909259187e-001	 1.203901745916032e+001
 1.118515261852135e+000	 9.793393191815332e-001	 1.191010028532953e+001
 1.107639359490663e+000	 9.916234244224459e-001	 1.176977848770318e+001
 1.215313975031800e+000	 8.677891047671119e-001	 1.289428411300802e+001
 1.205716258223763e+000	 8.810756521959097e-001	 1.278928005611472e+001
 1.195964960674003e+000	 8.942672128843769e-001	 1.268713451199651e+001
 1.186061480451242e+000	 9.073611484913845e-001	 1.258649073826839e+001
 1.176007275561987e+000	 9.203548479167536e-001	 1.248584752270761e+001
 1.165803863292257e+000	 9.332457289933898e-001	 1.238356776520922e+001
 1.155452819492321e+000	 9.460312401604467e-001	 1.227788827909396e+001
 1.144955777805041e+000	 9.587088621152785e-001	 1.216693076358125e+001
 1.134314428838575e+000	 9.712761094419803e-001	 1.204871388870483e+001
 1.123530519284278e+000	 9.837305322143327e-001	 1.192116642369910e+001
 1.112605850980706e+000	 9.960697175710029e-001	 1.178214133001799e+001
 1.220738938878217e+000	 8.716627741345753e-001	 1.289095012253522e+001
 1.211098379423924e+000	 8.850086305488757e-001	 1.278763928525567e+001
 1.201303553668436e+000	 8.982590762174960e-001	 1.268712684866081e+001
 1.191355865921229e+000	 9.114114610221925e-001	 1.258806813530508e+001
 1.181256780697107e+000	 9.244631622072710e-001	 1.248897012351476e+001
 1.171007822055010e+000	 9.374115860792748e-001	 1.238820016251257e+001
 1.160610572879540e+000	 9.502541696876151e-001	 1.228399594596203e+001
 1.150066674105876e+000	 9.629883824839004e-001	 1.217447669484402e+001
 1.139377823888773e+000	 9.756117279577450e-001	 1.205765548972766e+001
 1.128545776716530e+000	 9.881217452468674e-001	 1.193145268193615e+001
 1.117572342470817e+000	 1.000516010719327e+000	 1.179371030293358e+001
 1.226163902724966e+000	 8.755364435016215e-001	 1.288723695566616e+001
 1.216480500624413e+000	 8.889416089014518e-001	 1.278559923812957e+001
 1.206642146663185e+000	 9.022509395502558e-001	 1.268669202564285e+001
 1.196650251391511e+000	 9.154617735526760e-001	 1.258918516206215e+001
 1.186506285832498e+000	 9.285714764975006e-001	 1.249159627850858e+001
 1.176211780818002e+000	 9.415774431649091e-001	 1.239229964063108e+001
 1.165768326266968e+000	 9.544770992145705e-001	 1.228953629417688e+001
 1.155177570406885e+000	 9.672679028523454e-001	 1.218142545887660e+001
 1.144441218939113e+000	 9.799473464733667e-001	 1.206597710947376e+001
 1.133561034148893e+000	 9.925129582792911e-001	 1.194110567184987e+001
 1.122538833961011e+000	 1.004962303867566e+000	 1.180464475171000e+001
 1.231588866571949e+000	 8.794101128683336e-001	 1.288322778428089e+001
 1.221862621825139e+000	 8.928745872537349e-001	 1.278324579951659e+001
 1.211980739658170e+000	 9.062428028827684e-001	 1.268591981877227e+001
 1.201944636862018e+000	 9.195120860829577e-001	 1.258993665197247e+001
 1.191755790968099e+000	 9.326797907875748e-001	 1.249382702920621e+001
 1.181415739581187e+000	 9.457433002504337e-001	 1.239597457912864e+001
 1.170926079654566e+000	 9.587000287414601e-001	 1.229462614640179e+001
 1.160288466708044e+000	 9.715474232207657e-001	 1.218790339727032e+001
 1.149504613989583e+000	 9.842829649890003e-001	 1.207381565085456e+001
 1.138576291581370e+000	 9.969041713117569e-001	 1.195027386254082e+001
 1.127505325451305e+000	 1.009408597015872e+000	 1.181510567503966e+001
 1.237013830419063e+000	 8.832837822347940e-001	 1.287900900643303e+001
 1.227244743026015e+000	 8.968075656058232e-001	 1.278066794043926e+001
 1.217319332653310e+000	 9.102346662151432e-001	 1.268490294188101e+001
 1.207239022332682e+000	 9.235623986131606e-001	 1.259042022048662e+001
 1.197005296103852e+000	 9.367881050776268e-001	 1.249576603593715e+001
 1.186619698344515e+000	 9.499091573359905e-001	 1.239933580643499e+001
 1.176083833042299e+000	 9.629229582684320e-001	 1.229938459791578e+001
 1.165399363009330e+000	 9.758269435893137e-001	 1.219403894207419e+001
 1.154568009040171e+000	 9.886185835047997e-001	 1.208130991952815e+001
 1.143591549013961e+000	 1.001295384344419e+000	 1.195910743290255e+001
 1.132471816941716e+000	 1.013854890164394e+000	 1.182525660315960e+001
 1.242438794266210e+000	 8.871574516010856e-001	 1.287467007104735e+001
 1.232626864226947e+000	 9.007405439578134e-001	 1.277795754369872e+001
 1.222657925648524e+000	 9.142265295474914e-001	 1.268373687376780e+001
 1.212533407803432e+000	 9.276127111434063e-001	 1.259073609404888e+001
 1.202254801239697e+000	 9.408964193677896e-001	 1.249751940940305e+001
 1.191823657107940e+000	 9.540750144217212e-001	 1.240249643455443e+001
 1.181241586430130e+000	 9.671458877956344e-001	 1.230393285502593e+001
 1.170510259310717e+000	 9.801064639581415e-001	 1.219996245845472e+001
 1.159631404090867e+000	 9.929542020209187e-001	 1.208860047133588e+001
 1.148606806446670e+000	 1.005686597377430e+000	 1.196775812435487e+001
 1.137438308432261e+000	 1.018301183313283e+000	 1.183525948395589e+001
 1.247863758113289e+000	 8.910311209672919e-001	 1.287030330358983e+001
 1.238008985427848e+000	 9.046735223098030e-001	 1.277520923034139e+001
 1.227996518643735e+000	 9.182183928799237e-001	 1.268251968604086e+001
 1.217827793274197e+000	 9.316630236738184e-001	 1.259098693988677e+001
 1.207504306375576e+000	 9.450047336581960e-001	 1.249919554297878e+001
 1.197027615871412e+000	 9.582408715077666e-001	 1.240557169443188e+001
 1.186399339818024e+000	 9.713688173232155e-001	 1.230839407404323e+001
 1.175621155612181e+000	 9.843859843274009e-001	 1.220580608781480e+001
 1.164694799141658e+000	 9.972898205375118e-001	 1.209582946008721e+001
 1.153622063879497e+000	 1.010077810410943e+000	 1.197637909380289e+001
 1.142404799922955e+000	 1.022747476462686e+000	 1.184528032233440e+001
 1.092739885020771e+000	 9.782845449738733e-001	 1.172636106892961e+001
 1.081875498010749e+000	 9.902861067161902e-001	 1.157859575574679e+001
 1.070876604467505e+000	 1.002169900948811e+000	 1.143545332899362e+001
 1.059745130581474e+000	 1.013933678039448e+000	 1.129514153888864e+001
 1.048483052470228e+000	 1.025575230629225e+000	 1.115588060650307e+001
 1.037092395011246e+000	 1.037092395011246e+000	 1.101591771864853e+001
 1.025575230629225e+000	 1.048483052470228e+000	 1.087354173096555e+001
 1.013933678039448e+000	 1.059745130581474e+000	 1.072709796564905e+001
 1.002169900948811e+000	 1.070876604467505e+000	 1.057500298710760e+001
 9.902861067161898e-001	 1.081875498010748e+000	 1.041575923664142e+001
 9.782845449738733e-001	 1.092739885020771e+000	 1.024796940596011e+001
 1.097706376510712e+000	 9.827308381240307e-001	 1.174204293108880e+001
 1.086792610973798e+000	 9.947869468404698e-001	 1.159571657284822e+001
 1.075743727572818e+000	 1.006724752795177e+000	 1.145414801714525e+001
 1.064561661252739e+000	 1.018541996131295e+000	 1.131550750940822e+001
 1.053248397112579e+000	 1.030236459457509e+000	 1.117797754400300e+001
 1.041805969232883e+000	 1.041805969232883e+000	 1.103976779548706e+001
 1.030236459457509e+000	 1.053248397112579e+000	 1.089913027164147e+001
 1.018541996131295e+000	 1.064561661252739e+000	 1.075437457143328e+001
 1.006724752795177e+000	 1.075743727572818e+000	 1.060388312779322e+001
 9.947869468404696e-001	 1.086792610973798e+000	 1.044612631276869e+001
 9.827308381240306e-001	 1.097706376510712e+000	 1.027967728127323e+001
 1.102672868000670e+000	 9.871771312735052e-001	 1.175646422582654e+001
 1.091709723936780e+000	 9.992877869641140e-001	 1.161153655399968e+001
 1.080610850677982e+000	 1.011279604640963e+000	 1.147151638647446e+001
 1.069378191923773e+000	 1.023150314222622e+000	 1.133453368825116e+001
 1.058013741754623e+000	 1.034897688285340e+000	 1.119873015574600e+001
 1.046519543454137e+000	 1.046519543454137e+000	 1.106228001156820e+001
 1.034897688285340e+000	 1.058013741754623e+000	 1.092337856369032e+001
 1.023150314222622e+000	 1.069378191923773e+000	 1.078031206063377e+001
 1.011279604640963e+000	 1.080610850677982e+000	 1.063141929932225e+001
 9.992877869641136e-001	 1.091709723936780e+000	 1.047513427927128e+001
 9.871771312735052e-001	 1.102672868000670e+000	 1.030999612379612e+001
 1.107639359490663e+000	 9.916234244224459e-001	 1.176977848770318e+001
 1.096626836899727e+000	 1.003788627087267e+000	 1.162622194080947e+001
 1.085477973783044e+000	 1.015834456486303e+000	 1.148773509387788e+001
 1.074194722594640e+000	 1.027758632313554e+000	 1.135240820563386e+001
 1.062779086396438e+000	 1.039558917112827e+000	 1.121833349709944e+001
 1.051233117675104e+000	 1.051233117675104e+000	 1.108363786815450e+001
 1.039558917112827e+000	 1.062779086396438e+000	 1.094648880388662e+001
 1.027758632313553e+000	 1.074194722594640e+000	 1.080511288830945e+001
 1.015834456486303e+000	 1.085477973783043e+000	 1.065780357108412e+001
 1.003788627087267e+000	 1.096626836899727e+000	 1.050297011145024e+001
 9.916234244224458e-001	 1.107639359490663e+000	 1.033910568268892e+001
 1.112605850980706e+000	 9.960697175710029e-001	 1.178214133001799e+001
 1.101543949862671e+000	 1.008289467210072e+000	 1.163994085319140e+001
 1.090345096888051e+000	 1.020389308331332e+000	 1.150298252444962e+001
 1.079011253265406e+000	 1.032366950404211e+000	 1.136931088301061e+001
 1.067544431038105e+000	 1.044220145940081e+000	 1.123697109959744e+001
 1.055946691895879e+000	 1.055946691895878e+000	 1.110404267217923e+001
 1.044220145940081e+000	 1.067544431038105e+000	 1.096864544657828e+001
 1.032366950404211e+000	 1.079011253265406e+000	 1.082895875226856e+001
 1.020389308331332e+000	 1.090345096888051e+000	 1.068322983227769e+001
 1.008289467210072e+000	 1.101543949862671e+000	 1.052982277263362e+001
 9.960697175710030e-001	 1.112605850980706e+000	 1.036718790307548e+001
 1.117572342470817e+000	 1.000516010719327e+000	 1.179371030293358e+001
 1.106461062825644e+000	 1.012790307332672e+000	 1.165286315374084e+001
 1.095212219993053e+000	 1.024944160176184e+000	 1.151744114125050e+001
 1.083827783936134e+000	 1.036975268494720e+000	 1.138543289906047e+001
 1.072309775679705e+000	 1.048881374767212e+000	 1.125484101522389e+001
 1.060660266116558e+000	 1.060660266116558e+000	 1.112369178260723e+001
 1.048881374767212e+000	 1.072309775679705e+000	 1.099005384547948e+001
 1.036975268494720e+000	 1.083827783936134e+000	 1.085205547085789e+001
 1.024944160176184e+000	 1.095212219993053e+000	 1.070790184045178e+001
 1.012790307332672e+000	 1.106461062825644e+000	 1.055588310238013e+001
 1.000516010719327e+000	 1.117572342470816e+000	 1.039442681413727e+001
 1.122538833961011e+000	 1.004962303867566e+000	 1.180464475171000e+001
 1.111378175788677e+000	 1.017291147455212e+000	 1.166516195882368e+001
 1.100079343098097e+000	 1.029499012020994e+000	 1.153128749896306e+001
 1.088644314606888e+000	 1.041583586585202e+000	 1.140096356033571e+001
 1.077075120321317e+000	 1.053542603594330e+000	 1.127213829162762e+001
 1.065373840337237e+000	 1.065373840337237e+000	 1.114278389078315e+001
 1.053542603594330e+000	 1.077075120321317e+000	 1.101091425356257e+001
 1.041583586585202e+000	 1.088644314606888e+000	 1.087460279232388e+001
 1.029499012020994e+000	 1.100079343098096e+000	 1.073200028644971e+001
 1.017291147455212e+000	 1.111378175788677e+000	 1.058135262291081e+001
 1.004962303867566e+000	 1.122538833961010e+000	 1.042100841695077e+001
 1.127505325451305e+000	 1.009408597015872e+000	 1.181510567503966e+001
 1.116295288751804e+000	 1.021791987577834e+000	 1.167700701015890e+001
 1.104946466203231e+000	 1.034053863865896e+000	 1.154470678185209e+001
 1.093460845277733e+000	 1.046191904675780e+000	 1.141609342383900e+001
 1.081840464963022e+000	 1.058203832421545e+000	 1.128905918608083e+001
 1.070087414558012e+000	 1.070087414558012e+000	 1.116151890167913e+001
 1.058203832421546e+000	 1.081840464963022e+000	 1.103142818500113e+001
 1.046191904675780e+000	 1.093460845277733e+000	 1.089680181591997e+001
 1.034053863865896e+000	 1.104946466203231e+000	 1.075573216760801e+001
 1.021791987577833e+000	 1.116295288751804e+000	 1.060640753225885e+001
 1.009408597015872e+000	 1.127505325451305e+000	 1.044712057207762e+001
 1.132471816941716e+000	 1.013854890164394e+000	 1.182525660315960e+001
 1.121212401715056e+000	 1.026292827700682e+000	 1.168857411663818e+001
 1.109813589308504e+000	 1.038608715711025e+000	 1.155788298685031e+001
 1.098277375948733e+000	 1.050800222766579e+000	 1.143101417094639e+001
 1.086605809604901e+000	 1.062865061248969e+000	 1.130580104322317e+001
 1.074800988778979e+000	 1.074800988778979e+000	 1.118009781480833e+001
 1.062865061248969e+000	 1.086605809604901e+000	 1.105179829860985e+001
 1.050800222766579e+000	 1.098277375948733e+000	 1.091885487724072e+001
 1.038608715711025e+000	 1.109813589308504e+000	 1.077929752727569e+001
 1.026292827700681e+000	 1.121212401715056e+000	 1.063125274999473e+001
 1.013854890164394e+000	 1.132471816941716e+000	 1.047296225674101e+001
 1.137438308432261e+000	 1.018301183313283e+000	 1.183525948395589e+001
 1.126129514678464e+000	 1.030793667823899e+000	 1.170003875640231e+001
 1.114680712413962e+000	 1.043163567556515e+000	 1.157100118692296e+001
 1.103093906619952e+000	 1.055408540857721e+000	 1.144591848110898e+001
 1.091371154247033e+000	 1.067526290076710e+000	 1.132256217252315e+001
 1.079514563000233e+000	 1.079514563000233e+000	 1.119872260481321e+001
 1.067526290076710e+000	 1.091371154247033e+000	 1.107222828093822e+001
 1.055408540857721e+000	 1.103093906619952e+000	 1.094096543321017e+001
 1.043163567556515e+000	 1.114680712413962e+000	 1.080289766332967e+001
 1.030793667823899e+000	 1.126129514678465e+000	 1.065608549823796e+001
 1.018301183313283e+000	 1.137438308432261e+000	 1.049870570547632e+001
 1.142404799922955e+000	 1.022747476462686e+000	 1.184528032233440e+001
 1.131046627642062e+000	 1.035294507947630e+000	 1.171157747159460e+001
 1.119547835519656e+000	 1.047718419402501e+000	 1.158424740023644e+001
 1.107910437291455e+000	 1.060016858949330e+000	 1.146099990534161e+001
 1.096136498889500e+000	 1.072187518904880e+000	 1.133954172546489e+001
 1.084228137221870e+000	 1.084228137221870e+000	 1.121759610173923e+001
 1.072187518904880e+000	 1.096136498889500e+000	 1.109292272902893e+001
 1.060016858949330e+000	 1.107910437291456e+000	 1.096333794673417e+001
 1.047718419402502e+000	 1.119547835519656e+000	 1.082673501413946e+001
 1.035294507947629e+000	 1.131046627642062e+000	 1.068110431169492e+001
 1.022747476462687e+000	 1.142404799922955e+000	 1.052455330736526e+001
 9.782845449738733e-001	 1.092739885020771e+000	 1.024796940596011e+001
 9.661656800800127e-001	 1.103469489556340e+000	 1.007687503504143e+001
 9.539336353744131e-001	 1.114060848639436e+000	 9.907483962941262e+000
 9.415907806359750e-001	 1.124512192603938e+000	 9.738150479380554e+000
 9.291395220466797e-001	 1.134821805946257e+000	 9.567367416527288e+000
 9.165823006445141e-001	 1.144988028244612e+000	 9.393778367761737e+000
 9.039215907491438e-001	 1.155009255025385e+000	 9.216188967919660e+000
 8.911598983624566e-001	 1.164883938575646e+000	 9.033577131413260e+000
 8.782997595461003e-001	 1.174610588701024e+000	 8.845102151024065e+000
 8.653437387781996e-001	 1.184187773428212e+000	 8.650112567387200e+000
 8.522944272914295e-001	 1.193614119651469e+000	 8.448152727198629e+000
 9.827308381240306e-001	 1.097706376510712e+000	 1.027967728127324e+001
 9.705568931145264e-001	 1.108484746988168e+000	 1.010971415229052e+001
 9.582692538922897e-001	 1.119124243688950e+000	 9.941220131256024e+000
 9.458703010068273e-001	 1.129623088903829e+000	 9.772584463843598e+000
 9.333624515761814e-001	 1.139979559332279e+000	 9.602339958958631e+000
 9.207481577328164e-001	 1.150191987005923e+000	 9.429175524470869e+000
 9.080299050421432e-001	 1.160258760158835e+000	 9.251947741720043e+000
 8.952102108957879e-001	 1.170178324043752e+000	 9.069691372029499e+000
 8.822916228817612e-001	 1.179949181693395e+000	 8.881628694995916e+000
 8.692767171336987e-001	 1.189569894626156e+000	 8.687177585720251e+000
 8.561680966613903e-001	 1.199039083495551e+000	 8.485958246352391e+000
 9.871771312735052e-001	 1.102672868000670e+000	 1.030999612379612e+001
 9.749481061483157e-001	 1.113500004420100e+000	 1.014112182710267e+001
 9.626048724094065e-001	 1.124187638738652e+000	 9.973477868329546e+000
 9.501498213768941e-001	 1.134733985203993e+000	 9.805492500645141e+000
 9.375853811048776e-001	 1.145137312718654e+000	 9.635742935121321e+000
 9.249140148203022e-001	 1.155395945767666e+000	 9.462968195135598e+000
 9.121382193343224e-001	 1.165508265292791e+000	 9.286080986034303e+000
 8.992605234283048e-001	 1.175472709512434e+000	 9.104178470057967e+000
 8.862834862166201e-001	 1.185287774686401e+000	 8.916551843215075e+000
 8.732096954884191e-001	 1.194952015824790e+000	 8.722694618360448e+000
 8.600417660306018e-001	 1.204464047340367e+000	 8.522309527137399e+000
 9.916234244224458e-001	 1.107639359490663e+000	 1.033910568268892e+001
 9.793393191815333e-001	 1.118515261852135e+000	 1.017127086908305e+001
 9.669404909259189e-001	 1.129251033788531e+000	 1.000442567634300e+001
 9.544293417463267e-001	 1.139844881504405e+000	 9.837041325218092e+000
 9.418083106329169e-001	 1.150295066105347e+000	 9.667743760637768e+000
 9.290798719071128e-001	 1.160599904529793e+000	 9.495326826836129e+000
 9.162465336258150e-001	 1.170757770427195e+000	 9.318764433414250e+000
 9.033108359601298e-001	 1.180767094981621e+000	 9.137221599047120e+000
 8.902753495507886e-001	 1.190626367679964e+000	 8.950064266374932e+000
 8.771426738424565e-001	 1.200334137024022e+000	 8.756867789372814e+000
 8.639154353991481e-001	 1.209889011185817e+000	 8.557424003090221e+000
 9.960697175710030e-001	 1.112605850980706e+000	 1.036718790307548e+001
 9.837305322143328e-001	 1.123530519284278e+000	 1.020033648708230e+001
 9.712761094419803e-001	 1.134314428838575e+000	 1.003423461223049e+001
 9.587088621152785e-001	 1.144955777805041e+000	 9.867400335872135e+000
 9.460312401604467e-001	 1.155452819492322e+000	 9.698512575173822e+000
 9.332457289933900e-001	 1.165803863292257e+000	 9.526424605365683e+000
 9.203548479167534e-001	 1.176007275561987e+000	 9.350176523799638e+000
 9.073611484913843e-001	 1.186061480451242e+000	 9.169006563155939e+000
 8.942672128843766e-001	 1.195964960674002e+000	 8.982361144138860e+000
 8.810756521959097e-001	 1.205716258223763e+000	 8.789903565923725e+000
 8.677891047671119e-001	 1.215313975031800e+000	 8.591521241434782e+000
 1.000516010719327e+000	 1.117572342470816e+000	 1.039442681413727e+001
 9.881217452468672e-001	 1.128545776716530e+000	 1.022849617748906e+001
 9.756117279577450e-001	 1.139377823888773e+000	 1.006307817741425e+001
 9.629883824839003e-001	 1.150066674105876e+000	 9.896741486183826e+000
 9.502541696876153e-001	 1.160610572879541e+000	 9.728222138660097e+000
 9.374115860792749e-001	 1.171007822055010e+000	 9.556437356428663e+000
 9.244631622072710e-001	 1.181256780697107e+000	 9.380498311799453e+000
 9.114114610221924e-001	 1.191355865921228e+000	 9.199721711591346e+000
 8.982590762174958e-001	 1.201303553668436e+000	 9.013640087765561e+000
 8.850086305488756e-001	 1.211098379423924e+000	 8.822010690089096e+000
 8.716627741345753e-001	 1.220738938878217e+000	 8.624822885030792e+000
 1.004962303867566e+000	 1.122538833961010e+000	 1.042100841695077e+001
 9.925129582792914e-001	 1.133561034148894e+000	 1.025592961232351e+001
 9.799473464733670e-001	 1.144441218939113e+000	 1.009113220736786e+001
 9.672679028523452e-001	 1.155177570406885e+000	 9.925239177210804e+000
 9.544770992145704e-001	 1.165768326266968e+000	 9.757047727308775e+000
 9.415774431649091e-001	 1.176211780818002e+000	 9.585543446573311e+000
 9.285714764975006e-001	 1.186506285832497e+000	 9.409913373623777e+000
 9.154617735526760e-001	 1.196650251391511e+000	 9.229557852581353e+000
 9.022509395502558e-001	 1.206642146663185e+000	 9.044101062132924e+000
 8.889416089014515e-001	 1.216480500624412e+000	 8.853400109897505e+000
 8.755364435016215e-001	 1.226163902724966e+000	 8.657552593367077e+000
 1.009408597015872e+000	 1.127505325451305e+000	 1.044712057207762e+001
 9.969041713117574e-001	 1.138576291581370e+000	 1.028281852713981e+001
 9.842829649890004e-001	 1.149504613989582e+000	 1.011857476101457e+001
 9.715474232207657e-001	 1.160288466708044e+000	 9.953070149540627e+000
 9.587000287414598e-001	 1.170926079654566e+000	 9.785167029431984e+000
 9.457433002504339e-001	 1.181415739581187e+000	 9.613923683869883e+000
 9.326797907875750e-001	 1.191755790968099e+000	 9.438607713673761e+000
 9.195120860829579e-001	 1.201944636862018e+000	 9.258708166898375e+000
 9.062428028827680e-001	 1.211980739658170e+000	 9.073946307176371e+000
 8.928745872537350e-001	 1.221862621825140e+000	 8.884284909629830e+000
 8.794101128683334e-001	 1.231588866571949e+000	 8.689935982629361e+000
 1.013854890164394e+000	 1.132471816941716e+000	 1.047296225674100e+001
 1.001295384344419e+000	 1.143591549013961e+000	 1.030934660874093e+001
 9.886185835047997e-001	 1.154568009040171e+000	 1.014558600996395e+001
 9.758269435893138e-001	 1.165399363009330e+000	 9.980413375173720e+000
 9.629229582684322e-001	 1.176083833042299e+000	 9.812760041068049e+000
 9.499091573359907e-001	 1.186619698344515e+000	 9.641761218340774e+000
 9.367881050776269e-001	 1.197005296103851e+000	 9.466769670804965e+000
 9.235623986131606e-001	 1.207239022332682e+000	 9.287368120947706e+000
 9.102346662151430e-001	 1.217319332653310e+000	 9.103380258761783e+000
 8.968075656058231e-001	 1.227244743026015e+000	 8.914880239399281e+000
 8.832837822347940e-001	 1.237013830419063e+000	 8.722200564873369e+000
 1.018301183313283e+000	 1.137438308432261e+000	 1.049870570547632e+001
 1.005686597377429e+000	 1.148606806446669e+000	 1.033569938271381e+001
 9.929542020209188e-001	 1.159631404090867e+000	 1.017234812759282e+001
 9.801064639581413e-001	 1.170510259310717e+000	 1.000744994925108e+001
 9.671458877956345e-001	 1.181241586430130e+000	 9.840008961420935e+000
 9.540750144217213e-001	 1.191823657107940e+000	 9.669241442149591e+000
 9.408964193677897e-001	 1.202254801239697e+000	 9.494589824269767e+000
 9.276127111434064e-001	 1.212533407803431e+000	 9.315735379434168e+000
 9.142265295474914e-001	 1.222657925648525e+000	 9.132609469010410e+000
 9.007405439578132e-001	 1.232626864226947e+000	 8.945403244033351e+000
 8.871574516010855e-001	 1.242438794266210e+000	 8.754575686325847e+000
 1.022747476462687e+000	 1.142404799922955e+000	 1.052455330736526e+001
 1.010077810410943e+000	 1.153622063879497e+000	 1.036206410078927e+001
 9.972898205375119e-001	 1.164694799141658e+000	 1.019904517797605e+001
 9.843859843274009e-001	 1.175621155612181e+000	 1.003436298162606e+001
 9.713688173232153e-001	 1.186399339818024e+000	 9.867098088119823e+000
 9.582408715077669e-001	 1.197027615871412e+000	 9.696551889558377e+000
 9.450047336581959e-001	 1.207504306375576e+000	 9.522260899350703e+000
 9.316630236738184e-001	 1.217827793274197e+000	 9.344009717617610e+000
 9.182183928799237e-001	 1.227996518643735e+000	 9.161842526090300e+000
 9.046735223098031e-001	 1.238008985427847e+000	 8.976072991278658e+000
 8.910311209672918e-001	 1.247863758113289e+000	 8.787292464845066e+000
 8.522944272914295e-001	 1.193614119651469e+000	 8.448152727198629e+000
 8.391544411107291e-001	 1.202888313383635e+000	 8.244282604610818e+000
 8.259264185271869e-001	 1.212009099263907e+000	 8.043707969513163e+000
 8.126130192780124e-001	 1.220975282037234e+000	 7.846505427393383e+000
 7.992169231221942e-001	 1.229785727312124e+000	 7.652969609663979e+000
 7.857408281201320e-001	 1.238439361924098e+000	 7.463611931994349e+000
 7.721874489079046e-001	 1.246935174241497e+000	 7.279157733882814e+000
 7.585595149683921e-001	 1.255272214413711e+000	 7.100541790389881e+000
 7.448597689014560e-001	 1.263449594561992e+000	 6.928902198499150e+000
 7.310909646953698e-001	 1.271466488913099e+000	 6.765572652149496e+000
 7.172558660016536e-001	 1.279322133876119e+000	 6.612073131500917e+000
 8.561680966613903e-001	 1.199039083495551e+000	 8.485958246352391e+000
 8.429683893795676e-001	 1.208355428342368e+000	 8.283140350763038e+000
 8.296802455703222e-001	 1.217517668100204e+000	 8.083897450106170e+000
 8.163063370593352e-001	 1.226524602081588e+000	 7.888176264127131e+000
 8.028493557850693e-001	 1.235375090739231e+000	 7.696144771892056e+000
 7.893120120705768e-001	 1.244068056031136e+000	 7.508191377375273e+000
 7.756970328899254e-001	 1.252602481727787e+000	 7.324922413187430e+000
 7.620071601314623e-001	 1.260977413661516e+000	 7.147157971632047e+000
 7.482451488601336e-001	 1.269191959918177e+000	 6.975926064147124e+000
 7.344137655810579e-001	 1.277245290971399e+000	 6.812455122090816e+000
 7.205157865065180e-001	 1.285136639759758e+000	 6.658164863689949e+000
 8.600417660306018e-001	 1.204464047340367e+000	 8.522309527137399e+000
 8.467823376476981e-001	 1.213822543301870e+000	 8.320654014279111e+000
 8.334340726127945e-001	 1.223026236937295e+000	 8.122837646197342e+000
 8.199996548400456e-001	 1.232073922126751e+000	 7.928669221844034e+000
 8.064817884473832e-001	 1.240964454167154e+000	 7.738181749913611e+000
 7.928831960205115e-001	 1.249696750138987e+000	 7.551632049553884e+000
 7.792066168714839e-001	 1.258269789214880e+000	 7.369498645679037e+000
 7.654548052941126e-001	 1.266682612910106e+000	 7.192477946251348e+000
 7.516305288184261e-001	 1.274934325275120e+000	 7.021478701077212e+000
 7.377365664663842e-001	 1.283024093030423e+000	 6.857614753921119e+000
 7.237757070110324e-001	 1.290951145644078e+000	 6.702196111926861e+000
 8.639154353991481e-001	 1.209889011185817e+000	 8.557424003090221e+000
 8.505962859151864e-001	 1.219289658262030e+000	 8.357052721666381e+000
 8.371878996546549e-001	 1.228534805775061e+000	 8.160764428663351e+000
 8.236929726201783e-001	 1.237623242172595e+000	 7.968222082703650e+000
 8.101142211091573e-001	 1.246553817595757e+000	 7.779315526104695e+000
 7.964543799699440e-001	 1.255325444247508e+000	 7.594161548611608e+000
 7.827162008525765e-001	 1.263937096702628e+000	 7.413102201739588e+000
 7.689024504563311e-001	 1.272387812159327e+000	 7.236701349165370e+000
 7.550159087763153e-001	 1.280676690632666e+000	 7.065739451126422e+000
 7.410593673513299e-001	 1.288802895090015e+000	 6.901206593380477e+000
 7.270356275151803e-001	 1.296765651528928e+000	 6.744293783816432e+000
 8.677891047671119e-001	 1.215313975031800e+000	 8.591521241434782e+000
 8.544102341821004e-001	 1.224756773222739e+000	 8.392567541118350e+000
 8.409417266959556e-001	 1.234043374613380e+000	 8.197915493987148e+000
 8.273862903997703e-001	 1.243172562218991e+000	 8.007074411331736e+000
 8.137466537704129e-001	 1.252143181024902e+000	 7.819782892088419e+000
 8.000255639188816e-001	 1.260954138356556e+000	 7.636009377528174e+000
 7.862257848331998e-001	 1.269604404190879e+000	 7.455950912087069e+000
 7.723500956181049e-001	 1.278093011409026e+000	 7.280030093753544e+000
 7.584012887337839e-001	 1.286419055990660e+000	 7.108890210289086e+000
 7.443821682358759e-001	 1.294581697150023e+000	 6.943388570504911e+000
 7.302955480189454e-001	 1.302580157414160e+000	 6.784588052710962e+000
 8.716627741345753e-001	 1.220738938878217e+000	 8.624822885030792e+000
 8.582241824485075e-001	 1.230223888183886e+000	 8.427431434178823e+000
 8.446955537367479e-001	 1.239551943452133e+000	 8.234530323889484e+000
 8.310796081788571e-001	 1.248721882265810e+000	 8.045467520717331e+000
 8.173790864311703e-001	 1.257732544454452e+000	 7.859822419238621e+000
 8.035967478673326e-001	 1.266582832465985e+000	 7.677406915675805e+000
 7.897353688133502e-001	 1.275271711679485e+000	 7.498264642698624e+000
 7.757977407794223e-001	 1.283798210659050e+000	 7.322668346691354e+000
 7.617866686908141e-001	 1.292161421348948e+000	 7.151115401996920e+000
 7.477049691200033e-001	 1.300360499210294e+000	 6.984321469939775e+000
 7.335554685223118e-001	 1.308394663299624e+000	 6.823212323694512e+000
 8.755364435016215e-001	 1.226163902724966e+000	 8.657552593367077e+000
 8.620381307144749e-001	 1.235691003145361e+000	 8.461879206274169e+000
 8.484493807770829e-001	 1.245060512291201e+000	 8.270850143702280e+000
 8.347729259574741e-001	 1.254271202312922e+000	 8.083644436767523e+000
 8.210115190914508e-001	 1.263321907884269e+000	 7.899674427801442e+000
 8.071679318153047e-001	 1.272211526575652e+000	 7.718587390940050e+000
 7.932449527930248e-001	 1.280939019168298e+000	 7.540265268403821e+000
 7.792453859402715e-001	 1.289503409909248e+000	 7.364822501541610e+000
 7.651720486473885e-001	 1.297903786707376e+000	 7.192601949281161e+000
 7.510277700036927e-001	 1.306139301270674e+000	 7.024168900294397e+000
 7.368153890252626e-001	 1.314209169185171e+000	 6.860303198808018e+000
 8.794101128683334e-001	 1.231588866571949e+000	 8.689935982629361e+000
 8.658520789800703e-001	 1.241158118107053e+000	 8.496147456151732e+000
 8.522032078170128e-001	 1.250569081130463e+000	 8.307117879521602e+000
 8.384662437356580e-001	 1.259820522360200e+000	 8.121849861562190e+000
 8.246439517512761e-001	 1.268911271314218e+000	 7.939580954681015e+000
 8.107391157628058e-001	 1.277840220685413e+000	 7.759785850506200e+000
 7.967545367722192e-001	 1.286606326657166e+000	 7.582176645191138e+000
 7.826930311006399e-001	 1.295208609159465e+000	 7.406701151141435e+000
 7.685574286034899e-001	 1.303646152065790e+000	 7.233539245851794e+000
 7.543505708869249e-001	 1.311918103331010e+000	 7.063097262573328e+000
 7.400753095277824e-001	 1.320023675070649e+000	 6.896000441538390e+000
 8.832837822347940e-001	 1.237013830419063e+000	 8.722200564873369e+000
 8.696660272453607e-001	 1.246625233068853e+000	 8.530474524255782e+000
 8.559570348565886e-001	 1.256077649969800e+000	 8.343578114178099e+000
 8.421595615134444e-001	 1.265369842407514e+000	 8.160330135348586e+000
 8.282763844106669e-001	 1.274500634744160e+000	 7.979785719927303e+000
 8.143102997098430e-001	 1.283468914795125e+000	 7.801239130354455e+000
 8.002641207509306e-001	 1.292273634145942e+000	 7.624224581264063e+000
 7.861406762605154e-001	 1.300913808409548e+000	 7.448515058822264e+000
 7.719428085591005e-001	 1.309388517424035e+000	 7.274119126125171e+000
 7.576733717696806e-001	 1.317696905391148e+000	 7.101275717705780e+000
 7.433352300298545e-001	 1.325838180955911e+000	 6.930446940593780e+000
 8.871574516010855e-001	 1.242438794266210e+000	 8.754575686325847e+000
 8.734799755104138e-001	 1.252092348030650e+000	 8.565100440073879e+000
 8.597108618958619e-001	 1.261586218809091e+000	 8.380477042060999e+000
 8.458528792908694e-001	 1.270919162454734e+000	 8.199333197314186e+000
 8.319088170696445e-001	 1.280089998173959e+000	 8.020534091969244e+000
 8.178814836564250e-001	 1.289097608904642e+000	 7.843185823502645e+000
 8.037737047291552e-001	 1.297940941634475e+000	 7.666636806888142e+000
 7.895883214198862e-001	 1.306619007659345e+000	 7.490477128496862e+000
 7.753281885142023e-001	 1.315130882781956e+000	 7.314535834234399e+000
 7.609961726519412e-001	 1.323475707450937e+000	 7.138876153205667e+000
 7.465951505314624e-001	 1.331652686840806e+000	 6.963788672988390e+000
 8.910311209672918e-001	 1.247863758113289e+000	 8.787292464845066e+000
 8.772939237752967e-001	 1.257559462992334e+000	 8.600266868485839e+000
 8.634646889348848e-001	 1.267094787648218e+000	 8.418062422831012e+000
 8.495461970679685e-001	 1.276468482501733e+000	 8.239108545174730e+000
 8.355412497282301e-001	 1.285679361603478e+000	 8.062073051627172e+000
 8.214526676025593e-001	 1.294726303013822e+000	 7.885866247034793e+000
 8.072832887068894e-001	 1.303608249122617e+000	 7.709642943064634e+000
 7.930359665787400e-001	 1.312324206908703e+000	 7.532802373649789e+000
 7.787135684687786e-001	 1.320873248139400e+000	 7.354985992052263e+000
 7.643189735336878e-001	 1.329254509510221e+000	 7.176073148988006e+000
 7.498550710325905e-001	 1.337467192725185e+000	 6.997986671270316e+000
 7.172558660016536e-001	 1.279322133876119e+000	 6.612073131500917e+000
 7.033593338589055e-001	 1.287014686416663e+000	 6.451646545928145e+000
 6.894020752245480e-001	 1.294544698864472e+000	 6.269983067373447e+000
 6.753868719443947e-001	 1.301911595370602e+000	 6.072593025674099e+000
 6.613165086713274e-001	 1.309114861985427e+000	 5.864724644728658e+000
 6.471937711893183e-001	 1.316154046458454e+000	 5.648510479631170e+000
 6.330214447531305e-001	 1.323028757985271e+000	 5.429877682311182e+000
 6.188023124455789e-001	 1.329738666902602e+000	 5.215545492234127e+000
 6.045391535541663e-001	 1.336283504332451e+000	 5.012215095263408e+000
 5.902347419688699e-001	 1.342663061776438e+000	 4.827687119673732e+000
 5.758918446027709e-001	 1.348877190661454e+000	 4.665699147802910e+000
 7.205157865065180e-001	 1.285136639759758e+000	 6.658164863689949e+000
 7.065560947684824e-001	 1.292864154872291e+000	 6.496347669404833e+000
 6.925354005374996e-001	 1.300428391149066e+000	 6.312923758578111e+000
 6.784564983028587e-001	 1.307828770123901e+000	 6.113584422968579e+000
 6.643221853736750e-001	 1.315064775511267e+000	 5.904092137919148e+000
 6.501352601952951e-001	 1.322135953005187e+000	 5.687091582341815e+000
 6.358985206814513e-001	 1.329041910025039e+000	 5.467710460738053e+000
 6.216147625640549e-001	 1.335782315409221e+000	 5.253168801600590e+000
 6.072867777624573e-001	 1.342356899057681e+000	 5.052668041851460e+000
 5.929173527739515e-001	 1.348765451524407e+000	 4.870894510937493e+000
 5.785092670872235e-001	 1.355007823561020e+000	 4.710994842780981e+000
 7.237757070110324e-001	 1.290951145644078e+000	 6.702196111926861e+000
 7.097528556777063e-001	 1.298713623328551e+000	 6.538584874107349e+000
 6.956687258500837e-001	 1.306312083434239e+000	 6.352966572559877e+000
 6.815261246609315e-001	 1.313745944877724e+000	 6.151227049117216e+000
 6.673278620756021e-001	 1.321014689037577e+000	 5.939411426742515e+000
 6.530767492008196e-001	 1.328117859552338e+000	 5.721254010498004e+000
 6.387755966092873e-001	 1.335055062065178e+000	 5.501006678933044e+000
 6.244272126820184e-001	 1.341825963916171e+000	 5.289156210192938e+000
 6.100344019702138e-001	 1.348430293783214e+000	 5.091699786182341e+000
 5.955999635784846e-001	 1.354867841272663e+000	 4.912302632882898e+000
 5.811266895711268e-001	 1.361138456460870e+000	 4.754188140092220e+000
 7.270356275151803e-001	 1.296765651528928e+000	 6.744293783816428e+000
 7.129496165865689e-001	 1.304563091785300e+000	 6.578456931859182e+000
 6.988020511623028e-001	 1.312195775719856e+000	 6.390185778205702e+000
 6.845957510186306e-001	 1.319663119631948e+000	 6.185574161979153e+000
 6.703335387771430e-001	 1.326964602564244e+000	 5.970883840145195e+000
 6.560182382059427e-001	 1.334099766099807e+000	 5.751044859441682e+000
 6.416526725367079e-001	 1.341068214105600e+000	 5.533026000018305e+000
 6.272396627995536e-001	 1.347869612423378e+000	 5.324472151022389e+000
 6.127820261775338e-001	 1.354503688508985e+000	 5.129616260363151e+000
 5.982825743825795e-001	 1.360970231021149e+000	 4.952217323062782e+000
 5.837441120545978e-001	 1.367269089360954e+000	 4.795587587919381e+000
 7.302955480189454e-001	 1.302580157414160e+000	 6.784588052710962e+000
 7.161463774950611e-001	 1.310412560242396e+000	 6.616066244231663e+000
 7.019353764741606e-001	 1.318079468005786e+000	 6.424659555827854e+000
 6.876653773759736e-001	 1.325580294386450e+000	 6.216683132804613e+000
 6.733392154783308e-001	 1.332914516091158e+000	 5.998629207969102e+000
 6.589597272107157e-001	 1.340081672647496e+000	 5.779662133841423e+000
 6.445297484637815e-001	 1.347081366146220e+000	 5.565185971054277e+000
 6.300521129167457e-001	 1.353913260930767e+000	 5.359424988135716e+000
 6.155296503845164e-001	 1.360577083234930e+000	 5.166722774312380e+000
 6.009651851863458e-001	 1.367072620769809e+000	 4.990943790292195e+000
 5.863615345377534e-001	 1.373399722261223e+000	 4.835501042217362e+000
 7.335554685223118e-001	 1.308394663299624e+000	 6.823212323694512e+000
 7.193431384031745e-001	 1.316262028699694e+000	 6.651518804349895e+000
 7.050687017856593e-001	 1.323963160291892e+000	 6.456469956375944e+000
 6.907350037329775e-001	 1.331497469141105e+000	 6.244615404358913e+000
 6.763448921792002e-001	 1.338864429618206e+000	 6.025167383682874e+000
 6.619012162151903e-001	 1.346063579195304e+000	 5.809292318396760e+000
 6.474068243905761e-001	 1.353094518186951e+000	 5.597800287655026e+000
 6.328645630336790e-001	 1.359956909438264e+000	 5.394322325063069e+000
 6.182772745912598e-001	 1.366650477960983e+000	 5.203323938357189e+000
 6.036477959898939e-001	 1.373175010518588e+000	 5.028786546406053e+000
 5.889789570207107e-001	 1.379530355161627e+000	 4.874235608571957e+000
 7.368153890252626e-001	 1.314209169185171e+000	 6.860303198808023e+000
 7.225398993109002e-001	 1.322111497157053e+000	 6.684924158133748e+000
 7.082020270968021e-001	 1.329846852578039e+000	 6.485702860228190e+000
 6.938046300896604e-001	 1.337414643895790e+000	 6.270907760643210e+000
 6.793505688797845e-001	 1.344814343145278e+000	 6.053894258938951e+000
 6.648427052194174e-001	 1.352045485743133e+000	 5.840257340437904e+000
 6.502839003171606e-001	 1.359107670227705e+000	 5.631181670670785e+000
 6.356770131504380e-001	 1.366000557945791e+000	 5.429470919022573e+000
 6.210248987978638e-001	 1.372723872687081e+000	 5.239723585501624e+000
 6.063304067933328e-001	 1.379277400267429e+000	 5.066049337581715e+000
 5.915963795035859e-001	 1.385660988062116e+000	 4.912097583494352e+000
 7.400753095277824e-001	 1.320023675070649e+000	 6.896000441538385e+000
 7.257366602182296e-001	 1.327960965614328e+000	 6.716395364989126e+000
 7.113353524075918e-001	 1.335730544864097e+000	 6.512998078816399e+000
 6.968742564460391e-001	 1.343331818650383e+000	 6.300082845602160e+000
 6.823562455801178e-001	 1.350764256672261e+000	 6.085145590128862e+000
 6.677841942234478e-001	 1.358027392290884e+000	 5.872893898767974e+000
 6.531609762436034e-001	 1.365120822268396e+000	 5.665641773185262e+000
 6.384894632671081e-001	 1.372044206453275e+000	 5.465176594872619e+000
 6.237725230044265e-001	 1.378797267413160e+000	 5.276224693375300e+000
 6.090130175967730e-001	 1.385379790016275e+000	 5.103035075243746e+000
 5.942138019864961e-001	 1.391791620962640e+000	 4.949392395165631e+000
 7.433352300298545e-001	 1.325838180955911e+000	 6.930446940593780e+000
 7.289334211251546e-001	 1.333810434071376e+000	 6.746074658149452e+000
 7.144686777180312e-001	 1.341614237149928e+000	 6.543311900525445e+000
 6.999438828021309e-001	 1.349248993404759e+000	 6.332739948228976e+000
 6.853619222802339e-001	 1.356714170199044e+000	 6.119239975488763e+000
 6.707256832273333e-001	 1.364009298838458e+000	 5.907692804949398e+000
 6.560380521699729e-001	 1.371133974308938e+000	 5.701491087303896e+000
 6.413019133837733e-001	 1.378087854960640e+000	 5.501744158823211e+000
 6.265201472110471e-001	 1.384870662139153e+000	 5.313129305869546e+000
 6.116956284003238e-001	 1.391482179765073e+000	 5.140045766558808e+000
 5.968312244695583e-001	 1.397922253863151e+000	 4.986424543653703e+000
 7.465951505314624e-001	 1.331652686840806e+000	 6.963788672988390e+000
 7.321301820316656e-001	 1.339659902528057e+000	 6.778034731408313e+000
 7.176020030281235e-001	 1.347497929435399e+000	 6.578062114266915e+000
 7.030135091579541e-001	 1.355166168158795e+000	 6.369194352024743e+000
 6.883675989801662e-001	 1.362664083725515e+000	 6.156490582038307e+000
 6.736671722311249e-001	 1.369991205385755e+000	 5.945014928129558e+000
 6.589151280963373e-001	 1.377147126349243e+000	 5.739038850747698e+000
 6.441143635005183e-001	 1.384131503467812e+000	 5.539477311912217e+000
 6.292677714178239e-001	 1.390944056864996e+000	 5.350738454473784e+000
 6.143782392040954e-001	 1.397584569513765e+000	 5.177382444538480e+000
 5.994486469528892e-001	 1.404052886763597e+000	 5.023497540612345e+000
 7.498550710325905e-001	 1.337467192725185e+000	 6.997986671270316e+000
 7.353269429377546e-001	 1.345509370984225e+000	 6.815381969682269e+000
 7.207353283378717e-001	 1.353381621720377e+000	 6.617563578029628e+000
 7.060831355135254e-001	 1.361083342912368e+000	 6.409755752237063e+000
 6.913732756799494e-001	 1.368613997251564e+000	 6.197205188623694e+000
 6.766086612348736e-001	 1.375973111932677e+000	 5.985169213536801e+000
 6.617922040227657e-001	 1.383160278389225e+000	 5.778592953251161e+000
 6.469268136174287e-001	 1.390175151974716e+000	 5.578678563253485e+000
 6.320153956248560e-001	 1.397017451590627e+000	 5.389352079321649e+000
 6.170608500081973e-001	 1.403686959262295e+000	 5.215345097757612e+000
 6.020660694366056e-001	 1.410183519663929e+000	 5.060913848483213e+000
 5.758918446027709e-001	 1.348877190661454e+000	 4.665699147802905e+000
 5.615110604024198e-001	 1.354926696976587e+000	 4.515898676081808e+000
 5.470972883323950e-001	 1.360810606690540e+000	 4.366862438769172e+000
 5.326532670450713e-001	 1.366528948891380e+000	 4.219428350737156e+000
 5.181817221189331e-001	 1.372081810347265e+000	 4.074107023403328e+000
 5.036853646155343e-001	 1.377469334826162e+000	 3.931109917533986e+000
 4.891668896682118e-001	 1.382691722374954e+000	 3.790376912636393e+000
 4.746289751037728e-001	 1.387749228559429e+000	 3.651603210260003e+000
 4.600742800983026e-001	 1.392642163666725e+000	 3.514265499965608e+000
 4.455054438681574e-001	 1.397370891871780e+000	 3.377647327887988e+000
 4.309250843971381e-001	 1.401935830369417e+000	 3.240863618601179e+000
 5.785092670872235e-001	 1.355007823561020e+000	 4.710994842780976e+000
 5.640631223710398e-001	 1.361084824819811e+000	 4.562552786881140e+000
 5.495838398557151e-001	 1.366995476842530e+000	 4.414132123166032e+000
 5.350741706407586e-001	 1.372739808849457e+000	 4.266706200621206e+000
 5.205368526923687e-001	 1.378317908003116e+000	 4.120918188716305e+000
 5.059746093938342e-001	 1.383729918724910e+000	 3.977109456460107e+000
 4.913901481278338e-001	 1.388976041970940e+000	 3.835347336216112e+000
 4.767861588918578e-001	 1.394056534468547e+000	 3.695452189431378e+000
 4.621653129479082e-001	 1.398971707915129e+000	 3.557023703201776e+000
 4.475302615075404e-001	 1.403721928140801e+000	 3.419466358067036e+000
 4.328836344532540e-001	 1.408307614236544e+000	 3.282014018519041e+000
 5.811266895711268e-001	 1.361138456460870e+000	 4.754188140092220e+000
 5.666151843391241e-001	 1.367242952663334e+000	 4.606890968824039e+000
 5.520703913785265e-001	 1.373180346994847e+000	 4.458959750482365e+000
 5.374950742359757e-001	 1.378950668807896e+000	 4.311490180206457e+000
 5.228919832653840e-001	 1.384554005659376e+000	 4.165244733858383e+000
 5.082638541717731e-001	 1.389990502624114e+000	 4.020681304484366e+000
 4.936134065871612e-001	 1.395260361567428e+000	 3.877981190351912e+000
 4.789433426797221e-001	 1.400363840378209e+000	 3.737076351516130e+000
 4.642563457973711e-001	 1.405301252164111e+000	 3.597675863972756e+000
 4.495550791468633e-001	 1.410072964410428e+000	 3.459291512259601e+000
 4.348421845093937e-001	 1.414679398104286e+000	 3.321262472748999e+000
 5.837441120545978e-001	 1.367269089360954e+000	 4.795587587919381e+000
 5.691672463067919e-001	 1.373401080507109e+000	 4.649224112976696e+000
 5.545569429009458e-001	 1.379365217147443e+000	 4.501655252034457e+000
 5.399159778308343e-001	 1.385161528766653e+000	 4.354086115438680e+000
 5.252471138380813e-001	 1.390790103315994e+000	 4.207385395984669e+000
 5.105530989494411e-001	 1.396251086523721e+000	 4.062114293827560e+000
 4.958366650462716e-001	 1.401544681164364e+000	 3.918554758392872e+000
 4.811005264674270e-001	 1.406671146288360e+000	 3.776736964015800e+000
 4.663473786467380e-001	 1.411630796413619e+000	 3.636465948481303e+000
 4.515798967861562e-001	 1.416424000680605e+000	 3.497347355781447e+000
 4.368007345655730e-001	 1.421051181972596e+000	 3.358812236086457e+000
 5.863615345377534e-001	 1.373399722261223e+000	 4.835501042217362e+000
 5.717193082741620e-001	 1.379559208351090e+000	 4.689862353226419e+000
 5.570434944230900e-001	 1.385550087300276e+000	 4.542527786925771e+000
 5.423368814254452e-001	 1.391372388725682e+000	 4.394799091243364e+000
 5.276022444105624e-001	 1.397026200972924e+000	 4.247638245019623e+000
 5.128423437269288e-001	 1.402511670423682e+000	 4.101696702289699e+000
 4.980599235052413e-001	 1.407829000761696e+000	 3.957343917584195e+000
 4.832577102550354e-001	 1.412978452198948e+000	 3.814695068707282e+000
 4.684384114960552e-001	 1.417960340663596e+000	 3.673637906268704e+000
 4.536047144254503e-001	 1.422775036951282e+000	 3.533858671721925e+000
 4.387592846218073e-001	 1.427422965841425e+000	 3.394867037674365e+000
 5.889789570207107e-001	 1.379530355161627e+000	 4.874235608571957e+000
 5.742713702413532e-001	 1.385717336195229e+000	 4.729115017931682e+000
 5.595300459450766e-001	 1.391734957453297e+000	 4.581885702012067e+000
 5.447577850199193e-001	 1.397583248684935e+000	 4.433933418398418e+000
 5.299573749829295e-001	 1.403262298630118e+000	 4.286300656087890e+000
 5.151315885043269e-001	 1.408772254323946e+000	 4.139716229962141e+000
 5.002831819641477e-001	 1.414113320359370e+000	 3.994624118852241e+000
 4.854148940426089e-001	 1.419285758109915e+000	 3.851211463357608e+000
 4.705294443453694e-001	 1.424289884913989e+000	 3.709435652782907e+000
 4.556295320647759e-001	 1.429126073222402e+000	 3.569050443368292e+000
 4.407178346781115e-001	 1.433794749710720e+000	 3.429631062347710e+000
 5.915963795035859e-001	 1.385660988062116e+000	 4.912097583494357e+000
 5.768234322084858e-001	 1.391875464039482e+000	 4.767290580879882e+000
 5.620165974670218e-001	 1.397919827606464e+000	 4.620036491081728e+000
 5.471786886143679e-001	 1.403794108644368e+000	 4.471792599558939e+000
 5.323125055552846e-001	 1.409498396287527e+000	 4.323669281073880e+000
 5.174208332817256e-001	 1.415032838224463e+000	 4.176459975071024e+000
 5.025064404230675e-001	 1.420397639957335e+000	 4.030670365746413e+000
 4.875720778302100e-001	 1.425593064021210e+000	 3.886546682648883e+000
 4.726204771947269e-001	 1.430619429164743e+000	 3.744103051241409e+000
 4.576543497041642e-001	 1.435477109493914e+000	 3.603147836020703e+000
 4.426763847345017e-001	 1.440166533580434e+000	 3.463308931496072e+000
 5.942138019864961e-001	 1.391791620962640e+000	 4.949392395165631e+000
 5.793754941756775e-001	 1.398033591883801e+000	 4.804696611570965e+000
 5.645031489890432e-001	 1.404104697759729e+000	 4.657286753276791e+000
 5.495995922089021e-001	 1.410004968603934e+000	 4.508679294469015e+000
 5.346676361277298e-001	 1.415734493945104e+000	 4.360040019338435e+000
 5.197100780592155e-001	 1.421293422125183e+000	 4.212214408979357e+000
 5.047296988820778e-001	 1.426681959555538e+000	 4.065757192571756e+000
 4.897292616179006e-001	 1.431900369932776e+000	 3.920960978347370e+000
 4.747115100441745e-001	 1.436948973415803e+000	 3.777883893809890e+000
 4.596791673436457e-001	 1.441828145765766e+000	 3.636376178226108e+000
 4.446349347909926e-001	 1.446538317450518e+000	 3.496105683458165e+000
 5.968312244695583e-001	 1.397922253863151e+000	 4.986424543653703e+000
 5.819275561430480e-001	 1.404191719728141e+000	 4.841639724854320e+000
 5.669897005112575e-001	 1.410289567913049e+000	 4.693942150775952e+000
 5.520204958036332e-001	 1.416215828563587e+000	 4.544895284378732e+000
 5.370227667003672e-001	 1.421970591602801e+000	 4.395707987617326e+000
 5.219993228368870e-001	 1.427554006026055e+000	 4.247265350372718e+000
 5.069529573412557e-001	 1.432966279153926e+000	 4.100158641729989e+000
 4.918864454057427e-001	 1.438207675844560e+000	 3.954714298735273e+000
 4.768025428937585e-001	 1.443278517667114e+000	 3.811021882121271e+000
 4.617039849832511e-001	 1.448179182037901e+000	 3.668960942443688e+000
 4.465934848476001e-001	 1.452910101320921e+000	 3.528226753462540e+000
 5.994486469528892e-001	 1.404052886763597e+000	 5.023497540612349e+000
 5.844796181107165e-001	 1.410349847572454e+000	 4.878425529934765e+000
 5.694762520337816e-001	 1.416474438066377e+000	 4.730307365764428e+000
 5.544413993986718e-001	 1.422426688523281e+000	 4.580741435694516e+000
 5.393778972732991e-001	 1.428206689260570e+000	 4.430967489125902e+000
 5.242885676148311e-001	 1.433814589927030e+000	 4.281897938653002e+000
 5.091762158006777e-001	 1.439250598752447e+000	 4.134148240298869e+000
 4.940436291937987e-001	 1.444514981756508e+000	 3.988066267328500e+000
 4.788935757435254e-001	 1.449608061918621e+000	 3.843760607150807e+000
 4.637288026230114e-001	 1.454530218310268e+000	 3.701127725160090e+000
 4.485520349043394e-001	 1.459281885191594e+000	 3.559877953128086e+000
 6.020660694366056e-001	 1.410183519663929e+000	 5.060913848483213e+000
 5.870316800788019e-001	 1.416507975416695e+000	 4.915358578764291e+000
 5.719628035567330e-001	 1.422659308219669e+000	 4.766686056710080e+000
 5.568623029941295e-001	 1.428637548482971e+000	 4.616517662884293e+000
 5.417330278466271e-001	 1.434442786918363e+000	 4.466111981895305e+000
 5.265778123931376e-001	 1.440075173828057e+000	 4.316396606567440e+000
 5.113994742604214e-001	 1.445534918351047e+000	 4.167998975869161e+000
 4.962008129821307e-001	 1.450822287668565e+000	 4.021276160902366e+000
 4.809846085935219e-001	 1.455937606170270e+000	 3.876343528469854e+000
 4.657536202629571e-001	 1.460881254582814e+000	 3.733102226471792e+000
 4.505105849612260e-001	 1.465653669062488e+000	 3.591265449538617e+000
 4.309250843971381e-001	 1.401935830369417e+000	 3.240863618601179e+000
 4.163357969925388e-001	 1.406337448123606e+000	 3.106030758225723e+000
 4.017401524837977e-001	 1.410576263888079e+000	 2.976244939846033e+000
 3.871406967249308e-001	 1.414652846301055e+000	 2.851898792434086e+000
 3.725399496881360e-001	 1.418567813249386e+000	 2.733292528258131e+000
 3.579404043837813e-001	 1.422321830855985e+000	 2.620650729238153e+000
 3.433445258208177e-001	 1.425915612442830e+000	 2.514138285197884e+000
 3.287547500080646e-001	 1.429349917471246e+000	 2.413875498921105e+000
 3.141734829967585e-001	 1.432625550461151e+000	 2.319952378571638e+000
 2.996030999646699e-001	 1.435743359890963e+000	 2.232442142955592e+000
 2.850459443420262e-001	 1.438704237079830e+000	 2.151413969338861e+000
 4.328836344532540e-001	 1.408307614236544e+000	 3.282014018519041e+000
 4.182280388879797e-001	 1.412729237297768e+000	 3.146937820813628e+000
 4.035660573255575e-001	 1.416987318435939e+000	 3.017352997200797e+000
 3.889002471908950e-001	 1.421082428873726e+000	 2.893564706833626e+000
 3.742331399094486e-001	 1.425015189306273e+000	 2.775784078753283e+000
 3.595672398223045e-001	 1.428786268884011e+000	 2.664145245950068e+000
 3.449050231418641e-001	 1.432396384170960e+000	 2.558721502606423e+000
 3.302489369485938e-001	 1.435846298080185e+000	 2.459540601207447e+000
 3.156013982292186e-001	 1.439136818788142e+000	 2.366599211971955e+000
 3.009647929566777e-001	 1.442268798629569e+000	 2.279876572101283e+000
 2.863414752120758e-001	 1.445243132974653e+000	 2.199347356643816e+000
 4.348421845093937e-001	 1.414679398104286e+000	 3.321262472748999e+000
 4.201202807835302e-001	 1.419121026472544e+000	 3.185993842480252e+000
 4.053919621675101e-001	 1.423398372984390e+000	 3.056614130852445e+000
 3.906597976571303e-001	 1.427512011446956e+000	 2.933350087441689e+000
 3.759263301311029e-001	 1.431462565363673e+000	 2.816332977735629e+000
 3.611940752612288e-001	 1.435250706912494e+000	 2.705615844119162e+000
 3.464655204633588e-001	 1.438877155899481e+000	 2.601189860782663e+000
 3.317431238896014e-001	 1.442342678689444e+000	 2.502999801099179e+000
 3.170293134621681e-001	 1.445648087115373e+000	 2.410958641940129e+000
 3.023264859491648e-001	 1.448794237368334e+000	 2.324961334527242e+000
 2.876370060825698e-001	 1.451782028869550e+000	 2.244897775819133e+000
 4.368007345655730e-001	 1.421051181972596e+000	 3.358812236086457e+000
 4.220125226791910e-001	 1.425512815647887e+000	 3.223381013166822e+000
 4.072178670096430e-001	 1.429809427533400e+000	 3.094191662992416e+000
 3.924193481236122e-001	 1.433941594020722e+000	 2.971401474893601e+000
 3.776195203530646e-001	 1.437909941421576e+000	 2.855070962237697e+000
 3.628209107005125e-001	 1.441715144941439e+000	 2.745181329519689e+000
 3.480260177852528e-001	 1.445357927628415e+000	 2.641651003539104e+000
 3.332373108310348e-001	 1.448839059299059e+000	 2.544351249187079e+000
 3.184572286955531e-001	 1.452159355442900e+000	 2.453120896414842e+000
 3.036881789420779e-001	 1.455319676107329e+000	 2.367780210202996e+000
 2.889325369534589e-001	 1.458320924764606e+000	 2.288143939820814e+000
 4.387592846218073e-001	 1.427422965841425e+000	 3.394867037674365e+000
 4.239047645749627e-001	 1.431904604823757e+000	 3.259282237685416e+000
 4.090437718519440e-001	 1.436220482082935e+000	 3.130249820743275e+000
 3.941788985903174e-001	 1.440371176595002e+000	 3.007866456904424e+000
 3.793127105752993e-001	 1.444357317479972e+000	 2.892130913238906e+000
 3.644477461401131e-001	 1.448179582970851e+000	 2.782961706155713e+000
 3.495865151074976e-001	 1.451838699357781e+000	 2.680213787391545e+000
 3.347314977728411e-001	 1.455335439909068e+000	 2.583694286259142e+000
 3.198851439293192e-001	 1.458670623770774e+000	 2.493177336943989e+000
 3.050498719353637e-001	 1.461845114846621e+000	 2.408418024979742e+000
 2.902280678246939e-001	 1.464859820659907e+000	 2.329165491609169e+000
 4.407178346781115e-001	 1.433794749710720e+000	 3.429631062347710e+000
 4.257970064708468e-001	 1.438296394000109e+000	 3.293881115904782e+000
 4.108696766944010e-001	 1.442631536632960e+000	 3.164953715880400e+000
 3.959384490572214e-001	 1.446800759169773e+000	 3.042893648164532e+000
 3.810059007977736e-001	 1.450804693538856e+000	 2.927646836318813e+000
 3.660745815799876e-001	 1.454644021000736e+000	 2.819078158215091e+000
 3.511470124300445e-001	 1.458319471087602e+000	 2.716988265301570e+000
 3.362256847149676e-001	 1.461831820519506e+000	 2.621129429280367e+000
 3.213130591634122e-001	 1.465181892099049e+000	 2.531220447291620e+000
 3.064115649289692e-001	 1.468370553586279e+000	 2.446960642173629e+000
 2.915235986962249e-001	 1.471398716555537e+000	 2.368042999008157e+000
 4.426763847345017e-001	 1.440166533580434e+000	 3.463308931496072e+000
 4.276892483668441e-001	 1.444688183176903e+000	 3.327361922576503e+000
 4.126955815370017e-001	 1.449042591183444e+000	 3.198469324284107e+000
 3.976979995243006e-001	 1.453230341745015e+000	 3.076632670035946e+000
 3.826990910204531e-001	 1.457252069598216e+000	 2.961753842168836e+000
 3.677014170200943e-001	 1.461108459031100e+000	 2.853653031914220e+000
 3.527075097528448e-001	 1.464800242817900e+000	 2.752085670331652e+000
 3.377198716573618e-001	 1.468328201130413e+000	 2.656758357279236e+000
 3.227409743977777e-001	 1.471693160427780e+000	 2.567343821940578e+000
 3.077732579228408e-001	 1.474895992326376e+000	 2.483494954014053e+000
 2.928191295680029e-001	 1.477937612451580e+000	 2.404857949390031e+000
 4.446349347909926e-001	 1.446538317450518e+000	 3.496105683458165e+000
 4.295814902629558e-001	 1.451079972354095e+000	 3.359909586805163e+000
 4.145214863797341e-001	 1.455453645734352e+000	 3.230963465130895e+000
 3.994575499915311e-001	 1.459659924320704e+000	 3.109234130058187e+000
 3.843922812433037e-001	 1.463699445658044e+000	 2.994588126963352e+000
 3.693282524603908e-001	 1.467572897061948e+000	 2.886809817239450e+000
 3.542680070758498e-001	 1.471281014548694e+000	 2.785618399207701e+000
 3.392140585999711e-001	 1.474824581741826e+000	 2.690683897145010e+000
 3.241688896323615e-001	 1.478204428757018e+000	 2.601642154487346e+000
 3.091349509169256e-001	 1.481421431066978e+000	 2.518108872960398e+000
 2.941146604399785e-001	 1.484476508348123e+000	 2.439692744187528e+000
 4.465934848476001e-001	 1.452910101320921e+000	 3.528226753462540e+000
 4.314737321591828e-001	 1.457471761531642e+000	 3.391709671177171e+000
 4.163473912225857e-001	 1.461864700285650e+000	 3.262603779831523e+000
 4.012171004588886e-001	 1.466089506896820e+000	 3.140849601274071e+000
 3.860854714662912e-001	 1.470146821718332e+000	 3.026286952598440e+000
 3.709550879008342e-001	 1.474037335093288e+000	 2.918673129582594e+000
 3.558285043990113e-001	 1.477761786280007e+000	 2.817699995795019e+000
 3.407082455427425e-001	 1.481320962353781e+000	 2.723010009338387e+000
 3.255968048671095e-001	 1.484715697086819e+000	 2.634211225939837e+000
 3.104966439111702e-001	 1.487946869808157e+000	 2.550891322891804e+000
 2.954101913121023e-001	 1.491015404245249e+000	 2.472630693243064e+000
 4.485520349043394e-001	 1.459281885191594e+000	 3.559877953128086e+000
 4.333659740555259e-001	 1.463863550709501e+000	 3.422948350556644e+000
 4.181732960655447e-001	 1.468275754837306e+000	 3.293558710721971e+000
 4.029766509263494e-001	 1.472519089473338e+000	 3.171631601371169e+000
 3.877786616893815e-001	 1.476594197779069e+000	 3.056988626799217e+000
 3.725819233413825e-001	 1.480501773125123e+000	 2.949368691279600e+000
 3.573890017222799e-001	 1.484242558011860e+000	 2.848445134490493e+000
 3.422024324856237e-001	 1.487817342966315e+000	 2.753841773518587e+000
 3.270247201019671e-001	 1.491226965417235e+000	 2.665147892913756e+000
 3.118583369055215e-001	 1.494472308549981e+000	 2.581932230172501e+000
 2.967057221843248e-001	 1.497554300143043e+000	 2.503756008996127e+000
 4.505105849612260e-001	 1.465653669062488e+000	 3.591265449538617e+000
 4.352582159519864e-001	 1.470255339887630e+000	 3.453812390559442e+000
 4.199992009085988e-001	 1.474686809389286e+000	 3.323997479519471e+000
 4.047362013938896e-001	 1.478948672050239e+000	 3.201733571653784e+000
 3.894718519125411e-001	 1.483041573840250e+000	 3.086832483099269e+000
 3.742087587819934e-001	 1.486966211157460e+000	 2.979023313051445e+000
 3.589494990456079e-001	 1.490723329744274e+000	 2.877969603532382e+000
 3.436966194285619e-001	 1.494313723579467e+000	 2.783285374085298e+000
 3.284526353368803e-001	 1.497738233748321e+000	 2.694550075737029e+000
 3.132200298999260e-001	 1.500997747292519e+000	 2.611322514598771e+000
 2.980012530565967e-001	 1.504093196041590e+000	 2.533153800514558e+000
 2.850459443420262e-001	 1.438704237079830e+000	 2.151413969338861e+000
 2.705065062765865e-001	 1.441508706198178e+000	 2.076212508119616e+000
 2.559848749528201e-001	 1.444158197264690e+000	 2.005852007937621e+000
 2.414832894836484e-001	 1.446653724004696e+000	 1.939978042993943e+000
 2.270039542545287e-001	 1.448996338326446e+000	 1.878288323782695e+000
 2.125490382604623e-001	 1.451187129141089e+000	 1.820542776526930e+000
 1.981206744846773e-001	 1.453227221174727e+000	 1.766573059038394e+000
 1.837209593187718e-001	 1.455117773774083e+000	 1.716291553785343e+000
 1.693519520240392e-001	 1.456859979707270e+000	 1.669699878340833e+000
 1.550156742336445e-001	 1.458455063961172e+000	 1.626896952344233e+000
 1.407141094952703e-001	 1.459904282536842e+000	 1.588086658639714e+000
 2.863414752120758e-001	 1.445243132974653e+000	 2.199347356643816e+000
 2.717359555508530e-001	 1.448060348376165e+000	 2.124313467453896e+000
 2.571483235628103e-001	 1.450721881352207e+000	 2.053853033503491e+000
 2.425808285375988e-001	 1.453228750235476e+000	 1.987675689571874e+000
 2.280356848795698e-001	 1.455582011715130e+000	 1.925541852379575e+000
 2.135150714417698e-001	 1.457782759651406e+000	 1.867272620439790e+000
 1.990211309017990e-001	 1.459832123882272e+000	 1.812759110400678e+000
 1.845559691793192e-001	 1.461731269023666e+000	 1.761971272923080e+000
 1.701216548949308e-001	 1.463481393264815e+000	 1.714966230430070e+000
 1.557202188700866e-001	 1.465083727160154e+000	 1.671896177907854e+000
 1.413536536676590e-001	 1.466539532419245e+000	 1.633015886332210e+000
 2.876370060825698e-001	 1.451782028869550e+000	 2.244897775819138e+000
 2.729654048255039e-001	 1.454611990554142e+000	 2.170040359672312e+000
 2.583117721731037e-001	 1.457285565439627e+000	 2.099532316858223e+000
 2.436783675917570e-001	 1.459803776466075e+000	 2.033139044950597e+000
 2.290674155047151e-001	 1.462167685103552e+000	 1.970675362600022e+000
 2.144811046230759e-001	 1.464378390161382e+000	 1.912015234873880e+000
 1.999215873188176e-001	 1.466437026589401e+000	 1.857100934784708e+000
 1.853909790396714e-001	 1.468344764272762e+000	 1.805951686374667e+000
 1.708913577655509e-001	 1.470102806821810e+000	 1.758671833909063e+000
 1.564247635062024e-001	 1.471712390358529e+000	 1.715458580449199e+000
 1.419931978396938e-001	 1.473174782300993e+000	 1.676609337354908e+000
 2.889325369534589e-001	 1.458320924764606e+000	 2.288143939820814e+000
 2.741948541004960e-001	 1.461163632732205e+000	 2.213466937558918e+000
 2.594752207836670e-001	 1.463849249527064e+000	 2.142957649699796e+000
 2.447759066461008e-001	 1.466378802696617e+000	 2.076429098853784e+000
 2.300991461299551e-001	 1.468753358491846e+000	 2.013742361958327e+000
 2.154471378043844e-001	 1.470974020671163e+000	 1.954816125804230e+000
 2.008220437357505e-001	 1.473041929296269e+000	 1.899635678090738e+000
 1.862259888998598e-001	 1.474958259521535e+000	 1.848261381747801e+000
 1.716610606359443e-001	 1.476724220378426e+000	 1.800836679356341e+000
 1.571293081420489e-001	 1.478341053556477e+000	 1.757595673082365e+000
 1.426327420114426e-001	 1.479810032182270e+000	 1.718870323692514e+000
 2.902280678246939e-001	 1.464859820659907e+000	 2.329165491609169e+000
 2.754243033757872e-001	 1.467715274910457e+000	 2.254667764046523e+000
 2.606386693944665e-001	 1.470412933614629e+000	 2.184197531250864e+000
 2.458734457006079e-001	 1.472953828927230e+000	 2.117607461796648e+000
 2.311308767552799e-001	 1.475339031880152e+000	 2.054796906610629e+000
 2.164131709856989e-001	 1.477569651180895e+000	 1.995721289016086e+000
 2.017225001526156e-001	 1.479646832003032e+000	 1.940400929277789e+000
 1.870609987599162e-001	 1.481571754770152e+000	 1.888929353832185e+000
 1.724307635061558e-001	 1.483345633934837e+000	 1.841481138354325e+000
 1.578338527776833e-001	 1.484969716754174e+000	 1.798319332287693e+000
 1.432722861829730e-001	 1.486445282063260e+000	 1.759802510470787e+000
 2.915235986962249e-001	 1.471398716555537e+000	 2.368042999008157e+000
 2.766537526513347e-001	 1.474266917088996e+000	 2.293718210140251e+000
 2.618021180054690e-001	 1.476976617702436e+000	 2.223321168578581e+000
 2.469709847552559e-001	 1.479528855158036e+000	 2.156736367187246e+000
 2.321626073806799e-001	 1.481924705268603e+000	 2.093893604684759e+000
 2.173792041670235e-001	 1.484165281690726e+000	 2.034777214156570e+000
 2.026229565694305e-001	 1.486251734709848e+000	 1.979434724690012e+000
 1.878960086198719e-001	 1.488185250018776e+000	 1.927985008804618e+000
 1.732004663762304e-001	 1.489967047491214e+000	 1.880625967228327e+000
 1.585383974131626e-001	 1.491598379951801e+000	 1.837641800899462e+000
 1.439118303543528e-001	 1.493080531944146e+000	 1.799409917954608e+000
 2.928191295680029e-001	 1.477937612451580e+000	 2.404857949390031e+000
 2.778832019270955e-001	 1.480818559267920e+000	 2.330694452619370e+000
 2.629655666166408e-001	 1.483540301790597e+000	 2.260398476669059e+000
 2.480685238100226e-001	 1.486103881389163e+000	 2.193878673176819e+000
 2.331943380061451e-001	 1.488510378657337e+000	 2.131087619355047e+000
 2.183452373483615e-001	 1.490760912200802e+000	 2.072030888544869e+000
 2.035234129862130e-001	 1.492856637416871e+000	 2.016775552156555e+000
 1.887310184797587e-001	 1.494798745267572e+000	 1.965458168231309e+000
 1.739701692462127e-001	 1.496588461047729e+000	 1.918292310615440e+000
 1.592429420485438e-001	 1.498227043149535e+000	 1.875575690956903e+000
 1.445513745256498e-001	 1.499715781825113e+000	 1.837696923451721e+000
 2.941146604399785e-001	 1.484476508348123e+000	 2.439692744187528e+000
 2.791126512030275e-001	 1.487370201447330e+000	 2.365673471538896e+000
 2.641290152279485e-001	 1.490103985879224e+000	 2.295500078272288e+000
 2.491660628648855e-001	 1.492678907620733e+000	 2.229097864263004e+000
 2.342260686316660e-001	 1.495096052046490e+000	 2.166434671672406e+000
 2.193112705297171e-001	 1.497356542711271e+000	 2.107529800739898e+000
 2.044238694029807e-001	 1.499461540124259e+000	 2.052462354869518e+000
 1.895660283396078e-001	 1.501412240516705e+000	 2.001379072871544e+000
 1.747398721161477e-001	 1.503209874604554e+000	 1.954501704865361e+000
 1.599474866838842e-001	 1.504855706347555e+000	 1.912133986421241e+000
 1.451909186969319e-001	 1.506351031706345e+000	 1.874668263117034e+000
 2.954101913121023e-001	 1.491015404245249e+000	 2.472630693243064e+000
 2.803421004790875e-001	 1.493921843627324e+000	 2.398733047521378e+000
 2.652924638393588e-001	 1.496667669968431e+000	 2.328697303520968e+000
 2.502636019198225e-001	 1.499253933852874e+000	 2.262458052657988e+000
 2.352577992572328e-001	 1.501681725436200e+000	 2.199991043155214e+000
 2.202773037110939e-001	 1.503952173222279e+000	 2.141321943881975e+000
 2.053243258197513e-001	 1.506066442832168e+000	 2.086534535046526e+000
 1.904010381994511e-001	 1.508025735766340e+000	 2.035778386292194e+000
 1.755095749860802e-001	 1.509831288161861e+000	 1.989276081278849e+000
 1.606520313192405e-001	 1.511484369546039e+000	 1.947330045767047e+000
 1.458304628682665e-001	 1.512986281588024e+000	 1.910329033673127e+000
 2.967057221843248e-001	 1.497554300143043e+000	 2.503756008996127e+000
 2.815715497552332e-001	 1.500473485808002e+000	 2.429951758859827e+000
 2.664559124508381e-001	 1.503231354058331e+000	 2.360062189331960e+000
 2.513611409748112e-001	 1.505828960085709e+000	 2.294023979425726e+000
 2.362895298828357e-001	 1.508267398826601e+000	 2.231813578148275e+000
 2.212433368924957e-001	 1.510547803733974e+000	 2.173455818807994e+000
 2.062247822365426e-001	 1.512671345540754e+000	 2.119031957388280e+000
 1.912360480593200e-001	 1.514639231016640e+000	 2.068687198294536e+000
 1.762792778560550e-001	 1.516452701719823e+000	 2.022637769188974e+000
 1.613565759546700e-001	 1.518113032745166e+000	 1.981177604445948e+000
 1.464700070397217e-001	 1.519621531470336e+000	 1.944684694035135e+000
 2.980012530565967e-001	 1.504093196041590e+000	 2.533153800514558e+000
 2.828009990314218e-001	 1.507025127989463e+000	 2.459408978426600e+000
 2.676193610623530e-001	 1.509795038149035e+000	 2.389667478592349e+000
 2.524586800298293e-001	 1.512403986319364e+000	 2.323861015396359e+000
 2.373212605084651e-001	 1.514853072217832e+000	 2.261959685958836e+000
 2.222093700739263e-001	 1.517143434246501e+000	 2.203980436950111e+000
 2.071252386533723e-001	 1.519276248250174e+000	 2.149994952331742e+000
 1.920710579192460e-001	 1.521252726267772e+000	 2.100137028162480e+000
 1.770489807261170e-001	 1.523074115278612e+000	 2.054609498890880e+000
 1.620611205902298e-001	 1.524741695945114e+000	 2.013690777232180e+000
 1.471095512113652e-001	 1.526256781353464e+000	 1.977741066855243e+000
 1.407141094952703e-001	 1.459904282536842e+000	 1.588086658639714e+000
 1.264470707132509e-001	 1.461209106227669e+000	 1.553828246672074e+000
 1.122186375303638e-001	 1.462370621981674e+000	 1.524091609365952e+000
 9.803070639248851e-002	 1.463390172555262e+000	 1.498366881777596e+000
 8.388513331654991e-002	 1.464269126940766e+000	 1.476288674971945e+000
 6.978373363269591e-002	 1.465008879159846e+000	 1.457643609947150e+000
 5.572828176456757e-002	 1.465610847063272e+000	 1.442377557393245e+000
 4.172051104692880e-002	 1.466076471138249e+000	 1.430602602570041e+000
 2.776211357989313e-002	 1.466407213324432e+000	 1.422603751700862e+000
 1.385474011895523e-002	 1.466604555839689e+000	 1.418845393351907e+000
 0.000000000000000e+000	 1.466670000016666e+000	 1.419977515258803e+000
 1.413536536676590e-001	 1.466539532419245e+000	 1.633015886332210e+000
 1.270217713416299e-001	 1.467850286520215e+000	 1.598880660448612e+000
 1.127286700767430e-001	 1.469017081351258e+000	 1.569399108256959e+000
 9.847625493824472e-002	 1.470041265771596e+000	 1.544022960117282e+000
 8.426639037867752e-002	 1.470924214995623e+000	 1.522346535312000e+000
 7.010089997888507e-002	 1.471667329380818e+000	 1.504114297269471e+000
 5.598156622728422e-002	 1.472272033222072e+000	 1.489228126270785e+000
 4.191013033666523e-002	 1.472739773553594e+000	 1.477754329703783e+000
 2.788829209775656e-002	 1.473072018959543e+000	 1.469930406865345e+000
 1.391770976875618e-002	 1.473270258394459e+000	 1.466171582246228e+000
 0.000000000000000e+000	 1.473336000014533e+000	 1.467077108477594e+000
 1.419931978396938e-001	 1.473174782300993e+000	 1.676609337354908e+000
 1.275964719696583e-001	 1.474491466812067e+000	 1.642666962609155e+000
 1.132387026228002e-001	 1.475663540720116e+000	 1.613477864695886e+000
 9.892180348372621e-002	 1.476692358987179e+000	 1.588458547669355e+000
 8.464764744058918e-002	 1.477579303049710e+000	 1.567166192671552e+000
 7.041806632492181e-002	 1.478325779601007e+000	 1.549306222384116e+000
 5.623485068990974e-002	 1.478933219380080e+000	 1.534739595257945e+000
 4.209974962636302e-002	 1.479403075968142e+000	 1.523489850383303e+000
 2.801447061561830e-002	 1.479736824593856e+000	 1.515749920653633e+000
 1.398067941857046e-002	 1.479935960948430e+000	 1.511888728645610e+000
 0.000000000000000e+000	 1.480002000011599e+000	 1.512457567124984e+000
 1.426327420114426e-001	 1.479810032182270e+000	 1.718870323692514e+000
 1.281711725974124e-001	 1.481132647103413e+000	 1.685183450326255e+000
 1.137487351686181e-001	 1.482310000088439e+000	 1.656319152105806e+000
 9.936735202901927e-002	 1.483343452202206e+000	 1.631661877816601e+000
 8.502890450237155e-002	 1.484234391103225e+000	 1.610734814854153e+000
 7.073523267088946e-002	 1.484984229820612e+000	 1.593207450673461e+000
 5.648813515252016e-002	 1.485594405537496e+000	 1.578902876954824e+000
 4.228936891608654e-002	 1.486066378382094e+000	 1.567804858199807e+000
 2.814064913352648e-002	 1.486401630227571e+000	 1.560064683081259e+000
 1.404364906842484e-002	 1.486601663501801e+000	 1.556007813485175e+000
 0.000000000000000e+000	 1.486668000008066e+000	 1.556140333920170e+000
 1.432722861829730e-001	 1.486445282063260e+000	 1.759802510470787e+000
 1.287458732249686e-001	 1.487773827394441e+000	 1.726426756484202e+000
 1.142587677142796e-001	 1.488956459456420e+000	 1.697914542274952e+000
 9.981290057421012e-002	 1.489994545416871e+000	 1.673621426777334e+000
 8.541016156411119e-002	 1.490889479156365e+000	 1.653039740516602e+000
 7.105239901687122e-002	 1.491642680039831e+000	 1.635806131652808e+000
 5.674141961519155e-002	 1.492255591694520e+000	 1.621708868349403e+000
 4.247898820590027e-002	 1.492729680795649e+000	 1.610694920050938e+000
 2.826682765152926e-002	 1.493066435860886e+000	 1.602876836714784e+000
 1.410661871834611e-002	 1.493267366054773e+000	 1.598539441469193e+000
 0.000000000000000e+000	 1.493334000004133e+000	 1.598146340156986e+000
 1.439118303543528e-001	 1.493080531944146e+000	 1.799409917954608e+000
 1.293205738524036e-001	 1.494415007685339e+000	 1.766393850806558e+000
 1.147688002598674e-001	 1.495602918824250e+000	 1.738255906042949e+000
 1.002584491193851e-001	 1.496645638631369e+000	 1.714325914270364e+000
 8.579141862589464e-002	 1.497544567209325e+000	 1.694068480217007e+000
 7.136956536295044e-002	 1.498301130258862e+000	 1.677090500806483e+000
 5.699470407799991e-002	 1.498916777851350e+000	 1.663148453824233e+000
 4.266860749586866e-002	 1.499392983209006e+000	 1.652155480693393e+000
 2.839300616967478e-002	 1.499731241494002e+000	 1.644188283143475e+000
 1.416958836836105e-002	 1.499933068607544e+000	 1.639493849815978e+000
 0.000000000000000e+000	 1.500000000000000e+000	 1.638496017067808e+000
 1.445513745256498e-001	 1.499715781825113e+000	 1.837696923451721e+000
 1.298952744797936e-001	 1.501056187976295e+000	 1.805082040920909e+000
 1.152788328054644e-001	 1.502249378192121e+000	 1.777335413945261e+000
 1.007039976646305e-001	 1.503296731845895e+000	 1.753764304140645e+000
 8.617267568780850e-002	 1.504199655262302e+000	 1.733808717423908e+000
 7.168673170921036e-002	 1.504959580477903e+000	 1.717048881361864e+000
 5.724798854102130e-002	 1.505577964008184e+000	 1.703212508076120e+000
 4.285822678605616e-002	 1.506056285622365e+000	 1.692181867174752e+000
 2.851918468801118e-002	 1.506396047127118e+000	 1.684000689276874e+000
 1.423255801849644e-002	 1.506598771160316e+000	 1.678880916770344e+000
 0.000000000000000e+000	 1.506665999995867e+000	 1.677209306885049e+000
 1.451909186969319e-001	 1.506351031706345e+000	 1.874668263117034e+000
 1.304699751072153e-001	 1.507697368267498e+000	 1.842488973364541e+000
 1.157888653511532e-001	 1.508895837560225e+000	 1.815145536815390e+000
 1.011495462100325e-001	 1.509947825060642e+000	 1.791925804957763e+000
 8.655393274993932e-002	 1.510854743315492e+000	 1.772248309488400e+000
 7.200389805573430e-002	 1.511618030697151e+000	 1.755669686013755e+000
 5.750127300433174e-002	 1.512239150165223e+000	 1.741891898955878e+000
 4.304784607652718e-002	 1.512719588035927e+000	 1.730769293145885e+000
 2.864536320658660e-002	 1.513060852760435e+000	 1.722315493477775e+000
 1.429552766877905e-002	 1.513264473713287e+000	 1.716710169890181e+000
 0.000000000000000e+000	 1.513331999991934e+000	 1.714305673611571e+000
 1.458304628682665e-001	 1.512986281588024e+000	 1.910329033673127e+000
 1.310446757347450e-001	 1.514338548559137e+000	 1.878612634527809e+000
 1.162988978970166e-001	 1.515542296928752e+000	 1.851679046349956e+000
 1.015950947556774e-001	 1.516598918275806e+000	 1.828799870577321e+000
 8.693518981237372e-002	 1.517509831369093e+000	 1.809375288579906e+000
 7.232106440260555e-002	 1.518276480916806e+000	 1.792941418594579e+000
 5.775455746800728e-002	 1.518900336322665e+000	 1.779177490229543e+000
 4.323746536734618e-002	 1.519382890449889e+000	 1.767912863058324e+000
 2.877154172544919e-002	 1.519725658394153e+000	 1.759133911529729e+000
 1.435849731923567e-002	 1.519930176266659e+000	 1.752990794117452e+000
 0.000000000000000e+000	 1.519997999988401e+000	 1.749804113507498e+000
 1.464700070397217e-001	 1.519621531470336e+000	 1.944684694035135e+000
 1.316193763624593e-001	 1.520979728851398e+000	 1.913451351543647e+000
 1.168089304431375e-001	 1.522188756297897e+000	 1.886929015633358e+000
 1.020406433016516e-001	 1.523250011491580e+000	 1.864376200674495e+000
 8.731644687519827e-002	 1.524164919423301e+000	 1.845177862585652e+000
 7.263823074990740e-002	 1.524934931137064e+000	 1.828852675696366e+000
 5.800784193212395e-002	 1.525561522480709e+000	 1.815060144264617e+000
 4.342708465857759e-002	 1.526046192864452e+000	 1.803607576249000e+000
 2.889772024464708e-002	 1.526390464028470e+000	 1.794456942451738e+000
 1.442146696989308e-002	 1.526595878820630e+000	 1.787731639632594e+000
 0.000000000000000e+000	 1.526663999985467e+000	 1.783723165300178e+000
 1.471095512113652e-001	 1.526256781353464e+000	 1.977741066855243e+000
 1.321940769904347e-001	 1.527620909144472e+000	 1.947003793120556e+000
 1.173189629895987e-001	 1.528835215667850e+000	 1.920888819626919e+000
 1.024861918480412e-001	 1.529901104708160e+000	 1.898644741246744e+000
 8.769770393849952e-002	 1.530820007478312e+000	 1.879644415978137e+000
 7.295539709772317e-002	 1.531593381358124e+000	 1.863392148241652e+000
 5.826112639675777e-002	 1.532222708639553e+000	 1.849530724639909e+000
 4.361670395028588e-002	 1.532709495279816e+000	 1.837848330918776e+000
 2.902389876422843e-002	 1.533055269663587e+000	 1.828285374156088e+000
 1.448443662077806e-002	 1.533261581375402e+000	 1.820941229510204e+000
 0.000000000000000e+000	 1.533329999983334e+000	 1.816080920131906e+000
 1.533329999983334e+000	 0.000000000000000e+000	 1.444735451509813e+001
 1.533261581375402e+000	 1.448443662077811e-002	 1.445005373756945e+001
 1.533055269663588e+000	 2.902389876422853e-002	 1.445121337335792e+001
 1.532709495279816e+000	 4.361670395028579e-002	 1.445110375978283e+001
 1.532222708639554e+000	 5.826112639675773e-002	 1.444999570137669e+001
 1.531593381358125e+000	 7.295539709772311e-002	 1.444815952857511e+001
 1.530820007478312e+000	 8.769770393849954e-002	 1.444586427416313e+001
 1.529901104708160e+000	 1.024861918480413e-001	 1.444337698781528e+001
 1.528835215667849e+000	 1.173189629895985e-001	 1.444096220609158e+001
 1.527620909144472e+000	 1.321940769904346e-001	 1.443888159666254e+001
 1.526256781353464e+000	 1.471095512113651e-001	 1.443739379698399e+001
 1.539996999982150e+000	 0.000000000000000e+000	 1.439309260990287e+001
 1.539928283886501e+000	 1.454741571829705e-002	 1.439613616844166e+001
 1.539721075120481e+000	 2.915009621289081e-002	 1.439748230799286e+001
 1.539373797291449e+000	 4.380635168824681e-002	 1.439745076751932e+001
 1.538884894077197e+000	 5.851444885842472e-002	 1.439636035710627e+001
 1.538252830447551e+000	 7.327261102581677e-002	 1.439452791457151e+001
 1.537476093897312e+000	 8.807901819661552e-002	 1.439226737670332e+001
 1.536553195689442e+000	 1.029318072338745e-001	 1.438988898578696e+001
 1.535482672107356e+000	 1.178290720489961e-001	 1.438769864898976e+001
 1.534263085715157e+000	 1.327688638324482e-001	 1.438599746964504e+001
 1.532893026624554e+000	 1.477491913244743e-001	 1.438508147098448e+001
 1.546663999981867e+000	 0.000000000000000e+000	 1.433935158248852e+001
 1.546594986398501e+000	 1.461039481602090e-002	 1.434274007615955e+001
 1.546386880578270e+000	 2.927629366190359e-002	 1.434427880967900e+001
 1.546038099303972e+000	 4.399599942665178e-002	 1.434433588408312e+001
 1.545547079515721e+000	 5.876777132058415e-002	 1.434327706242357e+001
 1.544912279537849e+000	 7.358982495441384e-002	 1.434146462518792e+001
 1.544132180317175e+000	 8.846033245521599e-002	 1.433925633708266e+001
 1.543205286671576e+000	 1.033774226201508e-001	 1.433700454614712e+001
 1.542130128547706e+000	 1.183391811087809e-001	 1.433505543296929e+001
 1.540905262286677e+000	 1.333436506747862e-001	 1.433374842930536e+001
 1.539529271896469e+000	 1.483888314378467e-001	 1.433341582697463e+001
 1.553330999982383e+000	 0.000000000000000e+000	 1.428611222110137e+001
 1.553261688911297e+000	 1.467337391390012e-002	 1.428984403761600e+001
 1.553052686036848e+000	 2.940249111118563e-002	 1.429157919985214e+001
 1.552702401317272e+000	 4.418564716540310e-002	 1.429173313619382e+001
 1.552209264955009e+000	 5.902109378313507e-002	 1.429071751610191e+001
 1.551571728628893e+000	 7.390703888342050e-002	 1.428893900525597e+001
 1.550788266737764e+000	 8.884164671422189e-002	 1.428679812864754e+001
 1.549857377654417e+000	 1.038230380068115e-001	 1.428468826288902e+001
 1.548777584988743e+000	 1.188492901689170e-001	 1.428299477570196e+001
 1.547547438858865e+000	 1.339184375174358e-001	 1.428209433213976e+001
 1.546165517169035e+000	 1.490284715514892e-001	 1.428235438873705e+001
 1.559997999983599e+000	 0.000000000000000e+000	 1.423335378733467e+001
 1.559928391424788e+000	 1.473635301188521e-002	 1.423742540260939e+001
 1.559718491496111e+000	 2.952868856065571e-002	 1.423935886352080e+001
 1.559366703331239e+000	 4.437529490440324e-002	 1.423961589561782e+001
 1.558871450394939e+000	 5.927441624597654e-002	 1.423865303396819e+001
 1.558231177720554e+000	 7.422425281274271e-002	 1.423692027895075e+001
 1.557444353158942e+000	 8.922296097355420e-002	 1.423485985643855e+001
 1.556509468637816e+000	 1.042686533937975e-001	 1.423290510391711e+001
 1.555425041430309e+000	 1.193593992293683e-001	 1.423147950068573e+001
 1.554189615431554e+000	 1.344932243603837e-001	 1.423099586194586e+001
 1.552801762442078e+000	 1.496681116654091e-001	 1.423185571827962e+001
 1.566664999985416e+000	 0.000000000000000e+000	 1.418105404861262e+001
 1.566595093938874e+000	 1.479933210992662e-002	 1.418546032344356e+001
 1.566384296955953e+000	 2.965488601023259e-002	 1.418759227588277e+001
 1.566031005345761e+000	 4.456494264355464e-002	 1.418795690270894e+001
 1.565533635835396e+000	 5.952773870900763e-002	 1.418705456927832e+001
 1.564890626812705e+000	 7.454146674228665e-002	 1.418537756691794e+001
 1.564100439580571e+000	 8.960427523313398e-002	 1.418340877099162e+001
 1.563161559621629e+000	 1.047142687810504e-001	 1.418162042144926e+001
 1.562072497872246e+000	 1.198695082900990e-001	 1.418047304418340e+001
 1.560831792004578e+000	 1.350680112036168e-001	 1.418041453323697e+001
 1.559438007715424e+000	 1.503077517796133e-001	 1.418187941567259e+001
 1.573331999987733e+000	 0.000000000000000e+000	 1.412918930984772e+001
 1.573261796453454e+000	 1.486231120797487e-002	 1.413392378377249e+001
 1.573050102416269e+000	 2.978108345983503e-002	 1.413625302825943e+001
 1.572695307360727e+000	 4.475459038275972e-002	 1.413672828933779e+001
 1.572195821276259e+000	 5.978106117212738e-002	 1.413589273255282e+001
 1.571550075905218e+000	 7.485868067195839e-002	 1.413427990293105e+001
 1.570756526002515e+000	 8.998558949288225e-002	 1.413241228173793e+001
 1.569813650605705e+000	 1.051598841685111e-001	 1.413079996208724e+001
 1.568719954314401e+000	 1.203796173510731e-001	 1.412993946189563e+001
 1.567473968577772e+000	 1.356427980471222e-001	 1.413031269445750e+001
 1.566074252988898e+000	 1.509473918941090e-001	 1.413238611875225e+001
 1.579998999990450e+000	 0.000000000000000e+000	 1.407773444429708e+001
 1.579928498968426e+000	 1.492529030598040e-002	 1.408278962671445e+001
 1.579715907876954e+000	 2.990728090938180e-002	 1.408531385336818e+001
 1.579359609376027e+000	 4.494423812192101e-002	 1.408590160122850e+001
 1.578858006717409e+000	 6.003438363523485e-002	 1.408513781088763e+001
 1.578209524997966e+000	 7.517589460166402e-002	 1.408359625009237e+001
 1.577412612424635e+000	 9.036690375271991e-002	 1.408183797001548e+001
 1.576465741589899e+000	 1.056054995561210e-001	 1.408040987656442e+001
 1.575367410756614e+000	 1.208897264122547e-001	 1.407984343537716e+001
 1.574116145150969e+000	 1.362175848908867e-001	 1.408065353100571e+001
 1.572710498262325e+000	 1.515870320089032e-001	 1.408333750269502e+001
 1.586665999993466e+000	 0.000000000000000e+000	 1.402666292364073e+001
 1.586595201483688e+000	 1.498826940389370e-002	 1.403203058225481e+001
 1.586381713337901e+000	 3.003347835879168e-002	 1.403474664995203e+001
 1.586023911391549e+000	 4.513388586094088e-002	 1.403544781971933e+001
 1.585520192158728e+000	 6.028770609822909e-002	 1.403475978675649e+001
 1.584868974090821e+000	 7.549310853130964e-002	 1.403329551659073e+001
 1.584068698846796e+000	 9.074821801256802e-002	 1.403165360170246e+001
 1.583117832574064e+000	 1.060511149438211e-001	 1.403041672918019e+001
 1.582014867198729e+000	 1.213998354736078e-001	 1.403015027820328e+001
 1.580758321724004e+000	 1.367923717348972e-001	 1.403140106806971e+001
 1.579346743535532e+000	 1.522266721240030e-001	 1.403469627946563e+001
 1.593332999996683e+000	 0.000000000000000e+000	 1.397594684730467e+001
 1.593261903999138e+000	 1.505124850166526e-002	 1.398161829396081e+001
 1.593047518799007e+000	 3.015967580798343e-002	 1.398452250678500e+001
 1.592688213407181e+000	 4.532353359972181e-002	 1.398533738296514e+001
 1.592182377600097e+000	 6.054102856100917e-002	 1.398472835631871e+001
 1.591528423183657e+000	 7.581032246080131e-002	 1.398334657102944e+001
 1.590724785268861e+000	 9.112953227234759e-002	 1.398182713948429e+001
 1.589769923558053e+000	 1.064967303315528e-001	 1.398078750693063e+001
 1.588662323640588e+000	 1.219099445350965e-001	 1.398082594189423e+001
 1.587400498296709e+000	 1.373671585791407e-001	 1.398252017328114e+001
 1.585982988808343e+000	 1.528663122394153e-001	 1.398642619714379e+001
 1.600000000000000e+000	 0.000000000000000e+000	 1.392555697105092e+001
 1.599928606514677e+000	 1.511422759924554e-002	 1.393152334502594e+001
 1.599713324260166e+000	 3.028587325687582e-002	 1.393461172607262e+001
 1.599352515422813e+000	 4.551318133816625e-002	 1.393554020659721e+001
 1.598844563041397e+000	 6.079435102347415e-002	 1.393501294724754e+001
 1.598187872276344e+000	 7.612753639004513e-002	 1.393371825733691e+001
 1.597380871690691e+000	 9.151084653197962e-002	 1.393232675476461e+001
 1.596422014541718e+000	 1.069423457192571e-001	 1.393148962834385e+001
 1.595309780082036e+000	 1.224200535966849e-001	 1.393183702160416e+001
 1.594042674868919e+000	 1.379419454236041e-001	 1.393397655919331e+001
 1.592619234080585e+000	 1.535059523551476e-001	 1.393849203913168e+001
 1.526256781353464e+000	 1.471095512113651e-001	 1.443739379698399e+001
 1.524741695945114e+000	 1.620611205902299e-001	 1.443540031805363e+001
 1.523074115278612e+000	 1.770489807261168e-001	 1.443188746030680e+001
 1.521252726267772e+000	 1.920710579192460e-001	 1.442721672362666e+001
 1.519276248250174e+000	 2.071252386533722e-001	 1.442171946776713e+001
 1.517143434246501e+000	 2.222093700739263e-001	 1.441569711538343e+001
 1.514853072217832e+000	 2.373212605084653e-001	 1.440942172311321e+001
 1.512403986319364e+000	 2.524586800298292e-001	 1.440313695323203e+001
 1.509795038149035e+000	 2.676193610623530e-001	 1.439705947956161e+001
 1.507025127989463e+000	 2.828009990314218e-001	 1.439138086231989e+001
 1.504093196041590e+000	 2.980012530565968e-001	 1.438626992745103e+001
 1.532893026624554e+000	 1.477491913244743e-001	 1.438508147098448e+001
 1.531371353544921e+000	 1.627657709182357e-001	 1.438371741628247e+001
 1.529696522149704e+000	 1.778187990632860e-001	 1.438075021182885e+001
 1.527867213643341e+000	 1.929061930432675e-001	 1.437656516133123e+001
 1.525882141795015e+000	 2.080258301522326e-001	 1.437151507707764e+001
 1.523740054203473e+000	 2.231755481748648e-001	 1.436592037650688e+001
 1.521439733559776e+000	 2.383531459091908e-001	 1.436006954833882e+001
 1.518979998906481e+000	 2.535563837321868e-001	 1.435422002159910e+001
 1.516359706891685e+000	 2.687829842086255e-001	 1.434859947210200e+001
 1.513577753016370e+000	 2.840306327434565e-001	 1.434340760203907e+001
 1.510633072873409e+000	 2.992969782779455e-001	 1.433881842924257e+001
 1.539529271896469e+000	 1.483888314378467e-001	 1.433341582697463e+001
 1.538001011145548e+000	 1.634704212464512e-001	 1.433269006616984e+001
 1.536318929021609e+000	 1.785886174006199e-001	 1.433027591528800e+001
 1.534481701019713e+000	 1.937413281674167e-001	 1.432658261253157e+001
 1.532488035340652e+000	 2.089264216511906e-001	 1.432198456819394e+001
 1.530336674161230e+000	 2.241417262758770e-001	 1.431682135261825e+001
 1.528026394902492e+000	 2.393850313099715e-001	 1.431139805498081e+001
 1.525556011494349e+000	 2.546540874345852e-001	 1.430598604705519e+001
 1.522924375635062e+000	 2.699466073549286e-001	 1.430082418741411e+001
 1.520130378043972e+000	 2.852602664555142e-001	 1.429612050269119e+001
 1.517172949705882e+000	 3.005927034993116e-001	 1.429205438351750e+001
 1.546165517169035e+000	 1.490284715514892e-001	 1.428235438873705e+001
 1.544630668746812e+000	 1.641750715748987e-001	 1.428227355631807e+001
 1.542941335894138e+000	 1.793584357381514e-001	 1.428041778076976e+001
 1.541096188396701e+000	 1.945764632917324e-001	 1.427722036642206e+001
 1.539093928886893e+000	 2.098270131502877e-001	 1.427307746881619e+001
 1.536933294119577e+000	 2.251079043770039e-001	 1.426834797185523e+001
 1.534613056245783e+000	 2.404169167108456e-001	 1.426335373679427e+001
 1.532132024082775e+000	 2.557517911370589e-001	 1.425838025805238e+001
 1.529489044378973e+000	 2.711102305012908e-001	 1.425367776221290e+001
 1.526683003072079e+000	 2.864899001676177e-001	 1.424946278781835e+001
 1.523712826538826e+000	 3.018884287207119e-001	 1.424592028463831e+001
 1.552801762442078e+000	 1.496681116654091e-001	 1.423185571827962e+001
 1.551260326348532e+000	 1.648797219036005e-001	 1.423242441288881e+001
 1.549563742767107e+000	 1.801282540759132e-001	 1.423113044289231e+001
 1.547710675774113e+000	 1.954115984162538e-001	 1.422843131158732e+001
 1.545699822433543e+000	 2.107276046495656e-001	 1.422474506905316e+001
 1.543529914078321e+000	 2.260740824782868e-001	 1.422045007625298e+001
 1.541199717589455e+000	 2.414488021118517e-001	 1.421588514173008e+001
 1.538708036671565e+000	 2.568494948396415e-001	 1.421135006671803e+001
 1.536053713123227e+000	 2.722738536477408e-001	 1.420710663594932e+001
 1.533235628100504e+000	 2.877195338797896e-001	 1.420338009276898e+001
 1.530252703372057e+000	 3.031841539421639e-001	 1.420036113830988e+001
 1.559438007715424e+000	 1.503077517796133e-001	 1.418187941567259e+001
 1.557889983950527e+000	 1.655843722325790e-001	 1.418310039583709e+001
 1.556186149640328e+000	 1.808980724139380e-001	 1.418236995343528e+001
 1.554325163151757e+000	 1.962467335410196e-001	 1.418016992502394e+001
 1.552305715980410e+000	 2.116281961490655e-001	 1.417694040683822e+001
 1.550126534037266e+000	 2.270402605797670e-001	 1.417307940355665e+001
 1.547786378933312e+000	 2.424806875130279e-001	 1.416894285015055e+001
 1.545284049260524e+000	 2.579471985423669e-001	 1.416484504348080e+001
 1.542618381867632e+000	 2.734374767943067e-001	 1.416105952185700e+001
 1.539788253129059e+000	 2.889491675920524e-001	 1.415782043217869e+001
 1.536792580205390e+000	 3.044798791636848e-001	 1.415532442551133e+001
 1.566074252988898e+000	 1.509473918941090e-001	 1.413238611875225e+001
 1.564519641552615e+000	 1.662890225618565e-001	 1.413426049507596e+001
 1.562808556513614e+000	 1.816678907522586e-001	 1.413409377395893e+001
 1.560939650529444e+000	 1.970818686660690e-001	 1.413239226121175e+001
 1.558911609527300e+000	 2.125287876488292e-001	 1.412961825345076e+001
 1.556723153996217e+000	 2.280064386814850e-001	 1.412618956919403e+001
 1.554373040277162e+000	 2.435125729144131e-001	 1.412247945325567e+001
 1.551860061849460e+000	 2.590449022452694e-001	 1.411881689195658e+001
 1.549183050611998e+000	 2.746010999410177e-001	 1.411548737830627e+001
 1.546340878157556e+000	 2.901788013044291e-001	 1.411273416780374e+001
 1.543332457038643e+000	 3.057756043852918e-001	 1.411076006682234e+001
 1.572710498262325e+000	 1.515870320089032e-001	 1.408333750269502e+001
 1.571149299154617e+000	 1.669936728914554e-001	 1.408586492657234e+001
 1.569430963386780e+000	 1.824377090909078e-001	 1.408626076841472e+001
 1.567554137906982e+000	 1.979170037914407e-001	 1.408505594123249e+001
 1.565517503074019e+000	 2.134293791488981e-001	 1.408273509913991e+001
 1.563319773954980e+000	 2.289726167834827e-001	 1.407973604840232e+001
 1.560959701620807e+000	 2.445444583160452e-001	 1.407644953171414e+001
 1.558436074438177e+000	 2.601426059483827e-001	 1.407321942408707e+001
 1.555747719356131e+000	 2.757647230879017e-001	 1.407034338045664e+001
 1.552893503185804e+000	 2.914084350169423e-001	 1.406807397669621e+001
 1.549872333871631e+000	 3.070713296070020e-001	 1.406662038713392e+001
 1.579346743535532e+000	 1.522266721240030e-001	 1.403469627946563e+001
 1.577778956756348e+000	 1.676983232213979e-001	 1.403787512837677e+001
 1.576053370259636e+000	 1.832075274299182e-001	 1.403883119574699e+001
 1.574168625284182e+000	 1.987521389171739e-001	 1.403812014193544e+001
 1.572123396620374e+000	 2.143299706493138e-001	 1.403624913884712e+001
 1.569916393913360e+000	 2.299387948858007e-001	 1.403367615850499e+001
 1.567546362964054e+000	 2.455763437179628e-001	 1.403080963449305e+001
 1.565012087026484e+000	 2.612403096517410e-001	 1.402800853552357e+001
 1.562312388099842e+000	 2.769283462349874e-001	 1.402558289219864e+001
 1.559446128213619e+000	 2.926380687296147e-001	 1.402379481971162e+001
 1.556412210704171e+000	 3.083670548288327e-001	 1.402286008073122e+001
 1.585982988808343e+000	 1.528663122394153e-001	 1.398642619714379e+001
 1.584408614357630e+000	 1.684029735517064e-001	 1.399025375658956e+001
 1.582675777131999e+000	 1.839773457693228e-001	 1.399176670248571e+001
 1.580783112660850e+000	 1.995872740433072e-001	 1.399154558514703e+001
 1.578729290166173e+000	 2.152305621501178e-001	 1.399012025802591e+001
 1.576513013871161e+000	 2.309049729884803e-001	 1.398796904133445e+001
 1.574133024306707e+000	 2.466082291202043e-001	 1.398551825788041e+001
 1.571588099614184e+000	 2.623380133553782e-001	 1.398314218124900e+001
 1.568877056842937e+000	 2.780919693823035e-001	 1.398116343837736e+001
 1.565998753240810e+000	 2.938677024424691e-001	 1.397985391033831e+001
 1.562952087536078e+000	 3.096627800508011e-001	 1.397943617673778e+001
 1.592619234080585e+000	 1.535059523551476e-001	 1.393849203913167e+001
 1.591038271958281e+000	 1.691076238824034e-001	 1.394296468126370e+001
 1.589298184003680e+000	 1.847471641091542e-001	 1.394503031533145e+001
 1.587397600036800e+000	 2.004224091698800e-001	 1.394529452692521e+001
 1.585335183711221e+000	 2.161311536513516e-001	 1.394431001855416e+001
 1.583109633828190e+000	 2.318711510915626e-001	 1.394257564579596e+001
 1.580719685648572e+000	 2.476401145228081e-001	 1.394053582469490e+001
 1.578164112201086e+000	 2.634357170593281e-001	 1.393858035143020e+001
 1.575441725585226e+000	 2.792555925298784e-001	 1.393704467728828e+001
 1.572551378267189e+000	 2.950973361555282e-001	 1.393621068384010e+001
 1.569491964367168e+000	 3.109585052729245e-001	 1.393630800491089e+001
 1.504093196041590e+000	 2.980012530565968e-001	 1.438626992745103e+001
 1.500997747292520e+000	 3.132200298999261e-001	 1.438061083014292e+001
 1.497738233748321e+000	 3.284526353368806e-001	 1.437318886640174e+001
 1.494313723579467e+000	 3.436966194285618e-001	 1.436400119327021e+001
 1.490723329744274e+000	 3.589494990456078e-001	 1.435304125433198e+001
 1.486966211157460e+000	 3.742087587819934e-001	 1.434030450836326e+001
 1.483041573840250e+000	 3.894718519125411e-001	 1.432579488189739e+001
 1.478948672050239e+000	 4.047362013938897e-001	 1.430953197981225e+001
 1.474686809389286e+000	 4.199992009085986e-001	 1.429155908661848e+001
 1.470255339887630e+000	 4.352582159519864e-001	 1.427195198930086e+001
 1.465653669062488e+000	 4.505105849612260e-001	 1.425082865032915e+001
 1.510633072873409e+000	 2.992969782779455e-001	 1.433881842924257e+001
 1.507524164949504e+000	 3.145819271687185e-001	 1.433373854730205e+001
 1.504250478868019e+000	 3.298807647805117e-001	 1.432697088939454e+001
 1.500811078747787e+000	 3.451910305219705e-001	 1.431850652365510e+001
 1.497205073690221e+000	 3.605102304669627e-001	 1.430833002734545e+001
 1.493431618952961e+000	 3.758358382723523e-001	 1.429642518389252e+001
 1.489489917104969e+000	 3.911652961396744e-001	 1.428278141608861e+001
 1.485379219161321e+000	 4.064960158204545e-001	 1.426740099093986e+001
 1.481098825695899e+000	 4.218253796648537e-001	 1.425030703024516e+001
 1.476648087930236e+000	 4.371507417132339e-001	 1.423155235918205e+001
 1.472026408796709e+000	 4.524694288301597e-001	 1.421122922294430e+001
 1.517172949705882e+000	 3.005927034993116e-001	 1.429205438351750e+001
 1.514050582607095e+000	 3.159438244375236e-001	 1.428755728905030e+001
 1.510762723988268e+000	 3.313088942241527e-001	 1.428145133109918e+001
 1.507308433916597e+000	 3.466854416153890e-001	 1.427372031964347e+001
 1.503686817636593e+000	 3.620709618883304e-001	 1.426433876963804e+001
 1.499897026748817e+000	 3.774629177627315e-001	 1.425327756461694e+001
 1.495938260369979e+000	 3.928587403668400e-001	 1.424051036872397e+001
 1.491809766272625e+000	 4.082558302470694e-001	 1.422602082406510e+001
 1.487510842002673e+000	 4.236515584211839e-001	 1.420981056890196e+001
 1.483040835972945e+000	 4.390432674745878e-001	 1.419190811041849e+001
 1.478399148530984e+000	 4.544282726992400e-001	 1.417237858357263e+001
 1.523712826538826e+000	 3.018884287207119e-001	 1.424592028463830e+001
 1.520577000265113e+000	 3.173057217063540e-001	 1.424200901136610e+001
 1.517274969108895e+000	 3.327370236678126e-001	 1.423657181855847e+001
 1.513805789085730e+000	 3.481798527088229e-001	 1.422958411219873e+001
 1.510168561583230e+000	 3.636316933097140e-001	 1.422100917255193e+001
 1.506362434544881e+000	 3.790899972531312e-001	 1.421080378238585e+001
 1.502386603635133e+000	 3.945521845940356e-001	 1.419892461589750e+001
 1.498240313384018e+000	 4.100156446737295e-001	 1.418533542667774e+001
 1.493922858309479e+000	 4.254777371775804e-001	 1.417001507170375e+001
 1.489433584015637e+000	 4.409357932360366e-001	 1.415296640658215e+001
 1.484771888265196e+000	 4.563871165684502e-001	 1.413422608505671e+001
 1.530252703372057e+000	 3.031841539421639e-001	 1.420036113830988e+001
 1.527103417923380e+000	 3.186676189752223e-001	 1.419703827204855e+001
 1.523787214229728e+000	 3.341651531114999e-001	 1.419227666233342e+001
 1.520303144255021e+000	 3.496742638022776e-001	 1.418604218895461e+001
 1.516650305529975e+000	 3.651924247311161e-001	 1.417828574895959e+001
 1.512827842340999e+000	 3.807170767435516e-001	 1.416894884741806e+001
 1.508834946900292e+000	 3.962456288212590e-001	 1.415796996117728e+001
 1.504670860495363e+000	 4.117754591004300e-001	 1.414529171541097e+001
 1.500334874616188e+000	 4.273039159340354e-001	 1.413086891145477e+001
 1.495826332058187e+000	 4.428283189975681e-001	 1.411467744267749e+001
 1.491144627999229e+000	 4.583459604377744e-001	 1.409672413294117e+001
 1.536792580205390e+000	 3.044798791636848e-001	 1.415532442551133e+001
 1.533629835581718e+000	 3.200295162441408e-001	 1.415259219111887e+001
 1.530299459350595e+000	 3.355932825552235e-001	 1.414851281340220e+001
 1.526800499424305e+000	 3.511686748957587e-001	 1.414304154764860e+001
 1.523132049476669e+000	 3.667531561525392e-001	 1.413611578327936e+001
 1.519293250137022e+000	 3.823441562339925e-001	 1.412766059495622e+001
 1.515283290165310e+000	 3.979390730485077e-001	 1.411759507896530e+001
 1.511101407606524e+000	 4.135352735271654e-001	 1.410583951618406e+001
 1.506746890922672e+000	 4.291300946905406e-001	 1.409232340166112e+001
 1.502219080100473e+000	 4.447208447591707e-001	 1.407699437912185e+001
 1.497517367732963e+000	 4.603048043071962e-001	 1.405982811652823e+001
 1.543332457038643e+000	 3.057756043852918e-001	 1.411076006682234e+001
 1.540156253239948e+000	 3.213914135131227e-001	 1.410862041165780e+001
 1.536811704471323e+000	 3.370214119989919e-001	 1.410522982053380e+001
 1.533297854593415e+000	 3.526630859892718e-001	 1.410053185006703e+001
 1.529613793423154e+000	 3.683138875739864e-001	 1.409444928203611e+001
 1.525758657932800e+000	 3.839712357244545e-001	 1.408688963249764e+001
 1.521731633430045e+000	 3.996325172757796e-001	 1.407775145846297e+001
 1.517531954717364e+000	 4.152950879539309e-001	 1.406693150497669e+001
 1.513158907228801e+000	 4.309562734470882e-001	 1.405433273419846e+001
 1.508611828142372e+000	 4.466133705208325e-001	 1.403987327640063e+001
 1.503890107466283e+000	 4.622636481766994e-001	 1.402349634062563e+001
 1.549872333871631e+000	 3.070713296070020e-001	 1.406662038713392e+001
 1.546682670897893e+000	 3.227533107821800e-001	 1.406507506106653e+001
 1.543323949591740e+000	 3.384495414428143e-001	 1.406237978812251e+001
 1.539795209762188e+000	 3.541574970828225e-001	 1.405846537648581e+001
 1.536095537369272e+000	 3.698746189954602e-001	 1.405323892495083e+001
 1.532224065728180e+000	 3.855983152149377e-001	 1.404658928758454e+001
 1.528179976694352e+000	 4.013259615030719e-001	 1.403839334822362e+001
 1.523962501827749e+000	 4.170549023807215e-001	 1.402852314921571e+001
 1.519570923534447e+000	 4.327824522036696e-001	 1.401685391761441e+001
 1.515004576183764e+000	 4.485058962825418e-001	 1.400327303037750e+001
 1.510262847199072e+000	 4.642224920462676e-001	 1.398768995796602e+001
 1.556412210704171e+000	 3.083670548288327e-001	 1.402286008073122e+001
 1.553209088555372e+000	 3.241152080513254e-001	 1.402191071273810e+001
 1.549836194711674e+000	 3.398776708866992e-001	 1.401991733446941e+001
 1.546292564930458e+000	 3.556519081764159e-001	 1.401679698059266e+001
 1.542577281314866e+000	 3.714353504169633e-001	 1.401244001654341e+001
 1.538689473523012e+000	 3.872253947054421e-001	 1.400671555613722e+001
 1.534628319958090e+000	 4.030194057303826e-001	 1.399947770127540e+001
 1.530393048937541e+000	 4.188147168075320e-001	 1.399057264975660e+001
 1.525982939839479e+000	 4.346086309602767e-001	 1.397984671604804e+001
 1.521397324224522e+000	 4.503984220442867e-001	 1.396715530824034e+001
 1.516635586931213e+000	 4.661813359158848e-001	 1.395237290227863e+001
 1.562952087536078e+000	 3.096627800508011e-001	 1.397943617673778e+001
 1.559735506212208e+000	 3.254771053205715e-001	 1.397908434812781e+001
 1.556348439830952e+000	 3.413058003306549e-001	 1.397779955049827e+001
 1.552789920098058e+000	 3.571463192700581e-001	 1.397548404487671e+001
 1.549059025259775e+000	 3.729960818384988e-001	 1.397201043823408e+001
 1.545154881317146e+000	 3.888524741959679e-001	 1.396722705131443e+001
 1.541076663221114e+000	 4.047128499577091e-001	 1.396096412079752e+001
 1.536823596046605e+000	 4.205745312343574e-001	 1.395304088344250e+001
 1.532394956143769e+000	 4.364348097169016e-001	 1.394327358874755e+001
 1.527790072264526e+000	 4.522909478060553e-001	 1.393148448506430e+001
 1.523008326662587e+000	 4.681401797855344e-001	 1.391751182199348e+001
 1.569491964367168e+000	 3.109585052729245e-001	 1.393630800491089e+001
 1.566261923868223e+000	 3.268390025899310e-001	 1.393655531921074e+001
 1.562860684949402e+000	 3.427339297746908e-001	 1.393598595889242e+001
 1.559287275264824e+000	 3.586407303637541e-001	 1.393448643647177e+001
 1.555540769203843e+000	 3.745568132600691e-001	 1.393191060092834e+001
 1.551620289110432e+000	 3.904795536865157e-001	 1.392808495288529e+001
 1.547525006483282e+000	 4.064062941850495e-001	 1.392281480633386e+001
 1.543254143154806e+000	 4.223343456611926e-001	 1.391589134622320e+001
 1.538806972447188e+000	 4.382609884735363e-001	 1.390709963016915e+001
 1.534182820303653e+000	 4.541834735678361e-001	 1.389622758097386e+001
 1.529381066393079e+000	 4.700990236552003e-001	 1.388307601456043e+001
 1.465653669062488e+000	 4.505105849612260e-001	 1.425082865032915e+001
 1.460881254582814e+000	 4.657536202629573e-001	 1.422826512928420e+001
 1.455937606170270e+000	 4.809846085935220e-001	 1.420447112922849e+001
 1.450822287668566e+000	 4.962008129821307e-001	 1.417987421584064e+001
 1.445534918351047e+000	 5.113994742604213e-001	 1.415500795600325e+001
 1.440075173828056e+000	 5.265778123931375e-001	 1.413052641243364e+001
 1.434442786918362e+000	 5.417330278466270e-001	 1.410721956595363e+001
 1.428637548482970e+000	 5.568623029941296e-001	 1.408602966466934e+001
 1.422659308219669e+000	 5.719628035567329e-001	 1.406806849343720e+001
 1.416507975416695e+000	 5.870316800788020e-001	 1.405463555065030e+001
 1.410183519663929e+000	 6.020660694366057e-001	 1.404723711260377e+001
 1.472026408796709e+000	 4.524694288301597e-001	 1.421122922294430e+001
 1.467233243606192e+000	 4.677787416561319e-001	 1.418946656385478e+001
 1.462268099948587e+000	 4.830759551300782e-001	 1.416654025001395e+001
 1.457130539771175e+000	 4.983583203807138e-001	 1.414286907384638e+001
 1.451820180691879e+000	 5.136230662426654e-001	 1.411897665602549e+001
 1.446336696910580e+000	 5.288674005929341e-001	 1.409550607349237e+001
 1.440679820084324e+000	 5.440885117253453e-001	 1.407323543853299e+001
 1.434849340164768e+000	 5.592835697619475e-001	 1.405309442930663e+001
 1.428845106196179e+000	 5.744497281002315e-001	 1.403618176622928e+001
 1.422667027072372e+000	 5.895841248949770e-001	 1.402378362216397e+001
 1.416315072251001e+000	 6.046838845734373e-001	 1.401739294747074e+001
 1.478399148530984e+000	 4.544282726992400e-001	 1.417237858357263e+001
 1.473585232629581e+000	 4.698038630495011e-001	 1.415140721474544e+001
 1.468598593726882e+000	 4.851673016668832e-001	 1.412933999474180e+001
 1.463438791873734e+000	 5.005158277796018e-001	 1.410658623120891e+001
 1.458105443032640e+000	 5.158466582252691e-001	 1.408365871723734e+001
 1.452598219993009e+000	 5.311569887931404e-001	 1.406118848877969e+001
 1.446916853250171e+000	 5.464439956045160e-001	 1.403994055707803e+001
 1.441061131846431e+000	 5.617048365302479e-001	 1.402083061766500e+001
 1.435030904172532e+000	 5.769366526442278e-001	 1.400494273141863e+001
 1.428826078727865e+000	 5.921365697116463e-001	 1.399354796658889e+001
 1.422446624837859e+000	 6.073016997107373e-001	 1.398812398368851e+001
 1.484771888265196e+000	 4.563871165684502e-001	 1.413422608505671e+001
 1.479937221652870e+000	 4.718289844430434e-001	 1.411403836277467e+001
 1.474929087505048e+000	 4.872586482039092e-001	 1.409282264383977e+001
 1.469747043976140e+000	 5.026733351787613e-001	 1.407097804457501e+001
 1.464390705373224e+000	 5.180702502081938e-001	 1.404900565398911e+001
 1.458859743075247e+000	 5.334465769937136e-001	 1.402752341649146e+001
 1.453153886415812e+000	 5.487994794840923e-001	 1.400728201409955e+001
 1.447272923527875e+000	 5.641261032989837e-001	 1.398918175092603e+001
 1.441216702148652e+000	 5.794235771886765e-001	 1.397429043655230e+001
 1.434985130383111e+000	 5.946890145287688e-001	 1.396386225822137e+001
 1.428578177424451e+000	 6.099195148484722e-001	 1.395935762462934e+001
 1.491144627999229e+000	 4.583459604377744e-001	 1.409672413294117e+001
 1.486289210675948e+000	 4.738541058367373e-001	 1.407731436817158e+001
 1.481259581282975e+000	 4.893499947411287e-001	 1.405694360138183e+001
 1.476055296078286e+000	 5.048308425781587e-001	 1.403600005658277e+001
 1.470675967713535e+000	 5.202938421914002e-001	 1.401497224763913e+001
 1.465121266157198e+000	 5.357361651946101e-001	 1.399446398205938e+001
 1.459390919581158e+000	 5.511549633640283e-001	 1.397521038929654e+001
 1.453484715209018e+000	 5.665473700681074e-001	 1.395809497762144e+001
 1.447402500124465e+000	 5.819105017335305e-001	 1.394416771735296e+001
 1.441144182038046e+000	 5.972414593463019e-001	 1.393466414144235e+001
 1.434709730010727e+000	 6.125373299866082e-001	 1.393102544712570e+001
 1.497517367732963e+000	 4.603048043071962e-001	 1.405982811652823e+001
 1.492641199698700e+000	 4.758792272305609e-001	 1.404119259857863e+001
 1.487590075060555e+000	 4.914413412785144e-001	 1.402166131967001e+001
 1.482363548180069e+000	 5.069883499777607e-001	 1.400161091665960e+001
 1.476961230053470e+000	 5.225174341748503e-001	 1.398151646321047e+001
 1.471382789238767e+000	 5.380257533957867e-001	 1.396196659031437e+001
 1.465627952746118e+000	 5.535104472442770e-001	 1.394367965688055e+001
 1.459696506889775e+000	 5.689686368375715e-001	 1.392752097577927e+001
 1.453588298099896e+000	 5.843974262787447e-001	 1.391452109435421e+001
 1.447303233692604e+000	 5.997939041642042e-001	 1.390589512151576e+001
 1.440841282596636e+000	 6.151551451251107e-001	 1.390306308611344e+001
 1.503890107466283e+000	 4.622636481766994e-001	 1.402349634062563e+001
 1.498993188721015e+000	 4.779043486244929e-001	 1.400563335776673e+001
 1.493920568837680e+000	 4.935326878160388e-001	 1.398693722455831e+001
 1.488671800281383e+000	 5.091458573775337e-001	 1.396777230260131e+001
 1.483246492392928e+000	 5.247410261585045e-001	 1.394859936687714e+001
 1.477644312319856e+000	 5.403153415972000e-001	 1.392999083853776e+001
 1.471864985910601e+000	 5.558659311247930e-001	 1.391264709385554e+001
 1.465908298570060e+000	 5.713899036073283e-001	 1.389741385610228e+001
 1.459774096074869e+000	 5.868843508242728e-001	 1.388530067065413e+001
 1.453462285346721e+000	 6.023463489824343e-001	 1.387750045660110e+001
 1.446972835182127e+000	 6.177729602639466e-001	 1.387541012059358e+001
 1.510262847199072e+000	 4.642224920462676e-001	 1.398768995796602e+001
 1.505345177742780e+000	 4.799294700185113e-001	 1.397059981504197e+001
 1.500251062614241e+000	 4.956240343536745e-001	 1.395273564149722e+001
 1.494980052382124e+000	 5.113033647774449e-001	 1.393444884291005e+001
 1.489531754731810e+000	 5.269646181423245e-001	 1.391618504425630e+001
 1.483905835400370e+000	 5.426049297988068e-001	 1.389849943037444e+001
 1.478102019074516e+000	 5.582214150055291e-001	 1.388207318922496e+001
 1.472120090249793e+000	 5.738111703773308e-001	 1.386773106614824e+001
 1.465959894049310e+000	 5.893712753700684e-001	 1.385646003075465e+001
 1.459621337000334e+000	 6.048987938009504e-001	 1.384942905094446e+001
 1.453104387767148e+000	 6.203907754030813e-001	 1.384800996087510e+001
 1.516635586931213e+000	 4.661813359158848e-001	 1.395237290227863e+001
 1.511697166763883e+000	 4.819545914125947e-001	 1.393605793532362e+001
 1.506581556390130e+000	 4.977153808913937e-001	 1.391902372227711e+001
 1.501288304482188e+000	 5.134608721774603e-001	 1.390160803986766e+001
 1.495817017070015e+000	 5.291882101262712e-001	 1.388424051948167e+001
 1.490167358480212e+000	 5.448945180005639e-001	 1.386745809058216e+001
 1.484339052237772e+000	 5.605768988864395e-001	 1.385192155409852e+001
 1.478331881928889e+000	 5.762324371475313e-001	 1.383843329548240e+001
 1.472145692023142e+000	 5.918581999160855e-001	 1.382795614045450e+001
 1.465780388653379e+000	 6.074512386197105e-001	 1.382163334921337e+001
 1.459235940351649e+000	 6.230085905424816e-001	 1.382080973706026e+001
 1.523008326662587e+000	 4.681401797855344e-001	 1.391751182199348e+001
 1.518049155784212e+000	 4.839797128067217e-001	 1.390197640987351e+001
 1.512912050165239e+000	 4.998067274291694e-001	 1.388577137245065e+001
 1.507596556581470e+000	 5.156183795775471e-001	 1.386922019332398e+001
 1.502102279407441e+000	 5.314118021103059e-001	 1.385273567503623e+001
 1.496428881559288e+000	 5.471841062024277e-001	 1.383683548059288e+001
 1.490576085400281e+000	 5.629323827674774e-001	 1.382215883267286e+001
 1.484543673607263e+000	 5.786537039178825e-001	 1.380948438177399e+001
 1.478331489996291e+000	 5.943451244622782e-001	 1.379974924776486e+001
 1.471939440305789e+000	 6.100036834386735e-001	 1.379406923194202e+001
 1.465367492935579e+000	 6.256264056821130e-001	 1.379376018873637e+001
 1.529381066393079e+000	 4.700990236552003e-001	 1.388307601456043e+001
 1.524401144803653e+000	 4.860048342008704e-001	 1.386832658765787e+001
 1.519242543939458e+000	 5.018980739669736e-001	 1.385295117941385e+001
 1.513904808679865e+000	 5.177758869776713e-001	 1.383725832517859e+001
 1.508387541743989e+000	 5.336353940943899e-001	 1.382164317232157e+001
 1.502690404637501e+000	 5.494736944043553e-001	 1.380660311486239e+001
 1.496813118561950e+000	 5.652878666485969e-001	 1.379275461405997e+001
 1.490755465284833e+000	 5.810749706883370e-001	 1.378085121780890e+001
 1.484517287968682e+000	 5.968320490086004e-001	 1.377180278481800e+001
 1.478098491957502e+000	 6.125561282577968e-001	 1.376669591205413e+001
 1.471499045518887e+000	 6.282442208219421e-001	 1.376681555583883e+001
 1.410183519663929e+000	 6.020660694366057e-001	 1.404723711260377e+001
 1.403686959262296e+000	 6.170608500081971e-001	 1.403253300757824e+001
 1.397017451590627e+000	 6.320153956248561e-001	 1.399785005722853e+001
 1.390175151974715e+000	 6.469268136174284e-001	 1.394608028620154e+001
 1.383160278389224e+000	 6.617922040227658e-001	 1.388042156259229e+001
 1.375973111932677e+000	 6.766086612348735e-001	 1.380699036651101e+001
 1.368613997251564e+000	 6.913732756799494e-001	 1.373690220222592e+001
 1.361083342912368e+000	 7.060831355135255e-001	 1.367247499298107e+001
 1.353381621720377e+000	 7.207353283378716e-001	 1.361534421174399e+001
 1.345509370984224e+000	 7.353269429377547e-001	 1.356713052675873e+001
 1.337467192725185e+000	 7.498550710325906e-001	 1.352943494941231e+001
 1.416315072251001e+000	 6.046838845734373e-001	 1.401739294747074e+001
 1.409790264460619e+000	 6.197438632445814e-001	 1.400362486748053e+001
 1.403091757416306e+000	 6.347634320170740e-001	 1.396972235851487e+001
 1.396219707119228e+000	 6.497396856442840e-001	 1.391850225894993e+001
 1.389174332491827e+000	 6.646697115538689e-001	 1.385308375140940e+001
 1.381955915854867e+000	 6.795505915061075e-001	 1.378151192398008e+001
 1.374564803353394e+000	 6.943794032762171e-001	 1.371385143844239e+001
 1.367001405330368e+000	 7.091532223588758e-001	 1.365180525942970e+001
 1.359266196646870e+000	 7.238691236930948e-001	 1.359694044886309e+001
 1.351359716947796e+000	 7.385241834055245e-001	 1.355080415029880e+001
 1.343282570872048e+000	 7.531154805702228e-001	 1.351491872518896e+001
 1.422446624837859e+000	 6.073016997107373e-001	 1.398812398368851e+001
 1.415893569658691e+000	 6.224268764813835e-001	 1.397521934404656e+001
 1.409166063241688e+000	 6.375114684096384e-001	 1.394197185247027e+001
 1.402264262263400e+000	 6.525525576713976e-001	 1.389112215411336e+001
 1.395188386594041e+000	 6.675472190851323e-001	 1.382573230130294e+001
 1.387938719776625e+000	 6.824925217773965e-001	 1.375640217198800e+001
 1.380515609454748e+000	 6.973855308724335e-001	 1.369107369676396e+001
 1.372919467747855e+000	 7.122233092040731e-001	 1.363126792896081e+001
 1.365150771572824e+000	 7.270029190480732e-001	 1.357848604463081e+001
 1.357210062910808e+000	 7.417214238729719e-001	 1.353420464066405e+001
 1.349097949018345e+000	 7.563758901074750e-001	 1.349987086036183e+001
 1.428578177424451e+000	 6.099195148484722e-001	 1.395935762462934e+001
 1.421996874856474e+000	 6.251098897185816e-001	 1.394723927749824e+001
 1.415240369066761e+000	 6.402595048025424e-001	 1.391452112456078e+001
 1.408308817407234e+000	 6.553654296987800e-001	 1.386386660354475e+001
 1.401202440695892e+000	 6.704247266165833e-001	 1.379868060168576e+001
 1.393921523697992e+000	 6.854344520487875e-001	 1.373167032814148e+001
 1.386466415555689e+000	 7.003916584686644e-001	 1.366858859284818e+001
 1.378837530164909e+000	 7.152933960492007e-001	 1.361089726734472e+001
 1.371035346498327e+000	 7.301367144029044e-001	 1.356003414637033e+001
 1.363060408873358e+000	 7.449186643402056e-001	 1.351740823381179e+001
 1.354913327164176e+000	 7.596362996444629e-001	 1.348439485850700e+001
 1.434709730010727e+000	 6.125373299866082e-001	 1.393102544712570e+001
 1.428100180053938e+000	 6.277929029561533e-001	 1.391961186216784e+001
 1.421314674891504e+000	 6.430075411957767e-001	 1.388729722814863e+001
 1.414353372550734e+000	 6.581783017264401e-001	 1.383666675428386e+001
 1.407216494797402e+000	 6.733022341482499e-001	 1.377205203463725e+001
 1.399904327619013e+000	 6.883763823203269e-001	 1.370732509352424e+001
 1.392417221656276e+000	 7.033977860649748e-001	 1.364641501722401e+001
 1.384755592581603e+000	 7.183634828943404e-001	 1.359072653603876e+001
 1.376919921423466e+000	 7.332705097576847e-001	 1.354163654758283e+001
 1.368910754835542e+000	 7.481159048073343e-001	 1.350048939237426e+001
 1.360728705309640e+000	 7.628967091813032e-001	 1.346859196078678e+001
 1.440841282596636e+000	 6.151551451251107e-001	 1.390306308611344e+001
 1.434203485251044e+000	 6.304759161940762e-001	 1.389226852562153e+001
 1.427388980715904e+000	 6.457555775893358e-001	 1.386023155968660e+001
 1.420397927693902e+000	 6.609911737543874e-001	 1.380945814141683e+001
 1.413230548898594e+000	 6.761797416801600e-001	 1.374584889846215e+001
 1.405887131539728e+000	 6.913183125920612e-001	 1.368337462297795e+001
 1.398368027756570e+000	 7.064039136614295e-001	 1.362457111019513e+001
 1.390673654998015e+000	 7.214335697395736e-001	 1.357078797319581e+001
 1.382804496348332e+000	 7.364043051125114e-001	 1.352334367653542e+001
 1.374761100797457e+000	 7.513131452744667e-001	 1.348352080329045e+001
 1.366544083454837e+000	 7.661571187181121e-001	 1.345256115407767e+001
 1.446972835182127e+000	 6.177729602639466e-001	 1.387541012059358e+001
 1.440306790447758e+000	 6.331589294323280e-001	 1.386514480919297e+001
 1.433463286539944e+000	 6.485036139832111e-001	 1.383325973537325e+001
 1.426442482836742e+000	 6.638040457826309e-001	 1.378218056240968e+001
 1.419244602999491e+000	 6.790572492123410e-001	 1.372007304853683e+001
 1.411869935460181e+000	 6.942602428640372e-001	 1.365982649676639e+001
 1.404318833856632e+000	 7.094100412580943e-001	 1.360307423802294e+001
 1.396591717414220e+000	 7.245036565849834e-001	 1.355111277581112e+001
 1.388689071273012e+000	 7.395381004674813e-001	 1.350520458580770e+001
 1.380611446759200e+000	 7.545103857417109e-001	 1.346657337617777e+001
 1.372359461599867e+000	 7.694175282550056e-001	 1.343639917958182e+001
 1.453104387767148e+000	 6.203907754030813e-001	 1.384800996087510e+001
 1.446410095644047e+000	 6.358419426708865e-001	 1.383818024988492e+001
 1.439537592363605e+000	 6.512516503773947e-001	 1.380632146922667e+001
 1.432487037979258e+000	 6.666169178111806e-001	 1.375477795287202e+001
 1.425258657100116e+000	 6.819347567448212e-001	 1.369472586731149e+001
 1.417852739380413e+000	 6.972021731363018e-001	 1.363668769358190e+001
 1.410269639956520e+000	 7.124161688550331e-001	 1.358194097035169e+001
 1.402509779830295e+000	 7.275737434306515e-001	 1.353173108297295e+001
 1.394573646197594e+000	 7.426718958226916e-001	 1.348726694276701e+001
 1.386461792720868e+000	 7.577076262091769e-001	 1.344971624242143e+001
 1.378174839744830e+000	 7.726779377921001e-001	 1.342020054190834e+001
 1.459235940351649e+000	 6.230085905424816e-001	 1.382080973706026e+001
 1.452513400839875e+000	 6.385249559097292e-001	 1.381131826359882e+001
 1.445611898186873e+000	 6.539996867718798e-001	 1.377936045253444e+001
 1.438531593121450e+000	 6.694297898400456e-001	 1.372748790372831e+001
 1.431272711200492e+000	 6.848122642776284e-001	 1.366980823567662e+001
 1.423835543300468e+000	 7.001441034089009e-001	 1.361396456485455e+001
 1.416220446056298e+000	 7.154222964523116e-001	 1.356118705883882e+001
 1.408427842246315e+000	 7.306438302766600e-001	 1.351267196018569e+001
 1.400458221122166e+000	 7.458056911782389e-001	 1.346957702094661e+001
 1.392312138682557e+000	 7.609048666769719e-001	 1.343301675496063e+001
 1.383990217889825e+000	 7.759383473295118e-001	 1.340405751861001e+001
 1.465367492935579e+000	 6.256264056821130e-001	 1.379376018873637e+001
 1.458616706035207e+000	 6.412079691488342e-001	 1.378450602965329e+001
 1.451686204009731e+000	 6.567477231666585e-001	 1.375232423463986e+001
 1.444576148263325e+000	 6.722426618692358e-001	 1.370061592714458e+001
 1.437286765300642e+000	 6.876897718107901e-001	 1.364532050565302e+001
 1.429818347220387e+000	 7.030860336818817e-001	 1.359166281032630e+001
 1.422171252156024e+000	 7.184284240499951e-001	 1.354082741695567e+001
 1.414345904662357e+000	 7.337139171230911e-001	 1.349396338473288e+001
 1.406342796046818e+000	 7.489394865342206e-001	 1.345217969229928e+001
 1.398162484644362e+000	 7.641021071452053e-001	 1.341654048875103e+001
 1.389805596034953e+000	 7.791987568673571e-001	 1.338806017016255e+001
 1.471499045518887e+000	 6.282442208219421e-001	 1.376681555583883e+001
 1.464720011230010e+000	 6.438909823881791e-001	 1.375769437655418e+001
 1.457760509832163e+000	 6.594957595617235e-001	 1.372516410502528e+001
 1.450620703404884e+000	 6.750555338987602e-001	 1.367416065233494e+001
 1.443300819400589e+000	 6.905672793443340e-001	 1.362126247436741e+001
 1.435801151140213e+000	 7.060279639552906e-001	 1.356978745485264e+001
 1.428122058255759e+000	 7.214345516481479e-001	 1.352087610092420e+001
 1.420263967078497e+000	 7.367840039700271e-001	 1.347563223205063e+001
 1.412227370971638e+000	 7.520732818907335e-001	 1.343511842030116e+001
 1.404012830606383e+000	 7.672993476139858e-001	 1.340035124188406e+001
 1.395620974180313e+000	 7.824591664057522e-001	 1.337229635037331e+001
 1.337467192725185e+000	 7.498550710325906e-001	 1.352943494941231e+001
 1.329254509510220e+000	 7.643189735336878e-001	 1.349313095525310e+001
 1.320873248139401e+000	 7.787135684687788e-001	 1.344909226577443e+001
 1.312324206908703e+000	 7.930359665787399e-001	 1.339805960003849e+001
 1.303608249122617e+000	 8.072832887068897e-001	 1.334052863165355e+001
 1.294726303013822e+000	 8.214526676025593e-001	 1.327686844454927e+001
 1.285679361603477e+000	 8.355412497282297e-001	 1.320731762077094e+001
 1.276468482501733e+000	 8.495461970679689e-001	 1.313198161998158e+001
 1.267094787648218e+000	 8.634646889348845e-001	 1.305083150464790e+001
 1.257559462992334e+000	 8.772939237752969e-001	 1.296370405458106e+001
 1.247863758113289e+000	 8.910311209672919e-001	 1.287030330358983e+001
 1.343282570872048e+000	 7.531154805702228e-001	 1.351491872518896e+001
 1.335034178475888e+000	 7.676422728849027e-001	 1.348009275130863e+001
 1.326616474937202e+000	 7.820994562806128e-001	 1.343683557828670e+001
 1.318030262022983e+000	 7.964841289355790e-001	 1.338647441528896e+001
 1.309276406791394e+000	 8.107933991743942e-001	 1.332957884342062e+001
 1.300355841511107e+000	 8.250243872794326e-001	 1.326657006270400e+001
 1.291269563520969e+000	 8.391742273058449e-001	 1.319774012560379e+001
 1.282018635029659e+000	 8.532400688978551e-001	 1.312324912788488e+001
 1.272604182855040e+000	 8.672190791040763e-001	 1.304312377583838e+001
 1.263027398103068e+000	 8.811084441895263e-001	 1.295725737521168e+001
 1.253289535786170e+000	 8.949053714419994e-001	 1.286541127598972e+001
 1.349097949018345e+000	 7.563758901074750e-001	 1.349987086036183e+001
 1.340813847440995e+000	 7.709655722357034e-001	 1.346639620815935e+001
 1.332359701734460e+000	 7.854853440920209e-001	 1.342409099859740e+001
 1.323736317136747e+000	 7.999322912920004e-001	 1.337420438496224e+001
 1.314944564459694e+000	 8.143035096415076e-001	 1.331778716750594e+001
 1.305985380007956e+000	 8.285961069559577e-001	 1.325531341404541e+001
 1.296859765438073e+000	 8.428072048831674e-001	 1.318712880592820e+001
 1.287568787557245e+000	 8.569339407275151e-001	 1.311344763124810e+001
 1.278113578061571e+000	 8.709734692731173e-001	 1.303435118695553e+001
 1.268495333213559e+000	 8.849229646036848e-001	 1.294978763692932e+001
 1.258715313458849e+000	 8.987796219167211e-001	 1.285957336159268e+001
 1.354913327164176e+000	 7.596362996444629e-001	 1.348439485850700e+001
 1.346593516405640e+000	 7.742888715862085e-001	 1.345204870902655e+001
 1.338102928531266e+000	 7.888712319031206e-001	 1.341086406900210e+001
 1.329442372250075e+000	 8.033804536481169e-001	 1.336146926118704e+001
 1.320612722127579e+000	 8.178136201083344e-001	 1.330538497754259e+001
 1.311614918504417e+000	 8.321678266322277e-001	 1.324333696997748e+001
 1.302449967354816e+000	 8.464401824602766e-001	 1.317572475912629e+001
 1.293118940084501e+000	 8.606278125570133e-001	 1.310281643472282e+001
 1.283622973267805e+000	 8.747278594420556e-001	 1.302474688530527e+001
 1.273963268323783e+000	 8.887374850178065e-001	 1.294151752005747e+001
 1.264141091131294e+000	 9.026538723914742e-001	 1.285299751986237e+001
 1.360728705309640e+000	 7.628967091813032e-001	 1.346859196078678e+001
 1.352373185369918e+000	 7.776121709365371e-001	 1.343717815237987e+001
 1.343846155327709e+000	 7.922571197140294e-001	 1.339696754756561e+001
 1.335148427363046e+000	 8.068286160040405e-001	 1.334845913562102e+001
 1.326280879795113e+000	 8.213237305749779e-001	 1.329260447801075e+001
 1.317244457000535e+000	 8.357395463083337e-001	 1.323087973600995e+001
 1.308040169271227e+000	 8.500731600372512e-001	 1.316376940600506e+001
 1.298669092611440e+000	 8.643216843864142e-001	 1.309159504197270e+001
 1.289132368473736e+000	 8.784822496109402e-001	 1.301454417913441e+001
 1.279431203433722e+000	 8.925520054319233e-001	 1.293266991407356e+001
 1.269566868803472e+000	 9.065281228662759e-001	 1.284589205371914e+001
 1.366544083454837e+000	 7.661571187181121e-001	 1.345256115407767e+001
 1.358152854333929e+000	 7.809354702868091e-001	 1.342190970762795e+001
 1.349589382123879e+000	 7.956430075248646e-001	 1.338254117429841e+001
 1.340854482475736e+000	 8.102767783598834e-001	 1.333495548256165e+001
 1.331949037462359e+000	 8.248338410415417e-001	 1.327967858520768e+001
 1.322873995496359e+000	 8.393112659843688e-001	 1.321818113442186e+001
 1.313630371187337e+000	 8.537061376141703e-001	 1.315150437368021e+001
 1.304219245138071e+000	 8.680155562157819e-001	 1.308002303731348e+001
 1.294641763679357e+000	 8.822366397798189e-001	 1.300397641657736e+001
 1.284899138543354e+000	 8.963665258460675e-001	 1.292346779242440e+001
 1.274992646475349e+000	 9.104023733411429e-001	 1.283846547880247e+001
 1.372359461599867e+000	 7.694175282550056e-001	 1.343639917958182e+001
 1.363932523297767e+000	 7.842587696371426e-001	 1.340636583385715e+001
 1.355332608919866e+000	 7.990288953357441e-001	 1.336772893542402e+001
 1.346560537588225e+000	 8.137249407157575e-001	 1.332098955467204e+001
 1.337617195129382e+000	 8.283439515081290e-001	 1.326666000572762e+001
 1.328503533991933e+000	 8.428829856604246e-001	 1.320548088655629e+001
 1.319220573103173e+000	 8.573391151911127e-001	 1.313917137804421e+001
 1.309769397664406e+000	 8.717094280451802e-001	 1.306833996693365e+001
 1.300151158884664e+000	 8.859910299487409e-001	 1.299327686421928e+001
 1.290367073652657e+000	 9.001810462602722e-001	 1.291413408703557e+001
 1.280418424146894e+000	 9.142766238160928e-001	 1.283092639254433e+001
 1.378174839744830e+000	 7.726779377921001e-001	 1.342020054190834e+001
 1.369712192261533e+000	 7.875820689876575e-001	 1.339066629879419e+001
 1.361075835715758e+000	 8.024147831467851e-001	 1.335267174340175e+001
 1.352266592700590e+000	 8.171731030717754e-001	 1.330671929372186e+001
 1.343285352796243e+000	 8.318540619748436e-001	 1.325332448895533e+001
 1.334133072487305e+000	 8.464547053365934e-001	 1.319301199332092e+001
 1.324810775018765e+000	 8.609720927681572e-001	 1.312701210583245e+001
 1.315319550190456e+000	 8.754032998746728e-001	 1.305678521970781e+001
 1.305660554089649e+000	 8.897454201177542e-001	 1.298267858528694e+001
 1.295835008761611e+000	 9.039955666745698e-001	 1.290489156252408e+001
 1.285844201818073e+000	 9.181508742911424e-001	 1.282348334306027e+001
 1.383990217889825e+000	 7.759383473295118e-001	 1.340405751861001e+001
 1.375491861225321e+000	 7.909053683384724e-001	 1.337492819798487e+001
 1.366819062511647e+000	 8.058006709581057e-001	 1.333750746419175e+001
 1.357972647812910e+000	 8.206212654280490e-001	 1.329229929138367e+001
 1.348953510463008e+000	 8.353641724417891e-001	 1.323982220286392e+001
 1.339762610982522e+000	 8.500264250129681e-001	 1.318060518585723e+001
 1.330400976934140e+000	 8.646050703453824e-001	 1.311526809629787e+001
 1.320869702716232e+000	 8.790971717043243e-001	 1.304559790761504e+001
 1.311169949294307e+000	 8.934998102869073e-001	 1.297241431748005e+001
 1.301302943870196e+000	 9.078100870889931e-001	 1.289596269012267e+001
 1.291269979488853e+000	 9.220251247663096e-001	 1.281634469786257e+001
 1.389805596034953e+000	 7.791987568673571e-001	 1.338806017016255e+001
 1.381271530189230e+000	 7.942286676897064e-001	 1.335926597418330e+001
 1.372562289307621e+000	 8.091865587698228e-001	 1.332237094453635e+001
 1.363678702925262e+000	 8.240694277846904e-001	 1.327788082288896e+001
 1.354621668129737e+000	 8.388742829090683e-001	 1.322631688267913e+001
 1.345392149477630e+000	 8.535981446896399e-001	 1.316821175019887e+001
 1.335991178849329e+000	 8.682380479228680e-001	 1.310410502588307e+001
 1.326419855241744e+000	 8.827910435341986e-001	 1.303501674577351e+001
 1.316679344498633e+000	 8.972542004562490e-001	 1.296271635045095e+001
 1.306770878978389e+000	 9.116246075035744e-001	 1.288756952132438e+001
 1.296695757159201e+000	 9.258993752416104e-001	 1.280971851240174e+001
 1.395620974180313e+000	 7.824591664057522e-001	 1.337229635037331e+001
 1.387051199153357e+000	 7.975519670414789e-001	 1.334379143694492e+001
 1.378305516103771e+000	 8.125724465820544e-001	 1.330739403925729e+001
 1.369384758037725e+000	 8.275175901418119e-001	 1.326361188054780e+001
 1.360289825796497e+000	 8.423843933767854e-001	 1.321296875728677e+001
 1.351021687972676e+000	 8.571698643667016e-001	 1.315600026194209e+001
 1.341581380764360e+000	 8.718710255006921e-001	 1.309324929820393e+001
 1.331970007767004e+000	 8.864849153643604e-001	 1.302527993210284e+001
 1.322188739702620e+000	 9.010085906258275e-001	 1.295381640294460e+001
 1.312238814086172e+000	 9.154391279183470e-001	 1.287993356125533e+001
 1.302121534829085e+000	 9.297736257170631e-001	 1.280381239844011e+001
 1.247863758113289e+000	 8.910311209672919e-001	 1.287030330358983e+001
 1.238008985427848e+000	 9.046735223098030e-001	 1.277520923034139e+001
 1.227996518643735e+000	 9.182183928799237e-001	 1.268251968604086e+001
 1.217827793274197e+000	 9.316630236738184e-001	 1.259098693988677e+001
 1.207504306375576e+000	 9.450047336581960e-001	 1.249919554297878e+001
 1.197027615871412e+000	 9.582408715077666e-001	 1.240557169443188e+001
 1.186399339818024e+000	 9.713688173232155e-001	 1.230839407404323e+001
 1.175621155612181e+000	 9.843859843274009e-001	 1.220580608781480e+001
 1.164694799141658e+000	 9.972898205375118e-001	 1.209582946008721e+001
 1.153622063879497e+000	 1.010077810410943e+000	 1.197637909380289e+001
 1.142404799922955e+000	 1.022747476462686e+000	 1.184528032233440e+001
 1.253289535786170e+000	 8.949053714419994e-001	 1.286541127598972e+001
 1.243391914027553e+000	 9.086070906676272e-001	 1.277198223060850e+001
 1.233335912507901e+000	 9.222108550519141e-001	 1.268086466020752e+001
 1.223122972982158e+000	 9.357139438121347e-001	 1.259083541795891e+001
 1.212754599015951e+000	 9.491136642577257e-001	 1.250049973846859e+001
 1.202232355306766e+000	 9.624073535352949e-001	 1.240830073466385e+001
 1.191557866946323e+000	 9.755923803540693e-001	 1.231253040559739e+001
 1.180732818624811e+000	 9.886661466894645e-001	 1.221134210051905e+001
 1.169758953777745e+000	 1.001626089462516e+000	 1.210276437165316e+001
 1.158638073676291e+000	 1.014469682192906e+000	 1.198471677463108e+001
 1.147372036462036e+000	 1.027194436623394e+000	 1.185502433511337e+001
 1.258715313458849e+000	 8.987796219167211e-001	 1.285957336159268e+001
 1.248774842627094e+000	 9.125406590255507e-001	 1.276789975862738e+001
 1.238675306371938e+000	 9.262033172240887e-001	 1.267843639863975e+001
 1.228418152690017e+000	 9.397648639507167e-001	 1.258998302228876e+001
 1.218004891656252e+000	 9.532225948575972e-001	 1.250116384394167e+001
 1.207437094742074e+000	 9.665738355632358e-001	 1.241043718508717e+001
 1.196716394074604e+000	 9.798159433853974e-001	 1.231610666400078e+001
 1.185844481637454e+000	 9.929463090520543e-001	 1.221633388603696e+001
 1.174823108413879e+000	 1.005962358388084e+000	 1.210915256564156e+001
 1.163654083473172e+000	 1.018861553975460e+000	 1.199248474017666e+001
 1.152339273001251e+000	 1.031641396784701e+000	 1.186415512743010e+001
 1.264141091131294e+000	 9.026538723914742e-001	 1.285299751986237e+001
 1.254157771226431e+000	 9.164742273835768e-001	 1.276315359982796e+001
 1.244014700235796e+000	 9.301957793964363e-001	 1.267541184803302e+001
 1.233713332397727e+000	 9.438157840895419e-001	 1.258859323047999e+001
 1.223255184296433e+000	 9.573315254577779e-001	 1.250133926706623e+001
 1.212641834177289e+000	 9.707403175915464e-001	 1.241212180726081e+001
 1.201874921202824e+000	 9.840395064171491e-001	 1.231925440836415e+001
 1.190956144650070e+000	 9.972264714151127e-001	 1.222090525972938e+001
 1.179887263050023e+000	 1.010298627314156e+000	 1.211511158265951e+001
 1.168670093270106e+000	 1.023253425758538e+000	 1.199979625132690e+001
 1.157306509540564e+000	 1.036088356946540e+000	 1.187278211682360e+001
 1.269566868803472e+000	 9.065281228662759e-001	 1.284589205371914e+001
 1.259540699825522e+000	 9.204077957417067e-001	 1.275793605624734e+001
 1.249354094099432e+000	 9.341882415689462e-001	 1.267196863652878e+001
 1.239008512105239e+000	 9.478667042285858e-001	 1.258683035790278e+001
 1.228505476936444e+000	 9.614404560582328e-001	 1.250117840082780e+001
 1.217846573612366e+000	 9.749067996201827e-001	 1.241349648654411e+001
 1.207033448330940e+000	 9.882630694492725e-001	 1.232210645067283e+001
 1.196067807662619e+000	 1.001506633778581e+000	 1.222518140910956e+001
 1.184951417686142e+000	 1.014634896240669e+000	 1.212076084144241e+001
 1.173686103067057e+000	 1.027645297542076e+000	 1.200676562949176e+001
 1.162273746079945e+000	 1.040535317108847e+000	 1.188101638747546e+001
 1.274992646475349e+000	 9.104023733411429e-001	 1.283846547880247e+001
 1.264923628424325e+000	 9.243413640999446e-001	 1.275243980983033e+001
 1.254693487962799e+000	 9.381807037416075e-001	 1.266828493165400e+001
 1.244303691812506e+000	 9.519176243678263e-001	 1.258485941088376e+001
 1.233755769576238e+000	 9.655493866589289e-001	 1.250083447258856e+001
 1.223051313047260e+000	 9.790732816491017e-001	 1.241470407765317e+001
 1.212191975458910e+000	 9.924866324817162e-001	 1.232479669847214e+001
 1.201179470675061e+000	 1.005786796142402e+000	 1.222928873429719e+001
 1.190015572322198e+000	 1.018971165167558e+000	 1.212621999266234e+001
 1.178702112863993e+000	 1.032037169326007e+000	 1.201350861349873e+001
 1.167240982619358e+000	 1.044982277271553e+000	 1.188897052784598e+001
 1.280418424146894e+000	 9.142766238160928e-001	 1.283092639254433e+001
 1.270306557022799e+000	 9.282749324582924e-001	 1.274685778567307e+001
 1.260032881825851e+000	 9.421731659144090e-001	 1.266453929832623e+001
 1.249598871519480e+000	 9.559685445072400e-001	 1.258284594007175e+001
 1.239006062215768e+000	 9.696583172598308e-001	 1.250046139342167e+001
 1.228256052481923e+000	 9.832397636782588e-001	 1.241588825057814e+001
 1.217350502586689e+000	 9.967101955144281e-001	 1.232745999799036e+001
 1.206291133687358e+000	 1.010066958506518e+000	 1.223335468897428e+001
 1.195079726958154e+000	 1.023307434094763e+000	 1.213161081805707e+001
 1.183718122660878e+000	 1.036429041110268e+000	 1.202014219811344e+001
 1.172208219158771e+000	 1.049429237434591e+000	 1.189675846893202e+001
 1.285844201818073e+000	 9.181508742911424e-001	 1.282348334306027e+001
 1.275689485620904e+000	 9.322085008167522e-001	 1.274138301521275e+001
 1.265372275688542e+000	 9.461656280873408e-001	 1.266091055692154e+001
 1.254894051226112e+000	 9.600194646468043e-001	 1.258095589397315e+001
 1.244256354854985e+000	 9.737672478609056e-001	 1.250021360771125e+001
 1.233460791916311e+000	 9.874062457076122e-001	 1.241719333685256e+001
 1.222509029714235e+000	 1.000933758547358e+000	 1.233023197768667e+001
 1.211402796699468e+000	 1.014347120870870e+000	 1.223750790910881e+001
 1.200143881593975e+000	 1.027643703022220e+000	 1.213705581961030e+001
 1.188734132457679e+000	 1.040820912894790e+000	 1.202678447313483e+001
 1.177175455698150e+000	 1.053876197597896e+000	 1.190449532312690e+001
 1.291269979488853e+000	 9.220251247663096e-001	 1.281634469786257e+001
 1.281072414218598e+000	 9.361420691753278e-001	 1.273620849936413e+001
 1.270711669550826e+000	 9.501580902603912e-001	 1.265757764140459e+001
 1.260189230932356e+000	 9.640703847864955e-001	 1.257935547265338e+001
 1.249506647493842e+000	 9.778761784621188e-001	 1.250024594301159e+001
 1.238665531350377e+000	 9.915727277371169e-001	 1.241876417616290e+001
 1.227667556841505e+000	 1.005157321580453e+000	 1.233324889221112e+001
 1.216514459711353e+000	 1.018627283235401e+000	 1.224187700856635e+001
 1.205208036229623e+000	 1.031979971949866e+000	 1.214267833916549e+001
 1.193750142254360e+000	 1.045212784679509e+000	 1.203355446305079e+001
 1.182142692237461e+000	 1.058323157761401e+000	 1.191229722366521e+001
 1.296695757159201e+000	 9.258993752416104e-001	 1.280971851240174e+001
 1.286455342815841e+000	 9.400756375340205e-001	 1.273152707160518e+001
 1.276051063412657e+000	 9.541505524335500e-001	 1.265471945751748e+001
 1.265484410638162e+000	 9.681213049262910e-001	 1.257821098159854e+001
 1.254756940132293e+000	 9.819851090634368e-001	 1.250071346015669e+001
 1.243870270784076e+000	 9.957392097667297e-001	 1.242074596328934e+001
 1.232826083968456e+000	 1.009380884613662e+000	 1.233664746676506e+001
 1.221626122722972e+000	 1.022907445600052e+000	 1.224659182408987e+001
 1.210272190865062e+000	 1.036316240877639e+000	 1.214860239941142e+001
 1.198766152050888e+000	 1.049604656464360e+000	 1.204057196723542e+001
 1.187109928776672e+000	 1.062770117925039e+000	 1.192028116463566e+001
 1.302121534829085e+000	 9.297736257170631e-001	 1.280381239844012e+001
 1.291838271412590e+000	 9.440092058928340e-001	 1.272753126101238e+001
 1.281390457273991e+000	 9.581430146068060e-001	 1.265251474102756e+001
 1.270779590343483e+000	 9.721722250661671e-001	 1.257768868573278e+001
 1.260007232770287e+000	 9.860940396648253e-001	 1.250177130361403e+001
 1.249075010217361e+000	 9.999056917964071e-001	 1.242328409536794e+001
 1.237984611095045e+000	 1.013604447646933e+000	 1.234056503519524e+001
 1.226737785734286e+000	 1.027187607964766e+000	 1.225178244368033e+001
 1.215336345500255e+000	 1.040652509805476e+000	 1.215495254535986e+001
 1.203782161847228e+000	 1.053996528249277e+000	 1.204795740067347e+001
 1.192077165315749e+000	 1.067217078088745e+000	 1.192856484154514e+001
 1.142404799922955e+000	 1.022747476462686e+000	 1.184528032233440e+001
 1.131046627642062e+000	 1.035294507947630e+000	 1.171157747159460e+001
 1.119547835519656e+000	 1.047718419402501e+000	 1.158424740023644e+001
 1.107910437291455e+000	 1.060016858949330e+000	 1.146099990534161e+001
 1.096136498889500e+000	 1.072187518904880e+000	 1.133954172546489e+001
 1.084228137221870e+000	 1.084228137221870e+000	 1.121759610173923e+001
 1.072187518904880e+000	 1.096136498889500e+000	 1.109292272902893e+001
 1.060016858949330e+000	 1.107910437291456e+000	 1.096333794673417e+001
 1.047718419402502e+000	 1.119547835519656e+000	 1.082673501413946e+001
 1.035294507947629e+000	 1.131046627642062e+000	 1.068110431169493e+001
 1.022747476462687e+000	 1.142404799922955e+000	 1.052455330736526e+001
 1.147372036462036e+000	 1.027194436623394e+000	 1.185502433511337e+001
 1.135964478246579e+000	 1.039796023265520e+000	 1.172283436774320e+001
 1.124415688767098e+000	 1.052273954545191e+000	 1.159718758554688e+001
 1.112727690515145e+000	 1.064625868358344e+000	 1.147573523636447e+001
 1.100902558405543e+000	 1.076849446987810e+000	 1.135612264058337e+001
 1.088942418550806e+000	 1.088942418550806e+000	 1.123600933682876e+001
 1.076849446987810e+000	 1.100902558405543e+000	 1.111308964117803e+001
 1.064625868358344e+000	 1.112727690515145e+000	 1.098511346532593e+001
 1.052273954545191e+000	 1.124415688767098e+000	 1.084990723423112e+001
 1.039796023265520e+000	 1.135964478246579e+000	 1.070539474011668e+001
 1.027194436623394e+000	 1.147372036462037e+000	 1.054961776731837e+001
 1.152339273001251e+000	 1.031641396784701e+000	 1.186415512743010e+001
 1.140882328851282e+000	 1.044297538584001e+000	 1.173340345946011e+001
 1.129283542014786e+000	 1.056829489688449e+000	 1.160933287345982e+001
 1.117544943739142e+000	 1.069234877767888e+000	 1.148954535650105e+001
 1.105668617921957e+000	 1.081511375071224e+000	 1.137163442897335e+001
 1.093656699880171e+000	 1.093656699880171e+000	 1.125320586942204e+001
 1.081511375071224e+000	 1.105668617921957e+000	 1.113189887637183e+001
 1.069234877767888e+000	 1.117544943739142e+000	 1.100540750833588e+001
 1.056829489688449e+000	 1.129283542014786e+000	 1.087150223812873e+001
 1.044297538584001e+000	 1.140882328851282e+000	 1.072805145377891e+001
 1.031641396784701e+000	 1.152339273001251e+000	 1.057304273584038e+001
 1.157306509540564e+000	 1.036088356946540e+000	 1.187278211682360e+001
 1.145800179456138e+000	 1.048799053903009e+000	 1.174339349387399e+001
 1.134151395262682e+000	 1.061385024832209e+000	 1.162079507871027e+001
 1.122362196963406e+000	 1.073843887177903e+000	 1.150254873900748e+001
 1.110434677438696e+000	 1.086173303155067e+000	 1.138620566013421e+001
 1.098370981209915e+000	 1.098370981209915e+000	 1.126932764405551e+001
 1.086173303155066e+000	 1.110434677438696e+000	 1.114950886868850e+001
 1.073843887177903e+000	 1.122362196963406e+000	 1.102439794463685e+001
 1.061385024832209e+000	 1.134151395262682e+000	 1.089172010094835e+001
 1.048799053903008e+000	 1.145800179456137e+000	 1.074929932756437e+001
 1.036088356946540e+000	 1.157306509540565e+000	 1.059508029949996e+001
 1.162273746079945e+000	 1.040535317108847e+000	 1.188101638747546e+001
 1.150718030061111e+000	 1.053300569222475e+000	 1.175291493994939e+001
 1.139019248510750e+000	 1.065940559976411e+000	 1.163168774186348e+001
 1.127179450187897e+000	 1.078452896588330e+000	 1.151486553746707e+001
 1.115200736955713e+000	 1.090835231239282e+000	 1.139996649060055e+001
 1.103085262539988e+000	 1.103085262539988e+000	 1.128451805293612e+001
 1.090835231239282e+000	 1.115200736955712e+000	 1.116607931616686e+001
 1.078452896588330e+000	 1.127179450187897e+000	 1.104226368074206e+001
 1.065940559976411e+000	 1.139019248510750e+000	 1.091076166826528e+001
 1.053300569222475e+000	 1.150718030061111e+000	 1.076936370053259e+001
 1.040535317108847e+000	 1.162273746079944e+000	 1.061598266543215e+001
 1.167240982619358e+000	 1.044982277271553e+000	 1.188897052784598e+001
 1.155635880666168e+000	 1.057802084542336e+000	 1.176207982691415e+001
 1.143887101758954e+000	 1.070496095120991e+000	 1.164212597001465e+001
 1.131996703412573e+000	 1.083061905999109e+000	 1.152661743019259e+001
 1.119966796472965e+000	 1.095497159323818e+000	 1.141304851342670e+001
 1.107799543870341e+000	 1.107799543870341e+000	 1.129892179183599e+001
 1.095497159323818e+000	 1.119966796472965e+000	 1.118177104438332e+001
 1.083061905999109e+000	 1.131996703412573e+000	 1.105918453328351e+001
 1.070496095120991e+000	 1.143887101758954e+000	 1.092882843865329e+001
 1.057802084542336e+000	 1.155635880666168e+000	 1.078847026962245e+001
 1.044982277271553e+000	 1.167240982619358e+000	 1.063600206724727e+001
 1.172208219158771e+000	 1.049429237434591e+000	 1.189675846893202e+001
 1.160553731271275e+000	 1.062303599862524e+000	 1.177100158331325e+001
 1.148754955007256e+000	 1.075051630265886e+000	 1.165222627808475e+001
 1.136813956637395e+000	 1.087670915410181e+000	 1.153792746516324e+001
 1.124732855990405e+000	 1.100159087408617e+000	 1.142558460811260e+001
 1.112513825200922e+000	 1.112513825200922e+000	 1.131268471630551e+001
 1.100159087408617e+000	 1.124732855990405e+000	 1.119674587019645e+001
 1.087670915410181e+000	 1.136813956637395e+000	 1.107534110147809e+001
 1.075051630265886e+000	 1.148754955007256e+000	 1.094612244600726e+001
 1.062303599862524e+000	 1.160553731271275e+000	 1.080684498290809e+001
 1.049429237434591e+000	 1.172208219158770e+000	 1.065539067023994e+001
 1.177175455698150e+000	 1.053876197597896e+000	 1.190449532312690e+001
 1.165471581876397e+000	 1.066805115182975e+000	 1.177979487666862e+001
 1.153622808255620e+000	 1.079607165411031e+000	 1.166210643069449e+001
 1.141631209862322e+000	 1.092279924821487e+000	 1.154891990547852e+001
 1.129498915507990e+000	 1.104821015493625e+000	 1.143770879095836e+001
 1.117228106531682e+000	 1.117228106531682e+000	 1.132595369819477e+001
 1.104821015493625e+000	 1.129498915507990e+000	 1.121116646565369e+001
 1.092279924821486e+000	 1.141631209862321e+000	 1.109091463958193e+001
 1.079607165411031e+000	 1.153622808255620e+000	 1.096284614165480e+001
 1.066805115182975e+000	 1.165471581876397e+000	 1.082471393242126e+001
 1.053876197597896e+000	 1.177175455698150e+000	 1.067440047591820e+001
 1.182142692237461e+000	 1.058323157761401e+000	 1.191229722366521e+001
 1.170389432481500e+000	 1.071306630503624e+000	 1.178857545372790e+001
 1.158490661504009e+000	 1.084162700556365e+000	 1.167188528459919e+001
 1.146448463087312e+000	 1.096888934232965e+000	 1.155972007531717e+001
 1.134264975025674e+000	 1.109482943578787e+000	 1.144955606583380e+001
 1.121942387862572e+000	 1.121942387862572e+000	 1.133887648247595e+001
 1.109482943578788e+000	 1.134264975025674e+000	 1.122519622205475e+001
 1.096888934232965e+000	 1.146448463087312e+000	 1.110608692933422e+001
 1.084162700556365e+000	 1.158490661504009e+000	 1.097920227626382e+001
 1.071306630503624e+000	 1.170389432481500e+000	 1.084230324655368e+001
 1.058323157761401e+000	 1.182142692237461e+000	 1.069328322587378e+001
 1.187109928776672e+000	 1.062770117925039e+000	 1.192028116463566e+001
 1.175307283086549e+000	 1.075808145824403e+000	 1.179745998128500e+001
 1.163358514752385e+000	 1.088718235701824e+000	 1.168168263166857e+001
 1.151265716312326e+000	 1.101497943644559e+000	 1.157045420638267e+001
 1.139031034543412e+000	 1.114144871664049e+000	 1.146126227535206e+001
 1.126656669193541e+000	 1.126656669193541e+000	 1.135160154435659e+001
 1.114144871664049e+000	 1.139031034543412e+000	 1.123899911416864e+001
 1.101497943644558e+000	 1.151265716312326e+000	 1.112104015238933e+001
 1.088718235701824e+000	 1.163358514752385e+000	 1.099539378155188e+001
 1.075808145824403e+000	 1.175307283086549e+000	 1.085983898204970e+001
 1.062770117925040e+000	 1.187109928776672e+000	 1.071229030501227e+001
 1.192077165315749e+000	 1.067217078088745e+000	 1.192856484154514e+001
 1.180225133691511e+000	 1.080309661145249e+000	 1.180656588755534e+001
 1.168226368000712e+000	 1.093273770847345e+000	 1.169161904239595e+001
 1.156082969537323e+000	 1.106106953056207e+000	 1.158124928482426e+001
 1.143797094061159e+000	 1.118806799749355e+000	 1.147296395243473e+001
 1.131370950524538e+000	 1.131370950524538e+000	 1.136427794667569e+001
 1.118806799749355e+000	 1.143797094061159e+000	 1.125273956459800e+001
 1.106106953056207e+000	 1.156082969537324e+000	 1.113595676273916e+001
 1.093273770847345e+000	 1.168226368000712e+000	 1.101162365180278e+001
 1.080309661145249e+000	 1.180225133691511e+000	 1.087754701560311e+001
 1.067217078088744e+000	 1.192077165315749e+000	 1.073167264416203e+001
 1.022747476462687e+000	 1.142404799922955e+000	 1.052455330736526e+001
 1.010077810410943e+000	 1.153622063879497e+000	 1.036206410078927e+001
 9.972898205375119e-001	 1.164694799141658e+000	 1.019904517797605e+001
 9.843859843274009e-001	 1.175621155612181e+000	 1.003436298162606e+001
 9.713688173232153e-001	 1.186399339818024e+000	 9.867098088119821e+000
 9.582408715077669e-001	 1.197027615871412e+000	 9.696551889558377e+000
 9.450047336581959e-001	 1.207504306375576e+000	 9.522260899350702e+000
 9.316630236738184e-001	 1.217827793274197e+000	 9.344009717617608e+000
 9.182183928799237e-001	 1.227996518643735e+000	 9.161842526090300e+000
 9.046735223098031e-001	 1.238008985427847e+000	 8.976072991278658e+000
 8.910311209672918e-001	 1.247863758113289e+000	 8.787292464845065e+000
 1.027194436623394e+000	 1.147372036462037e+000	 1.054961776731837e+001
 1.014469682192906e+000	 1.158638073676291e+000	 1.038763483263872e+001
 1.001626089462515e+000	 1.169758953777745e+000	 1.022497005807705e+001
 9.886661466894644e-001	 1.180732818624811e+000	 1.006057653617851e+001
 9.755923803540693e-001	 1.191557866946323e+000	 9.893591631678488e+000
 9.624073535352949e-001	 1.202232355306766e+000	 9.723391393425906e+000
 9.491136642577258e-001	 1.212754599015951e+000	 9.549595794347445e+000
 9.357139438121348e-001	 1.223122972982158e+000	 9.372082010768484e+000
 9.222108550519140e-001	 1.233335912507902e+000	 9.190996193673053e+000
 9.086070906676270e-001	 1.243391914027552e+000	 9.006763607127377e+000
 8.949053714419993e-001	 1.253289535786170e+000	 8.820097019477514e+000
 1.031641396784701e+000	 1.152339273001251e+000	 1.057304273584037e+001
 1.018861553975460e+000	 1.163654083473172e+000	 1.041162756872257e+001
 1.005962358388085e+000	 1.174823108413879e+000	 1.024947830879614e+001
 9.929463090520542e-001	 1.185844481637454e+000	 1.008558235654189e+001
 9.798159433853972e-001	 1.196716394074604e+000	 9.919119602737638e+000
 9.665738355632361e-001	 1.207437094742074e+000	 9.749516016421127e+000
 9.532225948575975e-001	 1.218004891656253e+000	 9.576449604408140e+000
 9.397648639507172e-001	 1.228418152690017e+000	 9.399864066367188e+000
 9.262033172240886e-001	 1.238675306371938e+000	 9.219980904867200e+000
 9.125406590255507e-001	 1.248774842627094e+000	 9.037309861857038e+000
 8.987796219167212e-001	 1.258715313458849e+000	 8.852657563661737e+000
 1.036088356946540e+000	 1.157306509540565e+000	 1.059508029949996e+001
 1.023253425758538e+000	 1.168670093270105e+000	 1.043432803606168e+001
 1.010298627314157e+000	 1.179887263050023e+000	 1.027286115939350e+001
 9.972264714151126e-001	 1.190956144650070e+000	 1.010967845354571e+001
 9.840395064171490e-001	 1.201874921202825e+000	 9.943978625419195e+000
 9.707403175915463e-001	 1.212641834177289e+000	 9.775213106340519e+000
 9.573315254577777e-001	 1.223255184296433e+000	 9.603092797695167e+000
 9.438157840895419e-001	 1.233713332397727e+000	 9.427602163557435e+000
 9.301957793964361e-001	 1.244014700235796e+000	 9.249011741902272e+000
 9.164742273835764e-001	 1.254157771226431e+000	 9.067888941879433e+000
 9.026538723914741e-001	 1.264141091131294e+000	 8.885107005505555e+000
 1.040535317108847e+000	 1.162273746079944e+000	 1.061598266543215e+001
 1.027645297542076e+000	 1.173686103067057e+000	 1.045601208036297e+001
 1.014634896240669e+000	 1.184951417686142e+000	 1.029541886861628e+001
 1.001506633778581e+000	 1.196067807662619e+000	 1.013316254791379e+001
 9.882630694492723e-001	 1.207033448330941e+000	 9.968465180684273e+000
 9.749067996201826e-001	 1.217846573612366e+000	 9.800770146475905e+000
 9.614404560582330e-001	 1.228505476936443e+000	 9.629796381911413e+000
 9.478667042285859e-001	 1.239008512105239e+000	 9.455543644022097e+000
 9.341882415689460e-001	 1.249354094099432e+000	 9.278305484961662e+000
 9.204077957417068e-001	 1.259540699825522e+000	 9.098680472763096e+000
 9.065281228662759e-001	 1.269566868803472e+000	 8.917581532554596e+000
 1.044982277271553e+000	 1.167240982619358e+000	 1.063600206724727e+001
 1.032037169326007e+000	 1.178702112863993e+000	 1.047695530014612e+001
 1.018971165167558e+000	 1.190015572322198e+000	 1.031742299637240e+001
 1.005786796142402e+000	 1.201179470675061e+000	 1.015633200085631e+001
 9.924866324817162e-001	 1.212191975458910e+000	 9.992875539453474e+000
 9.790732816491017e-001	 1.223051313047260e+000	 9.826474688587231e+000
 9.655493866589286e-001	 1.233755769576238e+000	 9.656831834559188e+000
 9.519176243678263e-001	 1.244303691812506e+000	 9.483936837074047e+000
 9.381807037416069e-001	 1.254693487962799e+000	 9.308080529765061e+000
 9.243413640999447e-001	 1.264923628424325e+000	 9.129866427081588e+000
 9.104023733411428e-001	 1.274992646475349e+000	 8.950220507799372e+000
 1.049429237434591e+000	 1.172208219158770e+000	 1.065539067023994e+001
 1.036429041110268e+000	 1.183718122660878e+000	 1.049743296290880e+001
 1.023307434094763e+000	 1.195079726958154e+000	 1.033917331521966e+001
 1.010066958506518e+000	 1.206291133687358e+000	 1.017948374352449e+001
 9.967101955144284e-001	 1.217350502586690e+000	 1.001750569459079e+001
 9.832397636782592e-001	 1.228256052481923e+000	 9.852614284812983e+000
 9.696583172598308e-001	 1.239006062215768e+000	 9.684471032278413e+000
 9.559685445072405e-001	 1.249598871519480e+000	 9.513030984031477e+000
 9.421731659144089e-001	 1.260032881825851e+000	 9.338556804701076e+000
 9.282749324582921e-001	 1.270306557022799e+000	 9.161631032135427e+000
 9.142766238160929e-001	 1.280418424146894e+000	 8.983166365932622e+000
 1.053876197597896e+000	 1.177175455698150e+000	 1.067440047591820e+001
 1.040820912894789e+000	 1.188734132457678e+000	 1.051771992039659e+001
 1.027643703022220e+000	 1.200143881593975e+000	 1.036095940658144e+001
 1.014347120870870e+000	 1.211402796699468e+000	 1.020292338129616e+001
 1.000933758547358e+000	 1.222509029714236e+000	 1.004265129178560e+001
 9.874062457076124e-001	 1.233460791916311e+000	 9.879476418548174e+000
 9.737672478609055e-001	 1.244256354854985e+000	 9.712986179288961e+000
 9.600194646468042e-001	 1.254894051226112e+000	 9.543076161896543e+000
 9.461656280873408e-001	 1.265372275688542e+000	 9.369955687521713e+000
 9.322085008167522e-001	 1.275689485620905e+000	 9.194160677551496e+000
 9.181508742911427e-001	 1.285844201818073e+000	 9.016564509853216e+000
 1.058323157761401e+000	 1.182142692237461e+000	 1.069328322587378e+001
 1.045212784679509e+000	 1.193750142254360e+000	 1.053809052300205e+001
 1.031979971949866e+000	 1.205208036229623e+000	 1.038307024750550e+001
 1.018627283235401e+000	 1.216514459711353e+000	 1.022692806171430e+001
 1.005157321580453e+000	 1.227667556841505e+000	 1.006860755936307e+001
 9.915727277371167e-001	 1.238665531350377e+000	 9.907348434323144e+000
 9.778761784621189e-001	 1.249506647493843e+000	 9.742649734965326e+000
 9.640703847864957e-001	 1.260189230932356e+000	 9.574323206359431e+000
 9.501580902603912e-001	 1.270711669550826e+000	 9.402499921611915e+000
 9.361420691753275e-001	 1.281072414218598e+000	 9.227643822762023e+000
 9.220251247663094e-001	 1.291269979488853e+000	 9.050563207405807e+000
 1.062770117925040e+000	 1.187109928776672e+000	 1.071229030501227e+001
 1.049604656464360e+000	 1.198766152050888e+000	 1.055881853331797e+001
 1.036316240877639e+000	 1.210272190865062e+000	 1.040579413185410e+001
 1.022907445600052e+000	 1.221626122722972e+000	 1.025180252426179e+001
 1.009380884613661e+000	 1.232826083968456e+000	 1.009566923705683e+001
 9.957392097667297e-001	 1.243870270784076e+000	 9.936517466708843e+000
 9.819851090634367e-001	 1.254756940132292e+000	 9.773734340567870e+000
 9.681213049262910e-001	 1.265484410638162e+000	 9.607023634146616e+000
 9.541505524335499e-001	 1.276051063412658e+000	 9.436413531847910e+000
 9.400756375340206e-001	 1.286455342815841e+000	 9.262270904368586e+000
 9.258993752416106e-001	 1.296695757159201e+000	 9.085313488352444e+000
 1.067217078088744e+000	 1.192077165315749e+000	 1.073167264416203e+001
 1.053996528249277e+000	 1.203782161847228e+000	 1.058017703887087e+001
 1.040652509805476e+000	 1.215336345500255e+000	 1.042941859054560e+001
 1.027187607964766e+000	 1.226737785734287e+000	 1.027784125381264e+001
 1.013604447646933e+000	 1.237984611095045e+000	 1.012413950371125e+001
 9.999056917964071e-001	 1.249075010217361e+000	 9.967270368279957e+000
 9.860940396648253e-001	 1.260007232770287e+000	 9.806512745156882e+000
 9.721722250661673e-001	 1.270779590343483e+000	 9.641429564732333e+000
 9.581430146068056e-001	 1.281390457273991e+000	 9.471921740054572e+000
 9.440092058928338e-001	 1.291838271412590e+000	 9.298234243393413e+000
 9.297736257170630e-001	 1.302121534829085e+000	 9.120969041566839e+000
 8.910311209672918e-001	 1.247863758113289e+000	 8.787292464845065e+000
 8.772939237752967e-001	 1.257559462992334e+000	 8.600266868485839e+000
 8.634646889348848e-001	 1.267094787648218e+000	 8.418062422831012e+000
 8.495461970679685e-001	 1.276468482501733e+000	 8.239108545174732e+000
 8.355412497282301e-001	 1.285679361603478e+000	 8.062073051627172e+000
 8.214526676025593e-001	 1.294726303013822e+000	 7.885866247034795e+000
 8.072832887068894e-001	 1.303608249122617e+000	 7.709642943064632e+000
 7.930359665787400e-001	 1.312324206908703e+000	 7.532802373649789e+000
 7.787135684687786e-001	 1.320873248139400e+000	 7.354985992052263e+000
 7.643189735336878e-001	 1.329254509510221e+000	 7.176073148988007e+000
 7.498550710325905e-001	 1.337467192725185e+000	 6.997986671270316e+000
 8.949053714419993e-001	 1.253289535786170e+000	 8.820097019477514e+000
 8.811084441895262e-001	 1.263027398103068e+000	 8.635494558644576e+000
 8.672190791040766e-001	 1.272604182855040e+000	 8.455545478654518e+000
 8.532400688978550e-001	 1.282018635029659e+000	 8.278494963662638e+000
 8.391742273058449e-001	 1.291269563520969e+000	 8.102828013868139e+000
 8.250243872794324e-001	 1.300355841511107e+000	 7.927274177877385e+000
 8.107933991743941e-001	 1.309276406791395e+000	 7.750810164022932e+000
 7.964841289355789e-001	 1.318030262022982e+000	 7.572660297220632e+000
 7.820994562806128e-001	 1.326616474937202e+000	 7.392294803388057e+000
 7.676422728849027e-001	 1.335034178475888e+000	 7.209751889983053e+000
 7.531154805702228e-001	 1.343282570872048e+000	 7.034485189678778e+000
 8.987796219167212e-001	 1.258715313458849e+000	 8.852657563661737e+000
 8.849229646036848e-001	 1.268495333213559e+000	 8.670190278276012e+000
 8.709734692731170e-001	 1.278113578061571e+000	 8.491997473666038e+000
 8.569339407275148e-001	 1.287568787557245e+000	 8.316175074250349e+000
 8.428072048831676e-001	 1.296859765438073e+000	 8.141061460677122e+000
 8.285961069559578e-001	 1.305985380007956e+000	 7.965242782098389e+000
 8.143035096415077e-001	 1.314944564459695e+000	 7.787556095925629e+000
 7.999322912920005e-001	 1.323736317136747e+000	 7.607090299127948e+000
 7.854853440920209e-001	 1.332359701734460e+000	 7.423184830995727e+000
 7.709655722357035e-001	 1.340813847440996e+000	 7.241587644498067e+000
 7.563758901074750e-001	 1.349097949018345e+000	 7.070104814243019e+000
 9.026538723914741e-001	 1.264141091131294e+000	 8.885107005505555e+000
 8.887374850178065e-001	 1.273963268323783e+000	 8.704445018745339e+000
 8.747278594420558e-001	 1.283622973267805e+000	 8.527478054010256e+000
 8.606278125570132e-001	 1.293118940084501e+000	 8.352187265743130e+000
 8.464401824602765e-001	 1.302449967354815e+000	 8.176800122437347e+000
 8.321678266322276e-001	 1.311614918504417e+000	 7.999796237041108e+000
 8.178136201083346e-001	 1.320612722127579e+000	 7.819910971079207e+000
 8.033804536481168e-001	 1.329442372250075e+000	 7.636136774152507e+000
 7.888712319031207e-001	 1.338102928531266e+000	 7.450315485405978e+000
 7.742888715862086e-001	 1.346593516405640e+000	 7.273582219040765e+000
 7.596362996444629e-001	 1.354913327164175e+000	 7.105134520426376e+000
 9.065281228662759e-001	 1.269566868803472e+000	 8.917581532554596e+000
 8.925520054319234e-001	 1.279431203433722e+000	 8.738353839492291e+000
 8.784822496109402e-001	 1.289132368473736e+000	 8.562051529368178e+000
 8.643216843864142e-001	 1.298669092611440e+000	 8.386574999926388e+000
 8.500731600372512e-001	 1.308040169271227e+000	 8.210076033269942e+000
 8.357395463083337e-001	 1.317244457000535e+000	 8.030964083349753e+000
 8.213237305749779e-001	 1.326280879795113e+000	 7.847910281117875e+000
 8.068286160040408e-001	 1.335148427363046e+000	 7.660242269881118e+000
 7.922571197140292e-001	 1.343846155327709e+000	 7.478548793861111e+000
 7.776121709365371e-001	 1.352373185369918e+000	 7.305970933144638e+000
 7.628967091813033e-001	 1.360728705309640e+000	 7.139857482726472e+000
 9.104023733411428e-001	 1.274992646475349e+000	 8.950220507799372e+000
 8.963665258460675e-001	 1.284899138543354e+000	 8.772015753269352e+000
 8.822366397798190e-001	 1.294641763679357e+000	 8.595786751486376e+000
 8.680155562157818e-001	 1.304219245138071e+000	 8.419386687272931e+000
 8.537061376141703e-001	 1.313630371187337e+000	 8.240926407620300e+000
 8.393112659843688e-001	 1.322873995496359e+000	 8.058781105960218e+000
 8.248338410415416e-001	 1.331949037462359e+000	 7.871594665734556e+000
 8.102767783598837e-001	 1.340854482475737e+000	 7.684877115164295e+000
 7.956430075248645e-001	 1.349589382123879e+000	 7.508173557011531e+000
 7.809354702868090e-001	 1.358152854333929e+000	 7.338984023974434e+000
 7.661571187181121e-001	 1.366544083454837e+000	 7.174551129253153e+000
 9.142766238160929e-001	 1.280418424146894e+000	 8.983166365932622e+000
 9.001810462602722e-001	 1.290367073652657e+000	 8.805533611982803e+000
 8.859910299487408e-001	 1.300151158884664e+000	 8.628756993561678e+000
 8.717094280451803e-001	 1.309769397664406e+000	 8.450675563653340e+000
 8.573391151911127e-001	 1.319220573103173e+000	 8.269393517909947e+000
 8.428829856604245e-001	 1.328503533991933e+000	 8.083287216125511e+000
 8.283439515081291e-001	 1.337617195129382e+000	 7.893199809369811e+000
 8.137249407157576e-001	 1.346560537588225e+000	 7.711898932716736e+000
 7.990288953357438e-001	 1.355332608919865e+000	 7.539375234428635e+000
 7.842587696371427e-001	 1.363932523297767e+000	 7.372846686831458e+000
 7.694175282550058e-001	 1.372359461599866e+000	 7.209487196001894e+000
 9.181508742911427e-001	 1.285844201818073e+000	 9.016564509853216e+000
 9.039955666745698e-001	 1.295835008761611e+000	 8.839013993122906e+000
 8.897454201177544e-001	 1.305660554089649e+000	 8.661039830454323e+000
 8.754032998746727e-001	 1.315319550190456e+000	 8.480499568027517e+000
 8.609720927681571e-001	 1.324810775018765e+000	 8.295524573220744e+000
 8.464547053365936e-001	 1.334133072487305e+000	 8.104609817299037e+000
 8.318540619748434e-001	 1.343285352796243e+000	 7.917958626570229e+000
 8.171731030717756e-001	 1.352266592700590e+000	 7.741456675175132e+000
 8.024147831467848e-001	 1.361075835715758e+000	 7.572334809386076e+000
 7.875820689876574e-001	 1.369712192261533e+000	 7.407779115761783e+000
 7.726779377921003e-001	 1.378174839744830e+000	 7.244931780832658e+000
 9.220251247663094e-001	 1.291269979488853e+000	 9.050563207405807e+000
 9.078100870889932e-001	 1.301302943870196e+000	 8.872567086761528e+000
 8.934998102869076e-001	 1.311169949294307e+000	 8.692717019707034e+000
 8.790971717043242e-001	 1.320869702716232e+000	 8.508921221079806e+000
 8.646050703453824e-001	 1.330400976934140e+000	 8.319371598982613e+000
 8.500264250129682e-001	 1.339762610982522e+000	 8.127525876740592e+000
 8.353641724417890e-001	 1.348953510463007e+000	 7.946205662546443e+000
 8.206212654280493e-001	 1.357972647812910e+000	 7.773695245735373e+000
 8.058006709581054e-001	 1.366819062511647e+000	 7.607228819007677e+000
 7.909053683384724e-001	 1.375491861225321e+000	 7.443996544263622e+000
 7.759383473295118e-001	 1.383990217889825e+000	 7.281145397162019e+000
 9.258993752416106e-001	 1.296695757159201e+000	 9.085313488352444e+000
 9.116246075035746e-001	 1.306770878978389e+000	 8.906306583104540e+000
 8.972542004562493e-001	 1.316679344498633e+000	 8.723874383345168e+000
 8.827910435341987e-001	 1.326419855241744e+000	 8.536007504777730e+000
 8.682380479228679e-001	 1.335991178849329e+000	 8.341858889005646e+000
 8.535981446896399e-001	 1.345392149477630e+000	 8.154864284422651e+000
 8.388742829090683e-001	 1.354621668129737e+000	 7.978057961455017e+000
 8.240694277846906e-001	 1.363678702925262e+000	 7.808755520991175e+000
 8.091865587698229e-001	 1.372562289307622e+000	 7.644229384824142e+000
 7.942286676897064e-001	 1.381271530189230e+000	 7.481709286090292e+000
 7.791987568673571e-001	 1.389805596034953e+000	 7.318383027376589e+000
 9.297736257170630e-001	 1.302121534829085e+000	 9.120969041566839e+000
 9.154391279183470e-001	 1.312238814086172e+000	 8.940349560578412e+000
 9.010085906258274e-001	 1.322188739702620e+000	 8.754601690435896e+000
 8.864849153643600e-001	 1.331970007767004e+000	 8.561829742822626e+000
 8.718710255006918e-001	 1.341581380764360e+000	 8.368669296440842e+000
 8.571698643667016e-001	 1.351021687972676e+000	 8.186722514335928e+000
 8.423843933767853e-001	 1.360289825796497e+000	 8.013628825338245e+000
 8.275175901418119e-001	 1.369384758037725e+000	 7.846774374412906e+000
 8.125724465820543e-001	 1.378305516103772e+000	 7.683504243729625e+000
 7.975519670414791e-001	 1.387051199153357e+000	 7.521122776147901e+000
 7.824591664057522e-001	 1.395620974180313e+000	 7.356894175977570e+000
 7.498550710325905e-001	 1.337467192725185e+000	 6.997986671270316e+000
 7.353269429377546e-001	 1.345509370984225e+000	 6.815381969682269e+000
 7.207353283378717e-001	 1.353381621720377e+000	 6.617563578029628e+000
 7.060831355135254e-001	 1.361083342912368e+000	 6.409755752237068e+000
 6.913732756799494e-001	 1.368613997251564e+000	 6.197205188623689e+000
 6.766086612348736e-001	 1.375973111932677e+000	 5.985169213536806e+000
 6.617922040227657e-001	 1.383160278389225e+000	 5.778592953251161e+000
 6.469268136174287e-001	 1.390175151974716e+000	 5.578678563253479e+000
 6.320153956248560e-001	 1.397017451590627e+000	 5.389352079321649e+000
 6.170608500081973e-001	 1.403686959262295e+000	 5.215345097757617e+000
 6.020660694366056e-001	 1.410183519663929e+000	 5.060913848483213e+000
 7.531154805702228e-001	 1.343282570872048e+000	 7.034485189678778e+000
 7.385241834055245e-001	 1.351359716947796e+000	 6.854668553573412e+000
 7.238691236930946e-001	 1.359266196646871e+000	 6.658459826423979e+000
 7.091532223588756e-001	 1.367001405330368e+000	 6.451255749392591e+000
 6.943794032762169e-001	 1.374564803353394e+000	 6.238481371237215e+000
 6.795505915061076e-001	 1.381955915854867e+000	 6.025577837358827e+000
 6.646697115538689e-001	 1.389174332491827e+000	 5.817937617176948e+000
 6.497396856442836e-001	 1.396219707119228e+000	 5.617502467699313e+000
 6.347634320170739e-001	 1.403091757416306e+000	 5.427493562502535e+000
 6.197438632445814e-001	 1.409790264460619e+000	 5.252803595163589e+000
 6.046838845734370e-001	 1.416315072251001e+000	 5.097846372160821e+000
 7.563758901074750e-001	 1.349097949018345e+000	 7.070104814243017e+000
 7.417214238729721e-001	 1.357210062910808e+000	 6.892449677305695e+000
 7.270029190480734e-001	 1.365150771572824e+000	 6.697428735387834e+000
 7.122233092040731e-001	 1.372919467747855e+000	 6.490584205623519e+000
 6.973855308724334e-001	 1.380515609454748e+000	 6.277491767442738e+000
 6.824925217773967e-001	 1.387938719776625e+000	 6.063748007160705e+000
 6.675472190851322e-001	 1.395188386594042e+000	 5.854958154885310e+000
 6.525525576713976e-001	 1.402264262263400e+000	 5.654192459440323e+000
 6.375114684096384e-001	 1.409166063241688e+000	 5.463766237594744e+000
 6.224268764813835e-001	 1.415893569658691e+000	 5.288693219421563e+000
 6.073016997107373e-001	 1.422446624837860e+000	 5.133513597366694e+000
 7.596362996444629e-001	 1.354913327164175e+000	 7.105134520426381e+000
 7.449186643402055e-001	 1.363060408873357e+000	 6.929061887523359e+000
 7.301367144029041e-001	 1.371035346498327e+000	 6.734845939833726e+000
 7.152933960492006e-001	 1.378837530164909e+000	 6.528147710943171e+000
 7.003916584686643e-001	 1.386466415555689e+000	 6.314666143249024e+000
 6.854344520487881e-001	 1.393921523697993e+000	 6.100125243792256e+000
 6.704247266165831e-001	 1.401202440695893e+000	 5.890261539891556e+000
 6.553654296987801e-001	 1.408308817407234e+000	 5.689198361219254e+000
 6.402595048025424e-001	 1.415240369066761e+000	 5.498603950805211e+000
 6.251098897185816e-001	 1.421996874856474e+000	 5.323426063257540e+000
 6.099195148484722e-001	 1.428578177424451e+000	 5.168300440251660e+000
 7.628967091813033e-001	 1.360728705309640e+000	 7.139857482726472e+000
 7.481159048073343e-001	 1.368910754835542e+000	 6.964835270819553e+000
 7.332705097576847e-001	 1.376919921423467e+000	 6.771080103146131e+000
 7.183634828943400e-001	 1.384755592581603e+000	 6.564345513854530e+000
 7.033977860649749e-001	 1.392417221656276e+000	 6.350426688442312e+000
 6.883763823203271e-001	 1.399904327619013e+000	 6.135147386111190e+000
 6.733022341482496e-001	 1.407216494797402e+000	 5.924347170127017e+000
 6.581783017264399e-001	 1.414353372550734e+000	 5.722965867672616e+000
 6.430075411957766e-001	 1.421314674891504e+000	 5.532436786597856e+000
 6.277929029561533e-001	 1.428100180053938e+000	 5.357410914452075e+000
 6.125373299866083e-001	 1.434709730010727e+000	 5.202589051703163e+000
 7.661571187181121e-001	 1.366544083454837e+000	 7.174551129253153e+000
 7.513131452744669e-001	 1.374761100797457e+000	 7.000093522165816e+000
 7.364043051125115e-001	 1.382804496348332e+000	 6.806492996407650e+000
 7.214335697395737e-001	 1.390673654998015e+000	 6.599569608457179e+000
 7.064039136614296e-001	 1.398368027756570e+000	 6.385188108794131e+000
 6.913183125920615e-001	 1.405887131539728e+000	 6.169244685648742e+000
 6.761797416801598e-001	 1.413230548898594e+000	 5.957654025678615e+000
 6.609911737543870e-001	 1.420397927693902e+000	 5.755936512499095e+000
 6.457555775893359e-001	 1.427388980715904e+000	 5.565691037370244e+000
 6.304759161940763e-001	 1.434203485251044e+000	 5.391053225782009e+000
 6.151551451251107e-001	 1.440841282596636e+000	 5.236758785444824e+000
 7.694175282550058e-001	 1.372359461599866e+000	 7.209487196001894e+000
 7.545103857417111e-001	 1.380611446759200e+000	 7.035154012637396e+000
 7.395381004674815e-001	 1.388689071273012e+000	 6.841439576599970e+000
 7.245036565849833e-001	 1.396591717414220e+000	 6.634204820278271e+000
 7.094100412580943e-001	 1.404318833856632e+000	 6.419357716816316e+000
 6.942602428640373e-001	 1.411869935460181e+000	 6.202839899716408e+000
 6.790572492123411e-001	 1.419244602999491e+000	 5.990613609029043e+000
 6.638040457826309e-001	 1.426442482836743e+000	 5.788547634039258e+000
 6.485036139832108e-001	 1.433463286539943e+000	 5.598789171611150e+000
 6.331589294323280e-001	 1.440306790447758e+000	 5.424755083571789e+000
 6.177729602639465e-001	 1.446972835182127e+000	 5.271186164922662e+000
 7.726779377921003e-001	 1.378174839744830e+000	 7.244931780832658e+000
 7.577076262091770e-001	 1.386461792720868e+000	 7.070327856451984e+000
 7.426718958226916e-001	 1.394573646197594e+000	 6.876268063804186e+000
 7.275737434306515e-001	 1.402509779830296e+000	 6.668628890866962e+000
 7.124161688550333e-001	 1.410269639956520e+000	 6.453335521106478e+000
 6.972021731363018e-001	 1.417852739380413e+000	 6.236348382996305e+000
 6.819347567448212e-001	 1.425258657100116e+000	 6.023650036519132e+000
 6.666169178111804e-001	 1.432487037979258e+000	 5.821232339311131e+000
 6.512516503773947e-001	 1.439537592363605e+000	 5.632149800592385e+000
 6.358419426708865e-001	 1.446410095644047e+000	 5.458915174899997e+000
 6.203907754030812e-001	 1.453104387767148e+000	 5.306244849020438e+000
 7.759383473295118e-001	 1.383990217889825e+000	 7.281145397162019e+000
 7.609048666769722e-001	 1.392312138682556e+000	 7.105919977346667e+000
 7.458056911782389e-001	 1.400458221122166e+000	 6.911320017436051e+000
 7.306438302766598e-001	 1.408427842246315e+000	 6.703212561185545e+000
 7.154222964523117e-001	 1.416220446056298e+000	 6.487514314325557e+000
 7.001441034089011e-001	 1.423835543300468e+000	 6.270178177661268e+000
 6.848122642776282e-001	 1.431272711200492e+000	 6.057180128298716e+000
 6.694297898400456e-001	 1.438531593121451e+000	 5.854506468231969e+000
 6.539996867718797e-001	 1.445611898186873e+000	 5.666187643628648e+000
 6.385249559097294e-001	 1.452513400839875e+000	 5.493928753498212e+000
 6.230085905424815e-001	 1.459235940351649e+000	 5.342305596633073e+000
 7.791987568673571e-001	 1.389805596034953e+000	 7.318383027376589e+000
 7.641021071452054e-001	 1.398162484644362e+000	 7.142229174309793e+000
 7.489394865342205e-001	 1.406342796046818e+000	 6.946930411540032e+000
 7.337139171230911e-001	 1.414345904662357e+000	 6.738319653835386e+000
 7.184284240499951e-001	 1.422171252156024e+000	 6.522279759847334e+000
 7.030860336818822e-001	 1.429818347220387e+000	 6.304730102067909e+000
 6.876897718107899e-001	 1.437286765300642e+000	 6.091613496809679e+000
 6.722426618692355e-001	 1.444576148263326e+000	 5.888883513195852e+000
 6.567477231666584e-001	 1.451686204009731e+000	 5.701313491957408e+000
 6.412079691488344e-001	 1.458616706035207e+000	 5.530187604382182e+000
 6.256264056821129e-001	 1.465367492935579e+000	 5.379736230135983e+000
 7.824591664057522e-001	 1.395620974180313e+000	 7.356894175977570e+000
 7.672993476139858e-001	 1.404012830606383e+000	 7.179548186685438e+000
 7.520732818907336e-001	 1.412227370971638e+000	 6.983427709170782e+000
 7.367840039700269e-001	 1.420263967078496e+000	 6.774307154149463e+000
 7.214345516481479e-001	 1.428122058255759e+000	 6.558010477119138e+000
 7.060279639552908e-001	 1.435801151140213e+000	 6.340397838064208e+000
 6.905672793443338e-001	 1.443300819400590e+000	 6.127352633843003e+000
 6.750555338987601e-001	 1.450620703404885e+000	 5.924768921881201e+000
 6.594957595617234e-001	 1.457760509832163e+000	 5.737934171268333e+000
 6.438909823881793e-001	 1.464720011230009e+000	 5.568080007249169e+000
 6.282442208219421e-001	 1.471499045518887e+000	 5.418901597777308e+000
 6.020660694366056e-001	 1.410183519663929e+000	 5.060913848483213e+000
 5.870316800788019e-001	 1.416507975416695e+000	 4.915358578764291e+000
 5.719628035567330e-001	 1.422659308219669e+000	 4.766686056710076e+000
 5.568623029941295e-001	 1.428637548482971e+000	 4.616517662884289e+000
 5.417330278466271e-001	 1.434442786918363e+000	 4.466111981895305e+000
 5.265778123931376e-001	 1.440075173828057e+000	 4.316396606567444e+000
 5.113994742604214e-001	 1.445534918351047e+000	 4.167998975869161e+000
 4.962008129821307e-001	 1.450822287668565e+000	 4.021276160902366e+000
 4.809846085935219e-001	 1.455937606170270e+000	 3.876343528469858e+000
 4.657536202629571e-001	 1.460881254582814e+000	 3.733102226471787e+000
 4.505105849612260e-001	 1.465653669062488e+000	 3.591265449538617e+000
 6.046838845734370e-001	 1.416315072251001e+000	 5.097846372160821e+000
 5.895841248949770e-001	 1.422667027072372e+000	 4.951853698802226e+000
 5.744497281002313e-001	 1.428845106196179e+000	 4.802676710838806e+000
 5.592835697619472e-001	 1.434849340164768e+000	 4.651957639194704e+000
 5.440885117253452e-001	 1.440679820084324e+000	 4.500971874956074e+000
 5.288674005929339e-001	 1.446336696910580e+000	 4.350660285457285e+000
 5.136230662426655e-001	 1.451820180691880e+000	 4.201660517423292e+000
 4.983583203807139e-001	 1.457130539771175e+000	 4.054337201067894e+000
 4.830759551300781e-001	 1.462268099948586e+000	 3.908810984696779e+000
 4.677787416561318e-001	 1.467233243606192e+000	 3.764986344511655e+000
 4.524694288301597e-001	 1.472026408796709e+000	 3.622578128858593e+000
 6.073016997107373e-001	 1.422446624837860e+000	 5.133513597366694e+000
 5.921365697116462e-001	 1.428826078727865e+000	 4.987351058535700e+000
 5.769366526442280e-001	 1.435030904172531e+000	 4.837887067247344e+000
 5.617048365302478e-001	 1.441061131846431e+000	 4.686792161975386e+000
 5.464439956045160e-001	 1.446916853250171e+000	 4.535366345013332e+000
 5.311569887931402e-001	 1.452598219993009e+000	 4.384571898456985e+000
 5.158466582252692e-001	 1.458105443032639e+000	 4.235065138929788e+000
 5.005158277796019e-001	 1.463438791873734e+000	 4.087227024612485e+000
 4.851673016668830e-001	 1.468598593726882e+000	 3.941192544226317e+000
 4.698038630495010e-001	 1.473585232629580e+000	 3.796878833195602e+000
 4.544282726992399e-001	 1.478399148530984e+000	 3.654011977148474e+000
 6.099195148484722e-001	 1.428578177424451e+000	 5.168300440251660e+000
 5.946890145287685e-001	 1.434985130383111e+000	 5.022207452060674e+000
 5.794235771886765e-001	 1.441216702148652e+000	 4.872649001942403e+000
 5.641261032989836e-001	 1.447272923527875e+000	 4.721331248046942e+000
 5.487994794840923e-001	 1.453153886415813e+000	 4.569586466190795e+000
 5.334465769937136e-001	 1.458859743075247e+000	 4.418406353933229e+000
 5.180702502081939e-001	 1.464390705373224e+000	 4.268474223445310e+000
 5.026733351787615e-001	 1.469747043976140e+000	 4.120195996448955e+000
 4.872586482039089e-001	 1.474929087505048e+000	 3.973729931050814e+000
 4.718289844430433e-001	 1.479937221652870e+000	 3.829015026300363e+000
 4.563871165684502e-001	 1.484771888265196e+000	 3.685798065649548e+000
 6.125373299866083e-001	 1.434709730010727e+000	 5.202589051703163e+000
 5.972414593463017e-001	 1.441144182038046e+000	 5.056777452892836e+000
 5.819105017335308e-001	 1.447402500124465e+000	 4.907292647898657e+000
 5.665473700681072e-001	 1.453484715209018e+000	 4.755883583067105e+000
 5.511549633640280e-001	 1.459390919581159e+000	 4.603922329210731e+000
 5.357361651946101e-001	 1.465121266157198e+000	 4.452437862199737e+000
 5.202938421914004e-001	 1.470675967713535e+000	 4.302148680720565e+000
 5.048308425781587e-001	 1.476055296078286e+000	 4.153494174253990e+000
 4.893499947411286e-001	 1.481259581282975e+000	 4.006664671350189e+000
 4.738541058367372e-001	 1.486289210675947e+000	 3.861630114715218e+000
 4.583459604377743e-001	 1.491144627999229e+000	 3.718167325384231e+000
 6.151551451251107e-001	 1.440841282596636e+000	 5.236758785444828e+000
 5.997939041642040e-001	 1.447303233692604e+000	 5.091413379751955e+000
 5.843974262787448e-001	 1.453588298099896e+000	 4.942146359567880e+000
 5.689686368375712e-001	 1.459696506889774e+000	 4.790756485753753e+000
 5.535104472442770e-001	 1.465627952746118e+000	 4.638663006272935e+000
 5.380257533957867e-001	 1.471382789238767e+000	 4.486939901943837e+000
 5.225174341748505e-001	 1.476961230053470e+000	 4.336348916013217e+000
 5.069883499777607e-001	 1.482363548180068e+000	 4.187371280458056e+000
 4.914413412785140e-001	 1.487590075060555e+000	 4.040238069407617e+000
 4.758792272305609e-001	 1.492641199698700e+000	 3.894959126972810e+000
 4.603048043071963e-001	 1.497517367732963e+000	 3.751350532950448e+000
 6.177729602639465e-001	 1.446972835182127e+000	 5.271186164922662e+000
 6.023463489824342e-001	 1.453462285346721e+000	 5.126465261320171e+000
 5.868843508242729e-001	 1.459774096074869e+000	 4.977536676520088e+000
 5.713899036073282e-001	 1.465908298570060e+000	 4.826255871365379e+000
 5.558659311247928e-001	 1.471864985910601e+000	 4.674096515288750e+000
 5.403153415972000e-001	 1.477644312319856e+000	 4.522185186077004e+000
 5.247410261585047e-001	 1.483246492392929e+000	 4.371334798374287e+000
 5.091458573775339e-001	 1.488671800281383e+000	 4.222076673734247e+000
 4.935326878160387e-001	 1.493920568837680e+000	 4.074691183016048e+000
 4.779043486244928e-001	 1.498993188721015e+000	 3.929236909249884e+000
 4.622636481766994e-001	 1.503890107466283e+000	 3.785578295739610e+000
 6.203907754030812e-001	 1.453104387767148e+000	 5.306244849020438e+000
 6.048987938009504e-001	 1.459621337000335e+000	 5.162280800008331e+000
 5.893712753700684e-001	 1.465959894049310e+000	 5.013788286238401e+000
 5.738111703773307e-001	 1.472120090249793e+000	 4.862686214464604e+000
 5.582214150055291e-001	 1.478102019074516e+000	 4.710509783493549e+000
 5.426049297988068e-001	 1.483905835400370e+000	 4.558445627035542e+000
 5.269646181423247e-001	 1.489531754731810e+000	 4.407365628423024e+000
 5.113033647774449e-001	 1.494980052382124e+000	 4.257859319995655e+000
 4.956240343536744e-001	 1.500251062614241e+000	 4.110264798395795e+000
 4.799294700185112e-001	 1.505345177742780e+000	 3.964698104854012e+000
 4.642224920462677e-001	 1.510262847199072e+000	 3.821081036596228e+000
 6.230085905424815e-001	 1.459235940351649e+000	 5.342305596633078e+000
 6.074512386197107e-001	 1.465780388653379e+000	 5.199205334757949e+000
 5.918581999160855e-001	 1.472145692023142e+000	 5.051223986100967e+000
 5.762324371475311e-001	 1.478331881928889e+000	 4.900350510979327e+000
 5.605768988864394e-001	 1.484339052237773e+000	 4.748188610451809e+000
 5.448945180005639e-001	 1.490167358480213e+000	 4.595992301538301e+000
 5.291882101262714e-001	 1.495817017070015e+000	 4.444700105629790e+000
 5.134608721774606e-001	 1.501288304482188e+000	 4.294967762916778e+000
 4.977153808913936e-001	 1.506581556390130e+000	 4.147199404632683e+000
 4.819545914125948e-001	 1.511697166763884e+000	 4.001577133206427e+000
 4.661813359158847e-001	 1.516635586931213e+000	 3.858088977932710e+000
 6.256264056821129e-001	 1.465367492935579e+000	 5.379736230135983e+000
 6.100036834386735e-001	 1.471939440305789e+000	 5.237581802904799e+000
 5.943451244622784e-001	 1.478331489996291e+000	 5.090164644566263e+000
 5.786537039178824e-001	 1.484543673607263e+000	 4.939550239589992e+000
 5.629323827674774e-001	 1.490576085400281e+000	 4.787417630473264e+000
 5.471841062024277e-001	 1.496428881559288e+000	 4.635095414825984e+000
 5.314118021103059e-001	 1.502102279407441e+000	 4.483596295114807e+000
 5.156183795775471e-001	 1.507596556581470e+000	 4.333650093996369e+000
 4.998067274291692e-001	 1.512912050165238e+000	 4.185735167653847e+000
 4.839797128067216e-001	 1.518049155784212e+000	 4.040108168343601e+000
 4.681401797855343e-001	 1.523008326662587e+000	 3.896832125319220e+000
 6.282442208219421e-001	 1.471499045518887e+000	 5.418901597777308e+000
 6.125561282577968e-001	 1.478098491957502e+000	 5.277750701136216e+000
 5.968320490086007e-001	 1.484517287968683e+000	 5.130929161588249e+000
 5.810749706883369e-001	 1.490755465284833e+000	 4.980585322454894e+000
 5.652878666485968e-001	 1.496813118561950e+000	 4.828480274460723e+000
 5.494736944043552e-001	 1.502690404637500e+000	 4.676024264389780e+000
 5.336353940943900e-001	 1.508387541743989e+000	 4.524311593982651e+000
 5.177758869776715e-001	 1.513904808679865e+000	 4.374153922169620e+000
 5.018980739669736e-001	 1.519242543939458e+000	 4.226111903754664e+000
 4.860048342008704e-001	 1.524401144803653e+000	 4.080525116945226e+000
 4.700990236552003e-001	 1.529381066393079e+000	 3.937540250560949e+000
 4.505105849612260e-001	 1.465653669062488e+000	 3.591265449538617e+000
 4.352582159519864e-001	 1.470255339887630e+000	 3.453812390559442e+000
 4.199992009085988e-001	 1.474686809389286e+000	 3.323997479519471e+000
 4.047362013938896e-001	 1.478948672050239e+000	 3.201733571653788e+000
 3.894718519125411e-001	 1.483041573840250e+000	 3.086832483099274e+000
 3.742087587819934e-001	 1.486966211157460e+000	 2.979023313051445e+000
 3.589494990456079e-001	 1.490723329744274e+000	 2.877969603532382e+000
 3.436966194285619e-001	 1.494313723579467e+000	 2.783285374085298e+000
 3.284526353368803e-001	 1.497738233748321e+000	 2.694550075737029e+000
 3.132200298999260e-001	 1.500997747292519e+000	 2.611322514598776e+000
 2.980012530565967e-001	 1.504093196041590e+000	 2.533153800514563e+000
 4.524694288301597e-001	 1.472026408796709e+000	 3.622578128858593e+000
 4.371507417132339e-001	 1.476648087930236e+000	 3.484612198817073e+000
 4.218253796648540e-001	 1.481098825695898e+000	 3.354383289938152e+000
 4.064960158204544e-001	 1.485379219161321e+000	 3.231795217921623e+000
 3.911652961396743e-001	 1.489489917104969e+000	 3.116650775284837e+000
 3.758358382723524e-001	 1.493431618952961e+000	 3.008670105660853e+000
 3.605102304669627e-001	 1.497205073690221e+000	 2.907507880393193e+000
 3.451910305219705e-001	 1.500811078747787e+000	 2.812769317572402e+000
 3.298807647805114e-001	 1.504250478868019e+000	 2.724025090819382e+000
 3.145819271687184e-001	 1.507524164949504e+000	 2.640825181269957e+000
 2.992969782779455e-001	 1.510633072873409e+000	 2.562711731339595e+000
 4.544282726992399e-001	 1.478399148530984e+000	 3.654011977148474e+000
 4.390432674745879e-001	 1.483040835972945e+000	 3.515675468279145e+000
 4.236515584211841e-001	 1.487510842002673e+000	 3.385204302905527e+000
 4.082558302470692e-001	 1.491809766272625e+000	 3.262486501744641e+000
 3.928587403668398e-001	 1.495938260369978e+000	 3.147309079133510e+000
 3.774629177627315e-001	 1.499897026748817e+000	 3.039376477393137e+000
 3.620709618883305e-001	 1.503686817636593e+000	 2.938327767050223e+000
 3.466854416153891e-001	 1.507308433916597e+000	 2.843752655956960e+000
 3.313088942241526e-001	 1.510762723988268e+000	 2.755206357649799e+000
 3.159438244375234e-001	 1.514050582607094e+000	 2.672223375566537e+000
 3.005927034993116e-001	 1.517172949705882e+000	 2.594330264934718e+000
 4.563871165684502e-001	 1.484771888265196e+000	 3.685798065649548e+000
 4.409357932360367e-001	 1.489433584015637e+000	 3.547229046291804e+000
 4.254777371775806e-001	 1.493922858309479e+000	 3.416681245547454e+000
 4.100156446737294e-001	 1.498240313384018e+000	 3.294020248023950e+000
 3.945521845940355e-001	 1.502386603635133e+000	 3.179010654200351e+000
 3.790899972531312e-001	 1.506362434544881e+000	 3.071334582481567e+000
 3.636316933097140e-001	 1.510168561583230e+000	 2.970608899528985e+000
 3.481798527088230e-001	 1.513805789085729e+000	 2.876401224865516e+000
 3.327370236678124e-001	 1.517274969108895e+000	 2.788244763218159e+000
 3.173057217063539e-001	 1.520577000265112e+000	 2.705652024444147e+000
 3.018884287207118e-001	 1.523712826538826e+000	 2.628127496186483e+000
 4.583459604377743e-001	 1.491144627999229e+000	 3.718167325384231e+000
 4.428283189975681e-001	 1.495826332058187e+000	 3.579499626409950e+000
 4.273039159340356e-001	 1.500334874616189e+000	 3.449034694921666e+000
 4.117754591004298e-001	 1.504670860495363e+000	 3.326609151260341e+000
 3.962456288212590e-001	 1.508834946900292e+000	 3.211958663971847e+000
 3.807170767435516e-001	 1.512827842340999e+000	 3.104736526870357e+000
 3.651924247311161e-001	 1.516650305529975e+000	 3.004530925637614e+000
 3.496742638022776e-001	 1.520303144255020e+000	 2.910880942978109e+000
 3.341651531114998e-001	 1.523787214229728e+000	 2.823291358996923e+000
 3.186676189752222e-001	 1.527103417923380e+000	 2.741246309951651e+000
 3.031841539421639e-001	 1.530252703372057e+000	 2.664221873938230e+000
 4.603048043071963e-001	 1.497517367732963e+000	 3.751350532950448e+000
 4.447208447591707e-001	 1.502219080100473e+000	 3.612713739336766e+000
 4.291300946905407e-001	 1.506746890922672e+000	 3.482485073270146e+000
 4.135352735271654e-001	 1.511101407606524e+000	 3.360465774330156e+000
 3.979390730485077e-001	 1.515283290165310e+000	 3.246356177408551e+000
 3.823441562339925e-001	 1.519293250137022e+000	 3.139774371803777e+000
 3.667531561525392e-001	 1.523132049476669e+000	 3.040273509917810e+000
 3.511686748957588e-001	 1.526800499424304e+000	 2.947357817693632e+000
 3.355932825552234e-001	 1.530299459350595e+000	 2.860497366717974e+000
 3.200295162441409e-001	 1.533629835581718e+000	 2.779141674552263e+000
 3.044798791636848e-001	 1.536792580205390e+000	 2.702732205324968e+000
 4.622636481766994e-001	 1.503890107466283e+000	 3.785578295739610e+000
 4.466133705208326e-001	 1.508611828142373e+000	 3.647097743236920e+000
 4.309562734470883e-001	 1.513158907228801e+000	 3.517252642620890e+000
 4.152950879539309e-001	 1.517531954717364e+000	 3.395802546594682e+000
 3.996325172757795e-001	 1.521731633430045e+000	 3.282406169820822e+000
 3.839712357244544e-001	 1.525758657932800e+000	 3.176640136757312e+000
 3.683138875739864e-001	 1.529613793423154e+000	 3.078016337965426e+000
 3.526630859892719e-001	 1.533297854593416e+000	 2.985997950206075e+000
 3.370214119989919e-001	 1.536811704471323e+000	 2.900014183610644e+000
 3.213914135131226e-001	 1.540156253239948e+000	 2.819473825961808e+000
 3.057756043852917e-001	 1.543332457038643e+000	 2.743777659701186e+000
 4.642224920462677e-001	 1.510262847199072e+000	 3.821081036596228e+000
 4.485058962825420e-001	 1.515004576183763e+000	 3.682877813449653e+000
 4.327824522036696e-001	 1.519570923534446e+000	 3.553557498754389e+000
 4.170549023807214e-001	 1.523962501827749e+000	 3.432831761359419e+000
 4.013259615030718e-001	 1.528179976694353e+000	 3.320311523090409e+000
 3.855983152149377e-001	 1.532224065728180e+000	 3.215525801735953e+000
 3.698746189954602e-001	 1.536095537369272e+000	 3.117939120141803e+000
 3.541574970828225e-001	 1.539795209762189e+000	 3.026967540010987e+000
 3.384495414428142e-001	 1.543323949591740e+000	 2.941993387114289e+000
 3.227533107821799e-001	 1.546682670897893e+000	 2.862378741528321e+000
 3.070713296070020e-001	 1.549872333871631e+000	 2.787477772171341e+000
 4.661813359158847e-001	 1.516635586931213e+000	 3.858088977932710e+000
 4.503984220442867e-001	 1.521397324224522e+000	 3.720279931609437e+000
 4.346086309602770e-001	 1.525982939839478e+000	 3.591619564553423e+000
 4.188147168075319e-001	 1.530393048937541e+000	 3.471765572703665e+000
 4.030194057303825e-001	 1.534628319958090e+000	 3.360275025269292e+000
 3.872253947054421e-001	 1.538689473523013e+000	 3.256623308953292e+000
 3.714353504169633e-001	 1.542577281314865e+000	 3.160221594694234e+000
 3.556519081764161e-001	 1.546292564930458e+000	 3.070432888853763e+000
 3.398776708866989e-001	 1.549836194711674e+000	 2.986586739085573e+000
 3.241152080513252e-001	 1.553209088555371e+000	 2.907992672153463e+000
 3.083670548288326e-001	 1.556412210704171e+000	 2.833952446729927e+000
 4.681401797855343e-001	 1.523008326662587e+000	 3.896832125319220e+000
 4.522909478060553e-001	 1.527790072264526e+000	 3.759529874201720e+000
 4.364348097169019e-001	 1.532394956143769e+000	 3.631658582756437e+000
 4.205745312343572e-001	 1.536823596046605e+000	 3.512815991701482e+000
 4.047128499577090e-001	 1.541076663221114e+000	 3.402499369560610e+000
 3.888524741959679e-001	 1.545154881317146e+000	 3.300124563913757e+000
 3.729960818384989e-001	 1.549059025259775e+000	 3.205043530300484e+000
 3.571463192700581e-001	 1.552789920098058e+000	 3.116560404140384e+000
 3.413058003306548e-001	 1.556348439830952e+000	 3.033946189508576e+000
 3.254771053205714e-001	 1.559735506212208e+000	 2.956452145780968e+000
 3.096627800508011e-001	 1.562952087536078e+000	 2.883321959033291e+000
 4.700990236552003e-001	 1.529381066393079e+000	 3.937540250560949e+000
 4.541834735678362e-001	 1.534182820303653e+000	 3.800853200562418e+000
 4.382609884735363e-001	 1.538806972447188e+000	 3.673894108130230e+000
 4.223343456611924e-001	 1.543254143154806e+000	 3.556194882043922e+000
 4.064062941850493e-001	 1.547525006483282e+000	 3.447187152711265e+000
 3.904795536865156e-001	 1.551620289110432e+000	 3.346221435912347e+000
 3.745568132600691e-001	 1.555540769203842e+000	 3.252584728057345e+000
 3.586407303637542e-001	 1.559287275264824e+000	 3.165516601825756e+000
 3.427339297746908e-001	 1.562860684949402e+000	 3.084223879729927e+000
 3.268390025899309e-001	 1.566261923868223e+000	 3.007893970455683e+000
 3.109585052729244e-001	 1.569491964367168e+000	 2.935706958802207e+000
 2.980012530565967e-001	 1.504093196041590e+000	 2.533153800514563e+000
 2.828009990314218e-001	 1.507025127989463e+000	 2.459408978426600e+000
 2.676193610623530e-001	 1.509795038149035e+000	 2.389667478592344e+000
 2.524586800298293e-001	 1.512403986319364e+000	 2.323861015396363e+000
 2.373212605084651e-001	 1.514853072217832e+000	 2.261959685958836e+000
 2.222093700739263e-001	 1.517143434246501e+000	 2.203980436950115e+000
 2.071252386533723e-001	 1.519276248250174e+000	 2.149994952331733e+000
 1.920710579192460e-001	 1.521252726267772e+000	 2.100137028162484e+000
 1.770489807261170e-001	 1.523074115278612e+000	 2.054609498890880e+000
 1.620611205902298e-001	 1.524741695945114e+000	 2.013690777232180e+000
 1.471095512113652e-001	 1.526256781353464e+000	 1.977741066855243e+000
 2.992969782779455e-001	 1.510633072873409e+000	 2.562711731339595e+000
 2.840306327434565e-001	 1.513577753016370e+000	 2.489079661580936e+000
 2.687829842086254e-001	 1.516359706891685e+000	 2.419540820952272e+000
 2.535563837321868e-001	 1.518979998906481e+000	 2.354020649668471e+000
 2.383531459091907e-001	 1.521439733559776e+000	 2.292481626211125e+000
 2.231755481748648e-001	 1.523740054203473e+000	 2.234931578076272e+000
 2.080258301522327e-001	 1.525882141795015e+000	 2.181431410174053e+000
 1.929061930432675e-001	 1.527867213643340e+000	 2.132102319938366e+000
 1.778187990632861e-001	 1.529696522149704e+000	 2.087132566348196e+000
 1.627657709182356e-001	 1.531371353544922e+000	 2.046783857609178e+000
 1.477491913244744e-001	 1.532893026624554e+000	 2.011397419206511e+000
 3.005927034993116e-001	 1.517172949705882e+000	 2.594330264934718e+000
 2.852602664555143e-001	 1.520130378043972e+000	 2.520944433904420e+000
 2.699466073549285e-001	 1.522924375635062e+000	 2.451710041274332e+000
 2.546540874345853e-001	 1.525556011494349e+000	 2.386550586528496e+000
 2.393850313099713e-001	 1.528026394902491e+000	 2.325425349278126e+000
 2.241417262758770e-001	 1.530336674161230e+000	 2.268337524894946e+000
 2.089264216511907e-001	 1.532488035340652e+000	 2.215341774605245e+000
 1.937413281674166e-001	 1.534481701019713e+000	 2.166551262105355e+000
 1.785886174006201e-001	 1.536318929021609e+000	 2.122144246787856e+000
 1.634704212464511e-001	 1.538001011145548e+000	 2.082370301065210e+000
 1.483888314378467e-001	 1.539529271896469e+000	 2.047556216067572e+000
 3.018884287207118e-001	 1.523712826538826e+000	 2.628127496186483e+000
 2.864899001676177e-001	 1.526683003072079e+000	 2.555104968682566e+000
 2.711102305012906e-001	 1.529489044378973e+000	 2.486261983792895e+000
 2.557517911370589e-001	 1.532132024082775e+000	 2.421524432604071e+000
 2.404169167108455e-001	 1.534613056245783e+000	 2.360852815308427e+000
 2.251079043770039e-001	 1.536933294119577e+000	 2.304250182427371e+000
 2.098270131502878e-001	 1.539093928886893e+000	 2.251769487367832e+000
 1.945764632917323e-001	 1.541096188396701e+000	 2.203520425493007e+000
 1.793584357381515e-001	 1.542941335894138e+000	 2.159675832776537e+000
 1.641750715748986e-001	 1.544630668746812e+000	 2.120477714344743e+000
 1.490284715514893e-001	 1.546165517169035e+000	 2.086242969856204e+000
 3.031841539421639e-001	 1.530252703372057e+000	 2.664221873938230e+000
 2.877195338797896e-001	 1.533235628100504e+000	 2.591663379918421e+000
 2.722738536477407e-001	 1.536053713123227e+000	 2.523283989506549e+000
 2.568494948396415e-001	 1.538708036671565e+000	 2.459016318317455e+000
 2.414488021118516e-001	 1.541199717589455e+000	 2.398826508011803e+000
 2.260740824782869e-001	 1.543529914078321e+000	 2.342721953540721e+000
 2.107276046495657e-001	 1.545699822433543e+000	 2.290758438675907e+000
 1.954115984162537e-001	 1.547710675774113e+000	 2.243046758217274e+000
 1.801282540759133e-001	 1.549563742767107e+000	 2.199758903032488e+000
 1.648797219036005e-001	 1.551260326348532e+000	 2.161133881144888e+000
 1.496681116654092e-001	 1.552801762442078e+000	 2.127483244575255e+000
 3.044798791636848e-001	 1.536792580205390e+000	 2.702732205324968e+000
 2.889491675920525e-001	 1.539788253129059e+000	 2.630722225614456e+000
 2.734374767943067e-001	 1.542618381867632e+000	 2.562863898746518e+000
 2.579471985423670e-001	 1.545284049260524e+000	 2.499100900078348e+000
 2.424806875130279e-001	 1.547786378933312e+000	 2.439409436795427e+000
 2.270402605797669e-001	 1.550126534037266e+000	 2.383805741342445e+000
 2.116281961490656e-001	 1.552305715980410e+000	 2.332352970163821e+000
 1.962467335410196e-001	 1.554325163151758e+000	 2.285167589465865e+000
 1.808980724139381e-001	 1.556186149640328e+000	 2.242425327327126e+000
 1.655843722325789e-001	 1.557889983950527e+000	 2.204366768399224e+000
 1.503077517796134e-001	 1.559438007715424e+000	 2.171302663730987e+000
 3.057756043852917e-001	 1.543332457038643e+000	 2.743777659701186e+000
 2.901788013044292e-001	 1.546340878157556e+000	 2.672384510708558e+000
 2.746010999410176e-001	 1.549183050611998e+000	 2.605090053457329e+000
 2.590449022452694e-001	 1.551860061849460e+000	 2.541853362230691e+000
 2.435125729144129e-001	 1.554373040277161e+000	 2.482665138688731e+000
 2.280064386814851e-001	 1.556723153996217e+000	 2.427554951379204e+000
 2.125287876488293e-001	 1.558911609527300e+000	 2.376597877649583e+000
 1.970818686660689e-001	 1.560939650529444e+000	 2.329920633101969e+000
 1.816678907522587e-001	 1.562808556513615e+000	 2.287707271193507e+000
 1.662890225618565e-001	 1.564519641552616e+000	 2.250204532342500e+000
 1.509473918941091e-001	 1.566074252988898e+000	 2.217726917996100e+000
 3.070713296070020e-001	 1.549872333871631e+000	 2.787477772171341e+000
 2.914084350169423e-001	 1.552893503185805e+000	 2.716753689680177e+000
 2.757647230879016e-001	 1.555747719356131e+000	 2.650051299202062e+000
 2.601426059483829e-001	 1.558436074438178e+000	 2.587349418764524e+000
 2.445444583160451e-001	 1.560959701620807e+000	 2.528657680061483e+000
 2.289726167834827e-001	 1.563319773954980e+000	 2.474023493650037e+000
 2.134293791488982e-001	 1.565517503074020e+000	 2.423538413717568e+000
 1.979170037914407e-001	 1.567554137906983e+000	 2.377343991085244e+000
 1.824377090909079e-001	 1.569430963386780e+000	 2.335637200441370e+000
 1.669936728914553e-001	 1.571149299154617e+000	 2.298675524369516e+000
 1.515870320089033e-001	 1.572710498262325e+000	 2.266781772649515e+000
 3.083670548288326e-001	 1.556412210704171e+000	 2.833952446729927e+000
 2.926380687296148e-001	 1.559446128213619e+000	 2.763933668833283e+000
 2.769283462349874e-001	 1.562312388099841e+000	 2.697836986893568e+000
 2.612403096517411e-001	 1.565012087026484e+000	 2.635665314797866e+000
 2.455763437179627e-001	 1.567546362964053e+000	 2.577451658141275e+000
 2.299387948858007e-001	 1.569916393913360e+000	 2.523265784437801e+000
 2.143299706493139e-001	 1.572123396620375e+000	 2.473220290131495e+000
 1.987521389171738e-001	 1.574168625284182e+000	 2.427476156724394e+000
 1.832075274299184e-001	 1.576053370259636e+000	 2.386247885495250e+000
 1.676983232213979e-001	 1.577778956756348e+000	 2.349808296690246e+000
 1.522266721240030e-001	 1.579346743535532e+000	 2.318493074776173e+000
 3.096627800508011e-001	 1.562952087536078e+000	 2.883321959033292e+000
 2.938677024424692e-001	 1.565998753240810e+000	 2.814028808266968e+000
 2.780919693823034e-001	 1.568877056842937e+000	 2.748536974264936e+000
 2.623380133553782e-001	 1.571588099614185e+000	 2.686877827832346e+000
 2.466082291202042e-001	 1.574133024306707e+000	 2.629112202335575e+000
 2.309049729884803e-001	 1.576513013871161e+000	 2.575336747962722e+000
 2.152305621501179e-001	 1.578729290166173e+000	 2.525689680078874e+000
 1.995872740433073e-001	 1.580783112660851e+000	 2.480356017756378e+000
 1.839773457693229e-001	 1.582675777131999e+000	 2.439572405547497e+000
 1.684029735517064e-001	 1.584408614357631e+000	 2.403631607790029e+000
 1.528663122394154e-001	 1.585982988808343e+000	 2.372886760250745e+000
 3.109585052729244e-001	 1.569491964367168e+000	 2.935706958802207e+000
 2.950973361555283e-001	 1.572551378267190e+000	 2.867143923540843e+000
 2.792555925298783e-001	 1.575441725585226e+000	 2.802241627085425e+000
 2.634357170593281e-001	 1.578164112201086e+000	 2.741064268795063e+000
 2.476401145228079e-001	 1.580719685648571e+000	 2.683704975365214e+000
 2.318711510915625e-001	 1.583109633828190e+000	 2.630291817866962e+000
 2.161311536513517e-001	 1.585335183711221e+000	 2.580993220251813e+000
 2.004224091698800e-001	 1.587397600036800e+000	 2.536022859264917e+000
 1.847471641091543e-001	 1.589298184003680e+000	 2.495644152542684e+000
 1.691076238824034e-001	 1.591038271958281e+000	 2.460174427697799e+000
 1.535059523551476e-001	 1.592619234080585e+000	 2.429988860503210e+000
 1.471095512113652e-001	 1.526256781353464e+000	 1.977741066855243e+000
 1.321940769904347e-001	 1.527620909144472e+000	 1.947003793120556e+000
 1.173189629895987e-001	 1.528835215667850e+000	 1.920888819626919e+000
 1.024861918480412e-001	 1.529901104708160e+000	 1.898644741246744e+000
 8.769770393849952e-002	 1.530820007478312e+000	 1.879644415978132e+000
 7.295539709772317e-002	 1.531593381358124e+000	 1.863392148241657e+000
 5.826112639675777e-002	 1.532222708639553e+000	 1.849530724639913e+000
 4.361670395028588e-002	 1.532709495279816e+000	 1.837848330918772e+000
 2.902389876422843e-002	 1.533055269663587e+000	 1.828285374156088e+000
 1.448443662077806e-002	 1.533261581375402e+000	 1.820941229510204e+000
 0.000000000000000e+000	 1.533329999983334e+000	 1.816080920131906e+000
 1.477491913244744e-001	 1.532893026624554e+000	 2.011397419206511e+000
 1.327688638324483e-001	 1.534263085715157e+000	 1.981171391651726e+000
 1.178290720489962e-001	 1.535482672107356e+000	 1.955480590075081e+000
 1.029318072338744e-001	 1.536553195689441e+000	 1.933566768012887e+000
 8.807901819661552e-002	 1.537476093897312e+000	 1.914793608118802e+000
 7.327261102581678e-002	 1.538252830447551e+000	 1.898653801411546e+000
 5.851444885842478e-002	 1.538884894077196e+000	 1.884775997621888e+000
 4.380635168824693e-002	 1.539373797291449e+000	 1.872931656541088e+000
 2.915009621289072e-002	 1.539721075120482e+000	 1.863041825350777e+000
 1.454741571829701e-002	 1.539928283886501e+000	 1.855183862000961e+000
 0.000000000000000e+000	 1.539996999982150e+000	 1.849598114179779e+000
 1.483888314378467e-001	 1.539529271896469e+000	 2.047556216067572e+000
 1.333436506747863e-001	 1.540905262286677e+000	 2.017862349681651e+000
 1.183391811087811e-001	 1.542130128547706e+000	 1.992635088348551e+000
 1.033774226201508e-001	 1.543205286671577e+000	 1.971112344073381e+000
 8.846033245521598e-002	 1.544132180317176e+000	 1.952651354672767e+000
 7.358982495441387e-002	 1.544912279537849e+000	 1.936735651499482e+000
 5.876777132058422e-002	 1.545547079515722e+000	 1.922981917821643e+000
 4.399599942665190e-002	 1.546038099303972e+000	 1.911146768935226e+000
 2.927629366190350e-002	 1.546386880578270e+000	 1.901133479972418e+000
 1.461039481602085e-002	 1.546594986398501e+000	 1.892998682220042e+000
 0.000000000000000e+000	 1.546663999981867e+000	 1.886959038440501e+000
 1.490284715514893e-001	 1.546165517169035e+000	 2.086242969856204e+000
 1.339184375174359e-001	 1.547547438858865e+000	 2.057100501542356e+000
 1.188492901689171e-001	 1.548777584988743e+000	 2.032373726336943e+000
 1.038230380068114e-001	 1.549857377654417e+000	 2.011299734295241e+000
 8.884164671422185e-002	 1.550788266737764e+000	 1.993232068483592e+000
 7.390703888342050e-002	 1.551571728628892e+000	 1.977647573466237e+000
 5.902109378313513e-002	 1.552209264955009e+000	 1.964153154906906e+000
 4.418564716540320e-002	 1.552702401317272e+000	 1.952492482596803e+000
 2.940249111118554e-002	 1.553052686036848e+000	 1.942552663857526e+000
 1.467337391390007e-002	 1.553261688911296e+000	 1.934370908912661e+000
 0.000000000000000e+000	 1.553330999982383e+000	 1.928141199663419e+000
 1.496681116654092e-001	 1.552801762442078e+000	 2.127483244575255e+000
 1.344932243603838e-001	 1.554189615431554e+000	 2.098909613553223e+000
 1.193593992293684e-001	 1.555425041430308e+000	 2.074717755798404e+000
 1.042686533937975e-001	 1.556509468637817e+000	 2.054146980248380e+000
 8.922296097355417e-002	 1.557444353158942e+000	 2.036549906339074e+000
 7.422425281274273e-002	 1.558231177720554e+000	 2.021399185264742e+000
 5.927441624597661e-002	 1.558871450394940e+000	 2.008294153757548e+000
 4.437529490440334e-002	 1.559366703331239e+000	 1.996967453940041e+000
 2.952868856065562e-002	 1.559718491496112e+000	 1.987291647225493e+000
 1.473635301188516e-002	 1.559928391424788e+000	 1.979285844642645e+000
 0.000000000000000e+000	 1.559997999983599e+000	 1.973122365984435e+000
 1.503077517796134e-001	 1.559438007715424e+000	 2.171302663730987e+000
 1.350680112036169e-001	 1.560831792004578e+000	 2.143313393380803e+000
 1.198695082900991e-001	 1.562072497872247e+000	 2.119688278545062e+000
 1.047142687810503e-001	 1.563161559621628e+000	 2.099671910606234e+000
 8.960427523313397e-002	 1.564100439580570e+000	 2.082618778957273e+000
 7.454146674228666e-002	 1.564890626812705e+000	 2.067999856792481e+000
 5.952773870900770e-002	 1.565533635835396e+000	 2.055409141758307e+000
 4.456494264355475e-002	 1.566031005345761e+000	 2.044570186310946e+000
 2.965488601023249e-002	 1.566384296955954e+000	 2.035342646786992e+000
 1.479933210992658e-002	 1.566595093938874e+000	 2.027728874375167e+000
 0.000000000000000e+000	 1.566664999985416e+000	 2.021880561362155e+000
 1.509473918941091e-001	 1.566074252988898e+000	 2.217726917996100e+000
 1.356427980471223e-001	 1.567473968577772e+000	 2.190335499128736e+000
 1.203796173510732e-001	 1.568719954314401e+000	 2.167306256351911e+000
 1.051598841685111e-001	 1.569813650605705e+000	 2.147892151261033e+000
 8.998558949288221e-002	 1.570756526002515e+000	 2.131452360708046e+000
 7.485868067195843e-002	 1.571550075905218e+000	 2.117458718606226e+000
 5.978106117212745e-002	 1.572195821276259e+000	 2.105502135903140e+000
 4.475459038275984e-002	 1.572695307360727e+000	 2.095299034870590e+000
 2.978108345983493e-002	 1.573050102416269e+000	 2.086697827799476e+000
 1.486231120797482e-002	 1.573261796453454e+000	 2.079685464097714e+000
 0.000000000000000e+000	 1.573331999987733e+000	 2.074394060159527e+000
 1.515870320089033e-001	 1.572710498262325e+000	 2.266781772649515e+000
 1.362175848908868e-001	 1.574116145150969e+000	 2.239999548166849e+000
 1.208897264122548e-001	 1.575367410756614e+000	 2.217592520589233e+000
 1.056054995561209e-001	 1.576465741589899e+000	 2.198825135170985e+000
 9.036690375271989e-002	 1.577412612424635e+000	 2.183064099076294e+000
 7.517589460166406e-002	 1.578209524997966e+000	 2.169784670414123e+000
 6.003438363523492e-002	 1.578858006717409e+000	 2.158576949716069e+000
 4.494423812192110e-002	 1.579359609376027e+000	 2.149152211353861e+000
 2.990728090938170e-002	 1.579715907876953e+000	 2.141349306068956e+000
 1.492529030598035e-002	 1.579928498968426e+000	 2.135141159472833e+000
 0.000000000000000e+000	 1.579998999990450e+000	 2.130641381859789e+000
 1.522266721240030e-001	 1.579346743535532e+000	 2.318493074776173e+000
 1.367923717348973e-001	 1.580758321724004e+000	 2.292329125706204e+000
 1.213998354736080e-001	 1.582014867198729e+000	 2.270567781591703e+000
 1.060511149438211e-001	 1.583117832574064e+000	 2.252488111942414e+000
 9.074821801256802e-002	 1.584068698846796e+000	 2.237467223880211e+000
 7.549310853130965e-002	 1.584868974090821e+000	 2.224986389343413e+000
 6.028770609822916e-002	 1.585520192158728e+000	 2.214637199994081e+000
 4.513388586094098e-002	 1.586023911391548e+000	 2.206127788702882e+000
 3.003347835879158e-002	 1.586381713337902e+000	 2.199289149902044e+000
 1.498826940389365e-002	 1.586595201483688e+000	 2.194081584529766e+000
 0.000000000000000e+000	 1.586665999993466e+000	 2.190601285916630e+000
 1.528663122394154e-001	 1.585982988808343e+000	 2.372886760250745e+000
 1.373671585791408e-001	 1.587400498296709e+000	 2.347347793126702e+000
 1.219099445350967e-001	 1.588662323640588e+000	 2.326252637766936e+000
 1.064967303315527e-001	 1.589769923558053e+000	 2.308898157154359e+000
 9.112953227234756e-002	 1.590724785268860e+000	 2.294674756244056e+000
 7.581032246080133e-002	 1.591528423183657e+000	 2.283072337997417e+000
 6.054102856100924e-002	 1.592182377600097e+000	 2.273686313377633e+000
 4.532353359972191e-002	 1.592688213407181e+000	 2.266223705590326e+000
 3.015967580798333e-002	 1.593047518799007e+000	 2.260509382006656e+000
 1.505124850166521e-002	 1.593261903999138e+000	 2.256492440382540e+000
 0.000000000000000e+000	 1.593332999996683e+000	 2.254252766734382e+000
 1.535059523551476e-001	 1.592619234080585e+000	 2.429988860503210e+000
 1.379419454236043e-001	 1.594042674868919e+000	 2.405079096068050e+000
 1.224200535966850e-001	 1.595309780082036e+000	 2.384667584457493e+000
 1.069423457192570e-001	 1.596422014541718e+000	 2.368072181436838e+000
 9.151084653197959e-002	 1.597380871690691e+000	 2.354699517337967e+000
 7.612753639004517e-002	 1.598187872276344e+000	 2.344050772302342e+000
 6.079435102347421e-002	 1.598844563041398e+000	 2.335727532751823e+000
 4.551318133816635e-002	 1.599352515422813e+000	 2.329437770817844e+000
 3.028587325687572e-002	 1.599713324260166e+000	 2.325001981345366e+000
 1.511422759924549e-002	 1.599928606514677e+000	 2.322359503984520e+000
 0.000000000000000e+000	 1.600000000000000e+000	 2.321575048772034e+000
 1.600000000000000e+000	 0.000000000000000e+000	 1.392555697105092e+001
 1.599928606514677e+000	 1.511422759924554e-002	 1.393152334502594e+001
 1.599713324260166e+000	 3.028587325687582e-002	 1.393461172607262e+001
 1.599352515422813e+000	 4.551318133816625e-002	 1.393554020659721e+001
 1.598844563041397e+000	 6.079435102347415e-002	 1.393501294724754e+001
 1.598187872276344e+000	 7.612753639004513e-002	 1.393371825733691e+001
 1.597380871690691e+000	 9.151084653197962e-002	 1.393232675476461e+001
 1.596422014541718e+000	 1.069423457192571e-001	 1.393148962834385e+001
 1.595309780082036e+000	 1.224200535966849e-001	 1.393183702160416e+001
 1.594042674868919e+000	 1.379419454236041e-001	 1.393397655919331e+001
 1.592619234080585e+000	 1.535059523551476e-001	 1.393849203913168e+001
 1.606667000003317e+000	 0.000000000000000e+000	 1.387649306499955e+001
 1.606595309030202e+000	 1.517720669660131e-002	 1.388273021402453e+001
 1.606379129721276e+000	 3.041207070541383e-002	 1.388598163580757e+001
 1.606016817438340e+000	 4.570282907620737e-002	 1.388700504619281e+001
 1.605506748482524e+000	 6.104767348555376e-002	 1.388654275821112e+001
 1.604847321368774e+000	 7.644475031897424e-002	 1.388531966962480e+001
 1.604036958112174e+000	 9.189216079140578e-002	 1.388404132515292e+001
 1.603074105524943e+000	 1.073879611068879e-001	 1.388339207646087e+001
 1.601957236522952e+000	 1.229301626583409e-001	 1.388403335910113e+001
 1.600684851440510e+000	 1.385167322682696e-001	 1.388660210771934e+001
 1.599255479352130e+000	 1.541455924711944e-001	 1.389170933304971e+001
 1.613334000006534e+000	 0.000000000000000e+000	 1.382971628306372e+001
 1.613262011545619e+000	 1.524018579376445e-002	 1.383618888879527e+001
 1.613044935182250e+000	 3.053826815364738e-002	 1.383956906345772e+001
 1.612681119453689e+000	 4.589247681390126e-002	 1.384065400520212e+001
 1.612168933923417e+000	 6.130099594730055e-002	 1.384022403582156e+001
 1.611506770460910e+000	 7.676196424762995e-002	 1.383904049522690e+001
 1.610693044533295e+000	 9.227347505065069e-002	 1.383784370555198e+001
 1.609726196507734e+000	 1.078335764944499e-001	 1.383735102812758e+001
 1.608604692963363e+000	 1.234402717200478e-001	 1.383825503262106e+001
 1.607327028011525e+000	 1.390915191131004e-001	 1.384122179984043e+001
 1.605891724623038e+000	 1.547852325875027e-001	 1.384688938198798e+001
 1.620001000009550e+000	 0.000000000000000e+000	 1.378513821441743e+001
 1.619928714060829e+000	 1.530316489078311e-002	 1.379181732053704e+001
 1.619710740643001e+000	 3.066446560165258e-002	 1.379529799873508e+001
 1.619345421468792e+000	 4.608212455133472e-002	 1.379641678105823e+001
 1.618831119364034e+000	 6.155431840879772e-002	 1.379599184863109e+001
 1.618166219552731e+000	 7.707917817608065e-002	 1.379482083290979e+001
 1.617349130954059e+000	 9.265478930975966e-002	 1.379367868126855e+001
 1.616378287490125e+000	 1.082791918819602e-001	 1.379331561030163e+001
 1.615252149403328e+000	 1.239503807817929e-001	 1.379445516623673e+001
 1.613969204582053e+000	 1.396663059580555e-001	 1.379779241413399e+001
 1.612527969893416e+000	 1.554248727040071e-001	 1.380399227991269e+001
 1.626668000012268e+000	 0.000000000000000e+000	 1.374267011862673e+001
 1.626595416575738e+000	 1.536614398770546e-002	 1.374953331111287e+001
 1.626376546103448e+000	 3.079066304950555e-002	 1.375309245545227e+001
 1.626009723483583e+000	 4.627177228859459e-002	 1.375422326178874e+001
 1.625493304804328e+000	 6.180764087012846e-002	 1.375378161526036e+001
 1.624825668644219e+000	 7.739639210439459e-002	 1.375260128391154e+001
 1.624005217374477e+000	 9.303610356877803e-002	 1.375149168539230e+001
 1.623030378472153e+000	 1.087248072694361e-001	 1.375123573595270e+001
 1.621899605842912e+000	 1.244604898435636e-001	 1.375258780121760e+001
 1.620611381152179e+000	 1.402410928030932e-001	 1.375627177058324e+001
 1.619164215163372e+000	 1.560645128206422e-001	 1.376297927952866e+001
 1.633335000014584e+000	 0.000000000000000e+000	 1.370222293237655e+001
 1.633262119090249e+000	 1.542912308457965e-002	 1.370925451943086e+001
 1.633042351563504e+000	 3.091686049728242e-002	 1.371287647739487e+001
 1.632674025497995e+000	 4.646142002576765e-002	 1.371400353121785e+001
 1.632155490244256e+000	 6.206096333137600e-002	 1.371352910876732e+001
 1.631485117735354e+000	 7.771360603264023e-002	 1.371232295531703e+001
 1.630661303794554e+000	 9.341741782775105e-002	 1.371122880101872e+001
 1.629682469453853e+000	 1.091704226568948e-001	 1.371106210497509e+001
 1.628547062282178e+000	 1.249705989053470e-001	 1.371260789547686e+001
 1.627253557721992e+000	 1.408158796481723e-001	 1.371661872840578e+001
 1.625800460433011e+000	 1.567041529373426e-001	 1.372381278833829e+001
 1.640002000016400e+000	 0.000000000000000e+000	 1.366370727603394e+001
 1.639928821604268e+000	 1.549210218145386e-002	 1.367089846766956e+001
 1.639708157023086e+000	 3.104305794505928e-002	 1.367457414404649e+001
 1.639338327511960e+000	 4.665106776294072e-002	 1.367568787402945e+001
 1.638817675683773e+000	 6.231428579262357e-002	 1.367517046088873e+001
 1.638144566826117e+000	 7.803081996088587e-002	 1.367392746331837e+001
 1.637317390214301e+000	 9.379873208672412e-002	 1.367283676337032e+001
 1.636334560435261e+000	 1.096160380443534e-001	 1.367274620501304e+001
 1.635194518721186e+000	 1.254807079671303e-001	 1.367447132294710e+001
 1.633895734291576e+000	 1.413906664932513e-001	 1.367879318382734e+001
 1.632436705702442e+000	 1.573437930540431e-001	 1.368645636466410e+001
 1.646669000017617e+000	 0.000000000000000e+000	 1.362703346005146e+001
 1.646595524117697e+000	 1.555508127837624e-002	 1.363438254734917e+001
 1.646373962482109e+000	 3.116925539291229e-002	 1.363810957616830e+001
 1.646002629525412e+000	 4.684071550020064e-002	 1.363920678069501e+001
 1.645479861122833e+000	 6.256760825395438e-002	 1.363864216615681e+001
 1.644804015916487e+000	 7.834803388919986e-002	 1.363735693636247e+001
 1.643973476633723e+000	 9.418004634574252e-002	 1.363626296181805e+001
 1.642986651416412e+000	 1.100616534318293e-001	 1.363624031220166e+001
 1.641841975160000e+000	 1.259908170289009e-001	 1.363813487288667e+001
 1.640537910861019e+000	 1.419654533382890e-001	 1.364275606780279e+001
 1.639072950971772e+000	 1.579834331706781e-001	 1.365087471363640e+001
 1.653336000018133e+000	 0.000000000000000e+000	 1.359211149121591e+001
 1.653262226630441e+000	 1.561806037539494e-002	 1.359962402525575e+001
 1.653039767940489e+000	 3.129545284091757e-002	 1.360340694123900e+001
 1.652666931538284e+000	 4.703036323763419e-002	 1.360449095227072e+001
 1.652142046561392e+000	 6.282093071545158e-002	 1.360388108589561e+001
 1.651463465006448e+000	 7.866524781765064e-002	 1.360255401818936e+001
 1.650629563052829e+000	 9.456136060485153e-002	 1.360145544180648e+001
 1.649638742397343e+000	 1.105072688193396e-001	 1.360149749182450e+001
 1.648489431598683e+000	 1.265009260906461e-001	 1.360355624911834e+001
 1.647180087430408e+000	 1.425402401832440e-001	 1.360846934368616e+001
 1.645709196241108e+000	 1.586230732871825e-001	 1.361703368314731e+001
 1.660003000017850e+000	 0.000000000000000e+000	 1.355885107874620e+001
 1.659928929142405e+000	 1.568103947255814e-002	 1.356654004922080e+001
 1.659705573398140e+000	 3.142165028915121e-002	 1.357039045875786e+001
 1.659331233550508e+000	 4.722001097532819e-002	 1.357147130506656e+001
 1.658804231999406e+000	 6.307425317719849e-002	 1.357082445209964e+001
 1.658122914095977e+000	 7.898246174630641e-002	 1.356946187076458e+001
 1.657285649471628e+000	 9.494267486409651e-002	 1.356836290668534e+001
 1.656290833378088e+000	 1.109528842069017e-001	 1.356847159889127e+001
 1.655136888037296e+000	 1.270110351523530e-001	 1.357069406920251e+001
 1.653822263999829e+000	 1.431150270280748e-001	 1.357589600485072e+001
 1.652345441510555e+000	 1.592627134034907e-001	 1.358490025977189e+001
 1.666670000016666e+000	 0.000000000000000e+000	 1.352716164024522e+001
 1.666595631653491e+000	 1.574401856991399e-002	 1.353504765376085e+001
 1.666371378854980e+000	 3.154784773768937e-002	 1.353898440541591e+001
 1.665995535562018e+000	 4.740965871336945e-002	 1.354007897519229e+001
 1.665466417436829e+000	 6.332757563927825e-002	 1.353940987119837e+001
 1.664782363185057e+000	 7.929967567523566e-002	 1.353802417710819e+001
 1.663941735890127e+000	 9.532398912352275e-002	 1.353693471944942e+001
 1.662942924358684e+000	 1.113984995945326e-001	 1.353711727863777e+001
 1.661784344475902e+000	 1.275211442140089e-001	 1.353950786354641e+001
 1.660464440569369e+000	 1.436898138727402e-001	 1.354500007226052e+001
 1.658981686780223e+000	 1.599023535195375e-001	 1.355444256465684e+001
 1.592619234080585e+000	 1.535059523551476e-001	 1.393849203913167e+001
 1.591038271958281e+000	 1.691076238824034e-001	 1.394296468126370e+001
 1.589298184003680e+000	 1.847471641091542e-001	 1.394503031533145e+001
 1.587397600036800e+000	 2.004224091698800e-001	 1.394529452692521e+001
 1.585335183711221e+000	 2.161311536513516e-001	 1.394431001855416e+001
 1.583109633828190e+000	 2.318711510915626e-001	 1.394257564579596e+001
 1.580719685648572e+000	 2.476401145228081e-001	 1.394053582469490e+001
 1.578164112201086e+000	 2.634357170593281e-001	 1.393858035143020e+001
 1.575441725585226e+000	 2.792555925298784e-001	 1.393704467728828e+001
 1.572551378267189e+000	 2.950973361555282e-001	 1.393621068384010e+001
 1.569491964367168e+000	 3.109585052729245e-001	 1.393630800491089e+001
 1.599255479352130e+000	 1.541455924711944e-001	 1.389170933304971e+001
 1.597667929558169e+000	 1.698122742134936e-001	 1.389680898601951e+001
 1.595920590874547e+000	 1.855169824494244e-001	 1.389941024473243e+001
 1.594012087411892e+000	 2.012575442969085e-001	 1.390014331905744e+001
 1.591941077255381e+000	 2.170317451530340e-001	 1.389958334844632e+001
 1.589706253784308e+000	 2.328373291950672e-001	 1.389824930842949e+001
 1.587306346989509e+000	 2.486719999257927e-001	 1.389660328713125e+001
 1.584740124787051e+000	 2.645334207636076e-001	 1.389505017372366e+001
 1.582006394326573e+000	 2.804192156777262e-001	 1.389393780285287e+001
 1.579104003292623e+000	 2.963269698688031e-001	 1.389355760103940e+001
 1.576031841197312e+000	 3.122542304952113e-001	 1.389414578283849e+001
 1.605891724623038e+000	 1.547852325875027e-001	 1.384688938198798e+001
 1.604297587157367e+000	 1.705169245449124e-001	 1.385258597861883e+001
 1.602542997744677e+000	 1.862868007900623e-001	 1.385569511582293e+001
 1.600626574786213e+000	 2.020926794243195e-001	 1.385687067014734e+001
 1.598546970798739e+000	 2.179323366550936e-001	 1.385670923628669e+001
 1.596302873739601e+000	 2.338035072989267e-001	 1.385574890208321e+001
 1.593893008329605e+000	 2.497038853290979e-001	 1.385446839209390e+001
 1.591316137372162e+000	 2.656311244681645e-001	 1.385328662255270e+001
 1.588571063067057e+000	 2.815828388258037e-001	 1.385256271277373e+001
 1.585656628317191e+000	 2.975566035822602e-001	 1.385259650011305e+001
 1.582571718026589e+000	 3.135499557176359e-001	 1.385362960749469e+001
 1.612527969893416e+000	 1.554248727040071e-001	 1.380399227991269e+001
 1.610927244755997e+000	 1.712215748765774e-001	 1.381025872885403e+001
 1.609165404614206e+000	 1.870566191309759e-001	 1.381385064290478e+001
 1.607241062159900e+000	 2.029278145520175e-001	 1.381544462518565e+001
 1.605152864341439e+000	 2.188329281574359e-001	 1.381565776300477e+001
 1.602899493694213e+000	 2.347696854030525e-001	 1.381504626946568e+001
 1.600479669669002e+000	 2.507357707326435e-001	 1.381410449195717e+001
 1.597892149956558e+000	 2.667288281729294e-001	 1.381326433127252e+001
 1.595135731806818e+000	 2.827464619740537e-001	 1.381289511743033e+001
 1.592209253341028e+000	 2.987862372958533e-001	 1.381330399044491e+001
 1.589111594855133e+000	 3.148456809401637e-001	 1.381473683629053e+001
 1.619164215163372e+000	 1.560645128206422e-001	 1.376297927952866e+001
 1.617556902354181e+000	 1.719262252084069e-001	 1.376979157590841e+001
 1.615787811483266e+000	 1.878264374720733e-001	 1.377384391380016e+001
 1.613855549533095e+000	 2.037629496799067e-001	 1.377583470032447e+001
 1.611758757883622e+000	 2.197335196599668e-001	 1.377640057190596e+001
 1.609496113648288e+000	 2.357358635073560e-001	 1.377611490053714e+001
 1.607066331007840e+000	 2.517676561363493e-001	 1.377548666499786e+001
 1.604468162540381e+000	 2.678265318778332e-001	 1.377495973170706e+001
 1.601700400545990e+000	 2.839100851224186e-001	 1.377491259231684e+001
 1.598761878364269e+000	 3.000158710095375e-001	 1.377565860744649e+001
 1.595651471683077e+000	 3.161414061627604e-001	 1.377744680805510e+001
 1.625800460433011e+000	 1.567041529373426e-001	 1.372381278833830e+001
 1.624186559952042e+000	 1.726308755403184e-001	 1.373115012249609e+001
 1.622410218351989e+000	 1.885962558132626e-001	 1.373564338192726e+001
 1.620470036905936e+000	 2.045980848078916e-001	 1.373801187275009e+001
 1.618364651425431e+000	 2.206341111625919e-001	 1.373891085620877e+001
 1.616092733601967e+000	 2.367020416117481e-001	 1.373892991758648e+001
 1.613652992346263e+000	 2.527995415401352e-001	 1.373859169789637e+001
 1.611044175123768e+000	 2.689242355828062e-001	 1.373835103396498e+001
 1.608265069284713e+000	 2.850737082708411e-001	 1.373859455507265e+001
 1.605314503387048e+000	 3.012455047232673e-001	 1.373964078671045e+001
 1.602191348510555e+000	 3.174371313853915e-001	 1.374174081422908e+001
 1.632436705702442e+000	 1.573437930540431e-001	 1.368645636466410e+001
 1.630816217549701e+000	 1.733355258722299e-001	 1.369430122898553e+001
 1.629032625220509e+000	 1.893660741544520e-001	 1.369921885838043e+001
 1.627084524278562e+000	 2.054332199358764e-001	 1.370194857058134e+001
 1.624970544967010e+000	 2.215347026652170e-001	 1.370316334663108e+001
 1.622689353555394e+000	 2.376682197161403e-001	 1.370346806038236e+001
 1.620239653684412e+000	 2.538314269439212e-001	 1.370339806833556e+001
 1.617620187706860e+000	 2.700219392877792e-001	 1.370341820637901e+001
 1.614829738023121e+000	 2.862373314192635e-001	 1.370392224266192e+001
 1.611867128409499e+000	 3.024751384369968e-001	 1.370523283833948e+001
 1.608731225337699e+000	 3.187328566080225e-001	 1.370760207026078e+001
 1.639072950971772e+000	 1.579834331706781e-001	 1.365087471363640e+001
 1.637445875147284e+000	 1.740401762040592e-001	 1.365921300750767e+001
 1.635655032088957e+000	 1.901358924955492e-001	 1.366454150401473e+001
 1.633699011651114e+000	 2.062683550637655e-001	 1.366761866279436e+001
 1.631576438508499e+000	 2.224352941677479e-001	 1.366913429902504e+001
 1.629285973508712e+000	 2.386343978204436e-001	 1.366970767139479e+001
 1.626826315022428e+000	 2.548633123476269e-001	 1.366988592769462e+001
 1.624196200289796e+000	 2.711196429926829e-001	 1.367014295556436e+001
 1.621394406761351e+000	 2.874009545676284e-001	 1.367087868869789e+001
 1.618419753431758e+000	 3.037047721506811e-001	 1.367241892144546e+001
 1.615271102164644e+000	 3.200285818306192e-001	 1.367501568719814e+001
 1.645709196241108e+000	 1.586230732871825e-001	 1.361703368314731e+001
 1.644075532744909e+000	 1.747448265357242e-001	 1.362585481604789e+001
 1.642277438957468e+000	 1.909057108364628e-001	 1.363158382153476e+001
 1.640313499023730e+000	 2.071034901914634e-001	 1.363499744917179e+001
 1.638182332050043e+000	 2.233358856700901e-001	 1.363680148205787e+001
 1.635882593462066e+000	 2.396005759245694e-001	 1.363762868108608e+001
 1.633412976360455e+000	 2.558951977511725e-001	 1.363803708383552e+001
 1.630772212872714e+000	 2.722173466974477e-001	 1.363850870659382e+001
 1.627959075499540e+000	 2.885645777158784e-001	 1.363944870090779e+001
 1.624972378453958e+000	 3.049344058642744e-001	 1.364118501881445e+001
 1.621810978991522e+000	 3.213243070531469e-001	 1.364396864347201e+001
 1.652345441510555e+000	 1.592627134034907e-001	 1.358490025977189e+001
 1.650705190342700e+000	 1.754494768671429e-001	 1.359419725252418e+001
 1.648899845826174e+000	 1.916755291771005e-001	 1.360031964758758e+001
 1.646927986396549e+000	 2.079386253188743e-001	 1.360406165027680e+001
 1.644788225591782e+000	 2.242364771721496e-001	 1.360614416493848e+001
 1.642479213415595e+000	 2.405667540284289e-001	 1.360721259326879e+001
 1.639999637698632e+000	 2.569270831544776e-001	 1.360783498397872e+001
 1.637348225455756e+000	 2.733150504020045e-001	 1.360850058328567e+001
 1.634523744237826e+000	 2.897282008639558e-001	 1.360961883873481e+001
 1.631525003476235e+000	 3.061640395777312e-001	 1.361151891173233e+001
 1.628350855818468e+000	 3.226200322755715e-001	 1.361444975686473e+001
 1.658981686780223e+000	 1.599023535195375e-001	 1.355444256465684e+001
 1.657334847940780e+000	 1.761541271982330e-001	 1.356421214884962e+001
 1.655522252695209e+000	 1.924453475173706e-001	 1.357072414485992e+001
 1.653542473769712e+000	 2.087737604459026e-001	 1.357478939745020e+001
 1.651394119133861e+000	 2.251370686738319e-001	 1.357714310518779e+001
 1.649075833369447e+000	 2.415329321319333e-001	 1.357844247052938e+001
 1.646586299037103e+000	 2.579589685574621e-001	 1.357926469766671e+001
 1.643924238039060e+000	 2.744127541062840e-001	 1.358010538860144e+001
 1.641088412976345e+000	 2.908918240118035e-001	 1.358137739107274e+001
 1.638077628498721e+000	 3.073936732910060e-001	 1.358341015496714e+001
 1.634890732645614e+000	 3.239157574978582e-001	 1.358644965665902e+001
 1.569491964367168e+000	 3.109585052729245e-001	 1.393630800491089e+001
 1.566261923868223e+000	 3.268390025899310e-001	 1.393655531921074e+001
 1.562860684949402e+000	 3.427339297746908e-001	 1.393598595889242e+001
 1.559287275264824e+000	 3.586407303637541e-001	 1.393448643647177e+001
 1.555540769203843e+000	 3.745568132600691e-001	 1.393191060092834e+001
 1.551620289110432e+000	 3.904795536865157e-001	 1.392808495288529e+001
 1.547525006483282e+000	 4.064062941850495e-001	 1.392281480633386e+001
 1.543254143154806e+000	 4.223343456611926e-001	 1.391589134622320e+001
 1.538806972447188e+000	 4.382609884735363e-001	 1.390709963016915e+001
 1.534182820303653e+000	 4.541834735678361e-001	 1.389622758097386e+001
 1.529381066393079e+000	 4.700990236552003e-001	 1.388307601456043e+001
 1.576031841197312e+000	 3.122542304952113e-001	 1.389414578283849e+001
 1.572788341523290e+000	 3.282008998594101e-001	 1.389496764075453e+001
 1.569372930066905e+000	 3.441620592188109e-001	 1.389509101116067e+001
 1.565784630430640e+000	 3.601351414575069e-001	 1.389438652904266e+001
 1.562022513146961e+000	 3.761175446816751e-001	 1.389268914368538e+001
 1.558085696902766e+000	 3.921066331770839e-001	 1.388980337703647e+001
 1.553973349744499e+000	 4.080997384124002e-001	 1.388550944074923e+001
 1.549684690262056e+000	 4.240941600880323e-001	 1.387957026293434e+001
 1.545218988749658e+000	 4.400871672301722e-001	 1.387173947463354e+001
 1.540575568341829e+000	 4.560759993296170e-001	 1.386177040450151e+001
 1.535753806122621e+000	 4.720578675248663e-001	 1.384942612812204e+001
 1.582571718026589e+000	 3.135499557176359e-001	 1.385362960749469e+001
 1.579314759177490e+000	 3.295627971289897e-001	 1.385497564322305e+001
 1.575885175183543e+000	 3.455901886630018e-001	 1.385573993400560e+001
 1.572281985595597e+000	 3.616295525513067e-001	 1.385577794097516e+001
 1.568504257089225e+000	 3.776782761033101e-001	 1.385490641655970e+001
 1.564551104694252e+000	 3.937337126676677e-001	 1.385290860057377e+001
 1.560421693004875e+000	 4.097931826397565e-001	 1.384954028699557e+001
 1.556115237368471e+000	 4.258539745148701e-001	 1.384453681420862e+001
 1.551631005051299e+000	 4.419133459868008e-001	 1.383762103051967e+001
 1.546968316379183e+000	 4.579685250913861e-001	 1.382851228528074e+001
 1.542126545851345e+000	 4.740167113945158e-001	 1.381693649390803e+001
 1.589111594855133e+000	 3.148456809401637e-001	 1.381473683629053e+001
 1.585841176830959e+000	 3.309246943986449e-001	 1.381655744880778e+001
 1.582397420299454e+000	 3.470183181072454e-001	 1.381791178415524e+001
 1.578779340759835e+000	 3.631239636451417e-001	 1.381864083951714e+001
 1.574986001030779e+000	 3.792390075249656e-001	 1.381854387970328e+001
 1.571016512485042e+000	 3.953607921582605e-001	 1.381738356538604e+001
 1.566870036264566e+000	 4.114866268671125e-001	 1.381489196389566e+001
 1.562545784474214e+000	 4.276137889416999e-001	 1.381077749714154e+001
 1.558043021352281e+000	 4.437395247434138e-001	 1.380473288031334e+001
 1.553361064415891e+000	 4.598610508531317e-001	 1.379644410357541e+001
 1.548499285579435e+000	 4.759755552641329e-001	 1.378560050696162e+001
 1.595651471683077e+000	 3.161414061627604e-001	 1.377744680805510e+001
 1.592367594483831e+000	 3.322865916683504e-001	 1.377969320893529e+001
 1.588909665414776e+000	 3.484464475515245e-001	 1.378158768602286e+001
 1.585276695923495e+000	 3.646183747389991e-001	 1.378295748933822e+001
 1.581467744971771e+000	 3.807997389466333e-001	 1.378358511239020e+001
 1.577481920275285e+000	 3.969878716488561e-001	 1.378321334684750e+001
 1.573318379523730e+000	 4.131800710944627e-001	 1.378155123150218e+001
 1.568976331579452e+000	 4.293736033685149e-001	 1.377828095192054e+001
 1.564455037652777e+000	 4.455657035000024e-001	 1.377306574632268e+001
 1.559753812452132e+000	 4.617535766148418e-001	 1.376555887183350e+001
 1.554872025307074e+000	 4.779343991337012e-001	 1.375541368327680e+001
 1.602191348510555e+000	 3.174371313853915e-001	 1.374174081422908e+001
 1.598894012136239e+000	 3.336484889380810e-001	 1.374436507247415e+001
 1.595421910529644e+000	 3.498745769958206e-001	 1.374675079695117e+001
 1.591774051086716e+000	 3.661127858328666e-001	 1.374871221483765e+001
 1.587949488912343e+000	 3.823604703683042e-001	 1.375001577241643e+001
 1.583947328065134e+000	 3.986149511394479e-001	 1.375038511034004e+001
 1.579766722782525e+000	 4.148735153218011e-001	 1.374950694477506e+001
 1.575406878684347e+000	 4.311334177953086e-001	 1.374703791269226e+001
 1.570867053952957e+000	 4.473918822565583e-001	 1.374261243877211e+001
 1.566146560488082e+000	 4.636461023765048e-001	 1.373585168004751e+001
 1.561244765034445e+000	 4.798932430032044e-001	 1.372637360246680e+001
 1.608731225337699e+000	 3.187328566080225e-001	 1.370760207026078e+001
 1.605420429788318e+000	 3.350103862078115e-001	 1.371055715416947e+001
 1.601934155644195e+000	 3.513027064401160e-001	 1.371338627270810e+001
 1.598271406249640e+000	 3.676071969267319e-001	 1.371589136272593e+001
 1.594431232852644e+000	 3.839212017899701e-001	 1.371782355579386e+001
 1.590412735854740e+000	 4.002420306300298e-001	 1.371888806808766e+001
 1.586215066041111e+000	 4.165669595491220e-001	 1.371875000758799e+001
 1.581837425789064e+000	 4.328932322220745e-001	 1.371704115877384e+001
 1.577279070252993e+000	 4.492180610130727e-001	 1.371336780425437e+001
 1.572539308523918e+000	 4.655386281381084e-001	 1.370731964148501e+001
 1.567617504761729e+000	 4.818520868726262e-001	 1.369847985081344e+001
 1.615271102164644e+000	 3.200285818306192e-001	 1.367501568719814e+001
 1.611946847440201e+000	 3.363722834775168e-001	 1.367825550329937e+001
 1.608446400758565e+000	 3.527308358843929e-001	 1.368148123322798e+001
 1.604768761412407e+000	 3.691016080205827e-001	 1.368448326487282e+001
 1.600912976792819e+000	 3.854819332116223e-001	 1.368699815672969e+001
 1.596878143644255e+000	 4.018691101205954e-001	 1.368871343629492e+001
 1.592663409299643e+000	 4.182604037764201e-001	 1.368927332705427e+001
 1.588267972893769e+000	 4.346530466488066e-001	 1.368828546619860e+001
 1.583691086553055e+000	 4.510442397695371e-001	 1.368532867453003e+001
 1.578932056559818e+000	 4.674311538996413e-001	 1.367996183877839e+001
 1.573990244489111e+000	 4.838109307419503e-001	 1.367173396468642e+001
 1.621810978991522e+000	 3.213243070531469e-001	 1.364396864347201e+001
 1.618473265092024e+000	 3.377341807471715e-001	 1.364744807254662e+001
 1.614958645872892e+000	 3.541589653286336e-001	 1.365102472859007e+001
 1.611266116575157e+000	 3.705960191144069e-001	 1.365447820141358e+001
 1.607394720733012e+000	 3.870426646332523e-001	 1.365753122788356e+001
 1.603343551433830e+000	 4.034961896111379e-001	 1.365985439257973e+001
 1.599111752558279e+000	 4.199538480036892e-001	 1.366107176816375e+001
 1.594698519998625e+000	 4.364128610754979e-001	 1.366076755958671e+001
 1.590103102853316e+000	 4.528704185259428e-001	 1.365849381566451e+001
 1.585324804595960e+000	 4.693236796610911e-001	 1.365377927036400e+001
 1.580362984216773e+000	 4.857697746111607e-001	 1.364613937432216e+001
 1.628350855818468e+000	 3.226200322755715e-001	 1.361444975686473e+001
 1.624999682743919e+000	 3.390960780167505e-001	 1.361812468707945e+001
 1.621470890987312e+000	 3.555870947728200e-001	 1.362200770522838e+001
 1.617763471738032e+000	 3.720904302081917e-001	 1.362586836410688e+001
 1.613876464673369e+000	 3.886033960548515e-001	 1.362941634089446e+001
 1.609808959223615e+000	 4.051232691016515e-001	 1.363230603369322e+001
 1.605560095817179e+000	 4.216472922309239e-001	 1.363414210872154e+001
 1.601129067103797e+000	 4.381726755021420e-001	 1.363448606433166e+001
 1.596515119153944e+000	 4.546965972822814e-001	 1.363286387749384e+001
 1.591717552632520e+000	 4.712162054224461e-001	 1.362877479726065e+001
 1.586735723944898e+000	 4.877286184802407e-001	 1.362170134795210e+001
 1.634890732645614e+000	 3.239157574978582e-001	 1.358644965665902e+001
 1.631526100396023e+000	 3.404579752862290e-001	 1.359027701383598e+001
 1.627983136101961e+000	 3.570152242169341e-001	 1.359442297236633e+001
 1.624260826901171e+000	 3.735848413019251e-001	 1.359864781993671e+001
 1.620358208614037e+000	 3.901641274764114e-001	 1.360264894716990e+001
 1.616274367013765e+000	 4.067503485921295e-001	 1.360606533351819e+001
 1.612008439076500e+000	 4.233407364581182e-001	 1.360848299458005e+001
 1.607559614209450e+000	 4.399324899287324e-001	 1.360944145909352e+001
 1.602927135455114e+000	 4.565227760385444e-001	 1.360844134340907e+001
 1.598110300669677e+000	 4.731087311836948e-001	 1.360495309017840e+001
 1.593108463673670e+000	 4.896874623491745e-001	 1.359842693627071e+001
 1.529381066393079e+000	 4.700990236552003e-001	 1.388307601456043e+001
 1.524401144803653e+000	 4.860048342008704e-001	 1.386832658765787e+001
 1.519242543939458e+000	 5.018980739669736e-001	 1.385295117941385e+001
 1.513904808679865e+000	 5.177758869776713e-001	 1.383725832517859e+001
 1.508387541743989e+000	 5.336353940943899e-001	 1.382164317232157e+001
 1.502690404637501e+000	 5.494736944043553e-001	 1.380660311486239e+001
 1.496813118561950e+000	 5.652878666485969e-001	 1.379275461405997e+001
 1.490755465284833e+000	 5.810749706883370e-001	 1.378085121780890e+001
 1.484517287968682e+000	 5.968320490086004e-001	 1.377180278481800e+001
 1.478098491957502e+000	 6.125561282577968e-001	 1.376669591205413e+001
 1.471499045518887e+000	 6.282442208219421e-001	 1.376681555583883e+001
 1.535753806122621e+000	 4.720578675248663e-001	 1.384942612812204e+001
 1.530753133822144e+000	 4.880299555950192e-001	 1.383544767393537e+001
 1.525573037712730e+000	 5.039894205047790e-001	 1.382088367212194e+001
 1.520213060777319e+000	 5.199333943777997e-001	 1.380602643659362e+001
 1.514672804079606e+000	 5.358589860784834e-001	 1.379125199448523e+001
 1.508951927714800e+000	 5.517632826063016e-001	 1.377703580953678e+001
 1.503050151722735e+000	 5.676433505297490e-001	 1.376396972029788e+001
 1.496967256961559e+000	 5.834962374588435e-001	 1.375278010766596e+001
 1.490703085940282e+000	 5.993189735550005e-001	 1.374434729929509e+001
 1.484257543608491e+000	 6.151085730770314e-001	 1.373972621079726e+001
 1.477630598101556e+000	 6.308620359619237e-001	 1.374016821542264e+001
 1.542126545851345e+000	 4.740167113945158e-001	 1.381693649390803e+001
 1.537105122839823e+000	 4.900550769891465e-001	 1.380369258491978e+001
 1.531903531485195e+000	 5.060807670425580e-001	 1.378990295150131e+001
 1.526521312873974e+000	 5.220909017778974e-001	 1.377584180563846e+001
 1.520958066414437e+000	 5.380825780625442e-001	 1.376186396142209e+001
 1.515213450791333e+000	 5.540528708082165e-001	 1.374842064344037e+001
 1.509287184882779e+000	 5.699988344108758e-001	 1.373607653950321e+001
 1.503179048637579e+000	 5.859175042293359e-001	 1.372552811393384e+001
 1.496888883911224e+000	 6.018058981014046e-001	 1.371762319058136e+001
 1.490416595258883e+000	 6.176610178962955e-001	 1.371338180697276e+001
 1.483762150683703e+000	 6.334798511019699e-001	 1.371401833264268e+001
 1.548499285579435e+000	 4.759755552641329e-001	 1.378560050696162e+001
 1.543457111856877e+000	 4.920801983832308e-001	 1.377305681276007e+001
 1.538234025257044e+000	 5.081721135802821e-001	 1.376000556906015e+001
 1.532829564970023e+000	 5.242484091779291e-001	 1.374670103149995e+001
 1.527243328748675e+000	 5.403061700465296e-001	 1.373347473443510e+001
 1.521474973867289e+000	 5.563424590100491e-001	 1.372075138044515e+001
 1.515524218042269e+000	 5.723543182919169e-001	 1.370906600433167e+001
 1.509390840313075e+000	 5.883387709997445e-001	 1.369908242962316e+001
 1.503074681881681e+000	 6.042928226477330e-001	 1.369161302841906e+001
 1.496575646908840e+000	 6.202134627154999e-001	 1.368763978754272e+001
 1.489893703265480e+000	 6.360976662419809e-001	 1.368833667545012e+001
 1.554872025307074e+000	 4.779343991337012e-001	 1.375541368327680e+001
 1.549809100873494e+000	 4.941053197772500e-001	 1.374353796697530e+001
 1.544564519028469e+000	 5.102634601179236e-001	 1.373119020874601e+001
 1.539137817065659e+000	 5.264059165778598e-001	 1.371860287991157e+001
 1.533528591082512e+000	 5.425297620303964e-001	 1.370608219488387e+001
 1.527736496942861e+000	 5.586320472117478e-001	 1.369402407773310e+001
 1.521761251201395e+000	 5.747098021728120e-001	 1.368293143405665e+001
 1.515602631988232e+000	 5.907600377699998e-001	 1.367343274800560e+001
 1.509260479851831e+000	 6.067797471939068e-001	 1.366630201703733e+001
 1.502734698558529e+000	 6.227659075345557e-001	 1.366248002897537e+001
 1.496025255847036e+000	 6.387154813818570e-001	 1.366309697728675e+001
 1.561244765034445e+000	 4.798932430032044e-001	 1.372637360246680e+001
 1.556161089889861e+000	 4.961304411711826e-001	 1.371513571426144e+001
 1.550895012799658e+000	 5.123548066554543e-001	 1.370345762351530e+001
 1.545446069161075e+000	 5.285634239776547e-001	 1.369154821611974e+001
 1.539813853416144e+000	 5.447533540141015e-001	 1.367968637319373e+001
 1.533998020018241e+000	 5.609216354132609e-001	 1.366823701050394e+001
 1.527998284360344e+000	 5.770652860535005e-001	 1.365766845464415e+001
 1.521814423663232e+000	 5.931813045400319e-001	 1.364857117773536e+001
 1.515446277821846e+000	 6.092666717398457e-001	 1.364167790501224e+001
 1.508893750208113e+000	 6.253183523533730e-001	 1.363788510154775e+001
 1.502156808428522e+000	 6.413332965214997e-001	 1.363827583554715e+001
 1.567617504761729e+000	 4.818520868726262e-001	 1.369847985081344e+001
 1.562513078906165e+000	 4.981555625650069e-001	 1.368785171869404e+001
 1.557225506570805e+000	 5.144461531928465e-001	 1.367681057232236e+001
 1.551754321256463e+000	 5.307209313772781e-001	 1.366553993830344e+001
 1.546099115749762e+000	 5.469769459976024e-001	 1.365428937835983e+001
 1.540259543093620e+000	 5.632112236145372e-001	 1.364339059722926e+001
 1.534235317519306e+000	 5.794207699339223e-001	 1.363327491943335e+001
 1.528026215338257e+000	 5.956025713097708e-001	 1.362449215864466e+001
 1.521632075791902e+000	 6.117535962854714e-001	 1.361773089587740e+001
 1.515052801857755e+000	 6.278707971718626e-001	 1.361384017448423e+001
 1.508288361010091e+000	 6.439511116608094e-001	 1.361385261096992e+001
 1.573990244489111e+000	 4.838109307419503e-001	 1.367173396468642e+001
 1.568865067922594e+000	 5.001806839587015e-001	 1.366168958231511e+001
 1.563556000342099e+000	 5.165374997300719e-001	 1.365125375751640e+001
 1.558062573352017e+000	 5.328784387766951e-001	 1.364058291143348e+001
 1.552384378083559e+000	 5.492005379808558e-001	 1.362989532793192e+001
 1.546521066169190e+000	 5.655008118155256e-001	 1.361948732543676e+001
 1.540472350678467e+000	 5.817762538140169e-001	 1.360975083040540e+001
 1.534238007013491e+000	 5.980238380791468e-001	 1.360119237819377e+001
 1.527817873762175e+000	 6.142405208307039e-001	 1.359445355946387e+001
 1.521211853507622e+000	 6.304232419899353e-001	 1.359033292190648e+001
 1.514419913591893e+000	 6.465689267996868e-001	 1.358980932793110e+001
 1.580362984216773e+000	 4.857697746111607e-001	 1.364613937432216e+001
 1.575217056939336e+000	 5.022058053522445e-001	 1.363665478609371e+001
 1.569886494113732e+000	 5.186288462671026e-001	 1.362679376263496e+001
 1.564370825447929e+000	 5.350359461758706e-001	 1.361668390155970e+001
 1.558669640417730e+000	 5.514241299638190e-001	 1.360651027846670e+001
 1.552782589245143e+000	 5.677904000161739e-001	 1.359653167800992e+001
 1.546709383838018e+000	 5.841317376937238e-001	 1.358709826002398e+001
 1.540449798689115e+000	 6.004451048480910e-001	 1.357867068855740e+001
 1.534003671732837e+000	 6.167274453754639e-001	 1.357184074394851e+001
 1.527370905157877e+000	 6.329756868075017e-001	 1.356735342957281e+001
 1.520551466174078e+000	 6.491867419380324e-001	 1.356613057561431e+001
 1.586735723944898e+000	 4.877286184802407e-001	 1.362170134795210e+001
 1.581569045956577e+000	 5.042309267456141e-001	 1.361275463124968e+001
 1.576216987885892e+000	 5.207201928039106e-001	 1.360343899058213e+001
 1.570679077544392e+000	 5.371934535747697e-001	 1.359385151051331e+001
 1.564954902752466e+000	 5.536477219464489e-001	 1.358414215643408e+001
 1.559044112321671e+000	 5.700799882164317e-001	 1.357453005998874e+001
 1.552946416998145e+000	 5.864872215729831e-001	 1.356532127363174e+001
 1.546661590365314e+000	 6.028663716165327e-001	 1.355692802432923e+001
 1.540189469704066e+000	 6.192143699196715e-001	 1.354988948859133e+001
 1.533529956808685e+000	 6.355281316244724e-001	 1.354489410238372e+001
 1.526683018756797e+000	 6.518045570757469e-001	 1.354280341003355e+001
 1.593108463673670e+000	 4.896874623491745e-001	 1.359842693627071e+001
 1.587921034974506e+000	 5.062560481387889e-001	 1.358999818093024e+001
 1.582547481658774e+000	 5.228115393404682e-001	 1.358119960218152e+001
 1.576987329641599e+000	 5.393509609733571e-001	 1.357209611101354e+001
 1.571240165087962e+000	 5.558713139287027e-001	 1.356280068956526e+001
 1.565305635398965e+000	 5.723695764162470e-001	 1.355349072585730e+001
 1.559183450159039e+000	 5.888427054517342e-001	 1.354442585238675e+001
 1.552873382042270e+000	 6.052876383844026e-001	 1.353596732082773e+001
 1.546375267676036e+000	 6.217012944632478e-001	 1.352859893714209e+001
 1.539689008460209e+000	 6.380805764407584e-001	 1.352294957263323e+001
 1.532814571340203e+000	 6.544223722127311e-001	 1.351981725688379e+001
 1.471499045518887e+000	 6.282442208219421e-001	 1.376681555583883e+001
 1.464720011230010e+000	 6.438909823881791e-001	 1.375769437655418e+001
 1.457760509832163e+000	 6.594957595617235e-001	 1.372516410502528e+001
 1.450620703404884e+000	 6.750555338987602e-001	 1.367416065233494e+001
 1.443300819400589e+000	 6.905672793443340e-001	 1.362126247436741e+001
 1.435801151140213e+000	 7.060279639552906e-001	 1.356978745485264e+001
 1.428122058255759e+000	 7.214345516481479e-001	 1.352087610092420e+001
 1.420263967078497e+000	 7.367840039700271e-001	 1.347563223205063e+001
 1.412227370971638e+000	 7.520732818907335e-001	 1.343511842030116e+001
 1.404012830606383e+000	 7.672993476139858e-001	 1.340035124188406e+001
 1.395620974180313e+000	 7.824591664057522e-001	 1.337229635037331e+001
 1.477630598101556e+000	 6.308620359619237e-001	 1.374016821542264e+001
 1.470823316424275e+000	 6.465739956277269e-001	 1.373105406760196e+001
 1.463834815654174e+000	 6.622437959570482e-001	 1.369803003459706e+001
 1.456665258546147e+000	 6.778684059286054e-001	 1.364829053075597e+001
 1.449314873500366e+000	 6.934447868782609e-001	 1.359777615460292e+001
 1.441783955059992e+000	 7.089698942291430e-001	 1.354845423867667e+001
 1.434072864355559e+000	 7.244406792467995e-001	 1.350142240291972e+001
 1.426182029494800e+000	 7.398540908175103e-001	 1.345774075945075e+001
 1.418111945896701e+000	 7.552070772478327e-001	 1.341842735934958e+001
 1.409863176568699e+000	 7.704965880833778e-001	 1.338445344628491e+001
 1.401436352325989e+000	 7.857195759447688e-001	 1.335673852723262e+001
 1.483762150683703e+000	 6.334798511019699e-001	 1.371401833264268e+001
 1.476926621618111e+000	 6.492570088673831e-001	 1.370476214204766e+001
 1.469909121475858e+000	 6.649918323525330e-001	 1.367107593901807e+001
 1.462709813687193e+000	 6.806812779586664e-001	 1.362317072249835e+001
 1.455328927600040e+000	 6.963222944124613e-001	 1.357499626926686e+001
 1.447766758979777e+000	 7.119118245033265e-001	 1.352776679003528e+001
 1.440023670455469e+000	 7.274468068458373e-001	 1.348253785891278e+001
 1.432100091911302e+000	 7.429241776654280e-001	 1.344032700412236e+001
 1.423996520822031e+000	 7.583408726054052e-001	 1.340210916323373e+001
 1.415713522531330e+000	 7.736938285532719e-001	 1.336881194017664e+001
 1.407251730471996e+000	 7.889799854843013e-001	 1.334131067409788e+001
 1.489893703265480e+000	 6.360976662419809e-001	 1.368833667545012e+001
 1.483029926811650e+000	 6.519400221070379e-001	 1.367878392716571e+001
 1.475983427297332e+000	 6.677398687480577e-001	 1.364431177390790e+001
 1.468754368828120e+000	 6.834941499888146e-001	 1.359879390513879e+001
 1.461342981699688e+000	 6.991998019467995e-001	 1.355291090083092e+001
 1.453749562899628e+000	 7.148537547776983e-001	 1.350771110130461e+001
 1.445974476555527e+000	 7.304529344451120e-001	 1.346420886602557e+001
 1.438018154328025e+000	 7.459942645136272e-001	 1.342338025065128e+001
 1.429881095747642e+000	 7.614746679632979e-001	 1.338615847265306e+001
 1.421563868494278e+000	 7.768910690235144e-001	 1.335342917302500e+001
 1.413067108618336e+000	 7.922403950241996e-001	 1.332602548393744e+001
 1.496025255847036e+000	 6.387154813818570e-001	 1.366309697728675e+001
 1.489133232005029e+000	 6.546230353465825e-001	 1.365308788504519e+001
 1.482057733118712e+000	 6.704879051435041e-001	 1.361819848197625e+001
 1.474798923969025e+000	 6.863070220189227e-001	 1.357515222772665e+001
 1.467357035799388e+000	 7.020773094811391e-001	 1.353150764730546e+001
 1.459732366819600e+000	 7.177956850521153e-001	 1.348827268550761e+001
 1.451925282655773e+000	 7.334590620444750e-001	 1.344642130818805e+001
 1.443936216744994e+000	 7.490643513619558e-001	 1.340688919770063e+001
 1.435765670673543e+000	 7.646084633213550e-001	 1.337056923086428e+001
 1.427414214457547e+000	 7.800883094939519e-001	 1.333830674669045e+001
 1.418882486765009e+000	 7.955008045643135e-001	 1.331089461350452e+001
 1.502156808428522e+000	 6.413332965214997e-001	 1.363827583554715e+001
 1.495236537198382e+000	 6.573060485859074e-001	 1.362764550550828e+001
 1.488132038940116e+000	 6.732359415387536e-001	 1.359285953400378e+001
 1.480843479110006e+000	 6.891198940488619e-001	 1.355223728788447e+001
 1.473371089899215e+000	 7.049548170153438e-001	 1.351077359879094e+001
 1.465715170739753e+000	 7.207376153264335e-001	 1.346943655309444e+001
 1.457876088756247e+000	 7.364651896437771e-001	 1.342916053392144e+001
 1.449854279162232e+000	 7.521344382102602e-001	 1.339084193756609e+001
 1.441650245599747e+000	 7.677422586794240e-001	 1.335533466577083e+001
 1.433264560421141e+000	 7.832855499644303e-001	 1.332344540080894e+001
 1.424697864912015e+000	 7.987612141044927e-001	 1.329592867275848e+001
 1.508288361010091e+000	 6.439511116608094e-001	 1.361385261096992e+001
 1.501339842391843e+000	 6.599890618249034e-001	 1.360243120004488e+001
 1.494206344761659e+000	 6.759839779336863e-001	 1.356829281770354e+001
 1.486888034251159e+000	 6.919327660785050e-001	 1.353004011003990e+001
 1.479385143999247e+000	 7.078323245492770e-001	 1.349069531518911e+001
 1.471697974660143e+000	 7.236795456005103e-001	 1.345118718989156e+001
 1.463826894856989e+000	 7.394713172428699e-001	 1.341241133527913e+001
 1.455772341579763e+000	 7.552045250583886e-001	 1.337522593685832e+001
 1.447534820526264e+000	 7.708760540373491e-001	 1.334044727309041e+001
 1.439114906385063e+000	 7.864827904347969e-001	 1.330884499918118e+001
 1.430513243059354e+000	 8.020216236445870e-001	 1.328113721520650e+001
 1.514419913591893e+000	 6.465689267996868e-001	 1.358980932793110e+001
 1.507443147585549e+000	 6.626720750634609e-001	 1.357742219673429e+001
 1.500280650583457e+000	 6.787320143281838e-001	 1.354449554778451e+001
 1.492932589392580e+000	 6.947456381077229e-001	 1.350855112475709e+001
 1.485399198099562e+000	 7.107098320828028e-001	 1.347125880504103e+001
 1.477680778580827e+000	 7.266214758742019e-001	 1.343350853618605e+001
 1.469777700958038e+000	 7.424774448416041e-001	 1.339615792791267e+001
 1.461690403997612e+000	 7.582746119061881e-001	 1.336002801828032e+001
 1.453419395453107e+000	 7.740098493949766e-001	 1.332589880056866e+001
 1.444965252349315e+000	 7.896800309048969e-001	 1.329450451714173e+001
 1.436328621207025e+000	 8.052820331844464e-001	 1.326652872913959e+001
 1.520551466174078e+000	 6.491867419380324e-001	 1.356613057561431e+001
 1.513546452779633e+000	 6.653550883014709e-001	 1.355259843612621e+001
 1.506354956405627e+000	 6.814800507221271e-001	 1.352146424754256e+001
 1.498977144534367e+000	 6.975585101363886e-001	 1.348776014913643e+001
 1.491413252200236e+000	 7.135873396157850e-001	 1.345244950546037e+001
 1.483663582501865e+000	 7.295634061473652e-001	 1.341638396691310e+001
 1.475728507059432e+000	 7.454835724398310e-001	 1.338038393223034e+001
 1.467608466415802e+000	 7.613446987535060e-001	 1.334523434346949e+001
 1.459303970380288e+000	 7.771436447521523e-001	 1.331168023321091e+001
 1.450815598313903e+000	 7.928772713745778e-001	 1.328042202988075e+001
 1.442143999355031e+000	 8.085424427239210e-001	 1.325211062973770e+001
 1.526683018756797e+000	 6.518045570757469e-001	 1.354280341003355e+001
 1.519649757974229e+000	 6.680381015388242e-001	 1.352802751075182e+001
 1.512429262228287e+000	 6.842280871153971e-001	 1.349919473144594e+001
 1.505021699676617e+000	 7.003713821643733e-001	 1.346765636825288e+001
 1.497427306301345e+000	 7.164648471480870e-001	 1.343425226313080e+001
 1.489646386423312e+000	 7.325053364198568e-001	 1.339979627291581e+001
 1.481679313161213e+000	 7.484897000374020e-001	 1.336507235561814e+001
 1.473526528834358e+000	 7.644147856001899e-001	 1.333083039687364e+001
 1.465188545307817e+000	 7.802774401087216e-001	 1.329778177950225e+001
 1.456665944278828e+000	 7.960745118436855e-001	 1.326659470169058e+001
 1.447959377503370e+000	 8.118028522628601e-001	 1.323788925201964e+001
 1.532814571340203e+000	 6.544223722127311e-001	 1.351981725688379e+001
 1.525753063169474e+000	 6.707211147754112e-001	 1.350421166055501e+001
 1.518503568051552e+000	 6.869761235078752e-001	 1.347768208868722e+001
 1.511066254819426e+000	 7.031842541915490e-001	 1.344822831760325e+001
 1.503441360402968e+000	 7.193423546795729e-001	 1.341665131633806e+001
 1.495629190345228e+000	 7.354472666915337e-001	 1.338372764324734e+001
 1.487630119263421e+000	 7.514958276341680e-001	 1.335020557569328e+001
 1.479444591253303e+000	 7.674848724460874e-001	 1.331680097063283e+001
 1.471073120235707e+000	 7.834112354645308e-001	 1.328419285858883e+001
 1.462516290244094e+000	 7.992717523120667e-001	 1.325301877611240e+001
 1.453774755652043e+000	 8.150632618011136e-001	 1.322386984461382e+001
 1.395620974180313e+000	 7.824591664057522e-001	 1.337229635037331e+001
 1.387051199153357e+000	 7.975519670414789e-001	 1.334379143694492e+001
 1.378305516103771e+000	 8.125724465820544e-001	 1.330739403925729e+001
 1.369384758037725e+000	 8.275175901418119e-001	 1.326361188054780e+001
 1.360289825796497e+000	 8.423843933767854e-001	 1.321296875728677e+001
 1.351021687972676e+000	 8.571698643667016e-001	 1.315600026194209e+001
 1.341581380764360e+000	 8.718710255006921e-001	 1.309324929820393e+001
 1.331970007767004e+000	 8.864849153643604e-001	 1.302527993210284e+001
 1.322188739702620e+000	 9.010085906258275e-001	 1.295381640294460e+001
 1.312238814086172e+000	 9.154391279183470e-001	 1.287993356125533e+001
 1.302121534829085e+000	 9.297736257170631e-001	 1.280381239844011e+001
 1.401436352325989e+000	 7.857195759447688e-001	 1.335673852723262e+001
 1.392830868117783e+000	 8.008752663938653e-001	 1.332843897051975e+001
 1.384048742900173e+000	 8.159583343948758e-001	 1.329246387463876e+001
 1.375090813150366e+000	 8.309657524994859e-001	 1.324932384497005e+001
 1.365957983463345e+000	 8.458945038450078e-001	 1.319954584792863e+001
 1.356651226467707e+000	 8.607415840442136e-001	 1.314366883094955e+001
 1.347171582679268e+000	 8.755040030789069e-001	 1.308223912742834e+001
 1.337520160292034e+000	 8.901787871948502e-001	 1.301580566983201e+001
 1.327698134906279e+000	 9.047629807956737e-001	 1.294524122582356e+001
 1.317706749193543e+000	 9.192536483333296e-001	 1.287249651589894e+001
 1.307547312498496e+000	 9.336478761926755e-001	 1.279798467519688e+001
 1.407251730471996e+000	 7.889799854843013e-001	 1.334131067409788e+001
 1.398610537082528e+000	 8.041985657467651e-001	 1.331308624021850e+001
 1.389791969696849e+000	 8.193442222081938e-001	 1.327740478733099e+001
 1.380796868263218e+000	 8.344139148576278e-001	 1.323478137848680e+001
 1.371626141130321e+000	 8.494046143136590e-001	 1.318574765734778e+001
 1.362280764962774e+000	 8.643133037221088e-001	 1.313084736109757e+001
 1.352761784594115e+000	 8.791369806574538e-001	 1.307063161070787e+001
 1.343070312816907e+000	 8.938726590256205e-001	 1.300565400217014e+001
 1.333207530109690e+000	 9.085173709657479e-001	 1.293646561721568e+001
 1.323174684300590e+000	 9.230681687484917e-001	 1.286465661542808e+001
 1.312973090167526e+000	 9.375221266684231e-001	 1.279156067933099e+001
 1.413067108618336e+000	 7.922403950241996e-001	 1.332602548393744e+001
 1.404390206047592e+000	 8.075218651000345e-001	 1.329775708961332e+001
 1.395535196493812e+000	 8.227301100218739e-001	 1.326225115022924e+001
 1.386502923376301e+000	 8.378620772161132e-001	 1.322002874747916e+001
 1.377294298797461e+000	 8.529147247826278e-001	 1.317162769604387e+001
 1.367910303457928e+000	 8.678850234002892e-001	 1.311759794515210e+001
 1.358351986508967e+000	 8.827699582362498e-001	 1.305849674979497e+001
 1.348620465341704e+000	 8.975665308566001e-001	 1.299488363561028e+001
 1.338716925312952e+000	 9.122717611359928e-001	 1.292731518425559e+001
 1.328642619407423e+000	 9.268826891637870e-001	 1.285656974072074e+001
 1.318398867836291e+000	 9.413963771442714e-001	 1.278469808519309e+001
 1.418882486765009e+000	 7.955008045643135e-001	 1.331089461350452e+001
 1.410169875012980e+000	 8.108451644535302e-001	 1.328247412396330e+001
 1.401278423291070e+000	 8.261159978357805e-001	 1.324703590732422e+001
 1.392208978489639e+000	 8.413102395748180e-001	 1.320510861052962e+001
 1.382962456464800e+000	 8.564248352518021e-001	 1.315723769971332e+001
 1.373539841953220e+000	 8.714567430786561e-001	 1.310398074615334e+001
 1.363942188423892e+000	 8.864029358152089e-001	 1.304590247407085e+001
 1.354170617866511e+000	 9.012604026877193e-001	 1.298356959470507e+001
 1.344226320516161e+000	 9.160261513063513e-001	 1.291754545397968e+001
 1.334110554514149e+000	 9.306972095791719e-001	 1.284838452388150e+001
 1.323824645504908e+000	 9.452706276201872e-001	 1.277755437925294e+001
 1.424697864912015e+000	 7.987612141044927e-001	 1.329592867275848e+001
 1.415949543978694e+000	 8.141684638071076e-001	 1.326725870391333e+001
 1.407021650088633e+000	 8.295018856497785e-001	 1.323179057140322e+001
 1.397915033603250e+000	 8.447584019336178e-001	 1.319006201984366e+001
 1.388630614132374e+000	 8.599349457210699e-001	 1.314262763410402e+001
 1.379169380448703e+000	 8.750284627571104e-001	 1.309005400541145e+001
 1.369532390338960e+000	 8.900359133942477e-001	 1.303291465138363e+001
 1.359720770391410e+000	 9.049542745189065e-001	 1.297178471484080e+001
 1.349735715719415e+000	 9.197805414767666e-001	 1.290723546921920e+001
 1.339578489620878e+000	 9.345117299946012e-001	 1.283982866129522e+001
 1.329250423173492e+000	 9.491448780961367e-001	 1.277028671170842e+001
 1.430513243059354e+000	 8.020216236445870e-001	 1.328113721520650e+001
 1.421729212944737e+000	 8.174917631606233e-001	 1.325213094001881e+001
 1.412764876886513e+000	 8.328877734637328e-001	 1.321654522248809e+001
 1.403621088717157e+000	 8.482065642923887e-001	 1.317492842332561e+001
 1.394298771800219e+000	 8.634450561903191e-001	 1.312784570044749e+001
 1.384798918944425e+000	 8.786001824355540e-001	 1.307587405100843e+001
 1.375122592254236e+000	 8.936688909732813e-001	 1.301959709932908e+001
 1.365270922916484e+000	 9.086481463500917e-001	 1.295959965599998e+001
 1.355245110922812e+000	 9.235349316471814e-001	 1.289646207649772e+001
 1.345046424727719e+000	 9.383262504100308e-001	 1.283075445062544e+001
 1.334676200842162e+000	 9.530191285720863e-001	 1.276303065695105e+001
 1.436328621207025e+000	 8.052820331844464e-001	 1.326652872913959e+001
 1.427508881911111e+000	 8.208150625139330e-001	 1.323710968807272e+001
 1.418508103684719e+000	 8.362736612775090e-001	 1.320132850698910e+001
 1.409327143831382e+000	 8.516547266510055e-001	 1.315974566728951e+001
 1.399966929468371e+000	 8.669551666594381e-001	 1.311293834145216e+001
 1.390428457440441e+000	 8.821719021138889e-001	 1.306149530679245e+001
 1.380712794169788e+000	 8.973018685522239e-001	 1.300601159696061e+001
 1.370821075441817e+000	 9.123420181812034e-001	 1.294708291689751e+001
 1.360754506126449e+000	 9.272893218175381e-001	 1.288529985011220e+001
 1.350514359834781e+000	 9.421407708254155e-001	 1.282124189020508e+001
 1.340101978511031e+000	 9.568933790480022e-001	 1.275547133150830e+001
 1.442143999355031e+000	 8.085424427239210e-001	 1.325211062973770e+001
 1.433288550877820e+000	 8.241383618668932e-001	 1.322221254521202e+001
 1.424251330483261e+000	 8.396595490909711e-001	 1.318616763755485e+001
 1.415033198945946e+000	 8.551028890093451e-001	 1.314454999978808e+001
 1.405635087136863e+000	 8.704652771283146e-001	 1.309795024784092e+001
 1.396057995936800e+000	 8.857436217920154e-001	 1.304697030185064e+001
 1.386302996085685e+000	 9.009348461309924e-001	 1.299221789691723e+001
 1.376371227967492e+000	 9.160358900121718e-001	 1.293430084947999e+001
 1.366263901330424e+000	 9.310437119877798e-001	 1.287382110871564e+001
 1.355982294942172e+000	 9.459552912407105e-001	 1.281136862550640e+001
 1.345527756180218e+000	 9.607676295238505e-001	 1.274751507456193e+001
 1.447959377503370e+000	 8.118028522628601e-001	 1.323788925201964e+001
 1.439068219844865e+000	 8.274616612193595e-001	 1.320745584678244e+001
 1.429994557282150e+000	 8.430454369039845e-001	 1.317108839359809e+001
 1.420739254060870e+000	 8.585510513672825e-001	 1.312937607454125e+001
 1.411303244805733e+000	 8.739753875968371e-001	 1.308292436541923e+001
 1.401687534433554e+000	 8.893153414698360e-001	 1.303234968044664e+001
 1.391893198001993e+000	 9.045678237095013e-001	 1.297827373795752e+001
 1.381921380493594e+000	 9.197297618429259e-001	 1.292131767377778e+001
 1.371773296534834e+000	 9.347981021578489e-001	 1.286209593220515e+001
 1.361450230050001e+000	 9.497698116558712e-001	 1.280120996777958e+001
 1.350953533849838e+000	 9.646418799995978e-001	 1.273924179415575e+001
 1.453774755652043e+000	 8.150632618011136e-001	 1.322386984461382e+001
 1.444847888812251e+000	 8.307849605711887e-001	 1.319285466393920e+001
 1.435737784081395e+000	 8.464313247164139e-001	 1.315611512247921e+001
 1.426445309176177e+000	 8.619992137246938e-001	 1.311425695544877e+001
 1.416971402475017e+000	 8.774854980648936e-001	 1.306790190265761e+001
 1.407317072930754e+000	 8.928870611472519e-001	 1.301768221241024e+001
 1.397483399918780e+000	 9.082008012876665e-001	 1.296423485788782e+001
 1.387471533020204e+000	 9.234236336733949e-001	 1.290819549309999e+001
 1.377282691739777e+000	 9.385524923276887e-001	 1.285019217890719e+001
 1.366918165158378e+000	 9.535843320708535e-001	 1.279083891294819e+001
 1.356379311520008e+000	 9.685161304752106e-001	 1.273072900052063e+001
 1.302121534829085e+000	 9.297736257170631e-001	 1.280381239844012e+001
 1.291838271412590e+000	 9.440092058928340e-001	 1.272753126101238e+001
 1.281390457273991e+000	 9.581430146068060e-001	 1.265251474102756e+001
 1.270779590343483e+000	 9.721722250661671e-001	 1.257768868573278e+001
 1.260007232770287e+000	 9.860940396648253e-001	 1.250177130361403e+001
 1.249075010217361e+000	 9.999056917964071e-001	 1.242328409536794e+001
 1.237984611095045e+000	 1.013604447646933e+000	 1.234056503519524e+001
 1.226737785734286e+000	 1.027187607964766e+000	 1.225178244368033e+001
 1.215336345500255e+000	 1.040652509805476e+000	 1.215495254535986e+001
 1.203782161847228e+000	 1.053996528249277e+000	 1.204795740067347e+001
 1.192077165315749e+000	 1.067217078088745e+000	 1.192856484154514e+001
 1.307547312498496e+000	 9.336478761926755e-001	 1.279798467519688e+001
 1.297221200008832e+000	 9.479427742517655e-001	 1.272350166423219e+001
 1.286729851134805e+000	 9.621354767801472e-001	 1.265017523085433e+001
 1.276074770048297e+000	 9.762231452061034e-001	 1.257694120542572e+001
 1.265257525407802e+000	 9.902029702662547e-001	 1.250252350172344e+001
 1.254279749650210e+000	 1.004072173826112e+000	 1.242544523410133e+001
 1.243143138221249e+000	 1.017828010680223e+000	 1.234404224156774e+001
 1.231849448745274e+000	 1.031467770329494e+000	 1.225647681832372e+001
 1.220400500135180e+000	 1.044988778733324e+000	 1.216075632741720e+001
 1.208798171643360e+000	 1.058388400034204e+000	 1.205475102576282e+001
 1.197044401854670e+000	 1.071664038252461e+000	 1.193621458170144e+001
 1.312973090167526e+000	 9.375221266684231e-001	 1.279156067933099e+001
 1.302604128604659e+000	 9.518763426107960e-001	 1.271869691721969e+001
 1.292069244995194e+000	 9.661279389535573e-001	 1.264690077969675e+001
 1.281369949752692e+000	 9.802740653460861e-001	 1.257511839285670e+001
 1.270507818044919e+000	 9.943119008677132e-001	 1.250207946799899e+001
 1.259484489082694e+000	 1.008238655855835e+000	 1.242630860767261e+001
 1.248301665347130e+000	 1.022051573713523e+000	 1.234613916496506e+001
 1.236961111755985e+000	 1.035747932694226e+000	 1.225972688651334e+001
 1.225464654769880e+000	 1.049325047661174e+000	 1.216506951274165e+001
 1.213814181439313e+000	 1.062780271819132e+000	 1.206002455779083e+001
 1.202011638393457e+000	 1.076110998416176e+000	 1.194233040524729e+001
 1.318398867836291e+000	 9.413963771442714e-001	 1.278469808519309e+001
 1.307987057200190e+000	 9.558099109698998e-001	 1.271327613624363e+001
 1.297408638855273e+000	 9.701204011270199e-001	 1.264285182580535e+001
 1.286665129456777e+000	 9.843249854861029e-001	 1.257238190780569e+001
 1.275758110681742e+000	 9.984208314691937e-001	 1.250060199874604e+001
 1.264689228514906e+000	 1.012405137885569e+000	 1.242603846554643e+001
 1.253460192472771e+000	 1.026275136746828e+000	 1.234702066225581e+001
 1.242072774766491e+000	 1.040028095058960e+000	 1.226169843916340e+001
 1.230528809404411e+000	 1.053661316589025e+000	 1.216805876323454e+001
 1.218830191235135e+000	 1.067172143604060e+000	 1.206394546246678e+001
 1.206978874932142e+000	 1.080557958579892e+000	 1.194708050679222e+001
 1.323824645504908e+000	 9.452706276201872e-001	 1.277755437925294e+001
 1.313369985795545e+000	 9.597434793290529e-001	 1.270739810416895e+001
 1.302748032715160e+000	 9.741128633005165e-001	 1.263818834867052e+001
 1.291960309160667e+000	 9.883759056261438e-001	 1.256889284619805e+001
 1.281008403318373e+000	 1.002529762070689e+000	 1.249825324160130e+001
 1.269893967946941e+000	 1.016571619915313e+000	 1.242479726946174e+001
 1.258618719598252e+000	 1.030498699780137e+000	 1.234685083249834e+001
 1.247184437776860e+000	 1.044308257423696e+000	 1.226255648476378e+001
 1.235592964038830e+000	 1.057997585516876e+000	 1.216988995336326e+001
 1.223846201030866e+000	 1.071564015388988e+000	 1.206668043230856e+001
 1.211946111470761e+000	 1.085004918743608e+000	 1.195063234082505e+001
 1.329250423173492e+000	 9.491448780961367e-001	 1.277028671170842e+001
 1.318752914390841e+000	 9.636770476882306e-001	 1.270122112266532e+001
 1.308087426574972e+000	 9.781053254740306e-001	 1.263306972186869e+001
 1.297255488864473e+000	 9.924268257661957e-001	 1.256481159362854e+001
 1.286258695954919e+000	 1.006638692672191e+000	 1.249519454977851e+001
 1.275098707378892e+000	 1.020738101945060e+000	 1.242274758988502e+001
 1.263777246723657e+000	 1.034722262813450e+000	 1.234579287277231e+001
 1.252296100787163e+000	 1.048588419788433e+000	 1.226246510607700e+001
 1.240657118673191e+000	 1.062333854444727e+000	 1.217072802777500e+001
 1.228862210826554e+000	 1.075955887173916e+000	 1.206839524522431e+001
 1.216913348009347e+000	 1.089451878907324e+000	 1.195315248131526e+001
 1.334676200842162e+000	 9.530191285720863e-001	 1.276303065695105e+001
 1.324135842986200e+000	 9.676106160474087e-001	 1.269490286463204e+001
 1.313426820434828e+000	 9.820977876475449e-001	 1.262765456609458e+001
 1.302550668568309e+000	 9.964777459062482e-001	 1.256029767904556e+001
 1.291508988591483e+000	 1.010747623273693e+000	 1.249158688454884e+001
 1.280303446810855e+000	 1.024904583974808e+000	 1.242005071218879e+001
 1.268935773849067e+000	 1.038945825846762e+000	 1.234400893411080e+001
 1.257407763797467e+000	 1.052868582153170e+000	 1.226158731692145e+001
 1.245721273307554e+000	 1.066670123372579e+000	 1.217073685898431e+001
 1.233878220622241e+000	 1.080347758958844e+000	 1.206925462315911e+001
 1.221880584547932e+000	 1.093898839071040e+000	 1.195480648137341e+001
 1.340101978511031e+000	 9.568933790480022e-001	 1.275547133150830e+001
 1.329518771581738e+000	 9.715441844065615e-001	 1.268860022683420e+001
 1.318766214294844e+000	 9.860902498210419e-001	 1.262210060237576e+001
 1.307845848272286e+000	 1.000528666046288e+000	 1.255550962859161e+001
 1.296759281228171e+000	 1.014856553875189e+000	 1.248758856426119e+001
 1.285508186242921e+000	 1.029071066004551e+000	 1.241686677382987e+001
 1.274094300974564e+000	 1.043169388880072e+000	 1.234165997752797e+001
 1.262519426807842e+000	 1.057148744517906e+000	 1.226008491903654e+001
 1.250785427941975e+000	 1.071006392300430e+000	 1.217007910513286e+001
 1.238894230417973e+000	 1.084739630743772e+000	 1.206942209080568e+001
 1.226847821086551e+000	 1.098345799234756e+000	 1.195575873297069e+001
 1.345527756180218e+000	 9.607676295238505e-001	 1.274751507456193e+001
 1.334901700177577e+000	 9.754777527656657e-001	 1.268244051294516e+001
 1.324105608155139e+000	 9.900827119945039e-001	 1.261656450546317e+001
 1.313141027976517e+000	 1.004579586186306e+000	 1.255060481959435e+001
 1.302009573865084e+000	 1.018965484476669e+000	 1.248335813588366e+001
 1.290712925675187e+000	 1.033237548034286e+000	 1.241335461970543e+001
 1.279252828100232e+000	 1.047392951913377e+000	 1.233890563014121e+001
 1.267631089818360e+000	 1.061428906882640e+000	 1.225811835902907e+001
 1.255849582576509e+000	 1.075342661228281e+000	 1.216891606781841e+001
 1.243910240213795e+000	 1.089131502528700e+000	 1.206905983437690e+001
 1.231815057625237e+000	 1.102792759398472e+000	 1.195617232671401e+001
 1.350953533849838e+000	 9.646418799995978e-001	 1.273924179415575e+001
 1.340284628773834e+000	 9.794113211246958e-001	 1.267609934286410e+001
 1.329445002015830e+000	 9.940751741679142e-001	 1.261120175739344e+001
 1.318436207681113e+000	 1.008630506326288e+000	 1.254573933470538e+001
 1.307259866502329e+000	 1.023074415078128e+000	 1.247905232075419e+001
 1.295917665107744e+000	 1.037404030064008e+000	 1.240967165761605e+001
 1.284411355226151e+000	 1.051616514946676e+000	 1.233590404138414e+001
 1.272742752829088e+000	 1.065709069247372e+000	 1.225584658539697e+001
 1.260913737211214e+000	 1.079678930156131e+000	 1.216740754999218e+001
 1.248926250009749e+000	 1.093523374313627e+000	 1.206832856043821e+001
 1.236782294164024e+000	 1.107239719562188e+000	 1.195620891167753e+001
 1.356379311520008e+000	 9.685161304752106e-001	 1.273072900052063e+001
 1.345667557370631e+000	 9.833448894836275e-001	 1.266950435966347e+001
 1.334784395877035e+000	 9.980676363412555e-001	 1.260614199664689e+001
 1.323731387386189e+000	 1.012681426466225e+000	 1.254106862484164e+001
 1.312510159140009e+000	 1.027183345679557e+000	 1.247482631895847e+001
 1.301122404540689e+000	 1.041570512093714e+000	 1.240597371383297e+001
 1.289569882352404e+000	 1.055840077979967e+000	 1.233281173930828e+001
 1.277854415840096e+000	 1.069989231612100e+000	 1.225342690562944e+001
 1.265977891846146e+000	 1.084015199083979e+000	 1.216571171392143e+001
 1.253942259805881e+000	 1.097915246098555e+000	 1.206738735479864e+001
 1.241749530702945e+000	 1.111686679725904e+000	 1.195602855528633e+001
 1.192077165315749e+000	 1.067217078088745e+000	 1.192856484154514e+001
 1.180225133691511e+000	 1.080309661145249e+000	 1.180656588755534e+001
 1.168226368000712e+000	 1.093273770847345e+000	 1.169161904239595e+001
 1.156082969537323e+000	 1.106106953056207e+000	 1.158124928482426e+001
 1.143797094061159e+000	 1.118806799749355e+000	 1.147296395243473e+001
 1.131370950524538e+000	 1.131370950524538e+000	 1.136427794667569e+001
 1.118806799749355e+000	 1.143797094061159e+000	 1.125273956459800e+001
 1.106106953056207e+000	 1.156082969537324e+000	 1.113595676273916e+001
 1.093273770847345e+000	 1.168226368000712e+000	 1.101162365180278e+001
 1.080309661145249e+000	 1.180225133691511e+000	 1.087754701560311e+001
 1.067217078088744e+000	 1.192077165315749e+000	 1.073167264416203e+001
 1.197044401854670e+000	 1.071664038252461e+000	 1.193621458170144e+001
 1.185142984296360e+000	 1.084811176466104e+000	 1.181499910344907e+001
 1.173094221248963e+000	 1.097829305992875e+000	 1.170085023273266e+001
 1.160900222762272e+000	 1.110715962467861e+000	 1.159131568713425e+001
 1.148563153578878e+000	 1.123468727834659e+000	 1.148392551560362e+001
 1.136085231855524e+000	 1.136085231855524e+000	 1.137621785920334e+001
 1.123468727834659e+000	 1.148563153578878e+000	 1.126576536321590e+001
 1.110715962467860e+000	 1.160900222762272e+000	 1.115020204124282e+001
 1.097829305992875e+000	 1.173094221248962e+000	 1.102725038496021e+001
 1.084811176466104e+000	 1.185142984296360e+000	 1.089474850781290e+001
 1.071664038252461e+000	 1.197044401854670e+000	 1.075067710720228e+001
 1.202011638393457e+000	 1.076110998416176e+000	 1.194233040524729e+001
 1.190060834901111e+000	 1.089312691786960e+000	 1.182189990092048e+001
 1.177962074497144e+000	 1.102384841138404e+000	 1.170856477867018e+001
 1.165717475987175e+000	 1.115324971879510e+000	 1.159989312507281e+001
 1.153329213096569e+000	 1.128130655919955e+000	 1.149343523755113e+001
 1.140799513186493e+000	 1.140799513186493e+000	 1.138674995781694e+001
 1.128130655919955e+000	 1.153329213096568e+000	 1.127743168215694e+001
 1.115324971879511e+000	 1.165717475987175e+000	 1.116313784431693e+001
 1.102384841138404e+000	 1.177962074497144e+000	 1.104161665953100e+001
 1.089312691786960e+000	 1.190060834901111e+000	 1.091073491267673e+001
 1.076110998416176e+000	 1.202011638393457e+000	 1.076850556965299e+001
 1.206978874932142e+000	 1.080557958579892e+000	 1.194708050679221e+001
 1.194978685505789e+000	 1.093814207107816e+000	 1.182743726119787e+001
 1.182829927745275e+000	 1.106940376283932e+000	 1.171493264209888e+001
 1.170534729212043e+000	 1.119933981291159e+000	 1.160715272766145e+001
 1.158095272614237e+000	 1.132792584005244e+000	 1.150166559020869e+001
 1.145513794517449e+000	 1.145513794517449e+000	 1.139604821956488e+001
 1.132792584005244e+000	 1.158095272614237e+000	 1.128791414960122e+001
 1.119933981291158e+000	 1.170534729212043e+000	 1.117494157874247e+001
 1.106940376283932e+000	 1.182829927745275e+000	 1.105490176775968e+001
 1.093814207107815e+000	 1.194978685505789e+000	 1.092568749239933e+001
 1.080557958579892e+000	 1.206978874932142e+000	 1.078534132436400e+001
 1.211946111470761e+000	 1.085004918743608e+000	 1.195063234082505e+001
 1.199896536110419e+000	 1.098315722428671e+000	 1.183177947442727e+001
 1.187697780993371e+000	 1.111495911429459e+000	 1.172012315580685e+001
 1.175351982436888e+000	 1.124542990702804e+000	 1.161326506895534e+001
 1.162861332131892e+000	 1.137454512090529e+000	 1.150878857599010e+001
 1.150228075848397e+000	 1.150228075848397e+000	 1.140428624784684e+001
 1.137454512090529e+000	 1.162861332131891e+000	 1.129738812542031e+001
 1.124542990702804e+000	 1.175351982436888e+000	 1.118579049681440e+001
 1.111495911429459e+000	 1.187697780993371e+000	 1.106728496867644e+001
 1.098315722428672e+000	 1.199896536110419e+000	 1.093978760362106e+001
 1.085004918743608e+000	 1.211946111470761e+000	 1.080136789154507e+001
 1.216913348009347e+000	 1.089451878907324e+000	 1.195315248131526e+001
 1.204814386715023e+000	 1.102817237749527e+000	 1.183509400039263e+001
 1.192565634241450e+000	 1.116051446574986e+000	 1.172430488546937e+001
 1.180169235661721e+000	 1.129152000114449e+000	 1.161840003145516e+001
 1.167627391649538e+000	 1.142116440175812e+000	 1.151497559278244e+001
 1.154942357179341e+000	 1.154942357179341e+000	 1.141163713913664e+001
 1.142116440175812e+000	 1.167627391649538e+000	 1.130602856979364e+001
 1.129152000114449e+000	 1.180169235661721e+000	 1.119586156700970e+001
 1.116051446574986e+000	 1.192565634241450e+000	 1.107894536097636e+001
 1.102817237749527e+000	 1.204814386715024e+000	 1.095321657266843e+001
 1.089451878907324e+000	 1.216913348009347e+000	 1.081676889654829e+001
 1.221880584547932e+000	 1.093898839071040e+000	 1.195480648137341e+001
 1.209732237319628e+000	 1.107318753070382e+000	 1.183754732929186e+001
 1.197433487489529e+000	 1.120606981720514e+000	 1.172764549169114e+001
 1.184986488886555e+000	 1.133761009526094e+000	 1.162272666956803e+001
 1.172393451167185e+000	 1.146778368261094e+000	 1.152039729897962e+001
 1.159656638510284e+000	 1.159656638510284e+000	 1.141827334974801e+001
 1.146778368261095e+000	 1.172393451167185e+000	 1.131400991186137e+001
 1.133761009526094e+000	 1.184986488886555e+000	 1.120533134468769e+001
 1.120606981720514e+000	 1.197433487489529e+000	 1.109006175592659e+001
 1.107318753070383e+000	 1.209732237319629e+000	 1.096615557082790e+001
 1.093898839071040e+000	 1.221880584547932e+000	 1.083172794766650e+001
 1.226847821086551e+000	 1.098345799234756e+000	 1.195575873297069e+001
 1.214650087924258e+000	 1.111820268391238e+000	 1.183930484256763e+001
 1.202301340737625e+000	 1.125162516866041e+000	 1.173031159209912e+001
 1.189803742111400e+000	 1.138370018937739e+000	 1.162641307311574e+001
 1.177159510684839e+000	 1.151440296346380e+000	 1.152522347856140e+001
 1.164370919841233e+000	 1.164370919841232e+000	 1.142436656263931e+001
 1.151440296346380e+000	 1.177159510684839e+000	 1.132150591841465e+001
 1.138370018937740e+000	 1.189803742111400e+000	 1.121437584282253e+001
 1.125162516866041e+000	 1.202301340737625e+000	 1.110081255030001e+001
 1.111820268391238e+000	 1.214650087924257e+000	 1.097878548963886e+001
 1.098345799234756e+000	 1.226847821086551e+000	 1.084642851394536e+001
 1.231815057625237e+000	 1.102792759398472e+000	 1.195617232671401e+001
 1.219567938528936e+000	 1.116321783712094e+000	 1.184053067379082e+001
 1.207169193985755e+000	 1.129718052011569e+000	 1.173246862348478e+001
 1.194620995336268e+000	 1.142979028349387e+000	 1.162962623088886e+001
 1.181925570202508e+000	 1.156102224431669e+000	 1.152962290621420e+001
 1.169085201172189e+000	 1.169085201172189e+000	 1.143008755425850e+001
 1.156102224431669e+000	 1.181925570202508e+000	 1.132868956262051e+001
 1.142979028349387e+000	 1.194620995336268e+000	 1.122317040276700e+001
 1.129718052011569e+000	 1.207169193985755e+000	 1.111137559933510e+001
 1.116321783712094e+000	 1.219567938528936e+000	 1.099128681620802e+001
 1.102792759398472e+000	 1.231815057625237e+000	 1.086105380300897e+001
 1.236782294164024e+000	 1.107239719562188e+000	 1.195620891167753e+001
 1.224485789133687e+000	 1.120823299032949e+000	 1.184138756959576e+001
 1.212037047233937e+000	 1.134273587157098e+000	 1.173428070399482e+001
 1.199438248561171e+000	 1.147588037761037e+000	 1.163253189424622e+001
 1.186691629720198e+000	 1.160764152516964e+000	 1.153376321249437e+001
 1.173799482503158e+000	 1.173799482503158e+000	 1.143560606142505e+001
 1.160764152516964e+000	 1.186691629720198e+000	 1.133573289278073e+001
 1.147588037761037e+000	 1.199438248561170e+000	 1.123188956504526e+001
 1.134273587157098e+000	 1.212037047233937e+000	 1.112192808972100e+001
 1.120823299032949e+000	 1.224485789133687e+000	 1.100383950854345e+001
 1.107239719562188e+000	 1.236782294164024e+000	 1.087578663889876e+001
 1.241749530702945e+000	 1.111686679725904e+000	 1.195602855528633e+001
 1.229403639738536e+000	 1.125324814353805e+000	 1.184203675066498e+001
 1.216904900482188e+000	 1.138829122302628e+000	 1.173591049536785e+001
 1.204255501786119e+000	 1.152197047172691e+000	 1.163529444075709e+001
 1.191457689237918e+000	 1.165426080602269e+000	 1.153781074903080e+001
 1.178513763834143e+000	 1.178513763834143e+000	 1.144109064825023e+001
 1.165426080602269e+000	 1.191457689237918e+000	 1.134280690112508e+001
 1.152197047172691e+000	 1.204255501786119e+000	 1.124070694017605e+001
 1.138829122302628e+000	 1.216904900482188e+000	 1.113264641260714e+001
 1.125324814353805e+000	 1.229403639738537e+000	 1.101662287090701e+001
 1.111686679725904e+000	 1.241749530702945e+000	 1.089080933992563e+001
 1.067217078088744e+000	 1.192077165315749e+000	 1.073167264416203e+001
 1.053996528249277e+000	 1.203782161847228e+000	 1.058017703887087e+001
 1.040652509805476e+000	 1.215336345500255e+000	 1.042941859054560e+001
 1.027187607964766e+000	 1.226737785734287e+000	 1.027784125381264e+001
 1.013604447646933e+000	 1.237984611095045e+000	 1.012413950371125e+001
 9.999056917964071e-001	 1.249075010217361e+000	 9.967270368279957e+000
 9.860940396648253e-001	 1.260007232770287e+000	 9.806512745156882e+000
 9.721722250661673e-001	 1.270779590343483e+000	 9.641429564732333e+000
 9.581430146068056e-001	 1.281390457273991e+000	 9.471921740054572e+000
 9.440092058928338e-001	 1.291838271412590e+000	 9.298234243393413e+000
 9.297736257170630e-001	 1.302121534829085e+000	 9.120969041566839e+000
 1.071664038252461e+000	 1.197044401854670e+000	 1.075067710720228e+001
 1.058388400034204e+000	 1.208798171643360e+000	 1.060129353865011e+001
 1.044988778733324e+000	 1.220400500135181e+000	 1.045290890464763e+001
 1.031467770329494e+000	 1.231849448745274e+000	 1.030381371209242e+001
 1.017828010680223e+000	 1.243143138221250e+000	 1.015254967245554e+001
 1.004072173826113e+000	 1.254279749650210e+000	 9.997923071155855e+000
 9.902029702662547e-001	 1.265257525407803e+000	 9.839063526580851e+000
 9.762231452061034e-001	 1.276074770048297e+000	 9.675389291429687e+000
 9.621354767801471e-001	 1.286729851134806e+000	 9.506660611814979e+000
 9.479427742517657e-001	 1.297221200008832e+000	 9.332987008733991e+000
 9.336478761926755e-001	 1.307547312498496e+000	 9.154841010672604e+000
 1.076110998416176e+000	 1.202011638393457e+000	 1.076850556965299e+001
 1.062780271819132e+000	 1.213814181439313e+000	 1.062123699751014e+001
 1.049325047661174e+000	 1.225464654769881e+000	 1.047516297623495e+001
 1.035747932694225e+000	 1.236961111755985e+000	 1.032841767765951e+001
 1.022051573713522e+000	 1.248301665347130e+000	 1.017938717631851e+001
 1.008238655855835e+000	 1.259484489082694e+000	 1.002672417664836e+001
 9.943119008677130e-001	 1.270507818044919e+000	 9.869406247933442e+000
 9.802740653460859e-001	 1.281369949752691e+000	 9.706704269102772e+000
 9.661279389535574e-001	 1.292069244995194e+000	 9.538235231782457e+000
 9.518763426107957e-001	 1.302604128604659e+000	 9.363970744868018e+000
 9.375221266684231e-001	 1.312973090167526e+000	 9.184251585169990e+000
 1.080557958579892e+000	 1.206978874932142e+000	 1.078534132436400e+001
 1.067172143604060e+000	 1.218830191235134e+000	 1.064019249131396e+001
 1.053661316589025e+000	 1.230528809404411e+000	 1.049636710975049e+001
 1.040028095058960e+000	 1.242072774766491e+000	 1.035184010771763e+001
 1.026275136746828e+000	 1.253460192472771e+000	 1.020483902848827e+001
 1.012405137885570e+000	 1.264689228514906e+000	 1.005386896526051e+001
 9.984208314691935e-001	 1.275758110681741e+000	 9.897726163418872e+000
 9.843249854861030e-001	 1.286665129456777e+000	 9.735557901124357e+000
 9.701204011270196e-001	 1.297408638855273e+000	 9.566826482848496e+000
 9.558099109698999e-001	 1.307987057200191e+000	 9.391363130715858e+000
 9.413963771442712e-001	 1.318398867836291e+000	 9.209374545060264e+000
 1.085004918743608e+000	 1.211946111470761e+000	 1.080136789154507e+001
 1.071564015388988e+000	 1.223846201030866e+000	 1.065834546502178e+001
 1.057997585516876e+000	 1.235592964038829e+000	 1.051670813271137e+001
 1.044308257423696e+000	 1.247184437776860e+000	 1.037426864750687e+001
 1.030498699780138e+000	 1.258618719598252e+000	 1.022909310485657e+001
 1.016571619915313e+000	 1.269893967946941e+000	 1.007952690816677e+001
 1.002529762070689e+000	 1.281008403318373e+000	 9.924209763271641e+000
 9.883759056261438e-001	 1.291960309160667e+000	 9.762135022852210e+000
 9.741128633005166e-001	 1.302748032715160e+000	 9.592616880302742e+000
 9.597434793290529e-001	 1.313369985795545e+000	 9.415343681149002e+000
 9.452706276201874e-001	 1.323824645504908e+000	 9.230385711673298e+000
 1.089451878907324e+000	 1.216913348009347e+000	 1.081676889654829e+001
 1.075955887173916e+000	 1.228862210826554e+000	 1.067588161307150e+001
 1.062333854444727e+000	 1.240657118673191e+000	 1.053637327865781e+001
 1.048588419788433e+000	 1.252296100787162e+000	 1.039589151579017e+001
 1.034722262813450e+000	 1.263777246723657e+000	 1.025233803201509e+001
 1.020738101945060e+000	 1.275098707378892e+000	 1.010389564036995e+001
 1.006638692672191e+000	 1.286258695954919e+000	 9.949044666687261e+000
 9.924268257661959e-001	 1.297255488864473e+000	 9.786621796987109e+000
 9.781053254740306e-001	 1.308087426574972e+000	 9.615790469591394e+000
 9.636770476882308e-001	 1.318752914390842e+000	 9.436093647120403e+000
 9.491448780961366e-001	 1.329250423173492e+000	 9.247462850147343e+000
 1.093898839071040e+000	 1.221880584547932e+000	 1.083172794766650e+001
 1.080347758958844e+000	 1.233878220622241e+000	 1.069298675976819e+001
 1.066670123372579e+000	 1.245721273307555e+000	 1.055555007010672e+001
 1.052868582153170e+000	 1.257407763797467e+000	 1.041689739034655e+001
 1.038945825846762e+000	 1.268935773849067e+000	 1.027476307526261e+001
 1.024904583974807e+000	 1.280303446810854e+000	 1.012716442286107e+001
 1.010747623273693e+000	 1.291508988591483e+000	 9.972428190194531e+000
 9.964777459062479e-001	 1.302550668568309e+000	 9.809205608968171e+000
 9.820977876475447e-001	 1.313426820434828e+000	 9.636532724125656e+000
 9.676106160474087e-001	 1.324135842986200e+000	 9.453795915862981e+000
 9.530191285720864e-001	 1.334676200842162e+000	 9.261006368443610e+000
 1.098345799234756e+000	 1.226847821086551e+000	 1.084642851394537e+001
 1.084739630743772e+000	 1.238894230417973e+000	 1.070984673968202e+001
 1.071006392300430e+000	 1.250785427941975e+000	 1.057442620151326e+001
 1.057148744517906e+000	 1.262519426807842e+000	 1.043747529347212e+001
 1.043169388880072e+000	 1.274094300974564e+000	 1.029655802662178e+001
 1.029071066004551e+000	 1.285508186242921e+000	 1.014952323389593e+001
 1.014856553875189e+000	 1.296759281228170e+000	 9.994532168419809e+000
 1.000528666046289e+000	 1.307845848272286e+000	 9.830074962404593e+000
 9.860902498210417e-001	 1.318766214294844e+000	 9.655030443140415e+000
 9.715441844065617e-001	 1.329518771581739e+000	 9.468634911153048e+000
 9.568933790480022e-001	 1.340101978511031e+000	 9.275913850254085e+000
 1.102792759398472e+000	 1.231815057625237e+000	 1.086105380300897e+001
 1.089131502528700e+000	 1.243910240213795e+000	 1.072664727805437e+001
 1.075342661228281e+000	 1.255849582576509e+000	 1.059318942223648e+001
 1.061428906882640e+000	 1.267631089818360e+000	 1.045781447748674e+001
 1.047392951913378e+000	 1.279252828100232e+000	 1.031791309286825e+001
 1.033237548034286e+000	 1.290712925675186e+000	 1.017116265952329e+001
 1.018965484476669e+000	 1.302009573865083e+000	 1.001555601664439e+001
 1.004579586186306e+000	 1.313141027976516e+000	 9.849419374543290e+000
 9.900827119945040e-001	 1.324105608155139e+000	 9.671471649601063e+000
 9.754777527656655e-001	 1.334901700177577e+000	 9.481089401807640e+000
 9.607676295238505e-001	 1.345527756180218e+000	 9.294224618093621e+000
 1.107239719562188e+000	 1.236782294164024e+000	 1.087578663889876e+001
 1.093523374313627e+000	 1.248926250009749e+000	 1.074357387121192e+001
 1.079678930156131e+000	 1.260913737211214e+000	 1.061202741951231e+001
 1.065709069247372e+000	 1.272742752829088e+000	 1.047810431024737e+001
 1.051616514946676e+000	 1.284411355226151e+000	 1.033901878356627e+001
 1.037404030064008e+000	 1.295917665107744e+000	 1.019227378412833e+001
 1.023074415078128e+000	 1.307259866502329e+000	 1.003569080023216e+001
 1.008630506326288e+000	 1.318436207681113e+000	 9.867429271769829e+000
 9.940751741679140e-001	 1.329445002015830e+000	 9.686045488157955e+000
 9.794113211246958e-001	 1.340284628773835e+000	 9.496016517934363e+000
 9.646418799995977e-001	 1.350953533849838e+000	 9.316056239600991e+000
 1.111686679725904e+000	 1.241749530702945e+000	 1.089080933992564e+001
 1.097915246098555e+000	 1.253942259805881e+000	 1.076081166698866e+001
 1.084015199083980e+000	 1.265977891846146e+000	 1.063112770143120e+001
 1.069989231612100e+000	 1.277854415840096e+000	 1.049853416066831e+001
 1.055840077979967e+000	 1.289569882352404e+000	 1.036006579911720e+001
 1.041570512093714e+000	 1.301122404540689e+000	 1.021304808099235e+001
 1.027183345679557e+000	 1.312510159140009e+000	 1.005512817847179e+001
 1.012681426466225e+000	 1.323731387386190e+000	 9.884304040776197e+000
 9.980676363412553e-001	 1.334784395877035e+000	 9.699187136867598e+000
 9.833448894836278e-001	 1.345667557370631e+000	 9.515164661799201e+000
 9.685161304752106e-001	 1.356379311520008e+000	 9.341521506177529e+000
 9.297736257170630e-001	 1.302121534829085e+000	 9.120969041566839e+000
 9.154391279183470e-001	 1.312238814086172e+000	 8.940349560578412e+000
 9.010085906258274e-001	 1.322188739702620e+000	 8.754601690435896e+000
 8.864849153643600e-001	 1.331970007767004e+000	 8.561829742822626e+000
 8.718710255006918e-001	 1.341581380764360e+000	 8.368669296440842e+000
 8.571698643667016e-001	 1.351021687972676e+000	 8.186722514335928e+000
 8.423843933767853e-001	 1.360289825796497e+000	 8.013628825338245e+000
 8.275175901418119e-001	 1.369384758037725e+000	 7.846774374412906e+000
 8.125724465820543e-001	 1.378305516103772e+000	 7.683504243729625e+000
 7.975519670414791e-001	 1.387051199153357e+000	 7.521122776147901e+000
 7.824591664057522e-001	 1.395620974180313e+000	 7.356894175977570e+000
 9.336478761926755e-001	 1.307547312498496e+000	 9.154841010672604e+000
 9.192536483333296e-001	 1.317706749193543e+000	 8.971920971823925e+000
 9.047629807956740e-001	 1.327698134906279e+000	 8.782095302553973e+000
 8.901787871948500e-001	 1.337520160292034e+000	 8.585741479989970e+000
 8.755040030789064e-001	 1.347171582679268e+000	 8.398106969208596e+000
 8.607415840442136e-001	 1.356651226467707e+000	 8.220501458791851e+000
 8.458945038450076e-001	 1.365957983463344e+000	 8.050444088105406e+000
 8.309657524994858e-001	 1.375090813150366e+000	 7.885415595886461e+000
 8.159583343948756e-001	 1.384048742900173e+000	 7.722858158193595e+000
 8.008752663938652e-001	 1.392830868117783e+000	 7.560175494276706e+000
 7.857195759447690e-001	 1.401436352325989e+000	 7.394733259544458e+000
 9.375221266684231e-001	 1.312973090167526e+000	 9.184251585169990e+000
 9.230681687484915e-001	 1.323174684300590e+000	 8.998278637534016e+000
 9.085173709657477e-001	 1.333207530109689e+000	 8.803601483753907e+000
 8.938726590256203e-001	 1.343070312816907e+000	 8.610064528164088e+000
 8.791369806574539e-001	 1.352761784594114e+000	 8.427532864819083e+000
 8.643133037221090e-001	 1.362280764962774e+000	 8.253667787398177e+000
 8.494046143136589e-001	 1.371626141130321e+000	 8.086094689324879e+000
 8.344139148576283e-001	 1.380796868263218e+000	 7.922403413647238e+000
 8.193442222081936e-001	 1.389791969696849e+000	 7.760147833537681e+000
 8.041985657467650e-001	 1.398610537082528e+000	 7.596845709856916e+000
 7.889799854843013e-001	 1.407251730471996e+000	 7.429978846143017e+000
 9.413963771442712e-001	 1.318398867836291e+000	 9.209374545060264e+000
 9.268826891637869e-001	 1.328642619407423e+000	 9.019593137558765e+000
 9.122717611359931e-001	 1.338716925312952e+000	 8.822793340966047e+000
 8.975665308566001e-001	 1.348620465341704e+000	 8.635176936266760e+000
 8.827699582362499e-001	 1.358351986508967e+000	 8.457123669504600e+000
 8.678850234002893e-001	 1.367910303457928e+000	 8.286410996187602e+000
 8.529147247826276e-001	 1.377294298797460e+000	 8.120784762213640e+000
 8.378620772161134e-001	 1.386502923376302e+000	 7.957958235282935e+000
 8.227301100218737e-001	 1.395535196493812e+000	 7.795611396948159e+000
 8.075218651000348e-001	 1.404390206047592e+000	 7.631390521302856e+000
 7.922403950241997e-001	 1.413067108618336e+000	 7.462908061927070e+000
 9.452706276201874e-001	 1.323824645504908e+000	 9.230385711673298e+000
 9.306972095791717e-001	 1.334110554514149e+000	 9.036115046094771e+000
 9.160261513063516e-001	 1.344226320516161e+000	 8.843572606823711e+000
 9.012604026877193e-001	 1.354170617866511e+000	 8.661239517775476e+000
 8.864029358152090e-001	 1.363942188423893e+000	 8.487050935862488e+000
 8.714567430786560e-001	 1.373539841953220e+000	 8.318915362316410e+000
 8.564248352518022e-001	 1.382962456464800e+000	 8.154713108860669e+000
 8.413102395748181e-001	 1.392208978489638e+000	 7.992295001258834e+000
 8.261159978357805e-001	 1.401278423291070e+000	 7.829481352019727e+000
 8.108451644535302e-001	 1.410169875012980e+000	 7.664061229752166e+000
 7.955008045643135e-001	 1.418882486765009e+000	 7.493792048126835e+000
 9.491448780961366e-001	 1.329250423173492e+000	 9.247462850147343e+000
 9.345117299946012e-001	 1.339578489620878e+000	 9.052443633874029e+000
 9.197805414767668e-001	 1.349735715719415e+000	 8.866087543712197e+000
 9.049542745189065e-001	 1.359720770391410e+000	 8.688408061780361e+000
 8.900359133942477e-001	 1.369532390338960e+000	 8.517481137238883e+000
 8.750284627571104e-001	 1.379169380448702e+000	 8.351359999194239e+000
 8.599349457210699e-001	 1.388630614132375e+000	 8.188073256691512e+000
 8.447584019336180e-001	 1.397915033603250e+000	 8.025623243248070e+000
 8.295018856497786e-001	 1.407021650088634e+000	 7.861984639424338e+000
 8.141684638071076e-001	 1.415949543978694e+000	 7.695103402493046e+000
 7.987612141044927e-001	 1.424697864912014e+000	 7.522896027589841e+000
 9.530191285720864e-001	 1.334676200842162e+000	 9.261006368443610e+000
 9.383262504100309e-001	 1.345046424727719e+000	 9.071286826440142e+000
 9.235349316471814e-001	 1.355245110922812e+000	 8.890480444784743e+000
 9.086481463500914e-001	 1.365270922916484e+000	 8.716833387313715e+000
 8.936688909732813e-001	 1.375122592254236e+000	 8.548575722107566e+000
 8.786001824355540e-001	 1.384798918944425e+000	 8.383918911544937e+000
 8.634450561903191e-001	 1.394298771800219e+000	 8.221053514782774e+000
 8.482065642923892e-001	 1.403621088717157e+000	 8.058147142220037e+000
 8.328877734637327e-001	 1.412764876886513e+000	 7.893342697236641e+000
 8.174917631606233e-001	 1.421729212944737e+000	 7.724756935929598e+000
 8.020216236445871e-001	 1.430513243059354e+000	 7.550479370738797e+000
 9.568933790480022e-001	 1.340101978511031e+000	 9.275913850254085e+000
 9.421407708254154e-001	 1.350514359834781e+000	 9.092775765776469e+000
 9.272893218175382e-001	 1.360754506126449e+000	 8.916888710840972e+000
 9.123420181812031e-001	 1.370821075441817e+000	 8.746661397722237e+000
 8.973018685522237e-001	 1.380712794169788e+000	 8.580491168448308e+000
 8.821719021138887e-001	 1.390428457440441e+000	 8.416761050400679e+000
 8.669551666594380e-001	 1.399966929468371e+000	 8.253837030034431e+000
 8.516547266510058e-001	 1.409327143831381e+000	 8.090065586294619e+000
 8.362736612775088e-001	 1.418508103684719e+000	 7.923771520920977e+000
 8.208150625139332e-001	 1.427508881911112e+000	 7.753256118101178e+000
 8.052820331844467e-001	 1.436328621207025e+000	 7.576795660961754e+000
 9.607676295238505e-001	 1.345527756180218e+000	 9.294224618093621e+000
 9.459552912407105e-001	 1.355982294942172e+000	 9.117036746791214e+000
 9.310437119877796e-001	 1.366263901330424e+000	 8.945444905437057e+000
 9.160358900121717e-001	 1.376371227967493e+000	 8.778033135085620e+000
 9.009348461309924e-001	 1.386302996085685e+000	 8.613379038120057e+000
 8.857436217920156e-001	 1.396057995936800e+000	 8.450050368032164e+000
 8.704652771283146e-001	 1.405635087136863e+000	 8.286601843200490e+000
 8.551028890093452e-001	 1.415033198945946e+000	 8.121572228368923e+000
 8.396595490909711e-001	 1.424251330483261e+000	 7.953481722994417e+000
 8.241383618668934e-001	 1.433288550877820e+000	 7.780829690766060e+000
 8.085424427239210e-001	 1.442143999355031e+000	 7.602092759452151e+000
 9.646418799995977e-001	 1.350953533849838e+000	 9.316056239600991e+000
 9.497698116558712e-001	 1.361450230050001e+000	 9.144191273907895e+000
 9.347981021578486e-001	 1.371773296534834e+000	 8.976276810069381e+000
 9.197297618429253e-001	 1.381921380493593e+000	 8.811084834676571e+000
 9.045678237095014e-001	 1.391893198001993e+000	 8.647386031234380e+000
 8.893153414698359e-001	 1.401687534433554e+000	 8.483945872815342e+000
 8.739753875968371e-001	 1.411303244805733e+000	 8.319520944785078e+000
 8.585510513672827e-001	 1.420739254060870e+000	 8.152855543521149e+000
 8.430454369039842e-001	 1.429994557282150e+000	 7.982678592369362e+000
 8.274616612193595e-001	 1.439068219844866e+000	 7.807700911061716e+000
 8.118028522628600e-001	 1.447959377503370e+000	 7.626612869512274e+000
 9.685161304752106e-001	 1.356379311520008e+000	 9.341521506177529e+000
 9.535843320708534e-001	 1.366918165158378e+000	 9.174356117737021e+000
 9.385524923276887e-001	 1.377282691739777e+000	 9.009507479428168e+000
 9.234236336733949e-001	 1.387471533020204e+000	 8.845947979463135e+000
 9.082008012876665e-001	 1.397483399918780e+000	 8.682654040523754e+000
 8.928870611472519e-001	 1.407317072930754e+000	 8.518601684037773e+000
 8.774854980648936e-001	 1.416971402475017e+000	 8.352762330803966e+000
 8.619992137246938e-001	 1.426445309176177e+000	 8.184098886200323e+000
 8.464313247164138e-001	 1.435737784081395e+000	 8.011562153389642e+000
 8.307849605711887e-001	 1.444847888812251e+000	 7.834087612756602e+000
 8.150632618011137e-001	 1.453774755652043e+000	 7.650592600337042e+000
 7.824591664057522e-001	 1.395620974180313e+000	 7.356894175977570e+000
 7.672993476139858e-001	 1.404012830606383e+000	 7.179548186685438e+000
 7.520732818907336e-001	 1.412227370971638e+000	 6.983427709170782e+000
 7.367840039700269e-001	 1.420263967078496e+000	 6.774307154149463e+000
 7.214345516481479e-001	 1.428122058255759e+000	 6.558010477119138e+000
 7.060279639552908e-001	 1.435801151140213e+000	 6.340397838064208e+000
 6.905672793443338e-001	 1.443300819400590e+000	 6.127352633843003e+000
 6.750555338987601e-001	 1.450620703404885e+000	 5.924768921881201e+000
 6.594957595617234e-001	 1.457760509832163e+000	 5.737934171268333e+000
 6.438909823881793e-001	 1.464720011230009e+000	 5.568080007249169e+000
 6.282442208219421e-001	 1.471499045518887e+000	 5.418901597777308e+000
 7.857195759447690e-001	 1.401436352325989e+000	 7.394733259544457e+000
 7.704965880833782e-001	 1.409863176568699e+000	 7.216015210137525e+000
 7.552070772478325e-001	 1.418111945896701e+000	 7.018996837224459e+000
 7.398540908175103e-001	 1.426182029494800e+000	 6.809373316678665e+000
 7.244406792467997e-001	 1.434072864355559e+000	 6.592888500031341e+000
 7.089698942291433e-001	 1.441783955059992e+000	 6.375321707325425e+000
 6.934447868782606e-001	 1.449314873500366e+000	 6.162474905859988e+000
 6.778684059286053e-001	 1.456665258546147e+000	 5.960160292986362e+000
 6.622437959570482e-001	 1.463834815654174e+000	 5.773962187844786e+000
 6.465739956277268e-001	 1.470823316424275e+000	 5.605408667938016e+000
 6.308620359619235e-001	 1.477630598101556e+000	 5.457492128613002e+000
 7.889799854843013e-001	 1.407251730471996e+000	 7.429978846143013e+000
 7.736938285532721e-001	 1.415713522531330e+000	 7.249776719927523e+000
 7.583408726054054e-001	 1.423996520822031e+000	 7.051817979936824e+000
 7.429241776654281e-001	 1.432100091911302e+000	 6.841701410610497e+000
 7.274468068458374e-001	 1.440023670455469e+000	 6.625073341711589e+000
 7.119118245033267e-001	 1.447766758979777e+000	 6.407614608333383e+000
 6.963222944124613e-001	 1.455328927600040e+000	 6.195027910335539e+000
 6.806812779586661e-001	 1.462709813687193e+000	 5.993025588847114e+000
 6.649918323525327e-001	 1.469909121475858e+000	 5.807285527764491e+000
 6.492570088673833e-001	 1.476926621618111e+000	 5.639956787335288e+000
 6.334798511019699e-001	 1.483762150683703e+000	 5.493185980818011e+000
 7.922403950241997e-001	 1.413067108618336e+000	 7.462908061927068e+000
 7.768910690235145e-001	 1.421563868494278e+000	 7.281128714190214e+000
 7.614746679632978e-001	 1.429881095747641e+000	 7.082202908208490e+000
 7.459942645136269e-001	 1.438018154328024e+000	 6.871616078513219e+000
 7.304529344451121e-001	 1.445974476555527e+000	 6.654899813609341e+000
 7.148537547776986e-001	 1.453749562899628e+000	 6.437619016893885e+000
 6.991998019467994e-001	 1.461342981699689e+000	 6.225359480890290e+000
 6.834941499888144e-001	 1.468754368828120e+000	 6.023715891838871e+000
 6.677398687480575e-001	 1.475983427297332e+000	 5.838280276567916e+000
 6.519400221070382e-001	 1.483029926811650e+000	 5.672078308352379e+000
 6.360976662419806e-001	 1.489893703265480e+000	 5.526325187399058e+000
 7.955008045643135e-001	 1.418882486765009e+000	 7.493792048126833e+000
 7.800883094939518e-001	 1.427414214457547e+000	 7.310361040788180e+000
 7.646084633213555e-001	 1.435765670673543e+000	 7.110457131472995e+000
 7.490643513619556e-001	 1.443936216744994e+000	 6.899435641135019e+000
 7.334590620444750e-001	 1.451925282655774e+000	 6.682696392480514e+000
 7.177956850521154e-001	 1.459732366819600e+000	 6.465671105321791e+000
 7.020773094811390e-001	 1.467357035799387e+000	 6.253811219487101e+000
 6.863070220189225e-001	 1.474798923969026e+000	 6.052576161662644e+000
 6.704879051435043e-001	 1.482057733118713e+000	 5.867422067281736e+000
 6.546230353465827e-001	 1.489133232005029e+000	 5.702123897287708e+000
 6.387154813818570e-001	 1.496025255847035e+000	 5.557248870574320e+000
 7.987612141044927e-001	 1.424697864912014e+000	 7.522896027589841e+000
 7.832855499644306e-001	 1.433264560421141e+000	 7.337757466592167e+000
 7.677422586794239e-001	 1.441650245599746e+000	 7.136879968702217e+000
 7.521344382102603e-001	 1.449854279162232e+000	 6.925472169188994e+000
 7.364651896437771e-001	 1.457876088756247e+000	 6.708785292084551e+000
 7.207376153264338e-001	 1.465715170739753e+000	 6.492100813256287e+000
 7.049548170153437e-001	 1.473371089899215e+000	 6.280718565647011e+000
 6.891198940488618e-001	 1.480843479110007e+000	 6.079945302317023e+000
 6.732359415387536e-001	 1.488132038940116e+000	 5.895083727528736e+000
 6.573060485859077e-001	 1.495236537198382e+000	 5.730440893686218e+000
 6.413332965214997e-001	 1.502156808428522e+000	 5.586293194675402e+000
 8.020216236445871e-001	 1.430513243059354e+000	 7.550479370738797e+000
 7.864827904347969e-001	 1.439114906385062e+000	 7.363595746066086e+000
 7.708760540373492e-001	 1.447534820526264e+000	 7.161764618625476e+000
 7.552045250583886e-001	 1.455772341579763e+000	 6.950031554288914e+000
 7.394713172428697e-001	 1.463826894856989e+000	 6.733482533989027e+000
 7.236795456005105e-001	 1.471697974660143e+000	 6.517231917561744e+000
 7.078323245492768e-001	 1.479385143999247e+000	 6.306410864744845e+000
 6.919327660785049e-001	 1.486888034251159e+000	 6.106156228161216e+000
 6.759839779336863e-001	 1.494206344761659e+000	 5.921599927576353e+000
 6.599890618249036e-001	 1.501339842391844e+000	 5.757373259359798e+000
 6.439511116608094e-001	 1.508288361010091e+000	 5.613791318259865e+000
 8.052820331844467e-001	 1.436328621207025e+000	 7.576795660961754e+000
 7.896800309048970e-001	 1.444965252349316e+000	 7.388147689174249e+000
 7.740098493949770e-001	 1.453419395453107e+000	 7.185398229185757e+000
 7.582746119061880e-001	 1.461690403997612e+000	 6.973413579057379e+000
 7.424774448416042e-001	 1.469777700958038e+000	 6.757098017506125e+000
 7.266214758742023e-001	 1.477680778580828e+000	 6.541382101336736e+000
 7.107098320828028e-001	 1.485399198099562e+000	 6.331211435410036e+000
 6.947456381077226e-001	 1.492932589392580e+000	 6.131535929097549e+000
 6.787320143281836e-001	 1.500280650583457e+000	 5.947299547493705e+000
 6.626720750634609e-001	 1.507443147585549e+000	 5.783261526588448e+000
 6.465689267996867e-001	 1.514419913591893e+000	 5.640073345454820e+000
 8.085424427239210e-001	 1.442143999355031e+000	 7.602092759452153e+000
 7.928772713745780e-001	 1.450815598313902e+000	 7.411679228630133e+000
 7.771436447521524e-001	 1.459303970380288e+000	 7.208061966254674e+000
 7.613446987535059e-001	 1.467608466415802e+000	 6.995911986433243e+000
 7.454835724398311e-001	 1.475728507059433e+000	 6.779935588786203e+000
 7.295634061473653e-001	 1.483663582501865e+000	 6.564863022060521e+000
 7.135873396157849e-001	 1.491413252200236e+000	 6.355437636058977e+000
 6.975585101363884e-001	 1.498977144534367e+000	 6.156405534893926e+000
 6.814800507221271e-001	 1.506354956405627e+000	 5.972505738740736e+000
 6.653550883014708e-001	 1.513546452779633e+000	 5.808442745527177e+000
 6.491867419380324e-001	 1.520551466174078e+000	 5.665466276556796e+000
 8.118028522628600e-001	 1.447959377503370e+000	 7.626612869512277e+000
 7.960745118436858e-001	 1.456665944278828e+000	 7.434450486505207e+000
 7.802774401087218e-001	 1.465188545307817e+000	 7.230031081626522e+000
 7.644147856001898e-001	 1.473526528834358e+000	 7.017814548197094e+000
 7.484897000374019e-001	 1.481679313161214e+000	 6.802293109091264e+000
 7.325053364198569e-001	 1.489646386423312e+000	 6.587980378896498e+000
 7.164648471480870e-001	 1.497427306301345e+000	 6.379400930582747e+000
 7.003713821643731e-001	 1.505021699676617e+000	 6.181080378675186e+000
 6.842280871153970e-001	 1.512429262228287e+000	 5.997535984949352e+000
 6.680381015388242e-001	 1.519649757974229e+000	 5.833267786868361e+000
 6.518045570757469e-001	 1.526683018756798e+000	 5.690293957903228e+000
 8.150632618011137e-001	 1.453774755652043e+000	 7.650592600337042e+000
 7.992717523120669e-001	 1.462516290244094e+000	 7.456715840216679e+000
 7.834112354645310e-001	 1.471073120235707e+000	 7.251574980311451e+000
 7.674848724460873e-001	 1.479444591253303e+000	 7.039403132739481e+000
 7.514958276341680e-001	 1.487630119263421e+000	 6.824462522272143e+000
 7.354472666915338e-001	 1.495629190345228e+000	 6.611033979181695e+000
 7.193423546795726e-001	 1.503441360402968e+000	 6.403406953213290e+000
 7.031842541915491e-001	 1.511066254819426e+000	 6.205870059602631e+000
 6.869761235078749e-001	 1.518503568051551e+000	 6.022702161919169e+000
 6.707211147754113e-001	 1.525753063169474e+000	 5.858163990582277e+000
 6.544223722127310e-001	 1.532814571340203e+000	 5.714877031042392e+000
 6.282442208219421e-001	 1.471499045518887e+000	 5.418901597777308e+000
 6.125561282577968e-001	 1.478098491957502e+000	 5.277750701136216e+000
 5.968320490086007e-001	 1.484517287968683e+000	 5.130929161588249e+000
 5.810749706883369e-001	 1.490755465284833e+000	 4.980585322454894e+000
 5.652878666485968e-001	 1.496813118561950e+000	 4.828480274460723e+000
 5.494736944043552e-001	 1.502690404637500e+000	 4.676024264389780e+000
 5.336353940943900e-001	 1.508387541743989e+000	 4.524311593982651e+000
 5.177758869776715e-001	 1.513904808679865e+000	 4.374153922169620e+000
 5.018980739669736e-001	 1.519242543939458e+000	 4.226111903754664e+000
 4.860048342008704e-001	 1.524401144803653e+000	 4.080525116945226e+000
 4.700990236552003e-001	 1.529381066393079e+000	 3.937540250560949e+000
 6.308620359619235e-001	 1.477630598101556e+000	 5.457492128613002e+000
 6.151085730770313e-001	 1.484257543608491e+000	 5.317294741858009e+000
 5.993189735550006e-001	 1.490703085940283e+000	 5.170999615315004e+000
 5.834962374588432e-001	 1.496967256961559e+000	 5.020842360908230e+000
 5.676433505297488e-001	 1.503050151722735e+000	 4.868670762735480e+000
 5.517632826063015e-001	 1.508951927714800e+000	 4.715981592973542e+000
 5.358589860784835e-001	 1.514672804079606e+000	 4.563955853811427e+000
 5.199333943777998e-001	 1.520213060777319e+000	 4.413492358726751e+000
 5.039894205047790e-001	 1.525573037712730e+000	 4.265239586977678e+000
 4.880299555950191e-001	 1.530753133822143e+000	 4.119625764974455e+000
 4.720578675248663e-001	 1.535753806122621e+000	 3.976887147110284e+000
 6.334798511019699e-001	 1.483762150683703e+000	 5.493185980818012e+000
 6.176610178962955e-001	 1.490416595258882e+000	 5.353791671083583e+000
 6.018058981014047e-001	 1.496888883911224e+000	 5.207858422392350e+000
 5.859175042293358e-001	 1.503179048637579e+000	 5.057711637330511e+000
 5.699988344108758e-001	 1.509287184882779e+000	 4.905288415707304e+000
 5.540528708082165e-001	 1.515213450791333e+000	 4.752174779301323e+000
 5.380825780625443e-001	 1.520958066414437e+000	 4.599641256720031e+000
 5.220909017778975e-001	 1.526521312873974e+000	 4.448676741946350e+000
 5.060807670425579e-001	 1.531903531485195e+000	 4.300020561253802e+000
 4.900550769891465e-001	 1.537105122839823e+000	 4.154192703482102e+000
 4.740167113945158e-001	 1.542126545851345e+000	 4.011522188067330e+000
 6.360976662419806e-001	 1.489893703265480e+000	 5.526325187399058e+000
 6.202134627155002e-001	 1.496575646908841e+000	 5.387570798321819e+000
 6.042928226477331e-001	 1.503074681881681e+000	 5.241821870735572e+000
 5.883387709997444e-001	 1.509390840313075e+000	 5.091496040905829e+000
 5.723543182919169e-001	 1.515524218042269e+000	 4.938622273662748e+000
 5.563424590100491e-001	 1.521474973867289e+000	 4.784878497702463e+000
 5.403061700465296e-001	 1.527243328748675e+000	 4.631627533347538e+000
 5.242484091779293e-001	 1.532829564970023e+000	 4.479951226641113e+000
 5.081721135802820e-001	 1.538234025257044e+000	 4.330682725306462e+000
 4.920801983832305e-001	 1.543457111856877e+000	 4.184436852964461e+000
 4.759755552641329e-001	 1.548499285579436e+000	 4.041638557877368e+000
 6.387154813818570e-001	 1.496025255847035e+000	 5.557248870574324e+000
 6.227659075345555e-001	 1.502734698558528e+000	 5.418958887066014e+000
 6.067797471939067e-001	 1.509260479851831e+000	 5.273204056134804e+000
 5.907600377699994e-001	 1.515602631988232e+000	 5.122496611827922e+000
 5.747098021728117e-001	 1.521761251201395e+000	 4.968959860487346e+000
 5.586320472117475e-001	 1.527736496942861e+000	 4.814366228445372e+000
 5.425297620303964e-001	 1.533528591082513e+000	 4.660173532749409e+000
 5.264059165778601e-001	 1.539137817065659e+000	 4.507559389120988e+000
 5.102634601179235e-001	 1.544564519028469e+000	 4.357453693594994e+000
 4.941053197772500e-001	 1.549809100873494e+000	 4.210569135682064e+000
 4.779343991337011e-001	 1.554872025307074e+000	 4.067429721280375e+000
 6.413332965214997e-001	 1.502156808428522e+000	 5.586293194675407e+000
 6.253183523533731e-001	 1.508893750208112e+000	 5.448280110372747e+000
 6.092666717398461e-001	 1.515446277821846e+000	 5.302316840323052e+000
 5.931813045400316e-001	 1.521814423663232e+000	 5.151012501646106e+000
 5.770652860535005e-001	 1.527998284360345e+000	 4.996587146057730e+000
 5.609216354132608e-001	 1.533998020018241e+000	 4.840910221928009e+000
 5.447533540141016e-001	 1.539813853416144e+000	 4.685537188113552e+000
 5.285634239776547e-001	 1.545446069161075e+000	 4.531744194147110e+000
 5.123548066554542e-001	 1.550895012799658e+000	 4.380560764197904e+000
 4.961304411711825e-001	 1.556161089889861e+000	 4.232800444150452e+000
 4.798932430032044e-001	 1.561244765034445e+000	 4.089089392074901e+000
 6.439511116608094e-001	 1.508288361010091e+000	 5.613791318259866e+000
 6.278707971718623e-001	 1.515052801857756e+000	 5.475856005706421e+000
 6.117535962854716e-001	 1.521632075791902e+000	 5.329469808367611e+000
 5.956025713097707e-001	 1.528026215338257e+000	 5.177340932993685e+000
 5.794207699339221e-001	 1.534235317519306e+000	 5.021788508079527e+000
 5.632112236145370e-001	 1.540259543093620e+000	 4.864781462373358e+000
 5.469769459976025e-001	 1.546099115749762e+000	 4.707975482046000e+000
 5.307209313772782e-001	 1.551754321256463e+000	 4.552747961522476e+000
 5.144461531928464e-001	 1.557225506570805e+000	 4.400230886405148e+000
 4.981555625650069e-001	 1.562513078906165e+000	 4.251341609415816e+000
 4.818520868726261e-001	 1.567617504761729e+000	 4.106811501740312e+000
 6.465689267996867e-001	 1.514419913591893e+000	 5.640073345454821e+000
 6.304232419899352e-001	 1.521211853507622e+000	 5.502005429073408e+000
 6.142405208307040e-001	 1.527817873762174e+000	 5.354970225404580e+000
 5.980238380791469e-001	 1.534238007013491e+000	 5.201777158717634e+000
 5.817762538140169e-001	 1.540472350678467e+000	 5.044846693382783e+000
 5.655008118155254e-001	 1.546521066169190e+000	 4.886249631044627e+000
 5.492005379808558e-001	 1.552384378083559e+000	 4.727744411441027e+000
 5.328784387766953e-001	 1.558062573352017e+000	 4.570812332331425e+000
 5.165374997300717e-001	 1.563556000342099e+000	 4.416690628030134e+000
 5.001806839587015e-001	 1.568865067922594e+000	 4.266403369121801e+000
 4.838109307419504e-001	 1.573990244489111e+000	 4.120790167927390e+000
 6.491867419380324e-001	 1.520551466174078e+000	 5.665466276556796e+000
 6.329756868075016e-001	 1.527370905157877e+000	 5.527044508461055e+000
 6.167274453754639e-001	 1.534003671732837e+000	 5.379122992735312e+000
 6.004451048480909e-001	 1.540449798689115e+000	 5.224614420425539e+000
 5.841317376937240e-001	 1.546709383838018e+000	 5.066042778693439e+000
 5.677904000161740e-001	 1.552782589245143e+000	 4.905583068995101e+000
 5.514241299638191e-001	 1.558669640417730e+000	 4.745098951945945e+000
 5.350359461758709e-001	 1.564370825447929e+000	 4.586178234839928e+000
 5.186288462671024e-001	 1.569886494113732e+000	 4.430166142445888e+000
 5.022058053522444e-001	 1.575217056939336e+000	 4.278196335371000e+000
 4.857697746111607e-001	 1.580362984216774e+000	 4.131219662820292e+000
 6.518045570757469e-001	 1.526683018756798e+000	 5.690293957903230e+000
 6.355281316244723e-001	 1.533529956808685e+000	 5.551286596605556e+000
 6.192143699196715e-001	 1.540189469704066e+000	 5.402230603303590e+000
 6.028663716165326e-001	 1.546661590365314e+000	 5.246143906465485e+000
 5.864872215729831e-001	 1.552946416998145e+000	 5.085656130892681e+000
 5.700799882164317e-001	 1.559044112321670e+000	 4.923048739365040e+000
 5.536477219464489e-001	 1.564954902752466e+000	 4.760293022032457e+000
 5.371934535747698e-001	 1.570679077544392e+000	 4.599085850063727e+000
 5.207201928039105e-001	 1.576216987885893e+000	 4.440883135357593e+000
 5.042309267456142e-001	 1.581569045956577e+000	 4.286930962389689e+000
 4.877286184802408e-001	 1.586735723944899e+000	 4.138294381369378e+000
 6.544223722127310e-001	 1.532814571340203e+000	 5.714877031042392e+000
 6.380805764407583e-001	 1.539689008460209e+000	 5.575042223104632e+000
 6.217012944632482e-001	 1.546375267676036e+000	 5.424593096568455e+000
 6.052876383844025e-001	 1.552873382042270e+000	 5.266654709357820e+000
 5.888427054517341e-001	 1.559183450159039e+000	 5.103964366781534e+000
 5.723695764162470e-001	 1.565305635398965e+000	 4.938912189236322e+000
 5.558713139287028e-001	 1.571240165087963e+000	 4.773579446685326e+000
 5.393509609733571e-001	 1.576987329641599e+000	 4.609774577014661e+000
 5.228115393404681e-001	 1.582547481658774e+000	 4.449066831312824e+000
 5.062560481387889e-001	 1.587921034974506e+000	 4.292817514000168e+000
 4.896874623491745e-001	 1.593108463673670e+000	 4.142208809404778e+000
 4.700990236552003e-001	 1.529381066393079e+000	 3.937540250560949e+000
 4.541834735678362e-001	 1.534182820303653e+000	 3.800853200562418e+000
 4.382609884735363e-001	 1.538806972447188e+000	 3.673894108130230e+000
 4.223343456611924e-001	 1.543254143154806e+000	 3.556194882043922e+000
 4.064062941850493e-001	 1.547525006483282e+000	 3.447187152711265e+000
 3.904795536865156e-001	 1.551620289110432e+000	 3.346221435912347e+000
 3.745568132600691e-001	 1.555540769203842e+000	 3.252584728057345e+000
 3.586407303637542e-001	 1.559287275264824e+000	 3.165516601825756e+000
 3.427339297746908e-001	 1.562860684949402e+000	 3.084223879729927e+000
 3.268390025899309e-001	 1.566261923868223e+000	 3.007893970455683e+000
 3.109585052729244e-001	 1.569491964367168e+000	 2.935706958802207e+000
 4.720578675248663e-001	 1.535753806122621e+000	 3.976887147110284e+000
 4.560759993296170e-001	 1.540575568341829e+000	 3.840784978510607e+000
 4.400871672301723e-001	 1.545218988749658e+000	 3.714709619878827e+000
 4.240941600880320e-001	 1.549684690262056e+000	 3.598125735789289e+000
 4.080997384124002e-001	 1.553973349744499e+000	 3.490398058485726e+000
 3.921066331770839e-001	 1.558085696902767e+000	 3.390810659431994e+000
 3.761175446816750e-001	 1.562022513146960e+000	 3.298584604971003e+000
 3.601351414575070e-001	 1.565784630430640e+000	 3.212894068587668e+000
 3.441620592188107e-001	 1.569372930066904e+000	 3.132880981124065e+000
 3.282008998594099e-001	 1.572788341523290e+000	 3.057668307743698e+000
 3.122542304952113e-001	 1.576031841197312e+000	 2.986372046538410e+000
 4.740167113945158e-001	 1.542126545851345e+000	 4.011522188067330e+000
 4.579685250913861e-001	 1.546968316379183e+000	 3.875826875329006e+000
 4.419133459868009e-001	 1.551631005051298e+000	 3.750448282262334e+000
 4.258539745148700e-001	 1.556115237368471e+000	 3.634786800567028e+000
 4.097931826397563e-001	 1.560421693004874e+000	 3.528143499900780e+000
 3.937337126676676e-001	 1.564551104694253e+000	 3.429739492467580e+000
 3.776782761033100e-001	 1.568504257089224e+000	 3.338733633085022e+000
 3.616295525513068e-001	 1.572281985595597e+000	 3.254238630974480e+000
 3.455901886630016e-001	 1.575885175183543e+000	 3.175335658554443e+000
 3.295627971289896e-001	 1.579314759177490e+000	 3.101087550118479e+000
 3.135499557176358e-001	 1.582571718026590e+000	 3.030550689484521e+000
 4.759755552641329e-001	 1.548499285579436e+000	 4.041638557877368e+000
 4.598610508531317e-001	 1.553361064415891e+000	 3.906154598986519e+000
 4.437395247434138e-001	 1.558043021352281e+000	 3.781269611955081e+000
 4.276137889416997e-001	 1.562545784474214e+000	 3.666322671096549e+000
 4.114866268671124e-001	 1.566870036264565e+000	 3.560554407020919e+000
 3.953607921582604e-001	 1.571016512485042e+000	 3.463126449309688e+000
 3.792390075249657e-001	 1.574986001030779e+000	 3.373139154792920e+000
 3.631239636451417e-001	 1.578779340759835e+000	 3.289647701541636e+000
 3.470183181072453e-001	 1.582397420299454e+000	 3.211676637923516e+000
 3.309246943986448e-001	 1.585841176830959e+000	 3.138232983825384e+000
 3.148456809401636e-001	 1.589111594855133e+000	 3.068317987442652e+000
 4.779343991337011e-001	 1.554872025307074e+000	 4.067429721280375e+000
 4.617535766148420e-001	 1.559753812452132e+000	 3.931944392410514e+000
 4.455657035000026e-001	 1.564455037652777e+000	 3.807333875046018e+000
 4.293736033685146e-001	 1.568976331579451e+000	 3.692878866667342e+000
 4.131800710944626e-001	 1.573318379523730e+000	 3.587762771337441e+000
 3.969878716488561e-001	 1.577481920275285e+000	 3.491091205329976e+000
 3.807997389466332e-001	 1.581467744971770e+000	 3.401909737203512e+000
 3.646183747389991e-001	 1.585276695923494e+000	 3.319219946441498e+000
 3.484464475515243e-001	 1.588909665414775e+000	 3.241993894210738e+000
 3.322865916683502e-001	 1.592367594483831e+000	 3.169187107683869e+000
 3.161414061627602e-001	 1.595651471683077e+000	 3.099750185797602e+000
 4.798932430032044e-001	 1.561244765034445e+000	 4.089089392074901e+000
 4.636461023765049e-001	 1.566146560488082e+000	 3.953373002515250e+000
 4.473918822565585e-001	 1.570867053952957e+000	 3.828802056671856e+000
 4.311334177953083e-001	 1.575406878684347e+000	 3.714601801697286e+000
 4.148735153218010e-001	 1.579766722782525e+000	 3.609901617563108e+000
 3.986149511394479e-001	 1.583947328065134e+000	 3.513754570308945e+000
 3.823604703683042e-001	 1.587949488912343e+000	 3.425155147290446e+000
 3.661127858328667e-001	 1.591774051086716e+000	 3.343055262677258e+000
 3.498745769958204e-001	 1.595421910529643e+000	 3.266378631093459e+000
 3.336484889380808e-001	 1.598894012136239e+000	 3.194033615335952e+000
 3.174371313853914e-001	 1.602191348510555e+000	 3.124924660635426e+000
 4.818520868726261e-001	 1.567617504761729e+000	 4.106811501740312e+000
 4.655386281381087e-001	 1.572539308523918e+000	 3.970617649168495e+000
 4.492180610130728e-001	 1.577279070252993e+000	 3.845835830645043e+000
 4.328932322220744e-001	 1.581837425789064e+000	 3.731638756336132e+000
 4.165669595491220e-001	 1.586215066041111e+000	 3.627104975508610e+000
 4.002420306300298e-001	 1.590412735854740e+000	 3.531238461875927e+000
 3.839212017899701e-001	 1.594431232852644e+000	 3.442986327172928e+000
 3.676071969267320e-001	 1.598271406249639e+000	 3.361254755485072e+000
 3.513027064401157e-001	 1.601934155644195e+000	 3.284923260691964e+000
 3.350103862078114e-001	 1.605420429788318e+000	 3.212857377595675e+000
 3.187328566080224e-001	 1.608731225337699e+000	 3.143919903936890e+000
 4.838109307419504e-001	 1.573990244489111e+000	 4.120790167927390e+000
 4.674311538996414e-001	 1.578932056559819e+000	 3.983855994094591e+000
 4.510442397695371e-001	 1.583691086553055e+000	 3.858597529081516e+000
 4.346530466488063e-001	 1.588267972893769e+000	 3.744137847114548e+000
 4.182604037764201e-001	 1.592663409299643e+000	 3.639507852042256e+000
 4.018691101205954e-001	 1.596878143644255e+000	 3.543665879053901e+000
 3.854819332116223e-001	 1.600912976792819e+000	 3.455515369512659e+000
 3.691016080205829e-001	 1.604768761412406e+000	 3.373920715841457e+000
 3.527308358843927e-001	 1.608446400758566e+000	 3.297721383428738e+000
 3.363722834775167e-001	 1.611946847440201e+000	 3.225744424900741e+000
 3.200285818306191e-001	 1.615271102164644e+000	 3.156815508844746e+000
 4.857697746111607e-001	 1.580362984216774e+000	 4.131219662820292e+000
 4.693236796610911e-001	 1.585324804595960e+000	 3.993266109718400e+000
 4.528704185259429e-001	 1.590103102853316e+000	 3.867250112026433e+000
 4.364128610754976e-001	 1.594698519998625e+000	 3.752247997638787e+000
 4.199538480036892e-001	 1.599111752558280e+000	 3.647246203128536e+000
 4.034961896111380e-001	 1.603343551433830e+000	 3.551160875908337e+000
 3.870426646332523e-001	 1.607394720733012e+000	 3.462855493027639e+000
 3.705960191144070e-001	 1.611266116575157e+000	 3.381156598088256e+000
 3.541589653286333e-001	 1.614958645872892e+000	 3.304867768002203e+000
 3.377341807471714e-001	 1.618473265092024e+000	 3.232781929858029e+000
 3.213243070531469e-001	 1.621810978991523e+000	 3.163692155003001e+000
 4.877286184802408e-001	 1.586735723944899e+000	 4.138294381369378e+000
 4.712162054224462e-001	 1.591717552632520e+000	 3.999026447951116e+000
 4.546965972822816e-001	 1.596515119153945e+000	 3.871957137077388e+000
 4.381726755021417e-001	 1.601129067103797e+000	 3.756118909327491e+000
 4.216472922309238e-001	 1.605560095817179e+000	 3.650456905943743e+000
 4.051232691016514e-001	 1.609808959223615e+000	 3.553848535298646e+000
 3.886033960548516e-001	 1.613876464673370e+000	 3.465121018123445e+000
 3.720904302081917e-001	 1.617763471738032e+000	 3.383066997677146e+000
 3.555870947728198e-001	 1.621470890987311e+000	 3.306458331472181e+000
 3.390960780167504e-001	 1.624999682743920e+000	 3.234058189889287e+000
 3.226200322755714e-001	 1.628350855818469e+000	 3.164631593965398e+000
 4.896874623491745e-001	 1.593108463673670e+000	 4.142208809404778e+000
 4.731087311836948e-001	 1.598110300669677e+000	 4.001315808919394e+000
 4.565227760385447e-001	 1.602927135455114e+000	 3.872882729006025e+000
 4.399324899287324e-001	 1.607559614209450e+000	 3.755901032190452e+000
 4.233407364581182e-001	 1.612008439076500e+000	 3.649277731068150e+000
 4.067503485921295e-001	 1.616274367013764e+000	 3.551854942724337e+000
 3.901641274764115e-001	 1.620358208614037e+000	 3.462427342631094e+000
 3.735848413019252e-001	 1.624260826901171e+000	 3.379757629026747e+000
 3.570152242169341e-001	 1.627983136101961e+000	 3.302590119450367e+000
 3.404579752862288e-001	 1.631526100396023e+000	 3.229662609961338e+000
 3.239157574978582e-001	 1.634890732645615e+000	 3.159716634670319e+000
 3.109585052729244e-001	 1.569491964367168e+000	 2.935706958802207e+000
 2.950973361555283e-001	 1.572551378267190e+000	 2.867143923540843e+000
 2.792555925298783e-001	 1.575441725585226e+000	 2.802241627085425e+000
 2.634357170593281e-001	 1.578164112201086e+000	 2.741064268795063e+000
 2.476401145228079e-001	 1.580719685648571e+000	 2.683704975365214e+000
 2.318711510915625e-001	 1.583109633828190e+000	 2.630291817866962e+000
 2.161311536513517e-001	 1.585335183711221e+000	 2.580993220251813e+000
 2.004224091698800e-001	 1.587397600036800e+000	 2.536022859264917e+000
 1.847471641091543e-001	 1.589298184003680e+000	 2.495644152542684e+000
 1.691076238824034e-001	 1.591038271958281e+000	 2.460174427697799e+000
 1.535059523551476e-001	 1.592619234080585e+000	 2.429988860503210e+000
 3.122542304952113e-001	 1.576031841197312e+000	 2.986372046538410e+000
 2.963269698688031e-001	 1.579104003292622e+000	 2.918487726410747e+000
 2.804192156777261e-001	 1.582006394326573e+000	 2.854131618998924e+000
 2.645334207636076e-001	 1.584740124787051e+000	 2.793401111775090e+000
 2.486719999257926e-001	 1.587306346989509e+000	 2.736422013710459e+000
 2.328373291950671e-001	 1.589706253784308e+000	 2.683354221742436e+000
 2.170317451530342e-001	 1.591941077255381e+000	 2.634396776019832e+000
 2.012575442969084e-001	 1.594012087411892e+000	 2.589792407843166e+000
 1.855169824494246e-001	 1.595920590874547e+000	 2.549831680880565e+000
 1.698122742134936e-001	 1.597667929558169e+000	 2.514856822070625e+000
 1.541455924711945e-001	 1.599255479352131e+000	 2.485265333720894e+000
 3.135499557176358e-001	 1.582571718026590e+000	 3.030550689484521e+000
 2.975566035822601e-001	 1.585656628317190e+000	 2.963244253057649e+000
 2.815828388258038e-001	 1.588571063067058e+000	 2.899367758840840e+000
 2.656311244681645e-001	 1.591316137372162e+000	 2.839048203110128e+000
 2.497038853290978e-001	 1.593893008329605e+000	 2.782440463183699e+000
 2.338035072989267e-001	 1.596302873739601e+000	 2.729732607786574e+000
 2.179323366550938e-001	 1.598546970798740e+000	 2.681150593340524e+000
 2.020926794243194e-001	 1.600626574786212e+000	 2.636962454161816e+000
 1.862868007900624e-001	 1.602542997744678e+000	 2.597482091034720e+000
 1.705169245449123e-001	 1.604297587157367e+000	 2.563072758272506e+000
 1.547852325875027e-001	 1.605891724623038e+000	 2.534150344249178e+000
 3.148456809401636e-001	 1.589111594855133e+000	 3.068317987442647e+000
 2.987862372958534e-001	 1.592209253341028e+000	 3.001482457734063e+000
 2.827464619740536e-001	 1.595135731806818e+000	 2.938011756847846e+000
 2.667288281729294e-001	 1.597892149956559e+000	 2.878059032063161e+000
 2.507357707326434e-001	 1.600479669669002e+000	 2.821804738555793e+000
 2.347696854030525e-001	 1.602899493694213e+000	 2.769461587712040e+000
 2.188329281574361e-001	 1.605152864341439e+000	 2.721278878344033e+000
 2.029278145520174e-001	 1.607241062159900e+000	 2.677546322950469e+000
 1.870566191309760e-001	 1.609165404614206e+000	 2.638597477472493e+000
 1.712215748765773e-001	 1.610927244755997e+000	 2.604812878441266e+000
 1.554248727040072e-001	 1.612527969893416e+000	 2.576622986060925e+000
 3.161414061627602e-001	 1.595651471683077e+000	 3.099750185797602e+000
 3.000158710095376e-001	 1.598761878364269e+000	 3.033272364386284e+000
 2.839100851224186e-001	 1.601700400545991e+000	 2.970126328596401e+000
 2.678265318778331e-001	 1.604468162540381e+000	 2.910488040276681e+000
 2.517676561363493e-001	 1.607066331007840e+000	 2.854560165310400e+000
 2.357358635073559e-001	 1.609496113648287e+000	 2.802576653499133e+000
 2.197335196599669e-001	 1.611758757883622e+000	 2.754806698156751e+000
 2.037629496799067e-001	 1.613855549533095e+000	 2.711558191812242e+000
 1.878264374720734e-001	 1.615787811483266e+000	 2.673180790554788e+000
 1.719262252084068e-001	 1.617556902354182e+000	 2.640068694781039e+000
 1.560645128206423e-001	 1.619164215163372e+000	 2.612663248541505e+000
 3.174371313853914e-001	 1.602191348510555e+000	 3.124924660635426e+000
 3.012455047232674e-001	 1.605314503387048e+000	 3.058685054469573e+000
 2.850737082708409e-001	 1.608265069284713e+000	 2.995775184947509e+000
 2.689242355828062e-001	 1.611044175123768e+000	 2.936390613312097e+000
 2.527995415401351e-001	 1.613652992346263e+000	 2.880752972265319e+000
 2.367020416117482e-001	 1.616092733601967e+000	 2.829114170614566e+000
 2.206341111625921e-001	 1.618364651425432e+000	 2.781759974260604e+000
 2.045980848078915e-001	 1.620470036905936e+000	 2.739013084299332e+000
 1.885962558132627e-001	 1.622410218351989e+000	 2.701235828932052e+000
 1.726308755403183e-001	 1.624186559952042e+000	 2.668832580911256e+000
 1.567041529373427e-001	 1.625800460433011e+000	 2.642252006447893e+000
 3.187328566080224e-001	 1.608731225337699e+000	 3.143919903936890e+000
 3.024751384369969e-001	 1.611867128409499e+000	 3.077792654813485e+000
 2.862373314192634e-001	 1.614829738023120e+000	 3.015023022028049e+000
 2.700219392877792e-001	 1.617620187706860e+000	 2.955823072214505e+000
 2.538314269439211e-001	 1.620239653684411e+000	 2.900430284221601e+000
 2.376682197161404e-001	 1.622689353555394e+000	 2.849111371267091e+000
 2.215347026652172e-001	 1.624970544967009e+000	 2.802165475912286e+000
 2.054332199358763e-001	 1.627084524278562e+000	 2.759926863075712e+000
 1.893660741544520e-001	 1.629032625220509e+000	 2.722767232060158e+000
 1.733355258722298e-001	 1.630816217549702e+000	 2.691097763371393e+000
 1.573437930540432e-001	 1.632436705702442e+000	 2.665371010077591e+000
 3.200285818306191e-001	 1.615271102164644e+000	 3.156815508844746e+000
 3.037047721506812e-001	 1.618419753431758e+000	 3.090668325534566e+000
 2.874009545676282e-001	 1.621394406761351e+000	 3.027935511240844e+000
 2.711196429926829e-001	 1.624196200289796e+000	 2.968842665103520e+000
 2.548633123476269e-001	 1.626826315022429e+000	 2.913640114636030e+000
 2.386343978204437e-001	 1.629285973508712e+000	 2.862606347702005e+000
 2.224352941677480e-001	 1.631576438508499e+000	 2.816050813618139e+000
 2.062683550637655e-001	 1.633699011651114e+000	 2.774316223161278e+000
 1.901358924955494e-001	 1.635655032088957e+000	 2.737780472830103e+000
 1.740401762040591e-001	 1.637445875147284e+000	 2.706858313286484e+000
 1.579834331706782e-001	 1.639072950971772e+000	 2.682002875632777e+000
 3.213243070531469e-001	 1.621810978991523e+000	 3.163692155003001e+000
 3.049344058642744e-001	 1.624972378453958e+000	 3.097386247994828e+000
 2.885645777158782e-001	 1.627959075499541e+000	 3.034579289306647e+000
 2.722173466974478e-001	 1.630772212872715e+000	 2.975507558785441e+000
 2.558951977511724e-001	 1.633412976360454e+000	 2.920431358325027e+000
 2.396005759245694e-001	 1.635882593462065e+000	 2.869638045532638e+000
 2.233358856700902e-001	 1.638182332050043e+000	 2.823444432662191e+000
 2.071034901914634e-001	 1.640313499023730e+000	 2.782198685253437e+000
 1.909057108364629e-001	 1.642277438957469e+000	 2.746281850308943e+000
 1.747448265357242e-001	 1.644075532744909e+000	 2.716109138172853e+000
 1.586230732871825e-001	 1.645709196241107e+000	 2.692131075777973e+000
 3.226200322755714e-001	 1.628350855818469e+000	 3.164631593965398e+000
 3.061640395777312e-001	 1.631525003476234e+000	 3.098021612803643e+000
 2.897282008639557e-001	 1.634523744237826e+000	 3.035021948335523e+000
 2.733150504020046e-001	 1.637348225455756e+000	 2.975876830392263e+000
 2.569270831544775e-001	 1.639999637698632e+000	 2.920853784189810e+000
 2.405667540284290e-001	 1.642479213415595e+000	 2.870246257105577e+000
 2.242364771721496e-001	 1.644788225591782e+000	 2.824375606688833e+000
 2.079386253188743e-001	 1.646927986396549e+000	 2.783592589130628e+000
 1.916755291771006e-001	 1.648899845826174e+000	 2.748278482589085e+000
 1.754494768671429e-001	 1.650705190342700e+000	 2.718845973895914e+000
 1.592627134034907e-001	 1.652345441510555e+000	 2.695739930386213e+000
 3.239157574978582e-001	 1.634890732645615e+000	 3.159716634670319e+000
 3.073936732910061e-001	 1.638077628498721e+000	 3.092650607867401e+000
 2.908918240118034e-001	 1.641088412976345e+000	 3.029332025926908e+000
 2.744127541062840e-001	 1.643924238039060e+000	 2.970010459039827e+000
 2.579589685574620e-001	 1.646586299037103e+000	 2.914958027968857e+000
 2.415329321319333e-001	 1.649075833369447e+000	 2.864471614901726e+000
 2.251370686738320e-001	 1.651394119133861e+000	 2.818874431336717e+000
 2.087737604459027e-001	 1.653542473769713e+000	 2.778517087125739e+000
 1.924453475173707e-001	 1.655522252695209e+000	 2.743778299744635e+000
 1.761541271982328e-001	 1.657334847940780e+000	 2.715065376765260e+000
 1.599023535195375e-001	 1.658981686780223e+000	 2.692814597467885e+000
 1.535059523551476e-001	 1.592619234080585e+000	 2.429988860503210e+000
 1.379419454236043e-001	 1.594042674868919e+000	 2.405079096068050e+000
 1.224200535966850e-001	 1.595309780082036e+000	 2.384667584457493e+000
 1.069423457192570e-001	 1.596422014541718e+000	 2.368072181436838e+000
 9.151084653197959e-002	 1.597380871690691e+000	 2.354699517337967e+000
 7.612753639004517e-002	 1.598187872276344e+000	 2.344050772302342e+000
 6.079435102347421e-002	 1.598844563041398e+000	 2.335727532751823e+000
 4.551318133816635e-002	 1.599352515422813e+000	 2.329437770817844e+000
 3.028587325687572e-002	 1.599713324260166e+000	 2.325001981345366e+000
 1.511422759924549e-002	 1.599928606514677e+000	 2.322359503984520e+000
 0.000000000000000e+000	 1.600000000000000e+000	 2.321575048772034e+000
 1.541455924711945e-001	 1.599255479352131e+000	 2.485265333720894e+000
 1.385167322682697e-001	 1.600684851440509e+000	 2.461023460920528e+000
 1.229301626583410e-001	 1.601957236522953e+000	 2.441326485970901e+000
 1.073879611068879e-001	 1.603074105524943e+000	 2.425506738699444e+000
 9.189216079140575e-002	 1.604036958112175e+000	 2.412980656753839e+000
 7.644475031897427e-002	 1.604847321368774e+000	 2.403254375379929e+000
 6.104767348555383e-002	 1.605506748482524e+000	 2.395929425977146e+000
 4.570282907620749e-002	 1.606016817438340e+000	 2.390708586665770e+000
 3.041207070541374e-002	 1.606379129721276e+000	 2.387401920695393e+000
 1.517720669660126e-002	 1.606595309030202e+000	 2.385933031161097e+000
 0.000000000000000e+000	 1.606667000003317e+000	 2.386345551482840e+000
 1.547852325875027e-001	 1.605891724623038e+000	 2.534150344249178e+000
 1.390915191131006e-001	 1.607327028011525e+000	 2.510644891414563e+000
 1.234402717200479e-001	 1.608604692963362e+000	 2.491705395527834e+000
 1.078335764944499e-001	 1.609726196507734e+000	 2.476662576528130e+000
 9.227347505065067e-002	 1.610693044533295e+000	 2.464927064192756e+000
 7.676196424762999e-002	 1.611506770460910e+000	 2.455994802682160e+000
 6.130099594730060e-002	 1.612168933923417e+000	 2.449452590979974e+000
 4.589247681390136e-002	 1.612681119453689e+000	 2.444983804026272e+000
 3.053826815364729e-002	 1.613044935182250e+000	 2.442374331654214e+000
 1.524018579376439e-002	 1.613262011545619e+000	 2.441518764804943e+000
 0.000000000000000e+000	 1.613334000006534e+000	 2.442426849584343e+000
 1.554248727040072e-001	 1.612527969893416e+000	 2.576622986060925e+000
 1.396663059580556e-001	 1.613969204582053e+000	 2.553912973121485e+000
 1.239503807817931e-001	 1.615252149403328e+000	 2.535768661154332e+000
 1.082791918819602e-001	 1.616378287490125e+000	 2.521503334949030e+000
 9.265478930975965e-002	 1.617349130954059e+000	 2.510506453048203e+000
 7.707917817608065e-002	 1.618166219552732e+000	 2.502248866942243e+000
 6.155431840879776e-002	 1.618831119364033e+000	 2.496288202862643e+000
 4.608212455133484e-002	 1.619345421468792e+000	 2.492274452603566e+000
 3.066446560165248e-002	 1.619710740643001e+000	 2.489955811834999e+000
 1.530316489078306e-002	 1.619928714060829e+000	 2.489184796429643e+000
 0.000000000000000e+000	 1.620001000009550e+000	 2.489924658546727e+000
 1.560645128206423e-001	 1.619164215163372e+000	 2.612663248541506e+000
 1.402410928030933e-001	 1.620611381152179e+000	 2.590798190588182e+000
 1.244604898435637e-001	 1.621899605842912e+000	 2.573481477143604e+000
 1.087248072694361e-001	 1.623030378472153e+000	 2.559993389069328e+000
 9.303610356877803e-002	 1.624005217374477e+000	 2.549687099999225e+000
 7.739639210439463e-002	 1.624825668644220e+000	 2.541993709709429e+000
 6.180764087012852e-002	 1.625493304804328e+000	 2.536427466405042e+000
 4.627177228859470e-002	 1.626009723483584e+000	 2.532591226047868e+000
 3.079066304950546e-002	 1.626376546103448e+000	 2.530182188599846e+000
 1.536614398770540e-002	 1.626595416575738e+000	 2.528997942829371e+000
 0.000000000000000e+000	 1.626668000012268e+000	 2.528942842625799e+000
 1.567041529373427e-001	 1.625800460433011e+000	 2.642252006447893e+000
 1.408158796481724e-001	 1.627253557721992e+000	 2.621271916274009e+000
 1.249705989053471e-001	 1.628547062282178e+000	 2.604809873070598e+000
 1.091704226568947e-001	 1.629682469453853e+000	 2.592097839341134e+000
 9.341741782775104e-002	 1.630661303794554e+000	 2.582437837765290e+000
 7.771360603264023e-002	 1.631485117735354e+000	 2.575206797914553e+000
 6.206096333137607e-002	 1.632155490244256e+000	 2.569861617832637e+000
 4.646142002576775e-002	 1.632674025497995e+000	 2.565944490375578e+000
 3.091686049728231e-002	 1.633042351563504e+000	 2.563088535660192e+000
 1.542912308457960e-002	 1.633262119090249e+000	 2.561023772442781e+000
 0.000000000000000e+000	 1.633335000014584e+000	 2.559583452645939e+000
 1.573437930540432e-001	 1.632436705702442e+000	 2.665371010077591e+000
 1.413906664932514e-001	 1.633895734291576e+000	 2.645306399732075e+000
 1.254807079671305e-001	 1.635194518721186e+000	 2.629720703051549e+000
 1.096160380443534e-001	 1.636334560435261e+000	 2.617782502043362e+000
 9.379873208672410e-002	 1.637317390214300e+000	 2.608728048029443e+000
 7.803081996088587e-002	 1.638144566826117e+000	 2.601865920517143e+000
 6.231428579262363e-002	 1.638817675683773e+000	 2.596581926537311e+000
 4.665106776294084e-002	 1.639338327511960e+000	 2.592344292189136e+000
 3.104305794505919e-002	 1.639708157023086e+000	 2.588709189273159e+000
 1.549210218145381e-002	 1.639928821604267e+000	 2.585326631080110e+000
 0.000000000000000e+000	 1.640002000016400e+000	 2.581946762859496e+000
 1.579834331706782e-001	 1.639072950971772e+000	 2.682002875632777e+000
 1.419654533382891e-001	 1.640537910861019e+000	 2.662874757018900e+000
 1.259908170289011e-001	 1.641841975160000e+000	 2.648181635243498e+000
 1.100616534318293e-001	 1.642986651416412e+000	 2.637013899983522e+000
 9.418004634574248e-002	 1.643973476633723e+000	 2.628527654522668e+000
 7.834803388919989e-002	 1.644804015916488e+000	 2.621949185225493e+000
 6.256760825395444e-002	 1.645479861122833e+000	 2.616579696753599e+000
 4.684071550020075e-002	 1.646002629525412e+000	 2.611800366689423e+000
 3.116925539291220e-002	 1.646373962482108e+000	 2.607077764045356e+000
 1.555508127837619e-002	 1.646595524117697e+000	 2.601969667020609e+000
 0.000000000000000e+000	 1.646669000017617e+000	 2.596131306912268e+000
 1.586230732871825e-001	 1.645709196241107e+000	 2.692131075777973e+000
 1.425402401832440e-001	 1.647180087430407e+000	 2.673950960332490e+000
 1.265009260906462e-001	 1.648489431598683e+000	 2.660161141575967e+000
 1.105072688193396e-001	 1.649638742397343e+000	 2.649759253405911e+000
 9.456136060485151e-002	 1.650629563052830e+000	 2.641807116264680e+000
 7.866524781765064e-002	 1.651463465006448e+000	 2.635435015289336e+000
 6.282093071545165e-002	 1.652142046561392e+000	 2.629846269189324e+000
 4.703036323763429e-002	 1.652666931538284e+000	 2.624322145498232e+000
 3.129545284091747e-002	 1.653039767940489e+000	 2.618227168349577e+000
 1.561806037539490e-002	 1.653262226630441e+000	 2.611014855503608e+000
 0.000000000000000e+000	 1.653336000018133e+000	 2.602233912937169e+000
 1.592627134034907e-001	 1.652345441510555e+000	 2.695739930386213e+000
 1.431150270280749e-001	 1.653822263999829e+000	 2.678509827870930e+000
 1.270110351523531e-001	 1.655136888037296e+000	 2.665628487708631e+000
 1.109528842069016e-001	 1.656290833378089e+000	 2.655986471107730e+000
 9.494267486409647e-002	 1.657285649471628e+000	 2.648537420958703e+000
 7.898246174630642e-002	 1.658122914095977e+000	 2.642302146366474e+000
 6.307425317719857e-002	 1.658804231999406e+000	 2.636373022616763e+000
 4.722001097532829e-002	 1.659331233550508e+000	 2.629918764285353e+000
 3.142165028915112e-002	 1.659705573398140e+000	 2.622189619375912e+000
 1.568103947255809e-002	 1.659928929142404e+000	 2.612523022630683e+000
 0.000000000000000e+000	 1.660003000017850e+000	 2.600349737804398e+000
 1.599023535195375e-001	 1.658981686780223e+000	 2.692814597467885e+000
 1.436898138727403e-001	 1.660464440569369e+000	 2.676527013902180e+000
 1.275211442140091e-001	 1.661784344475902e+000	 2.664553723207105e+000
 1.113984995945325e-001	 1.662942924358685e+000	 2.655664141749765e+000
 9.532398912352270e-002	 1.663941735890127e+000	 2.648690078536118e+000
 7.929967567523567e-002	 1.664782363185058e+000	 2.642529623455566e+000
 6.332757563927832e-002	 1.665466417436829e+000	 2.636151375417782e+000
 4.740965871336957e-002	 1.665995535562018e+000	 2.628599070214522e+000
 3.154784773768926e-002	 1.666371378854980e+000	 2.618996657813705e+000
 1.574401856991394e-002	 1.666595631653491e+000	 2.606553868692964e+000
 0.000000000000000e+000	 1.666670000016666e+000	 2.590572300547192e+000
 1.666670000016666e+000	 0.000000000000000e+000	 1.352716164024522e+001
 1.666595631653491e+000	 1.574401856991399e-002	 1.353504765376085e+001
 1.666371378854980e+000	 3.154784773768937e-002	 1.353898440541591e+001
 1.665995535562018e+000	 4.740965871336945e-002	 1.354007897519229e+001
 1.665466417436829e+000	 6.332757563927825e-002	 1.353940987119837e+001
 1.664782363185057e+000	 7.929967567523566e-002	 1.353802417710819e+001
 1.663941735890127e+000	 9.532398912352275e-002	 1.353693471944942e+001
 1.662942924358684e+000	 1.113984995945326e-001	 1.353711727863777e+001
 1.661784344475902e+000	 1.275211442140089e-001	 1.353950786354641e+001
 1.660464440569369e+000	 1.436898138727402e-001	 1.354500007226052e+001
 1.658981686780223e+000	 1.599023535195375e-001	 1.355444256465684e+001
 1.673336000014533e+000	 0.000000000000000e+000	 1.349485050950185e+001
 1.673261334208274e+000	 1.580698822110226e-002	 1.350299800243289e+001
 1.673036184490139e+000	 3.167402625791183e-002	 1.350708309012032e+001
 1.672658837977462e+000	 4.759927800607734e-002	 1.350825080243383e+001
 1.672127603595793e+000	 6.358086010527679e-002	 1.350761623739419e+001
 1.671440813406267e+000	 7.961684202477344e-002	 1.350626161680051e+001
 1.670596823945298e+000	 9.570524618888120e-002	 1.350523335413069e+001
 1.669594017575405e+000	 1.118440481432776e-001	 1.350553915861058e+001
 1.668430803845940e+000	 1.280311767630718e-001	 1.350814519524244e+001
 1.667105620862422e+000	 1.442645145034966e-001	 1.351397332353760e+001
 1.665616936663168e+000	 1.605418976940590e-001	 1.352389844078392e+001
 1.680002000011600e+000	 0.000000000000000e+000	 1.345985078990368e+001
 1.679927036762280e+000	 1.586995787248314e-002	 1.346835087840189e+001
 1.679700990124582e+000	 3.180020477843872e-002	 1.347267323068726e+001
 1.679322140392283e+000	 4.778889729913242e-002	 1.347400077094264e+001
 1.678788789754250e+000	 6.383414457160808e-002	 1.347348527658368e+001
 1.678099263627101e+000	 7.993400837458459e-002	 1.347224434484609e+001
 1.677251912000235e+000	 9.608650325442089e-002	 1.347135836361769e+001
 1.676245110792035e+000	 1.122895966920916e-001	 1.347186751037737e+001
 1.675077263216021e+000	 1.285412093120837e-001	 1.347476879901387e+001
 1.673746801155640e+000	 1.448392151340876e-001	 1.348101319734134e+001
 1.672252186546373e+000	 1.611814418683190e-001	 1.349150284131568e+001
 1.686668000008066e+000	 0.000000000000000e+000	 1.342227164661616e+001
 1.686592739315701e+000	 1.593292752400844e-002	 1.343119782001469e+001
 1.686365795758486e+000	 3.192638329919390e-002	 1.343582979351198e+001
 1.685985442806634e+000	 4.797851659244783e-002	 1.343738831514415e+001
 1.685449975912325e+000	 6.408742903818895e-002	 1.343706191697469e+001
 1.684757713847654e+000	 8.025117472460075e-002	 1.343600379543600e+001
 1.683907000054997e+000	 9.646776032009649e-002	 1.343532868742811e+001
 1.682896204008598e+000	 1.127351452409572e-001	 1.343610976597194e+001
 1.681723722586136e+000	 1.290512418610573e-001	 1.343937557514979e+001
 1.680387981448981e+000	 1.454139157645546e-001	 1.344610702720125e+001
 1.678887436429775e+000	 1.618209860423830e-001	 1.345723448793336e+001
 1.693334000004133e+000	 0.000000000000000e+000	 1.338221881786348e+001
 1.693258441868734e+000	 1.599589717563005e-002	 1.339162752152193e+001
 1.693030601392032e+000	 3.205256182010128e-002	 1.339662545244025e+001
 1.692648745220673e+000	 4.816813588593683e-002	 1.339847109716502e+001
 1.692111162070147e+000	 6.434071350493616e-002	 1.339838980347976e+001
 1.691416164068019e+000	 8.056834107475357e-002	 1.339757057732165e+001
 1.690562088109642e+000	 9.684901738586264e-002	 1.339716286649722e+001
 1.689547297225114e+000	 1.131806937898572e-001	 1.339827335490465e+001
 1.688370181956273e+000	 1.295612744100055e-001	 1.340196278692804e+001
 1.687029161742404e+000	 1.459886163949388e-001	 1.340924284490390e+001
 1.685522686313308e+000	 1.624605302163164e-001	 1.342107310595501e+001
 1.700000000000000e+000	 0.000000000000000e+000	 1.333979468211688e+001
 1.699924144421573e+000	 1.605886682729980e-002	 1.334972589202649e+001
 1.699695407025399e+000	 3.217874034108477e-002	 1.335513063977511e+001
 1.699312047634556e+000	 4.835775517951264e-002	 1.335730505019293e+001
 1.698772348227841e+000	 6.459399797176661e-002	 1.335751133372390e+001
 1.698074614288291e+000	 8.088550742497475e-002	 1.335697450276293e+001
 1.697217176164229e+000	 9.723027445167416e-002	 1.335687906535724e+001
 1.696198390441607e+000	 1.136262423387745e-001	 1.335836571986149e+001
 1.695016641326421e+000	 1.300713069589410e-001	 1.336252807012011e+001
 1.693670342035869e+000	 1.465633170252817e-001	 1.337040938408905e+001
 1.692157936196906e+000	 1.631000743901843e-001	 1.338299942230596e+001
 1.706665999995867e+000	 0.000000000000000e+000	 1.329509832370822e+001
 1.706589846974411e+000	 1.612183647896955e-002	 1.330557611304976e+001
 1.706360212658765e+000	 3.230491886206825e-002	 1.331141359608299e+001
 1.705975350048439e+000	 4.854737447308842e-002	 1.331394442080940e+001
 1.705433534385535e+000	 6.484728243859705e-002	 1.331446769318869e+001
 1.704733064508563e+000	 8.120267377519590e-002	 1.331424461576657e+001
 1.703872264218816e+000	 9.761153151748565e-002	 1.331449509375081e+001
 1.702849483658101e+000	 1.140717908876918e-001	 1.331639433197200e+001
 1.701663100696569e+000	 1.305813395078764e-001	 1.332106944219237e+001
 1.700311522329333e+000	 1.471380176556246e-001	 1.332959608365914e+001
 1.698793186080504e+000	 1.637396185640524e-001	 1.334299516341026e+001
 1.713331999991934e+000	 0.000000000000000e+000	 1.324822559691194e+001
 1.713255549527444e+000	 1.618480613059116e-002	 1.325925869475238e+001
 1.713025018292311e+000	 3.243109738297564e-002	 1.326554041883217e+001
 1.712638652462478e+000	 4.873699376657743e-002	 1.326844181032291e+001
 1.712094720543356e+000	 6.510056690534430e-002	 1.326929888951492e+001
 1.711391514728927e+000	 8.151984012534873e-002	 1.326940921963291e+001
 1.710527352273460e+000	 9.799278858325182e-002	 1.327002842769367e+001
 1.709500576874617e+000	 1.145173394365918e-001	 1.327236670565911e+001
 1.708309560066707e+000	 1.310913720568246e-001	 1.327758531121065e+001
 1.706952702622756e+000	 1.477127182860088e-001	 1.328679309100616e+001
 1.705428435964036e+000	 1.643791627379857e-001	 1.330104305300505e+001
 1.719997999988401e+000	 0.000000000000000e+000	 1.319926918853692e+001
 1.719921252080866e+000	 1.624777578211647e-002	 1.321085153084656e+001
 1.719689823926216e+000	 3.255727590373082e-002	 1.321757510989466e+001
 1.719301954876829e+000	 4.892661305989284e-002	 1.322084821512901e+001
 1.718755906701431e+000	 6.535385137192518e-002	 1.322204378598777e+001
 1.718049964949481e+000	 8.183700647536488e-002	 1.322249590383018e+001
 1.717182440328223e+000	 9.837404564892741e-002	 1.322349623000244e+001
 1.716151670091179e+000	 1.149628879854574e-001	 1.322629041308135e+001
 1.714956019436821e+000	 1.316014046057983e-001	 1.323207448445725e+001
 1.713593882916098e+000	 1.482874189164758e-001	 1.324199126506162e+001
 1.712063685847439e+000	 1.650187069120498e-001	 1.325712680988000e+001
 1.726663999985468e+000	 0.000000000000000e+000	 1.314831867906843e+001
 1.726586954634872e+000	 1.631074543349734e-002	 1.316042995223478e+001
 1.726354629560658e+000	 3.268345442425769e-002	 1.316757962194356e+001
 1.725965257291649e+000	 4.911623235294792e-002	 1.317121306612431e+001
 1.725417092859888e+000	 6.560713583825646e-002	 1.317274013422574e+001
 1.724708415170315e+000	 8.215417282517601e-002	 1.317353157021504e+001
 1.723837528383160e+000	 9.875530271446710e-002	 1.317491537030084e+001
 1.722802763307809e+000	 1.154084365342713e-001	 1.317817309817810e+001
 1.721602478806902e+000	 1.321114371548102e-001	 1.318453617676734e+001
 1.720235063209315e+000	 1.488621195470668e-001	 1.319518217917388e+001
 1.718698935730645e+000	 1.656582510863099e-001	 1.321123114554359e+001
 1.733329999983334e+000	 0.000000000000000e+000	 1.309546060239933e+001
 1.733252657189655e+000	 1.637371508468560e-002	 1.310806677941041e+001
 1.733019435195817e+000	 3.280963294448016e-002	 1.311561390377380e+001
 1.732628559707093e+000	 4.930585164565578e-002	 1.311958426719985e+001
 1.732078279018852e+000	 6.586042030425496e-002	 1.312142460609525e+001
 1.731366865391524e+000	 8.247133917471382e-002	 1.312254245861632e+001
 1.730492616438330e+000	 9.913655977982551e-002	 1.312430244451933e+001
 1.729453856524530e+000	 1.158539850830164e-001	 1.312802249033026e+001
 1.728248938176940e+000	 1.326214697038731e-001	 1.313497001859323e+001
 1.726876243502368e+000	 1.494368201778232e-001	 1.314635812381790e+001
 1.725334185613589e+000	 1.662977952608313e-001	 1.316334176181893e+001
 1.658981686780223e+000	 1.599023535195375e-001	 1.355444256465684e+001
 1.657334847940780e+000	 1.761541271982330e-001	 1.356421214884962e+001
 1.655522252695209e+000	 1.924453475173706e-001	 1.357072414485992e+001
 1.653542473769712e+000	 2.087737604459026e-001	 1.357478939745019e+001
 1.651394119133861e+000	 2.251370686738319e-001	 1.357714310518779e+001
 1.649075833369447e+000	 2.415329321319333e-001	 1.357844247052938e+001
 1.646586299037103e+000	 2.579589685574621e-001	 1.357926469766671e+001
 1.643924238039060e+000	 2.744127541062840e-001	 1.358010538860144e+001
 1.641088412976345e+000	 2.908918240118035e-001	 1.358137739107274e+001
 1.638077628498721e+000	 3.073936732910060e-001	 1.358341015496714e+001
 1.634890732645614e+000	 3.239157574978582e-001	 1.358644965665902e+001
 1.665616936663168e+000	 1.605418976940590e-001	 1.352389844078392e+001
 1.663963511140317e+000	 1.768586718366747e-001	 1.353418571269791e+001
 1.662143666253301e+000	 1.932150503902340e-001	 1.354113402869932e+001
 1.660155969019819e+000	 2.096087703084788e-001	 1.354556978945946e+001
 1.657999021841892e+000	 2.260375250931031e-001	 1.354824143826468e+001
 1.655671463880202e+000	 2.424989653155540e-001	 1.354981696186837e+001
 1.653171972426168e+000	 2.589906991850011e-001	 1.355088173516393e+001
 1.650499264270160e+000	 2.755102931629164e-001	 1.355193676114565e+001
 1.647652097064122e+000	 2.920552726246376e-001	 1.355339736090915e+001
 1.644629270676909e+000	 3.086231225682336e-001	 1.355559237158216e+001
 1.641429628540587e+000	 3.252112883709185e-001	 1.355876391302409e+001
 1.672252186546373e+000	 1.611814418683190e-001	 1.349150284131568e+001
 1.670592174340183e+000	 1.775632164747879e-001	 1.350239349240485e+001
 1.668765079811762e+000	 1.939847532627299e-001	 1.350986819443030e+001
 1.666769464270311e+000	 2.104437801706726e-001	 1.351476756170290e+001
 1.664603924550310e+000	 2.269379815119976e-001	 1.351785201761413e+001
 1.662267094391329e+000	 2.434649984988196e-001	 1.351979914648846e+001
 1.659757645815585e+000	 2.600224298122194e-001	 1.352120138491440e+001
 1.657074290501588e+000	 2.766078322192714e-001	 1.352256410502271e+001
 1.654215781152202e+000	 2.932187212372420e-001	 1.352430414559792e+001
 1.651180912855386e+000	 3.098525718452793e-001	 1.352674885018463e+001
 1.647968524435843e+000	 3.265068192438411e-001	 1.353013567443196e+001
 1.678887436429775e+000	 1.618209860423830e-001	 1.345723448793336e+001
 1.677220837540294e+000	 1.782677611126548e-001	 1.346880633974064e+001
 1.675386493370501e+000	 1.947544561349501e-001	 1.347689017180204e+001
 1.673382959521094e+000	 2.112787900325795e-001	 1.348233949318850e+001
 1.671208827259018e+000	 2.278384379306091e-001	 1.348592546733955e+001
 1.668862724902740e+000	 2.444310316818189e-001	 1.348833411507111e+001
 1.666343319205270e+000	 2.610541604391978e-001	 1.349016385230806e+001
 1.663649316733267e+000	 2.777053712754186e-001	 1.349192341601212e+001
 1.660779465240521e+000	 2.943821698496740e-001	 1.349403023533446e+001
 1.657732555034092e+000	 3.110820211221886e-001	 1.349680930843400e+001
 1.654507420331330e+000	 3.278023501166605e-001	 1.350049264862347e+001
 1.685522686313308e+000	 1.624605302163164e-001	 1.342107310595501e+001
 1.683849500740571e+000	 1.789723057503575e-001	 1.343339638919468e+001
 1.682007906929424e+000	 1.955241590069866e-001	 1.344216502947131e+001
 1.679996454772071e+000	 2.121137998942951e-001	 1.344824413514081e+001
 1.677813729967922e+000	 2.287388943490322e-001	 1.345241439424595e+001
 1.675458355414341e+000	 2.453970648646408e-001	 1.345536912875799e+001
 1.672928992595139e+000	 2.620858910660156e-001	 1.345771167836453e+001
 1.670224342965123e+000	 2.788029103314271e-001	 1.345995316828178e+001
 1.667343149329012e+000	 2.955456184619912e-001	 1.346251071926852e+001
 1.664284197212972e+000	 3.123114703990072e-001	 1.346570616157370e+001
 1.661046316227001e+000	 3.290978809894109e-001	 1.346976531791113e+001
 1.692157936196906e+000	 1.631000743901843e-001	 1.338299942230596e+001
 1.690478163940929e+000	 1.796768503879781e-001	 1.339613705053847e+001
 1.688629320488439e+000	 1.962938618789311e-001	 1.340565936231660e+001
 1.686609950023146e+000	 2.129488097559151e-001	 1.341244179323186e+001
 1.684418632676925e+000	 2.296393507673610e-001	 1.341727336516160e+001
 1.682053985926044e+000	 2.463630980473739e-001	 1.342085359174389e+001
 1.679514665985109e+000	 2.631176216927534e-001	 1.342378970778668e+001
 1.676799369197082e+000	 2.799004493873660e-001	 1.342659427809923e+001
 1.673906833417610e+000	 2.967090670742509e-001	 1.342968324507817e+001
 1.670835839391969e+000	 3.135409196757802e-001	 1.343337447808059e+001
 1.667585212122803e+000	 3.303934118621271e-001	 1.343788689112510e+001
 1.698793186080504e+000	 1.637396185640524e-001	 1.334299516341026e+001
 1.697106827141288e+000	 1.803813950255987e-001	 1.335700300141015e+001
 1.695250734047455e+000	 1.970635647508755e-001	 1.336734127886786e+001
 1.693223445274223e+000	 2.137838196175351e-001	 1.337489451001663e+001
 1.691023535385935e+000	 2.305398071856900e-001	 1.338045888454601e+001
 1.688649616437755e+000	 2.473291312301070e-001	 1.338473902423275e+001
 1.686100339375097e+000	 2.641493523194912e-001	 1.338834505744733e+001
 1.683374395429068e+000	 2.809979884433050e-001	 1.339179006803953e+001
 1.680470517506249e+000	 2.978725156865105e-001	 1.339548797909647e+001
 1.677387481571024e+000	 3.147703689525531e-001	 1.339975193591718e+001
 1.674124108018686e+000	 3.316889427348433e-001	 1.340479325620474e+001
 1.705428435964036e+000	 1.643791627379857e-001	 1.330104305300505e+001
 1.703735490341565e+000	 1.810859396633014e-001	 1.331597017991962e+001
 1.701872147606379e+000	 1.978332676229120e-001	 1.332718038884977e+001
 1.699836940525207e+000	 2.146188294792508e-001	 1.333556604756739e+001
 1.697628438094854e+000	 2.314402636041131e-001	 1.334192937237742e+001
 1.695245246949386e+000	 2.482951644129290e-001	 1.334697903574687e+001
 1.692686012765018e+000	 2.651810829463092e-001	 1.335132708529647e+001
 1.689949421661007e+000	 2.820955274993134e-001	 1.335548623167466e+001
 1.687034201594864e+000	 2.990359642988277e-001	 1.335986756697572e+001
 1.683939123750080e+000	 3.159998182293716e-001	 1.336477877936967e+001
 1.680663003914598e+000	 3.329844736075937e-001	 1.337042293341829e+001
 1.712063685847439e+000	 1.650187069120498e-001	 1.325712680988000e+001
 1.710364153541677e+000	 1.817904843011683e-001	 1.327301577727444e+001
 1.708493561165121e+000	 1.986029704951322e-001	 1.328514779083421e+001
 1.706450435776001e+000	 2.154538393411577e-001	 1.329442187030223e+001
 1.704233340803587e+000	 2.323407200227247e-001	 1.330164514231201e+001
 1.701840877460846e+000	 2.492611975959284e-001	 1.330752929877993e+001
 1.699271686154788e+000	 2.662128135732873e-001	 1.331268735967884e+001
 1.696524447892823e+000	 2.831930665554607e-001	 1.331763079873316e+001
 1.693597885683388e+000	 3.001994129112597e-001	 1.332276709487452e+001
 1.690490765929081e+000	 3.172292675062810e-001	 1.332839777645623e+001
 1.687201899810491e+000	 3.342800044804131e-001	 1.333471702919361e+001
 1.718698935730645e+000	 1.656582510863099e-001	 1.321123114554359e+001
 1.716992816741543e+000	 1.824950289392815e-001	 1.322811823042466e+001
 1.715114974723587e+000	 1.993726733676280e-001	 1.324121606000008e+001
 1.713063931026507e+000	 2.162888492033513e-001	 1.325142912800129e+001
 1.710838243512040e+000	 2.332411764416190e-001	 1.325956838010715e+001
 1.708436507972044e+000	 2.502272307791940e-001	 1.326634752278421e+001
 1.705857359544326e+000	 2.672445442005058e-001	 1.327237962904898e+001
 1.703099474124443e+000	 2.842906056118157e-001	 1.327817410071597e+001
 1.700161569771757e+000	 3.013628615238641e-001	 1.328413405115354e+001
 1.697042408107968e+000	 3.184587167833267e-001	 1.329055417689033e+001
 1.693740795706314e+000	 3.355755353533357e-001	 1.329761919054335e+001
 1.725334185613589e+000	 1.662977952608313e-001	 1.316334176181893e+001
 1.723621479941080e+000	 1.831995735777232e-001	 1.318125721472786e+001
 1.721736388281684e+000	 2.001423762404914e-001	 1.319535923599702e+001
 1.719677426276633e+000	 2.171238590659275e-001	 1.320655663900718e+001
 1.717443146220116e+000	 2.341416328608902e-001	 1.321566312230216e+001
 1.715032138482888e+000	 2.511932639628145e-001	 1.322339342848316e+001
 1.712443032933547e+000	 2.682762748280447e-001	 1.323035979207501e+001
 1.709674500355791e+000	 2.853881446684482e-001	 1.323706873695672e+001
 1.706725253859903e+000	 3.025263101366982e-001	 1.324391828856680e+001
 1.703594050286686e+000	 3.196881660605542e-001	 1.325119567058328e+001
 1.700279691602013e+000	 3.368710662263961e-001	 1.325907556006869e+001
 1.634890732645614e+000	 3.239157574978582e-001	 1.358644965665902e+001
 1.631526100396023e+000	 3.404579752862290e-001	 1.359027701383598e+001
 1.627983136101961e+000	 3.570152242169341e-001	 1.359442297236633e+001
 1.624260826901171e+000	 3.735848413019251e-001	 1.359864781993671e+001
 1.620358208614037e+000	 3.901641274764114e-001	 1.360264894716990e+001
 1.616274367013765e+000	 4.067503485921295e-001	 1.360606533351819e+001
 1.612008439076500e+000	 4.233407364581182e-001	 1.360848299458005e+001
 1.607559614209450e+000	 4.399324899287324e-001	 1.360944145909352e+001
 1.602927135455114e+000	 4.565227760385444e-001	 1.360844134340907e+001
 1.598110300669677e+000	 4.731087311836948e-001	 1.360495309017840e+001
 1.593108463673670e+000	 4.896874623491745e-001	 1.359842693627071e+001
 1.641429628540587e+000	 3.252112883709185e-001	 1.355876391302409e+001
 1.638051539134735e+000	 3.418196682812129e-001	 1.356276395475265e+001
 1.634494404429018e+000	 3.584431394522586e-001	 1.356719379976866e+001
 1.630757207510138e+000	 3.750790282451421e-001	 1.357180476773287e+001
 1.626838980342146e+000	 3.917246247999180e-001	 1.357628225561977e+001
 1.622738805041713e+000	 4.083771840328471e-001	 1.358025010695082e+001
 1.618455815133233e+000	 4.250339266813353e-001	 1.358327595305699e+001
 1.613989196781871e+000	 4.416920403963000e-001	 1.358487759675364e+001
 1.609338190002595e+000	 4.583486808816095e-001	 1.358453050843809e+001
 1.604502089843302e+000	 4.750009730801597e-001	 1.358167650361877e+001
 1.599480247540058e+000	 4.916460124060639e-001	 1.357573366921161e+001
 1.647968524435843e+000	 3.265068192438411e-001	 1.353013567443196e+001
 1.644576977873742e+000	 3.431813612760960e-001	 1.353439022803891e+001
 1.641005672756396e+000	 3.598710546875106e-001	 1.353918752560006e+001
 1.637253588119463e+000	 3.765732151883082e-001	 1.354426974571440e+001
 1.633319752070662e+000	 3.932851221233866e-001	 1.354931010828832e+001
 1.629203243070121e+000	 4.100040194735312e-001	 1.355391712156129e+001
 1.624903191190486e+000	 4.267271169045155e-001	 1.355763981162444e+001
 1.620418779354871e+000	 4.434515908638193e-001	 1.355997400698812e+001
 1.615749244550718e+000	 4.601745857246073e-001	 1.356036975046427e+001
 1.610893879017623e+000	 4.768932149765299e-001	 1.355823990969571e+001
 1.605852031407194e+000	 4.936045624628233e-001	 1.355297005604518e+001
 1.654507420331330e+000	 3.278023501166605e-001	 1.350049264862347e+001
 1.651102416612997e+000	 3.445430542709037e-001	 1.350508194638180e+001
 1.647516941084049e+000	 3.612989699227090e-001	 1.351032873003097e+001
 1.643749968729099e+000	 3.780674021314358e-001	 1.351596588685745e+001
 1.639800523799534e+000	 3.948456194468263e-001	 1.352165429958244e+001
 1.635667681098937e+000	 4.116308549141900e-001	 1.352698696547873e+001
 1.631350567248200e+000	 4.284203071276679e-001	 1.353149410829276e+001
 1.626848361928386e+000	 4.452111413313026e-001	 1.353464935774761e+001
 1.622160299099407e+000	 4.620004905675545e-001	 1.353587707119584e+001
 1.617285668192562e+000	 4.787854568728293e-001	 1.353456087112964e+001
 1.612223815274991e+000	 4.955631125194851e-001	 1.353005347069193e+001
 1.661046316227001e+000	 3.290978809894109e-001	 1.346976531791113e+001
 1.657627855352454e+000	 3.459047472656610e-001	 1.347476805866952e+001
 1.654028209411931e+000	 3.627268851578712e-001	 1.348054488208738e+001
 1.650246349339003e+000	 3.795615890745382e-001	 1.348681925719197e+001
 1.646281295528715e+000	 3.964061167702468e-001	 1.349323959324813e+001
 1.642132119128106e+000	 4.132576903548320e-001	 1.349938322510697e+001
 1.637797943306315e+000	 4.301134973508023e-001	 1.350476140151551e+001
 1.633277944502351e+000	 4.469706917987621e-001	 1.350882535342661e+001
 1.628571353648595e+000	 4.638263954104682e-001	 1.351097351923144e+001
 1.623677457368042e+000	 4.806776987690811e-001	 1.351056000304925e+001
 1.618595599143369e+000	 4.975216625760818e-001	 1.350690434070421e+001
 1.667585212122803e+000	 3.303934118621271e-001	 1.343788689112510e+001
 1.664153294092064e+000	 3.472664402603927e-001	 1.344338029834555e+001
 1.660539477739998e+000	 3.641548003930156e-001	 1.344976628441520e+001
 1.656742729949124e+000	 3.810557760176273e-001	 1.345675879698491e+001
 1.652762067258152e+000	 3.979666140936578e-001	 1.346399365998560e+001
 1.648596557157575e+000	 4.148845257954658e-001	 1.347103241919150e+001
 1.644245319364772e+000	 4.318066875739274e-001	 1.347736720073410e+001
 1.639707527076701e+000	 4.487302422662094e-001	 1.348242666191787e+001
 1.634982408198208e+000	 4.656523002533648e-001	 1.348558311366237e+001
 1.630069246543986e+000	 4.825699406653090e-001	 1.348616089318600e+001
 1.624967383012244e+000	 4.994802126326459e-001	 1.348344606410412e+001
 1.674124108018686e+000	 3.316889427348433e-001	 1.340479325620474e+001
 1.670678732831782e+000	 3.486281332551248e-001	 1.341085313244763e+001
 1.667050746068203e+000	 3.655827156281600e-001	 1.341792601876746e+001
 1.663239110559418e+000	 3.825499629607166e-001	 1.342571626268166e+001
 1.659242838987799e+000	 3.995271114170690e-001	 1.343384701585798e+001
 1.655060995187289e+000	 4.165113612360995e-001	 1.344186393371328e+001
 1.650692695423513e+000	 4.334998777970525e-001	 1.344923989778116e+001
 1.646137109651372e+000	 4.504897927336566e-001	 1.345538084255589e+001
 1.641393462748176e+000	 4.674782050962614e-001	 1.345963276859290e+001
 1.636461035720316e+000	 4.844621825615372e-001	 1.346129002301452e+001
 1.631339166881533e+000	 5.014387626892100e-001	 1.345960492719328e+001
 1.680663003914598e+000	 3.329844736075937e-001	 1.337042293341829e+001
 1.677204171571562e+000	 3.499898262498820e-001	 1.337712371131254e+001
 1.673562014396502e+000	 3.670106308633223e-001	 1.338495989219379e+001
 1.669735491169838e+000	 3.840441499038187e-001	 1.339362616958572e+001
 1.665723610717605e+000	 4.010876087404895e-001	 1.340273296147141e+001
 1.661525433217197e+000	 4.181381966767416e-001	 1.341180995758698e+001
 1.657140071482478e+000	 4.351930680201866e-001	 1.342031069911946e+001
 1.652566692226297e+000	 4.522493432011159e-001	 1.342761827492549e+001
 1.647804517298428e+000	 4.693041099391749e-001	 1.343305221855412e+001
 1.642852824896957e+000	 4.863544244577892e-001	 1.343587668981306e+001
 1.637710950751154e+000	 5.033973127458068e-001	 1.343531002330806e+001
 1.687201899810491e+000	 3.342800044804131e-001	 1.333471702919361e+001
 1.683729610311356e+000	 3.513515192446896e-001	 1.334213181892918e+001
 1.680073282724848e+000	 3.684385460985206e-001	 1.335080638391405e+001
 1.676231871780339e+000	 3.855383368469466e-001	 1.336042573525628e+001
 1.672204382447522e+000	 4.026481060639292e-001	 1.337058752190701e+001
 1.667989871247243e+000	 4.197650321174004e-001	 1.338080541914160e+001
 1.663587447541608e+000	 4.368862582433393e-001	 1.339051355889349e+001
 1.658996274801414e+000	 4.540088936685994e-001	 1.339907208851215e+001
 1.654215571848892e+000	 4.711300147821222e-001	 1.340577394478672e+001
 1.649244614073828e+000	 4.882466663540884e-001	 1.340985292961926e+001
 1.644082734621023e+000	 5.053558628024685e-001	 1.341049317249474e+001
 1.693740795706314e+000	 3.355755353533357e-001	 1.329761919054335e+001
 1.690255049051116e+000	 3.527132122395728e-001	 1.330581982392208e+001
 1.686584551053196e+000	 3.698664613337728e-001	 1.331540659285673e+001
 1.682728252390872e+000	 3.870325237901126e-001	 1.332605482360447e+001
 1.678685154177500e+000	 4.042086033873977e-001	 1.333734938738247e+001
 1.674454309277374e+000	 4.213918675580843e-001	 1.334878792336281e+001
 1.670034823600847e+000	 4.385794484665195e-001	 1.335978511277202e+001
 1.665425857376654e+000	 4.557684441361188e-001	 1.336967809317120e+001
 1.660626626399497e+000	 4.729559196251200e-001	 1.337773310236941e+001
 1.655636403250854e+000	 4.901389082504588e-001	 1.338315344105667e+001
 1.650454518491058e+000	 5.073144128592279e-001	 1.338508884207947e+001
 1.700279691602013e+000	 3.368710662263961e-001	 1.325907556006869e+001
 1.696780487790798e+000	 3.540749052345567e-001	 1.326813263114839e+001
 1.693095819381501e+000	 3.712943765690969e-001	 1.327870418584502e+001
 1.689224633001393e+000	 3.885267107333296e-001	 1.329045588966931e+001
 1.685165925907488e+000	 4.057691007109044e-001	 1.330295985462524e+001
 1.680918747307537e+000	 4.230187029988018e-001	 1.331569768987574e+001
 1.676482199660132e+000	 4.402726386897363e-001	 1.332806461255995e+001
 1.671855439951955e+000	 4.575279946036862e-001	 1.333937471039366e+001
 1.667037680950171e+000	 4.747818244681850e-001	 1.334886744817036e+001
 1.662028192427957e+000	 4.920311501469236e-001	 1.335571551000903e+001
 1.656826302361175e+000	 5.092729629161171e-001	 1.335903406810928e+001
 1.593108463673670e+000	 4.896874623491745e-001	 1.359842693627071e+001
 1.587921034974506e+000	 5.062560481387889e-001	 1.358999818093024e+001
 1.582547481658774e+000	 5.228115393404682e-001	 1.358119960218152e+001
 1.576987329641599e+000	 5.393509609733571e-001	 1.357209611101354e+001
 1.571240165087962e+000	 5.558713139287027e-001	 1.356280068956526e+001
 1.565305635398965e+000	 5.723695764162470e-001	 1.355349072585730e+001
 1.559183450159039e+000	 5.888427054517342e-001	 1.354442585238675e+001
 1.552873382042270e+000	 6.052876383844026e-001	 1.353596732082773e+001
 1.546375267676036e+000	 6.217012944632478e-001	 1.352859893714209e+001
 1.539689008460209e+000	 6.380805764407584e-001	 1.352294957263323e+001
 1.532814571340203e+000	 6.544223722127311e-001	 1.351981725688379e+001
 1.599480247540058e+000	 4.916460124060639e-001	 1.357573366921161e+001
 1.594272071242548e+000	 5.082808657787366e-001	 1.356785434309851e+001
 1.588877025905930e+000	 5.249025721904650e-001	 1.355959127056109e+001
 1.583294635549190e+000	 5.415081447616857e-001	 1.355097524567044e+001
 1.577524484682149e+000	 5.580945723884372e-001	 1.354208021040870e+001
 1.571566219295666e+000	 5.746588211945348e-001	 1.353303963569597e+001
 1.565419547812639e+000	 5.911978360250292e-001	 1.352406444153447e+001
 1.559084241997952e+000	 6.077085419798073e-001	 1.351546249080293e+001
 1.552560137825569e+000	 6.241878459861199e-001	 1.350765968318391e+001
 1.545847136301012e+000	 6.406326384087306e-001	 1.350122266680063e+001
 1.538945204237500e+000	 6.570397946962920e-001	 1.349688317538847e+001
 1.605852031407194e+000	 4.936045624628233e-001	 1.355297005604518e+001
 1.600623107511378e+000	 5.103056834185110e-001	 1.354572208747275e+001
 1.595206570153903e+000	 5.269936050402385e-001	 1.353806002917773e+001
 1.589601941457623e+000	 5.436653285497373e-001	 1.352997833040172e+001
 1.583808804277191e+000	 5.603178308478363e-001	 1.352150964795873e+001
 1.577826803193227e+000	 5.769480659724274e-001	 1.351274127257697e+001
 1.571655645467094e+000	 5.935529665978695e-001	 1.350383313001077e+001
 1.565295101954475e+000	 6.101294455746986e-001	 1.349503739380088e+001
 1.558745007975918e+000	 6.266743975084232e-001	 1.348671973839986e+001
 1.552005264142597e+000	 6.431847003760839e-001	 1.347938225233679e+001
 1.545075837135533e+000	 6.596572171791894e-001	 1.347368802118326e+001
 1.612223815274991e+000	 4.955631125194851e-001	 1.353005347069193e+001
 1.606974143780907e+000	 5.123305010581556e-001	 1.352351917462763e+001
 1.601536114402605e+000	 5.290846378898453e-001	 1.351652493960851e+001
 1.595909247366803e+000	 5.458225123375806e-001	 1.350902668391796e+001
 1.590093123872993e+000	 5.625410893069841e-001	 1.350101357433101e+001
 1.584087387091552e+000	 5.792373107500243e-001	 1.349252449657741e+001
 1.577891743122305e+000	 5.959080971703684e-001	 1.348366613662913e+001
 1.571505961911738e+000	 6.125503491692055e-001	 1.347463271209216e+001
 1.564929878126983e+000	 6.291609490303003e-001	 1.346572738470995e+001
 1.558163391984861e+000	 6.457367623429725e-001	 1.345738537580598e+001
 1.551206470034202e+000	 6.622746396615893e-001	 1.345019879641823e+001
 1.618595599143369e+000	 4.975216625760818e-001	 1.350690434070421e+001
 1.613325180051048e+000	 5.143553186977137e-001	 1.350116641156879e+001
 1.607865658651945e+000	 5.311756707393406e-001	 1.349490808988146e+001
 1.602216553276638e+000	 5.479796961252855e-001	 1.348804461892908e+001
 1.596377443469460e+000	 5.647643477659644e-001	 1.348051951102931e+001
 1.590347970990539e+000	 5.815265555274233e-001	 1.347232106070562e+001
 1.584127840778174e+000	 5.982632277426403e-001	 1.346350050514480e+001
 1.577716821869641e+000	 6.149712527634555e-001	 1.345419187367682e+001
 1.571114748278663e+000	 6.316475005518931e-001	 1.344463355963246e+001
 1.564321519827708e+000	 6.482888243095517e-001	 1.343519163861630e+001
 1.557337102933408e+000	 6.648920621436569e-001	 1.342638494699474e+001
 1.624967383012244e+000	 4.994802126326459e-001	 1.348344606410412e+001
 1.619676216321714e+000	 5.163801363372280e-001	 1.347858756536509e+001
 1.614195202901830e+000	 5.332667035887803e-001	 1.347313450515708e+001
 1.608523859187033e+000	 5.501368799129206e-001	 1.346695935014353e+001
 1.602661763066491e+000	 5.669876062248608e-001	 1.345995783454369e+001
 1.596608554890094e+000	 5.838158003047238e-001	 1.345206551439204e+001
 1.590363938434600e+000	 6.006183583147985e-001	 1.344327600594464e+001
 1.583927681828086e+000	 6.173921563575771e-001	 1.343366095249173e+001
 1.577299618430859e+000	 6.341340520733437e-001	 1.342339175533927e+001
 1.570479647671034e+000	 6.508408862759760e-001	 1.341276309526548e+001
 1.563467735833050e+000	 6.675094846255592e-001	 1.340225048168978e+001
 1.631339166881533e+000	 5.014387626892100e-001	 1.345960492719328e+001
 1.626027252592817e+000	 5.184049539767426e-001	 1.345570927777470e+001
 1.620524747152169e+000	 5.353577364382198e-001	 1.345113205942057e+001
 1.614831165097894e+000	 5.522940637005561e-001	 1.344570090328858e+001
 1.608946082663995e+000	 5.692108646837572e-001	 1.343926168297361e+001
 1.602869138790118e+000	 5.861050450820242e-001	 1.343169510800272e+001
 1.596600036091486e+000	 6.029734888869563e-001	 1.342293503875066e+001
 1.590138541786973e+000	 6.198130599516991e-001	 1.341298856961593e+001
 1.583484488583469e+000	 6.366206035947941e-001	 1.340195791868689e+001
 1.576637775514741e+000	 6.533929482424004e-001	 1.339006415253240e+001
 1.569598368733029e+000	 6.701269071074611e-001	 1.337824882538091e+001
 1.637710950751154e+000	 5.033973127458068e-001	 1.343531002330806e+001
 1.632378288864269e+000	 5.204297716163004e-001	 1.343246098083908e+001
 1.626854291402873e+000	 5.374487692877151e-001	 1.342883138815718e+001
 1.621138471009127e+000	 5.544512474882608e-001	 1.342420202512372e+001
 1.615230402261874e+000	 5.714341231427373e-001	 1.341836686364830e+001
 1.609129722690512e+000	 5.883942898594232e-001	 1.341114969834746e+001
 1.602836133748732e+000	 6.053286194592281e-001	 1.340242253630943e+001
 1.596349401746202e+000	 6.222339635459491e-001	 1.339212579544666e+001
 1.589669358736397e+000	 6.391071551163871e-001	 1.338029035219588e+001
 1.582795903358730e+000	 6.559450102089796e-001	 1.336706146958868e+001
 1.575729001633243e+000	 6.727443295895290e-001	 1.335451923300391e+001
 1.644082734621023e+000	 5.053558628024685e-001	 1.341049317249474e+001
 1.638729325135984e+000	 5.224545892559449e-001	 1.340877481341726e+001
 1.633183835653848e+000	 5.395398021373219e-001	 1.340616580198444e+001
 1.627445776920638e+000	 5.566084312761040e-001	 1.340239809442057e+001
 1.621514721860030e+000	 5.736573816018852e-001	 1.339721176171695e+001
 1.615390306591181e+000	 5.906835346370200e-001	 1.339037165515592e+001
 1.609072231406240e+000	 6.076837500317271e-001	 1.338168586904089e+001
 1.602560261705674e+000	 6.246548671404556e-001	 1.337102605281974e+001
 1.595854228889540e+000	 6.415937066382640e-001	 1.335834961595358e+001
 1.588954031202899e+000	 6.584970721758683e-001	 1.334372385900520e+001
 1.581859634533595e+000	 6.753617520719287e-001	 1.333104174357769e+001
 1.650454518491058e+000	 5.073144128592279e-001	 1.338508884207947e+001
 1.645080361407874e+000	 5.244794068957194e-001	 1.338458553863622e+001
 1.639513379905004e+000	 5.416308349870956e-001	 1.338307120121460e+001
 1.633753082832332e+000	 5.587656150641555e-001	 1.338022703388277e+001
 1.627799041458369e+000	 5.758806400612844e-001	 1.337573724968311e+001
 1.621650890492024e+000	 5.929727794149128e-001	 1.336930576849506e+001
 1.615308329063910e+000	 6.100388806045675e-001	 1.336067475062031e+001
 1.608771121665290e+000	 6.270757707353474e-001	 1.334964502104889e+001
 1.602039099042800e+000	 6.440802581605672e-001	 1.333609843041461e+001
 1.595112159047149e+000	 6.610491341432214e-001	 1.332002218862942e+001
 1.587990267433982e+000	 6.779791745548263e-001	 1.330779575453366e+001
 1.656826302361175e+000	 5.092729629161171e-001	 1.335903406810928e+001
 1.651431397679850e+000	 5.265042245356668e-001	 1.335983046223207e+001
 1.645842924156249e+000	 5.437218678370922e-001	 1.335948599132321e+001
 1.640060388744116e+000	 5.609227988524841e-001	 1.335762922298071e+001
 1.634083361056793e+000	 5.781038985210186e-001	 1.335388659785718e+001
 1.627911474392944e+000	 5.952620241932002e-001	 1.334789915710311e+001
 1.621544426721645e+000	 6.123940111778623e-001	 1.333934114446856e+001
 1.614981981624948e+000	 6.294966743307519e-001	 1.332794054085893e+001
 1.608223969196076e+000	 6.465668096834393e-001	 1.331350158007538e+001
 1.601270286891380e+000	 6.636011961111936e-001	 1.329592928431025e+001
 1.594120900334306e+000	 6.805965970383868e-001	 1.328476000873611e+001
 1.532814571340203e+000	 6.544223722127311e-001	 1.351981725688379e+001
 1.525753063169474e+000	 6.707211147754112e-001	 1.350421166055501e+001
 1.518503568051552e+000	 6.869761235078752e-001	 1.347768208868722e+001
 1.511066254819426e+000	 7.031842541915490e-001	 1.344822831760325e+001
 1.503441360402968e+000	 7.193423546795729e-001	 1.341665131633806e+001
 1.495629190345228e+000	 7.354472666915337e-001	 1.338372764324734e+001
 1.487630119263421e+000	 7.514958276341680e-001	 1.335020557569328e+001
 1.479444591253303e+000	 7.674848724460874e-001	 1.331680097063283e+001
 1.471073120235707e+000	 7.834112354645308e-001	 1.328419285858883e+001
 1.462516290244094e+000	 7.992717523120667e-001	 1.325301877611240e+001
 1.453774755652043e+000	 8.150632618011136e-001	 1.322386984461382e+001
 1.538945204237500e+000	 6.570397946962920e-001	 1.349688317538847e+001
 1.531855452915456e+000	 6.734037255793064e-001	 1.348096777043257e+001
 1.524576962775183e+000	 6.897237477146424e-001	 1.345665758665296e+001
 1.517109903324919e+000	 7.059967043081323e-001	 1.342920732057658e+001
 1.509454512442138e+000	 7.222194306056111e-001	 1.339938040156187e+001
 1.501611096891923e+000	 7.383887556948313e-001	 1.336791757436182e+001
 1.493580032789782e+000	 7.545015043334429e-001	 1.333553307239954e+001
 1.485361766007659e+000	 7.705544988011007e-001	 1.330291051225996e+001
 1.476956812521841e+000	 7.865445607736817e-001	 1.327069851139063e+001
 1.468365758701666e+000	 8.024685132175328e-001	 1.323950603369614e+001
 1.459589261537921e+000	 8.183231823016085e-001	 1.320989747054845e+001
 1.545075837135533e+000	 6.596572171791894e-001	 1.347368802118326e+001
 1.537957842662119e+000	 6.760863363825016e-001	 1.345801081889860e+001
 1.530650357499435e+000	 6.924713719206811e-001	 1.343584440948049e+001
 1.523153551830967e+000	 7.088091544239664e-001	 1.341032459938676e+001
 1.515467664481798e+000	 7.250965065308890e-001	 1.338217968344369e+001
 1.507593003439040e+000	 7.413302446973648e-001	 1.335211704115415e+001
 1.499529946316507e+000	 7.575071810319587e-001	 1.332081935074636e+001
 1.491278940762324e+000	 7.736241251553686e-001	 1.328894051446966e+001
 1.482840504808239e+000	 7.896778860821095e-001	 1.325710129663651e+001
 1.474215227159471e+000	 8.056652741223067e-001	 1.322588467866355e+001
 1.465403767424016e+000	 8.215831028014514e-001	 1.319583093827452e+001
 1.551206470034202e+000	 6.622746396615893e-001	 1.345019879641823e+001
 1.544060232409364e+000	 6.787689471851713e-001	 1.343532788328279e+001
 1.536723752224209e+000	 6.952189961261734e-001	 1.341523391798940e+001
 1.529197200337471e+000	 7.116216045392396e-001	 1.339157599618254e+001
 1.521480816521845e+000	 7.279735824555974e-001	 1.336504965206765e+001
 1.513574909986478e+000	 7.442717336993273e-001	 1.333633131711410e+001
 1.505479859843488e+000	 7.605128577299092e-001	 1.330607457212348e+001
 1.497196115517190e+000	 7.766937515090843e-001	 1.327490610029223e+001
 1.488724197094792e+000	 7.928112113900053e-001	 1.324342134226422e+001
 1.480064695617395e+000	 8.088620350265763e-001	 1.321217985698854e+001
 1.471218273310213e+000	 8.248430233008258e-001	 1.318170039518011e+001
 1.557337102933408e+000	 6.648920621436569e-001	 1.342638494699474e+001
 1.550162622157093e+000	 6.814515579874914e-001	 1.341290538029038e+001
 1.542797146949404e+000	 6.979666203313018e-001	 1.339481671463440e+001
 1.535240848844329e+000	 7.144340546541393e-001	 1.337295649614890e+001
 1.527493968562179e+000	 7.308506583799278e-001	 1.334798984137191e+001
 1.519556816534137e+000	 7.472132227009128e-001	 1.332056462010502e+001
 1.511429773370626e+000	 7.635185344274887e-001	 1.329130774281198e+001
 1.503113290272153e+000	 7.797633778624412e-001	 1.326082113847220e+001
 1.494607889381393e+000	 7.959445366975606e-001	 1.322967742337220e+001
 1.485914164075328e+000	 8.120587959305301e-001	 1.319841526420586e+001
 1.477032779196395e+000	 8.281029437999159e-001	 1.316753444190993e+001
 1.563467735833050e+000	 6.675094846255592e-001	 1.340225048168978e+001
 1.556265011905203e+000	 6.841341687896364e-001	 1.339072905112886e+001
 1.548870541674919e+000	 7.007142445362485e-001	 1.337458263105841e+001
 1.541284497351443e+000	 7.172465047688535e-001	 1.335446021749061e+001
 1.533507120602699e+000	 7.337277343040723e-001	 1.333099882155625e+001
 1.525538723081911e+000	 7.501547117023149e-001	 1.330482010717928e+001
 1.517379686897813e+000	 7.665242111248920e-001	 1.327652671118070e+001
 1.509030465027107e+000	 7.828330042156327e-001	 1.324669824300885e+001
 1.500491581667931e+000	 7.990778620049666e-001	 1.321588696405719e+001
 1.491763632533159e+000	 8.152555568343560e-001	 1.318461314948868e+001
 1.482847285082444e+000	 8.313628642989046e-001	 1.315336013861573e+001
 1.569598368733029e+000	 6.701269071074611e-001	 1.337824882538091e+001
 1.562367401653596e+000	 6.868167795917815e-001	 1.336878394750313e+001
 1.554943936400655e+000	 7.034618687411961e-001	 1.335452071647258e+001
 1.547328145858710e+000	 7.200589548835701e-001	 1.333608040220051e+001
 1.539520272643303e+000	 7.366048102282217e-001	 1.331407419223220e+001
 1.531520629629700e+000	 7.530962007037272e-001	 1.328909987009343e+001
 1.523329600424948e+000	 7.695298878223129e-001	 1.326173816553966e+001
 1.514947639781945e+000	 7.859026305688526e-001	 1.323254877331109e+001
 1.506375273954299e+000	 8.022111873124145e-001	 1.320206603982406e+001
 1.497613100990774e+000	 8.184523177382413e-001	 1.317079432025682e+001
 1.488661790968246e+000	 8.346227847979755e-001	 1.313920301169640e+001
 1.575729001633243e+000	 6.727443295895290e-001	 1.335451923300391e+001
 1.568469791402172e+000	 6.894993903941017e-001	 1.334705441845530e+001
 1.561017331126513e+000	 7.062094929463263e-001	 1.333461922684081e+001
 1.553371794366031e+000	 7.228714049984765e-001	 1.331780940759135e+001
 1.545533424683890e+000	 7.394818861525678e-001	 1.329721257629505e+001
 1.537502536177404e+000	 7.560376897053434e-001	 1.327340493150354e+001
 1.529279513951928e+000	 7.725355645199454e-001	 1.324694763263201e+001
 1.520864814536564e+000	 7.889722569222935e-001	 1.321838283494976e+001
 1.512258966240389e+000	 8.053445126200955e-001	 1.318822938055185e+001
 1.503462569448062e+000	 8.216490786423748e-001	 1.315697814730064e+001
 1.494476296853683e+000	 8.378827052973118e-001	 1.312508706101424e+001
 1.581859634533595e+000	 6.753617520719287e-001	 1.333104174357769e+001
 1.574572181150829e+000	 6.921820011967721e-001	 1.332552409802665e+001
 1.567090725852390e+000	 7.089571171518222e-001	 1.331486561484678e+001
 1.559415442873305e+000	 7.256838551137604e-001	 1.329963869857044e+001
 1.551546576724361e+000	 7.423589620773023e-001	 1.328040961449849e+001
 1.543484442724917e+000	 7.589791787073568e-001	 1.325773524182285e+001
 1.535229427478648e+000	 7.755412412179844e-001	 1.323215947674793e+001
 1.526781989290855e+000	 7.920418832761493e-001	 1.320420928099109e+001
 1.518142658526092e+000	 8.084778379282009e-001	 1.317439037400122e+001
 1.509312037904910e+000	 8.248458395469440e-001	 1.314318257040682e+001
 1.500290802738639e+000	 8.411426257970976e-001	 1.311103476757419e+001
 1.587990267433982e+000	 6.779791745548263e-001	 1.330779575453366e+001
 1.580674570899469e+000	 6.948646119999676e-001	 1.330417589371909e+001
 1.573164120578188e+000	 7.117047413578652e-001	 1.329524652062255e+001
 1.565459091380432e+000	 7.284963052296100e-001	 1.328155884063677e+001
 1.557559728764613e+000	 7.452360380026165e-001	 1.326365996071280e+001
 1.549466349272140e+000	 7.619206677099614e-001	 1.324208967672331e+001
 1.541179341005006e+000	 7.785469179166236e-001	 1.321737689944291e+001
 1.532699164044716e+000	 7.951115096306138e-001	 1.319003571389577e+001
 1.524026350811299e+000	 8.116111632369228e-001	 1.316056106984841e+001
 1.515161506361208e+000	 8.280426004521366e-001	 1.312942410447260e+001
 1.506105308622997e+000	 8.444025462975161e-001	 1.309706710165408e+001
 1.594120900334306e+000	 6.805965970383868e-001	 1.328476000873611e+001
 1.586776960647991e+000	 6.975472228038634e-001	 1.328299197573481e+001
 1.579237515303806e+000	 7.144523655646381e-001	 1.327574776321808e+001
 1.571502739887311e+000	 7.313087553462129e-001	 1.326355949358162e+001
 1.563572880804545e+000	 7.481131139287018e-001	 1.324695727784793e+001
 1.555448255818969e+000	 7.648621567133505e-001	 1.322646603526415e+001
 1.547129254530897e+000	 7.815525946160573e-001	 1.320260193984478e+001
 1.538616338798039e+000	 7.981811359858799e-001	 1.317586848796825e+001
 1.529910043095903e+000	 8.147444885464511e-001	 1.314675218423194e+001
 1.521010974816841e+000	 8.312393613581415e-001	 1.311571784609511e+001
 1.511919814506641e+000	 8.476624667987508e-001	 1.308320353137328e+001
 1.453774755652043e+000	 8.150632618011136e-001	 1.322386984461382e+001
 1.444847888812251e+000	 8.307849605711887e-001	 1.319285466393920e+001
 1.435737784081395e+000	 8.464313247164139e-001	 1.315611512247921e+001
 1.426445309176177e+000	 8.619992137246938e-001	 1.311425695544877e+001
 1.416971402475017e+000	 8.774854980648936e-001	 1.306790190265761e+001
 1.407317072930754e+000	 8.928870611472519e-001	 1.301768221241023e+001
 1.397483399918780e+000	 9.082008012876665e-001	 1.296423485788782e+001
 1.387471533020204e+000	 9.234236336733949e-001	 1.290819549309999e+001
 1.377282691739777e+000	 9.385524923276887e-001	 1.285019217890719e+001
 1.366918165158378e+000	 9.535843320708535e-001	 1.279083891294819e+001
 1.356379311520008e+000	 9.685161304752106e-001	 1.273072900052063e+001
 1.459589261537921e+000	 8.183231823016085e-001	 1.320989747054845e+001
 1.450626690872958e+000	 8.341077614523109e-001	 1.317829259683534e+001
 1.441480149440036e+000	 8.498167046703964e-001	 1.314117234501325e+001
 1.432150508426388e+000	 8.654468588830088e-001	 1.309915840673676e+001
 1.422638709963577e+000	 8.809950820421709e-001	 1.305288812480293e+001
 1.412945767039864e+000	 8.964582450930405e-001	 1.300300885570595e+001
 1.403072763347715e+000	 9.118332339460495e-001	 1.295017203601711e+001
 1.393020853066112e+000	 9.271169514504697e-001	 1.289502698014140e+001
 1.382791260577346e+000	 9.423063193669026e-001	 1.283821444051152e+001
 1.372385280118109e+000	 9.573982803361828e-001	 1.278035996470427e+001
 1.361804275364840e+000	 9.723897998421610e-001	 1.272206708727489e+001
 1.465403767424016e+000	 8.215831028014514e-001	 1.319583093827452e+001
 1.456405492933886e+000	 8.374305623328302e-001	 1.316366355823639e+001
 1.447222514798917e+000	 8.532020846238327e-001	 1.312619157262982e+001
 1.437855707676866e+000	 8.688945040408381e-001	 1.308405000829251e+001
 1.428306017452446e+000	 8.845046660190273e-001	 1.303788912107055e+001
 1.418574461149325e+000	 9.000294290384739e-001	 1.298836861996313e+001
 1.408662126777046e+000	 9.154656666041431e-001	 1.293615158636633e+001
 1.398570173112460e+000	 9.308102692273191e-001	 1.288189811642649e+001
 1.388299829415390e+000	 9.460601464059500e-001	 1.282625871811726e+001
 1.377852395078342e+000	 9.612122286013992e-001	 1.276986749817467e+001
 1.367229239210188e+000	 9.762634692090429e-001	 1.271333517742978e+001
 1.471218273310213e+000	 8.248430233008258e-001	 1.318170039518011e+001
 1.462184294994912e+000	 8.407533632129244e-001	 1.314900243880817e+001
 1.452964880157909e+000	 8.565874645768929e-001	 1.311121197908667e+001
 1.443560906927481e+000	 8.723421491983462e-001	 1.306897478967654e+001
 1.433973324941484e+000	 8.880142499956196e-001	 1.302295138359727e+001
 1.424203155258993e+000	 9.036006129837008e-001	 1.297381110186925e+001
 1.414251490206624e+000	 9.190980992620879e-001	 1.292222588845480e+001
 1.404119493159094e+000	 9.345035870040727e-001	 1.286886377996079e+001
 1.393808398253756e+000	 9.498139734449510e-001	 1.281438214226450e+001
 1.383319510038922e+000	 9.650261768666124e-001	 1.275942068984482e+001
 1.372654203055902e+000	 9.801371385759574e-001	 1.270459432710025e+001
 1.477032779196395e+000	 8.281029437999159e-001	 1.316753444190993e+001
 1.467963097055914e+000	 8.440761640927719e-001	 1.313434249115726e+001
 1.458707245516883e+000	 8.599728445297498e-001	 1.309627101685098e+001
 1.449266106178097e+000	 8.757897943556976e-001	 1.305397398342618e+001
 1.439640632430548e+000	 8.915238339721038e-001	 1.300811953867855e+001
 1.429831849368722e+000	 9.071717969288694e-001	 1.295938396978636e+001
 1.419840853636299e+000	 9.227305319200212e-001	 1.290844533675019e+001
 1.409668813205860e+000	 9.381969047808599e-001	 1.285597681215736e+001
 1.399316967092287e+000	 9.535678004840261e-001	 1.280263975997840e+001
 1.388786624999699e+000	 9.688401251319329e-001	 1.274907658981994e+001
 1.378079166901831e+000	 9.840108079430039e-001	 1.269590342665753e+001
 1.482847285082444e+000	 8.313628642989046e-001	 1.315336013861573e+001
 1.473741899116773e+000	 8.473989649725507e-001	 1.311971533811189e+001
 1.464449610875713e+000	 8.633582244825743e-001	 1.308140442720452e+001
 1.454971305428580e+000	 8.792374395130571e-001	 1.303908703678777e+001
 1.445307939919501e+000	 8.950334179486370e-001	 1.299343635994064e+001
 1.435460543478365e+000	 9.107429808741275e-001	 1.294513297818608e+001
 1.425430217065921e+000	 9.263629645780832e-001	 1.289485835619823e+001
 1.415218133252607e+000	 9.418902225578115e-001	 1.284328803430410e+001
 1.404825535930833e+000	 9.573216275232955e-001	 1.279108455202758e+001
 1.394253739960518e+000	 9.726540733974712e-001	 1.273889013973895e+001
 1.383504130747827e+000	 9.878844773102833e-001	 1.268731921917427e+001
 1.488661790968246e+000	 8.346227847979755e-001	 1.313920301169640e+001
 1.479520701177364e+000	 8.507217658524385e-001	 1.310515098145380e+001
 1.470191976234270e+000	 8.667436044355391e-001	 1.306664625076553e+001
 1.460676504678797e+000	 8.826850846705892e-001	 1.302435162383533e+001
 1.450975247408202e+000	 8.985430019253763e-001	 1.297894278187257e+001
 1.441089237587779e+000	 9.143141648196237e-001	 1.293110198242000e+001
 1.431019580495339e+000	 9.299953972364131e-001	 1.288151141806707e+001
 1.420767453299181e+000	 9.455835403350569e-001	 1.283084626432778e+001
 1.410334104769236e+000	 9.610754545628794e-001	 1.277976745046392e+001
 1.399720854921226e+000	 9.764680216633375e-001	 1.272891419095627e+001
 1.388929094593738e+000	 9.917581466778956e-001	 1.267889631912584e+001
 1.494476296853683e+000	 8.378827052973118e-001	 1.312508706101424e+001
 1.485299503237567e+000	 8.540445667326138e-001	 1.309067781108909e+001
 1.475934341592428e+000	 8.701289843888155e-001	 1.305202883841585e+001
 1.466381703928612e+000	 8.861327298284578e-001	 1.300980365796517e+001
 1.456642554896511e+000	 9.020525859024777e-001	 1.296467791370704e+001
 1.446717931696817e+000	 9.178853487655067e-001	 1.291733295381571e+001
 1.436608943924405e+000	 9.336278298951505e-001	 1.286844905609772e+001
 1.426316773345427e+000	 9.492768581127260e-001	 1.281869833384652e+001
 1.415842673607342e+000	 9.648292816028974e-001	 1.276873735643511e+001
 1.405187969881668e+000	 9.802819699296413e-001	 1.271919952298366e+001
 1.394354058439414e+000	 9.956318160459410e-001	 1.267068723134102e+001
 1.500290802738639e+000	 8.411426257970976e-001	 1.311103476757419e+001
 1.491078305297259e+000	 8.573673676132541e-001	 1.307632261464610e+001
 1.481676706950058e+000	 8.735143643425752e-001	 1.303758286262302e+001
 1.472086903177893e+000	 8.895803749868285e-001	 1.299547730475582e+001
 1.462309862384287e+000	 9.055621698800983e-001	 1.295067905364146e+001
 1.452346625805334e+000	 9.214565327119234e-001	 1.290386599509124e+001
 1.442198307352966e+000	 9.372602625544341e-001	 1.285571388295196e+001
 1.431866093391196e+000	 9.529701758909489e-001	 1.280688910550255e+001
 1.421351242444999e+000	 9.685831086434706e-001	 1.275804115826336e+001
 1.410655084841691e+000	 9.840959181964941e-001	 1.270979486218521e+001
 1.399779022284706e+000	 9.995054854145197e-001	 1.266274237019433e+001
 1.506105308622997e+000	 8.444025462975161e-001	 1.309706710165408e+001
 1.496857107356318e+000	 8.606901684945385e-001	 1.306211058748849e+001
 1.487419072307031e+000	 8.768997442969899e-001	 1.302333732914585e+001
 1.477792102426505e+000	 8.930280201458656e-001	 1.298140499518360e+001
 1.467977169871392e+000	 9.090717538583950e-001	 1.293698170338964e+001
 1.457975319913183e+000	 9.250277166590232e-001	 1.289073935607742e+001
 1.447787670780874e+000	 9.408926952144032e-001	 1.284334660694984e+001
 1.437415413436331e+000	 9.566634936698549e-001	 1.279546149056821e+001
 1.426859811282049e+000	 9.723369356847182e-001	 1.274772374978258e+001
 1.416122199801143e+000	 9.879098664640057e-001	 1.270074690071883e+001
 1.405203986129465e+000	 1.003379154783733e+000	 1.265511007903498e+001
 1.511919814506641e+000	 8.476624667987508e-001	 1.308320353137328e+001
 1.502635909414624e+000	 8.640129693766441e-001	 1.304806534313289e+001
 1.493161437663220e+000	 8.802851242522312e-001	 1.300931958911368e+001
 1.483497301674313e+000	 8.964756653057330e-001	 1.296761743918453e+001
 1.473644477357683e+000	 9.125813378375239e-001	 1.292361958305552e+001
 1.463604014020220e+000	 9.285989006069539e-001	 1.287798944974112e+001
 1.453377034207980e+000	 9.445251278751972e-001	 1.283138604908930e+001
 1.442964733480680e+000	 9.603568114495741e-001	 1.278445646681748e+001
 1.432368380118340e+000	 9.760907627267612e-001	 1.273782804892701e+001
 1.421589314759868e+000	 9.917238147322857e-001	 1.269210031571720e+001
 1.410628949973539e+000	 1.007252824153679e+000	 1.264783664984477e+001
 1.356379311520008e+000	 9.685161304752106e-001	 1.273072900052063e+001
 1.345667557370631e+000	 9.833448894836275e-001	 1.266950435966347e+001
 1.334784395877035e+000	 9.980676363412555e-001	 1.260614199664689e+001
 1.323731387386189e+000	 1.012681426466225e+000	 1.254106862484164e+001
 1.312510159140009e+000	 1.027183345679557e+000	 1.247482631895847e+001
 1.301122404540689e+000	 1.041570512093714e+000	 1.240597371383297e+001
 1.289569882352404e+000	 1.055840077979967e+000	 1.233281173930828e+001
 1.277854415840096e+000	 1.069989231612100e+000	 1.225342690562944e+001
 1.265977891846146e+000	 1.084015199083979e+000	 1.216571171392143e+001
 1.253942259805881e+000	 1.097915246098555e+000	 1.206738735479864e+001
 1.241749530702945e+000	 1.111686679725904e+000	 1.195602855528633e+001
 1.361804275364840e+000	 9.723897998421610e-001	 1.272206708727489e+001
 1.351049678569120e+000	 9.872778678367018e-001	 1.266271709504681e+001
 1.340122988869792e+000	 1.002059499675142e+000	 1.260101246077374e+001
 1.329025772854573e+000	 1.016731738998476e+000	 1.253663022136525e+001
 1.317759664273673e+000	 1.031291659972187e+000	 1.247066384014504e+001
 1.306326363302200e+000	 1.045736369182350e+000	 1.240218919530287e+001
 1.294727635738664e+000	 1.060063007510474e+000	 1.232950595591042e+001
 1.282965312140314e+000	 1.074268751984574e+000	 1.225069364771251e+001
 1.271041286896127e+000	 1.088350817604013e+000	 1.216363248079317e+001
 1.258957517238369e+000	 1.102306459135656e+000	 1.206602653129858e+001
 1.246716022193793e+000	 1.116132972878948e+000	 1.195542913441916e+001
 1.367229239210188e+000	 9.762634692090429e-001	 1.271333517742978e+001
 1.356431799768122e+000	 9.912108461897435e-001	 1.265578744610318e+001
 1.345461581863046e+000	 1.006051363009023e+000	 1.259566400090926e+001
 1.334320158323423e+000	 1.020782051530740e+000	 1.253244389576841e+001
 1.323009169407765e+000	 1.035399974264841e+000	 1.246654242732202e+001
 1.311530322064093e+000	 1.049902226271017e+000	 1.239824383115752e+001
 1.299885389125255e+000	 1.064285937041014e+000	 1.232586569683321e+001
 1.288076208440811e+000	 1.078548272357080e+000	 1.224748826133899e+001
 1.276104681946334e+000	 1.092686436124073e+000	 1.216098706950295e+001
 1.263972774671036e+000	 1.106697672172779e+000	 1.206405663435604e+001
 1.251682513684775e+000	 1.120579266032010e+000	 1.195423637301008e+001
 1.372654203055902e+000	 9.801371385759574e-001	 1.270459432710026e+001
 1.361813920967494e+000	 9.951438245428429e-001	 1.264877904631371e+001
 1.350800174856662e+000	 1.010043226342979e+000	 1.259016431176773e+001
 1.339614543792616e+000	 1.024832364063088e+000	 1.252823133565437e+001
 1.328258674542174e+000	 1.039508288557581e+000	 1.246260723012626e+001
 1.316734280826272e+000	 1.054068083359768e+000	 1.239428826508189e+001
 1.305043142512094e+000	 1.068508866571631e+000	 1.232204859468201e+001
 1.293187104741517e+000	 1.082827792729652e+000	 1.224397677162462e+001
 1.281168076996712e+000	 1.097022054644190e+000	 1.215795120394573e+001
 1.268988032103835e+000	 1.111088885209946e+000	 1.206166428976780e+001
 1.256649005175858e+000	 1.125025559185105e+000	 1.195264889315459e+001
 1.378079166901831e+000	 9.840108079430039e-001	 1.269590342665753e+001
 1.367196042167092e+000	 9.990768028960905e-001	 1.264175331404793e+001
 1.356138767850504e+000	 1.014035089677089e+000	 1.258457982666140e+001
 1.344908929262028e+000	 1.028882676595589e+000	 1.252387023872715e+001
 1.333508179676787e+000	 1.043616602850469e+000	 1.245900090525166e+001
 1.321938239588635e+000	 1.058233940448654e+000	 1.239047097603007e+001
 1.310200895899095e+000	 1.072731796102369e+000	 1.231820997947344e+001
 1.298298001042361e+000	 1.087107313102328e+000	 1.224032276381543e+001
 1.286231472047204e+000	 1.101357673164391e+000	 1.215469803265369e+001
 1.274003289536723e+000	 1.115480098247180e+000	 1.205903341541958e+001
 1.261615496667008e+000	 1.129471852338250e+000	 1.195086248053598e+001
 1.383504130747827e+000	 9.878844773102833e-001	 1.268731921917428e+001
 1.372578163366772e+000	 1.003009781249576e+000	 1.263476947168047e+001
 1.361477360844436e+000	 1.018026953011434e+000	 1.257897167352911e+001
 1.350203314731536e+000	 1.032932989128315e+000	 1.251942903167627e+001
 1.338757684811494e+000	 1.047724917143565e+000	 1.245553404336180e+001
 1.327142198351086e+000	 1.062399797537729e+000	 1.238693813453142e+001
 1.315358649286176e+000	 1.076954725633270e+000	 1.231450273758208e+001
 1.303408897343274e+000	 1.091386833475143e+000	 1.223668724534063e+001
 1.291294867097751e+000	 1.105693291684706e+000	 1.215139799439410e+001
 1.279018546969656e+000	 1.119871311284503e+000	 1.205634509083746e+001
 1.266581988158192e+000	 1.133918145491462e+000	 1.194906995830870e+001
 1.388929094593738e+000	 9.917581466778956e-001	 1.267889631912584e+001
 1.377960284566391e+000	 1.006942759603390e+000	 1.262788456494929e+001
 1.366815953838327e+000	 1.022018816346095e+000	 1.257340172735542e+001
 1.355497700201014e+000	 1.036983301661337e+000	 1.251497380520224e+001
 1.344007189946183e+000	 1.051833231436931e+000	 1.245201643686573e+001
 1.332346157113527e+000	 1.066565654627043e+000	 1.238383345908109e+001
 1.320516402673251e+000	 1.081177655164380e+000	 1.231107717071141e+001
 1.308519793644184e+000	 1.095666353848132e+000	 1.223322850782405e+001
 1.296358262148298e+000	 1.110028910205162e+000	 1.214821868365264e+001
 1.284033804402589e+000	 1.124262524321937e+000	 1.205377742654747e+001
 1.271548479649375e+000	 1.138364438644758e+000	 1.194746106070713e+001
 1.394354058439414e+000	 9.956318160459410e-001	 1.267068723134102e+001
 1.383342405765805e+000	 1.010875737957623e+000	 1.262115464965264e+001
 1.372154546832039e+000	 1.026010679681152e+000	 1.256792865844996e+001
 1.360792085670339e+000	 1.041033614194725e+000	 1.251056833595600e+001
 1.349256695080741e+000	 1.055941545730628e+000	 1.244851822161628e+001
 1.337550115875858e+000	 1.070731511716650e+000	 1.238110287724433e+001
 1.325674156060236e+000	 1.085400584695741e+000	 1.230808085488917e+001
 1.313630689945021e+000	 1.099945874221332e+000	 1.223010198905563e+001
 1.301421657198787e+000	 1.114364528725790e+000	 1.214532471600710e+001
 1.289049061835477e+000	 1.128653737359504e+000	 1.205150543324814e+001
 1.276514971140525e+000	 1.142810731798155e+000	 1.194622230638747e+001
 1.399779022284706e+000	 9.995054854145197e-001	 1.266274237019433e+001
 1.388724526964869e+000	 1.014808716312365e+000	 1.261463016670374e+001
 1.377493139825438e+000	 1.030002543016684e+000	 1.256260893229269e+001
 1.366086471139387e+000	 1.045083926728551e+000	 1.250627410865007e+001
 1.354506200215058e+000	 1.060049860024718e+000	 1.244510713615827e+001
 1.342754074637983e+000	 1.074897368806602e+000	 1.237846979267341e+001
 1.330831909447048e+000	 1.089623514227398e+000	 1.230565849948653e+001
 1.318741586245716e+000	 1.104225394594779e+000	 1.222746013492395e+001
 1.306485052249162e+000	 1.118700147246616e+000	 1.214287759339301e+001
 1.294064319268276e+000	 1.133044950397226e+000	 1.204970089080252e+001
 1.281481462631608e+000	 1.147257024951669e+000	 1.194553687150948e+001
 1.405203986129465e+000	 1.003379154783733e+000	 1.265511007903498e+001
 1.394106648163441e+000	 1.018741694667706e+000	 1.260836288657780e+001
 1.382831732818390e+000	 1.033994406352774e+000	 1.255749683053187e+001
 1.371380856608035e+000	 1.049134239262883e+000	 1.250215033833358e+001
 1.359755705349022e+000	 1.064158174319261e+000	 1.244184854558080e+001
 1.347958033399803e+000	 1.079063225896950e+000	 1.237599738902089e+001
 1.335989662833601e+000	 1.093846443759394e+000	 1.230387662604114e+001
 1.323852482546198e+000	 1.108504914968508e+000	 1.222545226131065e+001
 1.311548447299365e+000	 1.123035765767670e+000	 1.214103556926482e+001
 1.299079576700941e+000	 1.137436163435127e+000	 1.204853221705289e+001
 1.286447954122590e+000	 1.151703318105316e+000	 1.194558446256547e+001
 1.410628949973539e+000	 1.007252824153679e+000	 1.264783664984477e+001
 1.399488769361377e+000	 1.022674673023736e+000	 1.260240134725104e+001
 1.388170325810758e+000	 1.037986269689500e+000	 1.255264447217473e+001
 1.376675242076157e+000	 1.053184551797793e+000	 1.249825399283004e+001
 1.365005210482521e+000	 1.068266488614319e+000	 1.243880546549192e+001
 1.353161992161219e+000	 1.083229082987748e+000	 1.237375585894880e+001
 1.341147416219812e+000	 1.098069373291773e+000	 1.230243628003731e+001
 1.328963378846395e+000	 1.112784435342554e+000	 1.222422441594802e+001
 1.316611842349339e+000	 1.127371384288980e+000	 1.213995351365521e+001
 1.304094834133428e+000	 1.141827376473227e+000	 1.204816433646454e+001
 1.291414445613439e+000	 1.156149611259114e+000	 1.194654118896287e+001
 1.241749530702945e+000	 1.111686679725904e+000	 1.195602855528633e+001
 1.229403639738536e+000	 1.125324814353805e+000	 1.184203675066498e+001
 1.216904900482188e+000	 1.138829122302628e+000	 1.173591049536785e+001
 1.204255501786119e+000	 1.152197047172691e+000	 1.163529444075709e+001
 1.191457689237918e+000	 1.165426080602269e+000	 1.153781074903080e+001
 1.178513763834143e+000	 1.178513763834143e+000	 1.144109064825022e+001
 1.165426080602269e+000	 1.191457689237918e+000	 1.134280690112508e+001
 1.152197047172691e+000	 1.204255501786119e+000	 1.124070694017605e+001
 1.138829122302628e+000	 1.216904900482188e+000	 1.113264641260714e+001
 1.125324814353805e+000	 1.229403639738537e+000	 1.101662287090701e+001
 1.111686679725904e+000	 1.241749530702945e+000	 1.089080933992563e+001
 1.246716022193793e+000	 1.116132972878948e+000	 1.195542913441916e+001
 1.234320752702791e+000	 1.129825654481125e+000	 1.184230702771336e+001
 1.221772023589038e+000	 1.143383974152054e+000	 1.173723589096577e+001
 1.209072032459265e+000	 1.156805365267505e+000	 1.163785203912139e+001
 1.196223033882487e+000	 1.170087309433334e+000	 1.154176789756351e+001
 1.183227338058305e+000	 1.183227338058305e+000	 1.144660430641555e+001
 1.170087309433334e+000	 1.196223033882487e+000	 1.135002377316981e+001
 1.156805365267504e+000	 1.209072032459265e+000	 1.124976442030355e+001
 1.143383974152054e+000	 1.221772023589038e+000	 1.114367436497043e+001
 1.129825654481125e+000	 1.234320752702791e+000	 1.102974626029117e+001
 1.116132972878949e+000	 1.246716022193793e+000	 1.090615172230043e+001
 1.251682513684775e+000	 1.120579266032010e+000	 1.195423637301008e+001
 1.239237865667143e+000	 1.134326494608457e+000	 1.184206136627779e+001
 1.226639146695958e+000	 1.147938826001489e+000	 1.173817207005673e+001
 1.213888563132458e+000	 1.161413683362326e+000	 1.164018020852639e+001
 1.200988378527087e+000	 1.174748538264411e+000	 1.154567150129540e+001
 1.187940912282485e+000	 1.187940912282484e+000	 1.145223876216211e+001
 1.174748538264411e+000	 1.200988378527087e+000	 1.135751598287435e+001
 1.161413683362327e+000	 1.213888563132458e+000	 1.125921314241353e+001
 1.147938826001489e+000	 1.226639146695958e+000	 1.115515147245200e+001
 1.134326494608457e+000	 1.239237865667143e+000	 1.104329890181436e+001
 1.120579266032010e+000	 1.251682513684776e+000	 1.092180539710276e+001
 1.256649005175858e+000	 1.125025559185105e+000	 1.195264889315459e+001
 1.244154978631569e+000	 1.138827334735813e+000	 1.184150860792784e+001
 1.231506269802929e+000	 1.152493677850942e+000	 1.173893362360669e+001
 1.218705093805686e+000	 1.166022001457163e+000	 1.164249496844576e+001
 1.205753723171710e+000	 1.179409767095502e+000	 1.154973483739035e+001
 1.192654486506682e+000	 1.192654486506682e+000	 1.145820053058137e+001
 1.179409767095502e+000	 1.205753723171710e+000	 1.136547941565339e+001
 1.166022001457163e+000	 1.218705093805686e+000	 1.126923464803165e+001
 1.152493677850942e+000	 1.231506269802929e+000	 1.116724137324585e+001
 1.138827334735813e+000	 1.244154978631569e+000	 1.105742312719815e+001
 1.125025559185105e+000	 1.256649005175858e+000	 1.093788814443721e+001
 1.261615496667008e+000	 1.129471852338250e+000	 1.195086248053598e+001
 1.249072091596043e+000	 1.143328174863207e+000	 1.184085467781512e+001
 1.236373392909934e+000	 1.157048529700422e+000	 1.173973223619032e+001
 1.223521624478938e+000	 1.170630319552019e+000	 1.164500952866490e+001
 1.210519067816351e+000	 1.184070995926608e+000	 1.155416855321420e+001
 1.197368060730894e+000	 1.197368060730893e+000	 1.146469375642964e+001
 1.184070995926608e+000	 1.210519067816351e+000	 1.137410792188584e+001
 1.170630319552019e+000	 1.223521624478938e+000	 1.128000885093405e+001
 1.157048529700422e+000	 1.236373392909934e+000	 1.118010655311364e+001
 1.143328174863206e+000	 1.249072091596043e+000	 1.107226065502393e+001
 1.129471852338250e+000	 1.261615496667008e+000	 1.095451773038890e+001
 1.266581988158192e+000	 1.133918145491462e+000	 1.194906995830870e+001
 1.253989204560542e+000	 1.147829014990649e+000	 1.184030246238586e+001
 1.241240516016958e+000	 1.161603381549936e+000	 1.174077656620315e+001
 1.228338155152204e+000	 1.175238637646899e+000	 1.164793417071537e+001
 1.215284412461003e+000	 1.188732224757730e+000	 1.155918054776801e+001
 1.202081634955118e+000	 1.202081634955118e+000	 1.147192009438938e+001
 1.188732224757730e+000	 1.215284412461003e+000	 1.138359319488885e+001
 1.175238637646899e+000	 1.228338155152204e+000	 1.129171391177416e+001
 1.161603381549936e+000	 1.241240516016958e+000	 1.119390821566128e+001
 1.147829014990649e+000	 1.253989204560542e+000	 1.108795245571425e+001
 1.133918145491462e+000	 1.266581988158192e+000	 1.097181176582199e+001
 1.271548479649375e+000	 1.138364438644758e+000	 1.194746106070713e+001
 1.258906317525041e+000	 1.152329855118152e+000	 1.184005168675192e+001
 1.246107639123982e+000	 1.166158233399493e+000	 1.174227212569973e+001
 1.233154685825472e+000	 1.179846955741808e+000	 1.165147612893662e+001
 1.220049757105661e+000	 1.193393453588871e+000	 1.156497585278113e+001
 1.206795209179352e+000	 1.206795209179352e+000	 1.148007858905481e+001
 1.193393453588871e+000	 1.220049757105661e+000	 1.139412464870967e+001
 1.179846955741807e+000	 1.233154685825472e+000	 1.130452611265031e+001
 1.166158233399493e+000	 1.246107639123982e+000	 1.120880615270515e+001
 1.152329855118152e+000	 1.258906317525041e+000	 1.110463861677761e+001
 1.138364438644758e+000	 1.271548479649375e+000	 1.098988756563882e+001
 1.276514971140525e+000	 1.142810731798155e+000	 1.194622230638747e+001
 1.263823430489515e+000	 1.156830695245728e+000	 1.184029879172826e+001
 1.250974762230989e+000	 1.170713085249101e+000	 1.174442115986751e+001
 1.237971216498730e+000	 1.184455273836749e+000	 1.165583947117495e+001
 1.224815101750318e+000	 1.198054682420031e+000	 1.157175651347462e+001
 1.211508783403595e+000	 1.211508783403595e+000	 1.148936555464991e+001
 1.198054682420031e+000	 1.224815101750318e+000	 1.140588929574209e+001
 1.184455273836749e+000	 1.237971216498730e+000	 1.131861973161557e+001
 1.170713085249101e+000	 1.250974762230990e+000	 1.122495861472625e+001
 1.156830695245728e+000	 1.263823430489516e+000	 1.112245820830948e+001
 1.142810731798155e+000	 1.276514971140525e+000	 1.100886200848768e+001
 1.281481462631608e+000	 1.147257024951669e+000	 1.194553687150947e+001
 1.268740543453941e+000	 1.161331535373390e+000	 1.184123681054808e+001
 1.255841885337964e+000	 1.175267937098768e+000	 1.174742252614644e+001
 1.242787747171970e+000	 1.189063591931730e+000	 1.166122497912916e+001
 1.229580446394968e+000	 1.202715911251213e+000	 1.157972146900302e+001
 1.216222357627845e+000	 1.216222357627845e+000	 1.149997445448688e+001
 1.202715911251212e+000	 1.229580446394968e+000	 1.141907162417179e+001
 1.189063591931730e+000	 1.242787747171970e+000	 1.133416691713241e+001
 1.175267937098769e+000	 1.255841885337964e+000	 1.124252218140820e+001
 1.161331535373390e+000	 1.268740543453941e+000	 1.114154914874294e+001
 1.147257024951669e+000	 1.281481462631608e+000	 1.102885139690696e+001
 1.286447954122590e+000	 1.151703318105316e+000	 1.194558446256547e+001
 1.273657656418294e+000	 1.165832375501149e+000	 1.184305524526184e+001
 1.260709008444888e+000	 1.179822788948504e+000	 1.175147157300414e+001
 1.247604277845178e+000	 1.193671910026754e+000	 1.166783002835257e+001
 1.234345791039605e+000	 1.207377140082416e+000	 1.158906643258361e+001
 1.220935931852098e+000	 1.220935931852098e+000	 1.151209578017052e+001
 1.207377140082416e+000	 1.234345791039605e+000	 1.143385347525370e+001
 1.193671910026753e+000	 1.247604277845179e+000	 1.135133756247249e+001
 1.179822788948504e+000	 1.260709008444888e+000	 1.126165163225849e+001
 1.165832375501150e+000	 1.273657656418294e+000	 1.116204807084172e+001
 1.151703318105316e+000	 1.286447954122590e+000	 1.104997131789399e+001
 1.291414445613439e+000	 1.156149611259114e+000	 1.194654118896287e+001
 1.278574769382549e+000	 1.170333215629018e+000	 1.184593994283058e+001
 1.265576131551744e+000	 1.184377640798316e+000	 1.175676001837511e+001
 1.252420808518344e+000	 1.198280228121825e+000	 1.167584846792135e+001
 1.239111135684223e+000	 1.212038368913644e+000	 1.159998377132099e+001
 1.225649506076354e+000	 1.225649506076354e+000	 1.152591693055633e+001
 1.212038368913644e+000	 1.239111135684222e+000	 1.145041392042871e+001
 1.198280228121825e+000	 1.252420808518344e+000	 1.137029918006372e+001
 1.184377640798316e+000	 1.265576131551744e+000	 1.128249981731019e+001
 1.170333215629018e+000	 1.278574769382549e+000	 1.118409018792997e+001
 1.156149611259114e+000	 1.291414445613438e+000	 1.107233650388653e+001
 1.111686679725904e+000	 1.241749530702945e+000	 1.089080933992563e+001
 1.097915246098555e+000	 1.253942259805881e+000	 1.076081166698867e+001
 1.084015199083980e+000	 1.265977891846146e+000	 1.063112770143120e+001
 1.069989231612100e+000	 1.277854415840096e+000	 1.049853416066831e+001
 1.055840077979967e+000	 1.289569882352404e+000	 1.036006579911720e+001
 1.041570512093714e+000	 1.301122404540689e+000	 1.021304808099235e+001
 1.027183345679557e+000	 1.312510159140009e+000	 1.005512817847179e+001
 1.012681426466225e+000	 1.323731387386190e+000	 9.884304040776197e+000
 9.980676363412553e-001	 1.334784395877035e+000	 9.699187136867600e+000
 9.833448894836278e-001	 1.345667557370631e+000	 9.515164661799197e+000
 9.685161304752106e-001	 1.356379311520008e+000	 9.341521506177529e+000
 1.116132972878949e+000	 1.246716022193793e+000	 1.090615172230043e+001
 1.102306459135656e+000	 1.258957517238369e+000	 1.077826102270797e+001
 1.088350817604013e+000	 1.271041286896127e+000	 1.065022029149977e+001
 1.074268751984574e+000	 1.282965312140314e+000	 1.051863501459038e+001
 1.060063007510474e+000	 1.294727635738664e+000	 1.038036998088506e+001
 1.045736369182350e+000	 1.306326363302200e+000	 1.023258313864788e+001
 1.031291659972187e+000	 1.317759664273673e+000	 1.007275775342124e+001
 1.016731738998476e+000	 1.329025772854573e+000	 9.898732605553864e+000
 1.002059499675142e+000	 1.340122988869793e+000	 9.713872629060248e+000
 9.872778678367018e-001	 1.351049678569120e+000	 9.536912326365041e+000
 9.723897998421612e-001	 1.361804275364840e+000	 9.368975360350214e+000
 1.120579266032010e+000	 1.251682513684776e+000	 1.092180539710276e+001
 1.106697672172779e+000	 1.263972774671036e+000	 1.079576749003672e+001
 1.092686436124073e+000	 1.276104681946334e+000	 1.066896871242186e+001
 1.078548272357080e+000	 1.288076208440811e+000	 1.053786431033273e+001
 1.064285937041014e+000	 1.299885389125255e+000	 1.039917096337126e+001
 1.049902226271017e+000	 1.311530322064094e+000	 1.024990180224053e+001
 1.035399974264841e+000	 1.323009169407765e+000	 1.008739970255145e+001
 1.020782051530740e+000	 1.334320158323423e+000	 9.909480665539329e+000
 1.006051363009023e+000	 1.345461581863046e+000	 9.730178464825695e+000
 9.912108461897440e-001	 1.356431799768123e+000	 9.559603741343127e+000
 9.762634692090429e-001	 1.367229239210187e+000	 9.396760421887766e+000
 1.125025559185105e+000	 1.256649005175858e+000	 1.093788814443721e+001
 1.111088885209946e+000	 1.268988032103835e+000	 1.081342632927985e+001
 1.097022054644190e+000	 1.281168076996712e+000	 1.068745269708687e+001
 1.082827792729652e+000	 1.293187104741517e+000	 1.055629291368854e+001
 1.068508866571631e+000	 1.305043142512093e+000	 1.041653706731165e+001
 1.054068083359768e+000	 1.316734280826272e+000	 1.026507582570583e+001
 1.039508288557581e+000	 1.328258674542173e+000	 1.009913484268732e+001
 1.024832364063088e+000	 1.339614543792616e+000	 9.920575964352199e+000
 1.010043226342979e+000	 1.350800174856662e+000	 9.748119220042950e+000
 9.951438245428430e-001	 1.361813920967494e+000	 9.583281465980376e+000
 9.801371385759574e-001	 1.372654203055902e+000	 9.424952001373038e+000
 1.129471852338250e+000	 1.261615496667008e+000	 1.095451773038890e+001
 1.115480098247180e+000	 1.274003289536723e+000	 1.083133336089865e+001
 1.101357673164392e+000	 1.286231472047204e+000	 1.070575300787009e+001
 1.087107313102328e+000	 1.298298001042362e+000	 1.057399308785947e+001
 1.072731796102369e+000	 1.310200895899095e+000	 1.043253828088188e+001
 1.058233940448655e+000	 1.321938239588635e+000	 1.027817880614948e+001
 1.043616602850469e+000	 1.333508179676787e+000	 1.010805041393214e+001
 1.028882676595589e+000	 1.344908929262028e+000	 9.933985840938870e+000
 1.014035089677089e+000	 1.356138767850504e+000	 9.767713694354107e+000
 9.990768028960902e-001	 1.367196042167092e+000	 9.607984310338813e+000
 9.840108079430038e-001	 1.378079166901831e+000	 9.453621241239022e+000
 1.133918145491462e+000	 1.266581988158192e+000	 1.097181176582200e+001
 1.119871311284503e+000	 1.279018546969656e+000	 1.084958481887708e+001
 1.105693291684706e+000	 1.291294867097751e+000	 1.072395128686036e+001
 1.091386833475143e+000	 1.303408897343274e+000	 1.059103834274322e+001
 1.076954725633270e+000	 1.315358649286176e+000	 1.044724611014770e+001
 1.062399797537729e+000	 1.327142198351086e+000	 1.028928603746787e+001
 1.047724917143565e+000	 1.338757684811494e+000	 1.011728530144714e+001
 1.032932989128316e+000	 1.350203314731536e+000	 9.949695729300274e+000
 1.018026953011434e+000	 1.361477360844436e+000	 9.788954074931271e+000
 1.003009781249576e+000	 1.372578163366772e+000	 9.633747380361314e+000
 9.878844773102833e-001	 1.383504130747827e+000	 9.482835167632123e+000
 1.138364438644758e+000	 1.271548479649375e+000	 1.098988756563882e+001
 1.124262524321937e+000	 1.284033804402589e+000	 1.086827720473228e+001
 1.110028910205163e+000	 1.296358262148297e+000	 1.074212990686206e+001
 1.095666353848132e+000	 1.308519793644184e+000	 1.060750328507731e+001
 1.081177655164380e+000	 1.320516402673251e+000	 1.046073343040743e+001
 1.066565654627043e+000	 1.332346157113527e+000	 1.029847436485152e+001
 1.051833231436931e+000	 1.344007189946183e+000	 1.012945892833522e+001
 1.036983301661338e+000	 1.355497700201014e+000	 9.967687997698041e+000
 1.022018816346095e+000	 1.366815953838327e+000	 9.811852846712933e+000
 1.006942759603390e+000	 1.377960284566391e+000	 9.660602123372451e+000
 9.917581466778954e-001	 1.388929094593737e+000	 9.512656742510281e+000
 1.142810731798155e+000	 1.276514971140525e+000	 1.100886200848768e+001
 1.128653737359504e+000	 1.289049061835476e+000	 1.088750714215130e+001
 1.114364528725790e+000	 1.301421657198787e+000	 1.076037182315150e+001
 1.099945874221332e+000	 1.313630689945021e+000	 1.062346346941724e+001
 1.085400584695741e+000	 1.325674156060237e+000	 1.047307433840301e+001
 1.070731511716650e+000	 1.337550115875858e+000	 1.030760157825513e+001
 1.055941545730628e+000	 1.349256695080741e+000	 1.014453383620214e+001
 1.041033614194725e+000	 1.360792085670339e+000	 9.987941985911951e+000
 1.026010679681151e+000	 1.372154546832039e+000	 9.836411210225931e+000
 1.010875737957623e+000	 1.383342405765804e+000	 9.688583880065258e+000
 9.956318160459409e-001	 1.394354058439414e+000	 9.543144915966956e+000
 1.147257024951669e+000	 1.281481462631608e+000	 1.102885139690696e+001
 1.133044950397227e+000	 1.294064319268276e+000	 1.090737123223606e+001
 1.118700147246616e+000	 1.306485052249161e+000	 1.077876042596637e+001
 1.104225394594779e+000	 1.318741586245716e+000	 1.063899524992517e+001
 1.089623514227398e+000	 1.330831909447048e+000	 1.048434400537442e+001
 1.074897368806601e+000	 1.342754074637983e+000	 1.032014099467647e+001
 1.060049860024718e+000	 1.354506200215058e+000	 1.016246974922190e+001
 1.045083926728551e+000	 1.366086471139387e+000	 1.001043404319361e+001
 1.030002543016684e+000	 1.377493139825438e+000	 9.862627124180950e+000
 1.014808716312365e+000	 1.388724526964869e+000	 9.717701542917764e+000
 9.995054854145198e-001	 1.399779022284707e+000	 9.574354678775991e+000
 1.151703318105316e+000	 1.286447954122590e+000	 1.104997131789399e+001
 1.137436163435127e+000	 1.299079576700941e+000	 1.092796590934185e+001
 1.123035765767670e+000	 1.311548447299364e+000	 1.079737939370883e+001
 1.108504914968508e+000	 1.323852482546198e+000	 1.065417563294906e+001
 1.093846443759394e+000	 1.335989662833602e+000	 1.049529621544775e+001
 1.079063225896950e+000	 1.347958033399803e+000	 1.033612864866604e+001
 1.064158174319261e+000	 1.359755705349022e+000	 1.018322361084725e+001
 1.049134239262883e+000	 1.371380856608035e+000	 1.003513756689780e+001
 1.033994406352774e+000	 1.382831732818390e+000	 9.890495347475243e+000
 1.018741694667706e+000	 1.394106648163441e+000	 9.747983739824033e+000
 1.003379154783733e+000	 1.405203986129465e+000	 9.606337115151861e+000
 1.156149611259114e+000	 1.291414445613438e+000	 1.107233650388653e+001
 1.141827376473228e+000	 1.304094834133428e+000	 1.094938729749213e+001
 1.127371384288980e+000	 1.316611842349339e+000	 1.081631254684345e+001
 1.112784435342554e+000	 1.328963378846395e+000	 1.066908213036821e+001
 1.098069373291773e+000	 1.341147416219812e+000	 1.050968907739945e+001
 1.083229082987748e+000	 1.353161992161219e+000	 1.035550755857067e+001
 1.068266488614319e+000	 1.365005210482521e+000	 1.020674962126302e+001
 1.053184551797793e+000	 1.376675242076157e+000	 1.006202304177282e+001
 1.037986269689500e+000	 1.388170325810758e+000	 9.920007481735421e+000
 1.022674673023736e+000	 1.399488769361377e+000	 9.779447747229062e+000
 1.007252824153679e+000	 1.410628949973538e+000	 9.639139455717885e+000
 9.685161304752106e-001	 1.356379311520008e+000	 9.341521506177529e+000
 9.535843320708534e-001	 1.366918165158378e+000	 9.174356117737021e+000
 9.385524923276887e-001	 1.377282691739777e+000	 9.009507479428171e+000
 9.234236336733949e-001	 1.387471533020204e+000	 8.845947979463135e+000
 9.082008012876665e-001	 1.397483399918780e+000	 8.682654040523754e+000
 8.928870611472519e-001	 1.407317072930754e+000	 8.518601684037774e+000
 8.774854980648936e-001	 1.416971402475017e+000	 8.352762330803966e+000
 8.619992137246938e-001	 1.426445309176177e+000	 8.184098886200324e+000
 8.464313247164138e-001	 1.435737784081395e+000	 8.011562153389642e+000
 8.307849605711887e-001	 1.444847888812251e+000	 7.834087612756605e+000
 8.150632618011137e-001	 1.453774755652043e+000	 7.650592600337045e+000
 9.723897998421612e-001	 1.361804275364840e+000	 9.368975360350214e+000
 9.573982803361829e-001	 1.372385280118109e+000	 9.205940754244839e+000
 9.423063193669027e-001	 1.382791260577346e+000	 9.043671028258707e+000
 9.271169514504698e-001	 1.393020853066112e+000	 8.881338186079443e+000
 9.118332339460493e-001	 1.403072763347715e+000	 8.718123471479553e+000
 8.964582450930406e-001	 1.412945767039864e+000	 8.553212400185158e+000
 8.809950820421710e-001	 1.422638709963577e+000	 8.385790034878280e+000
 8.654468588830089e-001	 1.432150508426387e+000	 8.215036553915484e+000
 8.498167046703966e-001	 1.441480149440036e+000	 8.040123159380169e+000
 8.341077614523108e-001	 1.450626690872958e+000	 7.860208364742120e+000
 8.183231823016085e-001	 1.459589261537921e+000	 7.674434696749833e+000
 9.762634692090429e-001	 1.367229239210187e+000	 9.396760421887766e+000
 9.612122286013992e-001	 1.377852395078342e+000	 9.237363077387588e+000
 9.460601464059503e-001	 1.388299829415390e+000	 9.077325826103818e+000
 9.308102692273189e-001	 1.398570173112461e+000	 8.916006541270777e+000
 9.154656666041432e-001	 1.408662126777046e+000	 8.752777080731928e+000
 9.000294290384739e-001	 1.418574461149325e+000	 8.587017809183843e+000
 8.845046660190273e-001	 1.428306017452446e+000	 8.418112371149480e+000
 8.688945040408380e-001	 1.437855707676866e+000	 8.245442767594451e+000
 8.532020846238323e-001	 1.447222514798917e+000	 8.068384783974619e+000
 8.374305623328302e-001	 1.456405492933886e+000	 7.886303811999502e+000
 8.215831028014518e-001	 1.465403767424017e+000	 7.698551101568945e+000
 9.801371385759574e-001	 1.372654203055902e+000	 9.424952001373038e+000
 9.650261768666123e-001	 1.383319510038923e+000	 9.268731225473745e+000
 9.498139734449511e-001	 1.393808398253756e+000	 9.110608546973895e+000
 9.345035870040723e-001	 1.404119493159094e+000	 8.950114133129395e+000
 9.190980992620879e-001	 1.414251490206624e+000	 8.786796421859929e+000
 9.036006129837009e-001	 1.424203155258993e+000	 8.620216156835829e+000
 8.880142499956196e-001	 1.433973324941483e+000	 8.449940681707254e+000
 8.723421491983465e-001	 1.443560906927481e+000	 8.275538548696360e+000
 8.565874645768926e-001	 1.452964880157908e+000	 8.096574491489633e+000
 8.407533632129244e-001	 1.462184294994912e+000	 7.912604806694078e+000
 8.248430233008260e-001	 1.471218273310214e+000	 7.723173182113985e+000
 9.840108079430038e-001	 1.378079166901831e+000	 9.453621241239022e+000
 9.688401251319329e-001	 1.388786624999700e+000	 9.300148750104551e+000
 9.535678004840261e-001	 1.399316967092288e+000	 9.143650929160261e+000
 9.381969047808600e-001	 1.409668813205861e+000	 8.983816832213496e+000
 9.227305319200210e-001	 1.419840853636299e+000	 8.820357613884859e+000
 9.071717969288693e-001	 1.429831849368721e+000	 8.653000099688613e+000
 8.915238339721037e-001	 1.439640632430548e+000	 8.481480624494244e+000
 8.757897943556977e-001	 1.449266106178097e+000	 8.305539196868022e+000
 8.599728445297495e-001	 1.458707245516883e+000	 8.124914041359935e+000
 8.440761640927721e-001	 1.467963097055915e+000	 7.939336564950895e+000
 8.281029437999159e-001	 1.477032779196395e+000	 7.748526787680005e+000
 9.878844773102833e-001	 1.383504130747827e+000	 9.482835167632123e+000
 9.726540733974713e-001	 1.394253739960519e+000	 9.331714674807545e+000
 9.573216275232955e-001	 1.404825535930832e+000	 9.176579839264271e+000
 9.418902225578113e-001	 1.415218133252607e+000	 9.017265359657161e+000
 9.263629645780832e-001	 1.425430217065921e+000	 8.853631412201198e+000
 9.107429808741278e-001	 1.435460543478365e+000	 8.685556777588413e+000
 8.950334179486370e-001	 1.445307939919501e+000	 8.512932246344075e+000
 8.792374395130574e-001	 1.454971305428580e+000	 8.335654362389018e+000
 8.633582244825742e-001	 1.464449610875713e+000	 8.153619558974937e+000
 8.473989649725507e-001	 1.473741899116773e+000	 7.966718735127990e+000
 8.313628642989047e-001	 1.482847285082444e+000	 7.774832314358113e+000
 9.917581466778954e-001	 1.388929094593737e+000	 9.512656742510281e+000
 9.764680216633372e-001	 1.399720854921225e+000	 9.363523553701327e+000
 9.610754545628796e-001	 1.410334104769236e+000	 9.209517336086973e+000
 9.455835403350567e-001	 1.420767453299180e+000	 9.050605354997714e+000
 9.299953972364135e-001	 1.431019580495340e+000	 8.886783279116427e+000
 9.143141648196238e-001	 1.441089237587779e+000	 8.718067885760178e+000
 8.985430019253762e-001	 1.450975247408202e+000	 8.544490055488504e+000
 8.826850846705890e-001	 1.460676504678796e+000	 8.366088118055039e+000
 8.667436044355391e-001	 1.470191976234270e+000	 8.182901605944908e+000
 8.507217658524386e-001	 1.479520701177364e+000	 7.994965465535366e+000
 8.346227847979756e-001	 1.488661790968246e+000	 7.802304769334420e+000
 9.956318160459409e-001	 1.394354058439414e+000	 9.543144915966956e+000
 9.802819699296413e-001	 1.405187969881668e+000	 9.395665530189287e+000
 9.648292816028976e-001	 1.415842673607342e+000	 9.242580734383083e+000
 9.492768581127261e-001	 1.426316773345427e+000	 9.083977443733469e+000
 9.336278298951504e-001	 1.436608943924404e+000	 8.919973454009091e+000
 9.178853487655067e-001	 1.446717931696817e+000	 8.750709746423897e+000
 9.020525859024777e-001	 1.456642554896511e+000	 8.576343093547555e+000
 8.861327298284579e-001	 1.466381703928612e+000	 8.397039030511428e+000
 8.701289843888153e-001	 1.475934341592428e+000	 8.212965249810509e+000
 8.540445667326138e-001	 1.485299503237567e+000	 8.024285471609344e+000
 8.378827052973118e-001	 1.494476296853683e+000	 7.831153834681821e+000
 9.995054854145198e-001	 1.399779022284707e+000	 9.574354678775991e+000
 9.840959181964941e-001	 1.410655084841691e+000	 9.428226395684387e+000
 9.685831086434708e-001	 1.421351242444998e+000	 9.275882668481286e+000
 9.529701758909484e-001	 1.431866093391195e+000	 9.117517304613640e+000
 9.372602625544341e-001	 1.442198307352966e+000	 8.953357023116885e+000
 9.214565327119235e-001	 1.452346625805334e+000	 8.783653379962892e+000
 9.055621698800984e-001	 1.462309862384287e+000	 8.608675007015187e+000
 8.895803749868287e-001	 1.472086903177893e+000	 8.428700231054624e+000
 8.735143643425752e-001	 1.481676706950057e+000	 8.244010133212179e+000
 8.573673676132543e-001	 1.491078305297259e+000	 8.054882102562639e+000
 8.411426257970979e-001	 1.500290802738638e+000	 7.861583930659511e+000
 1.003379154783733e+000	 1.405203986129465e+000	 9.606337115151861e+000
 9.879098664640053e-001	 1.416122199801143e+000	 9.461287648360871e+000
 9.723369356847186e-001	 1.426859811282049e+000	 9.309531155777579e+000
 9.566634936698545e-001	 1.437415413436331e+000	 9.151355736671992e+000
 9.408926952144034e-001	 1.447787670780874e+000	 8.987083988964564e+000
 9.250277166590233e-001	 1.457975319913183e+000	 8.817064575653967e+000
 9.090717538583948e-001	 1.467977169871391e+000	 8.641664118256388e+000
 8.930280201458658e-001	 1.477792102426505e+000	 8.461259485914077e+000
 8.768997442969899e-001	 1.487419072307031e+000	 8.276230542532185e+000
 8.606901684945385e-001	 1.496857107356318e+000	 8.086953407519598e+000
 8.444025462975162e-001	 1.506105308622997e+000	 7.893794278531762e+000
 1.007252824153679e+000	 1.410628949973538e+000	 9.639139455717885e+000
 9.917238147322854e-001	 1.421589314759868e+000	 9.494926551934311e+000
 9.760907627267612e-001	 1.432368380118340e+000	 9.343629660102078e+000
 9.603568114495741e-001	 1.442964733480680e+000	 9.185618726009214e+000
 9.445251278751973e-001	 1.453377034207980e+000	 9.021299339440525e+000
 9.285989006069539e-001	 1.463604014020220e+000	 8.851103961972449e+000
 9.125813378375239e-001	 1.473644477357683e+000	 8.675483496026793e+000
 8.964756653057331e-001	 1.483497301674313e+000	 8.494899266028471e+000
 8.802851242522309e-001	 1.493161437663220e+000	 8.309815476026156e+000
 8.640129693766441e-001	 1.502635909414624e+000	 8.120692201153480e+000
 8.476624667987510e-001	 1.511919814506641e+000	 7.927978962920299e+000
 8.150632618011137e-001	 1.453774755652043e+000	 7.650592600337045e+000
 7.992717523120669e-001	 1.462516290244094e+000	 7.456715840216681e+000
 7.834112354645310e-001	 1.471073120235707e+000	 7.251574980311450e+000
 7.674848724460873e-001	 1.479444591253303e+000	 7.039403132739481e+000
 7.514958276341680e-001	 1.487630119263421e+000	 6.824462522272143e+000
 7.354472666915338e-001	 1.495629190345228e+000	 6.611033979181692e+000
 7.193423546795726e-001	 1.503441360402968e+000	 6.403406953213287e+000
 7.031842541915491e-001	 1.511066254819426e+000	 6.205870059602634e+000
 6.869761235078749e-001	 1.518503568051551e+000	 6.022702161919166e+000
 6.707211147754113e-001	 1.525753063169474e+000	 5.858163990582277e+000
 6.544223722127310e-001	 1.532814571340203e+000	 5.714877031042390e+000
 8.183231823016085e-001	 1.459589261537921e+000	 7.674434696749833e+000
 8.024685132175328e-001	 1.468365758701667e+000	 7.479006811416644e+000
 7.865445607736817e-001	 1.476956812521842e+000	 7.273305050332609e+000
 7.705544988011007e-001	 1.485361766007659e+000	 7.061332438224649e+000
 7.545015043334430e-001	 1.493580032789783e+000	 6.847117829187308e+000
 7.383887556948314e-001	 1.501611096891922e+000	 6.634705837638399e+000
 7.222194306056113e-001	 1.509454512442139e+000	 6.428147307483462e+000
 7.059967043081321e-001	 1.517109903324919e+000	 6.231490329309648e+000
 6.897237477146422e-001	 1.524576962775183e+000	 6.048771809138172e+000
 6.734037255793064e-001	 1.531855452915456e+000	 5.884009586180566e+000
 6.570397946962922e-001	 1.538945204237500e+000	 5.740232659918723e+000
 8.215831028014518e-001	 1.465403767424017e+000	 7.698551101568945e+000
 8.056652741223067e-001	 1.474215227159471e+000	 7.501851964064838e+000
 7.896778860821095e-001	 1.482840504808239e+000	 7.295821153984933e+000
 7.736241251553686e-001	 1.491278940762324e+000	 7.084240382955665e+000
 7.575071810319586e-001	 1.499529946316506e+000	 6.870914034118576e+000
 7.413302446973650e-001	 1.507593003439040e+000	 6.659659514253861e+000
 7.250965065308890e-001	 1.515467664481798e+000	 6.454298161701685e+000
 7.088091544239663e-001	 1.523153551830967e+000	 6.258646718838077e+000
 6.924713719206810e-001	 1.530650357499436e+000	 6.076509371409900e+000
 6.760863363825016e-001	 1.537957842662119e+000	 5.911670350797734e+000
 6.596572171791894e-001	 1.545075837135533e+000	 5.767395842801758e+000
 8.248430233008260e-001	 1.471218273310214e+000	 7.723173182113983e+000
 8.088620350265764e-001	 1.480064695617395e+000	 7.525482945987721e+000
 7.928112113900055e-001	 1.488724197094793e+000	 7.319357416153630e+000
 7.766937515090844e-001	 1.497196115517191e+000	 7.108365636177938e+000
 7.605128577299093e-001	 1.505479859843489e+000	 6.896096285973964e+000
 7.442717336993275e-001	 1.513574909986478e+000	 6.686148438252747e+000
 7.279735824555976e-001	 1.521480816521845e+000	 6.482122888879847e+000
 7.116216045392393e-001	 1.529197200337471e+000	 6.287614068862736e+000
 6.952189961261736e-001	 1.536723752224209e+000	 6.106202539078602e+000
 6.787689471851715e-001	 1.544060232409364e+000	 5.941448062453453e+000
 6.622746396615893e-001	 1.551206470034202e+000	 5.796697709728112e+000
 8.281029437999159e-001	 1.477032779196395e+000	 7.748526787680002e+000
 8.120587959305302e-001	 1.485914164075329e+000	 7.550126012712352e+000
 7.959445366975607e-001	 1.494607889381393e+000	 7.344142664642170e+000
 7.797633778624412e-001	 1.503113290272153e+000	 7.133941636806854e+000
 7.635185344274886e-001	 1.511429773370625e+000	 6.922904543650304e+000
 7.472132227009128e-001	 1.519556816534136e+000	 6.714420864762513e+000
 7.308506583799279e-001	 1.527493968562179e+000	 6.511879681458864e+000
 7.144340546541391e-001	 1.535240848844330e+000	 6.318662012631284e+000
 6.979666203313018e-001	 1.542797146949404e+000	 6.138133749811126e+000
 6.814515579874914e-001	 1.550162622157092e+000	 5.973639184818562e+000
 6.648920621436569e-001	 1.557337102933408e+000	 5.828465654373195e+000
 8.313628642989047e-001	 1.482847285082444e+000	 7.774832314358116e+000
 8.152555568343562e-001	 1.491763632533159e+000	 7.576002088762143e+000
 7.990778620049666e-001	 1.500491581667931e+000	 7.370400488632717e+000
 7.828330042156325e-001	 1.509030465027107e+000	 7.161196649704292e+000
 7.665242111248921e-001	 1.517379686897813e+000	 6.951573630748402e+000
 7.501547117023151e-001	 1.525538723081911e+000	 6.744719928554146e+000
 7.337277343040722e-001	 1.533507120602698e+000	 6.543821604628555e+000
 7.172465047688535e-001	 1.541284497351443e+000	 6.352055029381377e+000
 7.007142445362485e-001	 1.548870541674919e+000	 6.172580242594364e+000
 6.841341687896364e-001	 1.556265011905203e+000	 6.008534922239190e+000
 6.675094846255589e-001	 1.563467735833050e+000	 5.863028947269953e+000
 8.346227847979756e-001	 1.488661790968246e+000	 7.802304769334421e+000
 8.184523177382415e-001	 1.497613100990774e+000	 7.603326828470111e+000
 8.022111873124143e-001	 1.506375273954299e+000	 7.398349296683338e+000
 7.859026305688525e-001	 1.514947639781945e+000	 7.190353821502099e+000
 7.695298878223130e-001	 1.523329600424948e+000	 6.982333289827667e+000
 7.530962007037274e-001	 1.531520629629700e+000	 6.777283697303624e+000
 7.366048102282213e-001	 1.539520272643303e+000	 6.578196649136190e+000
 7.200589548835696e-001	 1.547328145858710e+000	 6.388052497202199e+000
 7.034618687411962e-001	 1.554943936400656e+000	 6.209814111123461e+000
 6.868167795917815e-001	 1.562367401653596e+000	 6.046421274088239e+000
 6.701269071074611e-001	 1.569598368733029e+000	 5.900785687591561e+000
 8.378827052973118e-001	 1.494476296853683e+000	 7.831153834681821e+000
 8.216490786423749e-001	 1.503462569448061e+000	 7.632310676321532e+000
 8.053445126200955e-001	 1.512258966240389e+000	 7.428202374277496e+000
 7.889722569222933e-001	 1.520864814536564e+000	 7.221631235982811e+000
 7.725355645199455e-001	 1.529279513951928e+000	 7.015408236213931e+000
 7.560376897053434e-001	 1.537502536177403e+000	 6.812345224385197e+000
 7.394818861525677e-001	 1.545533424683890e+000	 6.615247783595378e+000
 7.228714049984761e-001	 1.553371794366031e+000	 6.426908745355346e+000
 7.062094929463262e-001	 1.561017331126513e+000	 6.250102356596456e+000
 6.894993903941017e-001	 1.568469791402172e+000	 6.087579088464232e+000
 6.727443295895290e-001	 1.575729001633244e+000	 5.942061069642399e+000
 8.411426257970979e-001	 1.500290802738638e+000	 7.861583930659511e+000
 8.248458395469445e-001	 1.509312037904910e+000	 7.663158926838243e+000
 8.084778379282012e-001	 1.518142658526092e+000	 7.460167940936798e+000
 7.920418832761492e-001	 1.526781989290855e+000	 7.255241969031447e+000
 7.755412412179843e-001	 1.535229427478648e+000	 7.051018211368330e+000
 7.589791787073572e-001	 1.543484442724917e+000	 6.850132601210722e+000
 7.423589620773023e-001	 1.551546576724361e+000	 6.655213006310771e+000
 7.256838551137602e-001	 1.559415442873306e+000	 6.468873106071508e+000
 7.089571171518222e-001	 1.567090725852390e+000	 6.293706939933888e+000
 6.921820011967720e-001	 1.574572181150829e+000	 6.132284115252203e+000
 6.753617520719286e-001	 1.581859634533595e+000	 5.987145655979373e+000
 8.444025462975162e-001	 1.506105308622997e+000	 7.893794278531759e+000
 8.280426004521371e-001	 1.515161506361207e+000	 7.696071784019932e+000
 8.116111632369227e-001	 1.524026350811300e+000	 7.494449206909517e+000
 7.951115096306137e-001	 1.532699164044716e+000	 7.291394143168243e+000
 7.785469179166235e-001	 1.541179341005006e+000	 7.089378035835059e+000
 7.619206677099617e-001	 1.549466349272139e+000	 6.890869009125787e+000
 7.452360380026164e-001	 1.557559728764613e+000	 6.698325396631250e+000
 7.284963052296100e-001	 1.565459091380433e+000	 6.514189965832802e+000
 7.117047413578653e-001	 1.573164120578188e+000	 6.340884833436300e+000
 6.948646119999676e-001	 1.580674570899469e+000	 6.180807058567227e+000
 6.779791745548262e-001	 1.587990267433982e+000	 6.036324893740711e+000
 8.476624667987510e-001	 1.511919814506641e+000	 7.927978962920299e+000
 8.312393613581415e-001	 1.521010974816841e+000	 7.731244420349938e+000
 8.147444885464512e-001	 1.529910043095903e+000	 7.531244429444176e+000
 7.981811359858797e-001	 1.538616338798039e+000	 7.330290981676537e+000
 7.815525946160575e-001	 1.547129254530897e+000	 7.130697661774669e+000
 7.648621567133508e-001	 1.555448255818969e+000	 6.934772770876286e+000
 7.481131139287017e-001	 1.563572880804544e+000	 6.744813165843818e+000
 7.313087553462125e-001	 1.571502739887311e+000	 6.563098816160282e+000
 7.144523655646381e-001	 1.579237515303805e+000	 6.391888071897025e+000
 6.975472228038638e-001	 1.586776960647991e+000	 6.233413628594970e+000
 6.805965970383868e-001	 1.594120900334306e+000	 6.089879167584724e+000
 6.544223722127310e-001	 1.532814571340203e+000	 5.714877031042388e+000
 6.380805764407583e-001	 1.539689008460209e+000	 5.575042223104630e+000
 6.217012944632482e-001	 1.546375267676036e+000	 5.424593096568455e+000
 6.052876383844025e-001	 1.552873382042270e+000	 5.266654709357820e+000
 5.888427054517341e-001	 1.559183450159039e+000	 5.103964366781534e+000
 5.723695764162470e-001	 1.565305635398965e+000	 4.938912189236327e+000
 5.558713139287028e-001	 1.571240165087963e+000	 4.773579446685326e+000
 5.393509609733571e-001	 1.576987329641599e+000	 4.609774577014665e+000
 5.228115393404681e-001	 1.582547481658774e+000	 4.449066831312824e+000
 5.062560481387889e-001	 1.587921034974506e+000	 4.292817514000168e+000
 4.896874623491745e-001	 1.593108463673670e+000	 4.142208809404778e+000
 6.570397946962922e-001	 1.538945204237500e+000	 5.740232659918723e+000
 6.406326384087309e-001	 1.545847136301012e+000	 5.599530334449648e+000
 6.241878459861200e-001	 1.552560137825569e+000	 5.447691397682155e+000
 6.077085419798072e-001	 1.559084241997953e+000	 5.287942740188968e+000
 5.911978360250292e-001	 1.565419547812639e+000	 5.123124183879116e+000
 5.746588211945348e-001	 1.571566219295666e+000	 4.955729491182674e+000
 5.580945723884372e-001	 1.577524484682149e+000	 4.787945057761489e+000
 5.415081447616859e-001	 1.583294635549190e+000	 4.621686206467277e+000
 5.249025721904647e-001	 1.588877025905929e+000	 4.458631026870021e+000
 5.082808657787364e-001	 1.594272071242548e+000	 4.300251730187198e+000
 4.916460124060640e-001	 1.599480247540058e+000	 4.147843513702124e+000
 6.596572171791894e-001	 1.545075837135533e+000	 5.767395842801758e+000
 6.431847003760837e-001	 1.552005264142596e+000	 5.625998278419808e+000
 6.266743975084234e-001	 1.558745007975918e+000	 5.473044177451812e+000
 6.101294455746984e-001	 1.565295101954474e+000	 5.311849925400817e+000
 5.935529665978694e-001	 1.571655645467095e+000	 5.145345638188133e+000
 5.769480659724273e-001	 1.577826803193227e+000	 4.976116641091825e+000
 5.603178308478363e-001	 1.583808804277191e+000	 4.806442545413854e+000
 5.436653285497375e-001	 1.589601941457622e+000	 4.638333841223542e+000
 5.269936050402385e-001	 1.595206570153903e+000	 4.473565951789595e+000
 5.103056834185109e-001	 1.600623107511378e+000	 4.313710721480717e+000
 4.936045624628233e-001	 1.605852031407194e+000	 4.160165333751007e+000
 6.622746396615893e-001	 1.551206470034202e+000	 5.796697709728112e+000
 6.457367623429725e-001	 1.558163391984861e+000	 5.654783747101932e+000
 6.291609490303003e-001	 1.564929878126983e+000	 5.500993736238985e+000
 6.125503491692053e-001	 1.571505961911738e+000	 5.338721312406804e+000
 5.959080971703684e-001	 1.577891743122306e+000	 5.170974762236291e+000
 5.792373107500242e-001	 1.584087387091551e+000	 5.000419000650800e+000
 5.625410893069842e-001	 1.590093123872994e+000	 4.829415057139436e+000
 5.458225123375806e-001	 1.595909247366803e+000	 4.660056990343387e+000
 5.290846378898453e-001	 1.601536114402606e+000	 4.494206177896306e+000
 5.123305010581554e-001	 1.606974143780907e+000	 4.333522955268015e+000
 4.955631125194850e-001	 1.612223815274991e+000	 4.179495602817781e+000
 6.648920621436569e-001	 1.557337102933408e+000	 5.828465654373195e+000
 6.482888243095516e-001	 1.564321519827707e+000	 5.686220845711493e+000
 6.316475005518932e-001	 1.571114748278663e+000	 5.531878948538226e+000
 6.149712527634552e-001	 1.577716821869641e+000	 5.368898692492249e+000
 5.982632277426402e-001	 1.584127840778174e+000	 5.200354508221571e+000
 5.815265555274233e-001	 1.590347970990540e+000	 5.028979030500811e+000
 5.647643477659645e-001	 1.596377443469459e+000	 4.857203019679924e+000
 5.479796961252855e-001	 1.602216553276638e+000	 4.687192621062444e+000
 5.311756707393405e-001	 1.607865658651945e+000	 4.520883910496628e+000
 5.143553186977136e-001	 1.613325180051048e+000	 4.360014701940910e+000
 4.975216625760818e-001	 1.618595599143369e+000	 4.206153618858985e+000
 6.675094846255589e-001	 1.563467735833050e+000	 5.863028947269953e+000
 6.508408862759760e-001	 1.570479647671034e+000	 5.720640052869968e+000
 6.341340520733438e-001	 1.577299618430859e+000	 5.566035230557842e+000
 6.173921563575771e-001	 1.583927681828087e+000	 5.402720575082835e+000
 6.006183583147983e-001	 1.590363938434600e+000	 5.233824728382653e+000
 5.838158003047237e-001	 1.596608554890094e+000	 5.062136276156187e+000
 5.669876062248608e-001	 1.602661763066491e+000	 4.890144129981232e+000
 5.501368799129207e-001	 1.608523859187033e+000	 4.720075154314798e+000
 5.332667035887800e-001	 1.614195202901830e+000	 4.553928988024355e+000
 5.163801363372280e-001	 1.619676216321714e+000	 4.393510038265729e+000
 4.994802126326459e-001	 1.624967383012244e+000	 4.240456651256251e+000
 6.701269071074611e-001	 1.569598368733029e+000	 5.900785687591561e+000
 6.533929482424004e-001	 1.576637775514741e+000	 5.758368180065655e+000
 6.366206035947943e-001	 1.583484488583470e+000	 5.603794506933137e+000
 6.198130599516989e-001	 1.590138541786973e+000	 5.440522161095051e+000
 6.029734888869563e-001	 1.596600036091486e+000	 5.271722154412921e+000
 5.861050450820241e-001	 1.602869138790117e+000	 5.100227352943152e+000
 5.692108646837572e-001	 1.608946082663995e+000	 4.928573345147958e+000
 5.522940637005561e-001	 1.614831165097894e+000	 4.759036459235335e+000
 5.353577364382198e-001	 1.620524747152170e+000	 4.593668880663843e+000
 5.184049539767426e-001	 1.626027252592817e+000	 4.434330849729942e+000
 5.014387626892101e-001	 1.631339166881533e+000	 4.282719946530914e+000
 6.727443295895290e-001	 1.575729001633244e+000	 5.942061069642399e+000
 6.559450102089794e-001	 1.582795903358730e+000	 5.799728330324879e+000
 6.391071551163871e-001	 1.589669358736397e+000	 5.645485176588827e+000
 6.222339635459488e-001	 1.596349401746202e+000	 5.482635315394544e+000
 6.053286194592281e-001	 1.602836133748733e+000	 5.314380375946549e+000
 5.883942898594234e-001	 1.609129722690513e+000	 5.143585929981231e+000
 5.714341231427375e-001	 1.615230402261874e+000	 4.972822871426005e+000
 5.544512474882609e-001	 1.621138471009127e+000	 4.804405846679819e+000
 5.374487692877151e-001	 1.626854291402873e+000	 4.640428687978943e+000
 5.204297716163004e-001	 1.632378288864270e+000	 4.482796831893767e+000
 5.033973127458067e-001	 1.637710950751154e+000	 4.333256733065486e+000
 6.753617520719286e-001	 1.581859634533595e+000	 5.987145655979373e+000
 6.584970721758683e-001	 1.588954031202899e+000	 5.845039856112565e+000
 6.415937066382641e-001	 1.595854228889541e+000	 5.691432077779615e+000
 6.246548671404557e-001	 1.602560261705675e+000	 5.529388538385843e+000
 6.076837500317269e-001	 1.609072231406239e+000	 5.362129818140893e+000
 5.906835346370200e-001	 1.615390306591181e+000	 5.192542713235469e+000
 5.736573816018853e-001	 1.621514721860030e+000	 5.023222152231904e+000
 5.566084312761043e-001	 1.627445776920638e+000	 4.856510061779964e+000
 5.395398021373217e-001	 1.633183835653848e+000	 4.694531135573321e+000
 5.224545892559448e-001	 1.638729325135984e+000	 4.539225490770193e+000
 5.053558628024685e-001	 1.644082734621023e+000	 4.392378224856646e+000
 6.779791745548262e-001	 1.587990267433982e+000	 6.036324893740711e+000
 6.610491341432212e-001	 1.595112159047149e+000	 5.894618316484392e+000
 6.440802581605674e-001	 1.602039099042800e+000	 5.741956452327271e+000
 6.270757707353472e-001	 1.608771121665290e+000	 5.581106936755290e+000
 6.100388806045674e-001	 1.615308329063911e+000	 5.415297718379424e+000
 5.929727794149129e-001	 1.621650890492024e+000	 5.247425427663134e+000
 5.758806400612844e-001	 1.627799041458369e+000	 5.080097855262736e+000
 5.587656150641557e-001	 1.633753082832332e+000	 4.915673275564454e+000
 5.416308349870956e-001	 1.639513379905004e+000	 4.756296570810612e+000
 5.244794068957194e-001	 1.645080361407874e+000	 4.603932142265708e+000
 5.073144128592277e-001	 1.650454518491057e+000	 4.460393624330266e+000
 6.805965970383868e-001	 1.594120900334306e+000	 6.089879167584729e+000
 6.636011961111934e-001	 1.601270286891380e+000	 5.948775433508780e+000
 6.465668096834394e-001	 1.608223969196076e+000	 5.797375909076935e+000
 6.294966743307516e-001	 1.614981981624948e+000	 5.638112193393207e+000
 6.123940111778622e-001	 1.621544426721644e+000	 5.474208102119007e+000
 5.952620241932003e-001	 1.627911474392944e+000	 5.308558798479155e+000
 5.781038985210186e-001	 1.634083361056792e+000	 5.143773858705293e+000
 5.609227988524843e-001	 1.640060388744116e+000	 4.982217075671170e+000
 5.437218678370922e-001	 1.645842924156250e+000	 4.826042957618497e+000
 5.265042245356669e-001	 1.651431397679850e+000	 4.677229910699965e+000
 5.092729629161171e-001	 1.656826302361175e+000	 4.537610124239898e+000
 4.896874623491745e-001	 1.593108463673670e+000	 4.142208809404778e+000
 4.731087311836948e-001	 1.598110300669677e+000	 4.001315808919394e+000
 4.565227760385447e-001	 1.602927135455114e+000	 3.872882729006025e+000
 4.399324899287324e-001	 1.607559614209450e+000	 3.755901032190457e+000
 4.233407364581182e-001	 1.612008439076500e+000	 3.649277731068150e+000
 4.067503485921295e-001	 1.616274367013764e+000	 3.551854942724342e+000
 3.901641274764115e-001	 1.620358208614037e+000	 3.462427342631098e+000
 3.735848413019252e-001	 1.624260826901171e+000	 3.379757629026756e+000
 3.570152242169341e-001	 1.627983136101961e+000	 3.302590119450367e+000
 3.404579752862288e-001	 1.631526100396023e+000	 3.229662609961338e+000
 3.239157574978582e-001	 1.634890732645615e+000	 3.159716634670319e+000
 4.916460124060640e-001	 1.599480247540058e+000	 4.147843513702124e+000
 4.750009730801597e-001	 1.604502089843302e+000	 4.005496792433944e+000
 4.583486808816097e-001	 1.609338190002596e+000	 3.875865440778231e+000
 4.416920403962998e-001	 1.613989196781871e+000	 3.757899304710747e+000
 4.250339266813351e-001	 1.618455815133233e+000	 3.650466862784358e+000
 4.083771840328469e-001	 1.622738805041712e+000	 3.552374739818071e+000
 3.917246247999181e-001	 1.626838980342146e+000	 3.462385059314311e+000
 3.750790282451423e-001	 1.630757207510138e+000	 3.379230750575969e+000
 3.584431394522583e-001	 1.634494404429018e+000	 3.301628937369399e+000
 3.418196682812127e-001	 1.638051539134735e+000	 3.228292544021561e+000
 3.252112883709185e-001	 1.641429628540587e+000	 3.157940262032786e+000
 4.936045624628233e-001	 1.605852031407194e+000	 4.160165333751007e+000
 4.768932149765300e-001	 1.610893879017622e+000	 4.017022393248660e+000
 4.601745857246076e-001	 1.615749244550718e+000	 3.886836750606993e+000
 4.434515908638193e-001	 1.620418779354871e+000	 3.768512578135971e+000
 4.267271169045154e-001	 1.624903191190487e+000	 3.660875893861609e+000
 4.100040194735311e-001	 1.629203243070121e+000	 3.562694033374627e+000
 3.932851221233866e-001	 1.633319752070662e+000	 3.472692898142964e+000
 3.765732151883082e-001	 1.637253588119463e+000	 3.389572101323204e+000
 3.598710546875104e-001	 1.641005672756396e+000	 3.312018143238121e+000
 3.431813612760959e-001	 1.644576977873742e+000	 3.238715757868591e+000
 3.265068192438411e-001	 1.647968524435843e+000	 3.168357579045954e+000
 4.955631125194850e-001	 1.612223815274991e+000	 4.179495602817781e+000
 4.787854568728292e-001	 1.617285668192561e+000	 4.036205555667721e+000
 4.620004905675545e-001	 1.622160299099407e+000	 3.906099690764258e+000
 4.452111413313025e-001	 1.626848361928386e+000	 3.788032531548915e+000
 4.284203071276679e-001	 1.631350567248200e+000	 3.680783796990764e+000
 4.116308549141898e-001	 1.635667681098937e+000	 3.583077830163937e+000
 3.948456194468263e-001	 1.639800523799534e+000	 3.493600739462198e+000
 3.780674021314359e-001	 1.643749968729099e+000	 3.411015378698695e+000
 3.612989699227087e-001	 1.647516941084049e+000	 3.333974303674009e+000
 3.445430542709035e-001	 1.651102416612997e+000	 3.261130852177122e+000
 3.278023501166604e-001	 1.654507420331330e+000	 3.191148501820484e+000
 4.975216625760818e-001	 1.618595599143369e+000	 4.206153618858985e+000
 4.806776987690811e-001	 1.623677457368042e+000	 4.063357346387988e+000
 4.638263954104682e-001	 1.628571353648595e+000	 3.933955574355536e+000
 4.469706917987620e-001	 1.633277944502351e+000	 3.816749283435765e+000
 4.301134973508022e-001	 1.637797943306314e+000	 3.710468142441500e+000
 4.132576903548320e-001	 1.642132119128106e+000	 3.613789891859726e+000
 3.964061167702470e-001	 1.646281295528714e+000	 3.525357374627738e+000
 3.795615890745382e-001	 1.650246349339002e+000	 3.443793345725142e+000
 3.627268851578711e-001	 1.654028209411931e+000	 3.367713203717565e+000
 3.459047472656608e-001	 1.657627855352454e+000	 3.295735796954723e+000
 3.290978809894109e-001	 1.661046316227001e+000	 3.226492464683219e+000
 4.994802126326459e-001	 1.624967383012244e+000	 4.240456651256251e+000
 4.825699406653091e-001	 1.630069246543986e+000	 4.098786964165202e+000
 4.656523002533649e-001	 1.634982408198208e+000	 3.970704007394502e+000
 4.487302422662093e-001	 1.639707527076702e+000	 3.854951405665330e+000
 4.318066875739272e-001	 1.644245319364772e+000	 3.750205113454254e+000
 4.148845257954658e-001	 1.648596557157575e+000	 3.655092751382046e+000
 3.979666140936579e-001	 1.652762067258152e+000	 3.568210522850495e+000
 3.810557760176275e-001	 1.656742729949124e+000	 3.488137847944718e+000
 3.641548003930153e-001	 1.660539477739997e+000	 3.413449863435020e+000
 3.472664402603927e-001	 1.664153294092064e+000	 3.342727947438798e+000
 3.303934118621270e-001	 1.667585212122803e+000	 3.274568435012444e+000
 5.014387626892101e-001	 1.631339166881533e+000	 4.282719946530914e+000
 4.844621825615373e-001	 1.636461035720317e+000	 4.142801748467779e+000
 4.674782050962617e-001	 1.641393462748176e+000	 4.016642899880296e+000
 4.504897927336566e-001	 1.646137109651372e+000	 3.902925936492139e+000
 4.334998777970523e-001	 1.650692695423513e+000	 3.800269520692348e+000
 4.165113612360994e-001	 1.655060995187289e+000	 3.707247728340205e+000
 3.995271114170690e-001	 1.659242838987799e+000	 3.622406847189087e+000
 3.825499629607168e-001	 1.663239110559418e+000	 3.544279829540556e+000
 3.655827156281598e-001	 1.667050746068203e+000	 3.471398553771185e+000
 3.486281332551247e-001	 1.670678732831783e+000	 3.402304059307050e+000
 3.316889427348432e-001	 1.674124108018686e+000	 3.335554927449949e+000
 5.033973127458067e-001	 1.637710950751154e+000	 4.333256733065486e+000
 4.863544244577892e-001	 1.642852824896956e+000	 4.195707187144569e+000
 4.693041099391750e-001	 1.647804517298428e+000	 4.072068475905395e+000
 4.522493432011158e-001	 1.652566692226297e+000	 3.960958392613750e+000
 4.351930680201865e-001	 1.657140071482478e+000	 3.860934815779953e+000
 4.181381966767416e-001	 1.661525433217197e+000	 3.770514943593505e+000
 4.010876087404895e-001	 1.665723610717605e+000	 3.688191969704548e+000
 3.840441499038189e-001	 1.669735491169838e+000	 3.612449348671059e+000
 3.670106308633221e-001	 1.673562014396501e+000	 3.541772811673139e+000
 3.499898262498818e-001	 1.677204171571562e+000	 3.474660303217816e+000
 3.329844736075938e-001	 1.680663003914599e+000	 3.409630017506475e+000
 5.053558628024685e-001	 1.644082734621023e+000	 4.392378224856646e+000
 4.882466663540884e-001	 1.649244614073828e+000	 4.257806923135122e+000
 4.711300147821223e-001	 1.654215571848892e+000	 4.137275282822299e+000
 4.540088936685993e-001	 1.658996274801413e+000	 4.029332780312884e+000
 4.368862582433391e-001	 1.663587447541609e+000	 3.932473103949917e+000
 4.197650321174003e-001	 1.667989871247243e+000	 3.845153332963308e+000
 4.026481060639292e-001	 1.672204382447522e+000	 3.765810485805643e+000
 3.855383368469467e-001	 1.676231871780339e+000	 3.692875592042003e+000
 3.684385460985205e-001	 1.680073282724848e+000	 3.624785454501883e+000
 3.513515192446895e-001	 1.683729610311356e+000	 3.559992278692199e+000
 3.342800044804131e-001	 1.687201899810492e+000	 3.496971354576827e+000
 5.073144128592277e-001	 1.650454518491057e+000	 4.460393624330266e+000
 4.901389082504586e-001	 1.655636403250854e+000	 4.329402760246759e+000
 4.729559196251201e-001	 1.660626626399497e+000	 4.212556199491580e+000
 4.557684441361187e-001	 1.665425857376654e+000	 4.108331605699068e+000
 4.385794484665194e-001	 1.670034823600846e+000	 4.015155155824147e+000
 4.213918675580844e-001	 1.674454309277374e+000	 3.931420660110638e+000
 4.042086033873978e-001	 1.678685154177500e+000	 3.855505977802620e+000
 3.870325237901126e-001	 1.682728252390872e+000	 3.785786888736574e+000
 3.698664613337727e-001	 1.686584551053196e+000	 3.720648593752709e+000
 3.527132122395726e-001	 1.690255049051117e+000	 3.658495027369769e+000
 3.355755353533356e-001	 1.693740795706313e+000	 3.597756174382485e+000
 5.092729629161171e-001	 1.656826302361175e+000	 4.537610124239898e+000
 4.920311501469236e-001	 1.662028192427957e+000	 4.410794668025114e+000
 4.747818244681851e-001	 1.667037680950171e+000	 4.298202443637706e+000
 4.575279946036860e-001	 1.671855439951955e+000	 4.198235884083365e+000
 4.402726386897362e-001	 1.676482199660132e+000	 4.109250418354020e+000
 4.230187029988017e-001	 1.680918747307537e+000	 4.029573528606737e+000
 4.057691007109044e-001	 1.685165925907489e+000	 3.957521027695146e+000
 3.885267107333296e-001	 1.689224633001393e+000	 3.891410723319138e+000
 3.712943765690968e-001	 1.693095819381501e+000	 3.829573648104169e+000
 3.540749052345564e-001	 1.696780487790798e+000	 3.770363045638872e+000
 3.368710662263960e-001	 1.700279691602014e+000	 3.712161310852046e+000
 3.239157574978582e-001	 1.634890732645615e+000	 3.159716634670319e+000
 3.073936732910061e-001	 1.638077628498721e+000	 3.092650607867396e+000
 2.908918240118034e-001	 1.641088412976345e+000	 3.029332025926903e+000
 2.744127541062840e-001	 1.643924238039060e+000	 2.970010459039832e+000
 2.579589685574620e-001	 1.646586299037103e+000	 2.914958027968862e+000
 2.415329321319333e-001	 1.649075833369447e+000	 2.864471614901726e+000
 2.251370686738320e-001	 1.651394119133861e+000	 2.818874431336717e+000
 2.087737604459027e-001	 1.653542473769713e+000	 2.778517087125739e+000
 1.924453475173707e-001	 1.655522252695209e+000	 2.743778299744635e+000
 1.761541271982328e-001	 1.657334847940780e+000	 2.715065376765264e+000
 1.599023535195375e-001	 1.658981686780223e+000	 2.692814597467890e+000
 3.252112883709185e-001	 1.641429628540587e+000	 3.157940262032786e+000
 3.086231225682338e-001	 1.644629270676910e+000	 3.090522344786327e+000
 2.920552726246377e-001	 1.647652097064122e+000	 3.026976080174615e+000
 2.755102931629164e-001	 1.650499264270161e+000	 2.967556429041525e+000
 2.589906991850010e-001	 1.653171972426168e+000	 2.912540283096061e+000
 2.424989653155539e-001	 1.655671463880202e+000	 2.862228242812319e+000
 2.260375250931032e-001	 1.657999021841892e+000	 2.816945747984762e+000
 2.096087703084788e-001	 1.660155969019819e+000	 2.777043710070458e+000
 1.932150503902341e-001	 1.662143666253301e+000	 2.742898790199457e+000
 1.768586718366746e-001	 1.663963511140317e+000	 2.714913460388818e+000
 1.605418976940590e-001	 1.665616936663167e+000	 2.693515978198529e+000
 3.265068192438411e-001	 1.647968524435843e+000	 3.168357579045954e+000
 3.098525718452795e-001	 1.651180912855387e+000	 3.100940372424913e+000
 2.932187212372420e-001	 1.654215781152202e+000	 3.037469731695254e+000
 2.766078322192715e-001	 1.657074290501588e+000	 2.978208672585424e+000
 2.600224298122194e-001	 1.659757645815585e+000	 2.923441788913001e+000
 2.434649984988196e-001	 1.662267094391330e+000	 2.873476572453379e+000
 2.269379815119977e-001	 1.664603924550310e+000	 2.828644080875160e+000
 2.104437801706726e-001	 1.666769464270312e+000	 2.789299108038856e+000
 1.939847532627300e-001	 1.668765079811762e+000	 2.755820005477277e+000
 1.775632164747878e-001	 1.670592174340182e+000	 2.728608297294096e+000
 1.611814418683190e-001	 1.672252186546373e+000	 2.708088223146024e+000
 3.278023501166604e-001	 1.654507420331330e+000	 3.191148501820484e+000
 3.110820211221888e-001	 1.657732555034092e+000	 3.124066755326948e+000
 2.943821698496740e-001	 1.660779465240521e+000	 3.060959526791615e+000
 2.777053712754186e-001	 1.663649316733266e+000	 3.002100602289656e+000
 2.610541604391976e-001	 1.666343319205270e+000	 2.947785260600842e+000
 2.444310316818189e-001	 1.668862724902740e+000	 2.898331109600367e+000
 2.278384379306092e-001	 1.671208827259018e+000	 2.854078265921718e+000
 2.112787900325794e-001	 1.673382959521094e+000	 2.815389037500188e+000
 1.947544561349502e-001	 1.675386493370500e+000	 2.782647262895847e+000
 1.782677611126548e-001	 1.677220837540294e+000	 2.756257454464238e+000
 1.618209860423831e-001	 1.678887436429775e+000	 2.736643884604603e+000
 3.290978809894109e-001	 1.661046316227001e+000	 3.226492464683219e+000
 3.123114703990073e-001	 1.664284197212973e+000	 3.160063200541577e+000
 2.955456184619911e-001	 1.667343149329012e+000	 3.097591732254764e+000
 2.788029103314271e-001	 1.670224342965123e+000	 3.039365384154738e+000
 2.620858910660155e-001	 1.672928992595140e+000	 2.985693155811408e+000
 2.453970648646408e-001	 1.675458355414341e+000	 2.936906049128018e+000
 2.287388943490323e-001	 1.677813729967921e+000	 2.893356733704316e+000
 2.121137998942950e-001	 1.679996454772071e+000	 2.855418715545357e+000
 1.955241590069866e-001	 1.682007906929424e+000	 2.823485168231268e+000
 1.789723057503575e-001	 1.683849500740571e+000	 2.797967578592840e+000
 1.624605302163164e-001	 1.685522686313308e+000	 2.779294350804491e+000
 3.303934118621270e-001	 1.667585212122803e+000	 3.274568435012444e+000
 3.135409196757802e-001	 1.670835839391968e+000	 3.209091071500908e+000
 2.967090670742507e-001	 1.673906833417610e+000	 3.147512348842164e+000
 2.799004493873660e-001	 1.676799369197082e+000	 3.090135951196367e+000
 2.631176216927533e-001	 1.679514665985110e+000	 3.037287689012107e+000
 2.463630980473739e-001	 1.682053985926043e+000	 2.989315290621853e+000
 2.296393507673612e-001	 1.684418632676925e+000	 2.946587526907772e+000
 2.129488097559151e-001	 1.686609950023146e+000	 2.909492839712594e+000
 1.962938618789311e-001	 1.688629320488438e+000	 2.878437638491616e+000
 1.796768503879780e-001	 1.690478163940929e+000	 2.853844422360140e+000
 1.631000743901845e-001	 1.692157936196906e+000	 2.836149876252895e+000
 3.316889427348432e-001	 1.674124108018686e+000	 3.335554927449949e+000
 3.147703689525531e-001	 1.677387481571024e+000	 3.271311401333453e+000
 2.978725156865105e-001	 1.680470517506249e+000	 3.210867124229291e+000
 2.809979884433051e-001	 1.683374395429068e+000	 3.154545016579617e+000
 2.641493523194912e-001	 1.686100339375096e+000	 3.102690845342059e+000
 2.473291312301070e-001	 1.688649616437755e+000	 3.055672453502192e+000
 2.305398071856901e-001	 1.691023535385935e+000	 3.013878317252833e+000
 2.137838196175352e-001	 1.693223445274223e+000	 2.977715607267034e+000
 1.970635647508757e-001	 1.695250734047455e+000	 2.947607924089952e+000
 1.803813950255986e-001	 1.697106827141288e+000	 2.923992870043362e+000
 1.637396185640525e-001	 1.698793186080504e+000	 2.907319611324721e+000
 3.329844736075938e-001	 1.680663003914599e+000	 3.409630017506475e+000
 3.159998182293716e-001	 1.683939123750080e+000	 3.346884905632757e+000
 2.990359642988275e-001	 1.687034201594863e+000	 3.287801565463331e+000
 2.820955274993135e-001	 1.689949421661007e+000	 3.232725086278452e+000
 2.651810829463090e-001	 1.692686012765018e+000	 3.182024394003949e+000
 2.482951644129290e-001	 1.695245246949386e+000	 3.136090891672131e+000
 2.314402636041132e-001	 1.697628438094853e+000	 3.095336421930147e+000
 2.146188294792508e-001	 1.699836940525207e+000	 3.060190733951968e+000
 1.978332676229121e-001	 1.701872147606379e+000	 3.031098630433809e+000
 1.810859396633013e-001	 1.703735490341565e+000	 3.008516962478845e+000
 1.643791627379858e-001	 1.705428435964037e+000	 2.992911631123001e+000
 3.342800044804131e-001	 1.687201899810492e+000	 3.496971354576827e+000
 3.172292675062811e-001	 1.690490765929081e+000	 3.435971994687178e+000
 3.001994129112596e-001	 1.693597885683388e+000	 3.378460950918793e+000
 2.831930665554606e-001	 1.696524447892823e+000	 3.324808471264408e+000
 2.662128135732872e-001	 1.699271686154789e+000	 3.275409901197263e+000
 2.492611975959284e-001	 1.701840877460847e+000	 3.230683707705444e+000
 2.323407200227248e-001	 1.704233340803587e+000	 3.191068819556369e+000
 2.154538393411576e-001	 1.706450435776000e+000	 3.157021472219407e+000
 1.986029704951323e-001	 1.708493561165121e+000	 3.129011738953287e+000
 1.817904843011682e-001	 1.710364153541677e+000	 3.107519921393941e+000
 1.650187069120498e-001	 1.712063685847439e+000	 3.093032963630845e+000
 3.355755353533356e-001	 1.693740795706313e+000	 3.597756174382485e+000
 3.184587167833267e-001	 1.697042408107969e+000	 3.538732785195133e+000
 3.013628615238639e-001	 1.700161569771757e+000	 3.482990341775183e+000
 2.842906056118157e-001	 1.703099474124443e+000	 3.430927299244746e+000
 2.672445442005057e-001	 1.705857359544326e+000	 3.382968742608945e+000
 2.502272307791939e-001	 1.708436507972044e+000	 3.339563766587388e+000
 2.332411764416191e-001	 1.710838243512040e+000	 3.301182165657403e+000
 2.162888492033513e-001	 1.713063931026508e+000	 3.268310628962456e+000
 1.993726733676282e-001	 1.715114974723586e+000	 3.241448627573375e+000
 1.824950289392815e-001	 1.716992816741543e+000	 3.221104173124462e+000
 1.656582510863099e-001	 1.718698935730644e+000	 3.207789617173320e+000
 3.368710662263960e-001	 1.700279691602014e+000	 3.712161310852046e+000
 3.196881660605543e-001	 1.703594050286686e+000	 3.655327111474445e+000
 3.025263101366981e-001	 1.706725253859904e+000	 3.601534593030187e+000
 2.853881446684482e-001	 1.709674500355790e+000	 3.551213525956040e+000
 2.682762748280446e-001	 1.712443032933547e+000	 3.504822115468822e+000
 2.511932639628146e-001	 1.715032138482888e+000	 3.462843709014166e+000
 2.341416328608904e-001	 1.717443146220116e+000	 3.425782807699717e+000
 2.171238590659275e-001	 1.719677426276633e+000	 3.394160582755171e+000
 2.001423762404916e-001	 1.721736388281684e+000	 3.368510090653252e+000
 1.831995735777232e-001	 1.723621479941080e+000	 3.349371371734202e+000
 1.662977952608313e-001	 1.725334185613589e+000	 3.337286607205025e+000
 1.599023535195375e-001	 1.658981686780223e+000	 2.692814597467890e+000
 1.436898138727403e-001	 1.660464440569369e+000	 2.676527013902171e+000
 1.275211442140091e-001	 1.661784344475902e+000	 2.664553723207114e+000
 1.113984995945325e-001	 1.662942924358685e+000	 2.655664141749774e+000
 9.532398912352270e-002	 1.663941735890127e+000	 2.648690078536127e+000
 7.929967567523567e-002	 1.664782363185058e+000	 2.642529623455566e+000
 6.332757563927832e-002	 1.665466417436829e+000	 2.636151375417777e+000
 4.740965871336957e-002	 1.665995535562018e+000	 2.628599070214522e+000
 3.154784773768926e-002	 1.666371378854980e+000	 2.618996657813710e+000
 1.574401856991394e-002	 1.666595631653491e+000	 2.606553868692964e+000
 0.000000000000000e+000	 1.666670000016666e+000	 2.590572300547192e+000
 1.605418976940590e-001	 1.665616936663167e+000	 2.693515978198529e+000
 1.442645145034967e-001	 1.667105620862422e+000	 2.678172112679352e+000
 1.280311767630719e-001	 1.668430803845940e+000	 2.667130771263747e+000
 1.118440481432776e-001	 1.669594017575405e+000	 2.659050022440163e+000
 9.570524618888120e-002	 1.670596823945298e+000	 2.652649139586407e+000
 7.961684202477348e-002	 1.671440813406267e+000	 2.646712277615127e+000
 6.358086010527686e-002	 1.672127603595793e+000	 2.640092515526603e+000
 4.759927800607747e-002	 1.672658837977463e+000	 2.631716326875603e+000
 3.167402625791174e-002	 1.673036184490139e+000	 2.620588529685731e+000
 1.580698822110221e-002	 1.673261334208274e+000	 2.605797756930929e+000
 0.000000000000000e+000	 1.673336000014533e+000	 2.586522480446948e+000
 1.611814418683190e-001	 1.672252186546373e+000	 2.708088223146024e+000
 1.448392151340877e-001	 1.673746801155640e+000	 2.693706473234728e+000
 1.285412093120838e-001	 1.675077263216021e+000	 2.683646121503264e+000
 1.122895966920915e-001	 1.676245110792036e+000	 2.676487165573470e+000
 9.608650325442086e-002	 1.677251912000235e+000	 2.670868217017440e+000
 7.993400837458460e-002	 1.678099263627101e+000	 2.665489938464454e+000
 6.383414457160815e-002	 1.678788789754250e+000	 2.659118876003372e+000
 4.778889729913253e-002	 1.679322140392283e+000	 2.650591751049781e+000
 3.180020477843861e-002	 1.679700990124582e+000	 2.638820265042658e+000
 1.586995787248308e-002	 1.679927036762280e+000	 2.622796459562518e+000
 0.000000000000000e+000	 1.680002000011600e+000	 2.601598666240108e+000
 1.618209860423831e-001	 1.678887436429775e+000	 2.736643884604603e+000
 1.454139157645546e-001	 1.680387981448981e+000	 2.723245329412790e+000
 1.290512418610575e-001	 1.681723722586136e+000	 2.714210124517963e+000
 1.127351452409571e-001	 1.682896204008598e+000	 2.708073196224120e+000
 9.646776032009645e-002	 1.683907000054997e+000	 2.703424099461987e+000
 8.025117472460075e-002	 1.684757713847654e+000	 2.698910187163039e+000
 6.408742903818900e-002	 1.685449975912325e+000	 2.693240207678118e+000
 4.797851659244794e-002	 1.685985442806634e+000	 2.685188396588520e+000
 3.192638329919379e-002	 1.686365795758486e+000	 2.673599118085315e+000
 1.593292752400839e-002	 1.686592739315701e+000	 2.657392099973023e+000
 0.000000000000000e+000	 1.686668000008066e+000	 2.635568298134188e+000
 1.624605302163164e-001	 1.685522686313308e+000	 2.779294350804491e+000
 1.459886163949389e-001	 1.687029161742404e+000	 2.766902553820287e+000
 1.295612744100057e-001	 1.688370181956273e+000	 2.758931704235654e+000
 1.131806937898572e-001	 1.689547297225114e+000	 2.753904385736498e+000
 9.684901738586264e-002	 1.690562088109642e+000	 2.750392439566064e+000
 8.056834107475359e-002	 1.691416164068020e+000	 2.747019837694460e+000
 6.434071350493623e-002	 1.692111162070146e+000	 2.742466020157968e+000
 4.816813588593695e-002	 1.692648745220673e+000	 2.735469765090795e+000
 3.205256182010117e-002	 1.693030601392032e+000	 2.724833648436410e+000
 1.599589717563000e-002	 1.693258441868734e+000	 2.709429138833765e+000
 0.000000000000000e+000	 1.693334000004133e+000	 2.688202364949438e+000
 1.631000743901845e-001	 1.692157936196906e+000	 2.836149876252895e+000
 1.465633170252818e-001	 1.693670342035869e+000	 2.824790691217892e+000
 1.300713069589412e-001	 1.695016641326421e+000	 2.817918391712470e+000
 1.136262423387744e-001	 1.696198390441608e+000	 2.814075683174861e+000
 9.723027445167415e-002	 1.697217176164229e+000	 2.811847780247438e+000
 8.088550742497476e-002	 1.698074614288291e+000	 2.809864954996657e+000
 6.459399797176668e-002	 1.698772348227841e+000	 2.806805588799769e+000
 4.835775517951275e-002	 1.699312047634556e+000	 2.801399798609756e+000
 3.217874034108466e-002	 1.699695407025399e+000	 2.792433696388314e+000
 1.605886682729975e-002	 1.699924144421573e+000	 2.778754328610896e+000
 0.000000000000000e+000	 1.700000000000000e+000	 2.759275334544219e+000
 1.637396185640525e-001	 1.698793186080504e+000	 2.907319611324721e+000
 1.471380176556247e-001	 1.700311522329333e+000	 2.897020991104660e+000
 1.305813395078766e-001	 1.701663100696570e+000	 2.891276358115898e+000
 1.140717908876917e-001	 1.702849483658101e+000	 2.888680746018739e+000
 9.761153151748563e-002	 1.703872264218816e+000	 2.887863580328308e+000
 8.120267377519592e-002	 1.704733064508563e+000	 2.887490872661195e+000
 6.484728243859711e-002	 1.705433534385534e+000	 2.886267961519234e+000
 4.854737447308854e-002	 1.705975350048439e+000	 2.882942872533016e+000
 3.230491886206814e-002	 1.706360212658766e+000	 2.876310358727980e+000
 1.612183647896950e-002	 1.706589846974412e+000	 2.865216669144162e+000
 0.000000000000000e+000	 1.706665999995867e+000	 2.848565085872286e+000
 1.643791627379858e-001	 1.705428435964037e+000	 2.992911631123001e+000
 1.477127182860090e-001	 1.706952702622757e+000	 2.983703439507106e+000
 1.310913720568248e-001	 1.708309560066706e+000	 2.979110446918142e+000
 1.145173394365917e-001	 1.709500576874617e+000	 2.977811970131099e+000
 9.799278858325179e-002	 1.710527352273461e+000	 2.978512239560772e+000
 8.151984012534874e-002	 1.711391514728928e+000	 2.979942210210325e+000
 6.510056690534437e-002	 1.712094720543356e+000	 2.980861965436196e+000
 4.873699376657754e-002	 1.712638652462478e+000	 2.980063788619837e+000
 3.243109738297553e-002	 1.713025018292312e+000	 2.976375965127013e+000
 1.618480613059111e-002	 1.713255549527444e+000	 2.968667364260453e+000
 0.000000000000000e+000	 1.713331999991934e+000	 2.955852842625289e+000
 1.650187069120498e-001	 1.712063685847439e+000	 3.093032963630845e+000
 1.482874189164758e-001	 1.713593882916097e+000	 3.084946790003146e+000
 1.316014046057985e-001	 1.714956019436821e+000	 3.081524205314601e+000
 1.149628879854574e-001	 1.716151670091179e+000	 3.081560519013052e+000
 9.837404564892738e-002	 1.717182440328223e+000	 3.083865123057213e+000
 8.183700647536490e-002	 1.718049964949481e+000	 3.087262889971508e+000
 6.535385137192523e-002	 1.718755906701431e+000	 3.090596213363055e+000
 4.892661305989297e-002	 1.719301954876830e+000	 3.092727768208476e+000
 3.255727590373070e-002	 1.719689823926216e+000	 3.092544055081937e+000
 1.624777578211642e-002	 1.719921252080867e+000	 3.088959779397954e+000
 0.000000000000000e+000	 1.719997999988401e+000	 3.080923108418256e+000
 1.656582510863099e-001	 1.718698935730644e+000	 3.207789617173320e+000
 1.488621195470669e-001	 1.720235063209314e+000	 3.200858594000350e+000
 1.321114371548103e-001	 1.721602478806902e+000	 3.198619914901756e+000
 1.154084365342713e-001	 1.722802763307809e+000	 3.200016352365328e+000
 9.875530271446709e-002	 1.723837528383160e+000	 3.203992585152123e+000
 8.215417282517604e-002	 1.724708415170315e+000	 3.209496153551259e+000
 6.560713583825652e-002	 1.725417092859887e+000	 3.215479110137276e+000
 4.911623235294803e-002	 1.725965257291649e+000	 3.220900445569835e+000
 3.268345442425758e-002	 1.726354629560658e+000	 3.224729355382349e+000
 1.631074543349728e-002	 1.726586954634872e+000	 3.225949400207698e+000
 0.000000000000000e+000	 1.726663999985468e+000	 3.223563603476995e+000
 1.662977952608313e-001	 1.725334185613589e+000	 3.337286607205025e+000
 1.494368201778233e-001	 1.726876243502368e+000	 3.331545230283924e+000
 1.326214697038732e-001	 1.728248938176940e+000	 3.330498621619301e+000
 1.158539850830164e-001	 1.729453856524530e+000	 3.333268253978281e+000
 9.913655977982550e-002	 1.730492616438330e+000	 3.338963992697170e+000
 8.247133917471385e-002	 1.731366865391524e+000	 3.346684577923628e+000
 6.586042030425503e-002	 1.732078279018852e+000	 3.355518858808953e+000
 4.930585164565591e-002	 1.732628559707094e+000	 3.364547861420233e+000
 3.280963294448005e-002	 1.733019435195818e+000	 3.372847758105408e+000
 1.637371508468555e-002	 1.733252657189655e+000	 3.379493792116053e+000
 0.000000000000000e+000	 1.733329999983334e+000	 3.383565202785994e+000
 1.733329999983334e+000	 0.000000000000000e+000	 1.309546060239933e+001
 1.733252657189655e+000	 1.637371508468560e-002	 1.310806677941041e+001
 1.733019435195817e+000	 3.280963294448016e-002	 1.311561390377380e+001
 1.732628559707093e+000	 4.930585164565578e-002	 1.311958426719985e+001
 1.732078279018852e+000	 6.586042030425496e-002	 1.312142460609525e+001
 1.731366865391524e+000	 8.247133917471382e-002	 1.312254245861632e+001
 1.730492616438330e+000	 9.913655977982551e-002	 1.312430244451933e+001
 1.729453856524530e+000	 1.158539850830164e-001	 1.312802249033026e+001
 1.728248938176940e+000	 1.326214697038731e-001	 1.313497001859323e+001
 1.726876243502368e+000	 1.494368201778232e-001	 1.314635812381790e+001
 1.725334185613589e+000	 1.662977952608313e-001	 1.316334176181893e+001
 1.739996999982150e+000	 0.000000000000000e+000	 1.304561220313221e+001
 1.739919359700741e+000	 1.643669418203721e-002	 1.305858617710835e+001
 1.739685240652657e+000	 3.293583039301111e-002	 1.306641147384470e+001
 1.739292861718604e+000	 4.949549938368804e-002	 1.307060708639579e+001
 1.738740464456275e+000	 6.611374276632483e-002	 1.307265637557052e+001
 1.738026314480604e+000	 8.278855310363308e-002	 1.307400335944441e+001
 1.737148702856828e+000	 9.951787403924238e-002	 1.307604891341586e+001
 1.736105947505125e+000	 1.162996004706390e-001	 1.308014690303664e+001
 1.734896394615545e+000	 1.331315787655219e-001	 1.308760026815048e+001
 1.733518420071906e+000	 1.500116070224829e-001	 1.309965708084612e+001
 1.731970430883254e+000	 1.669374353768737e-001	 1.311750660392807e+001
 1.746663999981866e+000	 0.000000000000000e+000	 1.300338659539831e+001
 1.746586062212704e+000	 1.649967327917074e-002	 1.301654956999727e+001
 1.746351046110308e+000	 3.306202784119438e-002	 1.302448159000844e+001
 1.745957163730827e+000	 4.968514712131888e-002	 1.302873809388107e+001
 1.745402649894287e+000	 6.636706522800251e-002	 1.303083856116304e+001
 1.744685763570132e+000	 8.310576703221921e-002	 1.303226272835812e+001
 1.743804789275623e+000	 9.989918829842162e-002	 1.303444670294013e+001
 1.742758038485864e+000	 1.167452158581424e-001	 1.303877899745745e+001
 1.741543851054149e+000	 1.336416878271795e-001	 1.304659650203870e+001
 1.740160596641313e+000	 1.505863938672744e-001	 1.305918041769982e+001
 1.738606676152682e+000	 1.675770754931521e-001	 1.307775217717160e+001
 1.753330999982383e+000	 0.000000000000000e+000	 1.296839094325869e+001
 1.753252764725449e+000	 1.656265237610888e-002	 1.298161278903565e+001
 1.753016851568687e+000	 3.318822528906295e-002	 1.298952518890493e+001
 1.752621465743698e+000	 4.987479485858096e-002	 1.299371976365240e+001
 1.752064835332843e+000	 6.662038768931183e-002	 1.299575160310299e+001
 1.751345212660085e+000	 8.342298096048077e-002	 1.299713540230414e+001
 1.750460875694719e+000	 1.002805025573522e-001	 1.299934148333275e+001
 1.749410129466778e+000	 1.171908312454938e-001	 1.300379172435885e+001
 1.748191307492805e+000	 1.341517968887906e-001	 1.301185541405771e+001
 1.746802773210664e+000	 1.511611807121225e-001	 1.302484505366652e+001
 1.745242921421967e+000	 1.682167156095753e-001	 1.304401213343150e+001
 1.759997999983599e+000	 0.000000000000000e+000	 1.294023671887248e+001
 1.759919467238878e+000	 1.662563147287437e-002	 1.295343556051438e+001
 1.759682657027710e+000	 3.331442273664976e-002	 1.296124672639370e+001
 1.759285767757147e+000	 5.006444259550699e-002	 1.296529774933445e+001
 1.758727020771897e+000	 6.687371015027672e-002	 1.296717881804682e+001
 1.758004661750444e+000	 8.374019488842645e-002	 1.296843882771135e+001
 1.757116962114120e+000	 1.006618168160231e-001	 1.297058130349774e+001
 1.756062220447895e+000	 1.176364466326602e-001	 1.297506021834602e+001
 1.754838763931569e+000	 1.346619059503003e-001	 1.298327572288316e+001
 1.753444949780036e+000	 1.517359675569519e-001	 1.299656980967538e+001
 1.751879166691197e+000	 1.688563557260526e-001	 1.301622193859016e+001
 1.766664999985416e+000	 0.000000000000000e+000	 1.291853962120796e+001
 1.766586169752895e+000	 1.668861056948992e-002	 1.293168143561332e+001
 1.766348462487290e+000	 3.344062018398774e-002	 1.293935411693533e+001
 1.765950069771108e+000	 5.025409033212962e-002	 1.294322083236657e+001
 1.765389206211403e+000	 6.712703261092110e-002	 1.294490635505029e+001
 1.764664110841186e+000	 8.405740881606484e-002	 1.294599302323509e+001
 1.763773048533831e+000	 1.010431310744234e-001	 1.294801655950764e+001
 1.762714311429247e+000	 1.180820620196086e-001	 1.295246177112144e+001
 1.761486220370494e+000	 1.351720150116536e-001	 1.296075814907786e+001
 1.760087126349500e+000	 1.523107544016878e-001	 1.297427538806566e+001
 1.758515411960465e+000	 1.694959958424926e-001	 1.299431885407112e+001
 1.773331999987732e+000	 0.000000000000000e+000	 1.290291949658716e+001
 1.773252872267407e+000	 1.675158966597828e-002	 1.291601772154594e+001
 1.773014267947344e+000	 3.356681763110986e-002	 1.292355867433562e+001
 1.772614371785513e+000	 5.044373806848151e-002	 1.292724087134659e+001
 1.772051391651317e+000	 6.738035507126874e-002	 1.292872315251511e+001
 1.771323559932291e+000	 8.437462274340453e-002	 1.292962054331180e+001
 1.770429134953857e+000	 1.014244453325420e-001	 1.293149996377452e+001
 1.769366402410864e+000	 1.185276774063061e-001	 1.293587580528662e+001
 1.768133676809635e+000	 1.356821240727953e-001	 1.294420539254241e+001
 1.766729302919135e+000	 1.528855412462549e-001	 1.295788435271393e+001
 1.765151657229859e+000	 1.701356359588047e-001	 1.297824191867478e+001
 1.779998999990449e+000	 0.000000000000000e+000	 1.289300026101613e+001
 1.779919574782316e+000	 1.681456876236214e-002	 1.290611541424990e+001
 1.779680073407788e+000	 3.369301507804907e-002	 1.291357505381614e+001
 1.779278673800295e+000	 5.063338580459535e-002	 1.291711275250245e+001
 1.778713577091589e+000	 6.763367753134363e-002	 1.291842089608336e+001
 1.777983009023737e+000	 8.469183667045423e-002	 1.291914644250157e+001
 1.777085221374202e+000	 1.018057595903678e-001	 1.292088651486946e+001
 1.776018493392776e+000	 1.189732927927196e-001	 1.292518384867177e+001
 1.774781133249046e+000	 1.361922331336704e-001	 1.293352211039495e+001
 1.773371479489014e+000	 1.534603280905781e-001	 1.294732110950765e+001
 1.771787902499474e+000	 1.707752760748979e-001	 1.296793193069992e+001
 1.786665999993466e+000	 0.000000000000000e+000	 1.288840982425419e+001
 1.786586277297526e+000	 1.687754785866422e-002	 1.290164913258341e+001
 1.786345878868537e+000	 3.381921252483833e-002	 1.290912119537707e+001
 1.785942975815387e+000	 5.082303354050381e-002	 1.291259434126119e+001
 1.785375762532177e+000	 6.788699999116955e-002	 1.291379397745516e+001
 1.784642458115503e+000	 8.500905059722247e-002	 1.291439824059860e+001
 1.783741307794869e+000	 1.021870738478898e-001	 1.291603346797421e+001
 1.782670584375014e+000	 1.194189081788164e-001	 1.292026950918131e+001
 1.781428589688781e+000	 1.367023421942238e-001	 1.292861489526771e+001
 1.780013656059212e+000	 1.540351149345822e-001	 1.294251188715871e+001
 1.778424147769398e+000	 1.714149161906810e-001	 1.296333143034486e+001
 1.793332999996683e+000	 0.000000000000000e+000	 1.288878001557688e+001
 1.793252979812941e+000	 1.694052695490725e-002	 1.290229705398840e+001
 1.793011684329505e+000	 3.394540997151059e-002	 1.290991826841854e+001
 1.792607277830720e+000	 5.101268127623954e-002	 1.291344643488747e+001
 1.792037947973034e+000	 6.814032245077047e-002	 1.291463945410501e+001
 1.791301907207566e+000	 8.532626452371793e-002	 1.291520588848914e+001
 1.790397394215866e+000	 1.025683881050970e-001	 1.291680030594768e+001
 1.789322675357607e+000	 1.198645235645632e-001	 1.292101845013992e+001
 1.788076046128894e+000	 1.372124512544006e-001	 1.292939225401014e+001
 1.786655832629805e+000	 1.546099017781922e-001	 1.294338471834582e+001
 1.785060393039723e+000	 1.720545563060633e-001	 1.296438468238031e+001
 1.800000000000000e+000	 0.000000000000000e+000	 1.289374651118866e+001
 1.799919682328466e+000	 1.700350605111395e-002	 1.290774085158210e+001
 1.799677489790610e+000	 3.407160741809879e-002	 1.291569061758742e+001
 1.799271579846228e+000	 5.120232901183521e-002	 1.291943271616381e+001
 1.798700133414114e+000	 6.839364491017019e-002	 1.292075700987415e+001
 1.797961356299908e+000	 8.564347844994921e-002	 1.292140173473814e+001
 1.797053480637194e+000	 1.029497023619785e-001	 1.292304871099172e+001
 1.795974766340585e+000	 1.203101389499273e-001	 1.292731836612771e+001
 1.794723502569440e+000	 1.377225603141456e-001	 1.293576458678824e+001
 1.793298009200867e+000	 1.551846886213329e-001	 1.294986942117893e+001
 1.791696638310540e+000	 1.726941964209536e-001	 1.297103765908687e+001
 1.725334185613589e+000	 1.662977952608313e-001	 1.316334176181893e+001
 1.723621479941080e+000	 1.831995735777232e-001	 1.318125721472786e+001
 1.721736388281684e+000	 2.001423762404914e-001	 1.319535923599702e+001
 1.719677426276633e+000	 2.171238590659275e-001	 1.320655663900718e+001
 1.717443146220116e+000	 2.341416328608902e-001	 1.321566312230216e+001
 1.715032138482888e+000	 2.511932639628145e-001	 1.322339342848316e+001
 1.712443032933547e+000	 2.682762748280447e-001	 1.323035979207501e+001
 1.709674500355791e+000	 2.853881446684482e-001	 1.323706873695672e+001
 1.706725253859903e+000	 3.025263101366982e-001	 1.324391828856680e+001
 1.703594050286686e+000	 3.196881660605542e-001	 1.325119567058328e+001
 1.700279691602013e+000	 3.368710662263961e-001	 1.325907556006869e+001
 1.731970430883254e+000	 1.669374353768737e-001	 1.311750660392807e+001
 1.730251137539157e+000	 1.839042239088101e-001	 1.313638558069273e+001
 1.728358795150721e+000	 2.009121945807593e-001	 1.315143004958490e+001
 1.726291913649813e+000	 2.179589941929544e-001	 1.316355229003918e+001
 1.724049039762244e+000	 2.350422243625717e-001	 1.317356795187537e+001
 1.721628758436840e+000	 2.521594420663184e-001	 1.318219206270830e+001
 1.719029694272197e+000	 2.693081602310289e-001	 1.319003531591925e+001
 1.716250512939384e+000	 2.864858483727273e-001	 1.319760070081283e+001
 1.713289922598861e+000	 3.036899332845457e-001	 1.320528054137325e+001
 1.710146675309802e+000	 3.209177997738291e-001	 1.321335401468845e+001
 1.706819568430031e+000	 3.381667914486827e-001	 1.322198522457241e+001
 1.738606676152682e+000	 1.675770754931521e-001	 1.307775217717160e+001
 1.736880795136925e+000	 1.846088742402069e-001	 1.309744817795780e+001
 1.734981202019403e+000	 2.016820129213816e-001	 1.311328608549897e+001
 1.732906401022620e+000	 2.187941293203549e-001	 1.312618109063460e+001
 1.730654933303999e+000	 2.359428158646245e-001	 1.313695025660154e+001
 1.728225378390438e+000	 2.531256201701740e-001	 1.314630837233162e+001
 1.725616355610525e+000	 2.703400456343321e-001	 1.315486407746784e+001
 1.722826525522695e+000	 2.875835520772833e-001	 1.316311632176668e+001
 1.719854591337579e+000	 3.048535564326230e-001	 1.317145122651507e+001
 1.716699300332726e+000	 3.221474334872859e-001	 1.318013942041821e+001
 1.713359445257894e+000	 3.394625166711073e-001	 1.318933392705033e+001
 1.745242921421967e+000	 1.682167156095753e-001	 1.304401213343150e+001
 1.743510452734483e+000	 1.853135245718127e-001	 1.306439338593252e+001
 1.741603608887835e+000	 2.024518312622533e-001	 1.308088993316584e+001
 1.739520888395156e+000	 2.196292644480248e-001	 1.309441934548150e+001
 1.737260826845480e+000	 2.368434073669490e-001	 1.310579958666463e+001
 1.734821998343771e+000	 2.540917982742895e-001	 1.311574471042605e+001
 1.732203016948608e+000	 2.713719310378722e-001	 1.312486081932408e+001
 1.729402538105790e+000	 2.886812557820459e-001	 1.313364234983839e+001
 1.726419260076111e+000	 3.060171795808724e-001	 1.314246875245286e+001
 1.723251925355489e+000	 3.233770672008791e-001	 1.315160164061089e+001
 1.719899322085622e+000	 3.407582418936351e-001	 1.316118248721663e+001
 1.751879166691197e+000	 1.688563557260526e-001	 1.301622193859016e+001
 1.750140110331933e+000	 1.860181749035265e-001	 1.303717132372326e+001
 1.748226015756122e+000	 2.032216496032693e-001	 1.305420583860704e+001
 1.746135375767526e+000	 2.204643995758591e-001	 1.306824492406391e+001
 1.743866720386786e+000	 2.377439988694453e-001	 1.308010695668323e+001
 1.741418618296932e+000	 2.550579763785728e-001	 1.309050478574255e+001
 1.738789678286527e+000	 2.724038164415678e-001	 1.310004152281557e+001
 1.735978550688731e+000	 2.897789594869453e-001	 1.310920664885063e+001
 1.732983928814502e+000	 3.071808027292359e-001	 1.311837250882066e+001
 1.729804550378127e+000	 3.246067009145631e-001	 1.312779126922926e+001
 1.726439198913232e+000	 3.420539671162316e-001	 1.313759241875623e+001
 1.758515411960465e+000	 1.694959958424926e-001	 1.299431885407112e+001
 1.756769767929376e+000	 1.867228252352476e-001	 1.301573383288545e+001
 1.754848422624370e+000	 2.039914679443244e-001	 1.303319968826747e+001
 1.752749863139835e+000	 2.212995347037537e-001	 1.304763724543713e+001
 1.750472613928017e+000	 2.386445903720133e-001	 1.305986483130972e+001
 1.748015238250009e+000	 2.560241544829318e-001	 1.307059364901679e+001
 1.745376339624358e+000	 2.734357018453367e-001	 1.308042339489968e+001
 1.742554563271583e+000	 2.908766631919111e-001	 1.308983818383303e+001
 1.739548597552804e+000	 3.083444258776562e-001	 1.309920285423417e+001
 1.736357175400671e+000	 3.258363346282924e-001	 1.310875972948744e+001
 1.732979075740743e+000	 3.433496923388628e-001	 1.311862591769386e+001
 1.765151657229859e+000	 1.701356359588047e-001	 1.297824191867478e+001
 1.763399425526912e+000	 1.874274755668750e-001	 1.300003446041797e+001
 1.761470829492683e+000	 2.047612862853135e-001	 1.301783899303383e+001
 1.759364350512185e+000	 2.221346698316040e-001	 1.303257726314205e+001
 1.757078507469271e+000	 2.395451818745535e-001	 1.304506711091846e+001
 1.754611858203091e+000	 2.569903325872746e-001	 1.305601767931592e+001
 1.751963000962180e+000	 2.744675872490972e-001	 1.306602485506123e+001
 1.749130575854412e+000	 2.919743668968733e-001	 1.307556700836837e+001
 1.746113266291066e+000	 3.095080490260753e-001	 1.308500110399402e+001
 1.742909800423157e+000	 3.270659683420218e-001	 1.309455926182546e+001
 1.739518952568174e+000	 3.446454175614939e-001	 1.310434585056284e+001
 1.771787902499474e+000	 1.707752760748979e-001	 1.296793193069992e+001
 1.770029083124643e+000	 1.881321258983079e-001	 1.299002844199314e+001
 1.768093236361167e+000	 2.055311046261315e-001	 1.300809287243848e+001
 1.765978837884681e+000	 2.229698049593054e-001	 1.302304745025531e+001
 1.763684401010645e+000	 2.404457733769656e-001	 1.303570911738117e+001
 1.761208478156271e+000	 2.579565106915091e-001	 1.304678457042455e+001
 1.758549662300072e+000	 2.754994726527677e-001	 1.305686552220063e+001
 1.755706588437281e+000	 2.930720706017621e-001	 1.306642425188364e+001
 1.752677935029338e+000	 3.106716721744358e-001	 1.307580951768607e+001
 1.749462425445618e+000	 3.282956020557054e-001	 1.308524291173450e+001
 1.746058829395541e+000	 3.459411427840905e-001	 1.309481574237845e+001
 1.778424147769398e+000	 1.714149161906810e-001	 1.296333143034486e+001
 1.776658740722669e+000	 1.888367762294454e-001	 1.298567268541524e+001
 1.774715643229925e+000	 2.063009229666732e-001	 1.300393203904404e+001
 1.772593325257429e+000	 2.238049400867535e-001	 1.301903178457203e+001
 1.770290294552242e+000	 2.413463648791500e-001	 1.303178757992684e+001
 1.767805098109637e+000	 2.589226887955433e-001	 1.304290331726793e+001
 1.765136323638111e+000	 2.765313580562662e-001	 1.305296620151384e+001
 1.762282601020255e+000	 2.941697743065070e-001	 1.306244210688636e+001
 1.759242603767669e+000	 3.118352953226800e-001	 1.307167128668209e+001
 1.756015050468088e+000	 3.295252357692979e-001	 1.308086451743706e+001
 1.752598706222864e+000	 3.472368680066182e-001	 1.309009976442142e+001
 1.785060393039723e+000	 1.720545563060633e-001	 1.296438468238031e+001
 1.783288398321091e+000	 1.895414265601867e-001	 1.298692575430373e+001
 1.781338050099065e+000	 2.070707413068336e-001	 1.300532878300298e+001
 1.779207812630531e+000	 2.246400752138435e-001	 1.302051573391703e+001
 1.776896188094157e+000	 2.422469563810069e-001	 1.303330062108471e+001
 1.774401718063279e+000	 2.598888668992851e-001	 1.304438420237298e+001
 1.771722984976377e+000	 2.775632434595108e-001	 1.305434887136433e+001
 1.768858613603400e+000	 2.952674780110384e-001	 1.306365381614854e+001
 1.765807272506106e+000	 3.129989184707498e-001	 1.307263052154318e+001
 1.762567675490600e+000	 3.307548694827538e-001	 1.308147869742589e+001
 1.759138583050161e+000	 3.485325932290429e-001	 1.309026272183597e+001
 1.791696638310540e+000	 1.726941964209536e-001	 1.297103765908687e+001
 1.789918055920010e+000	 1.902460768904308e-001	 1.299374785199262e+001
 1.787960456968690e+000	 2.078405596465076e-001	 1.301225695678902e+001
 1.785822300004091e+000	 2.254752103404711e-001	 1.302748624158155e+001
 1.783502081636491e+000	 2.431475478824360e-001	 1.304024774270688e+001
 1.780998338017287e+000	 2.608550450026427e-001	 1.305123878236431e+001
 1.778309646314947e+000	 2.785951288624201e-001	 1.306103667014677e+001
 1.775434626186778e+000	 2.963651817152860e-001	 1.307009365983813e+001
 1.772371941244703e+000	 3.141625416185883e-001	 1.307873223932832e+001
 1.769120300513189e+000	 3.319845031960277e-001	 1.308714083786534e+001
 1.765678459877450e+000	 3.498283184513297e-001	 1.309537004104764e+001
 1.700279691602013e+000	 3.368710662263961e-001	 1.325907556006869e+001
 1.696780487790798e+000	 3.540749052345567e-001	 1.326813263114839e+001
 1.693095819381501e+000	 3.712943765690969e-001	 1.327870418584502e+001
 1.689224633001393e+000	 3.885267107333296e-001	 1.329045588966931e+001
 1.685165925907488e+000	 4.057691007109044e-001	 1.330295985462524e+001
 1.680918747307537e+000	 4.230187029988018e-001	 1.331569768987574e+001
 1.676482199660132e+000	 4.402726386897363e-001	 1.332806461255995e+001
 1.671855439951955e+000	 4.575279946036862e-001	 1.333937471039366e+001
 1.667037680950171e+000	 4.747818244681850e-001	 1.334886744817036e+001
 1.662028192427957e+000	 4.920311501469236e-001	 1.335571551000903e+001
 1.656826302361175e+000	 5.092729629161171e-001	 1.335903406810928e+001
 1.706819568430031e+000	 3.381667914486827e-001	 1.322198522457241e+001
 1.703306905444065e+000	 3.554368025040349e-001	 1.323183280758710e+001
 1.699608064497652e+000	 3.727225060132112e-001	 1.324332210182059e+001
 1.695721988166405e+000	 3.900211218270627e-001	 1.325611037919963e+001
 1.691647669850424e+000	 4.073298321324640e-001	 1.326975820503268e+001
 1.687384155100361e+000	 4.246457824892795e-001	 1.328373230642562e+001
 1.682930542922536e+000	 4.419660829169301e-001	 1.329740950970813e+001
 1.678285987061092e+000	 4.592878090302757e-001	 1.331008184111557e+001
 1.673449697255204e+000	 4.766080032244467e-001	 1.332096288557075e+001
 1.668420940469325e+000	 4.939236759081699e-001	 1.332919549823654e+001
 1.663199042094462e+000	 5.112318067850482e-001	 1.333386096250670e+001
 1.713359445257894e+000	 3.394625166711073e-001	 1.318933392705033e+001
 1.709833323097210e+000	 3.567986997736140e-001	 1.319977709246043e+001
 1.706120309613704e+000	 3.741506354573975e-001	 1.321198414810118e+001
 1.702219343331335e+000	 3.915155329208471e-001	 1.322560646858863e+001
 1.698129413793288e+000	 4.088905635540621e-001	 1.324019546654874e+001
 1.693849562893120e+000	 4.262728619797906e-001	 1.325520526585940e+001
 1.689378886184878e+000	 4.436595271441607e-001	 1.326999645258834e+001
 1.684716534170167e+000	 4.610476234569134e-001	 1.328384100054933e+001
 1.679861713560173e+000	 4.784341819807756e-001	 1.329592846911597e+001
 1.674813688510627e+000	 4.958162016695114e-001	 1.330537357086236e+001
 1.669571781827683e+000	 5.131906506541094e-001	 1.331122520567959e+001
 1.719899322085622e+000	 3.407582418936351e-001	 1.316118248721663e+001
 1.716359740750236e+000	 3.581605970432687e-001	 1.317203666128693e+001
 1.712632554729648e+000	 3.755787649016377e-001	 1.318477068376689e+001
 1.708716698496162e+000	 3.930099440146698e-001	 1.319903253066129e+001
 1.704611157736048e+000	 4.104512949756887e-001	 1.321436685983608e+001
 1.700314970685772e+000	 4.278999414703268e-001	 1.323021747602400e+001
 1.695827229447108e+000	 4.453529713714187e-001	 1.324593088202807e+001
 1.691147081279122e+000	 4.628074378835871e-001	 1.326076101578824e+001
 1.686273729865016e+000	 4.802603607371551e-001	 1.327387527381523e+001
 1.681206436551799e+000	 4.977087274309236e-001	 1.328436192153196e+001
 1.675944521560770e+000	 5.151494945232681e-001	 1.329123899023041e+001
 1.726439198913232e+000	 3.420539671162316e-001	 1.313759241875623e+001
 1.722886158403147e+000	 3.595224943129740e-001	 1.314868323678646e+001
 1.719144799845473e+000	 3.770068943459138e-001	 1.316176247666165e+001
 1.715214053660861e+000	 3.945043551085180e-001	 1.317647721786773e+001
 1.711092901678671e+000	 4.120120263973348e-001	 1.319236776632381e+001
 1.706780378478273e+000	 4.295270209608801e-001	 1.320886989794601e+001
 1.702275572709173e+000	 4.470464155986954e-001	 1.322531819671924e+001
 1.697577628387899e+000	 4.645672523102848e-001	 1.324095058975128e+001
 1.692685746169670e+000	 4.820865394935684e-001	 1.325491418274807e+001
 1.687599184592773e+000	 4.996012531923834e-001	 1.326627249949495e+001
 1.682317261293658e+000	 5.171083383924920e-001	 1.327401422818989e+001
 1.732979075740743e+000	 3.433496923388628e-001	 1.311862591769386e+001
 1.729412576055947e+000	 3.608843915827041e-001	 1.312978907728761e+001
 1.725657044961170e+000	 3.784350237902079e-001	 1.314304069150090e+001
 1.721711408825414e+000	 3.959987662023791e-001	 1.315802944975220e+001
 1.717574645621123e+000	 4.135727578189902e-001	 1.317429371469702e+001
 1.713245786270582e+000	 4.311541004514415e-001	 1.319126353099950e+001
 1.708723915971023e+000	 4.487398598259810e-001	 1.320826373672172e+001
 1.704008175496442e+000	 4.663270667369946e-001	 1.322451828267951e+001
 1.699097762474073e+000	 4.839127182499985e-001	 1.323915586621046e+001
 1.693991932633487e+000	 5.014937789538670e-001	 1.325121698605808e+001
 1.688690001026278e+000	 5.190671822617484e-001	 1.325966252443480e+001
 1.739518952568174e+000	 3.446454175614939e-001	 1.310434585056284e+001
 1.735938993708639e+000	 3.622462888524344e-001	 1.311542696489005e+001
 1.732169290076729e+000	 3.798631532345022e-001	 1.312868687769680e+001
 1.728208763989794e+000	 3.974931772962400e-001	 1.314377840010795e+001
 1.724056389563372e+000	 4.151334892406455e-001	 1.316024036704677e+001
 1.719711194062654e+000	 4.327811799420031e-001	 1.317749939771648e+001
 1.715172259232606e+000	 4.504333040532667e-001	 1.319487276659850e+001
 1.710438722604692e+000	 4.680868811637045e-001	 1.321157249325982e+001
 1.705509778778163e+000	 4.857388970064288e-001	 1.322671076049147e+001
 1.700384680673871e+000	 5.033863047153503e-001	 1.323930677067916e+001
 1.695062740758567e+000	 5.210260261310048e-001	 1.324829514976427e+001
 1.746058829395541e+000	 3.459411427840905e-001	 1.309481574237845e+001
 1.742465411361228e+000	 3.636081861221397e-001	 1.310567019338895e+001
 1.738681535192140e+000	 3.812912826787783e-001	 1.311878295690788e+001
 1.734706119153983e+000	 3.989875883900884e-001	 1.313381348382568e+001
 1.730538133505383e+000	 4.166942206622915e-001	 1.315030350469016e+001
 1.726176601854446e+000	 4.344082594325562e-001	 1.316767852824950e+001
 1.721620602493873e+000	 4.521267482805432e-001	 1.318525045819204e+001
 1.716869269712593e+000	 4.698466955904023e-001	 1.320222143938577e+001
 1.711921795081877e+000	 4.875650757628420e-001	 1.321768904628958e+001
 1.706777428713864e+000	 5.052788304768102e-001	 1.323065292671094e+001
 1.701435480490456e+000	 5.229848700002288e-001	 1.324002301364375e+001
 1.752598706222864e+000	 3.472368680066182e-001	 1.309009976442142e+001
 1.748991829013715e+000	 3.649700833917944e-001	 1.310059255596665e+001
 1.745193780307393e+000	 3.827194121230186e-001	 1.311341121032061e+001
 1.741203474317956e+000	 4.004819994839109e-001	 1.312822434344441e+001
 1.737019877447124e+000	 4.182549520839182e-001	 1.314457901366846e+001
 1.732642009645917e+000	 4.360353389230924e-001	 1.316190194449538e+001
 1.728068945754770e+000	 4.538201925078013e-001	 1.317950187305094e+001
 1.723299816820085e+000	 4.716065100170760e-001	 1.319657313856505e+001
 1.718333811385152e+000	 4.893912545192214e-001	 1.321220062677905e+001
 1.713170176753398e+000	 5.071713562382227e-001	 1.322536618680434e+001
 1.707808220221878e+000	 5.249437138693874e-001	 1.323495663662488e+001
 1.759138583050161e+000	 3.485325932290429e-001	 1.309026272183597e+001
 1.755518246666106e+000	 3.663319806613735e-001	 1.310026833265897e+001
 1.751706025422479e+000	 3.841475415672048e-001	 1.311265426566980e+001
 1.747700829481692e+000	 4.019764105776953e-001	 1.312710083541161e+001
 1.743501621388562e+000	 4.198156835055162e-001	 1.314316286993202e+001
 1.739107417437024e+000	 4.376624184136038e-001	 1.316027064388898e+001
 1.734517289015250e+000	 4.555136367350319e-001	 1.317773194451650e+001
 1.729730363927113e+000	 4.733663244437137e-001	 1.319473538798281e+001
 1.724745827687928e+000	 4.912174332755505e-001	 1.321035510533426e+001
 1.719562924792408e+000	 5.090638819995640e-001	 1.322355691797990e+001
 1.714180959952767e+000	 5.269025577384489e-001	 1.323320612245005e+001
 1.765678459877450e+000	 3.498283184513297e-001	 1.309537004104764e+001
 1.762044664318403e+000	 3.676938779308519e-001	 1.310477227760055e+001
 1.758218270537386e+000	 3.855756710113191e-001	 1.311659508400450e+001
 1.754198184645169e+000	 4.034708216714287e-001	 1.313053301606088e+001
 1.749983365329663e+000	 4.213764149270760e-001	 1.314615112422030e+001
 1.745572825227723e+000	 4.392894979040814e-001	 1.316288558287531e+001
 1.740965632275259e+000	 4.572070809622258e-001	 1.318004545947737e+001
 1.736160911033618e+000	 4.751261388703035e-001	 1.319681574422940e+001
 1.731157843990141e+000	 4.930436120318121e-001	 1.321226176292198e+001
 1.725955672830829e+000	 5.109564077608105e-001	 1.322533509637582e+001
 1.720553699683057e+000	 5.288614016073798e-001	 1.323488112984992e+001
 1.656826302361175e+000	 5.092729629161171e-001	 1.335903406810928e+001
 1.651431397679850e+000	 5.265042245356668e-001	 1.335983046223207e+001
 1.645842924156249e+000	 5.437218678370922e-001	 1.335948599132321e+001
 1.640060388744116e+000	 5.609227988524841e-001	 1.335762922298071e+001
 1.634083361056793e+000	 5.781038985210186e-001	 1.335388659785718e+001
 1.627911474392944e+000	 5.952620241932002e-001	 1.334789915710311e+001
 1.621544426721645e+000	 6.123940111778623e-001	 1.333934114446856e+001
 1.614981981624948e+000	 6.294966743307519e-001	 1.332794054085893e+001
 1.608223969196076e+000	 6.465668096834393e-001	 1.331350158007538e+001
 1.601270286891380e+000	 6.636011961111936e-001	 1.329592928431025e+001
 1.594120900334306e+000	 6.805965970383868e-001	 1.328476000873611e+001
 1.663199042094462e+000	 5.112318067850482e-001	 1.333386096250670e+001
 1.657783386702546e+000	 5.285293459288381e-001	 1.333592368807182e+001
 1.652173417934089e+000	 5.458132143736451e-001	 1.333671313060636e+001
 1.646368640846407e+000	 5.630803062510660e-001	 1.333580355851288e+001
 1.640368623397428e+000	 5.803274905032655e-001	 1.333276185442864e+001
 1.634172997475358e+000	 5.975516123930078e-001	 1.332716426737717e+001
 1.627781459887553e+000	 6.147494950566041e-001	 1.331861507906491e+001
 1.621193773306730e+000	 6.319179410986118e-001	 1.330676724502866e+001
 1.614409767172589e+000	 6.490537342270052e-001	 1.329134506216223e+001
 1.607429338547067e+000	 6.661536409274684e-001	 1.327216890384440e+001
 1.600252452921389e+000	 6.832144121753601e-001	 1.326259692619290e+001
 1.669571781827683e+000	 5.131906506541094e-001	 1.331122520567959e+001
 1.664135375725177e+000	 5.305544673221825e-001	 1.331440169968853e+001
 1.658503911711865e+000	 5.479045609104210e-001	 1.331617575414554e+001
 1.652676892948635e+000	 5.652378136499248e-001	 1.331606590806346e+001
 1.646653885738001e+000	 5.825510824858480e-001	 1.331357784262082e+001
 1.640434520557706e+000	 5.998412005932102e-001	 1.330822115104174e+001
 1.634018493053394e+000	 6.171049789358011e-001	 1.329952806277546e+001
 1.627405564988432e+000	 6.343392078669852e-001	 1.328707418567403e+001
 1.620595565149006e+000	 6.515406587711398e-001	 1.327050132057303e+001
 1.613588390202636e+000	 6.687060857443629e-001	 1.324973788706854e+001
 1.606384005508325e+000	 6.858322273129968e-001	 1.324203339080867e+001
 1.675944521560770e+000	 5.151494945232681e-001	 1.329123899023041e+001
 1.670487364747675e+000	 5.325795887156569e-001	 1.329537574467391e+001
 1.664834405489513e+000	 5.499959074473638e-001	 1.329798341455270e+001
 1.658985145050743e+000	 5.673953210489919e-001	 1.329852341651493e+001
 1.652939148078459e+000	 5.847746744686813e-001	 1.329643862374870e+001
 1.646696043639944e+000	 6.021307887937087e-001	 1.329117014639624e+001
 1.640255526219127e+000	 6.194604628153395e-001	 1.328217610709186e+001
 1.633617356670030e+000	 6.367604746357437e-001	 1.326895247839692e+001
 1.626781363125316e+000	 6.540275833157008e-001	 1.325105603949677e+001
 1.619747441858088e+000	 6.712585305617219e-001	 1.322913483276454e+001
 1.612515558095128e+000	 6.884500424511315e-001	 1.322313250438775e+001
 1.682317261293658e+000	 5.171083383924920e-001	 1.327401422818989e+001
 1.676839353769976e+000	 5.346047101092180e-001	 1.327895676864397e+001
 1.671164899266971e+000	 5.520872539844181e-001	 1.328224535402805e+001
 1.665293397152670e+000	 5.695528284481980e-001	 1.328328292342597e+001
 1.659224410418750e+000	 5.869982664516829e-001	 1.328144797295501e+001
 1.652957566722031e+000	 6.044203769944051e-001	 1.327611133930284e+001
 1.646492559384722e+000	 6.218159466951052e-001	 1.326665501988292e+001
 1.639829148351499e+000	 6.391817414047586e-001	 1.325249309954088e+001
 1.632967161101506e+000	 6.565145078605460e-001	 1.323309484421954e+001
 1.625906493513425e+000	 6.738109753793903e-001	 1.321044765999181e+001
 1.618647110681814e+000	 6.910678575895980e-001	 1.320595536033692e+001
 1.688690001026278e+000	 5.190671822617484e-001	 1.325966252443480e+001
 1.683191342792014e+000	 5.366298315028224e-001	 1.326525538532782e+001
 1.677495393044174e+000	 5.541786005215282e-001	 1.326907047087946e+001
 1.671601649254359e+000	 5.717103358474733e-001	 1.327045092575095e+001
 1.665509672758822e+000	 5.892218584347682e-001	 1.326870933790864e+001
 1.659219089803919e+000	 6.067099651952000e-001	 1.326314451765190e+001
 1.652729592550140e+000	 6.241714305749843e-001	 1.325306035542607e+001
 1.646040940032815e+000	 6.416030081739023e-001	 1.323778683159708e+001
 1.639152959077564e+000	 6.590014324055339e-001	 1.321670324172388e+001
 1.632065545168649e+000	 6.763634201972142e-001	 1.319374779214216e+001
 1.624778663268401e+000	 6.936856727282307e-001	 1.319056105914076e+001
 1.695062740758567e+000	 5.210260261310048e-001	 1.324829514976427e+001
 1.689543331813722e+000	 5.386549528964267e-001	 1.325438184633897e+001
 1.683825886821062e+000	 5.562699470586384e-001	 1.325856728575462e+001
 1.677909901355751e+000	 5.738678432467484e-001	 1.326013354030719e+001
 1.671794935098621e+000	 5.914454504178531e-001	 1.325832579729084e+001
 1.665480612885564e+000	 6.089995533959950e-001	 1.325236912566117e+001
 1.658966625715349e+000	 6.265269144548639e-001	 1.324148736432290e+001
 1.652252731713956e+000	 6.440242749430456e-001	 1.322492420855005e+001
 1.645338757053478e+000	 6.614883569505218e-001	 1.320196656128880e+001
 1.638224596823758e+000	 6.789158650150375e-001	 1.317910451687300e+001
 1.630910215854901e+000	 6.963034878668630e-001	 1.317700672397364e+001
 1.701435480490456e+000	 5.229848700002288e-001	 1.324002301364375e+001
 1.695895320835035e+000	 5.406800742899879e-001	 1.324644601063831e+001
 1.690156380597569e+000	 5.583612935956929e-001	 1.325084390759308e+001
 1.684218153456787e+000	 5.760253506459545e-001	 1.325243646599625e+001
 1.678080197438097e+000	 5.936690424008546e-001	 1.325040001907516e+001
 1.671742135966923e+000	 6.112891415966912e-001	 1.324388421801281e+001
 1.665203658880313e+000	 6.288823983346294e-001	 1.323203094330211e+001
 1.658464523394895e+000	 6.464455417120607e-001	 1.321399546116504e+001
 1.651524555029236e+000	 6.639752814953672e-001	 1.318896989509028e+001
 1.644383648478757e+000	 6.814683098327062e-001	 1.316658500413416e+001
 1.637041768441332e+000	 6.989213030053300e-001	 1.316534751644418e+001
 1.707808220221878e+000	 5.249437138693874e-001	 1.323495663662488e+001
 1.702247309855889e+000	 5.427051956834623e-001	 1.324155731369562e+001
 1.696486874373634e+000	 5.604526401326357e-001	 1.324600799930582e+001
 1.690526405557408e+000	 5.781828580450215e-001	 1.324746494578595e+001
 1.684365459777196e+000	 5.958926343836883e-001	 1.324503421860598e+001
 1.678003659047950e+000	 6.135787297971899e-001	 1.323778841383256e+001
 1.671440692044997e+000	 6.312378822141678e-001	 1.322478558491245e+001
 1.664676315075607e+000	 6.488668084808190e-001	 1.320509046221834e+001
 1.657710353004827e+000	 6.664622060399285e-001	 1.317779803880237e+001
 1.650542700133645e+000	 6.840207546500652e-001	 1.315625432425740e+001
 1.643173321027709e+000	 7.015391181434645e-001	 1.315563665246964e+001
 1.714180959952767e+000	 5.269025577384489e-001	 1.323320612245005e+001
 1.708599298876214e+000	 5.447303170768069e-001	 1.323982473635881e+001
 1.702817368149193e+000	 5.625439866694116e-001	 1.324416674318927e+001
 1.696834657657558e+000	 5.803403654438809e-001	 1.324532372845938e+001
 1.690650722115867e+000	 5.981162263662708e-001	 1.324233011648155e+001
 1.684265182128602e+000	 6.158683179973924e-001	 1.323417985051505e+001
 1.677677725209364e+000	 6.335933660933647e-001	 1.321984532710886e+001
 1.670888106756072e+000	 6.512880752491927e-001	 1.319829867167199e+001
 1.663896150980237e+000	 6.689491305840634e-001	 1.316876890531753e+001
 1.656701751788424e+000	 6.865731994669597e-001	 1.314817546610708e+001
 1.649304873614048e+000	 7.041569332811017e-001	 1.314792541827597e+001
 1.720553699683057e+000	 5.288614016073798e-001	 1.323488112984992e+001
 1.714951287895949e+000	 5.467554384699779e-001	 1.324135677343714e+001
 1.709147861924184e+000	 5.646353332059646e-001	 1.324542680608052e+001
 1.703142909757176e+000	 5.824978728424625e-001	 1.324611703013650e+001
 1.696935984454057e+000	 6.003398183485178e-001	 1.324238889624595e+001
 1.690526705208835e+000	 6.181579061972001e-001	 1.323315613739934e+001
 1.683914758373382e+000	 6.359488499721072e-001	 1.321730370273421e+001
 1.677099898436262e+000	 6.537093420170529e-001	 1.319370908179461e+001
 1.670081948955454e+000	 6.714360551276295e-001	 1.316229238195760e+001
 1.662860803443096e+000	 6.891256442832350e-001	 1.314240935529042e+001
 1.655436426200365e+000	 7.067747484180751e-001	 1.314226318652098e+001
 1.594120900334306e+000	 6.805965970383868e-001	 1.328476000873611e+001
 1.586776960647991e+000	 6.975472228038634e-001	 1.328299197573481e+001
 1.579237515303806e+000	 7.144523655646381e-001	 1.327574776321808e+001
 1.571502739887311e+000	 7.313087553462129e-001	 1.326355949358162e+001
 1.563572880804545e+000	 7.481131139287018e-001	 1.324695727784793e+001
 1.555448255818969e+000	 7.648621567133505e-001	 1.322646603526415e+001
 1.547129254530897e+000	 7.815525946160573e-001	 1.320260193984478e+001
 1.538616338798039e+000	 7.981811359858799e-001	 1.317586848796825e+001
 1.529910043095903e+000	 8.147444885464511e-001	 1.314675218423194e+001
 1.521010974816841e+000	 8.312393613581415e-001	 1.311571784609511e+001
 1.511919814506641e+000	 8.476624667987508e-001	 1.308320353137328e+001
 1.600252452921389e+000	 6.832144121753601e-001	 1.326259692619290e+001
 1.592880265846325e+000	 7.002302360404402e-001	 1.326257781237901e+001
 1.585311821129488e+000	 7.172004019571125e-001	 1.325692166750767e+001
 1.577547295031810e+000	 7.341216273734027e-001	 1.324614254088964e+001
 1.569586934907099e+000	 7.509906214602354e-001	 1.323075463256451e+001
 1.561431059741056e+000	 7.678040869851310e-001	 1.321126914512207e+001
 1.553080060632540e+000	 7.845587222130090e-001	 1.318819075047473e+001
 1.544534401215737e+000	 8.012512228320780e-001	 1.316201366503072e+001
 1.535794618021945e+000	 8.178782839027143e-001	 1.313321732988466e+001
 1.526861320779763e+000	 8.344366018271732e-001	 1.310226169604430e+001
 1.517735192652611e+000	 8.509228763379011e-001	 1.306958211833262e+001
 1.606384005508325e+000	 6.858322273129968e-001	 1.324203339080867e+001
 1.598983571044472e+000	 7.029132492777178e-001	 1.324359210944501e+001
 1.591386126954937e+000	 7.199484383503170e-001	 1.323936302765474e+001
 1.583591850176024e+000	 7.369344994013459e-001	 1.322984204322379e+001
 1.575600989009313e+000	 7.538681289925396e-001	 1.321552746962994e+001
 1.567413863662745e+000	 7.707460172576940e-001	 1.319691692204832e+001
 1.559030866733727e+000	 7.875648498107523e-001	 1.317450380596329e+001
 1.550452463632922e+000	 8.043213096790730e-001	 1.314877340115684e+001
 1.541679192947415e+000	 8.210120792597763e-001	 1.312019853707993e+001
 1.532711666742066e+000	 8.376338422970052e-001	 1.308923485909753e+001
 1.523550570797915e+000	 8.541832858778508e-001	 1.305631568880508e+001
 1.612515558095128e+000	 6.884500424511315e-001	 1.322313250438775e+001
 1.605086876242463e+000	 7.055962625155204e-001	 1.322608544374203e+001
 1.597460432780201e+000	 7.226964747440691e-001	 1.322311072122034e+001
 1.589636405320017e+000	 7.397473714298536e-001	 1.321468599380137e+001
 1.581615043111267e+000	 7.567456365254215e-001	 1.320129370165888e+001
 1.573396667584132e+000	 7.736879475308442e-001	 1.318341799035930e+001
 1.564981672834569e+000	 7.905709774090889e-001	 1.316154122296952e+001
 1.556370526049719e+000	 8.073913965266647e-001	 1.313614007414149e+001
 1.547563767872459e+000	 8.241458746174377e-001	 1.310768120155102e+001
 1.538562012703903e+000	 8.408310827674368e-001	 1.307661649363282e+001
 1.529365948942723e+000	 8.574436954184008e-001	 1.304337789635152e+001
 1.618647110681814e+000	 6.910678575895980e-001	 1.320595536033692e+001
 1.611190181440331e+000	 7.082792757536738e-001	 1.321010654760921e+001
 1.603534738605327e+000	 7.254445111381856e-001	 1.320820193500603e+001
 1.595680960463853e+000	 7.425602434587380e-001	 1.320070083846916e+001
 1.587629097213043e+000	 7.596231440586885e-001	 1.318806982687441e+001
 1.579379471505315e+000	 7.766298778043861e-001	 1.317077968247838e+001
 1.570932478935180e+000	 7.935771050078214e-001	 1.314930193822488e+001
 1.562288588466257e+000	 8.104614833746550e-001	 1.312410498325167e+001
 1.553448342797217e+000	 8.272796699754988e-001	 1.309564973132409e+001
 1.544412358665429e+000	 8.440283232382685e-001	 1.306438485057041e+001
 1.535181327087197e+000	 8.607041049593510e-001	 1.303074155678219e+001
 1.624778663268401e+000	 6.936856727282307e-001	 1.319056105914076e+001
 1.617293486638105e+000	 7.109622889920020e-001	 1.319570232194957e+001
 1.609609044430361e+000	 7.281925475324854e-001	 1.319467217582721e+001
 1.601725515607597e+000	 7.453731154878104e-001	 1.318791148439351e+001
 1.593643151314718e+000	 7.625006515921481e-001	 1.317587093588901e+001
 1.585362275426390e+000	 7.795718080781234e-001	 1.315900804397784e+001
 1.576883285035673e+000	 7.965832326067517e-001	 1.313778371200333e+001
 1.568206650882666e+000	 8.135315702228443e-001	 1.311265835128735e+001
 1.559332917721832e+000	 8.304134653337596e-001	 1.308408754752903e+001
 1.550262704626801e+000	 8.472255637093004e-001	 1.305251727308887e+001
 1.540996705231507e+000	 8.639645145005013e-001	 1.301837864692890e+001
 1.630910215854901e+000	 6.963034878668630e-001	 1.317700672397364e+001
 1.623396791835816e+000	 7.136453022303302e-001	 1.318291784947082e+001
 1.615683350255351e+000	 7.309405839267845e-001	 1.318255528155913e+001
 1.607770070751310e+000	 7.481859875168831e-001	 1.317634130908437e+001
 1.599657205416376e+000	 7.653781591256081e-001	 1.316471071887602e+001
 1.591345079347454e+000	 7.825137383518612e-001	 1.314810783906406e+001
 1.582834091136160e+000	 7.995893602056818e-001	 1.312698313208216e+001
 1.574124713299071e+000	 8.166016570710337e-001	 1.310178932717709e+001
 1.565217492646447e+000	 8.335472606920200e-001	 1.307297708578439e+001
 1.556113050588172e+000	 8.504228041803321e-001	 1.304099019695041e+001
 1.546812083375814e+000	 8.672249240416514e-001	 1.300626030405773e+001
 1.637041768441332e+000	 6.989213030053300e-001	 1.316534751644418e+001
 1.629500097033497e+000	 7.163283154684836e-001	 1.317179640812765e+001
 1.621757656080346e+000	 7.336886203209018e-001	 1.317188343244838e+001
 1.613814625895058e+000	 7.509988595457676e-001	 1.316601216974447e+001
 1.605671259518095e+000	 7.682556666588754e-001	 1.315460147312177e+001
 1.597327883268604e+000	 7.854556686254028e-001	 1.313808255649388e+001
 1.588784897236754e+000	 8.025954878044141e-001	 1.311689561818137e+001
 1.580042775715603e+000	 8.196717439190239e-001	 1.309148598909424e+001
 1.571102067571203e+000	 8.366810560500813e-001	 1.306229979814151e+001
 1.561963396549698e+000	 8.536200446511639e-001	 1.302977915141944e+001
 1.552627461520289e+000	 8.704853335826015e-001	 1.299435682590518e+001
 1.643173321027709e+000	 7.015391181434645e-001	 1.315563665246964e+001
 1.635603402231177e+000	 7.190113287062864e-001	 1.316237948476000e+001
 1.627831961905391e+000	 7.364366567146536e-001	 1.316268716268274e+001
 1.619859181038904e+000	 7.538117315742755e-001	 1.315694441293505e+001
 1.611685313619956e+000	 7.711331741917576e-001	 1.314555411094797e+001
 1.603310687189938e+000	 7.883975988985532e-001	 1.312893441591157e+001
 1.594735703337569e+000	 8.056016154027513e-001	 1.310751542686842e+001
 1.585960838132388e+000	 8.227418307666160e-001	 1.308173534808049e+001
 1.576986642496242e+000	 8.398148514077428e-001	 1.305203615557309e+001
 1.567813742511534e+000	 8.568172851215961e-001	 1.301885876075932e+001
 1.558442839665096e+000	 8.737457431231520e-001	 1.298263767132162e+001
 1.649304873614048e+000	 7.041569332811017e-001	 1.314792541827597e+001
 1.641706707428888e+000	 7.216943419435641e-001	 1.315470678892245e+001
 1.633906267730533e+000	 7.391846931078582e-001	 1.315499537221297e+001
 1.625903736182912e+000	 7.566246036022185e-001	 1.314915688454996e+001
 1.617699367722041e+000	 7.740106817240621e-001	 1.313757816799511e+001
 1.609293491111552e+000	 7.913395291711169e-001	 1.312066437459456e+001
 1.600686509438716e+000	 8.086077430004947e-001	 1.309883565691691e+001
 1.591878900549555e+000	 8.258119176136108e-001	 1.307252335216327e+001
 1.582871217421709e+000	 8.429486467648052e-001	 1.304216565099218e+001
 1.573664088473836e+000	 8.600145255914281e-001	 1.300820274629164e+001
 1.564258217810401e+000	 8.770061526631022e-001	 1.297107146150605e+001
 1.655436426200365e+000	 7.067747484180751e-001	 1.314226318652098e+001
 1.647810012626662e+000	 7.243773551801414e-001	 1.314881626689965e+001
 1.639980573555821e+000	 7.419327295003327e-001	 1.314883533881977e+001
 1.631948291327146e+000	 7.594374756294089e-001	 1.314266694009044e+001
 1.623713421824428e+000	 7.768881892555959e-001	 1.313068181185746e+001
 1.615276295033542e+000	 7.942814594428974e-001	 1.311327213459846e+001
 1.606637315540310e+000	 8.116138705974469e-001	 1.309084825510685e+001
 1.597796962967233e+000	 8.288820044598098e-001	 1.306383489095413e+001
 1.588755792347744e+000	 8.460824421210691e-001	 1.303266680278749e+001
 1.579514434436758e+000	 8.632117660604604e-001	 1.299778392900361e+001
 1.570073595956371e+000	 8.802665622022525e-001	 1.295962598181718e+001
 1.511919814506641e+000	 8.476624667987508e-001	 1.308320353137328e+001
 1.502635909414624e+000	 8.640129693766441e-001	 1.304806534313289e+001
 1.493161437663220e+000	 8.802851242522312e-001	 1.300931958911368e+001
 1.483497301674313e+000	 8.964756653057330e-001	 1.296761743918453e+001
 1.473644477357683e+000	 9.125813378375239e-001	 1.292361958305552e+001
 1.463604014020220e+000	 9.285989006069539e-001	 1.287798944974112e+001
 1.453377034207980e+000	 9.445251278751972e-001	 1.283138604908930e+001
 1.442964733480680e+000	 9.603568114495741e-001	 1.278445646681748e+001
 1.432368380118340e+000	 9.760907627267612e-001	 1.273782804892701e+001
 1.421589314759868e+000	 9.917238147322857e-001	 1.269210031571720e+001
 1.410628949973539e+000	 1.007252824153679e+000	 1.264783664984477e+001
 1.517735192652611e+000	 8.509228763379011e-001	 1.306958211833262e+001
 1.508415578379102e+000	 8.673362687296659e-001	 1.303426021800521e+001
 1.498904664459498e+000	 8.836710120661887e-001	 1.299553367962630e+001
 1.489203356786712e+000	 8.999238276650293e-001	 1.295404557524249e+001
 1.479312635024218e+000	 9.160914483078293e-001	 1.291044754715191e+001
 1.469233552514910e+000	 9.321706202869717e-001	 1.286539291298139e+001
 1.458967236122551e+000	 9.481581054562910e-001	 1.281952938311744e+001
 1.448514886005403e+000	 9.640506832832556e-001	 1.277349142233332e+001
 1.437877775321736e+000	 9.798451529000368e-001	 1.272789229199546e+001
 1.427057249867028e+000	 9.955383351508511e-001	 1.268331581369541e+001
 1.416054727642790e+000	 1.011127074632929e+000	 1.264030920916070e+001
 1.523550570797915e+000	 8.541832858778508e-001	 1.305631568880508e+001
 1.514195247342880e+000	 8.706595680834878e-001	 1.302073722631545e+001
 1.504647891255046e+000	 8.870568998809448e-001	 1.298194654640309e+001
 1.494909411898361e+000	 9.033719900251217e-001	 1.294057778690483e+001
 1.484980792689991e+000	 9.196015587789251e-001	 1.289727272508917e+001
 1.474863091008834e+000	 9.357423399677712e-001	 1.285267376854280e+001
 1.464557438036359e+000	 9.517910830381531e-001	 1.280741654840558e+001
 1.454065038529374e+000	 9.677445551176858e-001	 1.276212214719409e+001
 1.443387170524401e+000	 9.835995430740369e-001	 1.271738899810878e+001
 1.432525184973485e+000	 9.993528555701080e-001	 1.267378449729737e+001
 1.421480505311373e+000	 1.015001325112831e+000	 1.263183768982896e+001
 1.529365948942723e+000	 8.574436954184008e-001	 1.304337789635152e+001
 1.519974916306132e+000	 8.739828674379097e-001	 1.300746495908373e+001
 1.510391118050047e+000	 8.904427876963005e-001	 1.296852188384999e+001
 1.500615467009447e+000	 9.068201523858109e-001	 1.292717304470045e+001
 1.490648950355192e+000	 9.231116692506125e-001	 1.288404954368220e+001
 1.480492629502183e+000	 9.393140596491543e-001	 1.283978208772792e+001
 1.470147639949596e+000	 9.554240606205862e-001	 1.279499345758831e+001
 1.459615191052782e+000	 9.714384269526708e-001	 1.275029060144336e+001
 1.448896565726516e+000	 9.873539332485685e-001	 1.270625639059823e+001
 1.437993120079414e+000	 1.003167375989869e+000	 1.266344107936497e+001
 1.426906282979456e+000	 1.018875575593200e+000	 1.262235483007391e+001
 1.535181327087197e+000	 8.607041049593510e-001	 1.303074155678219e+001
 1.525754585269033e+000	 8.773061667927314e-001	 1.299441123300620e+001
 1.516134344844684e+000	 8.938286755120547e-001	 1.295522267327266e+001
 1.506321522120159e+000	 9.102683147468972e-001	 1.291378966488637e+001
 1.496317108020012e+000	 9.266217797226927e-001	 1.287073183172903e+001
 1.486122167995148e+000	 9.428857793309232e-001	 1.282666739734032e+001
 1.475737841862451e+000	 9.590570382033947e-001	 1.278220552943382e+001
 1.465165343575815e+000	 9.751322987880163e-001	 1.273793829887223e+001
 1.454405960928265e+000	 9.911083234234417e-001	 1.269443229102053e+001
 1.443461055184991e+000	 1.006981896409945e+000	 1.265221991220580e+001
 1.432332060647205e+000	 1.022749826073854e+000	 1.261179174724166e+001
 1.540996705231507e+000	 8.639645145005013e-001	 1.301837864692890e+001
 1.531534254231759e+000	 8.806294661477532e-001	 1.298154308835116e+001
 1.521877571639137e+000	 8.972145633280085e-001	 1.294201117988429e+001
 1.512027577230683e+000	 9.137164771081806e-001	 1.290038530555597e+001
 1.501985265684642e+000	 9.301318901949668e-001	 1.285727281520930e+001
 1.491751706487921e+000	 9.464574990128795e-001	 1.281327867396518e+001
 1.481328043775115e+000	 9.626900157863823e-001	 1.276899768219892e+001
 1.470715496098660e+000	 9.788261706235283e-001	 1.272500629944364e+001
 1.459915356129833e+000	 9.948627135984642e-001	 1.268185411064722e+001
 1.448928990290392e+000	 1.010796416830149e+000	 1.264005639358024e+001
 1.437757838314787e+000	 1.026624076554607e+000	 1.260007922564600e+001
 1.546812083375814e+000	 8.672249240416514e-001	 1.300626030405773e+001
 1.537313923194485e+000	 8.839527655027748e-001	 1.296882678752430e+001
 1.527620798433591e+000	 9.006004511439616e-001	 1.292884895051026e+001
 1.517733632341208e+000	 9.171646394694619e-001	 1.288691696347163e+001
 1.507653423349271e+000	 9.336420006672358e-001	 1.284362511323459e+001
 1.497381244980695e+000	 9.500292186948257e-001	 1.279956433902735e+001
 1.486918245687779e+000	 9.663229933693520e-001	 1.275531432778784e+001
 1.476265648621504e+000	 9.825200424590115e-001	 1.271143520254471e+001
 1.465424751331400e+000	 9.986171037734436e-001	 1.266845884280657e+001
 1.454396925395793e+000	 1.014610937250293e+000	 1.262688128648181e+001
 1.443183615982369e+000	 1.030498327035279e+000	 1.258714770708191e+001
 1.552627461520289e+000	 8.704853335826015e-001	 1.299435682590518e+001
 1.543093592157386e+000	 8.872760648575966e-001	 1.295622781428516e+001
 1.533364025228227e+000	 9.039863389597144e-001	 1.291569681197208e+001
 1.523439687451919e+000	 9.206128018305413e-001	 1.287334097160334e+001
 1.513321581014091e+000	 9.371521111393001e-001	 1.282974073473047e+001
 1.503010783473660e+000	 9.536009383765636e-001	 1.278547225460745e+001
 1.492508447600634e+000	 9.699559709521071e-001	 1.274109936669306e+001
 1.481815801144537e+000	 9.862139142942725e-001	 1.269716514104591e+001
 1.470934146533150e+000	 1.002371493948190e+000	 1.265418305605473e+001
 1.459864860501370e+000	 1.018425457670188e+000	 1.261262922933887e+001
 1.448609393650117e+000	 1.034372577515684e+000	 1.257292728221320e+001
 1.558442839665096e+000	 8.737457431231520e-001	 1.298263767132162e+001
 1.548873261120638e+000	 8.905993642120184e-001	 1.294371087359843e+001
 1.539107252023228e+000	 9.073722267750666e-001	 1.290251487013219e+001
 1.529145742563005e+000	 9.240609641912194e-001	 1.285961299735449e+001
 1.518989738679292e+000	 9.406622216109617e-001	 1.281557107583154e+001
 1.508640321967009e+000	 9.571726580578954e-001	 1.277094971999538e+001
 1.498098649513870e+000	 9.735889485344519e-001	 1.272629618369826e+001
 1.487365953667945e+000	 9.899077861291162e-001	 1.268213577614550e+001
 1.476443541735266e+000	 1.006125884122511e+000	 1.263896288815556e+001
 1.465332795607299e+000	 1.022239978089648e+000	 1.259723304693915e+001
 1.454035171318200e+000	 1.038246827995640e+000	 1.255734768281100e+001
 1.564258217810401e+000	 8.770061526631022e-001	 1.297107146150605e+001
 1.554652930084415e+000	 8.939226635658399e-001	 1.293123989210281e+001
 1.544850478818776e+000	 9.107581145898186e-001	 1.288926250958275e+001
 1.534851797674654e+000	 9.275091265512968e-001	 1.284568804145724e+001
 1.524657896345065e+000	 9.441723320820211e-001	 1.280106691797077e+001
 1.514269860460932e+000	 9.607443777386230e-001	 1.275594346896247e+001
 1.503688851427678e+000	 9.772219261161892e-001	 1.271084764432356e+001
 1.492916106191916e+000	 9.936016579633485e-001	 1.266628629297883e+001
 1.481952936937929e+000	 1.009880274296215e+000	 1.262273404084719e+001
 1.470800730713755e+000	 1.026054498508483e+000	 1.258062516479808e+001
 1.459460948986784e+000	 1.042121078474962e+000	 1.254033827482115e+001
 1.570073595956371e+000	 8.802665622022525e-001	 1.295962598181718e+001
 1.560432599048893e+000	 8.972459629188613e-001	 1.291877801918207e+001
 1.550593705615053e+000	 9.141440024037704e-001	 1.287589839396189e+001
 1.540557852787052e+000	 9.309572889105736e-001	 1.283152043751963e+001
 1.530326054011600e+000	 9.476824425522793e-001	 1.278617842664498e+001
 1.519899398955622e+000	 9.643160974185487e-001	 1.274039966773369e+001
 1.509279053342249e+000	 9.808549036971231e-001	 1.269469609199335e+001
 1.498466258716638e+000	 9.972955297967757e-001	 1.264955539697304e+001
 1.487462332141325e+000	 1.013634664469111e+000	 1.260543324430370e+001
 1.476268665820915e+000	 1.029869018926507e+000	 1.256273760386540e+001
 1.464886726656035e+000	 1.045995328953468e+000	 1.252182805223879e+001
 1.410628949973539e+000	 1.007252824153679e+000	 1.264783664984477e+001
 1.399488769361377e+000	 1.022674673023736e+000	 1.260240134725104e+001
 1.388170325810758e+000	 1.037986269689500e+000	 1.255264447217473e+001
 1.376675242076157e+000	 1.053184551797793e+000	 1.249825399283004e+001
 1.365005210482521e+000	 1.068266488614319e+000	 1.243880546549192e+001
 1.353161992161219e+000	 1.083229082987748e+000	 1.237375585894880e+001
 1.341147416219812e+000	 1.098069373291773e+000	 1.230243628003731e+001
 1.328963378846395e+000	 1.112784435342554e+000	 1.222422441594802e+001
 1.316611842349339e+000	 1.127371384288980e+000	 1.213995351365521e+001
 1.304094834133428e+000	 1.141827376473227e+000	 1.204816433646454e+001
 1.291414445613439e+000	 1.156149611259114e+000	 1.194654118896287e+001
 1.416054727642790e+000	 1.011127074632929e+000	 1.264030920916070e+001
 1.404871697957502e+000	 1.026608241386256e+000	 1.259606024435715e+001
 1.393509719671491e+000	 1.041978731866286e+000	 1.254729782081837e+001
 1.381970421780917e+000	 1.057235471940954e+000	 1.249376198407293e+001
 1.370255503120003e+000	 1.072375419218692e+000	 1.243508274357673e+001
 1.358366731594048e+000	 1.087395565020072e+000	 1.237077230163475e+001
 1.346305943346006e+000	 1.102292936327329e+000	 1.230021747396196e+001
 1.334075041857377e+000	 1.117064597709183e+000	 1.222267236838319e+001
 1.321675996984263e+000	 1.131707653218370e+000	 1.213842117032795e+001
 1.309110843929558e+000	 1.146219248259358e+000	 1.204725942502094e+001
 1.296381682152357e+000	 1.160596571423735e+000	 1.194692354235183e+001
 1.421480505311373e+000	 1.015001325112831e+000	 1.263183768982896e+001
 1.410254626553004e+000	 1.030541809749378e+000	 1.258857756799968e+001
 1.398849113531651e+000	 1.045971194043619e+000	 1.254062296311808e+001
 1.387265601485157e+000	 1.061286392084600e+000	 1.248776846452383e+001
 1.375505795757022e+000	 1.076484349823485e+000	 1.242969989862752e+001
 1.363571471026473e+000	 1.091562047052749e+000	 1.236598625491365e+001
 1.351464470471854e+000	 1.106516499363172e+000	 1.229607179532881e+001
 1.339186704868070e+000	 1.121344760076036e+000	 1.221926841521498e+001
 1.326740151618949e+000	 1.136043922147925e+000	 1.213513587932961e+001
 1.314126853725497e+000	 1.150611120045603e+000	 1.204438680725401e+001
 1.301348918691124e+000	 1.165043531588422e+000	 1.194515506099715e+001
 1.426906282979456e+000	 1.018875575593200e+000	 1.262235483007391e+001
 1.415637555148037e+000	 1.034475378112925e+000	 1.257988241359606e+001
 1.404188507391379e+000	 1.049963656221326e+000	 1.253254825951160e+001
 1.392560781189007e+000	 1.065337312228566e+000	 1.248020266310526e+001
 1.380756088393693e+000	 1.080593280428541e+000	 1.242258862435865e+001
 1.368776210458593e+000	 1.095728529085633e+000	 1.235933346537008e+001
 1.356622997597439e+000	 1.110740062399165e+000	 1.228994062232012e+001
 1.344298367878539e+000	 1.125624922442983e+000	 1.221378168183019e+001
 1.331804306253448e+000	 1.140380191077526e+000	 1.213010965247629e+001
 1.319142863521279e+000	 1.155002991831848e+000	 1.203956805747253e+001
 1.306316155229757e+000	 1.169490491753078e+000	 1.194126882231279e+001
 1.432332060647205e+000	 1.022749826073854e+000	 1.261179174724166e+001
 1.421020483742758e+000	 1.038408946476717e+000	 1.256990357812854e+001
 1.409527901250820e+000	 1.053956118399235e+000	 1.252300177232098e+001
 1.397855960892595e+000	 1.069388232372687e+000	 1.247099348728740e+001
 1.386006381030130e+000	 1.084702211033705e+000	 1.241368024631370e+001
 1.373980949890507e+000	 1.099895011118573e+000	 1.235074924162700e+001
 1.361781524722843e+000	 1.114963625435166e+000	 1.228176480263721e+001
 1.349410030888850e+000	 1.129905084809896e+000	 1.220616010085879e+001
 1.336868460887806e+000	 1.144716460007051e+000	 1.212322916496227e+001
 1.324158873316935e+000	 1.159394863617986e+000	 1.203282272945518e+001
 1.311283391768273e+000	 1.173937451917599e+000	 1.193529578536211e+001
 1.437757838314787e+000	 1.026624076554607e+000	 1.260007922564600e+001
 1.426403412337323e+000	 1.042342514840577e+000	 1.255856954901965e+001
 1.414867295110117e+000	 1.057948580577176e+000	 1.251191125427623e+001
 1.403151140596052e+000	 1.073439152516799e+000	 1.246006951164672e+001
 1.391256673666448e+000	 1.088811141638818e+000	 1.240290571084197e+001
 1.379185689322312e+000	 1.104061493151422e+000	 1.234016844411932e+001
 1.366940051848146e+000	 1.119187188471039e+000	 1.227148464444699e+001
 1.354521693899067e+000	 1.134185247176644e+000	 1.219635095207066e+001
 1.341932615522074e+000	 1.149052728936382e+000	 1.211412538477493e+001
 1.329174883112497e+000	 1.163786735403905e+000	 1.202416818641983e+001
 1.316250628306690e+000	 1.178384412081889e+000	 1.192726462459874e+001
 1.443183615982369e+000	 1.030498327035279e+000	 1.258714770708191e+001
 1.431786340931887e+000	 1.046276083204328e+000	 1.254580849392163e+001
 1.420206688969413e+000	 1.061941042754976e+000	 1.249920413796051e+001
 1.408446320299508e+000	 1.077490072660739e+000	 1.244735896734314e+001
 1.396506966302761e+000	 1.092920072243724e+000	 1.239019557498145e+001
 1.384390428754105e+000	 1.108227975184033e+000	 1.232752547575295e+001
 1.372098578973432e+000	 1.123410751506642e+000	 1.225903990818267e+001
 1.359633356909255e+000	 1.138465409543098e+000	 1.218430085568012e+001
 1.346996770156299e+000	 1.153388997865399e+000	 1.210273236450105e+001
 1.334190892908001e+000	 1.168178607189497e+000	 1.201361223715840e+001
 1.321217864845022e+000	 1.182831372245845e+000	 1.191720156424626e+001
 1.448609393650117e+000	 1.034372577515684e+000	 1.257292728221320e+001
 1.437169269526609e+000	 1.050209651567791e+000	 1.253154825139604e+001
 1.425546082828852e+000	 1.065933504932463e+000	 1.248480752615189e+001
 1.413741500003090e+000	 1.081540992804341e+000	 1.243278973249207e+001
 1.401757258939182e+000	 1.097029002848268e+000	 1.237547999722465e+001
 1.389595168185988e+000	 1.112394457216257e+000	 1.231275427342524e+001
 1.377257106098781e+000	 1.127634314541839e+000	 1.224436979917579e+001
 1.364745019919480e+000	 1.142745571909127e+000	 1.216995576644288e+001
 1.352060924790529e+000	 1.157725266793980e+000	 1.208900427916822e+001
 1.339206902703474e+000	 1.172570478974651e+000	 1.200086168129919e+001
 1.326185101383289e+000	 1.187278332409369e+000	 1.190513021329980e+001
 1.454035171318200e+000	 1.038246827995640e+000	 1.255734768281100e+001
 1.442552198121641e+000	 1.054143219930787e+000	 1.251571632246016e+001
 1.430885476688577e+000	 1.069925967109467e+000	 1.246864818303907e+001
 1.419036679706928e+000	 1.085591912947441e+000	 1.241628932340685e+001
 1.407007551575826e+000	 1.101137933452291e+000	 1.235868872914402e+001
 1.394799907618056e+000	 1.116560939247946e+000	 1.229578830038439e+001
 1.382415633224277e+000	 1.131857877576488e+000	 1.222741296109851e+001
 1.369856682929806e+000	 1.147025734274602e+000	 1.215326096852445e+001
 1.357125079424815e+000	 1.162061535722006e+000	 1.207289450375694e+001
 1.344222912498953e+000	 1.176962350759256e+000	 1.198573062625844e+001
 1.331152337921506e+000	 1.191725292572359e+000	 1.189107140113376e+001
 1.459460948986784e+000	 1.042121078474962e+000	 1.254033827482115e+001
 1.447935126717141e+000	 1.058076788293140e+000	 1.249823986297787e+001
 1.436224870548732e+000	 1.073918429285816e+000	 1.245065252628750e+001
 1.424331859411153e+000	 1.089642833089873e+000	 1.239778488669054e+001
 1.412257844212809e+000	 1.105246864055639e+000	 1.233975110785446e+001
 1.400004647050408e+000	 1.120727421278952e+000	 1.227656053940677e+001
 1.387574160350000e+000	 1.136081440610451e+000	 1.220810747019416e+001
 1.374968345940299e+000	 1.151305896639394e+000	 1.213416107112052e+001
 1.362189234059203e+000	 1.166397804649358e+000	 1.205435561054187e+001
 1.349238922294467e+000	 1.181354222543202e+000	 1.196818102705537e+001
 1.336119574459690e+000	 1.196172252734715e+000	 1.187497394577106e+001
 1.464886726656035e+000	 1.045995328953468e+000	 1.252182805223879e+001
 1.453318055313266e+000	 1.062010356654672e+000	 1.247904567687280e+001
 1.441564264409459e+000	 1.077910891461337e+000	 1.243074661993501e+001
 1.429627039115891e+000	 1.093693753231475e+000	 1.237720319215356e+001
 1.417508136850242e+000	 1.109355794658154e+000	 1.231859604929182e+001
 1.405209386483143e+000	 1.124893903309127e+000	 1.225500348676983e+001
 1.392732687476031e+000	 1.140305003643589e+000	 1.218639083027652e+001
 1.380080008951025e+000	 1.155586059003373e+000	 1.211260000480925e+001
 1.367253388693743e+000	 1.170734073575915e+000	 1.203333936712076e+001
 1.354254932090051e+000	 1.185746094326380e+000	 1.194817388851751e+001
 1.341086810997859e+000	 1.200619212896339e+000	 1.185651577629888e+001
 1.291414445613439e+000	 1.156149611259114e+000	 1.194654118896287e+001
 1.278574769382549e+000	 1.170333215629018e+000	 1.184593994283058e+001
 1.265576131551744e+000	 1.184377640798316e+000	 1.175676001837511e+001
 1.252420808518344e+000	 1.198280228121825e+000	 1.167584846792135e+001
 1.239111135684223e+000	 1.212038368913644e+000	 1.159998377132099e+001
 1.225649506076354e+000	 1.225649506076354e+000	 1.152591693055633e+001
 1.212038368913644e+000	 1.239111135684222e+000	 1.145041392042871e+001
 1.198280228121825e+000	 1.252420808518344e+000	 1.137029918006372e+001
 1.184377640798316e+000	 1.265576131551744e+000	 1.128249981731019e+001
 1.170333215629018e+000	 1.278574769382549e+000	 1.118409018792997e+001
 1.156149611259114e+000	 1.291414445613438e+000	 1.107233650388653e+001
 1.296381682152357e+000	 1.160596571423735e+000	 1.194692354235183e+001
 1.283492619987396e+000	 1.174834730950531e+000	 1.184824053157782e+001
 1.270443984799997e+000	 1.188933175944304e+000	 1.176145272581767e+001
 1.257238061743312e+000	 1.202889237533783e+000	 1.168324979438914e+001
 1.243877195201993e+000	 1.216700296999137e+000	 1.161024458306607e+001
 1.230363787407445e+000	 1.230363787407445e+000	 1.153901540230942e+001
 1.216700296999137e+000	 1.243877195201994e+000	 1.146614972745379e+001
 1.202889237533783e+000	 1.257238061743312e+000	 1.138828898777471e+001
 1.188933175944304e+000	 1.270443984799997e+000	 1.130217410830968e+001
 1.174834730950530e+000	 1.283492619987395e+000	 1.120469145779498e+001
 1.160596571423735e+000	 1.296381682152357e+000	 1.109291884820990e+001
 1.301348918691124e+000	 1.165043531588422e+000	 1.194515506099715e+001
 1.288410470592122e+000	 1.179336246272075e+000	 1.184821519338255e+001
 1.275311838048155e+000	 1.193488711090297e+000	 1.176362743327028e+001
 1.262055314968202e+000	 1.207498246945725e+000	 1.168792345147567e+001
 1.248643254719702e+000	 1.221362225084596e+000	 1.161754967522780e+001
 1.235078068738490e+000	 1.235078068738489e+000	 1.154891079062356e+001
 1.221362225084597e+000	 1.248643254719702e+000	 1.147841471421065e+001
 1.207498246945725e+000	 1.262055314968202e+000	 1.140251870267497e+001
 1.193488711090297e+000	 1.275311838048155e+000	 1.131777625615632e+001
 1.179336246272075e+000	 1.288410470592122e+000	 1.122088445985787e+001
 1.165043531588422e+000	 1.301348918691123e+000	 1.110873140046609e+001
 1.306316155229757e+000	 1.169490491753078e+000	 1.194126882231279e+001
 1.293328321196732e+000	 1.183837761593561e+000	 1.184590979436456e+001
 1.280179691296205e+000	 1.198044246236214e+000	 1.176334343823734e+001
 1.266872568192991e+000	 1.212107256357580e+000	 1.168994277127803e+001
 1.253409314237314e+000	 1.226024153169964e+000	 1.162198697374040e+001
 1.239792350069438e+000	 1.239792350069438e+000	 1.155570612637975e+001
 1.226024153169964e+000	 1.253409314237314e+000	 1.148732747567567e+001
 1.212107256357580e+000	 1.266872568192991e+000	 1.141312288756862e+001
 1.198044246236215e+000	 1.280179691296205e+000	 1.132945713672953e+001
 1.183837761593561e+000	 1.293328321196732e+000	 1.123283666717694e+001
 1.169490491753078e+000	 1.306316155229757e+000	 1.111995845161340e+001
 1.311283391768273e+000	 1.173937451917599e+000	 1.193529578536211e+001
 1.298246171801226e+000	 1.188339276914900e+000	 1.184136798923943e+001
 1.285047544544136e+000	 1.202599781381977e+000	 1.176065774731500e+001
 1.271689821417654e+000	 1.216716265769280e+000	 1.168937872852471e+001
 1.258175373754790e+000	 1.230686081255180e+000	 1.162364199318291e+001
 1.244506631400244e+000	 1.244506631400243e+000	 1.155950198696091e+001
 1.230686081255180e+000	 1.258175373754790e+000	 1.149300412234441e+001
 1.216716265769280e+000	 1.271689821417654e+000	 1.142023360021851e+001
 1.202599781381977e+000	 1.285047544544136e+000	 1.133736510994590e+001
 1.188339276914900e+000	 1.298246171801226e+000	 1.124071303473553e+001
 1.173937451917600e+000	 1.311283391768273e+000	 1.112678178036560e+001
 1.316250628306690e+000	 1.178384412081889e+000	 1.192726462459874e+001
 1.303164022405607e+000	 1.192840792236000e+000	 1.183463105920802e+001
 1.289915397791938e+000	 1.207155316527504e+000	 1.175562491843144e+001
 1.276507074642168e+000	 1.221325275180754e+000	 1.168629978736190e+001
 1.262941433272095e+000	 1.235348009340186e+000	 1.162259768830225e+001
 1.249220912730856e+000	 1.249220912730856e+000	 1.156039635269880e+001
 1.235348009340186e+000	 1.262941433272095e+000	 1.149555814178115e+001
 1.221325275180754e+000	 1.276507074642168e+000	 1.142398026017287e+001
 1.207155316527504e+000	 1.289915397791938e+000	 1.134164589202841e+001
 1.192840792235999e+000	 1.303164022405607e+000	 1.124467587731456e+001
 1.178384412081889e+000	 1.316250628306690e+000	 1.112938053681971e+001
 1.321217864845022e+000	 1.182831372245845e+000	 1.191720156424626e+001
 1.308081873009877e+000	 1.197342307556770e+000	 1.182573775041399e+001
 1.294783251039599e+000	 1.211710851672715e+000	 1.174829690358093e+001
 1.281324327866507e+000	 1.225934284591933e+000	 1.168077174856014e+001
 1.267707492789194e+000	 1.240009937424922e+000	 1.161893430588265e+001
 1.253935194061230e+000	 1.253935194061230e+000	 1.155848446359031e+001
 1.240009937424922e+000	 1.267707492789194e+000	 1.149510026036206e+001
 1.225934284591933e+000	 1.281324327866507e+000	 1.142448951570765e+001
 1.211710851672716e+000	 1.294783251039599e+000	 1.134244242781499e+001
 1.197342307556771e+000	 1.308081873009878e+000	 1.124488474732553e+001
 1.182831372245845e+000	 1.321217864845022e+000	 1.112793112596663e+001
 1.326185101383289e+000	 1.187278332409369e+000	 1.190513021329980e+001
 1.312999723614040e+000	 1.201843822877124e+000	 1.181472411295274e+001
 1.299651104287106e+000	 1.216266386817533e+000	 1.173872289203919e+001
 1.286141581090649e+000	 1.230543294002748e+000	 1.167285759712979e+001
 1.272473552306048e+000	 1.244671865509330e+000	 1.161272923695139e+001
 1.258649475391316e+000	 1.258649475391316e+000	 1.155385867627778e+001
 1.244671865509330e+000	 1.272473552306049e+000	 1.149173830520764e+001
 1.230543294002748e+000	 1.286141581090648e+000	 1.142188511088327e+001
 1.216266386817532e+000	 1.299651104287106e+000	 1.133989476310517e+001
 1.201843822877123e+000	 1.312999723614040e+000	 1.124149631260643e+001
 1.187278332409369e+000	 1.326185101383289e+000	 1.112260709108540e+001
 1.331152337921506e+000	 1.191725292572359e+000	 1.189107140113376e+001
 1.317917574218097e+000	 1.206345338196968e+000	 1.180162334041804e+001
 1.304518957534450e+000	 1.220821921961874e+000	 1.172694915404682e+001
 1.290958834314567e+000	 1.235152303413128e+000	 1.166261735033549e+001
 1.277239611822623e+000	 1.249333793593351e+000	 1.160405686931233e+001
 1.263363756721067e+000	 1.263363756721067e+000	 1.154660832128473e+001
 1.249333793593351e+000	 1.277239611822623e+000	 1.148557706629901e+001
 1.235152303413128e+000	 1.290958834314567e+000	 1.141628775271281e+001
 1.220821921961874e+000	 1.304518957534450e+000	 1.133413991704432e+001
 1.206345338196968e+000	 1.317917574218097e+000	 1.123466423417900e+001
 1.191725292572359e+000	 1.331152337921506e+000	 1.111357899702603e+001
 1.336119574459690e+000	 1.196172252734715e+000	 1.187497394577106e+001
 1.322835424822050e+000	 1.210846853516214e+000	 1.178646560997227e+001
 1.309386810781618e+000	 1.225377457105661e+000	 1.171301888494955e+001
 1.295776087538239e+000	 1.239761312823005e+000	 1.165010790609846e+001
 1.282005671338881e+000	 1.253995721676927e+000	 1.159298844039846e+001
 1.268078038050434e+000	 1.268078038050434e+000	 1.153681956050195e+001
 1.253995721676926e+000	 1.282005671338881e+000	 1.147671815877352e+001
 1.239761312823005e+000	 1.295776087538239e+000	 1.140781497843780e+001
 1.225377457105661e+000	 1.309386810781618e+000	 1.132531175454396e+001
 1.210846853516214e+000	 1.322835424822051e+000	 1.122453904397132e+001
 1.196172252734716e+000	 1.336119574459690e+000	 1.110156882162586e+001
 1.341086810997859e+000	 1.200619212896339e+000	 1.185651577629888e+001
 1.327753275425902e+000	 1.215348368834772e+000	 1.176927792292668e+001
 1.314254664028600e+000	 1.229932992248813e+000	 1.169697204978223e+001
 1.300593340761641e+000	 1.244370322232309e+000	 1.163538289177712e+001
 1.286771730854787e+000	 1.258657649759996e+000	 1.157959189043623e+001
 1.272792319379371e+000	 1.272792319379371e+000	 1.152457524491632e+001
 1.258657649759996e+000	 1.286771730854787e+000	 1.146525988539472e+001
 1.244370322232309e+000	 1.300593340761641e+000	 1.139658102290945e+001
 1.229932992248813e+000	 1.314254664028600e+000	 1.131354085873760e+001
 1.215348368834772e+000	 1.327753275425902e+000	 1.121126802250427e+001
 1.200619212896339e+000	 1.341086810997858e+000	 1.108924164487475e+001
 1.156149611259114e+000	 1.291414445613438e+000	 1.107233650388653e+001
 1.141827376473228e+000	 1.304094834133428e+000	 1.094938729749213e+001
 1.127371384288980e+000	 1.316611842349339e+000	 1.081631254684345e+001
 1.112784435342554e+000	 1.328963378846395e+000	 1.066908213036821e+001
 1.098069373291773e+000	 1.341147416219812e+000	 1.050968907739945e+001
 1.083229082987748e+000	 1.353161992161219e+000	 1.035550755857067e+001
 1.068266488614319e+000	 1.365005210482521e+000	 1.020674962126302e+001
 1.053184551797793e+000	 1.376675242076157e+000	 1.006202304177282e+001
 1.037986269689500e+000	 1.388170325810758e+000	 9.920007481735421e+000
 1.022674673023736e+000	 1.399488769361377e+000	 9.779447747229062e+000
 1.007252824153679e+000	 1.410628949973538e+000	 9.639139455717885e+000
 1.160596571423735e+000	 1.296381682152357e+000	 1.109291884820990e+001
 1.146219248259359e+000	 1.309110843929558e+000	 1.096862042706756e+001
 1.131707653218370e+000	 1.321675996984262e+000	 1.083261321344134e+001
 1.117064597709183e+000	 1.334075041857377e+000	 1.068093557994246e+001
 1.102292936327329e+000	 1.346305943346006e+000	 1.052527590674252e+001
 1.087395565020072e+000	 1.358366731594048e+000	 1.037563507934662e+001
 1.072375419218692e+000	 1.370255503120003e+000	 1.023060170828776e+001
 1.057235471940954e+000	 1.381970421780917e+000	 1.008884688161550e+001
 1.041978731866286e+000	 1.393509719671491e+000	 9.949117330102922e+000
 1.026608241386256e+000	 1.404871697957502e+000	 9.810228323586587e+000
 1.011127074632929e+000	 1.416054727642790e+000	 9.671056393614512e+000
 1.165043531588422e+000	 1.301348918691123e+000	 1.110873140046609e+001
 1.150611120045602e+000	 1.314126853725497e+000	 1.098271495212395e+001
 1.136043922147926e+000	 1.326740151618949e+000	 1.084341852138313e+001
 1.121344760076035e+000	 1.339186704868070e+000	 1.068987814826396e+001
 1.106516499363172e+000	 1.351464470471854e+000	 1.053933856850362e+001
 1.091562047052749e+000	 1.363571471026473e+000	 1.039397641859983e+001
 1.076484349823485e+000	 1.375505795757022e+000	 1.025244109138384e+001
 1.061286392084600e+000	 1.387265601485157e+000	 1.011346847303080e+001
 1.045971194043619e+000	 1.398849113531651e+000	 9.975873741039413e+000
 1.030541809749378e+000	 1.410254626553004e+000	 9.838543887987818e+000
 1.015001325112831e+000	 1.421480505311373e+000	 9.700430069304868e+000
 1.169490491753078e+000	 1.306316155229757e+000	 1.111995845161340e+001
 1.155002991831848e+000	 1.319142863521279e+000	 1.099187165184906e+001
 1.140380191077526e+000	 1.331804306253448e+000	 1.084894483900290e+001
 1.125624922442983e+000	 1.344298367878539e+000	 1.069767429710486e+001
 1.110740062399165e+000	 1.356622997597439e+000	 1.055197263104939e+001
 1.095728529085632e+000	 1.368776210458593e+000	 1.041063998479496e+001
 1.080593280428541e+000	 1.380756088393693e+000	 1.027238810319219e+001
 1.065337312228566e+000	 1.392560781189007e+000	 1.013601914286856e+001
 1.049963656221326e+000	 1.404188507391379e+000	 1.000041809279252e+001
 1.034475378112924e+000	 1.415637555148037e+000	 9.864544915473800e+000
 1.018875575593200e+000	 1.426906282979456e+000	 9.727426510176917e+000
 1.173937451917600e+000	 1.311283391768273e+000	 1.112678178036560e+001
 1.159394863617986e+000	 1.324158873316934e+000	 1.099628881345015e+001
 1.144716460007052e+000	 1.336868460887806e+000	 1.085045218425323e+001
 1.129905084809896e+000	 1.349410030888850e+000	 1.070440097651454e+001
 1.114963625435166e+000	 1.361781524722843e+000	 1.056326865624089e+001
 1.099895011118573e+000	 1.373980949890507e+000	 1.042572906329839e+001
 1.084702211033704e+000	 1.386006381030130e+000	 1.029055784954962e+001
 1.069388232372687e+000	 1.397855960892596e+000	 1.015662490101862e+001
 1.053956118399235e+000	 1.409527901250820e+000	 1.002288637069861e+001
 1.038408946476717e+000	 1.421020483742758e+000	 9.888376427072544e+000
 1.022749826073853e+000	 1.432332060647205e+000	 9.752198822933092e+000
 1.178384412081889e+000	 1.316250628306690e+000	 1.112938053681971e+001
 1.163786735403906e+000	 1.329174883112497e+000	 1.099616212154389e+001
 1.149052728936382e+000	 1.341932615522073e+000	 1.085106091180516e+001
 1.134185247176644e+000	 1.354521693899066e+000	 1.071013034732916e+001
 1.119187188471039e+000	 1.366940051848147e+000	 1.057331228898595e+001
 1.104061493151423e+000	 1.379185689322312e+000	 1.043934190667183e+001
 1.088811141638818e+000	 1.391256673666449e+000	 1.030706030019346e+001
 1.073439152516800e+000	 1.403151140596052e+000	 1.017540653119487e+001
 1.057948580577175e+000	 1.414867295110117e+000	 1.004340925771430e+001
 1.042342514840577e+000	 1.426403412337323e+000	 9.910178079744886e+000
 1.026624076554608e+000	 1.437757838314787e+000	 9.774894703669721e+000
 1.182831372245845e+000	 1.321217864845022e+000	 1.112793112596663e+001
 1.168178607189497e+000	 1.334190892908000e+000	 1.099174529597981e+001
 1.153388997865399e+000	 1.346996770156299e+000	 1.085101028323547e+001
 1.138465409543097e+000	 1.359633356909255e+000	 1.071492986931932e+001
 1.123410751506643e+000	 1.372098578973432e+000	 1.058218434639963e+001
 1.108227975184033e+000	 1.384390428754105e+000	 1.045157182452280e+001
 1.092920072243724e+000	 1.396506966302761e+000	 1.032200037897630e+001
 1.077490072660739e+000	 1.408446320299507e+000	 1.019247968118856e+001
 1.061941042754975e+000	 1.420206688969413e+000	 1.006211222438246e+001
 1.046276083204328e+000	 1.431786340931888e+000	 9.930084255738342e+000
 1.030498327035279e+000	 1.443183615982369e+000	 9.795656526292252e+000
 1.187278332409369e+000	 1.326185101383289e+000	 1.112260709108540e+001
 1.172570478974651e+000	 1.339206902703475e+000	 1.098568048868016e+001
 1.157725266793980e+000	 1.352060924790529e+000	 1.085034907411727e+001
 1.142745571909126e+000	 1.364745019919480e+000	 1.071886238901619e+001
 1.127634314541839e+000	 1.377257106098782e+000	 1.058996090658522e+001
 1.112394457216257e+000	 1.389595168185987e+000	 1.046250727292254e+001
 1.097029002848268e+000	 1.401757258939182e+000	 1.033547805360288e+001
 1.081540992804341e+000	 1.413741500003090e+000	 1.020795495260476e+001
 1.065933504932463e+000	 1.425546082828852e+000	 1.007911561824880e+001
 1.050209651567791e+000	 1.437169269526609e+000	 9.948224151363668e+000
 1.034372577515684e+000	 1.448609393650118e+000	 9.814621430334585e+000
 1.191725292572359e+000	 1.331152337921506e+000	 1.111357899702603e+001
 1.176962350759256e+000	 1.344222912498952e+000	 1.097931741864704e+001
 1.162061535722006e+000	 1.357125079424815e+000	 1.084912166943767e+001
 1.147025734274602e+000	 1.369856682929806e+000	 1.072198622722212e+001
 1.131857877576487e+000	 1.382415633224277e+000	 1.059671339704508e+001
 1.116560939247946e+000	 1.394799907618056e+000	 1.047223194340412e+001
 1.101137933452292e+000	 1.407007551575827e+000	 1.034758842490214e+001
 1.085591912947441e+000	 1.419036679706928e+000	 1.022193799009519e+001
 1.069925967109467e+000	 1.430885476688577e+000	 1.009453475274260e+001
 1.054143219930787e+000	 1.442552198121641e+000	 9.964721865211025e+000
 1.038246827995640e+000	 1.454035171318201e+000	 9.831921408196697e+000
 1.196172252734716e+000	 1.336119574459690e+000	 1.110156882162586e+001
 1.181354222543202e+000	 1.349238922294467e+000	 1.097268155989810e+001
 1.166397804649358e+000	 1.362189234059203e+000	 1.084736814965329e+001
 1.151305896639394e+000	 1.374968345940300e+000	 1.072435526621627e+001
 1.136081440610451e+000	 1.387574160349999e+000	 1.060250868272992e+001
 1.120727421278952e+000	 1.400004647050408e+000	 1.048082485155016e+001
 1.105246864055639e+000	 1.412257844212808e+000	 1.035842181564609e+001
 1.089642833089873e+000	 1.424331859411152e+000	 1.023452957010113e+001
 1.073918429285816e+000	 1.436224870548732e+000	 1.010847999553556e+001
 1.058076788293140e+000	 1.447935126717141e+000	 9.979696485817993e+000
 1.042121078474962e+000	 1.459460948986784e+000	 9.847683391816508e+000
 1.200619212896339e+000	 1.341086810997858e+000	 1.108924164487475e+001
 1.185746094326380e+000	 1.354254932090050e+000	 1.096579430964096e+001
 1.170734073575915e+000	 1.367253388693742e+000	 1.084512437650584e+001
 1.155586059003373e+000	 1.380080008951025e+000	 1.072601903666140e+001
 1.140305003643589e+000	 1.392732687476031e+000	 1.060740915373768e+001
 1.124893903309127e+000	 1.405209386483143e+000	 1.048836042518162e+001
 1.109355794658154e+000	 1.417508136850241e+000	 1.036806385892756e+001
 1.093693753231475e+000	 1.429627039115892e+000	 1.024582568911836e+001
 1.077910891461337e+000	 1.441564264409459e+000	 1.012105685639326e+001
 1.062010356654672e+000	 1.453318055313266e+000	 9.993262178805907e+000
 1.045995328953468e+000	 1.464886726656035e+000	 9.862029338790432e+000
 1.007252824153679e+000	 1.410628949973538e+000	 9.639139455717885e+000
 9.917238147322854e-001	 1.421589314759868e+000	 9.494926551934311e+000
 9.760907627267612e-001	 1.432368380118340e+000	 9.343629660102078e+000
 9.603568114495741e-001	 1.442964733480680e+000	 9.185618726009214e+000
 9.445251278751973e-001	 1.453377034207980e+000	 9.021299339440525e+000
 9.285989006069539e-001	 1.463604014020220e+000	 8.851103961972452e+000
 9.125813378375239e-001	 1.473644477357683e+000	 8.675483496026793e+000
 8.964756653057331e-001	 1.483497301674313e+000	 8.494899266028471e+000
 8.802851242522309e-001	 1.493161437663220e+000	 8.309815476026156e+000
 8.640129693766441e-001	 1.502635909414624e+000	 8.120692201153480e+000
 8.476624667987510e-001	 1.511919814506641e+000	 7.927978962920299e+000
 1.011127074632929e+000	 1.416054727642790e+000	 9.671056393614512e+000
 9.955383351508508e-001	 1.427057249867028e+000	 9.527542444677692e+000
 9.798451529000372e-001	 1.437877775321736e+000	 9.376643521765306e+000
 9.640506832832554e-001	 1.448514886005403e+000	 9.218793012995795e+000
 9.481581054562910e-001	 1.458967236122552e+000	 9.054467836478084e+000
 9.321706202869717e-001	 1.469233552514910e+000	 8.884172289140977e+000
 9.160914483078293e-001	 1.479312635024218e+000	 8.708429308716232e+000
 8.999238276650297e-001	 1.489203356786712e+000	 8.527772164937524e+000
 8.836710120661887e-001	 1.498904664459498e+000	 8.342736646306689e+000
 8.673362687296657e-001	 1.508415578379102e+000	 8.153853801597554e+000
 8.509228763379010e-001	 1.517735192652611e+000	 7.961643287660656e+000
 1.015001325112831e+000	 1.421480505311373e+000	 9.700430069304868e+000
 9.993528555701078e-001	 1.432525184973485e+000	 9.557588098470045e+000
 9.835995430740369e-001	 1.443387170524400e+000	 9.407077444580420e+000
 9.677445551176854e-001	 1.454065038529375e+000	 9.249392053378443e+000
 9.517910830381530e-001	 1.464557438036359e+000	 9.085069683176014e+000
 9.357423399677713e-001	 1.474863091008833e+000	 8.914675798927380e+000
 9.196015587789252e-001	 1.484980792689991e+000	 8.738794540763733e+000
 9.033719900251219e-001	 1.494909411898361e+000	 8.558020139373195e+000
 8.870568998809447e-001	 1.504647891255046e+000	 8.372948846574735e+000
 8.706595680834880e-001	 1.514195247342880e+000	 8.184171442047491e+000
 8.541832858778508e-001	 1.523550570797915e+000	 7.992266369345143e+000
 1.018875575593200e+000	 1.426906282979456e+000	 9.727426510176917e+000
 1.003167375989868e+000	 1.437993120079414e+000	 9.585228871828651e+000
 9.873539332485689e-001	 1.448896565726516e+000	 9.435101831697374e+000
 9.714384269526708e-001	 1.459615191052782e+000	 9.277589703844457e+000
 9.554240606205866e-001	 1.470147639949597e+000	 9.113280715843439e+000
 9.393140596491543e-001	 1.480492629502183e+000	 8.942790950756709e+000
 9.231116692506126e-001	 1.490648950355192e+000	 8.766755035584978e+000
 9.068201523858113e-001	 1.500615467009447e+000	 8.585817294718366e+000
 8.904427876963000e-001	 1.510391118050047e+000	 8.400623438740077e+000
 8.739828674379098e-001	 1.519974916306132e+000	 8.211812851328471e+000
 8.574436954184010e-001	 1.529365948942723e+000	 8.020011528960337e+000
 1.022749826073853e+000	 1.432332060647205e+000	 9.752198822933092e+000
 1.006981896409945e+000	 1.443461055184991e+000	 9.610624600266254e+000
 9.911083234234418e-001	 1.454405960928265e+000	 9.460881567488775e+000
 9.751322987880163e-001	 1.465165343575815e+000	 9.303554332840889e+000
 9.590570382033951e-001	 1.475737841862451e+000	 9.139271338040564e+000
 9.428857793309232e-001	 1.486122167995148e+000	 8.968688850366878e+000
 9.266217797226927e-001	 1.496317108020013e+000	 8.792481384130879e+000
 9.102683147468975e-001	 1.506321522120159e+000	 8.611332605837943e+000
 8.938286755120545e-001	 1.516134344844683e+000	 8.425926795397981e+000
 8.773061667927314e-001	 1.525754585269033e+000	 8.236940927921514e+000
 8.607041049593510e-001	 1.535181327087197e+000	 8.045037432365913e+000
 1.026624076554608e+000	 1.437757838314787e+000	 9.774894703669721e+000
 1.010796416830149e+000	 1.448928990290392e+000	 9.633936336474415e+000
 9.948627135984640e-001	 1.459915356129833e+000	 9.484576103310365e+000
 9.788261706235282e-001	 1.470715496098660e+000	 9.327448903934245e+000
 9.626900157863823e-001	 1.481328043775115e+000	 9.163206601074245e+000
 9.464574990128795e-001	 1.491751706487922e+000	 8.992535327015931e+000
 9.301318901949669e-001	 1.501985265684642e+000	 8.816138998420234e+000
 9.137164771081805e-001	 1.512027577230683e+000	 8.634729986585732e+000
 8.972145633280082e-001	 1.521877571639137e+000	 8.449020365002740e+000
 8.806294661477533e-001	 1.531534254231759e+000	 8.259713800529966e+000
 8.639645145005009e-001	 1.540996705231506e+000	 8.067498146019375e+000
 1.030498327035279e+000	 1.443183615982369e+000	 9.795656526292252e+000
 1.014610937250293e+000	 1.454396925395793e+000	 9.655299482273103e+000
 9.986171037734440e-001	 1.465424751331400e+000	 9.506339542638102e+000
 9.825200424590114e-001	 1.476265648621505e+000	 9.349431058557215e+000
 9.663229933693518e-001	 1.486918245687779e+000	 9.185246283902821e+000
 9.500292186948255e-001	 1.497381244980695e+000	 9.014491010128891e+000
 9.336420006672358e-001	 1.507653423349272e+000	 8.837888184549287e+000
 9.171646394694617e-001	 1.517733632341207e+000	 8.656168358837508e+000
 9.006004511439614e-001	 1.527620798433591e+000	 8.470060736618871e+000
 8.839527655027748e-001	 1.537313923194485e+000	 8.280284888284111e+000
 8.672249240416515e-001	 1.546812083375814e+000	 8.087543192405098e+000
 1.034372577515684e+000	 1.448609393650118e+000	 9.814621430334585e+000
 1.018425457670188e+000	 1.459864860501370e+000	 9.674864835903172e+000
 1.002371493948190e+000	 1.470934146533150e+000	 9.526320725597998e+000
 9.862139142942723e-001	 1.481815801144537e+000	 9.369653198159369e+000
 9.699559709521071e-001	 1.492508447600634e+000	 9.205544972464134e+000
 9.536009383765637e-001	 1.503010783473660e+000	 9.034711405397403e+000
 9.371521111392999e-001	 1.513321581014091e+000	 8.857884215193844e+000
 9.206128018305414e-001	 1.523439687451919e+000	 8.675801721060832e+000
 9.039863389597143e-001	 1.533364025228227e+000	 8.489199704262976e+000
 8.872760648575968e-001	 1.543093592157386e+000	 8.298802960593507e+000
 8.704853335826015e-001	 1.552627461520289e+000	 8.105317605175436e+000
 1.038246827995640e+000	 1.454035171318201e+000	 9.831921408196697e+000
 1.022239978089648e+000	 1.465332795607299e+000	 9.692771011430155e+000
 1.006125884122511e+000	 1.476443541735265e+000	 9.544663312904115e+000
 9.899077861291159e-001	 1.487365953667944e+000	 9.388262565775992e+000
 9.735889485344518e-001	 1.498098649513870e+000	 9.224252138443097e+000
 9.571726580578953e-001	 1.508640321967009e+000	 9.053346970347613e+000
 9.406622216109615e-001	 1.518989738679292e+000	 8.876277401614580e+000
 9.240609641912196e-001	 1.529145742563005e+000	 8.693779216433914e+000
 9.073722267750664e-001	 1.539107252023227e+000	 8.506584330844724e+000
 8.905993642120184e-001	 1.548873261120638e+000	 8.315412196657290e+000
 8.737457431231518e-001	 1.558442839665096e+000	 8.120961984011554e+000
 1.042121078474962e+000	 1.459460948986784e+000	 9.847683391816508e+000
 1.026054498508483e+000	 1.470800730713755e+000	 9.709151532109580e+000
 1.009880274296215e+000	 1.481952936937929e+000	 9.561505869220435e+000
 9.936016579633483e-001	 1.492916106191916e+000	 9.405401327031784e+000
 9.772219261161895e-001	 1.503688851427678e+000	 9.241512217492566e+000
 9.607443777386231e-001	 1.514269860460932e+000	 9.070543189389452e+000
 9.441723320820210e-001	 1.524657896345065e+000	 8.893213165182324e+000
 9.275091265512970e-001	 1.534851797674654e+000	 8.710245200525179e+000
 9.107581145898184e-001	 1.544850478818776e+000	 8.522357011718992e+000
 8.939226635658397e-001	 1.554652930084415e+000	 8.330252244640878e+000
 8.770061526631022e-001	 1.564258217810401e+000	 8.134612549210837e+000
 1.045995328953468e+000	 1.464886726656035e+000	 9.862029338790432e+000
 1.029869018926506e+000	 1.476268665820915e+000	 9.724134915089984e+000
 1.013634664469111e+000	 1.487462332141325e+000	 9.576987900609879e+000
 9.972955297967756e-001	 1.498466258716638e+000	 9.421206650592678e+000
 9.808549036971231e-001	 1.509279053342249e+000	 9.257464686921621e+000
 9.643160974185489e-001	 1.519899398955622e+000	 9.086440648361259e+000
 9.476824425522794e-001	 1.530326054011600e+000	 8.908832108431019e+000
 9.309572889105739e-001	 1.540557852787053e+000	 8.725339308545639e+000
 9.141440024037704e-001	 1.550593705615053e+000	 8.536655537858925e+000
 8.972459629188613e-001	 1.560432599048893e+000	 8.343458280526171e+000
 8.802665622022525e-001	 1.570073595956371e+000	 8.146401196008526e+000
 8.476624667987510e-001	 1.511919814506641e+000	 7.927978962920299e+000
 8.312393613581415e-001	 1.521010974816841e+000	 7.731244420349936e+000
 8.147444885464512e-001	 1.529910043095903e+000	 7.531244429444178e+000
 7.981811359858797e-001	 1.538616338798039e+000	 7.330290981676535e+000
 7.815525946160575e-001	 1.547129254530897e+000	 7.130697661774669e+000
 7.648621567133508e-001	 1.555448255818969e+000	 6.934772770876288e+000
 7.481131139287017e-001	 1.563572880804544e+000	 6.744813165843818e+000
 7.313087553462125e-001	 1.571502739887311e+000	 6.563098816160280e+000
 7.144523655646381e-001	 1.579237515303805e+000	 6.391888071897025e+000
 6.975472228038638e-001	 1.586776960647991e+000	 6.233413628594972e+000
 6.805965970383868e-001	 1.594120900334306e+000	 6.089879167584726e+000
 8.509228763379010e-001	 1.517735192652611e+000	 7.961643287660656e+000
 8.344366018271733e-001	 1.526861320779763e+000	 7.765902127150198e+000
 8.178782839027142e-001	 1.535794618021944e+000	 7.567470677090118e+000
 8.012512228320780e-001	 1.544534401215738e+000	 7.368512423548038e+000
 7.845587222130093e-001	 1.553080060632541e+000	 7.171190252884598e+000
 7.678040869851311e-001	 1.561431059741056e+000	 6.977659849430465e+000
 7.509906214602353e-001	 1.569586934907099e+000	 6.790063832063013e+000
 7.341216273734027e-001	 1.577547295031810e+000	 6.610526630326831e+000
 7.172004019571124e-001	 1.585311821129488e+000	 6.441150092606069e+000
 7.002302360404403e-001	 1.592880265846325e+000	 6.284009811000034e+000
 6.832144121753598e-001	 1.600252452921389e+000	 6.141152140052015e+000
 8.541832858778508e-001	 1.523550570797915e+000	 7.992266369345143e+000
 8.376338422970054e-001	 1.532711666742066e+000	 7.797240035233187e+000
 8.210120792597762e-001	 1.541679192947415e+000	 7.600010151657254e+000
 8.043213096790726e-001	 1.550452463632922e+000	 7.402598158331053e+000
 7.875648498107525e-001	 1.559030866733727e+000	 7.207022721884099e+000
 7.707460172576941e-001	 1.567413863662744e+000	 7.015293395108472e+000
 7.538681289925395e-001	 1.575600989009313e+000	 6.829405038585312e+000
 7.369344994013454e-001	 1.583591850176024e+000	 6.651333004582527e+000
 7.199484383503170e-001	 1.591386126954937e+000	 6.483029074760864e+000
 7.029132492777179e-001	 1.598983571044472e+000	 6.326418135166799e+000
 6.858322273129970e-001	 1.606384005508325e+000	 6.183395564290475e+000
 8.574436954184010e-001	 1.529365948942723e+000	 8.020011528960337e+000
 8.408310827674369e-001	 1.538562012703903e+000	 7.825417314325379e+000
 8.241458746174377e-001	 1.547563767872459e+000	 7.629019018717397e+000
 8.073913965266649e-001	 1.556370526049720e+000	 7.432702397902856e+000
 7.905709774090891e-001	 1.564981672834569e+000	 7.238348278694651e+000
 7.736879475308445e-001	 1.573396667584132e+000	 7.047826466869149e+000
 7.567456365254215e-001	 1.581615043111268e+000	 6.862990441695592e+000
 7.397473714298533e-001	 1.589636405320017e+000	 6.685672836236495e+000
 7.226964747440688e-001	 1.597460432780201e+000	 6.517681694007301e+000
 7.055962625155205e-001	 1.605086876242463e+000	 6.360797484306819e+000
 6.884500424511314e-001	 1.612515558095128e+000	 6.216770850636434e+000
 8.607041049593510e-001	 1.535181327087197e+000	 8.045037432365913e+000
 8.440283232382684e-001	 1.544412358665429e+000	 7.850588655020551e+000
 8.272796699754990e-001	 1.553448342797217e+000	 7.654649128132374e+000
 8.104614833746549e-001	 1.562288588466257e+000	 7.458975190822951e+000
 7.935771050078215e-001	 1.570932478935180e+000	 7.265316112802722e+000
 7.766298778043863e-001	 1.579379471505314e+000	 7.075408238108763e+000
 7.596231440586885e-001	 1.587629097213042e+000	 6.890969940449881e+000
 7.425602434587377e-001	 1.595680960463853e+000	 6.713697388610830e+000
 7.254445111381856e-001	 1.603534738605327e+000	 6.545261111568483e+000
 7.082792757536738e-001	 1.611190181440331e+000	 6.387303344481264e+000
 6.910678575895980e-001	 1.618647110681815e+000	 6.241436128606754e+000
 8.639645145005009e-001	 1.540996705231506e+000	 8.067498146019375e+000
 8.472255637093006e-001	 1.550262704626801e+000	 7.872904319730742e+000
 8.304134653337593e-001	 1.559332917721832e+000	 7.677048060557464e+000
 8.135315702228441e-001	 1.568206650882666e+000	 7.481562464695168e+000
 7.965832326067517e-001	 1.576883285035673e+000	 7.288071431765857e+000
 7.795718080781237e-001	 1.585362275426389e+000	 7.098184031573009e+000
 7.625006515921482e-001	 1.593643151314718e+000	 6.913489708235085e+000
 7.453731154878102e-001	 1.601725515607597e+000	 6.735554319465154e+000
 7.281925475324853e-001	 1.609609044430361e+000	 6.565916999731831e+000
 7.109622889920020e-001	 1.617293486638105e+000	 6.406087827321589e+000
 6.936856727282305e-001	 1.624778663268400e+000	 6.257546267004949e+000
 8.672249240416515e-001	 1.546812083375814e+000	 8.087543192405100e+000
 8.504228041803323e-001	 1.556113050588172e+000	 7.892510193405783e+000
 8.335472606920200e-001	 1.565217492646447e+000	 7.696359173771467e+000
 8.166016570710336e-001	 1.574124713299071e+000	 7.500606068407950e+000
 7.995893602056821e-001	 1.582834091136160e+000	 7.306755499641440e+000
 7.825137383518610e-001	 1.591345079347453e+000	 7.116295354232317e+000
 7.653781591256081e-001	 1.599657205416376e+000	 6.930692224326123e+000
 7.481859875168829e-001	 1.607770070751310e+000	 6.751387709450449e+000
 7.309405839267849e-001	 1.615683350255352e+000	 6.579795567389905e+000
 7.136453022303304e-001	 1.623396791835816e+000	 6.417299692831308e+000
 6.963034878668631e-001	 1.630910215854901e+000	 6.265252894130737e+000
 8.704853335826015e-001	 1.552627461520289e+000	 8.105317605175436e+000
 8.536200446511640e-001	 1.561963396549699e+000	 7.909547834027172e+000
 8.366810560500814e-001	 1.571102067571204e+000	 7.712721648837666e+000
 8.196717439190238e-001	 1.580042775715602e+000	 7.516243814255311e+000
 8.025954878044144e-001	 1.588784897236754e+000	 7.321505675340565e+000
 7.854556686254030e-001	 1.597327883268604e+000	 7.129879932120311e+000
 7.682556666588754e-001	 1.605671259518095e+000	 6.942716305441213e+000
 7.509988595457673e-001	 1.613814625895058e+000	 6.761338090591480e+000
 7.336886203209017e-001	 1.621757656080346e+000	 6.587039585640623e+000
 7.163283154684836e-001	 1.629500097033496e+000	 6.421084372268124e+000
 6.989213030053297e-001	 1.637041768441332e+000	 6.264704418091411e+000
 8.737457431231518e-001	 1.558442839665096e+000	 8.120961984011554e+000
 8.568172851215963e-001	 1.567813742511534e+000	 7.924154522883550e+000
 8.398148514077427e-001	 1.576986642496242e+000	 7.726270536099889e+000
 8.227418307666160e-001	 1.585960838132388e+000	 7.528609519941603e+000
 8.056016154027514e-001	 1.594735703337569e+000	 7.332455450909020e+000
 7.883975988985537e-001	 1.603310687189938e+000	 7.139071745138609e+000
 7.711331741917573e-001	 1.611685313619956e+000	 6.949697137296361e+000
 7.538117315742753e-001	 1.619859181038905e+000	 6.765542474797602e+000
 7.364366567146536e-001	 1.627831961905391e+000	 6.587788413439061e+000
 7.190113287062863e-001	 1.635603402231177e+000	 6.417583991104459e+000
 7.015391181434644e-001	 1.643173321027709e+000	 6.256046047213095e+000
 8.770061526631022e-001	 1.564258217810401e+000	 8.134612549210837e+000
 8.600145255914282e-001	 1.573664088473836e+000	 7.936463314631372e+000
 8.429486467648053e-001	 1.582871217421709e+000	 7.737136801018192e+000
 8.258119176136107e-001	 1.591878900549556e+000	 7.537833050472897e+000
 8.086077430004947e-001	 1.600686509438716e+000	 7.339734489735666e+000
 7.913395291711171e-001	 1.609293491111551e+000	 7.144001061825485e+000
 7.740106817240618e-001	 1.617699367722041e+000	 6.951766306157790e+000
 7.566246036022185e-001	 1.625903736182913e+000	 6.764134382400939e+000
 7.391846931078581e-001	 1.633906267730533e+000	 6.582178023304612e+000
 7.216943419435642e-001	 1.641706707428889e+000	 6.406937392063243e+000
 7.041569332811017e-001	 1.649304873614048e+000	 6.239419810547925e+000
 8.802665622022525e-001	 1.570073595956371e+000	 8.146401196008526e+000
 8.632117660604605e-001	 1.579514434436757e+000	 7.946603087149662e+000
 8.460824421210690e-001	 1.588755792347743e+000	 7.745447369849004e+000
 8.288820044598098e-001	 1.597796962967234e+000	 7.544040359938072e+000
 8.116138705974474e-001	 1.606637315540310e+000	 7.343468664693448e+000
 7.942814594428975e-001	 1.615276295033541e+000	 7.144794474092505e+000
 7.768881892555959e-001	 1.623713421824429e+000	 6.949051830392445e+000
 7.594374756294086e-001	 1.631948291327146e+000	 6.757243870720731e+000
 7.419327295003328e-001	 1.639980573555821e+000	 6.570341027077887e+000
 7.243773551801412e-001	 1.647810012626662e+000	 6.389280158227761e+000
 7.067747484180751e-001	 1.655436426200365e+000	 6.214964578475918e+000
 6.805965970383868e-001	 1.594120900334306e+000	 6.089879167584726e+000
 6.636011961111934e-001	 1.601270286891380e+000	 5.948775433508780e+000
 6.465668096834394e-001	 1.608223969196076e+000	 5.797375909076934e+000
 6.294966743307516e-001	 1.614981981624948e+000	 5.638112193393207e+000
 6.123940111778622e-001	 1.621544426721644e+000	 5.474208102119007e+000
 5.952620241932003e-001	 1.627911474392944e+000	 5.308558798479160e+000
 5.781038985210186e-001	 1.634083361056792e+000	 5.143773858705289e+000
 5.609227988524843e-001	 1.640060388744116e+000	 4.982217075671166e+000
 5.437218678370922e-001	 1.645842924156250e+000	 4.826042957618497e+000
 5.265042245356669e-001	 1.651431397679850e+000	 4.677229910699969e+000
 5.092729629161171e-001	 1.656826302361175e+000	 4.537610124239898e+000
 6.832144121753598e-001	 1.600252452921389e+000	 6.141152140052015e+000
 6.661536409274683e-001	 1.607429338547066e+000	 6.000274087871055e+000
 6.490537342270052e-001	 1.614409767172589e+000	 5.849811301505214e+000
 6.319179410986119e-001	 1.621193773306730e+000	 5.691847906373531e+000
 6.147494950566040e-001	 1.627781459887554e+000	 5.529593649647715e+000
 5.975516123930077e-001	 1.634172997475357e+000	 5.365932478696696e+000
 5.803274905032655e-001	 1.640368623397429e+000	 5.203466216611252e+000
 5.630803062510660e-001	 1.646368640846407e+000	 5.044554866063846e+000
 5.458132143736448e-001	 1.652173417934089e+000	 4.891353499946805e+000
 5.285293459288381e-001	 1.657783386702547e+000	 4.745845729843049e+000
 5.112318067850481e-001	 1.663199042094462e+000	 4.609873774289985e+000
 6.858322273129970e-001	 1.606384005508325e+000	 6.183395564290475e+000
 6.687060857443627e-001	 1.613588390202636e+000	 6.041806510951076e+000
 6.515406587711398e-001	 1.620595565149006e+000	 5.891275466432793e+000
 6.343392078669849e-001	 1.627405564988432e+000	 5.733640814130327e+000
 6.171049789358011e-001	 1.634018493053393e+000	 5.572061091974931e+000
 5.998412005932101e-001	 1.640434520557706e+000	 5.409400812778186e+000
 5.825510824858481e-001	 1.646653885738002e+000	 5.248246022077679e+000
 5.652378136499249e-001	 1.652676892948636e+000	 5.090945120068206e+000
 5.479045609104207e-001	 1.658503911711865e+000	 4.939646159249688e+000
 5.305544673221824e-001	 1.664135375725176e+000	 4.796330611230543e+000
 5.131906506541093e-001	 1.669571781827682e+000	 4.662843627764149e+000
 6.884500424511314e-001	 1.612515558095128e+000	 6.216770850636434e+000
 6.712585305617217e-001	 1.619747441858088e+000	 6.073607214542905e+000
 6.540275833157010e-001	 1.626781363125316e+000	 5.921946001610321e+000
 6.367604746357436e-001	 1.633617356670030e+000	 5.763660605485560e+000
 6.194604628153395e-001	 1.640255526219128e+000	 5.601770270260596e+000
 6.021307887937086e-001	 1.646696043639945e+000	 5.439111903414654e+000
 5.847746744686816e-001	 1.652939148078460e+000	 5.278247804689757e+000
 5.673953210489919e-001	 1.658985145050743e+000	 5.121507023865409e+000
 5.499959074473635e-001	 1.664834405489513e+000	 4.971023080388378e+000
 5.325795887156568e-001	 1.670487364747675e+000	 4.828768040737131e+000
 5.151494945232681e-001	 1.675944521560770e+000	 4.696582981807583e+000
 6.910678575895980e-001	 1.618647110681815e+000	 6.241436128606754e+000
 6.738109753793902e-001	 1.625906493513425e+000	 6.095838530630048e+000
 6.565145078605460e-001	 1.632967161101506e+000	 5.941998670942700e+000
 6.391817414047586e-001	 1.639829148351499e+000	 5.782075561892481e+000
 6.218159466951049e-001	 1.646492559384722e+000	 5.618880048595886e+000
 6.044203769944051e-001	 1.652957566722031e+000	 5.455213308603009e+000
 5.869982664516829e-001	 1.659224410418750e+000	 5.293605982147835e+000
 5.695528284481979e-001	 1.665293397152670e+000	 5.136360083450896e+000
 5.520872539844181e-001	 1.671164899266971e+000	 4.985587157182143e+000
 5.346047101092180e-001	 1.676839353769976e+000	 4.843242678455819e+000
 5.171083383924920e-001	 1.682317261293657e+000	 4.711156727917095e+000
 6.936856727282305e-001	 1.624778663268400e+000	 6.257546267004949e+000
 6.763634201972141e-001	 1.632065545168648e+000	 6.108657400942184e+000
 6.590014324055339e-001	 1.639152959077564e+000	 5.951607327427058e+000
 6.416030081739019e-001	 1.646040940032816e+000	 5.789052483032708e+000
 6.241714305749840e-001	 1.652729592550140e+000	 5.623548241698877e+000
 6.067099651952000e-001	 1.659219089803919e+000	 5.457851970904280e+000
 5.892218584347683e-001	 1.665509672758822e+000	 5.294454790561018e+000
 5.717103358474736e-001	 1.671601649254359e+000	 5.135624055460429e+000
 5.541786005215280e-001	 1.677495393044175e+000	 4.983441963293219e+000
 5.366298315028222e-001	 1.683191342792013e+000	 4.839840289171525e+000
 5.190671822617483e-001	 1.688690001026278e+000	 4.706631281568063e+000
 6.963034878668631e-001	 1.630910215854901e+000	 6.265252894130737e+000
 6.789158650150372e-001	 1.638224596823758e+000	 6.112217651920352e+000
 6.614883569505218e-001	 1.645338757053478e+000	 5.950943836255654e+000
 6.440242749430453e-001	 1.652252731713956e+000	 5.784756612622311e+000
 6.265269144548638e-001	 1.658966625715349e+000	 5.615931542877688e+000
 6.089995533959948e-001	 1.665480612885564e+000	 5.447174147027546e+000
 5.914454504178532e-001	 1.671794935098621e+000	 5.280928215142353e+000
 5.738678432467487e-001	 1.677909901355751e+000	 5.119418878481262e+000
 5.562699470586383e-001	 1.683825886821061e+000	 4.964691683672404e+000
 5.386549528964268e-001	 1.689543331813722e+000	 4.818647673492619e+000
 5.210260261310047e-001	 1.695062740758567e+000	 4.683074512597714e+000
 6.989213030053297e-001	 1.637041768441332e+000	 6.264704418091409e+000
 6.814683098327063e-001	 1.644383648478757e+000	 6.106670012330220e+000
 6.639752814953673e-001	 1.651524555029236e+000	 5.940177998083340e+000
 6.464455417120605e-001	 1.658464523394895e+000	 5.769351564430028e+000
 6.288823983346291e-001	 1.665203658880313e+000	 5.596185452256199e+000
 6.112891415966912e-001	 1.671742135966922e+000	 5.423325337741090e+000
 5.936690424008549e-001	 1.678080197438097e+000	 5.253159921296128e+000
 5.760253506459544e-001	 1.684218153456787e+000	 5.087864604828577e+000
 5.583612935956925e-001	 1.690156380597569e+000	 4.929441046559234e+000
 5.406800742899878e-001	 1.695895320835035e+000	 4.779752599625262e+000
 5.229848700002286e-001	 1.701435480490455e+000	 4.640555676324626e+000
 7.015391181434644e-001	 1.643173321027709e+000	 6.256046047213095e+000
 6.840207546500652e-001	 1.650542700133645e+000	 6.092162130999473e+000
 6.664622060399287e-001	 1.657710353004827e+000	 5.919477472452372e+000
 6.488668084808190e-001	 1.664676315075607e+000	 5.742999248494877e+000
 6.312378822141675e-001	 1.671440692044997e+000	 5.564464205252843e+000
 6.135787297971900e-001	 1.678003659047950e+000	 5.386450218094522e+000
 5.958926343836886e-001	 1.684365459777196e+000	 5.211283186086882e+000
 5.781828580450218e-001	 1.690526405557409e+000	 5.041081332779440e+000
 5.604526401326355e-001	 1.696486874373634e+000	 4.877795256019343e+000
 5.427051956834623e-001	 1.702247309855889e+000	 4.723243735769696e+000
 5.249437138693874e-001	 1.707808220221878e+000	 4.579145345383365e+000
 7.041569332811017e-001	 1.649304873614048e+000	 6.239419810547925e+000
 6.865731994669597e-001	 1.656701751788424e+000	 6.068838594675802e+000
 6.689491305840634e-001	 1.663896150980237e+000	 5.889037088813667e+000
 6.512880752491925e-001	 1.670888106756072e+000	 5.705859797542076e+000
 6.335933660933646e-001	 1.677677725209364e+000	 5.520920701306318e+000
 6.158683179973926e-001	 1.684265182128603e+000	 5.336692567949116e+000
 5.981162263662709e-001	 1.690650722115867e+000	 5.155430830079801e+000
 5.803403654438809e-001	 1.696834657657558e+000	 4.979189139250828e+000
 5.625439866694115e-001	 1.702817368149193e+000	 4.809859925002169e+000
 5.447303170768068e-001	 1.708599298876215e+000	 4.649210583124277e+000
 5.269025577384487e-001	 1.714180959952767e+000	 4.498915342259693e+000
 7.067747484180751e-001	 1.655436426200365e+000	 6.214964578475915e+000
 6.891256442832350e-001	 1.662860803443096e+000	 6.036840946004141e+000
 6.714360551276295e-001	 1.670081948955455e+000	 5.849049532995566e+000
 6.537093420170530e-001	 1.677099898436262e+000	 5.658091493589950e+000
 6.359488499721071e-001	 1.683914758373383e+000	 5.465706432844372e+000
 6.181579061972000e-001	 1.690526705208835e+000	 5.274195202804552e+000
 6.003398183485179e-001	 1.696935984454056e+000	 5.085735149543663e+000
 5.824978728424627e-001	 1.703142909757176e+000	 4.902308012909622e+000
 5.646353332059645e-001	 1.709147861924183e+000	 4.725741008911779e+000
 5.467554384699780e-001	 1.714951287895949e+000	 4.557743409483560e+000
 5.288614016073797e-001	 1.720553699683057e+000	 4.399938672502177e+000
 5.092729629161171e-001	 1.656826302361175e+000	 4.537610124239898e+000
 4.920311501469236e-001	 1.662028192427957e+000	 4.410794668025110e+000
 4.747818244681851e-001	 1.667037680950171e+000	 4.298202443637710e+000
 4.575279946036860e-001	 1.671855439951955e+000	 4.198235884083370e+000
 4.402726386897362e-001	 1.676482199660132e+000	 4.109250418354020e+000
 4.230187029988017e-001	 1.680918747307537e+000	 4.029573528606737e+000
 4.057691007109044e-001	 1.685165925907489e+000	 3.957521027695146e+000
 3.885267107333296e-001	 1.689224633001393e+000	 3.891410723319129e+000
 3.712943765690968e-001	 1.693095819381501e+000	 3.829573648104164e+000
 3.540749052345564e-001	 1.696780487790798e+000	 3.770363045638872e+000
 3.368710662263960e-001	 1.700279691602014e+000	 3.712161310852046e+000
 5.112318067850481e-001	 1.663199042094462e+000	 4.609873774289985e+000
 4.939236759081701e-001	 1.668420940469325e+000	 4.486926541851225e+000
 4.766080032244467e-001	 1.673449697255204e+000	 4.378244894709314e+000
 4.592878090302757e-001	 1.678285987061092e+000	 4.282164777432585e+000
 4.419660829169300e-001	 1.682930542922536e+000	 4.196979942006019e+000
 4.246457824892794e-001	 1.687384155100361e+000	 4.120960914497387e+000
 4.073298321324640e-001	 1.691647669850424e+000	 4.052371105228786e+000
 3.900211218270629e-001	 1.695721988166405e+000	 3.989480235013069e+000
 3.727225060132111e-001	 1.699608064497652e+000	 3.930575263340001e+000
 3.554368025040346e-001	 1.703306905444065e+000	 3.873969015301017e+000
 3.381667914486827e-001	 1.706819568430031e+000	 3.818006712546674e+000
 5.131906506541093e-001	 1.669571781827682e+000	 4.662843627764149e+000
 4.958162016695114e-001	 1.674813688510627e+000	 4.542545748203043e+000
 4.784341819807758e-001	 1.679861713560173e+000	 4.436511754224648e+000
 4.610476234569132e-001	 1.684716534170166e+000	 4.343031833519760e+000
 4.436595271441606e-001	 1.689378886184879e+000	 4.260359266520300e+000
 4.262728619797906e-001	 1.693849562893120e+000	 4.186729251149946e+000
 4.088905635540621e-001	 1.698129413793288e+000	 4.120374793052519e+000
 3.915155329208472e-001	 1.702219343331335e+000	 4.059539840382922e+000
 3.741506354573972e-001	 1.706120309613704e+000	 4.002489855835486e+000
 3.567986997736138e-001	 1.709833323097210e+000	 3.947520029681774e+000
 3.394625166711072e-001	 1.713359445257894e+000	 3.892961346247319e+000
 5.151494945232681e-001	 1.675944521560770e+000	 4.696582981807583e+000
 4.977087274309238e-001	 1.681206436551799e+000	 4.577696489616709e+000
 4.802603607371552e-001	 1.686273729865015e+000	 4.473031643046286e+000
 4.628074378835870e-001	 1.691147081279122e+000	 4.380853394433576e+000
 4.453529713714186e-001	 1.695827229447108e+000	 4.299395553403808e+000
 4.278999414703269e-001	 1.700314970685772e+000	 4.226879418234349e+000
 4.104512949756888e-001	 1.704611157736048e+000	 4.161529393468341e+000
 3.930099440146699e-001	 1.708716698496161e+000	 4.101585779600239e+000
 3.755787649016374e-001	 1.712632554729648e+000	 4.045314934529668e+000
 3.581605970432686e-001	 1.716359740750236e+000	 3.991017017765739e+000
 3.407582418936350e-001	 1.719899322085622e+000	 3.937031537164082e+000
 5.171083383924920e-001	 1.682317261293657e+000	 4.711156727917095e+000
 4.996012531923835e-001	 1.687599184592773e+000	 4.592424938539891e+000
 4.820865394935687e-001	 1.692685746169670e+000	 4.487835446801043e+000
 4.645672523102847e-001	 1.697577628387900e+000	 4.395648285073518e+000
 4.470464155986951e-001	 1.702275572709173e+000	 4.314098592223544e+000
 4.295270209608801e-001	 1.706780378478274e+000	 4.241415000053776e+000
 4.120120263973347e-001	 1.711092901678670e+000	 4.175834925519567e+000
 3.945043551085182e-001	 1.715214053660861e+000	 4.115616961524309e+000
 3.770068943459136e-001	 1.719144799845473e+000	 4.059050573220335e+000
 3.595224943129738e-001	 1.722886158403147e+000	 4.004463318247127e+000
 3.420539671162315e-001	 1.726439198913232e+000	 3.950225818267024e+000
 5.190671822617483e-001	 1.688690001026278e+000	 4.706631281568063e+000
 5.014937789538669e-001	 1.693991932633486e+000	 4.586779166419943e+000
 4.839127182499985e-001	 1.699097762474072e+000	 4.480956245420788e+000
 4.663270667369946e-001	 1.704008175496442e+000	 4.387437744065988e+000
 4.487398598259808e-001	 1.708723915971023e+000	 4.304480733760131e+000
 4.311541004514417e-001	 1.713245786270581e+000	 4.230342221722294e+000
 4.135727578189902e-001	 1.717574645621123e+000	 4.163294064919558e+000
 3.959987662023792e-001	 1.721711408825413e+000	 4.101634908040864e+000
 3.784350237902078e-001	 1.725657044961170e+000	 4.043699359902985e+000
 3.608843915827040e-001	 1.729412576055947e+000	 3.987864634398991e+000
 3.433496923388628e-001	 1.732979075740743e+000	 3.932554891152099e+000
 5.210260261310047e-001	 1.695062740758567e+000	 4.683074512597714e+000
 5.033863047153504e-001	 1.700384680673872e+000	 4.560809073632266e+000
 4.857388970064288e-001	 1.705509778778162e+000	 4.452429243584239e+000
 4.680868811637042e-001	 1.710438722604692e+000	 4.356245355620509e+000
 4.504333040532665e-001	 1.715172259232606e+000	 4.270556824108905e+000
 4.327811799420031e-001	 1.719711194062654e+000	 4.193669886282474e+000
 4.151334892406456e-001	 1.724056389563371e+000	 4.123912084888501e+000
 3.974931772962400e-001	 1.728208763989794e+000	 4.059643699258473e+000
 3.798631532345019e-001	 1.732169290076729e+000	 3.999266346906481e+000
 3.622462888524343e-001	 1.735938993708639e+000	 3.941228989657509e+000
 3.446454175614937e-001	 1.739518952568173e+000	 3.884031587523301e+000
 5.229848700002286e-001	 1.701435480490455e+000	 4.640555676324626e+000
 5.052788304768102e-001	 1.706777428713864e+000	 4.514566320231841e+000
 4.875650757628420e-001	 1.711921795081876e+000	 4.402291702037302e+000
 4.698466955904022e-001	 1.716869269712593e+000	 4.302096982295550e+000
 4.521267482805431e-001	 1.721620602493873e+000	 4.212344139704663e+000
 4.344082594325561e-001	 1.726176601854446e+000	 4.131409312738366e+000
 4.166942206622915e-001	 1.730538133505383e+000	 4.057696797877759e+000
 3.989875883900885e-001	 1.734706119153983e+000	 3.989649919547729e+000
 3.812912826787781e-001	 1.738681535192139e+000	 3.925759001801366e+000
 3.636081861221395e-001	 1.742465411361227e+000	 3.864566683900378e+000
 3.459411427840904e-001	 1.746058829395541e+000	 3.804670831276501e+000
 5.249437138693874e-001	 1.707808220221878e+000	 4.579145345383365e+000
 5.071713562382227e-001	 1.713170176753398e+000	 4.448104257501616e+000
 4.893912545192216e-001	 1.718333811385152e+000	 4.330582869771756e+000
 4.716065100170758e-001	 1.723299816820086e+000	 4.225020698657121e+000
 4.538201925078014e-001	 1.728068945754771e+000	 4.129862323250046e+000
 4.360353389230924e-001	 1.732642009645917e+000	 4.043574274978016e+000
 4.182549520839181e-001	 1.737019877447124e+000	 3.964658498155541e+000
 4.004819994839111e-001	 1.741203474317956e+000	 3.891662604390129e+000
 3.827194121230183e-001	 1.745193780307393e+000	 3.823187159061344e+000
 3.649700833917943e-001	 1.748991829013714e+000	 3.757890250400834e+000
 3.472368680066182e-001	 1.752598706222864e+000	 3.694489601168109e+000
 5.269025577384487e-001	 1.714180959952767e+000	 4.498915342259693e+000
 5.090638819995640e-001	 1.719562924792408e+000	 4.361477860278381e+000
 4.912174332755506e-001	 1.724745827687927e+000	 4.237343917033646e+000
 4.733663244437135e-001	 1.729730363927113e+000	 4.125046725800644e+000
 4.555136367350318e-001	 1.734517289015250e+000	 4.023133320517903e+000
 4.376624184136037e-001	 1.739107417437024e+000	 3.930180941564959e+000
 4.198156835055162e-001	 1.743501621388562e+000	 3.844809905231981e+000
 4.019764105776953e-001	 1.747700829481692e+000	 3.765693188027402e+000
 3.841475415672045e-001	 1.751706025422478e+000	 3.691562972458695e+000
 3.663319806613733e-001	 1.755518246666105e+000	 3.621214413437563e+000
 3.485325932290428e-001	 1.759138583050161e+000	 3.553506894052923e+000
 5.288614016073797e-001	 1.720553699683057e+000	 4.399938672502177e+000
 5.109564077608105e-001	 1.725955672830829e+000	 4.254743660038944e+000
 4.930436120318122e-001	 1.731157843990140e+000	 4.122617869146263e+000
 4.751261388703033e-001	 1.736160911033619e+000	 4.002207366718031e+000
 4.572070809622256e-001	 1.740965632275259e+000	 3.892181318009555e+000
 4.392894979040813e-001	 1.745572825227723e+000	 3.791247816375326e+000
 4.213764149270760e-001	 1.749983365329664e+000	 3.698166108104047e+000
 4.034708216714287e-001	 1.754198184645169e+000	 3.611755451881441e+000
 3.855756710113190e-001	 1.758218270537386e+000	 3.530900868174126e+000
 3.676938779308517e-001	 1.762044664318403e+000	 3.454556046551101e+000
 3.498283184513297e-001	 1.765678459877450e+000	 3.381743688678925e+000
 3.368710662263960e-001	 1.700279691602014e+000	 3.712161310852046e+000
 3.196881660605543e-001	 1.703594050286686e+000	 3.655327111474450e+000
 3.025263101366981e-001	 1.706725253859904e+000	 3.601534593030187e+000
 2.853881446684482e-001	 1.709674500355790e+000	 3.551213525956045e+000
 2.682762748280446e-001	 1.712443032933547e+000	 3.504822115468818e+000
 2.511932639628146e-001	 1.715032138482888e+000	 3.462843709014171e+000
 2.341416328608904e-001	 1.717443146220116e+000	 3.425782807699717e+000
 2.171238590659275e-001	 1.719677426276633e+000	 3.394160582755176e+000
 2.001423762404916e-001	 1.721736388281684e+000	 3.368510090653252e+000
 1.831995735777232e-001	 1.723621479941080e+000	 3.349371371734202e+000
 1.662977952608313e-001	 1.725334185613589e+000	 3.337286607205020e+000
 3.381667914486827e-001	 1.706819568430031e+000	 3.818006712546674e+000
 3.209177997738292e-001	 1.710146675309803e+000	 3.763120988321954e+000
 3.036899332845457e-001	 1.713289922598861e+000	 3.711099562263526e+000
 2.864858483727275e-001	 1.716250512939384e+000	 3.662397426568589e+000
 2.693081602310288e-001	 1.719029694272197e+000	 3.617499788598875e+000
 2.521594420663184e-001	 1.721628758436840e+000	 3.576918099572223e+000
 2.350422243625718e-001	 1.724049039762243e+000	 3.541185380670847e+000
 2.179589941929544e-001	 1.726291913649813e+000	 3.510851054146255e+000
 2.009121945807594e-001	 1.728358795150721e+000	 3.486475479295495e+000
 1.839042239088101e-001	 1.730251137539158e+000	 3.468624384118789e+000
 1.669374353768738e-001	 1.731970430883254e+000	 3.457863373135442e+000
 3.394625166711072e-001	 1.713359445257894e+000	 3.892961346247319e+000
 3.221474334872860e-001	 1.716699300332726e+000	 3.839342314382837e+000
 3.048535564326230e-001	 1.719854591337579e+000	 3.788560631738450e+000
 2.875835520772833e-001	 1.722826525522695e+000	 3.741081363707166e+000
 2.703400456343320e-001	 1.725616355610525e+000	 3.697401251584201e+000
 2.531256201701740e-001	 1.728225378390438e+000	 3.658044077935010e+000
 2.359428158646247e-001	 1.730654933303998e+000	 3.623555322368340e+000
 2.187941293203549e-001	 1.732906401022619e+000	 3.594496321900595e+000
 2.016820129213818e-001	 1.734981202019402e+000	 3.571438142132590e+000
 1.846088742402069e-001	 1.736880795136925e+000	 3.554955356086490e+000
 1.675770754931522e-001	 1.738606676152682e+000	 3.545619916873493e+000
 3.407582418936350e-001	 1.719899322085622e+000	 3.937031537164082e+000
 3.233770672008791e-001	 1.723251925355489e+000	 3.884000691839382e+000
 3.060171795808722e-001	 1.726419260076110e+000	 3.833924775662244e+000
 2.886812557820460e-001	 1.729402538105790e+000	 3.787264072510576e+000
 2.713719310378722e-001	 1.732203016948609e+000	 3.744511687912828e+000
 2.540917982742895e-001	 1.734821998343772e+000	 3.706188265833508e+000
 2.368434073669492e-001	 1.737260826845480e+000	 3.672835988388510e+000
 2.196292644480247e-001	 1.739520888395156e+000	 3.645012079391959e+000
 2.024518312622534e-001	 1.741603608887835e+000	 3.623282024384617e+000
 1.853135245718126e-001	 1.743510452734483e+000	 3.608212710111412e+000
 1.682167156095754e-001	 1.745242921421967e+000	 3.600365675405463e+000
 3.420539671162315e-001	 1.726439198913232e+000	 3.950225818267024e+000
 3.246067009145632e-001	 1.729804550378126e+000	 3.897107745951422e+000
 3.071808027292358e-001	 1.732983928814503e+000	 3.847200883350598e+000
 2.897789594869453e-001	 1.735978550688731e+000	 3.800946169702108e+000
 2.724038164415676e-001	 1.738789678286527e+000	 3.758818201337526e+000
 2.550579763785727e-001	 1.741418618296932e+000	 3.721319313910458e+000
 2.377439988694454e-001	 1.743866720386786e+000	 3.688972939632396e+000
 2.204643995758591e-001	 1.746135375767526e+000	 3.662316467216688e+000
 2.032216496032694e-001	 1.748226015756122e+000	 3.641893823719104e+000
 1.860181749035264e-001	 1.750140110331933e+000	 3.628247987436310e+000
 1.688563557260526e-001	 1.751879166691197e+000	 3.621913629699094e+000
 3.433496923388628e-001	 1.732979075740743e+000	 3.932554891152100e+000
 3.258363346282925e-001	 1.736357175400671e+000	 3.878677091195692e+000
 3.083444258776562e-001	 1.739548597552805e+000	 3.828399728813313e+000
 2.908766631919112e-001	 1.742554563271583e+000	 3.782130124876058e+000
 2.734357018453366e-001	 1.745376339624358e+000	 3.740309787178941e+000
 2.560241544829318e-001	 1.748015238250009e+000	 3.703407871429010e+000
 2.386445903720135e-001	 1.750472613928017e+000	 3.671913908869255e+000
 2.212995347037537e-001	 1.752749863139834e+000	 3.646330035139835e+000
 2.039914679443245e-001	 1.754848422624370e+000	 3.627162946183229e+000
 1.867228252352475e-001	 1.756769767929376e+000	 3.614915796666833e+000
 1.694959958424927e-001	 1.758515411960465e+000	 3.610080244696334e+000
 3.446454175614937e-001	 1.739518952568173e+000	 3.884031587523301e+000
 3.270659683420218e-001	 1.742909800423157e+000	 3.828724297935460e+000
 3.095080490260753e-001	 1.746113266291067e+000	 3.777533940832372e+000
 2.919743668968735e-001	 1.749130575854412e+000	 3.730820232265010e+000
 2.744675872490970e-001	 1.751963000962180e+000	 3.688977304132725e+000
 2.569903325872746e-001	 1.754611858203091e+000	 3.652426556538674e+000
 2.395451818745536e-001	 1.757078507469270e+000	 3.621608767957472e+000
 2.221346698316040e-001	 1.759364350512185e+000	 3.596975704824733e+000
 2.047612862853136e-001	 1.761470829492683e+000	 3.578981463070413e+000
 1.874274755668749e-001	 1.763399425526912e+000	 3.568073763470146e+000
 1.701356359588048e-001	 1.765151657229859e+000	 3.564685410622331e+000
 3.459411427840904e-001	 1.746058829395541e+000	 3.804670831276501e+000
 3.282956020557055e-001	 1.749462425445618e+000	 3.747266859612759e+000
 3.106716721744357e-001	 1.752677935029338e+000	 3.694617973515093e+000
 2.930720706017621e-001	 1.755706588437281e+000	 3.647022582974915e+000
 2.754994726527676e-001	 1.758549662300072e+000	 3.604813446573298e+000
 2.579565106915092e-001	 1.761208478156271e+000	 3.568349927098459e+000
 2.404457733769658e-001	 1.763684401010646e+000	 3.538009495702804e+000
 2.229698049593054e-001	 1.765978837884682e+000	 3.514178733320561e+000
 2.055311046261316e-001	 1.768093236361167e+000	 3.497244068692838e+000
 1.881321258983078e-001	 1.770029083124643e+000	 3.487582481362914e+000
 1.707752760748979e-001	 1.771787902499474e+000	 3.485552385578225e+000
 3.472368680066182e-001	 1.752598706222864e+000	 3.694489601168109e+000
 3.295252357692980e-001	 1.756015050468088e+000	 3.634324160446775e+000
 3.118352953226799e-001	 1.759242603767669e+000	 3.579668077313229e+000
 2.941697743065072e-001	 1.762282601020256e+000	 3.530745037675806e+000
 2.765313580562660e-001	 1.765136323638111e+000	 3.487812717334656e+000
 2.589226887955433e-001	 1.767805098109637e+000	 3.451154452035488e+000
 2.413463648791502e-001	 1.770290294552241e+000	 3.421070146344281e+000
 2.238049400867534e-001	 1.772593325257429e+000	 3.397866677290371e+000
 2.063009229666734e-001	 1.774715643229926e+000	 3.381848039037128e+000
 1.888367762294454e-001	 1.776658740722669e+000	 3.373305463544075e+000
 1.714149161906811e-001	 1.778424147769398e+000	 3.372507739379176e+000
 3.485325932290428e-001	 1.759138583050161e+000	 3.553506894052923e+000
 3.307548694827539e-001	 1.762567675490601e+000	 3.489917443624384e+000
 3.129989184707498e-001	 1.765807272506106e+000	 3.432702270489826e+000
 2.952674780110385e-001	 1.768858613603399e+000	 3.381997199736838e+000
 2.775632434595108e-001	 1.771722984976377e+000	 3.337971400963119e+000
 2.598888668992851e-001	 1.774401718063279e+000	 3.300818483225071e+000
 2.422469563810069e-001	 1.776896188094157e+000	 3.270746818646453e+000
 2.246400752138434e-001	 1.779207812630530e+000	 3.247969357959922e+000
 2.070707413068338e-001	 1.781338050099065e+000	 3.232693191281810e+000
 1.895414265601866e-001	 1.783288398321091e+000	 3.225109095763198e+000
 1.720545563060633e-001	 1.785060393039723e+000	 3.225381298610839e+000
 3.498283184513297e-001	 1.765678459877450e+000	 3.381743688678925e+000
 3.319845031960278e-001	 1.769120300513190e+000	 3.314069779972577e+000
 3.141625416185881e-001	 1.772371941244703e+000	 3.253740311031136e+000
 2.963651817152860e-001	 1.775434626186778e+000	 3.200790388792685e+000
 2.785951288624198e-001	 1.778309646314946e+000	 3.155287537420863e+000
 2.608550450026426e-001	 1.780998338017287e+000	 3.117322227882419e+000
 2.431475478824362e-001	 1.783502081636492e+000	 3.086997625582027e+000
 2.254752103404711e-001	 1.785822300004091e+000	 3.064418826768642e+000
 2.078405596465077e-001	 1.787960456968690e+000	 3.049681844152163e+000
 1.902460768904307e-001	 1.789918055920011e+000	 3.042862590179022e+000
 1.726941964209537e-001	 1.791696638310540e+000	 3.044006092867700e+000
 1.662977952608313e-001	 1.725334185613589e+000	 3.337286607205020e+000
 1.494368201778233e-001	 1.726876243502368e+000	 3.331545230283919e+000
 1.326214697038732e-001	 1.728248938176940e+000	 3.330498621619301e+000
 1.158539850830164e-001	 1.729453856524530e+000	 3.333268253978271e+000
 9.913655977982550e-002	 1.730492616438330e+000	 3.338963992697175e+000
 8.247133917471385e-002	 1.731366865391524e+000	 3.346684577923633e+000
 6.586042030425503e-002	 1.732078279018852e+000	 3.355518858808953e+000
 4.930585164565591e-002	 1.732628559707094e+000	 3.364547861420233e+000
 3.280963294448005e-002	 1.733019435195818e+000	 3.372847758105408e+000
 1.637371508468555e-002	 1.733252657189655e+000	 3.379493792116048e+000
 0.000000000000000e+000	 1.733329999983334e+000	 3.383565202785999e+000
 1.669374353768738e-001	 1.731970430883254e+000	 3.457863373135442e+000
 1.500116070224830e-001	 1.733518420071905e+000	 3.453377973157509e+000
 1.331315787655221e-001	 1.734896394615545e+000	 3.453520245349291e+000
 1.162996004706389e-001	 1.736105947505125e+000	 3.457581274639717e+000
 9.951787403924237e-002	 1.737148702856828e+000	 3.464827807642108e+000
 8.278855310363309e-002	 1.738026314480603e+000	 3.474502236355012e+000
 6.611374276632490e-002	 1.738740464456275e+000	 3.485823390212176e+000
 4.949549938368816e-002	 1.739292861718604e+000	 3.497988220601915e+000
 3.293583039301100e-002	 1.739685240652657e+000	 3.510174447498153e+000
 1.643669418203716e-002	 1.739919359700741e+000	 3.521544223452006e+000
 0.000000000000000e+000	 1.739996999982150e+000	 3.531248861606822e+000
 1.675770754931522e-001	 1.738606676152682e+000	 3.545619916873493e+000
 1.505863938672745e-001	 1.740160596641313e+000	 3.542467997639950e+000
 1.336416878271796e-001	 1.741543851054148e+000	 3.543784290825450e+000
 1.167452158581423e-001	 1.742758038485864e+000	 3.548980572603755e+000
 9.989918829842161e-002	 1.743804789275623e+000	 3.557434435114504e+000
 8.310576703221921e-002	 1.744685763570131e+000	 3.568488750914553e+000
 6.636706522800258e-002	 1.745402649894287e+000	 3.581451998697597e+000
 4.968514712131898e-002	 1.745957163730827e+000	 3.595599536982722e+000
 3.306202784119428e-002	 1.746351046110308e+000	 3.610175897535648e+000
 1.649967327917068e-002	 1.746586062212705e+000	 3.624398155433683e+000
 0.000000000000000e+000	 1.746663999981866e+000	 3.637460424020842e+000
 1.682167156095754e-001	 1.745242921421967e+000	 3.600365675405463e+000
 1.511611807121226e-001	 1.746802773210665e+000	 3.598595737365233e+000
 1.341517968887908e-001	 1.748191307492805e+000	 3.601065827339169e+000
 1.171908312454937e-001	 1.749410129466777e+000	 3.607260084476765e+000
 1.002805025573522e-001	 1.750460875694719e+000	 3.616621477828710e+000
 8.342298096048080e-002	 1.751345212660085e+000	 3.628550730538909e+000
 6.662038768931190e-002	 1.752064835332843e+000	 3.642406154779920e+000
 4.987479485858106e-002	 1.752621465743697e+000	 3.657504486946450e+000
 3.318822528906285e-002	 1.753016851568687e+000	 3.673122797216186e+000
 1.656265237610882e-002	 1.753252764725449e+000	 3.688501532271186e+000
 0.000000000000000e+000	 1.753330999982383e+000	 3.702848741200192e+000
 1.688563557260526e-001	 1.751879166691197e+000	 3.621913629699094e+000
 1.517359675569521e-001	 1.753444949780036e+000	 3.621545452814658e+000
 1.346619059503005e-001	 1.754838763931569e+000	 3.625143687142606e+000
 1.176364466326601e-001	 1.756062220447895e+000	 3.632217092671616e+000
 1.006618168160231e-001	 1.757116962114120e+000	 3.642229107729321e+000
 8.374019488842646e-002	 1.758004661750443e+000	 3.654596211577211e+000
 6.687371015027681e-002	 1.758727020771897e+000	 3.668687243841519e+000
 5.006444259550710e-002	 1.759285767757147e+000	 3.683823773325392e+000
 3.331442273664965e-002	 1.759682657027710e+000	 3.699281592871306e+000
 1.662563147287431e-002	 1.759919467238878e+000	 3.714293401183009e+000
 0.000000000000000e+000	 1.759997999983599e+000	 3.728052723591154e+000
 1.694959958424927e-001	 1.758515411960465e+000	 3.610080244696334e+000
 1.523107544016880e-001	 1.760087126349501e+000	 3.611105165285591e+000
 1.351720150116537e-001	 1.761486220370494e+000	 3.615800399848731e+000
 1.180820620196085e-001	 1.762714311429247e+000	 3.623652166861906e+000
 1.010431310744234e-001	 1.763773048533831e+000	 3.634100021256782e+000
 8.405740881606484e-002	 1.764664110841186e+000	 3.646534633769748e+000
 6.712703261092116e-002	 1.765389206211404e+000	 3.660296569869763e+000
 5.025409033212975e-002	 1.765950069771108e+000	 3.674676164058254e+000
 3.344062018398762e-002	 1.766348462487290e+000	 3.688914569024491e+000
 1.668861056948988e-002	 1.766586169752896e+000	 3.702206042855035e+000
 0.000000000000000e+000	 1.766664999985416e+000	 3.713701528485060e+000
 1.701356359588048e-001	 1.765151657229859e+000	 3.564685410622331e+000
 1.528855412462550e-001	 1.766729302919135e+000	 3.567066592319254e+000
 1.356821240727954e-001	 1.768133676809635e+000	 3.572822128297645e+000
 1.185276774063060e-001	 1.769366402410864e+000	 3.581369106743359e+000
 1.014244453325419e-001	 1.770429134953857e+000	 3.592079395615429e+000
 8.437462274340456e-002	 1.771323559932291e+000	 3.604276816772054e+000
 6.738035507126883e-002	 1.772051391651316e+000	 3.617235359103276e+000
 5.044373806848163e-002	 1.772614371785513e+000	 3.630178529970068e+000
 3.356681763110974e-002	 1.773014267947344e+000	 3.642279927424708e+000
 1.675158966597823e-002	 1.773252872267407e+000	 3.652665098959412e+000
 0.000000000000000e+000	 1.773331999987732e+000	 3.660414743356756e+000
 1.707752760748979e-001	 1.771787902499474e+000	 3.485552385578225e+000
 1.534603280905781e-001	 1.773371479489014e+000	 3.489225084555952e+000
 1.361922331336705e-001	 1.774781133249046e+000	 3.495998605837483e+000
 1.189732927927196e-001	 1.776018493392776e+000	 3.505174886064725e+000
 1.018057595903678e-001	 1.777085221374202e+000	 3.516014846013839e+000
 8.469183667045425e-002	 1.777983009023737e+000	 3.527734937191296e+000
 6.763367753134368e-002	 1.778713577091589e+000	 3.539504763599721e+000
 5.063338580459548e-002	 1.779278673800295e+000	 3.550445881703316e+000
 3.369301507804896e-002	 1.779680073407788e+000	 3.559631864302296e+000
 1.681456876236208e-002	 1.779919574782316e+000	 3.566089696806000e+000
 0.000000000000000e+000	 1.779998999990449e+000	 3.568802565084947e+000
 1.714149161906811e-001	 1.778424147769398e+000	 3.372507739379176e+000
 1.540351149345823e-001	 1.780013656059212e+000	 3.377379563971541e+000
 1.367023421942240e-001	 1.781428589688781e+000	 3.385123074997034e+000
 1.194189081788163e-001	 1.782670584375014e+000	 3.394879597902237e+000
 1.021870738478898e-001	 1.783741307794869e+000	 3.405756383852369e+000
 8.500905059722247e-002	 1.784642458115502e+000	 3.416822506138669e+000
 6.788699999116962e-002	 1.785375762532177e+000	 3.427105864712962e+000
 5.082303354050392e-002	 1.785942975815386e+000	 3.435591405819361e+000
 3.381921252483822e-002	 1.786345878868537e+000	 3.441220645896456e+000
 1.687754785866416e-002	 1.786586277297526e+000	 3.442892571205499e+000
 0.000000000000000e+000	 1.786665999993466e+000	 3.439465975157499e+000
 1.720545563060633e-001	 1.785060393039723e+000	 3.225381298610839e+000
 1.546099017781923e-001	 1.786655832629805e+000	 3.231332463469108e+000
 1.372124512544007e-001	 1.788076046128894e+000	 3.239992227497145e+000
 1.198645235645631e-001	 1.789322675357607e+000	 3.250296401137219e+000
 1.025683881050970e-001	 1.790397394215865e+000	 3.261156375835939e+000
 8.532626452371796e-002	 1.791301907207567e+000	 3.271454347274681e+000
 6.814032245077055e-002	 1.792037947973034e+000	 3.280039676497535e+000
 5.101268127623966e-002	 1.792607277830720e+000	 3.285726500095085e+000
 3.394540997151047e-002	 1.793011684329505e+000	 3.287292682298102e+000
 1.694052695490719e-002	 1.793252979812941e+000	 3.283480183609877e+000
 0.000000000000000e+000	 1.793332999996683e+000	 3.272996910970679e+000
 1.726941964209537e-001	 1.791696638310540e+000	 3.044006092867700e+000
 1.551846886213330e-001	 1.793298009200866e+000	 3.050889667780072e+000
 1.377225603141458e-001	 1.794723502569441e+000	 3.060406145584341e+000
 1.203101389499272e-001	 1.795974766340585e+000	 3.071241468110748e+000
 1.029497023619784e-001	 1.797053480637194e+000	 3.082069503985327e+000
 8.564347844994923e-002	 1.797961356299908e+000	 3.091546575333520e+000
 6.839364491017026e-002	 1.798700133414114e+000	 3.098307149025633e+000
 5.120232901183534e-002	 1.799271579846228e+000	 3.100960808031807e+000
 3.407160741809868e-002	 1.799677489790610e+000	 3.098090599646584e+000
 1.700350605111390e-002	 1.799919682328466e+000	 3.088252838608090e+000
 0.000000000000000e+000	 1.800000000000000e+000	 3.069978433320271e+000
 1.800000000000000e+000	 0.000000000000000e+000	 1.289374651118866e+001
 1.799919682328466e+000	 1.700350605111395e-002	 1.290774085158210e+001
 1.799677489790610e+000	 3.407160741809879e-002	 1.291569061758742e+001
 1.799271579846228e+000	 5.120232901183521e-002	 1.291943271616381e+001
 1.798700133414114e+000	 6.839364491017019e-002	 1.292075700987415e+001
 1.797961356299908e+000	 8.564347844994921e-002	 1.292140173473814e+001
 1.797053480637194e+000	 1.029497023619785e-001	 1.292304871099172e+001
 1.795974766340585e+000	 1.203101389499273e-001	 1.292731836612771e+001
 1.794723502569440e+000	 1.377225603141456e-001	 1.293576458678824e+001
 1.793298009200867e+000	 1.551846886213329e-001	 1.294986942117893e+001
 1.791696638310540e+000	 1.726941964209536e-001	 1.297103765908687e+001
 1.806667000003317e+000	 0.000000000000000e+000	 1.289241717189762e+001
 1.806586384844004e+000	 1.706648514730794e-002	 1.290724705043711e+001
 1.806343295251762e+000	 3.419780486463929e-002	 1.291586836407825e+001
 1.805935881861839e+000	 5.139197674733068e-002	 1.292015053500562e+001
 1.805362318855363e+000	 6.864696736940450e-002	 1.292191408321789e+001
 1.804620805392491e+000	 8.596069237594195e-002	 1.292292593411822e+001
 1.803709567058843e+000	 1.033310166185455e-001	 1.292489450447925e+001
 1.802626857323959e+000	 1.207557543349033e-001	 1.292946458576397e+001
 1.801370959010450e+000	 1.382326693734363e-001	 1.293821204111093e+001
 1.799940185772448e+000	 1.557594754639656e-001	 1.295263833752896e+001
 1.798332883581914e+000	 1.733338365353000e-001	 1.297416494040784e+001
 1.813334000006534e+000	 0.000000000000000e+000	 1.287465793679079e+001
 1.813253087359455e+000	 1.712946424351649e-002	 1.289073937109535e+001
 1.813009100712867e+000	 3.432400231118209e-002	 1.290044546282812e+001
 1.812600183877458e+000	 5.158162448279437e-002	 1.290567524417153e+001
 1.812024504296691e+000	 6.890028982855627e-002	 1.290827781985930e+001
 1.811280254485235e+000	 8.627790630179003e-002	 1.291004758754739e+001
 1.810365653480736e+000	 1.037123308748993e-001	 1.291271922089964e+001
 1.809278948307660e+000	 1.212013697195969e-001	 1.291796243388800e+001
 1.808018415451863e+000	 1.387427784323799e-001	 1.292737654226833e+001
 1.806582362344496e+000	 1.563342623061965e-001	 1.294248484356978e+001
 1.804969128853802e+000	 1.739734766492057e-001	 1.296472884265044e+001
 1.820001000009551e+000	 0.000000000000000e+000	 1.284123472550361e+001
 1.819919789874721e+000	 1.719244333976776e-002	 1.285887956438482e+001
 1.819674906173823e+000	 3.445019975778057e-002	 1.286998737216276e+001
 1.819264485892985e+000	 5.177127221830193e-002	 1.287648389204623e+001
 1.818686689738000e+000	 6.915361228772037e-002	 1.288024474361397e+001
 1.817939703578042e+000	 8.659512022760428e-002	 1.288309057892441e+001
 1.817021739902779e+000	 1.040936451311638e-001	 1.288678198454567e+001
 1.815931039291598e+000	 1.216469851041414e-001	 1.289301414743525e+001
 1.814665871893595e+000	 1.392528874911159e-001	 1.290341130019677e+001
 1.813224538916936e+000	 1.569090491481683e-001	 1.291952096676499e+001
 1.811605374126138e+000	 1.746131167628129e-001	 1.294280803543582e+001
 1.826668000012267e+000	 0.000000000000000e+000	 1.279290069155727e+001
 1.826586492389699e+000	 1.725542243608990e-002	 1.281231847812172e+001
 1.826340711634530e+000	 3.457639720448812e-002	 1.282505037554161e+001
 1.825928787908323e+000	 5.196091995392898e-002	 1.283304594499972e+001
 1.825348875179192e+000	 6.940693474699157e-002	 1.283820525362629e+001
 1.824599152670816e+000	 8.691233415349547e-002	 1.284237398922335e+001
 1.823677826324880e+000	 1.044749593874626e-001	 1.284733830297416e+001
 1.822583130275685e+000	 1.220926004886702e-001	 1.285481939740435e+001
 1.821313328335564e+000	 1.397629965497843e-001	 1.286646787460762e+001
 1.819866715489690e+000	 1.574838359900236e-001	 1.288385786541359e+001
 1.818241619398854e+000	 1.752527568762638e-001	 1.290848096620328e+001
 1.833335000014584e+000	 0.000000000000000e+000	 1.273039645448110e+001
 1.833253194904292e+000	 1.731840153251111e-002	 1.275169625829079e+001
 1.833006517094890e+000	 3.470259465135817e-002	 1.276618175390860e+001
 1.832593089923372e+000	 5.215056768975115e-002	 1.277582343302583e+001
 1.832011060620171e+000	 6.966025720646468e-002	 1.278254374541656e+001
 1.831258601763462e+000	 8.722954807957448e-002	 1.278821219507247e+001
 1.830333912746944e+000	 1.048562736439194e-001	 1.279464014523933e+001
 1.829235221259832e+000	 1.225382158733166e-001	 1.280357534886879e+001
 1.827960784777684e+000	 1.402731056085245e-001	 1.281669621889749e+001
 1.826508892062683e+000	 1.580586228319053e-001	 1.283560585857679e+001
 1.824877864671880e+000	 1.758923969897006e-001	 1.286182587826471e+001
 1.840002000016400e+000	 0.000000000000000e+000	 1.265445032688890e+001
 1.839919897418398e+000	 1.738138062905952e-002	 1.267764254585120e+001
 1.839672322554802e+000	 3.482879209844406e-002	 1.269391995429126e+001
 1.839257391938031e+000	 5.234021542584406e-002	 1.270527109220423e+001
 1.838673246060836e+000	 6.991357966623446e-002	 1.271363872927819e+001
 1.837918050855883e+000	 8.754676200595220e-002	 1.272091496516016e+001
 1.836989999168880e+000	 1.052375879006579e-001	 1.272893601838307e+001
 1.835887312243949e+000	 1.229838312582140e-001	 1.273947671962531e+001
 1.834608241219874e+000	 1.407832146674763e-001	 1.275424472302798e+001
 1.833151068635837e+000	 1.586334096739556e-001	 1.277487445525739e+001
 1.831514109945151e+000	 1.765320371032654e-001	 1.280292082834896e+001
 1.846669000017617e+000	 0.000000000000000e+000	 1.256577853663576e+001
 1.846586599931918e+000	 1.744435972576330e-002	 1.259077666927712e+001
 1.846338128014167e+000	 3.495498954579921e-002	 1.260879475474329e+001
 1.845921693952203e+000	 5.252986316228332e-002	 1.262183650406542e+001
 1.845335431501090e+000	 7.016690212639573e-002	 1.263186294609026e+001
 1.844577499947983e+000	 8.786397593273947e-002	 1.264078755452268e+001
 1.843646085590595e+000	 1.056189021578019e-001	 1.265047104222552e+001
 1.842539403227947e+000	 1.234294466434957e-001	 1.266271583751444e+001
 1.841255697662049e+000	 1.412933237267793e-001	 1.267926025540134e+001
 1.839793245209076e+000	 1.592081965163174e-001	 1.270177238285291e+001
 1.838150355218598e+000	 1.771716772171005e-001	 1.273184370364898e+001
 1.853336000018133e+000	 0.000000000000000e+000	 1.246508544418053e+001
 1.853253302444752e+000	 1.750733882265064e-002	 1.249170783294236e+001
 1.853003933472884e+000	 3.508118699347702e-002	 1.251132742572191e+001
 1.852585995965789e+000	 5.271951089914458e-002	 1.252596023193759e+001
 1.851997616940836e+000	 7.042022458704333e-002	 1.253758348061239e+001
 1.851236949039666e+000	 8.818118986004707e-002	 1.254813079676763e+001
 1.850302172011993e+000	 1.060002164154751e-001	 1.255948702249879e+001
 1.849191494211737e+000	 1.238750620292951e-001	 1.257348269644628e+001
 1.847903154104124e+000	 1.418034327865733e-001	 1.259188820375669e+001
 1.846435421782323e+000	 1.597829833591333e-001	 1.261640761489885e+001
 1.844786600492154e+000	 1.778113173313480e-001	 1.264867223838391e+001
 1.860003000017850e+000	 0.000000000000000e+000	 1.235306375527326e+001
 1.859920004956799e+000	 1.757031791974967e-002	 1.238103530145170e+001
 1.859669738930854e+000	 3.520738444153087e-002	 1.240203088798982e+001
 1.859250297978689e+000	 5.290915863650345e-002	 1.241807595434977e+001
 1.858659802379975e+000	 7.067354704827196e-002	 1.243116187232349e+001
 1.857896398130836e+000	 8.849840378798594e-002	 1.244324119428447e+001
 1.856958258432983e+000	 1.063815306738011e-001	 1.245622252236600e+001
 1.855843585195231e+000	 1.243206774157455e-001	 1.247196501116343e+001
 1.854550610546017e+000	 1.423135418469979e-001	 1.249227251511260e+001
 1.853077598355501e+000	 1.603577702025460e-001	 1.251888739812137e+001
 1.851422845765751e+000	 1.784509574461501e-001	 1.255348402988890e+001
 1.866670000016666e+000	 0.000000000000000e+000	 1.223039472908469e+001
 1.866586707467961e+000	 1.763329701708859e-002	 1.225934858002106e+001
 1.866335544387978e+000	 3.533358189001417e-002	 1.228140986712916e+001
 1.865914599990803e+000	 5.309880637443554e-002	 1.229861059556613e+001
 1.865321987818409e+000	 7.092686951017646e-002	 1.231295422386674e+001
 1.864555847221398e+000	 8.881561771666689e-002	 1.232641100649230e+001
 1.863614344853473e+000	 1.067628449329038e-001	 1.234091293236466e+001
 1.862495676178339e+000	 1.247662928029803e-001	 1.235834827077323e+001
 1.861198066987645e+000	 1.428236509081927e-001	 1.238055573477814e+001
 1.859719774928535e+000	 1.609325570466981e-001	 1.240931827881550e+001
 1.858059091039319e+000	 1.790905975616489e-001	 1.244635655424399e+001
 1.791696638310540e+000	 1.726941964209536e-001	 1.297103765908687e+001
 1.789918055920010e+000	 1.902460768904308e-001	 1.299374785199262e+001
 1.787960456968690e+000	 2.078405596465076e-001	 1.301225695678902e+001
 1.785822300004091e+000	 2.254752103404711e-001	 1.302748624158155e+001
 1.783502081636491e+000	 2.431475478824360e-001	 1.304024774270688e+001
 1.780998338017287e+000	 2.608550450026427e-001	 1.305123878236431e+001
 1.778309646314947e+000	 2.785951288624201e-001	 1.306103667014677e+001
 1.775434626186778e+000	 2.963651817152860e-001	 1.307009365983813e+001
 1.772371941244703e+000	 3.141625416185883e-001	 1.307873223932832e+001
 1.769120300513189e+000	 3.319845031960277e-001	 1.308714083786534e+001
 1.765678459877450e+000	 3.498283184513297e-001	 1.309537004104764e+001
 1.798332883581914e+000	 1.733338365353000e-001	 1.297416494040784e+001
 1.796547713519502e+000	 1.909507272201168e-001	 1.299722880458680e+001
 1.794582863838879e+000	 2.086103779856293e-001	 1.301603513288314e+001
 1.792436787378191e+000	 2.263103454665698e-001	 1.303150348471503e+001
 1.790107975179323e+000	 2.440481393833731e-001	 1.304444298675086e+001
 1.787594957971737e+000	 2.618212231055554e-001	 1.305554667105341e+001
 1.784896307653890e+000	 2.796270142649396e-001	 1.306538598376721e+001
 1.782010638770450e+000	 2.974628854192032e-001	 1.307440553684302e+001
 1.778936609983506e+000	 3.153261647661564e-001	 1.308291818198844e+001
 1.775672925535893e+000	 3.332141369090891e-001	 1.309110049261583e+001
 1.772218336704760e+000	 3.511240436734559e-001	 1.309898874595553e+001
 1.804969128853802e+000	 1.739734766492057e-001	 1.296472884265044e+001
 1.803177371119533e+000	 1.916553775493431e-001	 1.298851694090515e+001
 1.801205270709615e+000	 2.093801963242911e-001	 1.300801185025543e+001
 1.799051274752824e+000	 2.271454805922235e-001	 1.302412976874734e+001
 1.796713868722657e+000	 2.449487308838937e-001	 1.303767538334570e+001
 1.794191577926644e+000	 2.627874012080904e-001	 1.304933602797939e+001
 1.791482968993232e+000	 2.806588996671269e-001	 1.305967599811525e+001
 1.788586651354454e+000	 2.985605891228380e-001	 1.306913109548462e+001
 1.785501278722566e+000	 3.164897879134934e-001	 1.307800348349603e+001
 1.782225550558774e+000	 3.344437706219683e-001	 1.308645694066667e+001
 1.778758213532162e+000	 3.524197688954445e-001	 1.309451260602548e+001
 1.811605374126138e+000	 1.746131167628129e-001	 1.294280803543582e+001
 1.809807028720049e+000	 1.923600278782482e-001	 1.296766169290254e+001
 1.807827677580853e+000	 2.101500146626242e-001	 1.298820774097162e+001
 1.805665762127958e+000	 2.279806157175550e-001	 1.300535738832631e+001
 1.803319762266476e+000	 2.458493223841091e-001	 1.301990937866228e+001
 1.800788197882007e+000	 2.637535793103460e-001	 1.303254396793247e+001
 1.798069630332990e+000	 2.816907850690671e-001	 1.304381704343618e+001
 1.795162663938824e+000	 2.996582928262621e-001	 1.305415445950695e+001
 1.792065947461933e+000	 3.176534110606569e-001	 1.306384667168406e+001
 1.788778175581896e+000	 3.356734043347111e-001	 1.307304375827499e+001
 1.785298090359737e+000	 3.537154941173297e-001	 1.308175092506039e+001
 1.818241619398854e+000	 1.752527568762638e-001	 1.290848096620328e+001
 1.816436686320991e+000	 1.930646782069702e-001	 1.293471283767808e+001
 1.814450084452545e+000	 2.109198330007604e-001	 1.295664432413294e+001
 1.812280249503562e+000	 2.288157508426863e-001	 1.297518004174262e+001
 1.809925655810766e+000	 2.467499138841305e-001	 1.299111131403558e+001
 1.807384817837828e+000	 2.647197574124209e-001	 1.300510996754861e+001
 1.804656291673181e+000	 2.827226704708454e-001	 1.301772225395619e+001
 1.801738676523593e+000	 3.007559965295466e-001	 1.302936297456314e+001
 1.798630616201657e+000	 3.188170342077054e-001	 1.304030989040146e+001
 1.795330800605327e+000	 3.369030380473631e-001	 1.305069850842800e+001
 1.791837967187568e+000	 3.550112193391459e-001	 1.306051734138807e+001
 1.824877864671880e+000	 1.758923969897006e-001	 1.286182587826471e+001
 1.823066343922302e+000	 1.937693285356476e-001	 1.288972050478752e+001
 1.821072491324651e+000	 2.116896513388310e-001	 1.291334400259721e+001
 1.818894736879606e+000	 2.296508859677397e-001	 1.293359281721537e+001
 1.816531549355510e+000	 2.476505053840687e-001	 1.295124940197763e+001
 1.813981437794106e+000	 2.656859355144135e-001	 1.296697583121788e+001
 1.811242953013821e+000	 2.837545558725471e-001	 1.298130752386074e+001
 1.808314689108793e+000	 3.018537002327632e-001	 1.299464715444357e+001
 1.805195284941788e+000	 3.199806573546970e-001	 1.300725883617711e+001
 1.801883425629133e+000	 3.381326717599695e-001	 1.301926266813597e+001
 1.798377844015737e+000	 3.563069445609279e-001	 1.303062974598134e+001
 1.831514109945151e+000	 1.765320371032654e-001	 1.280292082834896e+001
 1.829696001523926e+000	 1.944739788644186e-001	 1.283273518325408e+001
 1.827694898197124e+000	 2.124594696769677e-001	 1.285833005960210e+001
 1.825509224256060e+000	 2.304860210928375e-001	 1.288059217927951e+001
 1.823137442900693e+000	 2.485510968840351e-001	 1.290029370248534e+001
 1.820578057750842e+000	 2.666521136164224e-001	 1.291808565747561e+001
 1.817829614354928e+000	 2.847864412742570e-001	 1.293449146393640e+001
 1.814890701694459e+000	 3.029514039359832e-001	 1.294990062814449e+001
 1.811759953682375e+000	 3.211442805016896e-001	 1.296456269589499e+001
 1.808436050653380e+000	 3.393623054725760e-001	 1.297858155690035e+001
 1.804917720844325e+000	 3.576026697827099e-001	 1.299191020191217e+001
 1.838150355218598e+000	 1.771716772171005e-001	 1.273184370364898e+001
 1.836325659125807e+000	 1.951786291934217e-001	 1.276380772828697e+001
 1.834317305069919e+000	 2.132292880153019e-001	 1.279162665529473e+001
 1.832123711632891e+000	 2.313211562181020e-001	 1.281617595527199e+001
 1.829743336446300e+000	 2.494516883841405e-001	 1.283821609963510e+001
 1.827174677708035e+000	 2.676182917185461e-001	 1.285838580586227e+001
 1.824416275696517e+000	 2.858183266760604e-001	 1.287719535886050e+001
 1.821466714280624e+000	 3.040491076392786e-001	 1.289502008775439e+001
 1.818324622423470e+000	 3.223079036487412e-001	 1.291209408545360e+001
 1.814988675678134e+000	 3.405919391852282e-001	 1.292850426632712e+001
 1.811457597673414e+000	 3.588983950045264e-001	 1.294418486510608e+001
 1.844786600492154e+000	 1.778113173313480e-001	 1.264867223838391e+001
 1.842955316727885e+000	 1.958832795227951e-001	 1.268298936771324e+001
 1.840939711942994e+000	 2.139991063539653e-001	 1.271325882316889e+001
 1.838738199010071e+000	 2.321562913436554e-001	 1.274034332191465e+001
 1.836349229992314e+000	 2.503522798844963e-001	 1.276499027845759e+001
 1.833771297665687e+000	 2.685844698208832e-001	 1.278782486424215e+001
 1.831002937038606e+000	 2.868502120780426e-001	 1.280934312512070e+001
 1.828042726867321e+000	 3.051468113427203e-001	 1.282990523713959e+001
 1.824889291165121e+000	 3.234715267959102e-001	 1.284972898938582e+001
 1.821541300703462e+000	 3.418215728979717e-001	 1.286888359085698e+001
 1.817997474503085e+000	 3.601941202264115e-001	 1.288728390636410e+001
 1.851422845765751e+000	 1.784509574461501e-001	 1.255348402988890e+001
 1.849584974330105e+000	 1.965879298526773e-001	 1.259033170813145e+001
 1.847562118816300e+000	 2.147689246930893e-001	 1.262325246641209e+001
 1.845352686387567e+000	 2.329914264696200e-001	 1.265309479199116e+001
 1.842955123538719e+000	 2.512528713852133e-001	 1.268059170208510e+001
 1.840367917623796e+000	 2.695506479235322e-001	 1.270635361656837e+001
 1.837589598381211e+000	 2.878820974802886e-001	 1.273086126954992e+001
 1.834618739454583e+000	 3.062445150463798e-001	 1.275445874140689e+001
 1.831453959907378e+000	 3.246351499432544e-001	 1.277734670141467e+001
 1.828093925729430e+000	 3.430512066108520e-001	 1.279957595958381e+001
 1.824537351333421e+000	 3.614898454484002e-001	 1.282104143462069e+001
 1.858059091039319e+000	 1.790905975616489e-001	 1.244635655424399e+001
 1.856214631932410e+000	 1.972925801832065e-001	 1.248588674079326e+001
 1.854184525689797e+000	 2.155387430328054e-001	 1.252163435416584e+001
 1.851967173765350e+000	 2.338265615961181e-001	 1.255443220111543e+001
 1.849561017085502e+000	 2.521534628864028e-001	 1.258499758916512e+001
 1.846964537582364e+000	 2.705168260265918e-001	 1.261392501108283e+001
 1.844176259724348e+000	 2.889139828828836e-001	 1.264167884846064e+001
 1.841194752042445e+000	 3.073422187503292e-001	 1.266858617712562e+001
 1.838018628650292e+000	 3.257987730908322e-001	 1.269482976592144e+001
 1.834646550756102e+000	 3.442808403239147e-001	 1.272044136913465e+001
 1.831077228164503e+000	 3.627855706705264e-001	 1.274529542140615e+001
 1.765678459877450e+000	 3.498283184513297e-001	 1.309537004104764e+001
 1.762044664318403e+000	 3.676938779308519e-001	 1.310477227760055e+001
 1.758218270537386e+000	 3.855756710113191e-001	 1.311659508400450e+001
 1.754198184645169e+000	 4.034708216714287e-001	 1.313053301606088e+001
 1.749983365329663e+000	 4.213764149270760e-001	 1.314615112422030e+001
 1.745572825227723e+000	 4.392894979040814e-001	 1.316288558287531e+001
 1.740965632275259e+000	 4.572070809622258e-001	 1.318004545947737e+001
 1.736160911033618e+000	 4.751261388703035e-001	 1.319681574422940e+001
 1.731157843990141e+000	 4.930436120318121e-001	 1.321226176292198e+001
 1.725955672830829e+000	 5.109564077608105e-001	 1.322533509637582e+001
 1.720553699683057e+000	 5.288614016073798e-001	 1.323488112984992e+001
 1.772218336704760e+000	 3.511240436734559e-001	 1.309898874595553e+001
 1.768571081970627e+000	 3.690557752002125e-001	 1.310799756275402e+001
 1.764730515652127e+000	 3.870038004553495e-001	 1.311945844284953e+001
 1.760695539808388e+000	 4.049652327651022e-001	 1.313307935411557e+001
 1.756465109270422e+000	 4.229371463485910e-001	 1.314843481168312e+001
 1.752038233018001e+000	 4.409165773945200e-001	 1.316496619760750e+001
 1.747413975534779e+000	 4.589005251893766e-001	 1.318198322697148e+001
 1.742591458139577e+000	 4.768859532968367e-001	 1.319866668444766e+001
 1.737569860291762e+000	 4.948697907879950e-001	 1.321407255731787e+001
 1.732348420868631e+000	 5.128489335219466e-001	 1.322713769198335e+001
 1.726926439412715e+000	 5.308202454761590e-001	 1.323668710101395e+001
 1.778758213532162e+000	 3.524197688954445e-001	 1.309451260602548e+001
 1.775097499622857e+000	 3.704176724694724e-001	 1.310364261749199e+001
 1.771242760766789e+000	 3.884319298993078e-001	 1.311525522652376e+001
 1.767192894971447e+000	 4.064596438587248e-001	 1.312906766021096e+001
 1.762946853210942e+000	 4.244978777700678e-001	 1.314465997691599e+001
 1.758503640807968e+000	 4.425436568849251e-001	 1.316147507873390e+001
 1.753862318793922e+000	 4.605939694164907e-001	 1.317881987654407e+001
 1.749022005245102e+000	 4.786457677233224e-001	 1.319586773498345e+001
 1.743981876592904e+000	 4.966959695441106e-001	 1.321166232680671e+001
 1.738741168905919e+000	 5.147414592829877e-001	 1.322512302728004e+001
 1.733299179141840e+000	 5.327790893448082e-001	 1.323505197939485e+001
 1.785298090359737e+000	 3.537154941173297e-001	 1.308175092506039e+001
 1.781623917275190e+000	 3.717795697386566e-001	 1.309149397137525e+001
 1.777755005881483e+000	 3.898600593432123e-001	 1.310375154612940e+001
 1.773690250134468e+000	 4.079540549523091e-001	 1.311824606488440e+001
 1.769428597151355e+000	 4.260586091915157e-001	 1.313455928926694e+001
 1.764969048597762e+000	 4.441707363753049e-001	 1.315213203437112e+001
 1.760310662052832e+000	 4.622874136435772e-001	 1.317026503444310e+001
 1.755452552350340e+000	 4.804055821497718e-001	 1.318812109751819e+001
 1.750393892893712e+000	 4.985221483001754e-001	 1.320472868198465e+001
 1.745133916942836e+000	 5.166339850439580e-001	 1.321898702937764e+001
 1.739671918870567e+000	 5.347379332133595e-001	 1.322967298797427e+001
 1.791837967187568e+000	 3.550112193391459e-001	 1.306051734138807e+001
 1.788150334927723e+000	 3.731414670077906e-001	 1.307134280243810e+001
 1.784267250996319e+000	 3.912881887870808e-001	 1.308471842991031e+001
 1.780187605297569e+000	 4.094484660458675e-001	 1.310036783913601e+001
 1.775910341091791e+000	 4.276193406129448e-001	 1.311787073650317e+001
 1.771434456387523e+000	 4.457978158656683e-001	 1.313666232367890e+001
 1.766759005311653e+000	 4.639808578706453e-001	 1.315603386533002e+001
 1.761883099455437e+000	 4.821653965761971e-001	 1.317513455438860e+001
 1.756805909194333e+000	 5.003483270562067e-001	 1.319297481138622e+001
 1.751526664979524e+000	 5.185265108048806e-001	 1.320843115586159e+001
 1.746044658599031e+000	 5.366967770818458e-001	 1.322025278824704e+001
 1.798377844015737e+000	 3.563069445609279e-001	 1.303062974598134e+001
 1.794676752580552e+000	 3.745033642768991e-001	 1.304298484654788e+001
 1.790779496111406e+000	 3.927163182309313e-001	 1.305793172448822e+001
 1.786684960460875e+000	 4.109428771394136e-001	 1.307519128819604e+001
 1.782392085032382e+000	 4.291800720343642e-001	 1.309433751178301e+001
 1.777899864177388e+000	 4.474248953560228e-001	 1.311479653772709e+001
 1.773207348570529e+000	 4.656743020977042e-001	 1.313584694774985e+001
 1.768313646560540e+000	 4.839252110026103e-001	 1.315662133938505e+001
 1.763217925494911e+000	 5.021745058122212e-001	 1.317610934835157e+001
 1.757919413016124e+000	 5.204190365657796e-001	 1.319316225848453e+001
 1.752417398327365e+000	 5.386556209502998e-001	 1.320649934151421e+001
 1.804917720844325e+000	 3.576026697827099e-001	 1.299191020191217e+001
 1.801203170233773e+000	 3.758652615460078e-001	 1.300622030824712e+001
 1.797291741226853e+000	 3.941444476747818e-001	 1.302317199771444e+001
 1.793182315624507e+000	 4.124372882329594e-001	 1.304247964702637e+001
 1.788873828973259e+000	 4.307408034557834e-001	 1.306370790246458e+001
 1.784365271967497e+000	 4.490519748463777e-001	 1.308627048228599e+001
 1.779655691829604e+000	 4.673677463247631e-001	 1.310943015159504e+001
 1.774744193665795e+000	 4.856850254290235e-001	 1.313230001059686e+001
 1.769629941795594e+000	 5.040006845682356e-001	 1.315384623997827e+001
 1.764312161052779e+000	 5.223115623266788e-001	 1.317289244896532e+001
 1.758790138055704e+000	 5.406144648187536e-001	 1.318812577228452e+001
 1.811457597673414e+000	 3.588983950045264e-001	 1.294418486510608e+001
 1.807729587887482e+000	 3.772271588151418e-001	 1.296085377304088e+001
 1.803803986342771e+000	 3.955725771186503e-001	 1.298022444309741e+001
 1.799679670788585e+000	 4.139316993265181e-001	 1.300200097751273e+001
 1.795355572914553e+000	 4.323015348772123e-001	 1.302573518070449e+001
 1.790830679757990e+000	 4.506790543367409e-001	 1.305082506249115e+001
 1.786104035089022e+000	 4.690611905518310e-001	 1.307651451751207e+001
 1.781174740771349e+000	 4.874448398554490e-001	 1.310189432525369e+001
 1.776041958096526e+000	 5.058268633242670e-001	 1.312590461810544e+001
 1.770704909089630e+000	 5.242040880876013e-001	 1.314733896683968e+001
 1.765162877784180e+000	 5.425733086872400e-001	 1.316485023373099e+001
 1.817997474503085e+000	 3.601941202264115e-001	 1.288728390636410e+001
 1.814256005541776e+000	 3.785890560843259e-001	 1.290669412109269e+001
 1.810316231459269e+000	 3.970007065625548e-001	 1.292887878576550e+001
 1.806177025953231e+000	 4.154261104201023e-001	 1.295352806730440e+001
 1.801837316856396e+000	 4.338622662986603e-001	 1.298017749580191e+001
 1.797296087549004e+000	 4.523061338271208e-001	 1.300820616933559e+001
 1.792552378348927e+000	 4.707546347789177e-001	 1.303683613820280e+001
 1.787605287877348e+000	 4.892046542818984e-001	 1.306513311651202e+001
 1.782453974397853e+000	 5.076530420803319e-001	 1.309200867227853e+001
 1.777097657126819e+000	 5.260966138485717e-001	 1.311622404931118e+001
 1.771535617512930e+000	 5.445321525557915e-001	 1.313639577515125e+001
 1.824537351333421e+000	 3.614898454484002e-001	 1.282104143462069e+001
 1.820782423196752e+000	 3.799509533535859e-001	 1.284355444229428e+001
 1.816828476576456e+000	 3.984288360065132e-001	 1.286892918992681e+001
 1.812674381118566e+000	 4.169205215137248e-001	 1.289683833026050e+001
 1.808319060798919e+000	 4.354229977201371e-001	 1.292679776824385e+001
 1.803761495340678e+000	 4.539332133175258e-001	 1.295816456794361e+001
 1.799000721609464e+000	 4.724480790060318e-001	 1.299013604157185e+001
 1.794035834983939e+000	 4.909644687083838e-001	 1.302175017213858e+001
 1.788865990699722e+000	 5.094792208364475e-001	 1.305188752464533e+001
 1.783490405164487e+000	 5.279891396096127e-001	 1.307927480305247e+001
 1.777908357242085e+000	 5.464909964244405e-001	 1.310249021138072e+001
 1.831077228164503e+000	 3.627855706705264e-001	 1.274529542140615e+001
 1.827308840852505e+000	 3.813128506229466e-001	 1.277125195267379e+001
 1.823340721694443e+000	 3.998569654505436e-001	 1.280017416778897e+001
 1.819171736284712e+000	 4.184149326073986e-001	 1.283171370846249e+001
 1.814800804742252e+000	 4.369837291416522e-001	 1.286536358540938e+001
 1.810226903133151e+000	 4.555602928079645e-001	 1.290045578758133e+001
 1.805449064870776e+000	 4.741415232331826e-001	 1.293616007567510e+001
 1.800466382091268e+000	 4.927242831349174e-001	 1.297148411504275e+001
 1.795278007002279e+000	 5.113053995926306e-001	 1.300527510673490e+001
 1.789883153202777e+000	 5.298816653707489e-001	 1.303622307790773e+001
 1.784281096971782e+000	 5.484498402932200e-001	 1.306286599411043e+001
 1.720553699683057e+000	 5.288614016073798e-001	 1.323488112984992e+001
 1.714951287895949e+000	 5.467554384699779e-001	 1.324135677343714e+001
 1.709147861924184e+000	 5.646353332059646e-001	 1.324542680608052e+001
 1.703142909757176e+000	 5.824978728424625e-001	 1.324611703013650e+001
 1.696935984454057e+000	 6.003398183485178e-001	 1.324238889624595e+001
 1.690526705208835e+000	 6.181579061972001e-001	 1.323315613739934e+001
 1.683914758373382e+000	 6.359488499721072e-001	 1.321730370273421e+001
 1.677099898436262e+000	 6.537093420170529e-001	 1.319370908179461e+001
 1.670081948955454e+000	 6.714360551276295e-001	 1.316229238195760e+001
 1.662860803443096e+000	 6.891256442832350e-001	 1.314240935529042e+001
 1.655436426200365e+000	 7.067747484180751e-001	 1.314226318652098e+001
 1.726926439412715e+000	 5.308202454761590e-001	 1.323668710101395e+001
 1.721303276915056e+000	 5.487805598629469e-001	 1.324310941793284e+001
 1.715478355698569e+000	 5.667266797422572e-001	 1.324697703706034e+001
 1.709451161856229e+000	 5.846553802407206e-001	 1.324724954224069e+001
 1.703221246791734e+000	 6.025634103303735e-001	 1.324281500026917e+001
 1.696788228288618e+000	 6.204474943965467e-001	 1.323250654297804e+001
 1.690151791537024e+000	 6.383043338503186e-001	 1.321512129491364e+001
 1.683311690116158e+000	 6.561306087843145e-001	 1.318944174110810e+001
 1.676267746930466e+000	 6.739229796705319e-001	 1.315662683269817e+001
 1.669019855097652e+000	 6.916780890987875e-001	 1.313734795462876e+001
 1.661567978786661e+000	 7.093925635542742e-001	 1.313717255861224e+001
 1.733299179141840e+000	 5.327790893448082e-001	 1.323505197939485e+001
 1.727655265933628e+000	 5.508056812557428e-001	 1.324176495712960e+001
 1.721808849472432e+000	 5.688180262783275e-001	 1.324573896155822e+001
 1.715759413954782e+000	 5.868128876387013e-001	 1.324586760264718e+001
 1.709506509128947e+000	 6.047870023118943e-001	 1.324096607220460e+001
 1.703049751367984e+000	 6.227370825954985e-001	 1.322978767095239e+001
 1.696388824700308e+000	 6.406598177280756e-001	 1.321104272700854e+001
 1.689523481795759e+000	 6.585518755510625e-001	 1.318342000412524e+001
 1.682453544905252e+000	 6.764099042128660e-001	 1.314985155283349e+001
 1.675178906752058e+000	 6.942305339137208e-001	 1.313123114180497e+001
 1.667699531372885e+000	 7.120103786898093e-001	 1.313105098370599e+001
 1.739671918870567e+000	 5.347379332133595e-001	 1.322967298797427e+001
 1.734007254951787e+000	 5.528308026484087e-001	 1.323702500524221e+001
 1.728139343245877e+000	 5.709093728142304e-001	 1.324142177884195e+001
 1.722067666052925e+000	 5.889703950364738e-001	 1.324169123025327e+001
 1.715791771465766e+000	 6.070105942931632e-001	 1.323657622206573e+001
 1.709311274446982e+000	 6.250266707941542e-001	 1.322475102671282e+001
 1.702625857863253e+000	 6.430153016054911e-001	 1.320484023240022e+001
 1.695735273475063e+000	 6.609731423174257e-001	 1.317544018848571e+001
 1.688639342879789e+000	 6.788968287547734e-001	 1.314177336867224e+001
 1.681337958406270e+000	 6.967829787281894e-001	 1.312389114839201e+001
 1.673831083958972e+000	 7.146281938248470e-001	 1.312375931679237e+001
 1.746044658599031e+000	 5.366967770818458e-001	 1.322025278824704e+001
 1.740359243969655e+000	 5.548559240409877e-001	 1.322859647814761e+001
 1.734469837019012e+000	 5.730007193500216e-001	 1.323373980795351e+001
 1.728375918150747e+000	 5.911279024341080e-001	 1.323444533748747e+001
 1.722077033802260e+000	 6.092341862742643e-001	 1.322938418351591e+001
 1.715572797525657e+000	 6.273162589926120e-001	 1.321715242652904e+001
 1.708862891025889e+000	 6.453707854826793e-001	 1.319629000046761e+001
 1.701947065154075e+000	 6.633944090835324e-001	 1.316530217163948e+001
 1.694825140854057e+000	 6.813837532963969e-001	 1.313220076064618e+001
 1.687497010060242e+000	 6.993354235423485e-001	 1.311516146611398e+001
 1.679962636544856e+000	 7.172460089595523e-001	 1.311515923478994e+001
 1.752417398327365e+000	 5.386556209502998e-001	 1.320649934151421e+001
 1.746711232987356e+000	 5.568810454335238e-001	 1.321619145307740e+001
 1.740800330791946e+000	 5.750920658857573e-001	 1.322241234662469e+001
 1.734684170248338e+000	 5.932854098316724e-001	 1.322385958927953e+001
 1.728362296138499e+000	 6.114577782552818e-001	 1.321913317373177e+001
 1.721834320604059e+000	 6.296058471909711e-001	 1.320675185915213e+001
 1.715099924188238e+000	 6.477262693597538e-001	 1.318517204077971e+001
 1.708158856832794e+000	 6.658156758495105e-001	 1.315280925848544e+001
 1.701010938828034e+000	 6.838706778378773e-001	 1.312094381474794e+001
 1.693656061713931e+000	 7.018878683563526e-001	 1.310487680623827e+001
 1.686094189130473e+000	 7.198638240940923e-001	 1.310511320469197e+001
 1.758790138055704e+000	 5.406144648187536e-001	 1.318812577228452e+001
 1.753063222005010e+000	 5.589061668260598e-001	 1.319952703040494e+001
 1.747130824564784e+000	 5.771834124214931e-001	 1.320716353225509e+001
 1.740992422345786e+000	 5.954429172292369e-001	 1.320966826404299e+001
 1.734647558474552e+000	 6.136813702362994e-001	 1.320557075521114e+001
 1.728095843682236e+000	 6.318954353893305e-001	 1.319331334927530e+001
 1.721336957350326e+000	 6.500817532368282e-001	 1.317127004904214e+001
 1.714370648511223e+000	 6.682369426154887e-001	 1.313786762482061e+001
 1.707196736801698e+000	 6.863576023793584e-001	 1.310781417546198e+001
 1.699815113367292e+000	 7.044403131703569e-001	 1.309287306030333e+001
 1.692225741715756e+000	 7.224816392286320e-001	 1.309348445287336e+001
 1.765162877784180e+000	 5.425733086872400e-001	 1.316485023373099e+001
 1.759415211022741e+000	 5.609312882186387e-001	 1.317832519747368e+001
 1.753461318337636e+000	 5.792747589572844e-001	 1.318772220490008e+001
 1.747300674443183e+000	 5.976004246268710e-001	 1.319161011661901e+001
 1.740932820810489e+000	 6.159049622174005e-001	 1.318844869947590e+001
 1.734357366760235e+000	 6.341850235877884e-001	 1.317660482280580e+001
 1.727573990512178e+000	 6.524372371140165e-001	 1.315437127475427e+001
 1.720582440189362e+000	 6.706582093815950e-001	 1.312063927606116e+001
 1.713382534775026e+000	 6.888445269209819e-001	 1.309262500015105e+001
 1.705974165020281e+000	 7.069927579845158e-001	 1.307898726214847e+001
 1.698357294300641e+000	 7.250994543633379e-001	 1.308013693552857e+001
 1.771535617512930e+000	 5.445321525557915e-001	 1.313639577515125e+001
 1.765767200040672e+000	 5.629564096113043e-001	 1.315231269441536e+001
 1.759791812110608e+000	 5.813661054931872e-001	 1.316382177221854e+001
 1.753608926540618e+000	 5.997579320246437e-001	 1.316942824313223e+001
 1.747218083146380e+000	 6.181285541986697e-001	 1.316752285262232e+001
 1.740618889838102e+000	 6.364746117864440e-001	 1.315639797390277e+001
 1.733811023673818e+000	 6.547927209914324e-001	 1.313426639053309e+001
 1.726794231867214e+000	 6.730794761479584e-001	 1.310095137492435e+001
 1.719568332747999e+000	 6.913314514628892e-001	 1.307519091486141e+001
 1.712133216672855e+000	 7.095452027989848e-001	 1.306305755121276e+001
 1.704488846885063e+000	 7.277172694983755e-001	 1.306493531021236e+001
 1.777908357242085e+000	 5.464909964244405e-001	 1.310249021138072e+001
 1.772119189058924e+000	 5.649815310041002e-001	 1.312122088190859e+001
 1.766122305883807e+000	 5.834574520292573e-001	 1.313520007633071e+001
 1.759917178638179e+000	 6.019154394226243e-001	 1.314286994771058e+001
 1.753503345482292e+000	 6.203521461801902e-001	 1.314255300267267e+001
 1.746880412915887e+000	 6.387641999853959e-001	 1.313246813373652e+001
 1.740048056835272e+000	 6.571482048691891e-001	 1.311074936306255e+001
 1.733006023544780e+000	 6.755007429147066e-001	 1.307859980194801e+001
 1.725754130720593e+000	 6.938183760052232e-001	 1.305532797151137e+001
 1.718292268324968e+000	 7.120976476139181e-001	 1.304492313707137e+001
 1.710620399468956e+000	 7.303350846339110e-001	 1.304774490845550e+001
 1.784281096971782e+000	 5.484498402932200e-001	 1.306286599411043e+001
 1.778471178077622e+000	 5.670066523970694e-001	 1.308478561082865e+001
 1.772452799657343e+000	 5.855487985655503e-001	 1.310159926253877e+001
 1.766225430735958e+000	 6.040729468208824e-001	 1.311168661102260e+001
 1.759788607818298e+000	 6.225757381620464e-001	 1.311330274868257e+001
 1.753141935993637e+000	 6.410537881847428e-001	 1.310459414092626e+001
 1.746285089996563e+000	 6.595036887474010e-001	 1.308361732562750e+001
 1.739217815222061e+000	 6.779220096819685e-001	 1.305338213095576e+001
 1.731939928692788e+000	 6.963053005481263e-001	 1.303285360642828e+001
 1.724451319976577e+000	 7.146500924294711e-001	 1.302442426517812e+001
 1.716751952052255e+000	 7.329528997701102e-001	 1.302843170942860e+001
 1.655436426200365e+000	 7.067747484180751e-001	 1.314226318652098e+001
 1.647810012626662e+000	 7.243773551801414e-001	 1.314881626689965e+001
 1.639980573555821e+000	 7.419327295003327e-001	 1.314883533881977e+001
 1.631948291327146e+000	 7.594374756294089e-001	 1.314266694009044e+001
 1.623713421824428e+000	 7.768881892555959e-001	 1.313068181185746e+001
 1.615276295033542e+000	 7.942814594428974e-001	 1.311327213459846e+001
 1.606637315540310e+000	 8.116138705974469e-001	 1.309084825510685e+001
 1.597796962967233e+000	 8.288820044598098e-001	 1.306383489095413e+001
 1.588755792347744e+000	 8.460824421210691e-001	 1.303266680278749e+001
 1.579514434436758e+000	 8.632117660604604e-001	 1.299778392900361e+001
 1.570073595956371e+000	 8.802665622022525e-001	 1.295962598181718e+001
 1.661567978786661e+000	 7.093925635542742e-001	 1.313717255861224e+001
 1.653913317824509e+000	 7.270603684159012e-001	 1.314335808566798e+001
 1.646054879381276e+000	 7.446807658919559e-001	 1.314298322183180e+001
 1.637992846471639e+000	 7.622503476557206e-001	 1.313637614485290e+001
 1.629727475927164e+000	 7.797656967862311e-001	 1.312389225719881e+001
 1.621259098955966e+000	 7.972233897137646e-001	 1.310591147328936e+001
 1.612588121642419e+000	 8.146199981934755e-001	 1.308283498237341e+001
 1.603715025385502e+000	 8.319520913050783e-001	 1.305508147265257e+001
 1.594640367274438e+000	 8.492162374763990e-001	 1.302308280620795e+001
 1.585364780400401e+000	 8.664090065285576e-001	 1.298727913856494e+001
 1.575888974103115e+000	 8.835269717404666e-001	 1.294811348131388e+001
 1.667699531372885e+000	 7.120103786898093e-001	 1.313105098370599e+001
 1.660016623022366e+000	 7.297433816509610e-001	 1.313688454455526e+001
 1.652129185206822e+000	 7.474288022828487e-001	 1.313614280868815e+001
 1.644037401616305e+000	 7.650632196812788e-001	 1.312913739345278e+001
 1.635741530030153e+000	 7.826432043160948e-001	 1.311620995055669e+001
 1.627241902878723e+000	 8.001653199838462e-001	 1.309772950132995e+001
 1.618538927744937e+000	 8.176261257887096e-001	 1.307408923240787e+001
 1.609633087804251e+000	 8.350221781495452e-001	 1.304570273654470e+001
 1.600524942201681e+000	 8.523500328309214e-001	 1.301299968730662e+001
 1.591215126364653e+000	 8.696062469958423e-001	 1.297642094076743e+001
 1.581704352250523e+000	 8.867873812778637e-001	 1.293641306201842e+001
 1.673831083958972e+000	 7.146281938248470e-001	 1.312375931679237e+001
 1.666119928220147e+000	 7.324263948854949e-001	 1.312928577118343e+001
 1.658203491032356e+000	 7.501768386731936e-001	 1.312823159024579e+001
 1.650081956761026e+000	 7.678760917062715e-001	 1.312089361027694e+001
 1.641755584133266e+000	 7.855207118453783e-001	 1.310760130202940e+001
 1.633224706801671e+000	 8.031072502533370e-001	 1.308871415088254e+001
 1.624489733847713e+000	 8.206322533833429e-001	 1.306461848232902e+001
 1.615551150223324e+000	 8.380922649934034e-001	 1.303572371658557e+001
 1.606409517129309e+000	 8.554838281848282e-001	 1.300245804026149e+001
 1.597065472329349e+000	 8.728034874625036e-001	 1.296526348749075e+001
 1.587519730398429e+000	 8.900477908146286e-001	 1.292459042772597e+001
 1.679962636544856e+000	 7.172460089595523e-001	 1.311515923478994e+001
 1.672223233417767e+000	 7.351094081196790e-001	 1.312045226980315e+001
 1.664277796857779e+000	 7.529248750631739e-001	 1.311916701864068e+001
 1.656126511905686e+000	 7.706889637308859e-001	 1.311158729557610e+001
 1.647769638236373e+000	 7.883982193742738e-001	 1.309803194206368e+001
 1.639207510724670e+000	 8.060491805224306e-001	 1.307885224878945e+001
 1.630440539950598e+000	 8.236383809775704e-001	 1.305442880804345e+001
 1.621469212642564e+000	 8.411623518368471e-001	 1.302516777931381e+001
 1.612294092057161e+000	 8.586176235383101e-001	 1.299149655521322e+001
 1.602915818294325e+000	 8.760007279287293e-001	 1.295385881941787e+001
 1.593335108546665e+000	 8.933082003509443e-001	 1.291270899320028e+001
 1.686094189130473e+000	 7.198638240940923e-001	 1.310511320469197e+001
 1.678326538615143e+000	 7.377924213536876e-001	 1.311027489831247e+001
 1.670352102682987e+000	 7.556729114529706e-001	 1.310886649261842e+001
 1.662171067050169e+000	 7.735018357553108e-001	 1.310116051854116e+001
 1.653783692339343e+000	 7.912757269029728e-001	 1.308746672170638e+001
 1.645190314647578e+000	 8.089911107913198e-001	 1.306812952342519e+001
 1.636391346053441e+000	 8.266445085715856e-001	 1.304352489711999e+001
 1.627387275061813e+000	 8.442324386800688e-001	 1.301405664216747e+001
 1.618178666985074e+000	 8.617514188915592e-001	 1.298015204143825e+001
 1.608766164259413e+000	 8.791979683947067e-001	 1.294225689348056e+001
 1.599150486695066e+000	 8.965686098869936e-001	 1.290082991530443e+001
 1.692225741715756e+000	 7.224816392286320e-001	 1.309348445287336e+001
 1.684429843812190e+000	 7.404754345876964e-001	 1.309864484625789e+001
 1.676426408507879e+000	 7.584209478427667e-001	 1.309724734368044e+001
 1.668215622194357e+000	 7.763147077797337e-001	 1.308955491104070e+001
 1.659797746442048e+000	 7.941532344316662e-001	 1.307586971337446e+001
 1.651173118570255e+000	 8.119330410601993e-001	 1.305653061193639e+001
 1.642342152156093e+000	 8.296506361655833e-001	 1.303191006193329e+001
 1.633305337480912e+000	 8.473025255232625e-001	 1.300241039196160e+001
 1.624063241912885e+000	 8.648852142447658e-001	 1.296845945058946e+001
 1.614616510224449e+000	 8.823952088606245e-001	 1.293050561028910e+001
 1.604965864843464e+000	 8.998290194229611e-001	 1.288901212404545e+001
 1.698357294300641e+000	 7.250994543633379e-001	 1.308013693552857e+001
 1.690533149008824e+000	 7.431584478218801e-001	 1.308545361379296e+001
 1.682500714332354e+000	 7.611689842327448e-001	 1.308422682302559e+001
 1.674260177338134e+000	 7.791275798043420e-001	 1.307671166200306e+001
 1.665811800544357e+000	 7.970307419605462e-001	 1.306320421213048e+001
 1.657155922492560e+000	 8.148749713292620e-001	 1.304403906785953e+001
 1.648292958258401e+000	 8.326567637597577e-001	 1.301958625306913e+001
 1.639223399899707e+000	 8.503726123666218e-001	 1.299024750352398e+001
 1.629947816840433e+000	 8.680190095981221e-001	 1.295645190000190e+001
 1.620466856189266e+000	 8.855924493266703e-001	 1.291865084154696e+001
 1.610781242991693e+000	 9.030894289590298e-001	 1.287731235353471e+001
 1.704488846885063e+000	 7.277172694983755e-001	 1.306493531021236e+001
 1.696636454204961e+000	 7.458414610564140e-001	 1.307059299157002e+001
 1.688575020156310e+000	 7.639170206230866e-001	 1.306972208926690e+001
 1.680304732481383e+000	 7.819404518293238e-001	 1.306257151242674e+001
 1.671825854646140e+000	 7.999082494898043e-001	 1.304943273745074e+001
 1.663138726414351e+000	 8.178169015987020e-001	 1.303063736910703e+001
 1.654243764360219e+000	 8.356628913543031e-001	 1.300655407298549e+001
 1.645141462318039e+000	 8.534426992103398e-001	 1.297758485848473e+001
 1.635832391767555e+000	 8.711528049518190e-001	 1.294416069606283e+001
 1.626317202153701e+000	 8.887896897930323e-001	 1.290673645745053e+001
 1.616596621139586e+000	 9.063498384953834e-001	 1.286578517286633e+001
 1.710620399468956e+000	 7.303350846339110e-001	 1.304774490845550e+001
 1.702739759400515e+000	 7.485244742914734e-001	 1.305395504154219e+001
 1.694649325979647e+000	 7.666650570139754e-001	 1.305365019690412e+001
 1.686349287623989e+000	 7.847533238548667e-001	 1.304707475100313e+001
 1.677839908747267e+000	 8.027857570196316e-001	 1.303451703547374e+001
 1.669121530335487e+000	 8.207588318687129e-001	 1.301630692631263e+001
 1.660194570461393e+000	 8.386690189494136e-001	 1.299281278992244e+001
 1.651059524735752e+000	 8.565127860546102e-001	 1.296443776421597e+001
 1.641716966694088e+000	 8.742866003060478e-001	 1.293161535764366e+001
 1.632167548117586e+000	 8.919869302598986e-001	 1.289480435407450e+001
 1.622411999286977e+000	 9.096102480322056e-001	 1.285448301691540e+001
 1.716751952052255e+000	 7.329528997701102e-001	 1.302843170942860e+001
 1.708843064595402e+000	 7.512074875272331e-001	 1.303543207865230e+001
 1.700723631802261e+000	 7.694130934055929e-001	 1.303592808553321e+001
 1.692393842765832e+000	 7.875661958811594e-001	 1.303016121033686e+001
 1.683853962847609e+000	 8.056632645502203e-001	 1.301841808171685e+001
 1.675104334255827e+000	 8.237007621394886e-001	 1.300102809152674e+001
 1.666145376561775e+000	 8.416751465452835e-001	 1.297836035205496e+001
 1.656977587152687e+000	 8.595828728996267e-001	 1.295081997291787e+001
 1.647601541619870e+000	 8.774203956610007e-001	 1.291884363959268e+001
 1.638017894080758e+000	 8.951841707274575e-001	 1.288289448074319e+001
 1.628227377433699e+000	 9.128706575696799e-001	 1.284345621705840e+001
 1.570073595956371e+000	 8.802665622022525e-001	 1.295962598181718e+001
 1.560432599048893e+000	 8.972459629188613e-001	 1.291877801918207e+001
 1.550593705615053e+000	 9.141440024037704e-001	 1.287589839396189e+001
 1.540557852787052e+000	 9.309572889105736e-001	 1.283152043751963e+001
 1.530326054011600e+000	 9.476824425522793e-001	 1.278617842664498e+001
 1.519899398955622e+000	 9.643160974185487e-001	 1.274039966773369e+001
 1.509279053342249e+000	 9.808549036971231e-001	 1.269469609199335e+001
 1.498466258716638e+000	 9.972955297967757e-001	 1.264955539697304e+001
 1.487462332141325e+000	 1.013634664469111e+000	 1.260543324430370e+001
 1.476268665820915e+000	 1.029869018926507e+000	 1.256273760386540e+001
 1.464886726656035e+000	 1.045995328953468e+000	 1.252182805223879e+001
 1.575888974103115e+000	 8.835269717404666e-001	 1.294811348131388e+001
 1.566212268014191e+000	 9.005692622709460e-001	 1.290627457013815e+001
 1.556336932412184e+000	 9.175298902167840e-001	 1.286251120299686e+001
 1.546263907900330e+000	 9.344054512689111e-001	 1.281734146456666e+001
 1.535994211679030e+000	 9.511925530215972e-001	 1.277128362633475e+001
 1.525528937451213e+000	 9.678878170975326e-001	 1.272484811677126e+001
 1.514869255257719e+000	 9.844878812771145e-001	 1.267852898964483e+001
 1.504016411242247e+000	 1.000989401629258e+000	 1.263279492614652e+001
 1.492971727345584e+000	 1.017389054641061e+000	 1.258808125578307e+001
 1.481736600928906e+000	 1.033683539343583e+000	 1.254477423723003e+001
 1.470312504326076e+000	 1.049869579431027e+000	 1.250321003812217e+001
 1.581704352250523e+000	 8.867873812778637e-001	 1.293641306201842e+001
 1.571991936980199e+000	 9.038925616222086e-001	 1.289375578633753e+001
 1.562080159210064e+000	 9.209157780289697e-001	 1.284927630232684e+001
 1.551969963014387e+000	 9.378536136264144e-001	 1.280347852476044e+001
 1.541662369347260e+000	 9.547026634900736e-001	 1.275686577016116e+001
 1.531158475947617e+000	 9.714595367756689e-001	 1.270993261014016e+001
 1.520459457174004e+000	 9.881208588562517e-001	 1.266315620971008e+001
 1.509566563768664e+000	 1.004683273460882e+000	 1.261698718660804e+001
 1.498481122550637e+000	 1.021143444812148e+000	 1.257184144874217e+001
 1.487204536037667e+000	 1.037498059759795e+000	 1.252808442001378e+001
 1.475738281996851e+000	 1.053743829907719e+000	 1.248602967808195e+001
 1.587519730398429e+000	 8.900477908146286e-001	 1.292459042772597e+001
 1.577771605946751e+000	 9.072158609728270e-001	 1.288129776594042e+001
 1.567823386008530e+000	 9.243016658404997e-001	 1.283627986647735e+001
 1.557676018129063e+000	 9.413017759832483e-001	 1.279002754230086e+001
 1.547330527016136e+000	 9.582127739578679e-001	 1.274303019775384e+001
 1.536788014444687e+000	 9.750312564531100e-001	 1.269576756225759e+001
 1.526049659090967e+000	 9.917538364346820e-001	 1.264870089552231e+001
 1.515116716295762e+000	 1.008377145291788e+000	 1.260226370067771e+001
 1.503990517756364e+000	 1.024897834982510e+000	 1.255685337203103e+001
 1.492672471147086e+000	 1.041312580175275e+000	 1.251281537265833e+001
 1.481164059668261e+000	 1.057618080383677e+000	 1.247044150901574e+001
 1.593335108546665e+000	 8.933082003509443e-001	 1.291270899320028e+001
 1.583551274913682e+000	 9.105391603229808e-001	 1.286897415701864e+001
 1.573566612807418e+000	 9.276875536515454e-001	 1.282360546321472e+001
 1.563382073244200e+000	 9.447499383395788e-001	 1.277708168235950e+001
 1.552998684685506e+000	 9.617228844251389e-001	 1.272987934187237e+001
 1.542417552942276e+000	 9.786029761300081e-001	 1.268246433729217e+001
 1.531639861008467e+000	 9.953868140125507e-001	 1.263528300129614e+001
 1.520666868823410e+000	 1.012071017122119e+000	 1.258875417679206e+001
 1.509499912962644e+000	 1.028652225152283e+000	 1.254325312137838e+001
 1.498140406257053e+000	 1.045127100590158e+000	 1.249911073751741e+001
 1.486589837340203e+000	 1.061492330859036e+000	 1.245659636956056e+001
 1.599150486695066e+000	 8.965686098869936e-001	 1.290082991530443e+001
 1.589330943880827e+000	 9.138624596728466e-001	 1.285685619201023e+001
 1.579309839606564e+000	 9.310734414622793e-001	 1.281133409118485e+001
 1.569088128359639e+000	 9.481981006955713e-001	 1.276473139176030e+001
 1.558666842355217e+000	 9.652329948920450e-001	 1.271751277198380e+001
 1.548047091440238e+000	 9.821746958065160e-001	 1.267013129549032e+001
 1.537230062926369e+000	 9.990197915900062e-001	 1.262301934105318e+001
 1.526217021351479e+000	 1.015764888952013e+000	 1.257658048838843e+001
 1.515009308169359e+000	 1.032406615321604e+000	 1.253117339305844e+001
 1.503608341367459e+000	 1.048941621004579e+000	 1.248711063466154e+001
 1.492015615012579e+000	 1.065366581333928e+000	 1.244464145787828e+001
 1.604965864843464e+000	 8.998290194229611e-001	 1.288901212404545e+001
 1.595110612848018e+000	 9.171857590226028e-001	 1.284501272202424e+001
 1.585053066405808e+000	 9.344593292728730e-001	 1.279954421734081e+001
 1.574794183475222e+000	 9.516462630513911e-001	 1.275306443938993e+001
 1.564335000025114e+000	 9.687431053587454e-001	 1.270602723751290e+001
 1.553676629938429e+000	 9.857464154827855e-001	 1.265887383912124e+001
 1.542820264844534e+000	 1.002652769167193e+000	 1.261202363711402e+001
 1.531767173879839e+000	 1.019458760781614e+000	 1.256586588296379e+001
 1.520518703376387e+000	 1.036161005490611e+000	 1.252074353702755e+001
 1.509076276478193e+000	 1.052756141418672e+000	 1.247695171710777e+001
 1.497441392685288e+000	 1.069240831808488e+000	 1.243472038882432e+001
 1.610781242991693e+000	 9.030894289590298e-001	 1.287731235353471e+001
 1.600890281815093e+000	 9.205090583724286e-001	 1.283351025099915e+001
 1.590796293204986e+000	 9.378452170834997e-001	 1.278831181416432e+001
 1.580500238590789e+000	 9.550944254072040e-001	 1.274216595634427e+001
 1.570003157695046e+000	 9.722532158253989e-001	 1.269551671077326e+001
 1.559306168436700e+000	 9.893181351589695e-001	 1.264879445804964e+001
 1.548410466762822e+000	 1.006285746744259e+000	 1.260240656816733e+001
 1.537317326408363e+000	 1.023152632611062e+000	 1.255672889576042e+001
 1.526028098583609e+000	 1.039915395659440e+000	 1.251208960954364e+001
 1.514544211589143e+000	 1.056570661832571e+000	 1.246876722548882e+001
 1.502867170358230e+000	 1.073115082282848e+000	 1.242697325051451e+001
 1.616596621139586e+000	 9.063498384953834e-001	 1.286578517286633e+001
 1.606669950781882e+000	 9.238323577225011e-001	 1.282241296971881e+001
 1.596539520003932e+000	 9.412311048943297e-001	 1.277771039668638e+001
 1.586206293706182e+000	 9.585425877631757e-001	 1.273211847581799e+001
 1.575671315364859e+000	 9.757633262921642e-001	 1.268607242958732e+001
 1.564935706934906e+000	 9.928898548352201e-001	 1.263999277494555e+001
 1.554000668681096e+000	 1.009918724321349e+000	 1.259427581692692e+001
 1.542867478936918e+000	 1.026846504440499e+000	 1.254928494121628e+001
 1.531537493790904e+000	 1.043669785828230e+000	 1.250533442528156e+001
 1.520012146700202e+000	 1.060385182246412e+000	 1.246268704217575e+001
 1.508292948031304e+000	 1.076989332757142e+000	 1.242153666030561e+001
 1.622411999286977e+000	 9.096102480322056e-001	 1.285448301691540e+001
 1.612449619748222e+000	 9.271556570729985e-001	 1.281178278968937e+001
 1.602282746802487e+000	 9.446169927055366e-001	 1.276781105931186e+001
 1.591912348821241e+000	 9.619907501194712e-001	 1.272300197274344e+001
 1.581339473034401e+000	 9.792734367592008e-001	 1.267778293960345e+001
 1.570565245432902e+000	 9.964615745116900e-001	 1.263256559014100e+001
 1.559590870599219e+000	 1.013551701898611e+000	 1.258773760657577e+001
 1.548417631465376e+000	 1.030540376270066e+000	 1.254364636247723e+001
 1.537046888998153e+000	 1.047424175997116e+000	 1.250059760895719e+001
 1.525480081811258e+000	 1.064199702660327e+000	 1.245883774486788e+001
 1.513718725704411e+000	 1.080863583231503e+000	 1.241854382020402e+001
 1.628227377433699e+000	 9.128706575696799e-001	 1.284345621705840e+001
 1.618229288713946e+000	 9.304789564240998e-001	 1.280167937688074e+001
 1.608025973600485e+000	 9.480028805172917e-001	 1.275868251245339e+001
 1.597618403935810e+000	 9.654389124762559e-001	 1.271489390318516e+001
 1.587007630703517e+000	 9.827835472266669e-001	 1.267073413631715e+001
 1.576194783930540e+000	 1.000033294188532e+000	 1.262660692614152e+001
 1.565181072517051e+000	 1.017184679476191e+000	 1.258289074820046e+001
 1.553967783993609e+000	 1.034234248099903e+000	 1.253992248047253e+001
 1.542556284205236e+000	 1.051178566166237e+000	 1.249799564647224e+001
 1.530948016922200e+000	 1.068014223074453e+000	 1.245734265966338e+001
 1.519144503377449e+000	 1.084737833706065e+000	 1.241812457171696e+001
 1.464886726656035e+000	 1.045995328953468e+000	 1.252182805223879e+001
 1.453318055313266e+000	 1.062010356654672e+000	 1.247904567687280e+001
 1.441564264409459e+000	 1.077910891461337e+000	 1.243074661993501e+001
 1.429627039115891e+000	 1.093693753231475e+000	 1.237720319215356e+001
 1.417508136850242e+000	 1.109355794658154e+000	 1.231859604929182e+001
 1.405209386483143e+000	 1.124893903309127e+000	 1.225500348676983e+001
 1.392732687476031e+000	 1.140305003643589e+000	 1.218639083027652e+001
 1.380080008951025e+000	 1.155586059003373e+000	 1.211260000480925e+001
 1.367253388693743e+000	 1.170734073575915e+000	 1.203333936712076e+001
 1.354254932090051e+000	 1.185746094326380e+000	 1.194817388851751e+001
 1.341086810997859e+000	 1.200619212896339e+000	 1.185651577629888e+001
 1.470312504326076e+000	 1.049869579431027e+000	 1.250321003812217e+001
 1.458700983910129e+000	 1.065943925015255e+000	 1.245972518783285e+001
 1.446903658270865e+000	 1.081903353635911e+000	 1.241072694958443e+001
 1.434922218821242e+000	 1.097744673372132e+000	 1.235654863567994e+001
 1.422758429488212e+000	 1.113464725259729e+000	 1.229743456367212e+001
 1.410414125916335e+000	 1.129060385338371e+000	 1.223352900088269e+001
 1.397891214602434e+000	 1.144528566675812e+000	 1.216486519188928e+001
 1.385191671962032e+000	 1.159866221366456e+000	 1.209135455332076e+001
 1.372317543328472e+000	 1.175070342501603e+000	 1.201277612296426e+001
 1.359270941885729e+000	 1.190137966108723e+000	 1.192876635225865e+001
 1.346054047536028e+000	 1.205066173057170e+000	 1.183880933269007e+001
 1.475738281996851e+000	 1.053743829907719e+000	 1.248602967808195e+001
 1.464083912507682e+000	 1.069877493374972e+000	 1.244202732922436e+001
 1.452243052132907e+000	 1.085895815809623e+000	 1.239254931002792e+001
 1.440217398527168e+000	 1.101795593511933e+000	 1.233798348838674e+001
 1.428008722126688e+000	 1.117573655860459e+000	 1.227863092645805e+001
 1.415618865349959e+000	 1.133226867366784e+000	 1.221469448006701e+001
 1.403049741729191e+000	 1.148752129707221e+000	 1.214626746868667e+001
 1.390303334973312e+000	 1.164146383728749e+000	 1.207332250224847e+001
 1.377381697963391e+000	 1.179406611426530e+000	 1.199570055382227e+001
 1.364286951681511e+000	 1.194529837890341e+000	 1.191310036938276e+001
 1.351021284074214e+000	 1.209513133217318e+000	 1.182506830741415e+001
 1.481164059668261e+000	 1.057618080383677e+000	 1.247044150901574e+001
 1.469466841105835e+000	 1.073811061733959e+000	 1.242611202312435e+001
 1.457582445995505e+000	 1.089888277982609e+000	 1.237637554956950e+001
 1.445512578233598e+000	 1.105846513651019e+000	 1.232166814198153e+001
 1.433259014765612e+000	 1.121682586460487e+000	 1.226234077021865e+001
 1.420823604783968e+000	 1.137393349394514e+000	 1.219864757952758e+001
 1.408208268856266e+000	 1.152975692737969e+000	 1.213073420850575e+001
 1.395414997984840e+000	 1.168426546090407e+000	 1.205862625404799e+001
 1.382445852598486e+000	 1.183742880350852e+000	 1.198221797436258e+001
 1.369302961477398e+000	 1.198921709671388e+000	 1.190126132342819e+001
 1.355988520612435e+000	 1.213960093376932e+000	 1.181535541189367e+001
 1.486589837340203e+000	 1.061492330859036e+000	 1.245659636956056e+001
 1.474849769704496e+000	 1.077744630092348e+000	 1.241213540108478e+001
 1.462921839858580e+000	 1.093880740155007e+000	 1.236236368406454e+001
 1.450807757940463e+000	 1.109897433789529e+000	 1.230775916318337e+001
 1.438509307404924e+000	 1.125791517059957e+000	 1.224871595838374e+001
 1.426028344218313e+000	 1.141559831421708e+000	 1.218553228853659e+001
 1.413366795983623e+000	 1.157199255768207e+000	 1.211839844274771e+001
 1.400526660996592e+000	 1.172706708451582e+000	 1.204738488942176e+001
 1.387510007233746e+000	 1.188079149274723e+000	 1.197243061622846e+001
 1.374318971273393e+000	 1.203313581452015e+000	 1.189333179651002e+001
 1.360955757150707e+000	 1.218407053536164e+000	 1.180973087939140e+001
 1.492015615012579e+000	 1.065366581333928e+000	 1.244464145787828e+001
 1.480232698303576e+000	 1.081678198450274e+000	 1.240024986332249e+001
 1.468261233722049e+000	 1.097873202326953e+000	 1.235066795653081e+001
 1.456102937647694e+000	 1.113948353927604e+000	 1.229640935279028e+001
 1.443759600044565e+000	 1.129900447659014e+000	 1.223790464282283e+001
 1.431233083652948e+000	 1.145726313448514e+000	 1.217548898560080e+001
 1.418525323111224e+000	 1.161422818798085e+000	 1.210938973823100e+001
 1.405638324008543e+000	 1.176986870812430e+000	 1.203971421497931e+001
 1.392574161869159e+000	 1.192415418198297e+000	 1.196643767065270e+001
 1.379334981069496e+000	 1.207705453232379e+000	 1.188939160605662e+001
 1.365922993689046e+000	 1.222854013695160e+000	 1.180825249506574e+001
 1.497441392685288e+000	 1.069240831808488e+000	 1.243472038882432e+001
 1.485615626902984e+000	 1.085611766807872e+000	 1.239060413726181e+001
 1.473600627585834e+000	 1.101865664498583e+000	 1.234143889610208e+001
 1.461398117355220e+000	 1.117999274065383e+000	 1.228776780409918e+001
 1.449009892684477e+000	 1.134009378257801e+000	 1.223005132080670e+001
 1.436437823087822e+000	 1.149892795475079e+000	 1.216865449305983e+001
 1.423683850239033e+000	 1.165646381827755e+000	 1.210383424854368e+001
 1.410749987020669e+000	 1.181267033173103e+000	 1.203572681048357e+001
 1.397638316504716e+000	 1.196751687121729e+000	 1.196433533075930e+001
 1.384350990865711e+000	 1.212097325012632e+000	 1.188951784135557e+001
 1.370890230227468e+000	 1.227300973854073e+000	 1.181097562597367e+001
 1.502867170358230e+000	 1.073115082282848e+000	 1.242697325051451e+001
 1.490998555502631e+000	 1.089545335165276e+000	 1.238334333544563e+001
 1.478940021449855e+000	 1.105858126670033e+000	 1.233482337634051e+001
 1.466693297062972e+000	 1.122050194203007e+000	 1.228197996069484e+001
 1.454260185324599e+000	 1.138118308856462e+000	 1.222529689136662e+001
 1.441642562522888e+000	 1.154059277501552e+000	 1.216516213113010e+001
 1.428842377367014e+000	 1.169869944857368e+000	 1.210185476490723e+001
 1.415861650032945e+000	 1.185547195533754e+000	 1.203553207569136e+001
 1.402702471140401e+000	 1.201087956045174e+000	 1.196621683356242e+001
 1.389367000662038e+000	 1.216489196792927e+000	 1.189378489991427e+001
 1.375857466765991e+000	 1.231747934013053e+000	 1.181795325102199e+001
 1.508292948031304e+000	 1.076989332757142e+000	 1.242153666030561e+001
 1.496381484102426e+000	 1.093478903522620e+000	 1.237860901283122e+001
 1.484279415314031e+000	 1.109850588841442e+000	 1.233096467292420e+001
 1.471988476770880e+000	 1.126101114340615e+000	 1.227918767362311e+001
 1.459510477964873e+000	 1.142227239455141e+000	 1.222377871106661e+001
 1.446847301958099e+000	 1.158225759528081e+000	 1.216514177140818e+001
 1.434000904495130e+000	 1.174093507887076e+000	 1.210357076656420e+001
 1.420973313045347e+000	 1.189827357894538e+000	 1.203923627680036e+001
 1.407766625776206e+000	 1.205424224968786e+000	 1.197217250166879e+001
 1.394383010458481e+000	 1.220881068573418e+000	 1.190226452363916e+001
 1.380824703304630e+000	 1.236194894172249e+000	 1.182923599086849e+001
 1.513718725704411e+000	 1.080863583231503e+000	 1.241854382020402e+001
 1.501764412702279e+000	 1.097412471880037e+000	 1.237653922348606e+001
 1.489618809178282e+000	 1.113843051012946e+000	 1.233000252072555e+001
 1.477283656478874e+000	 1.130152034478348e+000	 1.227952925796488e+001
 1.464760770605238e+000	 1.146336170053981e+000	 1.222563064920332e+001
 1.452052041393405e+000	 1.162392241554813e+000	 1.216871988984734e+001
 1.439159431623343e+000	 1.178317070917030e+000	 1.210909847070169e+001
 1.426084976057850e+000	 1.194107520255609e+000	 1.204694259251082e+001
 1.412830780412118e+000	 1.209760493892720e+000	 1.198228978469195e+001
 1.399399020255041e+000	 1.225272940354258e+000	 1.191502583483869e+001
 1.385791939843404e+000	 1.240641854331811e+000	 1.184487213777408e+001
 1.519144503377449e+000	 1.084737833706065e+000	 1.241812457171696e+001
 1.507147341302099e+000	 1.101346040237664e+000	 1.237726857669852e+001
 1.494958203042528e+000	 1.117835513184680e+000	 1.233207317029562e+001
 1.482578836186885e+000	 1.134202954616346e+000	 1.228313954882458e+001
 1.470011063245638e+000	 1.150445100653127e+000	 1.223098314244804e+001
 1.457256780828759e+000	 1.166558723581895e+000	 1.217601961922032e+001
 1.444317958751618e+000	 1.182540633947380e+000	 1.211855088192210e+001
 1.431196639070430e+000	 1.198387682617118e+000	 1.205875115971281e+001
 1.417894935048125e+000	 1.214096762817131e+000	 1.199665330038528e+001
 1.404415030051720e+000	 1.229664812135602e+000	 1.193213537205444e+001
 1.390759176382327e+000	 1.245088814491888e+000	 1.186490768540746e+001
 1.341086810997859e+000	 1.200619212896339e+000	 1.185651577629888e+001
 1.327753275425902e+000	 1.215348368834772e+000	 1.176927792292668e+001
 1.314254664028600e+000	 1.229932992248813e+000	 1.169697204978223e+001
 1.300593340761641e+000	 1.244370322232309e+000	 1.163538289177712e+001
 1.286771730854787e+000	 1.258657649759996e+000	 1.157959189043623e+001
 1.272792319379371e+000	 1.272792319379371e+000	 1.152457524491632e+001
 1.258657649759996e+000	 1.286771730854787e+000	 1.146525988539472e+001
 1.244370322232309e+000	 1.300593340761641e+000	 1.139658102290945e+001
 1.229932992248813e+000	 1.314254664028600e+000	 1.131354085873760e+001
 1.215348368834772e+000	 1.327753275425902e+000	 1.121126802250427e+001
 1.200619212896339e+000	 1.341086810997858e+000	 1.108924164487475e+001
 1.346054047536028e+000	 1.205066173057170e+000	 1.183880933269007e+001
 1.332671126029660e+000	 1.219849884152589e+000	 1.175331016703857e+001
 1.319122517275394e+000	 1.234488527391286e+000	 1.168208238493943e+001
 1.305410593984761e+000	 1.248979331641002e+000	 1.162171068064311e+001
 1.291537790370323e+000	 1.263319577842530e+000	 1.156710588701742e+001
 1.277506600707852e+000	 1.277506600707852e+000	 1.151306505125106e+001
 1.263319577842531e+000	 1.291537790370323e+000	 1.145432888274688e+001
 1.248979331641001e+000	 1.305410593984762e+000	 1.138564083785031e+001
 1.234488527391285e+000	 1.319122517275394e+000	 1.130180741472921e+001
 1.219849884152589e+000	 1.332671126029660e+000	 1.119775921741225e+001
 1.205066173057171e+000	 1.346054047536028e+000	 1.107960987710671e+001
 1.351021284074214e+000	 1.209513133217318e+000	 1.182506830741415e+001
 1.337588976633350e+000	 1.224351399469772e+000	 1.174169859421119e+001
 1.323990370522037e+000	 1.239044062533178e+000	 1.167164092934643e+001
 1.310227847207651e+000	 1.253588341049174e+000	 1.161235850326938e+001
 1.296303849885549e+000	 1.267981505924611e+000	 1.155875140383199e+001
 1.282220882035950e+000	 1.282220882035950e+000	 1.150544622042748e+001
 1.267981505924611e+000	 1.296303849885550e+000	 1.144700633251182e+001
 1.253588341049174e+000	 1.310227847207652e+000	 1.137799253558433e+001
 1.239044062533178e+000	 1.323990370522037e+000	 1.129302492853995e+001
 1.224351399469772e+000	 1.337588976633350e+000	 1.118800237784175e+001
 1.209513133217318e+000	 1.351021284074214e+000	 1.107527688076912e+001
 1.355988520612435e+000	 1.213960093376932e+000	 1.181535541189367e+001
 1.342506827237006e+000	 1.228852914786463e+000	 1.173425616622011e+001
 1.328858223768578e+000	 1.243599597674624e+000	 1.166570794889105e+001
 1.315045100430375e+000	 1.258197350456951e+000	 1.160737287541263e+001
 1.301069909400549e+000	 1.272643434006347e+000	 1.155456468806744e+001
 1.286935163363761e+000	 1.286935163363761e+000	 1.150174803326813e+001
 1.272643434006347e+000	 1.301069909400548e+000	 1.144331766503592e+001
 1.258197350456951e+000	 1.315045100430375e+000	 1.137366061913386e+001
 1.243599597674625e+000	 1.328858223768578e+000	 1.128721970042600e+001
 1.228852914786463e+000	 1.342506827237006e+000	 1.118379649742727e+001
 1.213960093376932e+000	 1.355988520612435e+000	 1.107612085437947e+001
 1.360955757150707e+000	 1.218407053536164e+000	 1.180973087939140e+001
 1.347424677840658e+000	 1.233354430102806e+000	 1.173101797552333e+001
 1.333726077015066e+000	 1.248155132815760e+000	 1.166433805386270e+001
 1.319862353652996e+000	 1.262806359864455e+000	 1.160679638836647e+001
 1.305835968915399e+000	 1.277305362087850e+000	 1.155457841077885e+001
 1.291649444691380e+000	 1.291649444691380e+000	 1.150199651756302e+001
 1.277305362087850e+000	 1.305835968915399e+000	 1.144328535661711e+001
 1.262806359864454e+000	 1.319862353652996e+000	 1.137266691343620e+001
 1.248155132815760e+000	 1.333726077015067e+000	 1.128442597838513e+001
 1.233354430102806e+000	 1.347424677840658e+000	 1.118503853875342e+001
 1.218407053536164e+000	 1.360955757150707e+000	 1.108201810313323e+001
 1.365922993689046e+000	 1.222854013695160e+000	 1.180825249506574e+001
 1.352342528444339e+000	 1.237855945418944e+000	 1.173202013098130e+001
 1.338593930261548e+000	 1.252710667956719e+000	 1.166737113358616e+001
 1.324679606875580e+000	 1.267415369271808e+000	 1.161066756044804e+001
 1.310602028430182e+000	 1.281967290169231e+000	 1.155882151593747e+001
 1.296363726018903e+000	 1.296363726018903e+000	 1.150621429556592e+001
 1.281967290169231e+000	 1.310602028430182e+000	 1.144692877629556e+001
 1.267415369271808e+000	 1.324679606875580e+000	 1.137503041223354e+001
 1.252710667956719e+000	 1.338593930261548e+000	 1.128620484724338e+001
 1.237855945418944e+000	 1.352342528444340e+000	 1.119159831742327e+001
 1.222854013695160e+000	 1.365922993689046e+000	 1.109284309017783e+001
 1.370890230227468e+000	 1.227300973854073e+000	 1.181097562597367e+001
 1.357260379048082e+000	 1.242357460735021e+000	 1.173729663007680e+001
 1.343461783508072e+000	 1.257266203097635e+000	 1.167468020734674e+001
 1.329496860098190e+000	 1.272024378679135e+000	 1.161902068878809e+001
 1.315368087944978e+000	 1.286629218250599e+000	 1.156731906986684e+001
 1.301078007346426e+000	 1.301078007346426e+000	 1.151442043194603e+001
 1.286629218250599e+000	 1.315368087944978e+000	 1.145426403315161e+001
 1.272024378679135e+000	 1.329496860098190e+000	 1.138076712550914e+001
 1.257266203097635e+000	 1.343461783508072e+000	 1.129357020860665e+001
 1.242357460735021e+000	 1.357260379048082e+000	 1.120334385278190e+001
 1.227300973854073e+000	 1.370890230227468e+000	 1.110846848846885e+001
 1.375857466765991e+000	 1.231747934013053e+000	 1.181795325102199e+001
 1.362178229651917e+000	 1.246858976051181e+000	 1.174687938247400e+001
 1.348329636754686e+000	 1.261821738238644e+000	 1.168627925116204e+001
 1.334314113320891e+000	 1.276633388086560e+000	 1.163187858428636e+001
 1.320134147459867e+000	 1.291291146332064e+000	 1.158009211105541e+001
 1.305792288674046e+000	 1.305792288674046e+000	 1.152663028218293e+001
 1.291291146332064e+000	 1.320134147459867e+000	 1.146530382409925e+001
 1.276633388086560e+000	 1.334314113320891e+000	 1.138994178843760e+001
 1.261821738238644e+000	 1.348329636754686e+000	 1.130638564135609e+001
 1.246858976051181e+000	 1.362178229651917e+000	 1.122014142159706e+001
 1.231747934013053e+000	 1.375857466765991e+000	 1.112876523319359e+001
 1.380824703304630e+000	 1.236194894172249e+000	 1.182923599086849e+001
 1.367096080255878e+000	 1.251360491367567e+000	 1.176079823365685e+001
 1.353197490001439e+000	 1.266377273379880e+000	 1.170218042787957e+001
 1.339131366543747e+000	 1.281242397494204e+000	 1.164904633359637e+001
 1.324900206974929e+000	 1.295953074413737e+000	 1.159715750033760e+001
 1.310506570001856e+000	 1.310506570001856e+000	 1.154285534139446e+001
 1.295953074413737e+000	 1.324900206974929e+000	 1.148005728216224e+001
 1.281242397494204e+000	 1.339131366543747e+000	 1.140408719576676e+001
 1.266377273379879e+000	 1.353197490001439e+000	 1.132451299906120e+001
 1.251360491367567e+000	 1.367096080255878e+000	 1.124185561229292e+001
 1.236194894172249e+000	 1.380824703304631e+000	 1.115360257474784e+001
 1.385791939843404e+000	 1.240641854331811e+000	 1.184487213777408e+001
 1.372013930859996e+000	 1.255862006684323e+000	 1.177908098864500e+001
 1.358065343248378e+000	 1.270932808521476e+000	 1.172239410548808e+001
 1.343948619766823e+000	 1.285851406902192e+000	 1.167042257942728e+001
 1.329666266490246e+000	 1.300615002495729e+000	 1.161852777143269e+001
 1.315220851329954e+000	 1.315220851329954e+000	 1.156310309358529e+001
 1.300615002495729e+000	 1.329666266490246e+000	 1.149852982522031e+001
 1.285851406902192e+000	 1.343948619766822e+000	 1.142380755430591e+001
 1.270932808521476e+000	 1.358065343248378e+000	 1.134781246644337e+001
 1.255862006684323e+000	 1.372013930859996e+000	 1.126834937972364e+001
 1.240641854331811e+000	 1.385791939843404e+000	 1.118284813225195e+001
 1.390759176382327e+000	 1.245088814491888e+000	 1.186490768540746e+001
 1.376931781464302e+000	 1.260363522001592e+000	 1.180175343578535e+001
 1.362933196495552e+000	 1.275488343663569e+000	 1.174692887561130e+001
 1.348765872990182e+000	 1.290460416310646e+000	 1.169600162530723e+001
 1.334432326005897e+000	 1.305276930578148e+000	 1.164420286423578e+001
 1.319935132658436e+000	 1.319935132658435e+000	 1.158737686130754e+001
 1.305276930578149e+000	 1.334432326005897e+000	 1.152077938306126e+001
 1.290460416310646e+000	 1.348765872990182e+000	 1.144896061720081e+001
 1.275488343663570e+000	 1.362933196495552e+000	 1.137614261635406e+001
 1.260363522001592e+000	 1.376931781464302e+000	 1.129948410047308e+001
 1.245088814491889e+000	 1.390759176382327e+000	 1.121636794759248e+001
 1.200619212896339e+000	 1.341086810997858e+000	 1.108924164487475e+001
 1.185746094326380e+000	 1.354254932090050e+000	 1.096579430964096e+001
 1.170734073575915e+000	 1.367253388693742e+000	 1.084512437650584e+001
 1.155586059003373e+000	 1.380080008951025e+000	 1.072601903666140e+001
 1.140305003643589e+000	 1.392732687476031e+000	 1.060740915373768e+001
 1.124893903309127e+000	 1.405209386483143e+000	 1.048836042518162e+001
 1.109355794658154e+000	 1.417508136850241e+000	 1.036806385892756e+001
 1.093693753231475e+000	 1.429627039115892e+000	 1.024582568911836e+001
 1.077910891461337e+000	 1.441564264409459e+000	 1.012105685639326e+001
 1.062010356654672e+000	 1.453318055313266e+000	 9.993262178805907e+000
 1.045995328953468e+000	 1.464886726656035e+000	 9.862029338790432e+000
 1.205066173057171e+000	 1.346054047536028e+000	 1.107960987710671e+001
 1.190137966108723e+000	 1.359270941885729e+000	 1.096128865283210e+001
 1.175070342501603e+000	 1.372317543328472e+000	 1.084498199717210e+001
 1.159866221366456e+000	 1.385191671962032e+000	 1.072953750416668e+001
 1.144528566675812e+000	 1.397891214602435e+000	 1.061395102100469e+001
 1.129060385338371e+000	 1.410414125916335e+000	 1.049735738049233e+001
 1.113464725259729e+000	 1.422758429488212e+000	 1.037902043393272e+001
 1.097744673372132e+000	 1.434922218821242e+000	 1.025832251191853e+001
 1.081903353635911e+000	 1.446903658270865e+000	 1.013475344232612e+001
 1.065943925015255e+000	 1.458700983910129e+000	 1.000789925535060e+001
 1.049869579431026e+000	 1.470312504326076e+000	 9.877430704739632e+000
 1.209513133217318e+000	 1.351021284074214e+000	 1.107527688076912e+001
 1.194529837890342e+000	 1.364286951681511e+000	 1.096170885089776e+001
 1.179406611426530e+000	 1.377381697963390e+000	 1.084943816133240e+001
 1.164146383728749e+000	 1.390303334973312e+000	 1.073737093030617e+001
 1.148752129707221e+000	 1.403049741729192e+000	 1.062456617520742e+001
 1.133226867366785e+000	 1.415618865349959e+000	 1.051022610976458e+001
 1.117573655860459e+000	 1.428008722126688e+000	 1.039368572646917e+001
 1.101795593511933e+000	 1.440217398527168e+000	 1.027440179555327e+001
 1.085895815809623e+000	 1.452243052132907e+000	 1.015194141366025e+001
 1.069877493374973e+000	 1.464083912507682e+000	 1.002597023589506e+001
 1.053743829907719e+000	 1.475738281996851e+000	 9.896240524230812e+000
 1.213960093376932e+000	 1.355988520612435e+000	 1.107612085437947e+001
 1.198921709671387e+000	 1.369302961477398e+000	 1.096693875100629e+001
 1.183742880350852e+000	 1.382445852598486e+000	 1.085838240359965e+001
 1.168426546090406e+000	 1.395414997984840e+000	 1.074941459608868e+001
 1.152975692737969e+000	 1.408208268856267e+000	 1.063915572377822e+001
 1.137393349394514e+000	 1.420823604783969e+000	 1.052687364868315e+001
 1.121682586460487e+000	 1.433259014765612e+000	 1.041197282462913e+001
 1.105846513651019e+000	 1.445512578233598e+000	 1.029398282732761e+001
 1.089888277982609e+000	 1.457582445995505e+000	 1.017254642648914e+001
 1.073811061733959e+000	 1.469466841105835e+000	 1.004740733758497e+001
 1.057618080383677e+000	 1.481164059668260e+000	 9.918397790128003e+000
 1.218407053536164e+000	 1.360955757150707e+000	 1.108201810313323e+001
 1.203313581452016e+000	 1.374318971273392e+000	 1.097686029649554e+001
 1.188079149274723e+000	 1.387510007233746e+000	 1.087170233984281e+001
 1.172706708451582e+000	 1.400526660996592e+000	 1.076556184461647e+001
 1.157199255768207e+000	 1.413366795983623e+000	 1.065761881300741e+001
 1.141559831421708e+000	 1.426028344218314e+000	 1.054720504467533e+001
 1.125791517059957e+000	 1.438509307404925e+000	 1.043379279746062e+001
 1.109897433789529e+000	 1.450807757940463e+000	 1.031698284126545e+001
 1.093880740155007e+000	 1.462921839858580e+000	 1.019649204616937e+001
 1.077744630092348e+000	 1.474849769704496e+000	 1.007214064639365e+001
 1.061492330859036e+000	 1.486589837340203e+000	 9.943839320952401e+000
 1.222854013695160e+000	 1.365922993689046e+000	 1.109284309017783e+001
 1.207705453232379e+000	 1.379334981069496e+000	 1.099135357708503e+001
 1.192415418198296e+000	 1.392574161869159e+000	 1.088928371627485e+001
 1.176986870812430e+000	 1.405638324008543e+000	 1.078570412899460e+001
 1.161422818798085e+000	 1.418525323111225e+000	 1.067985267472730e+001
 1.145726313448514e+000	 1.431233083652948e+000	 1.057112340233196e+001
 1.129900447659014e+000	 1.443759600044566e+000	 1.045905473909583e+001
 1.113948353927604e+000	 1.456102937647694e+000	 1.034331706092351e+001
 1.097873202326952e+000	 1.468261233722049e+000	 1.022369978880770e+001
 1.081678198450274e+000	 1.480232698303576e+000	 1.010009815727689e+001
 1.065366581333929e+000	 1.492015615012579e+000	 9.972499799708547e+000
 1.227300973854073e+000	 1.370890230227468e+000	 1.110846848846885e+001
 1.212097325012632e+000	 1.384350990865711e+000	 1.101029687966408e+001
 1.196751687121729e+000	 1.397638316504715e+000	 1.091101045910981e+001
 1.181267033173102e+000	 1.410749987020669e+000	 1.080973106080268e+001
 1.165646381827755e+000	 1.423683850239034e+000	 1.070575267355241e+001
 1.149892795475079e+000	 1.436437823087822e+000	 1.059852992937702e+001
 1.134009378257801e+000	 1.449009892684477e+000	 1.048766581341957e+001
 1.117999274065384e+000	 1.461398117355220e+000	 1.037289874273738e+001
 1.101865664498583e+000	 1.473600627585835e+000	 1.025408916326948e+001
 1.085611766807872e+000	 1.485615626902985e+000	 1.013120581483957e+001
 1.069240831808489e+000	 1.497441392685288e+000	 1.000431181321096e+001
 1.231747934013053e+000	 1.375857466765991e+000	 1.112876523319359e+001
 1.216489196792927e+000	 1.389367000662038e+000	 1.103356673964114e+001
 1.201087956045174e+000	 1.402702471140401e+000	 1.093676472477545e+001
 1.185547195533754e+000	 1.415861650032945e+000	 1.083753045911536e+001
 1.169869944857368e+000	 1.428842377367014e+000	 1.073521235466044e+001
 1.154059277501552e+000	 1.441642562522888e+000	 1.062932398317086e+001
 1.138118308856462e+000	 1.454260185324599e+000	 1.051953129926404e+001
 1.122050194203007e+000	 1.466693297062972e+000	 1.040563921988440e+001
 1.105858126670033e+000	 1.478940021449855e+000	 1.028757771369645e+001
 1.089545335165276e+000	 1.490998555502631e+000	 1.016538755450084e+001
 1.073115082282848e+000	 1.502867170358230e+000	 1.003920589189939e+001
 1.236194894172249e+000	 1.380824703304631e+000	 1.115360257474784e+001
 1.220881068573418e+000	 1.394383010458481e+000	 1.106103799284021e+001
 1.205424224968787e+000	 1.407766625776206e+000	 1.096642695066626e+001
 1.189827357894538e+000	 1.420973313045347e+000	 1.086898840005718e+001
 1.174093507887076e+000	 1.434000904495129e+000	 1.076812349210177e+001
 1.158225759528081e+000	 1.446847301958099e+000	 1.066340311773480e+001
 1.142227239455140e+000	 1.459510477964873e+000	 1.055455463611688e+001
 1.126101114340616e+000	 1.471988476770880e+000	 1.044144794665223e+001
 1.109850588841442e+000	 1.484279415314031e+000	 1.032408106252007e+001
 1.093478903522619e+000	 1.496381484102427e+000	 1.020256534414570e+001
 1.076989332757142e+000	 1.508292948031304e+000	 1.007711055012968e+001
 1.240641854331811e+000	 1.385791939843404e+000	 1.118284813225195e+001
 1.225272940354258e+000	 1.399399020255041e+000	 1.109258382793085e+001
 1.209760493892720e+000	 1.412830780412117e+000	 1.099987590642449e+001
 1.194107520255608e+000	 1.426084976057850e+000	 1.090398926687878e+001
 1.178317070917029e+000	 1.439159431623343e+000	 1.080437613762347e+001
 1.162392241554813e+000	 1.452052041393404e+000	 1.070066313128275e+001
 1.146336170053981e+000	 1.464760770605239e+000	 1.059263747032900e+001
 1.130152034478348e+000	 1.477283656478874e+000	 1.048023254329909e+001
 1.113843051012946e+000	 1.489618809178283e+000	 1.036351295395842e+001
 1.097412471880037e+000	 1.501764412702279e+000	 1.024265922625104e+001
 1.080863583231503e+000	 1.513718725704410e+000	 1.011795232692854e+001
 1.245088814491889e+000	 1.390759176382327e+000	 1.121636794759248e+001
 1.229664812135602e+000	 1.404415030051719e+000	 1.112807583937830e+001
 1.214096762817131e+000	 1.417894935048125e+000	 1.103698874573504e+001
 1.198387682617119e+000	 1.431196639070430e+000	 1.094241580054142e+001
 1.182540633947380e+000	 1.444317958751618e+000	 1.084385866999498e+001
 1.166558723581895e+000	 1.457256780828759e+000	 1.074099811424816e+001
 1.150445100653127e+000	 1.470011063245638e+000	 1.063367970181046e+001
 1.134202954616346e+000	 1.482578836186884e+000	 1.052189884139409e+001
 1.117835513184680e+000	 1.494958203042528e+000	 1.040578529798479e+001
 1.101346040237664e+000	 1.507147341302099e+000	 1.028558736047320e+001
 1.084737833706065e+000	 1.519144503377448e+000	 1.016165582720078e+001
 1.045995328953468e+000	 1.464886726656035e+000	 9.862029338790432e+000
 1.029869018926506e+000	 1.476268665820915e+000	 9.724134915089984e+000
 1.013634664469111e+000	 1.487462332141325e+000	 9.576987900609879e+000
 9.972955297967756e-001	 1.498466258716638e+000	 9.421206650592678e+000
 9.808549036971231e-001	 1.509279053342249e+000	 9.257464686921621e+000
 9.643160974185489e-001	 1.519899398955622e+000	 9.086440648361259e+000
 9.476824425522794e-001	 1.530326054011600e+000	 8.908832108431019e+000
 9.309572889105739e-001	 1.540557852787053e+000	 8.725339308545639e+000
 9.141440024037704e-001	 1.550593705615053e+000	 8.536655537858925e+000
 8.972459629188613e-001	 1.560432599048893e+000	 8.343458280526171e+000
 8.802665622022525e-001	 1.570073595956371e+000	 8.146401196008526e+000
 1.049869579431026e+000	 1.470312504326076e+000	 9.877430704739632e+000
 1.033683539343583e+000	 1.481736600928906e+000	 9.740183056185687e+000
 1.017389054641061e+000	 1.492971727345584e+000	 9.593556038365010e+000
 1.000989401629258e+000	 1.504016411242247e+000	 9.438150140836230e+000
 9.844878812771145e-001	 1.514869255257719e+000	 9.274619127744128e+000
 9.678878170975326e-001	 1.525528937451213e+000	 9.103621827003702e+000
 9.511925530215970e-001	 1.535994211679030e+000	 8.925834410199730e+000
 9.344054512689113e-001	 1.546263907900330e+000	 8.741934272396216e+000
 9.175298902167840e-001	 1.556336932412184e+000	 8.552590257756334e+000
 9.005692622709460e-001	 1.566212268014191e+000	 8.358453679024429e+000
 8.835269717404662e-001	 1.575888974103115e+000	 8.160150198100947e+000
 1.053743829907719e+000	 1.475738281996851e+000	 9.896240524230812e+000
 1.037498059759795e+000	 1.487204536037667e+000	 9.759640673964006e+000
 1.021143444812148e+000	 1.498481122550637e+000	 9.613562439262402e+000
 1.004683273460882e+000	 1.509566563768664e+000	 9.458597374822096e+000
 9.881208588562515e-001	 1.520459457174004e+000	 9.295388725217586e+000
 9.714595367756690e-001	 1.531158475947617e+000	 9.124584958629766e+000
 9.547026634900736e-001	 1.541662369347260e+000	 8.946850527524761e+000
 9.378536136264148e-001	 1.551969963014387e+000	 8.762849857820005e+000
 9.209157780289695e-001	 1.562080159210064e+000	 8.573237394480303e+000
 9.038925616222084e-001	 1.571991936980199e+000	 8.378648467823211e+000
 8.867873812778638e-001	 1.581704352250523e+000	 8.179691049460288e+000
 1.057618080383677e+000	 1.481164059668260e+000	 9.918397790128003e+000
 1.041312580175275e+000	 1.492672471147086e+000	 9.782455113523993e+000
 1.024897834982510e+000	 1.503990517756364e+000	 9.636965662193976e+000
 1.008377145291788e+000	 1.515116716295762e+000	 9.482520891295959e+000
 9.917538364346820e-001	 1.526049659090967e+000	 9.319762665581941e+000
 9.750312564531100e-001	 1.536788014444687e+000	 9.149338442980728e+000
 9.582127739578679e-001	 1.547330527016136e+000	 8.971910534870579e+000
 9.413017759832485e-001	 1.557676018129063e+000	 8.788140167253800e+000
 9.243016658404996e-001	 1.567823386008530e+000	 8.598677320515437e+000
 9.072158609728270e-001	 1.577771605946751e+000	 8.404151417154500e+000
 8.900477908146289e-001	 1.587519730398429e+000	 8.205162928196998e+000
 1.061492330859036e+000	 1.486589837340203e+000	 9.943839320952401e+000
 1.045127100590158e+000	 1.498140406257054e+000	 9.808571480401103e+000
 1.028652225152283e+000	 1.509499912962645e+000	 9.663721921014115e+000
 1.012071017122118e+000	 1.520666868823410e+000	 9.509896382399649e+000
 9.953868140125510e-001	 1.531639861008467e+000	 9.347727466138435e+000
 9.786029761300082e-001	 1.542417552942276e+000	 9.177887796341677e+000
 9.617228844251389e-001	 1.552998684685507e+000	 9.001041376352534e+000
 9.447499383395789e-001	 1.563382073244200e+000	 8.817855895528949e+000
 9.276875536515453e-001	 1.573566612807418e+000	 8.628986695141411e+000
 9.105391603229807e-001	 1.583551274913682e+000	 8.435067252127224e+000
 8.933082003509443e-001	 1.593335108546665e+000	 8.236700611087832e+000
 1.065366581333929e+000	 1.492015615012579e+000	 9.972499799708547e+000
 1.048941621004579e+000	 1.503608341367459e+000	 9.837932678432159e+000
 1.032406615321604e+000	 1.515009308169358e+000	 9.693785122154671e+000
 1.015764888952013e+000	 1.526217021351479e+000	 9.540679845252230e+000
 9.990197915900062e-001	 1.537230062926369e+000	 9.379267014406059e+000
 9.821746958065158e-001	 1.548047091440238e+000	 9.210235692444091e+000
 9.652329948920445e-001	 1.558666842355216e+000	 9.034266909003188e+000
 9.481981006955714e-001	 1.569088128359639e+000	 8.852044376092849e+000
 9.310734414622792e-001	 1.579309839606565e+000	 8.664238514175940e+000
 9.138624596728466e-001	 1.589330943880827e+000	 8.471496706532758e+000
 8.965686098869936e-001	 1.599150486695066e+000	 8.274434531958026e+000
 1.069240831808489e+000	 1.497441392685288e+000	 1.000431181321096e+001
 1.052756141418672e+000	 1.509076276478193e+000	 9.870479448101394e+000
 1.036161005490611e+000	 1.520518703376387e+000	 9.727106902685819e+000
 1.019458760781614e+000	 1.531767173879840e+000	 9.574842438169533e+000
 1.002652769167193e+000	 1.542820264844534e+000	 9.414362607606588e+000
 9.857464154827852e-001	 1.553676629938429e+000	 9.246382003616562e+000
 9.687431053587454e-001	 1.564335000025115e+000	 9.071607946191971e+000
 9.516462630513914e-001	 1.574794183475222e+000	 8.890749627277828e+000
 9.344593292728730e-001	 1.585053066405808e+000	 8.704502159647401e+000
 9.171857590226031e-001	 1.595110612848019e+000	 8.513536576449530e+000
 8.998290194229609e-001	 1.604965864843464e+000	 8.318490839720885e+000
 1.073115082282848e+000	 1.502867170358230e+000	 1.003920589189939e+001
 1.056570661832571e+000	 1.514544211589144e+000	 9.906150405355984e+000
 1.039915395659441e+000	 1.526028098583609e+000	 9.763636668811225e+000
 1.023152632611062e+000	 1.537317326408362e+000	 9.612346974551397e+000
 1.006285746744259e+000	 1.548410466762821e+000	 9.452992992469715e+000
 9.893181351589695e-001	 1.559306168436700e+000	 9.286323842177888e+000
 9.722532158253990e-001	 1.570003157695046e+000	 9.113082301196988e+000
 9.550944254072042e-001	 1.580500238590789e+000	 8.934012398617504e+000
 9.378452170834997e-001	 1.590796293204986e+000	 8.749843449397972e+000
 9.205090583724285e-001	 1.600890281815093e+000	 8.561279773651178e+000
 9.030894289590297e-001	 1.610781242991693e+000	 8.368991456083524e+000
 1.076989332757142e+000	 1.508292948031304e+000	 1.007711055012968e+001
 1.060385182246412e+000	 1.520012146700202e+000	 9.944882080878081e+000
 1.043669785828230e+000	 1.531537493790905e+000	 9.803321634785954e+000
 1.026846504440499e+000	 1.542867478936918e+000	 9.653153933511966e+000
 1.009918724321349e+000	 1.554000668681096e+000	 9.495134405350367e+000
 9.928898548352203e-001	 1.564935706934907e+000	 9.330055602065825e+000
 9.757633262921642e-001	 1.575671315364859e+000	 9.158704830922622e+000
 9.585425877631757e-001	 1.586206293706181e+000	 8.981870217208428e+000
 9.412311048943298e-001	 1.596539520003933e+000	 8.800324686620007e+000
 9.238323577225011e-001	 1.606669950781882e+000	 8.614815378823952e+000
 9.063498384953833e-001	 1.616596621139586e+000	 8.426054132926424e+000
 1.080863583231503e+000	 1.513718725704410e+000	 1.011795232692854e+001
 1.064199702660327e+000	 1.525480081811258e+000	 9.986608959803348e+000
 1.047424175997117e+000	 1.537046888998154e+000	 9.846106862247764e+000
 1.030540376270066e+000	 1.548417631465377e+000	 9.697221499453141e+000
 1.013551701898611e+000	 1.559590870599219e+000	 9.540765669589247e+000
 9.964615745116900e-001	 1.570565245432902e+000	 9.377569000696507e+000
 9.792734367592008e-001	 1.581339473034401e+000	 9.208487479761711e+000
 9.619907501194712e-001	 1.591912348821241e+000	 9.034357434116380e+000
 9.446169927055365e-001	 1.602282746802487e+000	 8.856004709326294e+000
 9.271556570729986e-001	 1.612449619748221e+000	 8.674228694596959e+000
 9.096102480322056e-001	 1.622411999286977e+000	 8.489792509366092e+000
 1.084737833706065e+000	 1.519144503377448e+000	 1.016165582720078e+001
 1.068014223074453e+000	 1.530948016922200e+000	 1.003126352187340e+001
 1.051178566166237e+000	 1.542556284205236e+000	 9.891935299950438e+000
 1.034234248099904e+000	 1.553967783993609e+000	 9.744505601993710e+000
 1.017184679476191e+000	 1.565181072517051e+000	 9.589847709129208e+000
 1.000033294188532e+000	 1.576194783930540e+000	 9.428853121047798e+000
 9.827835472266669e-001	 1.587007630703517e+000	 9.262439323596116e+000
 9.654389124762561e-001	 1.597618403935809e+000	 9.091505270826453e+000
 9.480028805172913e-001	 1.608025973600485e+000	 8.916938939757044e+000
 9.304789564241000e-001	 1.618229288713945e+000	 8.739601298391259e+000
 9.128706575696799e-001	 1.628227377433698e+000	 8.560316168507555e+000
 8.802665622022525e-001	 1.570073595956371e+000	 8.146401196008526e+000
 8.632117660604605e-001	 1.579514434436757e+000	 7.946603087149662e+000
 8.460824421210690e-001	 1.588755792347743e+000	 7.745447369849004e+000
 8.288820044598098e-001	 1.597796962967234e+000	 7.544040359938072e+000
 8.116138705974474e-001	 1.606637315540310e+000	 7.343468664693448e+000
 7.942814594428975e-001	 1.615276295033541e+000	 7.144794474092505e+000
 7.768881892555959e-001	 1.623713421824429e+000	 6.949051830392445e+000
 7.594374756294086e-001	 1.631948291327146e+000	 6.757243870720731e+000
 7.419327295003328e-001	 1.639980573555821e+000	 6.570341027077887e+000
 7.243773551801412e-001	 1.647810012626662e+000	 6.389280158227761e+000
 7.067747484180751e-001	 1.655436426200365e+000	 6.214964578475918e+000
 8.835269717404662e-001	 1.575888974103115e+000	 8.160150198100947e+000
 8.664090065285576e-001	 1.585364780400400e+000	 7.958889849332093e+000
 8.492162374763993e-001	 1.594640367274438e+000	 7.756108099270168e+000
 8.319520913050782e-001	 1.603715025385501e+000	 7.552821956416513e+000
 8.146199981934758e-001	 1.612588121642420e+000	 7.350026477217627e+000
 7.972233897137646e-001	 1.621259098955965e+000	 7.148690208913544e+000
 7.797656967862306e-001	 1.629727475927164e+000	 6.949751641572300e+000
 7.622503476557205e-001	 1.637992846471639e+000	 6.754116663444727e+000
 7.446807658919559e-001	 1.646054879381276e+000	 6.562657003208678e+000
 7.270603684159014e-001	 1.653913317824509e+000	 6.376209632486932e+000
 7.093925635542742e-001	 1.661567978786661e+000	 6.195577092299498e+000
 8.867873812778638e-001	 1.581704352250523e+000	 8.179691049460288e+000
 8.696062469958423e-001	 1.591215126364653e+000	 7.977671448330908e+000
 8.523500328309214e-001	 1.600524942201680e+000	 7.774077739392337e+000
 8.350221781495452e-001	 1.609633087804250e+000	 7.569840761486238e+000
 8.176261257887098e-001	 1.618538927744937e+000	 7.365866855966048e+000
 8.001653199838463e-001	 1.627241902878722e+000	 7.163033457650792e+000
 7.826432043160947e-001	 1.635741530030153e+000	 6.962185727035035e+000
 7.650632196812786e-001	 1.644037401616305e+000	 6.764134217326791e+000
 7.474288022828487e-001	 1.652129185206822e+000	 6.569653559045225e+000
 7.297433816509610e-001	 1.660016623022366e+000	 6.379482134458518e+000
 7.120103786898093e-001	 1.667699531372885e+000	 6.194322704158827e+000
 8.900477908146289e-001	 1.587519730398429e+000	 8.205162928197000e+000
 8.728034874625038e-001	 1.597065472329349e+000	 8.003117810658900e+000
 8.554838281848283e-001	 1.606409517129309e+000	 7.799555697031236e+000
 8.380922649934033e-001	 1.615551150223324e+000	 7.595324351087582e+000
 8.206322533833427e-001	 1.624489733847713e+000	 7.391244191060739e+000
 8.031072502533373e-001	 1.633224706801671e+000	 7.188104025190585e+000
 7.855207118453781e-001	 1.641755584133266e+000	 6.986657861811400e+000
 7.678760917062713e-001	 1.650081956761025e+000	 6.787622786989513e+000
 7.501768386731937e-001	 1.658203491032357e+000	 6.591677891597719e+000
 7.324263948854953e-001	 1.666119928220147e+000	 6.399464218985296e+000
 7.146281938248470e-001	 1.673831083958972e+000	 6.211585694158543e+000
 8.933082003509443e-001	 1.593335108546665e+000	 8.236700611087832e+000
 8.760007279287294e-001	 1.602915818294325e+000	 8.035394105613655e+000
 8.586176235383102e-001	 1.612294092057161e+000	 7.832736289942406e+000
 8.411623518368468e-001	 1.621469212642563e+000	 7.629494905074050e+000
 8.236383809775706e-001	 1.630440539950599e+000	 7.426407195066202e+000
 8.060491805224308e-001	 1.639207510724670e+000	 7.224175783634436e+000
 7.883982193742737e-001	 1.647769638236373e+000	 7.023465659802739e+000
 7.706889637308856e-001	 1.656126511905686e+000	 6.824902265053086e+000
 7.529248750631739e-001	 1.664277796857779e+000	 6.629070663007477e+000
 7.351094081196791e-001	 1.672223233417767e+000	 6.436515761664894e+000
 7.172460089595523e-001	 1.679962636544857e+000	 6.247743547704379e+000
 8.965686098869936e-001	 1.599150486695066e+000	 8.274434531958026e+000
 8.791979683947069e-001	 1.608766164259413e+000	 8.074660808312761e+000
 8.617514188915589e-001	 1.618178666985074e+000	 7.873808814162004e+000
 8.442324386800686e-001	 1.627387275061812e+000	 7.672569278507615e+000
 8.266445085715856e-001	 1.636391346053441e+000	 7.471598977881193e+000
 8.089911107913201e-001	 1.645190314647578e+000	 7.271516750424679e+000
 7.912757269029727e-001	 1.653783692339343e+000	 7.072900654771810e+000
 7.735018357553106e-001	 1.662171067050169e+000	 6.876286265616376e+000
 7.556729114529706e-001	 1.670352102682987e+000	 6.682166086140345e+000
 7.377924213536878e-001	 1.678326538615143e+000	 6.490990046173288e+000
 7.198638240940923e-001	 1.686094189130473e+000	 6.303167044167254e+000
 8.998290194229609e-001	 1.604965864843464e+000	 8.318490839720885e+000
 8.823952088606245e-001	 1.614616510224449e+000	 8.121073762243288e+000
 8.648852142447659e-001	 1.624063241912885e+000	 7.922957610728170e+000
 8.473025255232624e-001	 1.633305337480912e+000	 7.724759072207618e+000
 8.296506361655831e-001	 1.642342152156092e+000	 7.527057120765801e+000
 8.119330410601997e-001	 1.651173118570255e+000	 7.330389165495310e+000
 7.941532344316662e-001	 1.659797746442048e+000	 7.135248380257577e+000
 7.763147077797333e-001	 1.668215622194357e+000	 6.942082206570963e+000
 7.584209478427668e-001	 1.676426408507879e+000	 6.751292008930024e+000
 7.404754345876963e-001	 1.684429843812191e+000	 6.563233850262600e+000
 7.224816392286320e-001	 1.692225741715756e+000	 6.378220344158231e+000
 9.030894289590297e-001	 1.610781242991693e+000	 8.368991456083524e+000
 8.855924493266706e-001	 1.620466856189266e+000	 8.174784241337548e+000
 8.680190095981221e-001	 1.629947816840433e+000	 7.980362131796983e+000
 8.503726123666219e-001	 1.639223399899708e+000	 7.786270702571027e+000
 8.326567637597575e-001	 1.648292958258401e+000	 7.593013749524812e+000
 8.148749713292621e-001	 1.657155922492560e+000	 7.401049567471505e+000
 7.970307419605464e-001	 1.665811800544357e+000	 7.210788448439854e+000
 7.791275798043416e-001	 1.674260177338135e+000	 7.022591390775359e+000
 7.611689842327447e-001	 1.682500714332355e+000	 6.836769997501492e+000
 7.431584478218802e-001	 1.690533149008824e+000	 6.653587530467981e+000
 7.250994543633376e-001	 1.698357294300641e+000	 6.473261075448338e+000
 9.063498384953833e-001	 1.616596621139586e+000	 8.426054132926424e+000
 8.887896897930325e-001	 1.626317202153701e+000	 8.235939011588949e+000
 8.711528049518191e-001	 1.635832391767555e+000	 8.046197006169711e+000
 8.534426992103396e-001	 1.645141462318039e+000	 7.857305470683711e+000
 8.356628913543031e-001	 1.654243764360218e+000	 7.669695606869217e+000
 8.178169015987024e-001	 1.663138726414351e+000	 7.483748868943596e+000
 7.999082494898043e-001	 1.671825854646140e+000	 7.299794627982617e+000
 7.819404518293236e-001	 1.680304732481384e+000	 7.118109086119625e+000
 7.639170206230865e-001	 1.688575020156310e+000	 6.938915418104251e+000
 7.458414610564141e-001	 1.696636454204960e+000	 6.762385105554222e+000
 7.277172694983755e-001	 1.704488846885063e+000	 6.588640417568001e+000
 9.096102480322056e-001	 1.622411999286977e+000	 8.489792509366092e+000
 8.919869302598991e-001	 1.632167548117587e+000	 8.304680392215822e+000
 8.742866003060481e-001	 1.641716966694088e+000	 8.120632104244839e+000
 8.565127860546103e-001	 1.651059524735752e+000	 7.938059630738134e+000
 8.386690189494137e-001	 1.660194570461393e+000	 7.757324123975004e+000
 8.207588318687134e-001	 1.669121530335487e+000	 7.578732430836514e+000
 8.027857570196315e-001	 1.677839908747267e+000	 7.402534920879363e+000
 7.847533238548664e-001	 1.686349287623988e+000	 7.228924604507074e+000
 7.666650570139753e-001	 1.694649325979646e+000	 7.058037517887199e+000
 7.485244742914735e-001	 1.702739759400515e+000	 6.889954338735383e+000
 7.303350846339108e-001	 1.710620399468956e+000	 6.724703185119728e+000
 9.128706575696799e-001	 1.628227377433698e+000	 8.560316168507555e+000
 8.951841707274577e-001	 1.638017894080757e+000	 8.381146316389028e+000
 8.774203956610007e-001	 1.647601541619870e+000	 8.203832602410008e+000
 8.595828728996265e-001	 1.656977587152687e+000	 8.028724457778155e+000
 8.416751465452838e-001	 1.666145376561775e+000	 7.856115491261731e+000
 8.237007621394887e-001	 1.675104334255827e+000	 7.686240135899543e+000
 8.056632645502202e-001	 1.683853962847609e+000	 7.519271638326496e+000
 7.875661958811588e-001	 1.692393842765832e+000	 7.355321379781087e+000
 7.694130934055927e-001	 1.700723631802261e+000	 7.194439504543078e+000
 7.512074875272330e-001	 1.708843064595402e+000	 7.036616818696828e+000
 7.329528997701102e-001	 1.716751952052255e+000	 6.881787909834552e+000
 7.067747484180751e-001	 1.655436426200365e+000	 6.214964578475915e+000
 6.891256442832350e-001	 1.662860803443096e+000	 6.036840946004141e+000
 6.714360551276295e-001	 1.670081948955455e+000	 5.849049532995566e+000
 6.537093420170530e-001	 1.677099898436262e+000	 5.658091493589950e+000
 6.359488499721071e-001	 1.683914758373383e+000	 5.465706432844372e+000
 6.181579061972000e-001	 1.690526705208835e+000	 5.274195202804552e+000
 6.003398183485179e-001	 1.696935984454056e+000	 5.085735149543663e+000
 5.824978728424627e-001	 1.703142909757176e+000	 4.902308012909622e+000
 5.646353332059645e-001	 1.709147861924183e+000	 4.725741008911779e+000
 5.467554384699780e-001	 1.714951287895949e+000	 4.557743409483560e+000
 5.288614016073797e-001	 1.720553699683057e+000	 4.399938672502177e+000
 7.093925635542742e-001	 1.661567978786661e+000	 6.195577092299498e+000
 6.916780890987874e-001	 1.669019855097652e+000	 6.010444553864154e+000
 6.739229796705322e-001	 1.676267746930466e+000	 5.815246424970831e+000
 6.561306087843143e-001	 1.683311690116159e+000	 5.616974327662544e+000
 6.383043338503188e-001	 1.690151791537025e+000	 5.417704156188576e+000
 6.204474943965466e-001	 1.696788228288618e+000	 5.219517967768297e+000
 6.025634103303735e-001	 1.703221246791734e+000	 5.024506957087808e+000
 5.846553802407206e-001	 1.709451161856229e+000	 4.834573343627495e+000
 5.667266797422573e-001	 1.715478355698570e+000	 4.651471988964053e+000
 5.487805598629469e-001	 1.721303276915057e+000	 4.476847376242715e+000
 5.308202454761591e-001	 1.726926439412715e+000	 4.312266008560831e+000
 7.120103786898093e-001	 1.667699531372885e+000	 6.194322704158827e+000
 6.942305339137207e-001	 1.675178906752059e+000	 6.004103348432337e+000
 6.764099042128660e-001	 1.682453544905252e+000	 5.803549472852819e+000
 6.585518755510623e-001	 1.689523481795759e+000	 5.599993258639993e+000
 6.406598177280756e-001	 1.696388824700307e+000	 5.396017614368772e+000
 6.227370825954987e-001	 1.703049751367984e+000	 5.193459633678163e+000
 6.047870023118943e-001	 1.709506509128947e+000	 4.994315851763989e+000
 5.868128876387017e-001	 1.715759413954782e+000	 4.800401089866432e+000
 5.688180262783273e-001	 1.721808849472432e+000	 4.613390616544906e+000
 5.508056812557428e-001	 1.727655265933628e+000	 4.434857532247550e+000
 5.327790893448081e-001	 1.733299179141840e+000	 4.266305437888882e+000
 7.146281938248470e-001	 1.673831083958972e+000	 6.211585694158543e+000
 6.967829787281894e-001	 1.681337958406270e+000	 6.018219209648091e+000
 6.788968287547734e-001	 1.688639342879789e+000	 5.814379602356684e+000
 6.609731423174254e-001	 1.695735273475064e+000	 5.607607613420636e+000
 6.430153016054910e-001	 1.702625857863253e+000	 5.401123789190438e+000
 6.250266707941541e-001	 1.709311274446982e+000	 5.196515795445426e+000
 6.070105942931632e-001	 1.715791771465766e+000	 4.995677044791743e+000
 5.889703950364740e-001	 1.722067666052925e+000	 4.800327133790121e+000
 5.709093728142300e-001	 1.728139343245877e+000	 4.612054557173089e+000
 5.528308026484086e-001	 1.734007254951787e+000	 4.432354502771107e+000
 5.347379332133595e-001	 1.739671918870567e+000	 4.262661791940408e+000
 7.172460089595523e-001	 1.679962636544857e+000	 6.247743547704379e+000
 6.993354235423483e-001	 1.687497010060242e+000	 6.053187113907010e+000
 6.813837532963969e-001	 1.694825140854057e+000	 5.848150710061559e+000
 6.633944090835321e-001	 1.701947065154074e+000	 5.640270093954825e+000
 6.453707854826792e-001	 1.708862891025889e+000	 5.433493153890707e+000
 6.273162589926119e-001	 1.715572797525657e+000	 5.229175611184306e+000
 6.092341862742645e-001	 1.722077033802260e+000	 5.029099336213768e+000
 5.911279024341078e-001	 1.728375918150746e+000	 4.834880924458787e+000
 5.730007193500214e-001	 1.734469837019012e+000	 4.648014972549256e+000
 5.548559240409877e-001	 1.740359243969655e+000	 4.469912288671488e+000
 5.366967770818458e-001	 1.746044658599031e+000	 4.301933106333371e+000
 7.198638240940923e-001	 1.686094189130473e+000	 6.303167044167252e+000
 7.018878683563526e-001	 1.693656061713931e+000	 6.109395224085783e+000
 6.838706778378775e-001	 1.701010938828034e+000	 5.905269755242941e+000
 6.658156758495102e-001	 1.708158856832794e+000	 5.698426786243229e+000
 6.477262693597536e-001	 1.715099924188238e+000	 5.493589690857131e+000
 6.296058471909712e-001	 1.721834320604060e+000	 5.291921828944016e+000
 6.114577782552817e-001	 1.728362296138498e+000	 5.095085150944903e+000
 5.932854098316726e-001	 1.734684170248338e+000	 4.904585523519108e+000
 5.750920658857573e-001	 1.740800330791946e+000	 4.721816576223080e+000
 5.568810454335235e-001	 1.746711232987356e+000	 4.548098332392269e+000
 5.386556209502997e-001	 1.752417398327365e+000	 4.384710697547377e+000
 7.224816392286320e-001	 1.692225741715756e+000	 6.378220344158231e+000
 7.044403131703568e-001	 1.699815113367292e+000	 6.187224978114272e+000
 6.863576023793586e-001	 1.707196736801698e+000	 5.986136850179389e+000
 6.682369426154885e-001	 1.714370648511223e+000	 5.782528241917833e+000
 6.500817532368282e-001	 1.721336957350326e+000	 5.581870907649008e+000
 6.318954353893304e-001	 1.728095843682236e+000	 5.385230811639155e+000
 6.136813702362994e-001	 1.734647558474552e+000	 5.194130572910039e+000
 5.954429172292370e-001	 1.740992422345786e+000	 5.009957648859264e+000
 5.771834124214930e-001	 1.747130824564785e+000	 4.833997687092815e+000
 5.589061668260594e-001	 1.753063222005010e+000	 4.667473581645112e+000
 5.406144648187535e-001	 1.758790138055704e+000	 4.511579237152168e+000
 7.250994543633376e-001	 1.698357294300641e+000	 6.473261075448338e+000
 7.069927579845159e-001	 1.705974165020281e+000	 6.287051176129821e+000
 6.888445269209820e-001	 1.713382534775026e+000	 6.091145348970671e+000
 6.706582093815950e-001	 1.720582440189363e+000	 5.893038639471010e+000
 6.524372371140166e-001	 1.727573990512178e+000	 5.698787851361563e+000
 6.341850235877884e-001	 1.734357366760234e+000	 5.509572560225549e+000
 6.159049622174005e-001	 1.740932820810489e+000	 5.326725377317916e+000
 5.976004246268710e-001	 1.747300674443183e+000	 5.151507716282026e+000
 5.792747589572844e-001	 1.753461318337636e+000	 4.985090280793682e+000
 5.609312882186387e-001	 1.759415211022741e+000	 4.828592550843651e+000
 5.425733086872400e-001	 1.765162877784180e+000	 4.683116823628699e+000
 7.277172694983755e-001	 1.704488846885063e+000	 6.588640417568001e+000
 7.095452027989849e-001	 1.712133216672855e+000	 6.409242066250920e+000
 6.913314514628894e-001	 1.719568332747999e+000	 6.220681934906296e+000
 6.730794761479583e-001	 1.726794231867214e+000	 6.030368572036860e+000
 6.547927209914322e-001	 1.733811023673818e+000	 5.844785121376186e+000
 6.364746117864439e-001	 1.740618889838102e+000	 5.665410735167928e+000
 6.181285541986700e-001	 1.747218083146380e+000	 5.493353061120122e+000
 5.997579320246437e-001	 1.753608926540618e+000	 5.329739879246396e+000
 5.813661054931871e-001	 1.759791812110608e+000	 5.175620039024969e+000
 5.629564096113042e-001	 1.765767200040672e+000	 5.032003380338383e+000
 5.445321525557914e-001	 1.771535617512930e+000	 4.899895051845268e+000
 7.303350846339108e-001	 1.710620399468956e+000	 6.724703185119728e+000
 7.120976476139183e-001	 1.718292268324968e+000	 6.554159429004559e+000
 6.938183760052235e-001	 1.725754130720593e+000	 6.375126706420657e+000
 6.755007429147064e-001	 1.733006023544780e+000	 6.194917853345825e+000
 6.571482048691891e-001	 1.740048056835272e+000	 6.020300880536432e+000
 6.387641999853959e-001	 1.746880412915887e+000	 5.853202676237375e+000
 6.203521461801904e-001	 1.753503345482293e+000	 5.694490871698626e+000
 6.019154394226245e-001	 1.759917178638180e+000	 5.545152066723517e+000
 5.834574520292573e-001	 1.766122305883808e+000	 5.406106396871850e+000
 5.649815310041002e-001	 1.772119189058925e+000	 5.278247893509077e+000
 5.464909964244404e-001	 1.777908357242085e+000	 5.162479080245445e+000
 7.329528997701102e-001	 1.716751952052255e+000	 6.881787909834552e+000
 7.146500924294713e-001	 1.724451319976578e+000	 6.722158660440453e+000
 6.963053005481267e-001	 1.731939928692788e+000	 6.554853261669870e+000
 6.779220096819681e-001	 1.739217815222061e+000	 6.387079665765220e+000
 6.595036887474008e-001	 1.746285089996563e+000	 6.225766864791601e+000
 6.410537881847429e-001	 1.753141935993637e+000	 6.073399420685300e+000
 6.225757381620465e-001	 1.759788607818298e+000	 5.930609833826861e+000
 6.040729468208826e-001	 1.766225430735958e+000	 5.798236019218587e+000
 5.855487985655503e-001	 1.772452799657344e+000	 5.677062588168984e+000
 5.670066523970694e-001	 1.778471178077622e+000	 5.567861651771263e+000
 5.484498402932199e-001	 1.784281096971782e+000	 5.471427695807399e+000
 5.288614016073797e-001	 1.720553699683057e+000	 4.399938672502177e+000
 5.109564077608105e-001	 1.725955672830829e+000	 4.254743660038944e+000
 4.930436120318122e-001	 1.731157843990140e+000	 4.122617869146263e+000
 4.751261388703033e-001	 1.736160911033619e+000	 4.002207366718031e+000
 4.572070809622256e-001	 1.740965632275259e+000	 3.892181318009555e+000
 4.392894979040813e-001	 1.745572825227723e+000	 3.791247816375326e+000
 4.213764149270760e-001	 1.749983365329664e+000	 3.698166108104047e+000
 4.034708216714287e-001	 1.754198184645169e+000	 3.611755451881441e+000
 3.855756710113190e-001	 1.758218270537386e+000	 3.530900868174126e+000
 3.676938779308517e-001	 1.762044664318403e+000	 3.454556046551101e+000
 3.498283184513297e-001	 1.765678459877450e+000	 3.381743688678925e+000
 5.308202454761591e-001	 1.726926439412715e+000	 4.312266008560831e+000
 5.128489335219464e-001	 1.732348420868630e+000	 4.160068007350541e+000
 4.948697907879952e-001	 1.737569860291762e+000	 4.020733716996813e+000
 4.768859532968365e-001	 1.742591458139576e+000	 3.893011879175340e+000
 4.589005251893766e-001	 1.747413975534780e+000	 3.775683659867172e+000
 4.409165773945198e-001	 1.752038233018001e+000	 3.667577930484200e+000
 4.229371463485911e-001	 1.756465109270422e+000	 3.567582853450537e+000
 4.049652327651024e-001	 1.760695539808388e+000	 3.474654020296350e+000
 3.870038004553492e-001	 1.764730515652127e+000	 3.387819406359896e+000
 3.690557752002124e-001	 1.768571081970627e+000	 3.306181419136188e+000
 3.511240436734558e-001	 1.772218336704760e+000	 3.228916327155522e+000
 5.327790893448081e-001	 1.733299179141840e+000	 4.266305437888882e+000
 5.147414592829877e-001	 1.738741168905919e+000	 4.109998215730757e+000
 4.966959695441108e-001	 1.743981876592904e+000	 3.966415399294793e+000
 4.786457677233223e-001	 1.749022005245103e+000	 3.834369346672060e+000
 4.605939694164905e-001	 1.753862318793922e+000	 3.712713746876470e+000
 4.425436568849251e-001	 1.758503640807968e+000	 3.600358418832045e+000
 4.244978777700678e-001	 1.762946853210943e+000	 3.496280321527035e+000
 4.064596438587249e-001	 1.767192894971447e+000	 3.399531031947271e+000
 3.884319298993076e-001	 1.771242760766789e+000	 3.309240963753328e+000
 3.704176724694722e-001	 1.775097499622856e+000	 3.224620612813193e+000
 3.524197688954444e-001	 1.778758213532161e+000	 3.144959125696365e+000
 5.347379332133595e-001	 1.739671918870567e+000	 4.262661791940408e+000
 5.166339850439580e-001	 1.745133916942836e+000	 4.105158142854037e+000
 4.985221483001757e-001	 1.750393892893712e+000	 3.960294469441158e+000
 4.804055821497716e-001	 1.755452552350340e+000	 3.826908185555459e+000
 4.622874136435771e-001	 1.760310662052832e+000	 3.703886535261581e+000
 4.441707363753049e-001	 1.764969048597763e+000	 3.590180975306044e+000
 4.260586091915158e-001	 1.769428597151354e+000	 3.484817672778685e+000
 4.079540549523092e-001	 1.773690250134467e+000	 3.386904383190407e+000
 3.898600593432121e-001	 1.777755005881483e+000	 3.295633990851830e+000
 3.717795697386564e-001	 1.781623917275190e+000	 3.210285006801841e+000
 3.537154941173296e-001	 1.785298090359737e+000	 3.130219329693703e+000
 5.366967770818458e-001	 1.746044658599031e+000	 4.301933106333371e+000
 5.185265108048808e-001	 1.751526664979524e+000	 4.146164722441450e+000
 5.003483270562070e-001	 1.756805909194333e+000	 4.002995562397343e+000
 4.821653965761968e-001	 1.761883099455437e+000	 3.871250026363467e+000
 4.639808578706451e-001	 1.766759005311653e+000	 3.749810448707901e+000
 4.457978158656681e-001	 1.771434456387523e+000	 3.637631128721359e+000
 4.276193406129448e-001	 1.775910341091791e+000	 3.533748377841898e+000
 4.094484660458677e-001	 1.780187605297570e+000	 3.437286857276832e+000
 3.912881887870805e-001	 1.784267250996319e+000	 3.347462496880497e+000
 3.731414670077904e-001	 1.788150334927723e+000	 3.263582299751040e+000
 3.550112193391459e-001	 1.791837967187569e+000	 3.185041347328688e+000
 5.386556209502997e-001	 1.752417398327365e+000	 4.384710697547377e+000
 5.204190365657798e-001	 1.757919413016124e+000	 4.233628050314663e+000
 5.021745058122215e-001	 1.763217925494912e+000	 4.095136487117227e+000
 4.839252110026102e-001	 1.768313646560540e+000	 3.968009809780636e+000
 4.656743020977039e-001	 1.773207348570528e+000	 3.851087475108882e+000
 4.474248953560228e-001	 1.777899864177388e+000	 3.743288337756973e+000
 4.291800720343642e-001	 1.782392085032381e+000	 3.643620308198958e+000
 4.109428771394136e-001	 1.786684960460876e+000	 3.551186208385707e+000
 3.927163182309312e-001	 1.790779496111406e+000	 3.465186124996074e+000
 3.745033642768990e-001	 1.794676752580552e+000	 3.384916574038075e+000
 3.563069445609279e-001	 1.798377844015737e+000	 3.309766801022732e+000
 5.406144648187535e-001	 1.758790138055704e+000	 4.511579237152168e+000
 5.223115623266789e-001	 1.764312161052779e+000	 4.368151467852264e+000
 5.040006845682359e-001	 1.769629941795594e+000	 4.237328316308296e+000
 4.856850254290233e-001	 1.774744193665795e+000	 4.117795879906560e+000
 4.673677463247629e-001	 1.779655691829604e+000	 4.008313260668773e+000
 4.490519748463777e-001	 1.784365271967498e+000	 3.907726083347644e+000
 4.307408034557834e-001	 1.788873828973259e+000	 3.814975824434698e+000
 4.124372882329595e-001	 1.793182315624507e+000	 3.729105243449463e+000
 3.941444476747816e-001	 1.797291741226853e+000	 3.649260225519377e+000
 3.758652615460078e-001	 1.801203170233773e+000	 3.574688358373006e+000
 3.576026697827099e-001	 1.804917720844325e+000	 3.504734577511224e+000
 5.425733086872400e-001	 1.765162877784180e+000	 4.683116823628699e+000
 5.242040880876014e-001	 1.770704909089630e+000	 4.550331642907941e+000
 5.058268633242670e-001	 1.776041958096526e+000	 4.430175473588540e+000
 4.874448398554488e-001	 1.781174740771349e+000	 4.321210074909083e+000
 4.690611905518310e-001	 1.786104035089022e+000	 4.222077201434425e+000
 4.506790543367408e-001	 1.790830679757990e+000	 4.131511958592487e+000
 4.323015348772123e-001	 1.795355572914553e+000	 4.048351862150904e+000
 4.139316993265182e-001	 1.799679670788585e+000	 3.971541901829489e+000
 3.955725771186502e-001	 1.803803986342771e+000	 3.900135927246218e+000
 3.772271588151415e-001	 1.807729587887482e+000	 3.833294688754783e+000
 3.588983950045264e-001	 1.811457597673414e+000	 3.770280876579541e+000
 5.445321525557914e-001	 1.771535617512930e+000	 4.899895051845268e+000
 5.260966138485715e-001	 1.777097657126819e+000	 4.780758648258964e+000
 5.076530420803319e-001	 1.782453974397854e+000	 4.674275818104950e+000
 4.892046542818982e-001	 1.787605287877348e+000	 4.578847815127867e+000
 4.707546347789175e-001	 1.792552378348927e+000	 4.492962532313602e+000
 4.523061338271208e-001	 1.797296087549003e+000	 4.415207756245038e+000
 4.338622662986603e-001	 1.801837316856396e+000	 4.344280015600866e+000
 4.154261104201024e-001	 1.806177025953231e+000	 4.278989332892458e+000
 3.970007065625546e-001	 1.810316231459269e+000	 4.218260206888106e+000
 3.785890560843259e-001	 1.814256005541777e+000	 4.161129167819079e+000
 3.601941202264115e-001	 1.817997474503085e+000	 4.106739258491961e+000
 5.464909964244404e-001	 1.777908357242085e+000	 5.162479080245445e+000
 5.279891396096128e-001	 1.783490405164487e+000	 5.060016037645142e+000
 5.094792208364476e-001	 1.788865990699722e+000	 4.970220726676613e+000
 4.909644687083836e-001	 1.794035834983939e+000	 4.891298188690180e+000
 4.724480790060316e-001	 1.799000721609464e+000	 4.821546413649559e+000
 4.539332133175257e-001	 1.803761495340678e+000	 4.759369553845055e+000
 4.354229977201372e-001	 1.808319060798918e+000	 4.703286619100985e+000
 4.169205215137250e-001	 1.812674381118566e+000	 4.651935971539860e+000
 3.984288360065130e-001	 1.816828476576456e+000	 4.604075956684835e+000
 3.799509533535858e-001	 1.820782423196752e+000	 4.558582022620409e+000
 3.614898454484001e-001	 1.824537351333421e+000	 4.514440690148262e+000
 5.484498402932199e-001	 1.784281096971782e+000	 5.471427695807399e+000
 5.298816653707491e-001	 1.789883153202778e+000	 5.388680919459229e+000
 5.113053995926307e-001	 1.795278007002279e+000	 5.318595173525519e+000
 4.927242831349172e-001	 1.800466382091268e+000	 5.259144034702397e+000
 4.741415232331826e-001	 1.805449064870776e+000	 5.208400015407380e+000
 4.555602928079645e-001	 1.810226903133151e+000	 5.164547796551104e+000
 4.369837291416522e-001	 1.814800804742252e+000	 5.125892826273764e+000
 4.184149326073985e-001	 1.819171736284711e+000	 5.090865611746767e+000
 3.998569654505434e-001	 1.823340721694442e+000	 5.058022050239239e+000
 3.813128506229466e-001	 1.827308840852505e+000	 5.026040160883366e+000
 3.627855706705263e-001	 1.831077228164503e+000	 4.993713589996869e+000
 3.498283184513297e-001	 1.765678459877450e+000	 3.381743688678925e+000
 3.319845031960278e-001	 1.769120300513190e+000	 3.314069779972577e+000
 3.141625416185881e-001	 1.772371941244703e+000	 3.253740311031136e+000
 2.963651817152860e-001	 1.775434626186778e+000	 3.200790388792685e+000
 2.785951288624198e-001	 1.778309646314946e+000	 3.155287537420863e+000
 2.608550450026426e-001	 1.780998338017287e+000	 3.117322227882419e+000
 2.431475478824362e-001	 1.783502081636492e+000	 3.086997625582027e+000
 2.254752103404711e-001	 1.785822300004091e+000	 3.064418826768642e+000
 2.078405596465077e-001	 1.787960456968690e+000	 3.049681844152163e+000
 1.902460768904307e-001	 1.789918055920011e+000	 3.042862590179022e+000
 1.726941964209537e-001	 1.791696638310540e+000	 3.044006092867700e+000
 3.511240436734558e-001	 1.772218336704760e+000	 3.228916327155522e+000
 3.332141369090890e-001	 1.775672925535893e+000	 3.157725096535287e+000
 3.153261647661564e-001	 1.778936609983506e+000	 3.094738261097434e+000
 2.974628854192032e-001	 1.782010638770450e+000	 3.039893900295886e+000
 2.796270142649395e-001	 1.784896307653890e+000	 2.993162311712255e+000
 2.618212231055554e-001	 1.787594957971737e+000	 2.954535933030762e+000
 2.440481393833732e-001	 1.790107975179323e+000	 2.924018470789240e+000
 2.263103454665696e-001	 1.792436787378191e+000	 2.901613514281276e+000
 2.086103779856294e-001	 1.794582863838879e+000	 2.887312902409481e+000
 1.909507272201167e-001	 1.796547713519502e+000	 2.881085098933685e+000
 1.733338365353001e-001	 1.798332883581914e+000	 2.882863817637913e+000
 3.524197688954444e-001	 1.778758213532161e+000	 3.144959125696365e+000
 3.344437706219684e-001	 1.782225550558773e+000	 3.072004173628023e+000
 3.164897879134932e-001	 1.785501278722566e+000	 3.007802667609662e+000
 2.985605891228380e-001	 1.788586651354454e+000	 2.952215612829078e+000
 2.806588996671267e-001	 1.791482968993232e+000	 2.905137763355589e+000
 2.627874012080904e-001	 1.794191577926644e+000	 2.866486842725398e+000
 2.449487308838938e-001	 1.796713868722657e+000	 2.836191959111297e+000
 2.271454805922235e-001	 1.799051274752824e+000	 2.814181501446454e+000
 2.093801963242912e-001	 1.801205270709615e+000	 2.800370791967418e+000
 1.916553775493431e-001	 1.803177371119533e+000	 2.794649757933027e+000
 1.739734766492058e-001	 1.804969128853802e+000	 2.796870870949457e+000
 3.537154941173296e-001	 1.785298090359737e+000	 3.130219329693703e+000
 3.356734043347111e-001	 1.788778175581896e+000	 3.057195125802920e+000
 3.176534110606567e-001	 1.792065947461933e+000	 2.993179090451704e+000
 2.996582928262621e-001	 1.795162663938824e+000	 2.937974961083940e+000
 2.816907850690670e-001	 1.798069630332990e+000	 2.891423476928364e+000
 2.637535793103460e-001	 1.800788197882008e+000	 2.853390804301929e+000
 2.458493223841093e-001	 1.803319762266476e+000	 2.823756143403833e+000
 2.279806157175549e-001	 1.805665762127958e+000	 2.802398811281415e+000
 2.101500146626243e-001	 1.807827677580852e+000	 2.789185084429895e+000
 1.923600278782481e-001	 1.809807028720049e+000	 2.783955071389945e+000
 1.746131167628130e-001	 1.811605374126138e+000	 2.786509870986212e+000
 3.550112193391459e-001	 1.791837967187569e+000	 3.185041347328688e+000
 3.369030380473631e-001	 1.795330800605328e+000	 3.113583982426394e+000
 3.188170342077054e-001	 1.798630616201657e+000	 3.051111498297938e+000
 3.007559965295466e-001	 1.801738676523592e+000	 2.997390028972820e+000
 2.827226704708454e-001	 1.804656291673181e+000	 2.952227677822535e+000
 2.647197574124207e-001	 1.807384817837827e+000	 2.915462053574855e+000
 2.467499138841306e-001	 1.809925655810766e+000	 2.886946973817189e+000
 2.288157508426862e-001	 1.812280249503562e+000	 2.866538639322146e+000
 2.109198330007605e-001	 1.814450084452546e+000	 2.854081570959187e+000
 1.930646782069701e-001	 1.816436686320991e+000	 2.849394587488701e+000
 1.752527568762639e-001	 1.818241619398853e+000	 2.852257087375773e+000
 3.563069445609279e-001	 1.798377844015737e+000	 3.309766801022732e+000
 3.381326717599695e-001	 1.801883425629134e+000	 3.241454727526220e+000
 3.199806573546968e-001	 1.805195284941788e+000	 3.181842301155996e+000
 3.018537002327632e-001	 1.808314689108793e+000	 3.130677579113249e+000
 2.837545558725469e-001	 1.811242953013821e+000	 3.087757262858118e+000
 2.656859355144134e-001	 1.813981437794106e+000	 3.052913250700823e+000
 2.476505053840688e-001	 1.816531549355510e+000	 3.025998342974605e+000
 2.296508859677397e-001	 1.818894736879607e+000	 3.006871412108648e+000
 2.116896513388311e-001	 1.821072491324651e+000	 2.995382337997256e+000
 1.937693285356475e-001	 1.823066343922303e+000	 2.991356995196032e+000
 1.758923969897006e-001	 1.824877864671881e+000	 2.994582562877427e+000
 3.576026697827099e-001	 1.804917720844325e+000	 3.504734577511224e+000
 3.393623054725760e-001	 1.808436050653380e+000	 3.441089338550833e+000
 3.211442805016893e-001	 1.811759953682375e+000	 3.385612382014281e+000
 3.029514039359832e-001	 1.814890701694459e+000	 3.338053081511512e+000
 2.847864412742568e-001	 1.817829614354928e+000	 3.298217830095700e+000
 2.666521136164224e-001	 1.820578057750842e+000	 3.265955515154115e+000
 2.485510968840352e-001	 1.823137442900694e+000	 3.241142130074722e+000
 2.304860210928375e-001	 1.825509224256060e+000	 3.223664844321615e+000
 2.124594696769679e-001	 1.827694898197124e+000	 3.213405841276269e+000
 1.944739788644185e-001	 1.829696001523927e+000	 3.210226218919108e+000
 1.765320371032655e-001	 1.831514109945151e+000	 3.213950232386210e+000
 3.588983950045264e-001	 1.811457597673414e+000	 3.770280876579541e+000
 3.405919391852283e-001	 1.814988675678134e+000	 3.712767824068347e+000
 3.223079036487410e-001	 1.818324622423470e+000	 3.662661127615975e+000
 3.040491076392786e-001	 1.821466714280624e+000	 3.619730741467111e+000
 2.858183266760603e-001	 1.824416275696517e+000	 3.583813707867878e+000
 2.676182917185462e-001	 1.827174677708035e+000	 3.554798459827218e+000
 2.494516883841406e-001	 1.829743336446300e+000	 3.532608243946049e+000
 2.313211562181019e-001	 1.832123711632891e+000	 3.517183994609349e+000
 2.132292880153021e-001	 1.834317305069920e+000	 3.508466978169351e+000
 1.951786291934216e-001	 1.836325659125807e+000	 3.506381511068331e+000
 1.771716772171005e-001	 1.838150355218598e+000	 3.510818039326954e+000
 3.601941202264115e-001	 1.817997474503085e+000	 4.106739258491961e+000
 3.418215728979718e-001	 1.821541300703462e+000	 4.056768260431811e+000
 3.234715267959101e-001	 1.824889291165121e+000	 4.013226458376854e+000
 3.051468113427203e-001	 1.828042726867322e+000	 3.975923526709755e+000
 2.868502120780425e-001	 1.831002937038606e+000	 3.944747983049170e+000
 2.685844698208832e-001	 1.833771297665686e+000	 3.919650224283452e+000
 2.503522798844964e-001	 1.836349229992314e+000	 3.900624665079164e+000
 2.321562913436554e-001	 1.838738199010071e+000	 3.887691320131911e+000
 2.139991063539654e-001	 1.840939711942993e+000	 3.880877158420133e+000
 1.958832795227951e-001	 1.842955316727885e+000	 3.880197542573719e+000
 1.778113173313480e-001	 1.844786600492154e+000	 3.885638049495621e+000
 3.614898454484001e-001	 1.824537351333421e+000	 4.514440690148262e+000
 3.430512066108521e-001	 1.828093925729429e+000	 4.473366827438864e+000
 3.246351499432543e-001	 1.831453959907378e+000	 4.437544857475782e+000
 3.062445150463800e-001	 1.834618739454583e+000	 4.406843193798437e+000
 2.878820974802883e-001	 1.837589598381210e+000	 4.381222528583403e+000
 2.695506479235322e-001	 1.840367917623796e+000	 4.360717507188229e+000
 2.512528713852136e-001	 1.842955123538720e+000	 4.345417486665031e+000
 2.329914264696200e-001	 1.845352686387568e+000	 4.335446729859771e+000
 2.147689246930894e-001	 1.847562118816300e+000	 4.330944373288619e+000
 1.965879298526772e-001	 1.849584974330105e+000	 4.332044491408293e+000
 1.784509574461501e-001	 1.851422845765750e+000	 4.338856562421202e+000
 3.627855706705263e-001	 1.831077228164503e+000	 4.993713589996869e+000
 3.442808403239148e-001	 1.834646550756103e+000	 4.962837843007178e+000
 3.257987730908322e-001	 1.838018628650293e+000	 4.935851399133129e+000
 3.073422187503291e-001	 1.841194752042445e+000	 4.912700313790847e+000
 2.889139828828835e-001	 1.844176259724348e+000	 4.893438030289411e+000
 2.705168260265918e-001	 1.846964537582363e+000	 4.878205597926500e+000
 2.521534628864030e-001	 1.849561017085502e+000	 4.867210954660775e+000
 2.338265615961181e-001	 1.851967173765351e+000	 4.860707636655365e+000
 2.155387430328055e-001	 1.854184525689797e+000	 4.858973263160680e+000
 1.972925801832064e-001	 1.856214631932410e+000	 4.862288129168847e+000
 1.790905975616490e-001	 1.858059091039320e+000	 4.870914220302225e+000
 1.726941964209537e-001	 1.791696638310540e+000	 3.044006092867700e+000
 1.551846886213330e-001	 1.793298009200866e+000	 3.050889667780072e+000
 1.377225603141458e-001	 1.794723502569441e+000	 3.060406145584341e+000
 1.203101389499272e-001	 1.795974766340585e+000	 3.071241468110748e+000
 1.029497023619784e-001	 1.797053480637194e+000	 3.082069503985327e+000
 8.564347844994923e-002	 1.797961356299908e+000	 3.091546575333520e+000
 6.839364491017026e-002	 1.798700133414114e+000	 3.098307149025633e+000
 5.120232901183534e-002	 1.799271579846228e+000	 3.100960808031807e+000
 3.407160741809868e-002	 1.799677489790610e+000	 3.098090599646584e+000
 1.700350605111390e-002	 1.799919682328466e+000	 3.088252838608090e+000
 0.000000000000000e+000	 1.800000000000000e+000	 3.069978433320271e+000
 1.733338365353001e-001	 1.798332883581914e+000	 2.882863817637913e+000
 1.557594754639657e-001	 1.799940185772448e+000	 2.890475278439906e+000
 1.382326693734365e-001	 1.801370959010450e+000	 2.900789300531387e+000
 1.207557543349032e-001	 1.802626857323959e+000	 2.912277590553785e+000
 1.033310166185455e-001	 1.803709567058843e+000	 2.923409754744240e+000
 8.596069237594199e-002	 1.804620805392491e+000	 2.932647119917134e+000
 6.864696736940455e-002	 1.805362318855363e+000	 2.938437749975210e+000
 5.139197674733079e-002	 1.805935881861839e+000	 2.939212777897640e+000
 3.419780486463918e-002	 1.806343295251763e+000	 2.933384153802744e+000
 1.706648514730789e-002	 1.806586384844004e+000	 2.919343890442186e+000
 0.000000000000000e+000	 1.806667000003317e+000	 2.895464877467951e+000
 1.739734766492058e-001	 1.804969128853802e+000	 2.796870870949457e+000
 1.563342623061966e-001	 1.806582362344496e+000	 2.805010130595822e+000
 1.387427784323800e-001	 1.808018415451863e+000	 2.816074807970033e+000
 1.212013697195968e-001	 1.809278948307660e+000	 2.828436998861314e+000
 1.037123308748993e-001	 1.810365653480736e+000	 2.840469285280871e+000
 8.627790630179005e-002	 1.811280254485235e+000	 2.850537855431063e+000
 6.890028982855632e-002	 1.812024504296691e+000	 2.856996861983719e+000
 5.158162448279448e-002	 1.812600183877458e+000	 2.858184142654800e+000
 3.432400231118199e-002	 1.813009100712867e+000	 2.852418407196978e+000
 1.712946424351644e-002	 1.813253087359456e+000	 2.837997975134441e+000
 0.000000000000000e+000	 1.813334000006534e+000	 2.813201138343160e+000
 1.746131167628130e-001	 1.811605374126138e+000	 2.786509870986212e+000
 1.569090491481685e-001	 1.813224538916936e+000	 2.795042083481543e+000
 1.392528874911161e-001	 1.814665871893596e+000	 2.806822302740960e+000
 1.216469851041413e-001	 1.815931039291598e+000	 2.820236702350380e+000
 1.040936451311638e-001	 1.817021739902778e+000	 2.833667194456723e+000
 8.659512022760428e-002	 1.817939703578042e+000	 2.845483852732642e+000
 6.915361228772043e-002	 1.818686689738000e+000	 2.854038628167349e+000
 5.177127221830204e-002	 1.819264485892985e+000	 2.857660485415258e+000
 3.445019975778045e-002	 1.819674906173823e+000	 2.854652067002214e+000
 1.719244333976770e-002	 1.819919789874721e+000	 2.843287972336392e+000
 0.000000000000000e+000	 1.820001000009551e+000	 2.821814728023515e+000
 1.752527568762639e-001	 1.818241619398853e+000	 2.852257087375773e+000
 1.574838359900237e-001	 1.819866715489690e+000	 2.861111538179904e+000
 1.397629965497844e-001	 1.821313328335564e+000	 2.873583642638630e+000
 1.220926004886701e-001	 1.822583130275685e+000	 2.888186421446874e+000
 1.044749593874626e-001	 1.823677826324880e+000	 2.903416603006800e+000
 8.691233415349546e-002	 1.824599152670816e+000	 2.917746352682827e+000
 6.940693474699164e-002	 1.825348875179193e+000	 2.929616361109707e+000
 5.196091995392911e-002	 1.825928787908323e+000	 2.937430422724235e+000
 3.457639720448801e-002	 1.826340711634531e+000	 2.939551614667535e+000
 1.725542243608985e-002	 1.826586492389699e+000	 2.934300165283633e+000
 0.000000000000000e+000	 1.826668000012267e+000	 2.919953090743960e+000
 1.758923969897006e-001	 1.824877864671881e+000	 2.994582562877427e+000
 1.580586228319054e-001	 1.826508892062683e+000	 3.003751578914663e+000
 1.402731056085246e-001	 1.827960784777684e+000	 3.016903054834306e+000
 1.225382158733166e-001	 1.829235221259832e+000	 3.032788724501497e+000
 1.048562736439193e-001	 1.830333912746944e+000	 3.050124765756987e+000
 8.722954807957452e-002	 1.831258601763462e+000	 3.067582838541807e+000
 6.966025720646474e-002	 1.832011060620171e+000	 3.083782559985111e+000
 5.215056768975129e-002	 1.832593089923371e+000	 3.097285550753174e+000
 3.470259465135805e-002	 1.833006517094890e+000	 3.106591165329888e+000
 1.731840153251105e-002	 1.833253194904292e+000	 3.110133997392560e+000
 0.000000000000000e+000	 1.833335000014584e+000	 3.106283240476562e+000
 1.765320371032655e-001	 1.831514109945151e+000	 3.213950232386210e+000
 1.586334096739557e-001	 1.833151068635837e+000	 3.223488111241748e+000
 1.407832146674764e-001	 1.834608241219873e+000	 3.237317279094409e+000
 1.229838312582139e-001	 1.835887312243949e+000	 3.254539161617515e+000
 1.052375879006579e-001	 1.836989999168881e+000	 3.274193181394731e+000
 8.754676200595221e-002	 1.837918050855882e+000	 3.295247106785651e+000
 6.991357966623453e-002	 1.838673246060836e+000	 3.316588927307444e+000
 5.234021542584418e-002	 1.839257391938031e+000	 3.337020392661986e+000
 3.482879209844394e-002	 1.839672322554802e+000	 3.355252330281953e+000
 1.738138062905946e-002	 1.839919897418398e+000	 3.369901834148572e+000
 0.000000000000000e+000	 1.840002000016400e+000	 3.379491406388318e+000
 1.771716772171005e-001	 1.838150355218598e+000	 3.510818039326954e+000
 1.592081965163175e-001	 1.839793245209076e+000	 3.520839997223390e+000
 1.412933237267795e-001	 1.841255697662048e+000	 3.535355707880227e+000
 1.234294466434957e-001	 1.842539403227947e+000	 3.553926395564922e+000
 1.056189021578019e-001	 1.843646085590595e+000	 3.576017699852157e+000
 8.786397593273948e-002	 1.844577499947983e+000	 3.600989336383003e+000
 7.016690212639581e-002	 1.845335431501090e+000	 3.628086385312061e+000
 5.252986316228345e-002	 1.845921693952204e+000	 3.656432347101968e+000
 3.495498954579909e-002	 1.846338128014166e+000	 3.685024082419945e+000
 1.744435972576324e-002	 1.846586599931918e+000	 3.712728730151398e+000
 0.000000000000000e+000	 1.846669000017617e+000	 3.738282685981220e+000
 1.778113173313480e-001	 1.844786600492154e+000	 3.885638049495621e+000
 1.597829833591335e-001	 1.846435421782323e+000	 3.896319187655299e+000
 1.418034327865735e-001	 1.847903154104124e+000	 3.911540523401868e+000
 1.238750620292950e-001	 1.849191494211738e+000	 3.931432329857024e+000
 1.060002164154750e-001	 1.850302172011993e+000	 3.955988627363094e+000
 8.818118986004712e-002	 1.851236949039666e+000	 3.985056156570540e+000
 7.042022458704338e-002	 1.851997616940835e+000	 4.018325091982085e+000
 5.271951089914469e-002	 1.852585995965789e+000	 4.055321637824455e+000
 3.508118699347691e-002	 1.853003933472884e+000	 4.095402624592433e+000
 1.750733882265058e-002	 1.853253302444752e+000	 4.137752201188872e+000
 0.000000000000000e+000	 1.853336000018133e+000	 4.181380705716744e+000
 1.784509574461501e-001	 1.851422845765750e+000	 4.338856562421202e+000
 1.603577702025461e-001	 1.853077598355501e+000	 4.350430851424420e+000
 1.423135418469980e-001	 1.854550610546017e+000	 4.366386831706624e+000
 1.243206774157454e-001	 1.855843585195231e+000	 4.387532234058961e+000
 1.063815306738011e-001	 1.856958258432983e+000	 4.414490829249917e+000
 8.849840378798599e-002	 1.857896398130836e+000	 4.447690713166559e+000
 7.067354704827203e-002	 1.858659802379975e+000	 4.487354456726073e+000
 5.290915863650356e-002	 1.859250297978689e+000	 4.533491264376043e+000
 3.520738444153076e-002	 1.859669738930854e+000	 4.585891260781321e+000
 1.757031791974962e-002	 1.859920004956799e+000	 4.644122001212174e+000
 0.000000000000000e+000	 1.860003000017850e+000	 4.707527288939954e+000
 1.790905975616490e-001	 1.858059091039320e+000	 4.870914220302225e+000
 1.609325570466982e-001	 1.859719774928535e+000	 4.883673502068610e+000
 1.428236509081929e-001	 1.861198066987645e+000	 4.900402793874333e+000
 1.247662928029802e-001	 1.862495676178339e+000	 4.922694866396532e+000
 1.067628449329038e-001	 1.863614344853473e+000	 4.951903830504693e+000
 8.881561771666691e-002	 1.864555847221398e+000	 4.989132733458153e+000
 7.092686951017656e-002	 1.865321987818410e+000	 5.035223155717782e+000
 5.309880637443565e-002	 1.865914599990803e+000	 5.090746953846645e+000
 3.533358189001407e-002	 1.866335544387978e+000	 5.156000270043360e+000
 1.763329701708853e-002	 1.866586707467961e+000	 5.230999904091320e+000
 0.000000000000000e+000	 1.866670000016666e+000	 5.315482130920236e+000
 1.866670000016666e+000	 0.000000000000000e+000	 1.223039472908469e+001
 1.866586707467961e+000	 1.763329701708859e-002	 1.225934858002106e+001
 1.866335544387978e+000	 3.533358189001417e-002	 1.228140986712916e+001
 1.865914599990803e+000	 5.309880637443554e-002	 1.229861059556613e+001
 1.865321987818409e+000	 7.092686951017646e-002	 1.231295422386673e+001
 1.864555847221398e+000	 8.881561771666689e-002	 1.232641100649230e+001
 1.863614344853473e+000	 1.067628449329038e-001	 1.234091293236466e+001
 1.862495676178339e+000	 1.247662928029803e-001	 1.235834827077323e+001
 1.861198066987645e+000	 1.428236509081927e-001	 1.238055573477814e+001
 1.859719774928535e+000	 1.609325570466981e-001	 1.240931827881550e+001
 1.858059091039319e+000	 1.790905975616489e-001	 1.244635655424399e+001
 1.873336000292277e+000	 0.000000000000000e+000	 1.212283896295392e+001
 1.873252410300538e+000	 1.769626667091117e-002	 1.215205311839702e+001
 1.873000350301068e+000	 3.545976041553836e-002	 1.217450241242464e+001
 1.872577902684386e+000	 5.328842567514051e-002	 1.219222790084843e+001
 1.871983174255770e+000	 7.118015398689008e-002	 1.220724646645797e+001
 1.871214297721295e+000	 8.913278407965511e-002	 1.222154622286797e+001
 1.870269433187636e+000	 1.071441020144599e-001	 1.223708148977524e+001
 1.869146769674352e+000	 1.252118413706765e-001	 1.225576734986561e+001
 1.867844526637251e+000	 1.433336834789610e-001	 1.227947379653070e+001
 1.866360955501386e+000	 1.615072577019092e-001	 1.231001948830217e+001
 1.864694341202229e+000	 1.797301417633638e-001	 1.234916513312216e+001
 1.880002002233555e+000	 0.000000000000000e+000	 1.205407398084637e+001
 1.879918114798716e+000	 1.775923634067771e-002	 1.208277408508100e+001
 1.879665157879561e+000	 3.558593897297273e-002	 1.210484207489695e+001
 1.879241207043032e+000	 5.347804502374515e-002	 1.212233582543076e+001
 1.878644362357717e+000	 7.143343852751721e-002	 1.213729032966190e+001
 1.877872749885155e+000	 8.944995052259598e-002	 1.215171307561101e+001
 1.876924523184993e+000	 1.075253591920342e-001	 1.216757897227634e+001
 1.875797864832641e+000	 1.256573900504839e-001	 1.218682483361067e+001
 1.874490987948056e+000	 1.438437161779620e-001	 1.221134342895683e+001
 1.873002137734208e+000	 1.620819585015041e-001	 1.224297711527492e+001
 1.871329593023718e+000	 1.803696861256440e-001	 1.228351107388907e+001
 1.886668007507166e+000	 0.000000000000000e+000	 1.202172965437026e+001
 1.886583822629083e+000	 1.782220604206420e-002	 1.204950110653046e+001
 1.886329968789800e+000	 3.571211759374478e-002	 1.207074489420830e+001
 1.885904514732690e+000	 5.366766446750050e-002	 1.208754338442550e+001
 1.885305553789637e+000	 7.168672319520088e-002	 1.210195429549480e+001
 1.884531205377647e+000	 8.976711712458953e-002	 1.211600596024325e+001
 1.883579616509333e+000	 1.079066165607449e-001	 1.213169211718178e+001
 1.882448963315952e+000	 1.261029389535964e-001	 1.215096623819509e+001
 1.881137452581612e+000	 1.443537491325187e-001	 1.217573540064539e+001
 1.879643323287192e+000	 1.626566595889847e-001	 1.220785371887056e+001
 1.877964848162459e+000	 1.810092308082161e-001	 1.224911535764602e+001
 1.893334017779778e+000	 0.000000000000000e+000	 1.202346765574122e+001
 1.893249535458222e+000	 1.788517579074664e-002	 1.205025090268020e+001
 1.892994784698134e+000	 3.583829630928196e-002	 1.207054974325663e+001
 1.892567827419305e+000	 5.385728405365761e-002	 1.208647861391714e+001
 1.891966750216917e+000	 7.194000805308420e-002	 1.210012250347592e+001
 1.891189665863440e+000	 9.008428396473578e-002	 1.211353201565183e+001
 1.890234714824445e+000	 1.082878742157101e-001	 1.212871794061548e+001
 1.889100066787036e+000	 1.265484881912075e-001	 1.214764534359991e+001
 1.887783922199470e+000	 1.448637824699540e-001	 1.217222717815906e+001
 1.886284513820528e+000	 1.632313611078529e-001	 1.220431743892565e+001
 1.884600108277127e+000	 1.816487759708070e-001	 1.224570387650287e+001
 1.900000034718056e+000	 0.000000000000000e+000	 1.205698089877375e+001
 1.899915254952724e+000	 1.794814560240101e-002	 1.208306681336860e+001
 1.899659607270910e+000	 3.596447515101178e-002	 1.210261793184434e+001
 1.899231146768825e+000	 5.404690382946741e-002	 1.211778824366002e+001
 1.898627953304946e+000	 7.219329316431017e-002	 1.213069448412673e+001
 1.897848133007199e+000	 9.040145112213464e-002	 1.214341091015362e+001
 1.896889819794116e+000	 1.086691322520480e-001	 1.215796356790117e+001
 1.895751176908643e+000	 1.269940378745112e-001	 1.217632406007890e+001
 1.894430398463179e+000	 1.453738163175911e-001	 1.220040282037646e+001
 1.892925710994409e+000	 1.638060632016107e-001	 1.223204190997173e+001
 1.891235375026396e+000	 1.822883217731431e-001	 1.227300735903867e+001
 1.906666059988667e+000	 0.000000000000000e+000	 1.211999299163112e+001
 1.906580982779173e+000	 1.801111549270333e-002	 1.214601833472492e+001
 1.906324438174477e+000	 3.609065415036176e-002	 1.216533281867992e+001
 1.905894474447200e+000	 5.423652384218103e-002	 1.218013737665264e+001
 1.905289164719112e+000	 7.244657859202193e-002	 1.219258489806052e+001
 1.904506608473595e+000	 9.071861867588625e-002	 1.220477463203415e+001
 1.903544933082137e+000	 1.090503907648768e-001	 1.221874606748227e+001
 1.902402295343521e+000	 1.274395881147012e-001	 1.223647229739422e+001
 1.901076883034290e+000	 1.458838508027529e-001	 1.225985287498783e+001
 1.899566916469028e+000	 1.643807660137600e-001	 1.229070617695200e+001
 1.897870650068940e+000	 1.829278683749511e-001	 1.233076129722319e+001
 1.913332095258278e+000	 0.000000000000000e+000	 1.221025770104536e+001
 1.913246720604157e+000	 1.807408547732959e-002	 1.223720066527271e+001
 1.912989279075178e+000	 3.621683333875934e-002	 1.225709943150933e+001
 1.912557812120374e+000	 5.442614413904941e-002	 1.227220917541983e+001
 1.911950386124803e+000	 7.269986439936249e-002	 1.228472328052509e+001
 1.911165093927295e+000	 9.103578670509054e-002	 1.229676728445170e+001
 1.910200056352294e+000	 1.094316498493146e-001	 1.231039228828517e+001
 1.909053423754420e+000	 1.278851390229714e-001	 1.232756783674180e+001
 1.907723377574352e+000	 1.463938860527626e-001	 1.235017427709285e+001
 1.906208131904575e+000	 1.649554696878029e-001	 1.237999461261834e+001
 1.904505935063431e+000	 1.835674159359577e-001	 1.241870587476220e+001
 1.919998142193556e+000	 0.000000000000000e+000	 1.232555842772822e+001
 1.919912470094263e+000	 1.813705557195578e-002	 1.235473426151438e+001
 1.919654131639363e+000	 3.634301274763202e-002	 1.237634409517859e+001
 1.919221161454297e+000	 5.461576476732363e-002	 1.239270455483964e+001
 1.918611619187405e+000	 7.295315064947493e-002	 1.240605379126558e+001
 1.917823591032968e+000	 9.135295528884752e-002	 1.241854488459977e+001
 1.916855191268378e+000	 1.098129096004796e-001	 1.243223870044366e+001
 1.915704563804088e+000	 1.283306907105153e-001	 1.244909620530009e+001
 1.914369883744916e+000	 1.469039221949428e-001	 1.247097024984864e+001
 1.912849358961241e+000	 1.655301743672412e-001	 1.249959683656815e+001
 1.911141231668546e+000	 1.842069646158895e-001	 1.253658589683344e+001
 1.926664202461167e+000	 0.000000000000000e+000	 1.246370769270091e+001
 1.926578232916076e+000	 1.820002579225790e-002	 1.249676440276475e+001
 1.926318997533378e+000	 3.646919240840733e-002	 1.252151406743475e+001
 1.925884524114915e+000	 5.480538577425467e-002	 1.254034188135575e+001
 1.925272865572307e+000	 7.320643740550233e-002	 1.255553496957901e+001
 1.924482101455281e+000	 9.167012450625717e-002	 1.256927516702613e+001
 1.923510339494176e+000	 1.101941701134900e-001	 1.258363123930075e+001
 1.922355717155276e+000	 1.287762432885269e-001	 1.260055055333983e+001
 1.921016403207533e+000	 1.474139593566169e-001	 1.262185020711910e+001
 1.919490599299220e+000	 1.661048801955769e-001	 1.264920763587984e+001
 1.917776541542956e+000	 1.848465145744731e-001	 1.268415072117780e+001
 1.933330277727777e+000	 0.000000000000000e+000	 1.262254663427873e+001
 1.933244010736185e+000	 1.826299615391194e-002	 1.266146076501119e+001
 1.932983878423570e+000	 3.659537235251269e-002	 1.269107718227847e+001
 1.932547901768176e+000	 5.499500720709358e-002	 1.271385667842099e+001
 1.931934126944898e+000	 7.345972473058775e-002	 1.273213949443380e+001
 1.931140626858904e+000	 9.198729443641959e-002	 1.274813739100544e+001
 1.930165502693479e+000	 1.105754314834639e-001	 1.276392515261047e+001
 1.929006885470733e+000	 1.292217968681999e-001	 1.278143153383176e+001
 1.927662937623752e+000	 1.479239976651078e-001	 1.280242965807570e+001
 1.926131854578702e+000	 1.666795873163121e-001	 1.282852688730998e+001
 1.924411866345337e+000	 1.854860659714353e-001	 1.286115419051493e+001
 1.858059091039319e+000	 1.790905975616489e-001	 1.244635655424399e+001
 1.856214631932410e+000	 1.972925801832065e-001	 1.248588674079326e+001
 1.854184525689797e+000	 2.155387430328054e-001	 1.252163435416584e+001
 1.851967173765350e+000	 2.338265615961181e-001	 1.255443220111543e+001
 1.849561017085502e+000	 2.521534628864028e-001	 1.258499758916512e+001
 1.846964537582364e+000	 2.705168260265918e-001	 1.261392501108283e+001
 1.844176259724348e+000	 2.889139828828836e-001	 1.264167884846064e+001
 1.841194752042445e+000	 3.073422187503292e-001	 1.266858617712562e+001
 1.838018628650292e+000	 3.257987730908322e-001	 1.269482976592144e+001
 1.834646550756102e+000	 3.442808403239147e-001	 1.272044136913465e+001
 1.831077228164503e+000	 3.627855706705264e-001	 1.274529542140615e+001
 1.864694341202229e+000	 1.797301417633638e-001	 1.234916513312216e+001
 1.862843295411997e+000	 1.979971248515647e-001	 1.239104976171229e+001
 1.860805939527940e+000	 2.163084459382945e-001	 1.242928254014371e+001
 1.858580669295420e+000	 2.346615714940180e-001	 1.246468006296993e+001
 1.856165920073323e+000	 2.530539193436879e-001	 1.249794376241829e+001
 1.853560168372646e+000	 2.714828592509105e-001	 1.252965240854249e+001
 1.850761933392588e+000	 2.899457135538024e-001	 1.256025460771644e+001
 1.847769778552278e+000	 3.084397578530240e-001	 1.259006138332664e+001
 1.844582313016268e+000	 3.269622217524142e-001	 1.261923893159583e+001
 1.841198193211864e+000	 3.455102896525821e-001	 1.264780165446959e+001
 1.837616124336330e+000	 3.640811015977279e-001	 1.267560558033376e+001
 1.871329593023718e+000	 1.803696861256440e-001	 1.228351107388907e+001
 1.869471960548609e+000	 1.987016696966989e-001	 1.232698895136559e+001
 1.867427355021387e+000	 2.170781490368015e-001	 1.236689728753426e+001
 1.865194166478905e+000	 2.354965816012088e-001	 1.240403686181835e+001
 1.862770824712498e+000	 2.539543760265665e-001	 1.243909422048956e+001
 1.860155800812049e+000	 2.724488927171559e-001	 1.247263400153383e+001
 1.857347608707542e+000	 2.909774444830102e-001	 1.250509123587595e+001
 1.854344806706239e+000	 3.095372972303986e-001	 1.253676370992143e+001
 1.851145999023604e+000	 3.281256707050956e-001	 1.256780448371434e+001
 1.847749837306038e+000	 3.467397392887961e-001	 1.259821466828305e+001
 1.844155022143435e+000	 3.653766328489503e-001	 1.262783657485692e+001
 1.877964848162459e+000	 1.810092308082161e-001	 1.224911535764602e+001
 1.876100628999242e+000	 1.994062148945999e-001	 1.229346892304478e+001
 1.874048773825298e+000	 2.178478525206209e-001	 1.233429059887789e+001
 1.871807666968964e+000	 2.363315921263249e-001	 1.237236579459340e+001
 1.869375732654024e+000	 2.548548331600489e-001	 1.240836720755955e+001
 1.866751436549240e+000	 2.734149266667451e-001	 1.244284698151728e+001
 1.863933287315374e+000	 2.920091759283613e-001	 1.247622881817649e+001
 1.860919838147821e+000	 3.106348371567720e-001	 1.250880012798424e+001
 1.857709688312956e+000	 3.292891202396840e-001	 1.254070431570650e+001
 1.854301484676263e+000	 3.479691895398752e-001	 1.257193330601702e+001
 1.850693923220269e+000	 3.666721647480424e-001	 1.260232042367794e+001
 1.884600108277127e+000	 1.816487759708070e-001	 1.224570387650287e+001
 1.882729302420894e+000	 2.001107606212587e-001	 1.229025871771052e+001
 1.880670197594831e+000	 2.186175565820469e-001	 1.233127834672631e+001
 1.878421172418757e+000	 2.371666032780017e-001	 1.236953329616333e+001
 1.875980645548895e+000	 2.557552909691455e-001	 1.240568349923697e+001
 1.873347077232879e+000	 2.743809613410961e-001	 1.244027029051540e+001
 1.870518970862248e+000	 2.930409081477106e-001	 1.247370833535145e+001
 1.867494874520521e+000	 3.117323779064631e-001	 1.250627757506437e+001
 1.864273382524977e+000	 3.304525706469872e-001	 1.253811528483307e+001
 1.860853136960182e+000	 3.491986407131379e-001	 1.256920835109527e+001
 1.857232829201285e+000	 3.679676976188531e-001	 1.259938588492836e+001
 1.891235375026396e+000	 1.822883217731431e-001	 1.227300735903867e+001
 1.889357982470562e+000	 2.008153070526660e-001	 1.231713173732218e+001
 1.887291627985147e+000	 2.193872614133742e-001	 1.235768021582248e+001
 1.885034684481444e+000	 2.380016152648743e-001	 1.239540899135480e+001
 1.882585565048103e+000	 2.566557496788663e-001	 1.243096636542771e+001
 1.879942724511631e+000	 2.753469969816266e-001	 1.246488459583986e+001
 1.877104660994329e+000	 2.940726413989127e-001	 1.249757165123577e+001
 1.874069917467834e+000	 3.128299197537908e-001	 1.252930295670004e+001
 1.870837083300321e+000	 3.316160222178131e-001	 1.256021322864477e+001
 1.867404795795433e+000	 3.504280931159031e-001	 1.259028850737076e+001
 1.863771741720931e+000	 3.692632317852310e-001	 1.261935850565612e+001
 1.897870650068940e+000	 1.829278683749511e-001	 1.233076129722319e+001
 1.895986670805243e+000	 2.015198543648128e-001	 1.237386567943885e+001
 1.893913066651407e+000	 2.201569672068973e-001	 1.241331964634078e+001
 1.891648204810182e+000	 2.388366282955775e-001	 1.244986564780246e+001
 1.889190492802647e+000	 2.575562095142218e-001	 1.248414153377263e+001
 1.886538380034160e+000	 2.763130338297541e-001	 1.251667226510597e+001
 1.883690359357781e+000	 2.951043759398224e-001	 1.254786150035591e+001
 1.880644968633256e+000	 3.139274629730742e-001	 1.257798314758887e+001
 1.877400792279645e+000	 3.327794752429694e-001	 1.260717298074681e+001
 1.873956462819656e+000	 3.516575470554891e-001	 1.263542043050489e+001
 1.870310662413659e+000	 3.705587675710250e-001	 1.266256066984604e+001
 1.904505935063431e+000	 1.835674159359577e-001	 1.241870587476220e+001
 1.902615369081935e+000	 2.022244027336899e-001	 1.246024247306082e+001
 1.900534515248767e+000	 2.209266741549104e-001	 1.249802377816195e+001
 1.898261735058134e+000	 2.396716425787466e-001	 1.253277912960379e+001
 1.895795430463519e+000	 2.584566707002221e-001	 1.256513715363967e+001
 1.893134045449130e+000	 2.772790721268962e-001	 1.259561734152904e+001
 1.890276067598770e+000	 2.961361120282944e-001	 1.262462147550409e+001
 1.887220029660281e+000	 3.150250078386322e-001	 1.265242499242339e+001
 1.883964511103600e+000	 3.339429300132639e-001	 1.267916838588615e+001
 1.880508139670492e+000	 3.528870028392147e-001	 1.270484875830413e+001
 1.876849592913921e+000	 3.718543053000839e-001	 1.272931164500915e+001
 1.911141231668546e+000	 1.842069646158895e-001	 1.253658589683344e+001
 1.909244078957633e+000	 2.029289523352882e-001	 1.257604821568191e+001
 1.907155975432390e+000	 2.216963824497081e-001	 1.261162339615702e+001
 1.904875276878457e+000	 2.405066583230165e-001	 1.264402835176066e+001
 1.902400379681716e+000	 2.593571334618774e-001	 1.267388376065800e+001
 1.899729722405203e+000	 2.782451121144706e-001	 1.270170551949428e+001
 1.896861787363458e+000	 2.971678499221833e-001	 1.272789601529727e+001
 1.893795102192404e+000	 3.161225546247839e-001	 1.275273530639979e+001
 1.890528241412844e+000	 3.351063868195044e-001	 1.277637231437829e+001
 1.887059827985581e+000	 3.541164607743985e-001	 1.279881614003930e+001
 1.883388534856166e+000	 3.731498452962564e-001	 1.281992762737670e+001
 1.917776541542956e+000	 1.848465145744731e-001	 1.268415072117780e+001
 1.915872802089337e+000	 2.036335033455986e-001	 1.272107311152251e+001
 1.913777448857434e+000	 2.224660922835847e-001	 1.275395287645632e+001
 1.911488831924310e+000	 2.413416757370221e-001	 1.278349523538800e+001
 1.909005342108230e+000	 2.602575980241982e-001	 1.281031424177973e+001
 1.906325412551045e+000	 2.792111540338950e-001	 1.283492412039451e+001
 1.903447520298011e+000	 2.981995898793440e-001	 1.285773039172189e+001
 1.900370187873122e+000	 3.172201036058480e-001	 1.287902087540808e+001
 1.897091984848029e+000	 3.362698459524989e-001	 1.289895667588917e+001
 1.893611529402563e+000	 3.553459211683593e-001	 1.291756326477283e+001
 1.889927489874846e+000	 3.744453878833915e-001	 1.293472178573114e+001
 1.924411866345337e+000	 1.854860659714353e-001	 1.286115419051493e+001
 1.922501540134042e+000	 2.043380559406118e-001	 1.289511141091552e+001
 1.920398937179060e+000	 2.232358038488349e-001	 1.292485013367927e+001
 1.918102401848856e+000	 2.421766950293987e-001	 1.295106466367112e+001
 1.915610319394058e+000	 2.611580646121946e-001	 1.297436380085735e+001
 1.912921117535318e+000	 2.801771981265868e-001	 1.299526206872925e+001
 1.910033268048593e+000	 2.992313321576312e-001	 1.301417069766360e+001
 1.906945288345930e+000	 3.183176550561437e-001	 1.303138845591114e+001
 1.903655743049810e+000	 3.374333077030550e-001	 1.304709243258789e+001
 1.900163245559078e+000	 3.565753843284157e-001	 1.306132888871705e+001
 1.896466459604412e+000	 3.757409333853379e-001	 1.307400430390865e+001
 1.831077228164503e+000	 3.627855706705264e-001	 1.274529542140615e+001
 1.827308840852505e+000	 3.813128506229466e-001	 1.277125195267379e+001
 1.823340721694443e+000	 3.998569654505436e-001	 1.280017416778897e+001
 1.819171736284712e+000	 4.184149326073986e-001	 1.283171370846249e+001
 1.814800804742252e+000	 4.369837291416522e-001	 1.286536358540938e+001
 1.810226903133151e+000	 4.555602928079645e-001	 1.290045578758133e+001
 1.805449064870776e+000	 4.741415232331826e-001	 1.293616007567510e+001
 1.800466382091268e+000	 4.927242831349174e-001	 1.297148411504275e+001
 1.795278007002279e+000	 5.113053995926306e-001	 1.300527510673490e+001
 1.789883153202777e+000	 5.298816653707489e-001	 1.303622307790773e+001
 1.784281096971782e+000	 5.484498402932200e-001	 1.306286599411043e+001
 1.837616124336330e+000	 3.640811015977279e-001	 1.267560558033376e+001
 1.833834279867261e+000	 3.826745436747856e-001	 1.270456426165616e+001
 1.829851990296648e+000	 4.012848807454483e-001	 1.273659624584613e+001
 1.825668117167858e+000	 4.199091196129332e-001	 1.277133645996932e+001
 1.821281576743510e+000	 4.385442265302251e-001	 1.280825907732622e+001
 1.816691341433165e+000	 4.571871283165070e-001	 1.284667480814758e+001
 1.811896441198450e+000	 4.758347135269936e-001	 1.288572937654509e+001
 1.806895964933474e+000	 4.944838336758576e-001	 1.292440334255075e+001
 1.801689061818373e+000	 5.131313045118566e-001	 1.296151343189060e+001
 1.796274942643831e+000	 5.317739073461716e-001	 1.299571553882436e+001
 1.790652881104421e+000	 5.504083904318716e-001	 1.302550956883302e+001
 1.844155022143435e+000	 3.653766328489503e-001	 1.262783657485692e+001
 1.840359720513974e+000	 3.840362370671486e-001	 1.265864096499528e+001
 1.836363260527303e+000	 4.027127963974043e-001	 1.269261064193002e+001
 1.832164499675755e+000	 4.214033069920676e-001	 1.272937580186758e+001
 1.827762350365629e+000	 4.401047243089640e-001	 1.276840306148764e+001
 1.823155781349956e+000	 4.588139642317981e-001	 1.280899238823752e+001
 1.818343819138624e+000	 4.775279042441487e-001	 1.285027521903063e+001
 1.813325549383706e+000	 4.962433846567469e-001	 1.289121393003254e+001
 1.808100118237819e+000	 5.149572098876430e-001	 1.293060282424539e+001
 1.802666733683369e+000	 5.336661497947700e-001	 1.296707080647851e+001
 1.797024666830474e+000	 5.523669410603160e-001	 1.299908591691269e+001
 1.850693923220269e+000	 3.666721647480424e-001	 1.260232042367794e+001
 1.846885164423731e+000	 3.853979311404336e-001	 1.263389158576973e+001
 1.842874534013948e+000	 4.041407127633728e-001	 1.266869692683350e+001
 1.838660885432222e+000	 4.228974951183376e-001	 1.270637383115649e+001
 1.834243127228527e+000	 4.416652228679883e-001	 1.274639258111780e+001
 1.829620224499362e+000	 4.604408009605448e-001	 1.278805288517930e+001
 1.824791200302876e+000	 4.792210958079453e-001	 1.283048159658345e+001
 1.819755137049102e+000	 4.980029365174732e-001	 1.287263178943685e+001
 1.814511177863141e+000	 5.167831161764661e-001	 1.291328336310527e+001
 1.809058527919111e+000	 5.355583931896024e-001	 1.295104534892036e+001
 1.803396455742680e+000	 5.543254926681835e-001	 1.298436009499313e+001
 1.857232829201285e+000	 3.679676976188531e-001	 1.259938588492836e+001
 1.853410613227614e+000	 3.867596262350392e-001	 1.263072124720943e+001
 1.849385812384124e+000	 4.055686302003154e-001	 1.266532922490959e+001
 1.845157276061076e+000	 4.243916843652784e-001	 1.270286624664975e+001
 1.840723908952120e+000	 4.432257225974156e-001	 1.274281742647063e+001
 1.836084672497222e+000	 4.620676389094542e-001	 1.278449264757426e+001
 1.831238586302786e+000	 4.809142886416813e-001	 1.282702383921456e+001
 1.826184729536804e+000	 4.997624896979254e-001	 1.286936361755685e+001
 1.820922242296858e+000	 5.186090238348022e-001	 1.291028546579752e+001
 1.815450326948778e+000	 5.374506380037266e-001	 1.294838563211426e+001
 1.809768249433779e+000	 5.562840457451034e-001	 1.298208692599063e+001
 1.863771741720931e+000	 3.692632317852310e-001	 1.261935850565612e+001
 1.859936068556710e+000	 3.881213226913631e-001	 1.264953073884976e+001
 1.855897097265371e+000	 4.069965490651931e-001	 1.268297629507522e+001
 1.851653673186138e+000	 4.258858751064262e-001	 1.271938244299019e+001
 1.847204697156331e+000	 4.447862238873650e-001	 1.275826023999747e+001
 1.842549126959376e+000	 4.636944784852327e-001	 1.279894012974228e+001
 1.837685978749934e+000	 4.826074831686547e-001	 1.284056873532580e+001
 1.832614328453952e+000	 5.015220446379923e-001	 1.288210702334153e+001
 1.827333313141492e+000	 5.204349333191274e-001	 1.292233001854282e+001
 1.821842132370091e+000	 5.393428847102000e-001	 1.295982825244013e+001
 1.816140049496512e+000	 5.582426007807066e-001	 1.299301113128398e+001
 1.870310662413659e+000	 3.705587675710250e-001	 1.266256066984604e+001
 1.866461532042101e+000	 3.894830208498033e-001	 1.269071658082781e+001
 1.862408390285230e+000	 4.084244697149676e-001	 1.272210160960222e+001
 1.858150078431226e+000	 4.273800677153165e-001	 1.275644560213453e+001
 1.853685493461075e+000	 4.463467271279551e-001	 1.279329661870596e+001
 1.849013589501663e+000	 4.653213200945875e-001	 1.283201600311799e+001
 1.844133379255898e+000	 4.843006798121632e-001	 1.287177465029085e+001
 1.839043935407688e+000	 5.032816017775624e-001	 1.291155065179460e+001
 1.833744391999562e+000	 5.222608450859181e-001	 1.295012850379221e+001
 1.828233945780770e+000	 5.412351337820803e-001	 1.298610006557815e+001
 1.822511857523616e+000	 5.602011582646226e-001	 1.301786745924629e+001
 1.876849592913921e+000	 3.718543053000839e-001	 1.272931164500915e+001
 1.872987005314874e+000	 3.908447210507583e-001	 1.275467108636575e+001
 1.868919693071243e+000	 4.098523925065999e-001	 1.278316343074930e+001
 1.864646493420159e+000	 4.288742625654853e-001	 1.281457278236982e+001
 1.860166299486271e+000	 4.479072327093041e-001	 1.284849521377841e+001
 1.855478061739920e+000	 4.669481641442252e-001	 1.288433326467182e+001
 1.850580789432260e+000	 4.859938789955048e-001	 1.292129164186420e+001
 1.845473552005150e+000	 5.050411615565242e-001	 1.295837430454349e+001
 1.840155480473591e+000	 5.240867595916503e-001	 1.299438312411541e+001
 1.834625768778536e+000	 5.431273856924254e-001	 1.302791831186468e+001
 1.828883675107834e+000	 5.621597186864816e-001	 1.305738081020777e+001
 1.883388534856166e+000	 3.731498452962564e-001	 1.281992762737670e+001
 1.879512490006111e+000	 3.922064236346262e-001	 1.284178242248544e+001
 1.875431007250949e+000	 4.112803177970515e-001	 1.286661488528821e+001
 1.871142919776756e+000	 4.303684600304681e-001	 1.289427500492202e+001
 1.866647116851838e+000	 4.494677410215305e-001	 1.292441782751660e+001
 1.861942545289986e+000	 4.685750110408526e-001	 1.295649734242861e+001
 1.857028210890599e+000	 4.876870811419775e-001	 1.298976157249643e+001
 1.851903179853479e+000	 5.068007244147664e-001	 1.302324905715985e+001
 1.846566580166098e+000	 5.259126772928005e-001	 1.305578692272415e+001
 1.841017602961110e+000	 5.450196409142923e-001	 1.308599073820509e+001
 1.835255503841901e+000	 5.641182825359137e-001	 1.311226635793595e+001
 1.889927489874846e+000	 3.744453878833915e-001	 1.293472178573114e+001
 1.886037987746898e+000	 3.935681289418047e-001	 1.295243466899706e+001
 1.881942334451890e+000	 4.127082459432837e-001	 1.297290403697393e+001
 1.877639359124836e+000	 4.318626604838007e-001	 1.299605733821448e+001
 1.873127947177695e+000	 4.510282524547534e-001	 1.302161950767753e+001
 1.868407041767702e+000	 4.702018611911770e-001	 1.304910619815351e+001
 1.863475645242494e+000	 4.893802866748787e-001	 1.307781821862917e+001
 1.858332820559816e+000	 5.085602907921776e-001	 1.310683737330983e+001
 1.852977692679604e+000	 5.277385986458443e-001	 1.313502390071167e+001
 1.847409449926213e+000	 5.469118999207399e-001	 1.316101571662695e+001
 1.841627345318559e+000	 5.660768503025488e-001	 1.318322966771773e+001
 1.896466459604412e+000	 3.757409333853379e-001	 1.307400430390865e+001
 1.892563500168320e+000	 3.949298373126922e-001	 1.308700787580353e+001
 1.888453676301606e+000	 4.141361773022581e-001	 1.310247395700992e+001
 1.884135813088218e+000	 4.333568642990193e-001	 1.312041897983369e+001
 1.879608792083759e+000	 4.525887673990907e-001	 1.314064863926306e+001
 1.874871552788905e+000	 4.718287150019048e-001	 1.316275042727415e+001
 1.869923094099525e+000	 4.910734960175069e-001	 1.318608737704364e+001
 1.864762475731302e+000	 5.103198611286467e-001	 1.320979321581068e+001
 1.859388819616633e+000	 5.295645241072586e-001	 1.323276913108793e+001
 1.853801311271564e+000	 5.488041631848249e-001	 1.325368235955404e+001
 1.847999201130549e+000	 5.680354224760175e-001	 1.327096681112480e+001
 1.784281096971782e+000	 5.484498402932200e-001	 1.306286599411043e+001
 1.778471178077622e+000	 5.670066523970694e-001	 1.308478561082865e+001
 1.772452799657343e+000	 5.855487985655503e-001	 1.310159926253877e+001
 1.766225430735958e+000	 6.040729468208824e-001	 1.311168661102260e+001
 1.759788607818298e+000	 6.225757381620464e-001	 1.311330274868257e+001
 1.753141935993637e+000	 6.410537881847428e-001	 1.310459414092626e+001
 1.746285089996563e+000	 6.595036887474010e-001	 1.308361732562750e+001
 1.739217815222061e+000	 6.779220096819685e-001	 1.305338213095576e+001
 1.731939928692788e+000	 6.963053005481263e-001	 1.303285360642828e+001
 1.724451319976577e+000	 7.146500924294711e-001	 1.302442426517812e+001
 1.716751952052255e+000	 7.329528997701102e-001	 1.302843170942860e+001
 1.790652881104421e+000	 5.504083904318716e-001	 1.302550956883302e+001
 1.784822214610746e+000	 5.690314701215915e-001	 1.305037146099058e+001
 1.778782344168420e+000	 5.876398315029393e-001	 1.306980159463557e+001
 1.772532736906307e+000	 6.062301306994240e-001	 1.308211785265098e+001
 1.766072927674071e+000	 6.247989967148147e-001	 1.308550821541516e+001
 1.759402520150737e+000	 6.433430330588842e-001	 1.307804659638627e+001
 1.752521187909348e+000	 6.618588194193653e-001	 1.305771148133305e+001
 1.745428675435680e+000	 6.803429133788516e-001	 1.302972144136786e+001
 1.738124799098968e+000	 6.987918521752770e-001	 1.301182047436233e+001
 1.730609448072687e+000	 7.172021545045108e-001	 1.300526946223745e+001
 1.722882585203459e+000	 7.355703223635137e-001	 1.301038176352955e+001
 1.797024666830474e+000	 5.523669410603160e-001	 1.299908591691269e+001
 1.791173252732014e+000	 5.710562883525208e-001	 1.302602111777981e+001
 1.785111890262170e+000	 5.897308649633422e-001	 1.304726007878313e+001
 1.778840044653666e+000	 6.083873151175759e-001	 1.306105970282796e+001
 1.772357249100997e+000	 6.270222558237740e-001	 1.306554060685966e+001
 1.765663105872937e+000	 6.456322785057757e-001	 1.305870282244047e+001
 1.758757287380994e+000	 6.642139506806133e-001	 1.303844434836518e+001
 1.751639537201736e+000	 6.827638176815222e-001	 1.301256934855892e+001
 1.744309671050979e+000	 7.012784044246840e-001	 1.299676137302481e+001
 1.736767577707839e+000	 7.197542172182364e-001	 1.299159195114402e+001
 1.729013219886742e+000	 7.381877456119868e-001	 1.299734333550233e+001
 1.803396455742680e+000	 5.543254926681835e-001	 1.298436009499313e+001
 1.797524294029003e+000	 5.730811075960470e-001	 1.301250066817769e+001
 1.791441439520828e+000	 5.918218994694956e-001	 1.303473453916615e+001
 1.785147355554737e+000	 6.105445006146021e-001	 1.304925845145654e+001
 1.778641573670060e+000	 6.292455160446953e-001	 1.305412543394926e+001
 1.771923694725325e+000	 6.479215250976735e-001	 1.304726033813304e+001
 1.764993389970501e+000	 6.665690831198611e-001	 1.302647827751985e+001
 1.757850402072950e+000	 6.851847231951276e-001	 1.300252214497857e+001
 1.750494546095071e+000	 7.037649579178936e-001	 1.298821890770961e+001
 1.742925710421627e+000	 7.223062812085587e-001	 1.298387341322507e+001
 1.735143857634843e+000	 7.408051701697699e-001	 1.298972996079730e+001
 1.809768249433779e+000	 5.562840457451034e-001	 1.298208692599063e+001
 1.803875340089290e+000	 5.751059283583608e-001	 1.301056584030534e+001
 1.797770993526625e+000	 5.939129355441349e-001	 1.303297442019874e+001
 1.791454671186225e+000	 6.127016877297664e-001	 1.304745009311177e+001
 1.784925902952252e+000	 6.314687779333502e-001	 1.305197810312325e+001
 1.778184288272990e+000	 6.502107734068342e-001	 1.304440685618105e+001
 1.771229497236867e+000	 6.689242173258243e-001	 1.302264515869608e+001
 1.764061271602043e+000	 6.876056305248131e-001	 1.300016644962828e+001
 1.756679425777497e+000	 7.062515132764518e-001	 1.298672675020694e+001
 1.749083847753641e+000	 7.248583471133897e-001	 1.298258744108626e+001
 1.741274499980501e+000	 7.434225966911037e-001	 1.298794803517529e+001
 1.816140049496512e+000	 5.582426007807066e-001	 1.299301113128398e+001
 1.810226392500453e+000	 5.771307511456527e-001	 1.302096213341631e+001
 1.804100553861794e+000	 5.960039737099959e-001	 1.304271891249519e+001
 1.797761993124833e+000	 6.148588770023328e-001	 1.305636044716649e+001
 1.791210238518562e+000	 6.336920420455107e-001	 1.305980402878747e+001
 1.784444888081018e+000	 6.525000240055143e-001	 1.305082038595355e+001
 1.777465610739092e+000	 6.712793538872184e-001	 1.302779573478599e+001
 1.770272147341734e+000	 6.900265402757259e-001	 1.300607936318548e+001
 1.762864311644508e+000	 7.087380711219047e-001	 1.299280978187220e+001
 1.755241991243472e+000	 7.274104155706407e-001	 1.298819966778400e+001
 1.747405148456453e+000	 7.460400258302280e-001	 1.299239692814689e+001
 1.822511857523616e+000	 5.602011582646226e-001	 1.301786745924629e+001
 1.816577452850068e+000	 5.791555764641130e-001	 1.304442494422937e+001
 1.810430122108566e+000	 5.980950144898148e-001	 1.306469707521771e+001
 1.804069322947262e+000	 6.170160689715646e-001	 1.307670527436904e+001
 1.797494581939978e+000	 6.359153089369478e-001	 1.307829874234036e+001
 1.790705495714499e+000	 6.547892774659703e-001	 1.306716933316898e+001
 1.783701732036173e+000	 6.736344933927593e-001	 1.304254291236358e+001
 1.776483030844745e+000	 6.924474530530120e-001	 1.302082862026405e+001
 1.769049205242356e+000	 7.112246320757975e-001	 1.300698423409969e+001
 1.761400142430712e+000	 7.299624872182238e-001	 1.300116789371036e+001
 1.753535804595439e+000	 7.486574582413831e-001	 1.300346909447011e+001
 1.828883675107834e+000	 5.621597186864816e-001	 1.305738081020777e+001
 1.822928522725712e+000	 5.811804048199316e-001	 1.308167968969045e+001
 1.816759699849174e+000	 6.001860584063269e-001	 1.309962795488868e+001
 1.810376662230218e+000	 6.191732641767258e-001	 1.310919038995914e+001
 1.803778934787489e+000	 6.381385791634338e-001	 1.310814799784813e+001
 1.796966112738519e+000	 6.570785343604584e-001	 1.309411259639021e+001
 1.789937862687110e+000	 6.759896364311618e-001	 1.306748917386662e+001
 1.782693923663795e+000	 6.948683694618180e-001	 1.304497273888093e+001
 1.775234108117294e+000	 7.137111967596770e-001	 1.302975782626523e+001
 1.767558302854952e+000	 7.325145626940495e-001	 1.302194221124633e+001
 1.759666469930197e+000	 7.512748945788091e-001	 1.302155018375345e+001
 1.835255503841901e+000	 5.641182825359137e-001	 1.311226635793595e+001
 1.829279603714964e+000	 5.832052367192995e-001	 1.313344192625032e+001
 1.823089288665850e+000	 6.022771059822683e-001	 1.314822070075384e+001
 1.816684012550403e+000	 6.213304631570801e-001	 1.315451177340579e+001
 1.810063298632084e+000	 6.403618532807395e-001	 1.315002787445022e+001
 1.803226740718167e+000	 6.593677952612349e-001	 1.313229966039473e+001
 1.796174004250901e+000	 6.783447835911425e-001	 1.310322733675370e+001
 1.788904827351605e+000	 6.972892901072900e-001	 1.307906116719719e+001
 1.781419021815571e+000	 7.161977657950887e-001	 1.306162990119886e+001
 1.773716474055784e+000	 7.350666426360299e-001	 1.305096512723804e+001
 1.765797145993466e+000	 7.538923354967473e-001	 1.304701914821111e+001
 1.841627345318559e+000	 5.660768503025488e-001	 1.318322966771773e+001
 1.835630697405398e+000	 5.852300726684062e-001	 1.320041746574235e+001
 1.829418890140827e+000	 6.043681577403747e-001	 1.321117467677913e+001
 1.822991375484519e+000	 6.234876664518915e-001	 1.321335567484863e+001
 1.816347675044753e+000	 6.425851318446370e-001	 1.320460487557378e+001
 1.809487381218530e+000	 6.616570607405571e-001	 1.318237068649542e+001
 1.802410158286545e+000	 6.806999354614165e-001	 1.315034070690941e+001
 1.795115743460896e+000	 6.997102155945745e-001	 1.312363442759956e+001
 1.787603947883441e+000	 7.186843398035789e-001	 1.310309155824782e+001
 1.779874657572799e+000	 7.376187276820769e-001	 1.308867168334848e+001
 1.771927834317984e+000	 7.565097816494371e-001	 1.308024834861461e+001
 1.847999201130549e+000	 5.680354224760175e-001	 1.327096681112480e+001
 1.841981805384595e+000	 5.872549131734429e-001	 1.328330248794184e+001
 1.835748505856336e+000	 6.064592142033818e-001	 1.328917957036254e+001
 1.829298752609273e+000	 6.256448746004242e-001	 1.328639871832236e+001
 1.822632065596483e+000	 6.448084154108978e-001	 1.327253602503389e+001
 1.815748035804696e+000	 6.639463313706805e-001	 1.324495659988508e+001
 1.808646326353042e+000	 6.830550926306998e-001	 1.320940322924555e+001
 1.801326673544389e+000	 7.021311465288183e-001	 1.317922425818680e+001
 1.793788887867155e+000	 7.211709194066933e-001	 1.315462578398818e+001
 1.786032854945589e+000	 7.401708184701011e-001	 1.313548957433642e+001
 1.778058536436490e+000	 7.591272336911190e-001	 1.312160365848494e+001
 1.716751952052255e+000	 7.329528997701102e-001	 1.302843170942860e+001
 1.708843064595402e+000	 7.512074875272331e-001	 1.303543207865230e+001
 1.700723631802261e+000	 7.694130934055929e-001	 1.303592808553321e+001
 1.692393842765832e+000	 7.875661958811594e-001	 1.303016121033686e+001
 1.683853962847609e+000	 8.056632645502203e-001	 1.301841808171685e+001
 1.675104334255827e+000	 8.237007621394886e-001	 1.300102809152674e+001
 1.666145376561775e+000	 8.416751465452835e-001	 1.297836035205496e+001
 1.656977587152687e+000	 8.595828728996267e-001	 1.295081997291787e+001
 1.647601541619870e+000	 8.774203956610007e-001	 1.291884363959268e+001
 1.638017894080758e+000	 8.951841707274575e-001	 1.288289448074319e+001
 1.628227377433699e+000	 9.128706575696799e-001	 1.284345621705840e+001
 1.722882585203459e+000	 7.355703223635137e-001	 1.301038176352955e+001
 1.714945454593828e+000	 7.538900984437293e-001	 1.301810320130241e+001
 1.706797026776825e+000	 7.721607177277033e-001	 1.301933781340350e+001
 1.698437491520715e+000	 7.903786461158098e-001	 1.301432176843367e+001
 1.689867115134611e+000	 8.085403405970330e-001	 1.300333766247850e+001
 1.681086241048800e+000	 8.266422512662486e-001	 1.298671216557796e+001
 1.672095290332883e+000	 8.446808233706905e-001	 1.296481299586256e+001
 1.662894762150299e+000	 8.626524993834223e-001	 1.293804519758419e+001
 1.653485234147826e+000	 8.805537211015636e-001	 1.290684670411001e+001
 1.643867362778795e+000	 8.983809317669451e-001	 1.287168317222262e+001
 1.634041883558781e+000	 9.161305782067851e-001	 1.283304207975304e+001
 1.729013219886742e+000	 7.381877456119868e-001	 1.299734333550233e+001
 1.721047846117197e+000	 7.565727100316283e-001	 1.300534536238592e+001
 1.712870423269022e+000	 7.749083427374959e-001	 1.300689819980647e+001
 1.704481141785743e+000	 7.931910970543670e-001	 1.300222627010843e+001
 1.695880268924100e+000	 8.114174173639178e-001	 1.299160206622408e+001
 1.687068149336424e+000	 8.295837411291850e-001	 1.297534384429717e+001
 1.678045205590631e+000	 8.476865009483131e-001	 1.295381262848214e+001
 1.668811938626363e+000	 8.657221266354052e-001	 1.292740850308373e+001
 1.659368928145872e+000	 8.836870473262150e-001	 1.289656617213560e+001
 1.649716832938384e+000	 9.015776936063482e-001	 1.286174977189812e+001
 1.639856391136701e+000	 9.193904996595568e-001	 1.282344692755824e+001
 1.735143857634843e+000	 7.408051701697699e-001	 1.298972996079730e+001
 1.727150240691201e+000	 7.592553229614557e-001	 1.299750193376726e+001
 1.718943822797304e+000	 7.776559691217415e-001	 1.299888562483971e+001
 1.710524795071942e+000	 7.960035493998001e-001	 1.299408730453048e+001
 1.701893425719475e+000	 8.142944955699942e-001	 1.298336331900174e+001
 1.693050060614283e+000	 8.325252324635154e-001	 1.296701784333890e+001
 1.683995123822598e+000	 8.506921800294127e-001	 1.294539993077887e+001
 1.674729118060264e+000	 8.687917554228226e-001	 1.291889983193108e+001
 1.665252625085009e+000	 8.868203751181280e-001	 1.288794456306452e+001
 1.655566306021953e+000	 9.047744570447024e-001	 1.285299270802508e+001
 1.645670901621129e+000	 9.226504227428251e-001	 1.281452844427059e+001
 1.741274499980501e+000	 7.434225966911037e-001	 1.298794803517529e+001
 1.733252639841535e+000	 7.619379379037399e-001	 1.299491012724334e+001
 1.725017226880129e+000	 7.804035975672117e-001	 1.299557124529852e+001
 1.716568452890335e+000	 7.988160038550789e-001	 1.299011313072008e+001
 1.707906587024137e+000	 8.171715759343821e-001	 1.297876996553848e+001
 1.699031976377965e+000	 8.354667260044575e-001	 1.296182620087207e+001
 1.689945046516368e+000	 8.536978613652514e-001	 1.293961366435442e+001
 1.680646301931392e+000	 8.718613865129233e-001	 1.291250791941340e+001
 1.671136326436242e+000	 8.899537052604761e-001	 1.288092385439252e+001
 1.661415783491934e+000	 9.079712228810429e-001	 1.284531048510911e+001
 1.651485416465734e+000	 9.259103482714212e-001	 1.280614496049055e+001
 1.747405148456453e+000	 7.460400258302280e-001	 1.299239692814689e+001
 1.739355045093891e+000	 7.646205555290072e-001	 1.299790109169925e+001
 1.731090637035950e+000	 7.831512287606772e-001	 1.299722107628013e+001
 1.722612116751946e+000	 8.016284611231731e-001	 1.299050774434022e+001
 1.713919754341489e+000	 8.200486591762006e-001	 1.297796712196698e+001
 1.705013898123057e+000	 8.384082224872302e-001	 1.295985831699477e+001
 1.695894975159521e+000	 8.567035457070906e-001	 1.293649069840894e+001
 1.686563491719131e+000	 8.749310206729553e-001	 1.290822030866453e+001
 1.677020033670570e+000	 8.930870385364330e-001	 1.287544548577150e+001
 1.667265266810758e+000	 9.111679919144055e-001	 1.283860167771640e+001
 1.657299937124190e+000	 9.291702770601759e-001	 1.279815543796495e+001
 1.753535804595439e+000	 7.486574582413831e-001	 1.300346909447011e+001
 1.745457457973962e+000	 7.673031765077846e-001	 1.300680000867910e+001
 1.737164054783222e+000	 7.858988633889095e-001	 1.300409607154371e+001
 1.728655788167798e+000	 8.044409219070525e-001	 1.299547094356987e+001
 1.719932929174930e+000	 8.229257460145701e-001	 1.298109652794218e+001
 1.710995827345145e+000	 8.413497226470509e-001	 1.296120099283142e+001
 1.701844911239638e+000	 8.597092338061929e-001	 1.293606603656142e+001
 1.692480688902867e+000	 8.780006586701662e-001	 1.290602336595636e+001
 1.682903748258998e+000	 8.962203757291724e-001	 1.287145036352451e+001
 1.673114757440853e+000	 9.143647649438252e-001	 1.283276492496924e+001
 1.663114465050167e+000	 9.324302099239195e-001	 1.279041945482301e+001
 1.759666469930197e+000	 7.512748945788091e-001	 1.302155018375345e+001
 1.751559880007443e+000	 7.699858015105993e-001	 1.302192618641050e+001
 1.743237481640399e+000	 7.886465021386789e-001	 1.301645220265716e+001
 1.734699468648917e+000	 8.072533869096865e-001	 1.300519839408076e+001
 1.725946113027860e+000	 8.258028371686097e-001	 1.298829659816295e+001
 1.716977765539816e+000	 8.442912272191379e-001	 1.296593846932006e+001
 1.707794856244301e+000	 8.627149264138195e-001	 1.293837284362930e+001
 1.698397894961988e+000	 8.810703012718046e-001	 1.290590229620246e+001
 1.688787471672527e+000	 8.993537176218677e-001	 1.286887886560960e+001
 1.678964256844652e+000	 9.175615427683384e-001	 1.282769892570983e+001
 1.668929001697338e+000	 9.356901476774830e-001	 1.278279719168376e+001
 1.765797145993466e+000	 7.538923354967473e-001	 1.304701914821111e+001
 1.757662312720026e+000	 7.726684312079784e-001	 1.304359315232084e+001
 1.749310919125939e+000	 7.913941456967579e-001	 1.303454053695984e+001
 1.740743159706326e+000	 8.100658568340448e-001	 1.301988169313955e+001
 1.731959307403683e+000	 8.286799333574388e-001	 1.299970247331301e+001
 1.722959714202657e+000	 8.472327369387087e-001	 1.297415246569736e+001
 1.713744811661092e+000	 8.657206242812326e-001	 1.294344247236831e+001
 1.704315111375880e+000	 8.841399492451175e-001	 1.290784115866843e+001
 1.694671205382161e+000	 9.024870649976924e-001	 1.286767084702090e+001
 1.684813766484584e+000	 9.207583261869791e-001	 1.282330243431629e+001
 1.674743548519371e+000	 9.389500911356974e-001	 1.277514941861391e+001
 1.771927834317984e+000	 7.565097816494371e-001	 1.308024834861461e+001
 1.763764757637406e+000	 7.753510662704486e-001	 1.307210874408138e+001
 1.755384368758295e+000	 7.941417947499168e-001	 1.305860731437034e+001
 1.746786862851048e+000	 8.128783323830974e-001	 1.303970843285687e+001
 1.737972513805797e+000	 8.315570353001780e-001	 1.301544607043539e+001
 1.728941674829252e+000	 8.501742525409822e-001	 1.298592221768876e+001
 1.719694778977591e+000	 8.687263281596939e-001	 1.295130449017368e+001
 1.710232339623929e+000	 8.872096033573542e-001	 1.291182288288452e+001
 1.700554950858902e+000	 9.056204186398202e-001	 1.286776564561694e+001
 1.690663287823079e+000	 9.239551159987846e-001	 1.281947425715476e+001
 1.680558106969941e+000	 9.422100411133936e-001	 1.276733748291531e+001
 1.778058536436490e+000	 7.591272336911190e-001	 1.312160365848494e+001
 1.769867216285273e+000	 7.780337073685373e-001	 1.310777519921534e+001
 1.761457832055922e+000	 7.968894499849266e-001	 1.308889402306695e+001
 1.752830579594108e+000	 8.156908142598141e-001	 1.306486226260365e+001
 1.743985733737606e+000	 8.344341437159465e-001	 1.303565613275427e+001
 1.734923648915190e+000	 8.531157747611763e-001	 1.300132451541079e+001
 1.725644759681382e+000	 8.717320388004651e-001	 1.296198670574356e+001
 1.716149581185522e+000	 8.902792643757621e-001	 1.291782928475506e+001
 1.706438709573752e+000	 9.087537793314253e-001	 1.286910208836550e+001
 1.696512822322570e+000	 9.271519130027890e-001	 1.281611324965261e+001
 1.686372678502719e+000	 9.454699984254018e-001	 1.275922329772225e+001
 1.628227377433699e+000	 9.128706575696799e-001	 1.284345621705840e+001
 1.618229288713946e+000	 9.304789564240998e-001	 1.280167937688074e+001
 1.608025973600485e+000	 9.480028805172917e-001	 1.275868251245339e+001
 1.597618403935810e+000	 9.654389124762559e-001	 1.271489390318516e+001
 1.587007630703517e+000	 9.827835472266669e-001	 1.267073413631715e+001
 1.576194783930540e+000	 1.000033294188532e+000	 1.262660692614152e+001
 1.565181072517051e+000	 1.017184679476191e+000	 1.258289074820046e+001
 1.553967783993609e+000	 1.034234248099903e+000	 1.253992248047253e+001
 1.542556284205236e+000	 1.051178566166237e+000	 1.249799564647224e+001
 1.530948016922200e+000	 1.068014223074453e+000	 1.245734265966338e+001
 1.519144503377449e+000	 1.084737833706065e+000	 1.241812457171696e+001
 1.634041883558781e+000	 9.161305782067851e-001	 1.283304207975304e+001
 1.624008091012704e+000	 9.338017574444000e-001	 1.279208606708326e+001
 1.613768339196110e+000	 9.513882606129945e-001	 1.274994005299327e+001
 1.603323603421993e+000	 9.688865577788064e-001	 1.270702821682717e+001
 1.592674938427071e+000	 9.862931313506641e-001	 1.266376629959972e+001
 1.581823478273663e+000	 1.003604478283490e+000	 1.262055228112950e+001
 1.570770436178989e+000	 1.020817112286156e+000	 1.257775781194120e+001
 1.559517104271456e+000	 1.037927566030934e+000	 1.253571185596028e+001
 1.548064853273591e+000	 1.054932393361736e+000	 1.249469847752484e+001
 1.536415132111450e+000	 1.071828171498351e+000	 1.245493905891291e+001
 1.524569467450388e+000	 1.088611503233817e+000	 1.241658178491805e+001
 1.639856391136701e+000	 9.193904996595568e-001	 1.282344692755824e+001
 1.629786894755408e+000	 9.371245592960400e-001	 1.278282406733070e+001
 1.619510706226610e+000	 9.547736415556311e-001	 1.274100792808804e+001
 1.609028804333805e+000	 9.723342039438019e-001	 1.269842109195642e+001
 1.598342247566829e+000	 9.898027163525364e-001	 1.265547738853961e+001
 1.587452174023388e+000	 1.007175663271671e+000	 1.261257242593752e+001
 1.576359801237752e+000	 1.024449546004611e+000	 1.257007481430796e+001
 1.565066425936167e+000	 1.041620884885633e+000	 1.252830980729152e+001
 1.553573423718674e+000	 1.058686221496000e+000	 1.248755661941590e+001
 1.541882248667110e+000	 1.075642120876025e+000	 1.244803061225904e+001
 1.529994432879242e+000	 1.092485173730273e+000	 1.240987250424132e+001
 1.645670901621129e+000	 9.226504227428251e-001	 1.281452844427059e+001
 1.635565701386777e+000	 9.404473628095780e-001	 1.277371349967738e+001
 1.625253076127579e+000	 9.581590241914136e-001	 1.273167169222578e+001
 1.614734008097527e+000	 9.757818518330338e-001	 1.268882646691172e+001
 1.604009559539578e+000	 9.933123031095723e-001	 1.264559263204643e+001
 1.593080872586826e+000	 1.010746850045776e+000	 1.260236822741504e+001
 1.581949169090591e+000	 1.028081981539577e+000	 1.255951809745504e+001
 1.570615750374966e+000	 1.045314205587259e+000	 1.251737240025781e+001
 1.559081996917497e+000	 1.062440051507424e+000	 1.247620857075425e+001
 1.547349367955814e+000	 1.079456072160909e+000	 1.243624090635827e+001
 1.535419401020091e+000	 1.096358846163799e+000	 1.239760800388283e+001
 1.651485416465734e+000	 9.259103482714212e-001	 1.280614496049055e+001
 1.641344512351543e+000	 9.437701688155739e-001	 1.276457565806197e+001
 1.630995450334611e+000	 9.615444093665555e-001	 1.272171855387853e+001
 1.620439216139437e+000	 9.792295023082919e-001	 1.267800037359914e+001
 1.609676875762099e+000	 9.968218924990583e-001	 1.263383975018538e+001
 1.598709575371082e+000	 1.014318039498504e+000	 1.258963889049934e+001
 1.587538541134759e+000	 1.031714419799078e+000	 1.254576716622972e+001
 1.576165078975069e+000	 1.049007529059066e+000	 1.250255913863188e+001
 1.564590574247075e+000	 1.066193884334401e+000	 1.246029650406554e+001
 1.552816491344194e+000	 1.083270026306436e+000	 1.241919739916657e+001
 1.540844373229018e+000	 1.100232521502765e+000	 1.237940358902221e+001
 1.657299937124190e+000	 9.291702770601759e-001	 1.279815543796495e+001
 1.647123329094427e+000	 9.470929781445850e-001	 1.275523298391902e+001
 1.636737830283300e+000	 9.649297979272700e-001	 1.271093734307207e+001
 1.626144429885816e+000	 9.826771562313674e-001	 1.266570089769898e+001
 1.615344197651177e+000	 1.000331485398282e+000	 1.261994890768803e+001
 1.604338283783265e+000	 1.017889232522554e+000	 1.257409097116252e+001
 1.593127918767508e+000	 1.035346861691141e+000	 1.252850463024460e+001
 1.581714413123700e+000	 1.052700856224312e+000	 1.248353290147005e+001
 1.570099157084421e+000	 1.069947720915326e+000	 1.243946619893982e+001
 1.558283620198885e+000	 1.087083984266036e+000	 1.239653134953312e+001
 1.546269350862104e+000	 1.104106200715540e+000	 1.235487852244774e+001
 1.663114465050167e+000	 9.324302099239195e-001	 1.279041945482301e+001
 1.652902153060155e+000	 9.504157916271708e-001	 1.274550904287558e+001
 1.642480217409241e+000	 9.683151907197707e-001	 1.269911848021772e+001
 1.631849650762943e+000	 9.861248144640504e-001	 1.265168814029641e+001
 1.621011526623595e+000	 1.003841082684531e+000	 1.260365266903426e+001
 1.609966999230480e+000	 1.021460430010627e+000	 1.255543223528667e+001
 1.598717303386091e+000	 1.038979308123788e+000	 1.250741614777083e+001
 1.587263754208078e+000	 1.056394188006254e+000	 1.245995988233959e+001
 1.575607746806549e+000	 1.073701562188593e+000	 1.241336697719439e+001
 1.563750755886520e+000	 1.090897946993144e+000	 1.236787774888513e+001
 1.551694335275432e+000	 1.107979884770492e+000	 1.232365595333599e+001
 1.668929001697338e+000	 9.356901476774830e-001	 1.278279719168376e+001
 1.658680985693452e+000	 9.537386100938892e-001	 1.273522850250684e+001
 1.648222613148027e+000	 9.717005885902698e-001	 1.268605394617581e+001
 1.637554880197098e+000	 9.895724778681321e-001	 1.263572418090146e+001
 1.626678864096137e+000	 1.007350685235092e+000	 1.258468595506650e+001
 1.615595723119837e+000	 1.025031632855421e+000	 1.253337314354235e+001
 1.604306696387759e+000	 1.042611760005043e+000	 1.248219037140779e+001
 1.592813103615424e+000	 1.060087525328149e+000	 1.243150953042376e+001
 1.581116344790473e+000	 1.077455409092595e+000	 1.238165164000170e+001
 1.569217899773733e+000	 1.094711915441191e+000	 1.233287525495291e+001
 1.557119327825082e+000	 1.111853574635990e+000	 1.228536284813333e+001
 1.674743548519371e+000	 9.389500911356974e-001	 1.277514941861391e+001
 1.664459828439043e+000	 9.570614343752996e-001	 1.272421711112487e+001
 1.653965018935251e+000	 9.750859923849811e-001	 1.267153725352018e+001
 1.643260119614560e+000	 9.930201473054020e-001	 1.261757304182404e+001
 1.632346211485587e+000	 1.010860293927253e+000	 1.256278742039893e+001
 1.621224456858440e+000	 1.028602841949637e+000	 1.250762680384488e+001
 1.609896099169767e+000	 1.046244218242930e+000	 1.245251889548601e+001
 1.598362462732960e+000	 1.063780869113253e+000	 1.239785449345882e+001
 1.586624952413206e+000	 1.081209262565728e+000	 1.234397640693519e+001
 1.574685053227157e+000	 1.098525890563611e+000	 1.229116612748542e+001
 1.562544329867139e+000	 1.115727271280403e+000	 1.223962992348818e+001
 1.680558106969941e+000	 9.422100411133936e-001	 1.276733748291531e+001
 1.670238682741653e+000	 9.603842653019601e-001	 1.271230167757552e+001
 1.659707436206509e+000	 9.784714029501168e-001	 1.265536341897521e+001
 1.648965370441609e+000	 9.964678236376521e-001	 1.259700065387163e+001
 1.638013570208727e+000	 1.014369909638300e+000	 1.253769368474046e+001
 1.626853201853401e+000	 1.032174058185975e+000	 1.247790892539232e+001
 1.615485513129365e+000	 1.049876683745474e+000	 1.241809620516102e+001
 1.603911832947905e+000	 1.067474220284823e+000	 1.235867056245852e+001
 1.592133571051763e+000	 1.084963123546384e+000	 1.230000085688613e+001
 1.580152217613425e+000	 1.102339873313836e+000	 1.224239616590795e+001
 1.567969342757683e+000	 1.119600975672099e+000	 1.218609158118434e+001
 1.686372678502719e+000	 9.454699984254018e-001	 1.275922329772225e+001
 1.676017550046008e+000	 9.637071037044297e-001	 1.269931005201896e+001
 1.665449866397395e+000	 9.818568211318917e-001	 1.263732893699666e+001
 1.654670634104525e+000	 9.999155077266720e-001	 1.257377482333734e+001
 1.643680941682342e+000	 1.017879533245523e+000	 1.250914796297513e+001
 1.632481959511823e+000	 1.035745282457134e+000	 1.244393777424684e+001
 1.621074939663807e+000	 1.053509157420699e+000	 1.237861962715759e+001
 1.609461215647480e+000	 1.071167579766116e+000	 1.231363661818295e+001
 1.597642202083156e+000	 1.088716992972960e+000	 1.224938787080637e+001
 1.585619394299172e+000	 1.106153864645299e+000	 1.218621464887498e+001
 1.573394367852796e+000	 1.123474688779447e+000	 1.212438584502679e+001
 1.519144503377449e+000	 1.084737833706065e+000	 1.241812457171696e+001
 1.507147341302099e+000	 1.101346040237664e+000	 1.237726857669852e+001
 1.494958203042528e+000	 1.117835513184680e+000	 1.233207317029562e+001
 1.482578836186885e+000	 1.134202954616346e+000	 1.228313954882458e+001
 1.470011063245638e+000	 1.150445100653127e+000	 1.223098314244804e+001
 1.457256780828759e+000	 1.166558723581895e+000	 1.217601961922032e+001
 1.444317958751618e+000	 1.182540633947380e+000	 1.211855088192210e+001
 1.431196639070430e+000	 1.198387682617118e+000	 1.205875115971281e+001
 1.417894935048125e+000	 1.214096762817131e+000	 1.199665330038528e+001
 1.404415030051720e+000	 1.229664812135602e+000	 1.193213537205444e+001
 1.390759176382327e+000	 1.245088814491888e+000	 1.186490768540746e+001
 1.524569467450388e+000	 1.088611503233817e+000	 1.241658178491805e+001
 1.512529462727118e+000	 1.105279018753723e+000	 1.237666495947014e+001
 1.500296796260080e+000	 1.121827376683695e+000	 1.233260909478394e+001
 1.487873221878177e+000	 1.138253267315839e+000	 1.228501653243419e+001
 1.475260568600199e+000	 1.154553415115096e+000	 1.223440249899003e+001
 1.462460739809040e+000	 1.170724580841963e+000	 1.218118080445983e+001
 1.449475712354419e+000	 1.186763563651418e+000	 1.212564952535119e+001
 1.436307535584875e+000	 1.202667203165244e+000	 1.206797677640653e+001
 1.422958330309948e+000	 1.218432381514966e+000	 1.200818667895415e+001
 1.409430287693609e+000	 1.234056025352699e+000	 1.194614563697765e+001
 1.395725668080095e+000	 1.249535107827180e+000	 1.188154903439947e+001
 1.529994432879242e+000	 1.092485173730273e+000	 1.240987250424132e+001
 1.517911585497376e+000	 1.109211998253325e+000	 1.237024174665232e+001
 1.505635390812015e+000	 1.125819241180998e+000	 1.232668470617483e+001
 1.493167608892833e+000	 1.142303581028267e+000	 1.227980170705001e+001
 1.480510075266928e+000	 1.158661730604541e+000	 1.223010521369448e+001
 1.467664700090127e+000	 1.174890439143936e+000	 1.217800522699877e+001
 1.454633467246502e+000	 1.190986494411673e+000	 1.212379465568847e+001
 1.441418433376919e+000	 1.206946724783770e+000	 1.206763476884649e+001
 1.428021726837531e+000	 1.222768001297256e+000	 1.200954083970687e+001
 1.414445546589267e+000	 1.238447239668167e+000	 1.194936809411236e+001
 1.400692161019491e+000	 1.253981402274614e+000	 1.188679807952529e+001
 1.535419401020091e+000	 1.096358846163799e+000	 1.239760800388283e+001
 1.523293710958232e+000	 1.113144979719667e+000	 1.235760140303171e+001
 1.510973988032811e+000	 1.129811107674509e+000	 1.231389813597533e+001
 1.498461998554266e+000	 1.146353896766162e+000	 1.226709339168924e+001
 1.485759584558018e+000	 1.162770048148489e+000	 1.221769435505010e+001
 1.472868662972828e+000	 1.179056299529222e+000	 1.216610530432663e+001
 1.459791224717125e+000	 1.195209427283813e+000	 1.211261267279976e+001
 1.446529333724109e+000	 1.211226248542506e+000	 1.205737018265701e+001
 1.433085125896549e+000	 1.227103623247825e+000	 1.200038416345651e+001
 1.419460807992339e+000	 1.242838456179720e+000	 1.194149917086203e+001
 1.405658656441975e+000	 1.258427698945665e+000	 1.188038402395658e+001
 1.540844373229018e+000	 1.100232521502765e+000	 1.237940358902221e+001
 1.528675840455049e+000	 1.117077964135948e+000	 1.233835053373892e+001
 1.516312589256935e+000	 1.133802977162149e+000	 1.229385170150705e+001
 1.503756392185890e+000	 1.150404215542052e+000	 1.224649407230272e+001
 1.491009097785662e+000	 1.166878368773969e+000	 1.219677707486027e+001
 1.478072629757950e+000	 1.183222163039228e+000	 1.214509738857864e+001
 1.464948986055546e+000	 1.199432363323505e+000	 1.209173369724103e+001
 1.451640237903991e+000	 1.215505775511260e+000	 1.203683150474848e+001
 1.438148528752678e+000	 1.231439248450499e+000	 1.198038812736295e+001
 1.424476073156471e+000	 1.247229675985073e+000	 1.192223798048957e+001
 1.410625155589007e+000	 1.262873998951811e+000	 1.186203828075078e+001
 1.546269350862104e+000	 1.104106200715540e+000	 1.235487852244774e+001
 1.534057975333185e+000	 1.121010952485367e+000	 1.231209980871246e+001
 1.521651195818862e+000	 1.137794850641838e+000	 1.226615182925524e+001
 1.509050791111123e+000	 1.154454538368468e+000	 1.221761032506538e+001
 1.496258616262053e+000	 1.170986693508005e+000	 1.216696453253948e+001
 1.483276601746298e+000	 1.187388030715361e+000	 1.211460169291075e+001
 1.470106752551023e+000	 1.203655303586418e+000	 1.206079149979114e+001
 1.456751147194114e+000	 1.219785306759841e+000	 1.200567059709329e+001
 1.443211936671595e+000	 1.235774877989101e+000	 1.194922724404171e+001
 1.429491343335313e+000	 1.251620900181940e+000	 1.189128626765337e+001
 1.415591659702049e+000	 1.267320303404528e+000	 1.183149442591096e+001
 1.551694335275432e+000	 1.107979884770492e+000	 1.232365595333599e+001
 1.539440116938005e+000	 1.124943945751123e+000	 1.227846388936272e+001
 1.526989809053061e+000	 1.141786729111496e+000	 1.223040898044068e+001
 1.514345196653381e+000	 1.158504866257943e+000	 1.218005274188879e+001
 1.501508141299385e+000	 1.175095023377626e+000	 1.212787182160821e+001
 1.488480580238682e+000	 1.191553903599028e+000	 1.207424222002567e+001
 1.475264525492813e+000	 1.207878249128222e+000	 1.201942343306506e+001
 1.461862062872021e+000	 1.224064843358056e+000	 1.196354263248739e+001
 1.448275350918976e+000	 1.240110512947457e+000	 1.190657900254041e+001
 1.434506619782508e+000	 1.256012129868037e+000	 1.184834835566878e+001
 1.420558170022561e+000	 1.271766613415290e+000	 1.178848815300529e+001
 1.557119327825082e+000	 1.111853574635990e+000	 1.228536284813333e+001
 1.544822266614867e+000	 1.128876944916414e+000	 1.223706135738218e+001
 1.532328430294005e+000	 1.145778613569043e+000	 1.218623757875963e+001
 1.519639610136075e+000	 1.162555200223005e+000	 1.213343585810174e+001
 1.506757674209851e+000	 1.179203359409859e+000	 1.207911789833229e+001
 1.493684566535907e+000	 1.195719782731637e+000	 1.202364669279776e+001
 1.480422306170173e+000	 1.212101201004582e+000	 1.196727036515660e+001
 1.466972986215262e+000	 1.228344386375714e+000	 1.191010603224957e+001
 1.453338772760495e+000	 1.244446154409389e+000	 1.185212381113770e+001
 1.439521903751706e+000	 1.260403366141076e+000	 1.179313109545346e+001
 1.425524687792004e+000	 1.276212930095576e+000	 1.173275722930891e+001
 1.562544329867139e+000	 1.115727271280403e+000	 1.223962992348818e+001
 1.550204425709133e+000	 1.132809950964440e+000	 1.218751464564955e+001
 1.537667060876166e+000	 1.149770505012400e+000	 1.213325594023955e+001
 1.524934032882624e+000	 1.166605541276186e+000	 1.207737808224526e+001
 1.512007216305645e+000	 1.183311702631730e+000	 1.202032551245464e+001
 1.498888561938780e+000	 1.199885669154594e+000	 1.196244648694473e+001
 1.485580095872362e+000	 1.216324160271170e+000	 1.190397661526095e+001
 1.472083918501383e+000	 1.232623936882623e+000	 1.184502240581045e+001
 1.458402203461830e+000	 1.248781803458724e+000	 1.178554494191939e+001
 1.444537196496551e+000	 1.264794610098774e+000	 1.172534381611509e+001
 1.430491214251839e+000	 1.280659254556861e+000	 1.166404145343004e+001
 1.567969342757683e+000	 1.119600975672099e+000	 1.218609158118434e+001
 1.555586595566164e+000	 1.136742964878400e+000	 1.212944997117720e+001
 1.543005702134014e+000	 1.153762404439487e+000	 1.207108620515856e+001
 1.530228466216443e+000	 1.170655890430016e+000	 1.201150162793172e+001
 1.517256768898960e+000	 1.187420054070268e+000	 1.195112113996840e+001
 1.504092567748108e+000	 1.204051563909306e+000	 1.189027656569755e+001
 1.490737895888636e+000	 1.220547127983652e+000	 1.182918989122941e+001
 1.477194861007929e+000	 1.236903495948591e+000	 1.176795649214638e+001
 1.463465644288655e+000	 1.253117461179285e+000	 1.170652847708962e+001
 1.449552499270689e+000	 1.269185862838843e+000	 1.164469827714210e+001
 1.435457750643527e+000	 1.285105587910620e+000	 1.158208261438540e+001
 1.573394367852796e+000	 1.123474688779447e+000	 1.212438584502679e+001
 1.560968777531320e+000	 1.140675987641491e+000	 1.206249727005230e+001
 1.548344355402024e+000	 1.157754312848225e+000	 1.199935427197945e+001
 1.535522911460947e+000	 1.174706248697026e+000	 1.193543244771747e+001
 1.522506333301989e+000	 1.191528414752497e+000	 1.187113491788248e+001
 1.509296585264699e+000	 1.208217468037181e+000	 1.180677541641937e+001
 1.495895707508254e+000	 1.224770105197696e+000	 1.174256122900927e+001
 1.482305815012449e+000	 1.241183064643427e+000	 1.167857610301235e+001
 1.468529096506648e+000	 1.257453128654897e+000	 1.161476325697430e+001
 1.454567813327771e+000	 1.273577125459001e+000	 1.155090862215795e+001
 1.440424298208528e+000	 1.289551931268331e+000	 1.148662445208883e+001
 1.390759176382327e+000	 1.245088814491888e+000	 1.186490768540746e+001
 1.376931781464302e+000	 1.260363522001592e+000	 1.180175343578535e+001
 1.362933196495552e+000	 1.275488343663569e+000	 1.174692887561130e+001
 1.348765872990182e+000	 1.290460416310646e+000	 1.169600162530723e+001
 1.334432326005897e+000	 1.305276930578148e+000	 1.164420286423578e+001
 1.319935132658436e+000	 1.319935132658435e+000	 1.158737686130754e+001
 1.305276930578149e+000	 1.334432326005897e+000	 1.152077938306126e+001
 1.290460416310646e+000	 1.348765872990182e+000	 1.144896061720081e+001
 1.275488343663570e+000	 1.362933196495552e+000	 1.137614261635406e+001
 1.260363522001592e+000	 1.376931781464302e+000	 1.129948410047308e+001
 1.245088814491889e+000	 1.390759176382327e+000	 1.121636794759248e+001
 1.395725668080095e+000	 1.249535107827180e+000	 1.188154903439947e+001
 1.381848894632969e+000	 1.264864362313474e+000	 1.182070833317389e+001
 1.367800319804291e+000	 1.280043195699931e+000	 1.176740245232242e+001
 1.353582403862687e+000	 1.295068734594818e+000	 1.171716838296944e+001
 1.339197670847297e+000	 1.309938159601035e+000	 1.166520187122670e+001
 1.324648707076913e+000	 1.324648707076912e+000	 1.160676397399043e+001
 1.309938159601035e+000	 1.339197670847297e+000	 1.153913946442475e+001
 1.295068734594818e+000	 1.353582403862687e+000	 1.147039015748225e+001
 1.280043195699931e+000	 1.367800319804292e+000	 1.140038416769531e+001
 1.264864362313473e+000	 1.381848894632969e+000	 1.132624269799935e+001
 1.249535107827180e+000	 1.395725668080095e+000	 1.124531651090714e+001
 1.400692161019491e+000	 1.253981402274614e+000	 1.188679807952529e+001
 1.386766009030979e+000	 1.269365203751116e+000	 1.182767316874189e+001
 1.372667444329943e+000	 1.284598048875522e+000	 1.177530709207480e+001
 1.358398935939528e+000	 1.299677054031539e+000	 1.172522265554725e+001
 1.343963016880310e+000	 1.314599389789641e+000	 1.167259709852226e+001
 1.329362282674131e+000	 1.329362282674130e+000	 1.161234539806113e+001
 1.314599389789641e+000	 1.343963016880310e+000	 1.154511035652041e+001
 1.299677054031539e+000	 1.358398935939528e+000	 1.147902199181254e+001
 1.284598048875522e+000	 1.372667444329943e+000	 1.141154435354857e+001
 1.269365203751116e+000	 1.386766009030979e+000	 1.133977956373696e+001
 1.253981402274614e+000	 1.400692161019491e+000	 1.126106517073941e+001
 1.405658656441975e+000	 1.258427698945665e+000	 1.188038402395658e+001
 1.391683125887454e+000	 1.273866047439626e+000	 1.182241441184319e+001
 1.377534571289138e+000	 1.289152904328944e+000	 1.177045069162366e+001
 1.363215470424692e+000	 1.304285375772770e+000	 1.172001778844608e+001
 1.348728365296131e+000	 1.319260622309147e+000	 1.166629121739480e+001
 1.334075860628347e+000	 1.334075860628347e+000	 1.160411592878285e+001
 1.319260622309147e+000	 1.348728365296131e+000	 1.153859423665914e+001
 1.304285375772770e+000	 1.363215470424692e+000	 1.147482090671537e+001
 1.289152904328944e+000	 1.377534571289138e+000	 1.140965355125477e+001
 1.273866047439626e+000	 1.391683125887454e+000	 1.134019347841682e+001
 1.258427698945666e+000	 1.405658656441974e+000	 1.126378375382642e+001
 1.410625155589007e+000	 1.262873998951811e+000	 1.186203828075078e+001
 1.396600246431514e+000	 1.278366894504106e+000	 1.180470020394389e+001
 1.382401701898505e+000	 1.293707763198798e+000	 1.175264222521536e+001
 1.368032008522168e+000	 1.308893700970471e+000	 1.170140755538625e+001
 1.353493717285959e+000	 1.323921858324734e+000	 1.164618662605424e+001
 1.338789442117826e+000	 1.338789442117826e+000	 1.158292554960156e+001
 1.323921858324734e+000	 1.353493717285959e+000	 1.151949110201531e+001
 1.308893700970470e+000	 1.368032008522168e+000	 1.145774870845156e+001
 1.293707763198798e+000	 1.382401701898506e+000	 1.139473830875291e+001
 1.278366894504106e+000	 1.396600246431514e+000	 1.132757849791030e+001
 1.262873998951811e+000	 1.410625155589007e+000	 1.125363642303302e+001
 1.415591659702049e+000	 1.267320303404528e+000	 1.183149442591096e+001
 1.401517371892282e+000	 1.282867746069662e+000	 1.177430032024242e+001
 1.387268837374675e+000	 1.298262626623684e+000	 1.172169171572194e+001
 1.372848551435941e+000	 1.313502030776599e+000	 1.166924613997005e+001
 1.358259074040989e+000	 1.328583099001582e+000	 1.161218544252959e+001
 1.343503028320826e+000	 1.343503028320826e+000	 1.154911702364015e+001
 1.328583099001582e+000	 1.358259074040988e+000	 1.148769884512999e+001
 1.313502030776599e+000	 1.372848551435941e+000	 1.142776431179677e+001
 1.298262626623683e+000	 1.387268837374675e+000	 1.136682144729729e+001
 1.282867746069663e+000	 1.401517371892282e+000	 1.130202407051170e+001
 1.267320303404527e+000	 1.415591659702049e+000	 1.123078180978630e+001
 1.420558170022561e+000	 1.271766613415290e+000	 1.178848815300529e+001
 1.406434503498881e+000	 1.287368603261401e+000	 1.173098613266155e+001
 1.392135978934277e+000	 1.302817495742201e+000	 1.167741020693842e+001
 1.377665100370002e+000	 1.318110366343118e+000	 1.162338811818224e+001
 1.363024436752418e+000	 1.333244345504872e+000	 1.156418949823499e+001
 1.348216620415608e+000	 1.348216620415608e+000	 1.150251985143152e+001
 1.333244345504872e+000	 1.363024436752418e+000	 1.144311332954740e+001
 1.318110366343118e+000	 1.377665100370002e+000	 1.138482382865200e+001
 1.302817495742201e+000	 1.392135978934277e+000	 1.132592216369084e+001
 1.287368603261400e+000	 1.406434503498881e+000	 1.126361515340559e+001
 1.271766613415290e+000	 1.420558170022561e+000	 1.119537314534887e+001
 1.425524687792004e+000	 1.276212930095576e+000	 1.173275722930891e+001
 1.411351642480431e+000	 1.291869467204425e+000	 1.167453057417834e+001
 1.397003127793942e+000	 1.307372371692950e+000	 1.161960973701385e+001
 1.382481656528336e+000	 1.322718708821985e+000	 1.156368844180144e+001
 1.367789806611446e+000	 1.337905598999786e+000	 1.150276591182763e+001
 1.352930219580434e+000	 1.352930219580434e+000	 1.144296573050710e+001
 1.337905598999786e+000	 1.367789806611446e+000	 1.138551844921548e+001
 1.322718708821984e+000	 1.382481656528336e+000	 1.132888065649131e+001
 1.307372371692951e+000	 1.397003127793941e+000	 1.127205613204736e+001
 1.291869467204424e+000	 1.411351642480431e+000	 1.121243232833959e+001
 1.276212930095576e+000	 1.425524687792005e+000	 1.114755839096108e+001
 1.430491214251839e+000	 1.280659254556861e+000	 1.166404145343004e+001
 1.416268790066055e+000	 1.296370339023840e+000	 1.160470810445976e+001
 1.401870285170298e+000	 1.311927255614532e+000	 1.154810331298944e+001
 1.387298221114932e+000	 1.327327059365160e+000	 1.149000242269970e+001
 1.372555184809268e+000	 1.342566860651502e+000	 1.142843860671376e+001
 1.357643826993563e+000	 1.357643826993563e+000	 1.137028853077941e+001
 1.342566860651503e+000	 1.372555184809268e+000	 1.131468649674765e+001
 1.327327059365160e+000	 1.387298221114932e+000	 1.125988556665144e+001
 1.311927255614533e+000	 1.401870285170298e+000	 1.120523560509387e+001
 1.296370339023840e+000	 1.416268790066055e+000	 1.114855191652183e+001
 1.280659254556861e+000	 1.430491214251839e+000	 1.108748036687893e+001
 1.435457750643527e+000	 1.285105587910620e+000	 1.158208261438540e+001
 1.421185947484873e+000	 1.300871219844750e+000	 1.152129467677198e+001
 1.406737452279978e+000	 1.316482148645548e+000	 1.146270488641574e+001
 1.392114795333778e+000	 1.331935419124604e+000	 1.140218571800912e+001
 1.377320572537081e+000	 1.347228131625204e+000	 1.134099682740184e+001
 1.362357443833257e+000	 1.362357443833257e+000	 1.128432427032755e+001
 1.347228131625204e+000	 1.377320572537081e+000	 1.123050342046114e+001
 1.331935419124604e+000	 1.392114795333778e+000	 1.117778679246722e+001
 1.316482148645548e+000	 1.406737452279977e+000	 1.112546951502527e+001
 1.300871219844750e+000	 1.421185947484873e+000	 1.107204609276314e+001
 1.285105587910620e+000	 1.435457750643527e+000	 1.101527688033571e+001
 1.440424298208528e+000	 1.289551931268331e+000	 1.148662445208883e+001
 1.426103115966008e+000	 1.305372110792263e+000	 1.142406770613287e+001
 1.411604630339610e+000	 1.321037051924598e+000	 1.136322933002378e+001
 1.396931380388861e+000	 1.336543789252277e+000	 1.130037111477003e+001
 1.382085970986084e+000	 1.351889413086072e+000	 1.124023249719609e+001
 1.367071071277777e+000	 1.367071071277777e+000	 1.118491109157737e+001
 1.351889413086072e+000	 1.382085970986084e+000	 1.113285661127833e+001
 1.336543789252277e+000	 1.396931380388861e+000	 1.108248204700669e+001
 1.321037051924597e+000	 1.411604630339610e+000	 1.103276357392232e+001
 1.305372110792263e+000	 1.426103115966009e+000	 1.098298299888175e+001
 1.289551931268331e+000	 1.440424298208528e+000	 1.093108085245348e+001
 1.245088814491889e+000	 1.390759176382327e+000	 1.121636794759248e+001
 1.229664812135602e+000	 1.404415030051719e+000	 1.112807583937830e+001
 1.214096762817131e+000	 1.417894935048125e+000	 1.103698874573504e+001
 1.198387682617119e+000	 1.431196639070430e+000	 1.094241580054142e+001
 1.182540633947380e+000	 1.444317958751618e+000	 1.084385866999498e+001
 1.166558723581895e+000	 1.457256780828759e+000	 1.074099811424816e+001
 1.150445100653127e+000	 1.470011063245638e+000	 1.063367970181046e+001
 1.134202954616346e+000	 1.482578836186884e+000	 1.052189884139409e+001
 1.117835513184680e+000	 1.494958203042528e+000	 1.040578529798479e+001
 1.101346040237664e+000	 1.507147341302099e+000	 1.028558736047321e+001
 1.084737833706065e+000	 1.519144503377448e+000	 1.016165582720078e+001
 1.249535107827180e+000	 1.395725668080095e+000	 1.124531651090714e+001
 1.234056025352699e+000	 1.409430287693609e+000	 1.115890868693733e+001
 1.218432381514966e+000	 1.422958330309948e+000	 1.106945610743901e+001
 1.202667203165244e+000	 1.436307535584875e+000	 1.097629597396350e+001
 1.186763563651419e+000	 1.449475712354419e+000	 1.087896247405585e+001
 1.170724580841963e+000	 1.462460739809040e+000	 1.077717287306148e+001
 1.154553415115096e+000	 1.475260568600200e+000	 1.067081274199951e+001
 1.138253267315839e+000	 1.487873221878177e+000	 1.055992049064738e+001
 1.121827376683695e+000	 1.500296796260079e+000	 1.044467137712148e+001
 1.105279018753723e+000	 1.512529462727118e+000	 1.032536116579241e+001
 1.088611503233817e+000	 1.524569467450388e+000	 1.020238960435080e+001
 1.253981402274614e+000	 1.400692161019491e+000	 1.126106517073941e+001
 1.238447239668167e+000	 1.414445546589267e+000	 1.117673516936960e+001
 1.222768001297256e+000	 1.428021726837530e+000	 1.108925956479452e+001
 1.206946724783770e+000	 1.441418433376919e+000	 1.099797324297804e+001
 1.190986494411673e+000	 1.454633467246502e+000	 1.090241096655568e+001
 1.174890439143936e+000	 1.467664700090127e+000	 1.080229305169243e+001
 1.158661730604541e+000	 1.480510075266929e+000	 1.069751016657628e+001
 1.142303581028268e+000	 1.493167608892833e+000	 1.058810742509433e+001
 1.125819241180998e+000	 1.505635390812016e+000	 1.047426795141080e+001
 1.109211998253325e+000	 1.517911585497376e+000	 1.035629609171320e+001
 1.092485173730272e+000	 1.529994432879242e+000	 1.023460044832838e+001
 1.258427698945666e+000	 1.405658656441974e+000	 1.126378375382642e+001
 1.242838456179720e+000	 1.419460807992339e+000	 1.118179109538790e+001
 1.227103623247825e+000	 1.433085125896548e+000	 1.109668846088417e+001
 1.211226248542506e+000	 1.446529333724109e+000	 1.100777839352261e+001
 1.195209427283812e+000	 1.459791224717125e+000	 1.091456465317731e+001
 1.179056299529222e+000	 1.472868662972828e+000	 1.081673753258053e+001
 1.162770048148490e+000	 1.485759584558018e+000	 1.071415828296813e+001
 1.146353896766162e+000	 1.498461998554265e+000	 1.060684282706671e+001
 1.129811107674509e+000	 1.510973988032811e+000	 1.049494493950977e+001
 1.113144979719667e+000	 1.523293710958232e+000	 1.037873907530453e+001
 1.096358846163799e+000	 1.535419401020091e+000	 1.025860302585934e+001
 1.262873998951811e+000	 1.410625155589007e+000	 1.125363642303302e+001
 1.247229675985073e+000	 1.424476073156471e+000	 1.117430573624064e+001
 1.231439248450499e+000	 1.438148528752678e+000	 1.109202489765926e+001
 1.215505775511260e+000	 1.451640237903991e+000	 1.100603443223357e+001
 1.199432363323505e+000	 1.464948986055546e+000	 1.091577588306783e+001
 1.183222163039228e+000	 1.478072629757949e+000	 1.082087682063662e+001
 1.166878368773969e+000	 1.491009097785662e+000	 1.072113495150035e+001
 1.150404215542052e+000	 1.503756392185891e+000	 1.061650150869313e+001
 1.133802977162149e+000	 1.516312589256935e+000	 1.050706410817360e+001
 1.117077964135948e+000	 1.528675840455049e+000	 1.039302925624704e+001
 1.100232521502765e+000	 1.540844373229018e+000	 1.027470469170262e+001
 1.267320303404527e+000	 1.415591659702049e+000	 1.123078180978630e+001
 1.251620900181940e+000	 1.429491343335313e+000	 1.115450197198275e+001
 1.235774877989102e+000	 1.443211936671596e+000	 1.107554389291003e+001
 1.219785306759841e+000	 1.456751147194113e+000	 1.099305675106879e+001
 1.203655303586418e+000	 1.470106752551023e+000	 1.090638901815885e+001
 1.187388030715362e+000	 1.483276601746298e+000	 1.081507321440214e+001
 1.170986693508005e+000	 1.496258616262053e+000	 1.071880975563398e+001
 1.154454538368468e+000	 1.509050791111123e+000	 1.061745007855480e+001
 1.137794850641837e+000	 1.521651195818862e+000	 1.051097923277138e+001
 1.121010952485367e+000	 1.534057975333186e+000	 1.039949812875778e+001
 1.104106200715540e+000	 1.546269350862104e+000	 1.028320562963854e+001
 1.271766613415290e+000	 1.420558170022561e+000	 1.119537314534887e+001
 1.256012129868037e+000	 1.434506619782509e+000	 1.112259643626602e+001
 1.240110512947457e+000	 1.448275350918975e+000	 1.104751353550068e+001
 1.224064843358056e+000	 1.461862062872021e+000	 1.096915329000279e+001
 1.207878249128222e+000	 1.475264525492813e+000	 1.088674060042886e+001
 1.191553903599029e+000	 1.488480580238682e+000	 1.079968097507792e+001
 1.175095023377626e+000	 1.501508141299385e+000	 1.070754417005694e+001
 1.158504866257943e+000	 1.514345196653381e+000	 1.061004710623366e+001
 1.141786729111495e+000	 1.526989809053061e+000	 1.050703625578770e+001
 1.124943945751123e+000	 1.539440116938005e+000	 1.039846969164290e+001
 1.107979884770492e+000	 1.551694335275432e+000	 1.028439899177770e+001
 1.276212930095576e+000	 1.425524687792005e+000	 1.114755839096108e+001
 1.260403366141076e+000	 1.439521903751706e+000	 1.107879965968663e+001
 1.244446154409390e+000	 1.453338772760495e+000	 1.100819513891258e+001
 1.228344386375714e+000	 1.466972986215262e+000	 1.093462469784283e+001
 1.212101201004582e+000	 1.480422306170173e+000	 1.085715951715730e+001
 1.195719782731637e+000	 1.493684566535906e+000	 1.077504649347443e+001
 1.179203359409859e+000	 1.506757674209851e+000	 1.068769172668162e+001
 1.162555200223005e+000	 1.519639610136075e+000	 1.059464328480617e+001
 1.145778613569043e+000	 1.532328430294006e+000	 1.049557344335842e+001
 1.128876944916414e+000	 1.544822266614867e+000	 1.039026059652506e+001
 1.111853574635990e+000	 1.557119327825082e+000	 1.027857103623034e+001
 1.280659254556861e+000	 1.430491214251839e+000	 1.108748036687893e+001
 1.264794610098774e+000	 1.444537196496550e+000	 1.102331621172434e+001
 1.248781803458724e+000	 1.458402203461829e+000	 1.095784339313714e+001
 1.232623936882623e+000	 1.472083918501383e+000	 1.088976449121126e+001
 1.216324160271170e+000	 1.485580095872362e+000	 1.081796716422055e+001
 1.199885669154594e+000	 1.498888561938780e+000	 1.074150845493426e+001
 1.183311702631730e+000	 1.512007216305645e+000	 1.065959817860048e+001
 1.166605541276186e+000	 1.524934032882625e+000	 1.057158159133127e+001
 1.149770505012400e+000	 1.537667060876166e+000	 1.047692153989001e+001
 1.132809950964440e+000	 1.550204425709133e+000	 1.037518029428935e+001
 1.115727271280403e+000	 1.562544329867139e+000	 1.026600126317753e+001
 1.285105587910620e+000	 1.435457750643527e+000	 1.101527688033571e+001
 1.269185862838843e+000	 1.449552499270689e+000	 1.095634484130898e+001
 1.253117461179285e+000	 1.463465644288655e+000	 1.089670651495853e+001
 1.236903495948591e+000	 1.477194861007929e+000	 1.083485921173969e+001
 1.220547127983651e+000	 1.490737895888636e+000	 1.076947760747726e+001
 1.204051563909306e+000	 1.504092567748108e+000	 1.069939800227730e+001
 1.187420054070267e+000	 1.517256768898960e+000	 1.062360166204877e+001
 1.170655890430016e+000	 1.530228466216443e+000	 1.054119744538353e+001
 1.153762404439487e+000	 1.543005702134015e+000	 1.045140392080847e+001
 1.136742964878399e+000	 1.555586595566163e+000	 1.035353117979255e+001
 1.119600975672099e+000	 1.567969342757683e+000	 1.024696254938280e+001
 1.289551931268331e+000	 1.440424298208528e+000	 1.093108085245348e+001
 1.273577125459001e+000	 1.454567813327771e+000	 1.087807861604710e+001
 1.257453128654896e+000	 1.468529096506647e+000	 1.082502639666602e+001
 1.241183064643427e+000	 1.482305815012449e+000	 1.077018858151799e+001
 1.224770105197696e+000	 1.495895707508254e+000	 1.071199774228980e+001
 1.208217468037181e+000	 1.509296585264699e+000	 1.064903889681570e+001
 1.191528414752497e+000	 1.522506333301989e+000	 1.058003285642411e+001
 1.174706248697026e+000	 1.535522911460947e+000	 1.050381886567758e+001
 1.157754312848225e+000	 1.548344355402024e+000	 1.041933674348357e+001
 1.140675987641491e+000	 1.560968777531320e+000	 1.032560873487660e+001
 1.123474688779447e+000	 1.573394367852797e+000	 1.022172128118216e+001
 1.084737833706065e+000	 1.519144503377448e+000	 1.016165582720078e+001
 1.068014223074453e+000	 1.530948016922200e+000	 1.003126352187340e+001
 1.051178566166237e+000	 1.542556284205236e+000	 9.891935299950438e+000
 1.034234248099904e+000	 1.553967783993609e+000	 9.744505601993710e+000
 1.017184679476191e+000	 1.565181072517051e+000	 9.589847709129208e+000
 1.000033294188532e+000	 1.576194783930540e+000	 9.428853121047798e+000
 9.827835472266669e-001	 1.587007630703517e+000	 9.262439323596116e+000
 9.654389124762561e-001	 1.597618403935809e+000	 9.091505270826453e+000
 9.480028805172913e-001	 1.608025973600485e+000	 8.916938939757044e+000
 9.304789564241000e-001	 1.618229288713945e+000	 8.739601298391257e+000
 9.128706575696799e-001	 1.628227377433698e+000	 8.560316168507555e+000
 1.088611503233817e+000	 1.524569467450388e+000	 1.020238960435080e+001
 1.071828171498351e+000	 1.536415132111450e+000	 1.007307410650210e+001
 1.054932393361736e+000	 1.548064853273591e+000	 9.934989108309285e+000
 1.037927566030934e+000	 1.559517104271456e+000	 9.789027779046842e+000
 1.020817112286157e+000	 1.570770436178989e+000	 9.636123725298171e+000
 1.003604478283490e+000	 1.581823478273663e+000	 9.477230226290368e+000
 9.862931313506642e-001	 1.592674938427072e+000	 9.313326277717312e+000
 9.688865577788065e-001	 1.603323603421993e+000	 9.145373491547334e+000
 9.513882606129946e-001	 1.613768339196110e+000	 8.974322065093469e+000
 9.338017574444000e-001	 1.624008091012704e+000	 8.801094670387235e+000
 9.161305782067855e-001	 1.634041883558782e+000	 8.626575984268294e+000
 1.092485173730272e+000	 1.529994432879242e+000	 1.023460044832838e+001
 1.075642120876025e+000	 1.541882248667110e+000	 1.010651732945645e+001
 1.058686221496000e+000	 1.553573423718674e+000	 9.969666663213298e+000
 1.041620884885633e+000	 1.565066425936168e+000	 9.824991749301578e+000
 1.024449546004611e+000	 1.576359801237752e+000	 9.673477852849420e+000
 1.007175663271671e+000	 1.587452174023388e+000	 9.516131288644157e+000
 9.898027163525365e-001	 1.598342247566829e+000	 9.353983793789423e+000
 9.723342039438022e-001	 1.609028804333806e+000	 9.188050778774656e+000
 9.547736415556308e-001	 1.619510706226610e+000	 9.019335763354746e+000
 9.371245592960398e-001	 1.629786894755407e+000	 8.848814181926318e+000
 9.193904996595567e-001	 1.639856391136701e+000	 8.677422587814698e+000
 1.096358846163799e+000	 1.535419401020091e+000	 1.025860302585934e+001
 1.079456072160909e+000	 1.547349367955814e+000	 1.013187071748521e+001
 1.062440051507424e+000	 1.559081996917497e+000	 9.996207664507043e+000
 1.045314205587258e+000	 1.570615750374966e+000	 9.852598779352670e+000
 1.028081981539576e+000	 1.581949169090591e+000	 9.702072399249992e+000
 1.010746850045776e+000	 1.593080872586826e+000	 9.545684035205362e+000
 9.933123031095723e-001	 1.604009559539578e+000	 9.384495003144716e+000
 9.757818518330342e-001	 1.614734008097527e+000	 9.219580204757840e+000
 9.581590241914133e-001	 1.625253076127579e+000	 9.051982837380555e+000
 9.404473628095779e-001	 1.635565701386777e+000	 8.882722232216782e+000
 9.226504227428253e-001	 1.645670901621128e+000	 8.712777915051110e+000
 1.100232521502765e+000	 1.540844373229018e+000	 1.027470469170262e+001
 1.083270026306435e+000	 1.552816491344194e+000	 1.014940504019180e+001
 1.066193884334401e+000	 1.564590574247075e+000	 1.001484562089065e+001
 1.049007529059066e+000	 1.576165078975069e+000	 9.872044521356862e+000
 1.031714419799079e+000	 1.587538541134760e+000	 9.722064644447883e+000
 1.014318039498504e+000	 1.598709575371082e+000	 9.565996995060139e+000
 9.968218924990582e-001	 1.609676875762099e+000	 9.404939212020683e+000
 9.792295023082922e-001	 1.620439216139437e+000	 9.240001631037877e+000
 9.615444093665553e-001	 1.630995450334611e+000	 9.072263501706134e+000
 9.437701688155737e-001	 1.641344512351542e+000	 8.902779261972524e+000
 9.259103482714212e-001	 1.651485416465734e+000	 8.732562579966242e+000
 1.104106200715540e+000	 1.546269350862104e+000	 1.028320562963854e+001
 1.087083984266036e+000	 1.558283620198885e+000	 1.015938443883507e+001
 1.069947720915326e+000	 1.570099157084421e+000	 1.002580796631633e+001
 1.052700856224312e+000	 1.581714413123700e+000	 9.883519116830266e+000
 1.035346861691141e+000	 1.593127918767508e+000	 9.733606931897146e+000
 1.017889232522554e+000	 1.604338283783265e+000	 9.577189417294029e+000
 1.000331485398282e+000	 1.615344197651177e+000	 9.415391966606675e+000
 9.826771562313678e-001	 1.626144429885816e+000	 9.249351760334191e+000
 9.649297979272699e-001	 1.636737830283300e+000	 9.080175421204936e+000
 9.470929781445853e-001	 1.647123329094427e+000	 8.908943778749356e+000
 9.291702770601759e-001	 1.657299937124190e+000	 8.736695886621542e+000
 1.107979884770492e+000	 1.551694335275432e+000	 1.028439899177770e+001
 1.090897946993144e+000	 1.563750755886520e+000	 1.016206655366778e+001
 1.073701562188594e+000	 1.575607746806549e+000	 1.002931617514390e+001
 1.056394188006254e+000	 1.587263754208078e+000	 9.887207299429173e+000
 1.038979308123788e+000	 1.598717303386091e+000	 9.736846758794252e+000
 1.021460430010627e+000	 1.609966999230480e+000	 9.579371145500101e+000
 1.003841082684530e+000	 1.621011526623595e+000	 9.415925117767902e+000
 9.861248144640508e-001	 1.631849650762943e+000	 9.247664188345295e+000
 9.683151907197705e-001	 1.642480217409241e+000	 9.075713749882491e+000
 9.504157916271706e-001	 1.652902153060155e+000	 8.901172382671325e+000
 9.324302099239196e-001	 1.663114465050168e+000	 8.725095841770944e+000
 1.111853574635990e+000	 1.557119327825082e+000	 1.027857103623034e+001
 1.094711915441191e+000	 1.569217899773733e+000	 1.015770264984789e+001
 1.077455409092595e+000	 1.581116344790473e+000	 1.002558587608480e+001
 1.060087525328149e+000	 1.592813103615424e+000	 9.883288496739699e+000
 1.042611760005043e+000	 1.604306696387760e+000	 9.731926865546416e+000
 1.025031632855421e+000	 1.615595723119837e+000	 9.572647825017016e+000
 1.007350685235092e+000	 1.626678864096137e+000	 9.406606885454094e+000
 9.895724778681322e-001	 1.637554880197098e+000	 9.234969455464112e+000
 9.717005885902695e-001	 1.648222613148027e+000	 9.058871169817685e+000
 9.537386100938896e-001	 1.658680985693452e+000	 8.879419792537375e+000
 9.356901476774832e-001	 1.668929001697338e+000	 8.697679168095561e+000
 1.115727271280403e+000	 1.562544329867139e+000	 1.026600126317753e+001
 1.098525890563611e+000	 1.574685053227156e+000	 1.014653774195820e+001
 1.081209262565728e+000	 1.586624952413206e+000	 1.001482696496551e+001
 1.063780869113253e+000	 1.598362462732960e+000	 9.871936931099990e+000
 1.046244218242930e+000	 1.609896099169767e+000	 9.718985324489514e+000
 1.028602841949637e+000	 1.621224456858440e+000	 9.557120979400237e+000
 1.010860293927253e+000	 1.632346211485587e+000	 9.387506257903834e+000
 9.930201473054026e-001	 1.643260119614560e+000	 9.211295098410831e+000
 9.750859923849807e-001	 1.653965018935252e+000	 9.029637930247318e+000
 9.570614343752997e-001	 1.664459828439043e+000	 8.843638872300584e+000
 9.389500911356973e-001	 1.674743548519371e+000	 8.654361318038811e+000
 1.119600975672099e+000	 1.567969342757683e+000	 1.024696254938280e+001
 1.102339873313836e+000	 1.580152217613425e+000	 1.012881071716819e+001
 1.084963123546385e+000	 1.592133571051762e+000	 9.997243716338254e+000
 1.067474220284823e+000	 1.603911832947904e+000	 9.853321719479242e+000
 1.049876683745474e+000	 1.615485513129365e+000	 9.698155627874829e+000
 1.032174058185975e+000	 1.626853201853401e+000	 9.532888086376559e+000
 1.014369909638300e+000	 1.638013570208727e+000	 9.358675437551774e+000
 9.964678236376523e-001	 1.648965370441609e+000	 9.176665701785273e+000
 9.784714029501171e-001	 1.659707436206510e+000	 8.988001886791656e+000
 9.603842653019601e-001	 1.670238682741653e+000	 8.793780657908991e+000
 9.422100411133937e-001	 1.680558106969942e+000	 8.595056488227598e+000
 1.123474688779447e+000	 1.573394367852797e+000	 1.022172128118216e+001
 1.106153864645299e+000	 1.585619394299173e+000	 1.010475445707123e+001
 1.088716992972960e+000	 1.597642202083156e+000	 9.973034893967629e+000
 1.071167579766116e+000	 1.609461215647480e+000	 9.827606972436234e+000
 1.053509157420699e+000	 1.621074939663807e+000	 9.669566775141943e+000
 1.035745282457134e+000	 1.632481959511823e+000	 9.500042653294782e+000
 1.017879533245523e+000	 1.643680941682343e+000	 9.320176759513096e+000
 9.999155077266725e-001	 1.654670634104525e+000	 9.131102949541038e+000
 9.818568211318918e-001	 1.665449866397395e+000	 8.933948540816477e+000
 9.637071037044300e-001	 1.676017550046008e+000	 8.729794384500659e+000
 9.454699984254019e-001	 1.686372678502719e+000	 8.519677634464896e+000
 9.128706575696799e-001	 1.628227377433698e+000	 8.560316168507555e+000
 8.951841707274577e-001	 1.638017894080757e+000	 8.381146316389028e+000
 8.774203956610007e-001	 1.647601541619870e+000	 8.203832602410008e+000
 8.595828728996265e-001	 1.656977587152687e+000	 8.028724457778155e+000
 8.416751465452838e-001	 1.666145376561775e+000	 7.856115491261730e+000
 8.237007621394887e-001	 1.675104334255827e+000	 7.686240135899541e+000
 8.056632645502202e-001	 1.683853962847609e+000	 7.519271638326496e+000
 7.875661958811588e-001	 1.692393842765832e+000	 7.355321379781087e+000
 7.694130934055927e-001	 1.700723631802261e+000	 7.194439504543079e+000
 7.512074875272330e-001	 1.708843064595402e+000	 7.036616818696827e+000
 7.329528997701102e-001	 1.716751952052255e+000	 6.881787909834553e+000
 9.161305782067855e-001	 1.634041883558782e+000	 8.626575984268294e+000
 8.983809317669452e-001	 1.643867362778795e+000	 8.452890251944437e+000
 8.805537211015639e-001	 1.653485234147827e+000	 8.281760939561982e+000
 8.626524993834223e-001	 1.662894762150299e+000	 8.113473055234824e+000
 8.446808233706907e-001	 1.672095290332883e+000	 7.948250720437551e+000
 8.266422512662489e-001	 1.681086241048800e+000	 7.786253936462030e+000
 8.085403405970330e-001	 1.689867115134612e+000	 7.627576736535879e+000
 7.903786461158097e-001	 1.698437491520715e+000	 7.472246712104269e+000
 7.721607177277033e-001	 1.706797026776825e+000	 7.320225888112903e+000
 7.538900984437295e-001	 1.714945454593828e+000	 7.171412908945853e+000
 7.355703223635138e-001	 1.722882585203459e+000	 7.025646484072606e+000
 9.193904996595567e-001	 1.639856391136701e+000	 8.677422587814698e+000
 9.015776936063481e-001	 1.649716832938383e+000	 8.507321818402584e+000
 8.836870473262152e-001	 1.659368928145872e+000	 8.340194110204346e+000
 8.657221266354049e-001	 1.668811938626362e+000	 8.176253529623914e+000
 8.476865009483131e-001	 1.678045205590631e+000	 8.015648348265785e+000
 8.295837411291853e-001	 1.687068149336423e+000	 7.858457934173375e+000
 8.114174173639180e-001	 1.695880268924100e+000	 7.704691072281416e+000
 7.931910970543666e-001	 1.704481141785743e+000	 7.554285702013401e+000
 7.749083427374958e-001	 1.712870423269022e+000	 7.407110045941511e+000
 7.565727100316281e-001	 1.721047846117197e+000	 7.262965089903043e+000
 7.381877456119866e-001	 1.729013219886742e+000	 7.121588362047214e+000
 9.226504227428253e-001	 1.645670901621128e+000	 8.712777915051110e+000
 9.047744570447027e-001	 1.655566306021953e+000	 8.544323240977874e+000
 8.868203751181282e-001	 1.665252625085010e+000	 8.378976161927419e+000
 8.687917554228225e-001	 1.674729118060264e+000	 8.216873325187775e+000
 8.506921800294128e-001	 1.683995123822599e+000	 8.058080827691494e+000
 8.325252324635154e-001	 1.693050060614283e+000	 7.902591236975423e+000
 8.142944955699941e-001	 1.701893425719475e+000	 7.750322085431479e+000
 7.960035493997998e-001	 1.710524795071942e+000	 7.601115825202800e+000
 7.776559691217416e-001	 1.718943822797304e+000	 7.454741216710919e+000
 7.592553229614560e-001	 1.727150240691201e+000	 7.310896109933689e+000
 7.408051701697700e-001	 1.735143857634843e+000	 7.169211564303057e+000
 9.259103482714212e-001	 1.651485416465734e+000	 8.732562579966242e+000
 9.079712228810430e-001	 1.661415783491934e+000	 8.563776055223395e+000
 8.899537052604762e-001	 1.671136326436241e+000	 8.397951069910619e+000
 8.718613865129231e-001	 1.680646301931392e+000	 8.235140415667511e+000
 8.536978613652514e-001	 1.689945046516368e+000	 8.075321727375792e+000
 8.354667260044577e-001	 1.699031976377965e+000	 7.918394638686078e+000
 8.171715759343823e-001	 1.707906587024138e+000	 7.764179455453124e+000
 7.988160038550786e-001	 1.716568452890335e+000	 7.612417333854194e+000
 7.804035975672117e-001	 1.725017226880129e+000	 7.462771935234272e+000
 7.619379379037400e-001	 1.733252639841535e+000	 7.314832515505165e+000
 7.434225966911037e-001	 1.741274499980501e+000	 7.168118393342056e+000
 9.291702770601759e-001	 1.657299937124190e+000	 8.736695886621542e+000
 9.111679919144056e-001	 1.667265266810758e+000	 8.565561105836835e+000
 8.930870385364329e-001	 1.677020033670570e+000	 8.396962722908263e+000
 8.749310206729554e-001	 1.686563491719130e+000	 8.230863277844536e+000
 8.567035457070905e-001	 1.695894975159520e+000	 8.067145693185051e+000
 8.384082224872305e-001	 1.705013898123057e+000	 7.905610568840961e+000
 8.200486591762006e-001	 1.713919754341490e+000	 7.745975040024319e+000
 8.016284611231731e-001	 1.722612116751946e+000	 7.587873184452293e+000
 7.831512287606770e-001	 1.731090637035950e+000	 7.430857949919023e+000
 7.646205555290072e-001	 1.739355045093891e+000	 7.274404558754123e+000
 7.460400258302277e-001	 1.747405148456453e+000	 7.117915331759981e+000
 9.324302099239196e-001	 1.663114465050168e+000	 8.725095841770948e+000
 9.143647649438255e-001	 1.673114757440853e+000	 8.549558546335147e+000
 8.962203757291724e-001	 1.682903748258998e+000	 8.375854910333423e+000
 8.780006586701662e-001	 1.692480688902867e+000	 8.203850866403629e+000
 8.597092338061930e-001	 1.701844911239638e+000	 8.033328411215594e+000
 8.413497226470509e-001	 1.710995827345145e+000	 7.863983044277859e+000
 8.229257460145700e-001	 1.719932929174930e+000	 7.695422815589319e+000
 8.044409219070522e-001	 1.728655788167799e+000	 7.527168967733809e+000
 7.858988633889094e-001	 1.737164054783222e+000	 7.358658142545507e+000
 7.673031765077846e-001	 1.745457457973962e+000	 7.189246107541621e+000
 7.486574582413830e-001	 1.753535804595439e+000	 7.018212943038862e+000
 9.356901476774832e-001	 1.668929001697338e+000	 8.697679168095563e+000
 9.175615427683381e-001	 1.678964256844651e+000	 8.515647839575781e+000
 8.993537176218678e-001	 1.688787471672527e+000	 8.334471310413244e+000
 8.810703012718043e-001	 1.698397894961988e+000	 8.153912590084024e+000
 8.627149264138193e-001	 1.707794856244301e+000	 7.973646572317676e+000
 8.442912272191381e-001	 1.716977765539817e+000	 7.793257622422356e+000
 8.258028371686094e-001	 1.725946113027861e+000	 7.612238819808932e+000
 8.072533869096863e-001	 1.734699468648917e+000	 7.429992840717753e+000
 7.886465021386790e-001	 1.743237481640400e+000	 7.245834450304718e+000
 7.699858015105995e-001	 1.751559880007444e+000	 7.058994557937452e+000
 7.512748945788093e-001	 1.759666469930197e+000	 6.868625774926751e+000
 9.389500911356973e-001	 1.674743548519371e+000	 8.654361318038811e+000
 9.207583261869795e-001	 1.684813766484584e+000	 8.463707759104105e+000
 9.024870649976925e-001	 1.694671205382161e+000	 8.272655479389441e+000
 8.841399492451179e-001	 1.704315111375880e+000	 8.080858289088045e+000
 8.657206242812326e-001	 1.713744811661092e+000	 7.887877838080753e+000
 8.472327369387090e-001	 1.722959714202656e+000	 7.693181356232592e+000
 8.286799333574388e-001	 1.731959307403683e+000	 7.496141095858695e+000
 8.100658568340449e-001	 1.740743159706326e+000	 7.296035460765570e+000
 7.913941456967576e-001	 1.749310919125939e+000	 7.092051790039090e+000
 7.726684312079784e-001	 1.757662312720026e+000	 6.883290749073149e+000
 7.538923354967474e-001	 1.765797145993466e+000	 6.668772265345003e+000
 9.422100411133937e-001	 1.680558106969942e+000	 8.595056488227598e+000
 9.239551159987848e-001	 1.690663287823079e+000	 8.393616391307317e+000
 9.056204186398202e-001	 1.700554950858902e+000	 8.190250841738969e+000
 8.872096033573542e-001	 1.710232339623929e+000	 7.984498213716737e+000
 8.687263281596938e-001	 1.719694778977591e+000	 7.775800808245364e+000
 8.501742525409826e-001	 1.728941674829252e+000	 7.563502750761930e+000
 8.315570353001780e-001	 1.737972513805797e+000	 7.346849638531640e+000
 8.128783323830974e-001	 1.746786862851048e+000	 7.124989921622110e+000
 7.941417947499166e-001	 1.755384368758295e+000	 6.896977984634208e+000
 7.753510662704489e-001	 1.763764757637405e+000	 6.661778880306006e+000
 7.565097816494371e-001	 1.771927834317984e+000	 6.418274650758353e+000
 9.454699984254019e-001	 1.686372678502719e+000	 8.519677634464896e+000
 9.271519130027892e-001	 1.696512822322570e+000	 8.305251138354775e+000
 9.087537793314252e-001	 1.706438709573753e+000	 8.087100681389551e+000
 8.902792643757620e-001	 1.716149581185522e+000	 7.864643004201598e+000
 8.717320388004656e-001	 1.725644759681382e+000	 7.637194989506519e+000
 8.531157747611764e-001	 1.734923648915190e+000	 7.403971721302080e+000
 8.344341437159466e-001	 1.743985733737606e+000	 7.164086342099746e+000
 8.156908142598138e-001	 1.752830579594108e+000	 6.916551691389267e+000
 7.968894499849265e-001	 1.761457832055922e+000	 6.660283691507420e+000
 7.780337073685373e-001	 1.769867216285273e+000	 6.394106430639247e+000
 7.591272336911190e-001	 1.778058536436490e+000	 6.116758876950193e+000
 7.329528997701102e-001	 1.716751952052255e+000	 6.881787909834553e+000
 7.146500924294713e-001	 1.724451319976578e+000	 6.722158660440453e+000
 6.963053005481267e-001	 1.731939928692788e+000	 6.554853261669868e+000
 6.779220096819681e-001	 1.739217815222061e+000	 6.387079665765217e+000
 6.595036887474008e-001	 1.746285089996563e+000	 6.225766864791604e+000
 6.410537881847429e-001	 1.753141935993637e+000	 6.073399420685300e+000
 6.225757381620465e-001	 1.759788607818298e+000	 5.930609833826859e+000
 6.040729468208826e-001	 1.766225430735958e+000	 5.798236019218587e+000
 5.855487985655503e-001	 1.772452799657344e+000	 5.677062588168984e+000
 5.670066523970694e-001	 1.778471178077622e+000	 5.567861651771261e+000
 5.484498402932199e-001	 1.784281096971782e+000	 5.471427695807401e+000
 7.355703223635138e-001	 1.722882585203459e+000	 7.025646484072604e+000
 7.172021545045106e-001	 1.730609448072686e+000	 6.875479112047020e+000
 6.987918521752771e-001	 1.738124799098968e+000	 6.718376286926658e+000
 6.803429133788512e-001	 1.745428675435680e+000	 6.561444963242654e+000
 6.618588194193650e-001	 1.752521187909347e+000	 6.411681844039415e+000
 6.433430330588841e-001	 1.759402520150736e+000	 6.272213032950589e+000
 6.247989967148149e-001	 1.766072927674072e+000	 6.143472930916173e+000
 6.062301306994241e-001	 1.772532736906307e+000	 6.026155267058213e+000
 5.876398315029389e-001	 1.778782344168420e+000	 5.920914022535206e+000
 5.690314701215915e-001	 1.784822214610746e+000	 5.828404667187831e+000
 5.504083904318715e-001	 1.790652881104421e+000	 5.749319299570858e+000
 7.381877456119866e-001	 1.729013219886742e+000	 7.121588362047214e+000
 7.197542172182362e-001	 1.736767577707839e+000	 6.975893708188085e+000
 7.012784044246840e-001	 1.744309671050978e+000	 6.823718847444781e+000
 6.827638176815221e-001	 1.751639537201736e+000	 6.672086469939606e+000
 6.642139506806132e-001	 1.758757287380995e+000	 6.527998380436258e+000
 6.456322785057757e-001	 1.765663105872937e+000	 6.395279957040311e+000
 6.270222558237740e-001	 1.772357249100997e+000	 6.274236303969516e+000
 6.083873151175759e-001	 1.778840044653666e+000	 6.165433257083027e+000
 5.897308649633422e-001	 1.785111890262170e+000	 6.069410563917336e+000
 5.710562883525207e-001	 1.791173252732014e+000	 5.986723528891740e+000
 5.523669410603161e-001	 1.797024666830474e+000	 5.917978391574200e+000
 7.408051701697700e-001	 1.735143857634843e+000	 7.169211564303057e+000
 7.223062812085586e-001	 1.742925710421628e+000	 7.022976265223802e+000
 7.037649579178940e-001	 1.750494546095071e+000	 6.870429691698442e+000
 6.851847231951275e-001	 1.757850402072951e+000	 6.718526782581527e+000
 6.665690831198611e-001	 1.764993389970501e+000	 6.574229735154709e+000
 6.479215250976732e-001	 1.771923694725325e+000	 6.442082216197692e+000
 6.292455160446951e-001	 1.778641573670060e+000	 6.322348115271127e+000
 6.105445006146022e-001	 1.785147355554737e+000	 6.215481464089663e+000
 5.918218994694955e-001	 1.791441439520828e+000	 6.121923982801204e+000
 5.730811075960469e-001	 1.797524294029003e+000	 6.042147109157916e+000
 5.543254926681834e-001	 1.803396455742680e+000	 5.976687588069410e+000
 7.434225966911037e-001	 1.741274499980501e+000	 7.168118393342056e+000
 7.248583471133896e-001	 1.749083847753640e+000	 7.016305364379938e+000
 7.062515132764518e-001	 1.756679425777496e+000	 6.858062834119763e+000
 6.876056305248127e-001	 1.764061271602043e+000	 6.700294285768869e+000
 6.689242173258243e-001	 1.771229497236867e+000	 6.549911654004659e+000
 6.502107734068341e-001	 1.778184288272990e+000	 6.412109085270319e+000
 6.314687779333503e-001	 1.784925902952253e+000	 6.287264663371420e+000
 6.127016877297666e-001	 1.791454671186225e+000	 6.175720387461578e+000
 5.939129355441347e-001	 1.797770993526625e+000	 6.077835968436989e+000
 5.751059283583608e-001	 1.803875340089290e+000	 5.994015101328902e+000
 5.562840457451034e-001	 1.809768249433779e+000	 5.924741239152247e+000
 7.460400258302277e-001	 1.747405148456453e+000	 7.117915331759981e+000
 7.274104155706407e-001	 1.755241991243472e+000	 6.955464240624759e+000
 7.087380711219047e-001	 1.762864311644508e+000	 6.786177434549724e+000
 6.900265402757256e-001	 1.770272147341734e+000	 6.616923021792163e+000
 6.712793538872184e-001	 1.777465610739092e+000	 6.454578382091317e+000
 6.525000240055142e-001	 1.784444888081018e+000	 6.304856867111825e+000
 6.336920420455108e-001	 1.791210238518562e+000	 6.168450154445620e+000
 6.148588770023327e-001	 1.797761993124833e+000	 6.045579316861595e+000
 5.960039737099959e-001	 1.804100553861794e+000	 5.936537888195624e+000
 5.771307511456527e-001	 1.810226392500453e+000	 5.841677772126333e+000
 5.582426007807066e-001	 1.816140049496512e+000	 5.761445173267449e+000
 7.486574582413830e-001	 1.753535804595439e+000	 7.018212943038862e+000
 7.299624872182234e-001	 1.761400142430711e+000	 6.840040674362911e+000
 7.112246320757975e-001	 1.769049205242356e+000	 6.654337680674479e+000
 6.924474530530118e-001	 1.776483030844745e+000	 6.467952563603501e+000
 6.736344933927588e-001	 1.783701732036173e+000	 6.287743705887808e+000
 6.547892774659702e-001	 1.790705495714499e+000	 6.119828672502889e+000
 6.359153089369479e-001	 1.797494581939978e+000	 5.965376477366788e+000
 6.170160689715646e-001	 1.804069322947262e+000	 5.824496101845215e+000
 5.980950144898145e-001	 1.810430122108566e+000	 5.697430551065404e+000
 5.791555764641129e-001	 1.816577452850068e+000	 5.584495718324560e+000
 5.602011582646226e-001	 1.822511857523617e+000	 5.486116446319161e+000
 7.512748945788093e-001	 1.759666469930197e+000	 6.868625774926751e+000
 7.325145626940491e-001	 1.767558302854952e+000	 6.669626885876936e+000
 7.137111967596772e-001	 1.775234108117293e+000	 6.462112673369775e+000
 6.948683694618177e-001	 1.782693923663795e+000	 6.252927890866031e+000
 6.759896364311617e-001	 1.789937862687110e+000	 6.048927272438823e+000
 6.570785343604583e-001	 1.796966112738519e+000	 5.856534203506712e+000
 6.381385791634338e-001	 1.803778934787489e+000	 5.677522982406652e+000
 6.191732641767257e-001	 1.810376662230218e+000	 5.511916925302020e+000
 6.001860584063267e-001	 1.816759699849174e+000	 5.359923975184437e+000
 5.811804048199316e-001	 1.822928522725712e+000	 5.221839627685460e+000
 5.621597186864817e-001	 1.828883675107834e+000	 5.098083095270935e+000
 7.538923354967474e-001	 1.765797145993466e+000	 6.668772265345003e+000
 7.350666426360297e-001	 1.773716474055784e+000	 6.443819432447470e+000
 7.161977657950889e-001	 1.781419021815571e+000	 6.209076314885746e+000
 6.972892901072898e-001	 1.788904827351606e+000	 5.971399269005802e+000
 6.783447835911426e-001	 1.796174004250901e+000	 5.737654521347940e+000
 6.593677952612350e-001	 1.803226740718167e+000	 5.514489540174913e+000
 6.403618532807395e-001	 1.810063298632084e+000	 5.304376263472451e+000
 6.213304631570803e-001	 1.816684012550403e+000	 5.107296080628558e+000
 6.022771059822680e-001	 1.823089288665851e+000	 4.923437159311599e+000
 5.832052367192991e-001	 1.829279603714964e+000	 4.753090044043884e+000
 5.641182825359137e-001	 1.835255503841901e+000	 4.596683896128714e+000
 7.565097816494371e-001	 1.771927834317984e+000	 6.418274650758353e+000
 7.376187276820767e-001	 1.779874657572799e+000	 6.162219108090411e+000
 7.186843398035792e-001	 1.787603947883441e+000	 5.894807199799868e+000
 6.997102155945745e-001	 1.795115743460896e+000	 5.622922131193991e+000
 6.806999354614164e-001	 1.802410158286546e+000	 5.353456557556535e+000
 6.616570607405570e-001	 1.809487381218530e+000	 5.093216930519568e+000
 6.425851318446371e-001	 1.816347675044753e+000	 4.845429943792404e+000
 6.234876664518918e-001	 1.822991375484520e+000	 4.610095752542004e+000
 6.043681577403745e-001	 1.829418890140827e+000	 4.387397858137645e+000
 5.852300726684062e-001	 1.835630697405398e+000	 4.177637136448714e+000
 5.660768503025488e-001	 1.841627345318559e+000	 3.981268126195719e+000
 7.591272336911190e-001	 1.778058536436490e+000	 6.116758876950193e+000
 7.401708184701011e-001	 1.786032854945589e+000	 5.824430845843881e+000
 7.211709194066933e-001	 1.793788887867156e+000	 5.518888508674298e+000
 7.021311465288181e-001	 1.801326673544389e+000	 5.207056963187090e+000
 6.830550926306996e-001	 1.808646326353043e+000	 4.895870027143322e+000
 6.639463313706804e-001	 1.815748035804697e+000	 4.592244583672802e+000
 6.448084154108978e-001	 1.822632065596484e+000	 4.300184464969625e+000
 6.256448746004242e-001	 1.829298752609273e+000	 4.019785801446643e+000
 6.064592142033819e-001	 1.835748505856337e+000	 3.751242361346564e+000
 5.872549131734427e-001	 1.841981805384595e+000	 3.494880472254668e+000
 5.680354224760176e-001	 1.847999201130549e+000	 3.251195330499983e+000
 5.484498402932199e-001	 1.784281096971782e+000	 5.471427695807401e+000
 5.298816653707491e-001	 1.789883153202778e+000	 5.388680919459226e+000
 5.113053995926307e-001	 1.795278007002279e+000	 5.318595173525516e+000
 4.927242831349172e-001	 1.800466382091268e+000	 5.259144034702397e+000
 4.741415232331826e-001	 1.805449064870776e+000	 5.208400015407384e+000
 4.555602928079645e-001	 1.810226903133151e+000	 5.164547796551104e+000
 4.369837291416522e-001	 1.814800804742252e+000	 5.125892826273764e+000
 4.184149326073985e-001	 1.819171736284711e+000	 5.090865611746771e+000
 3.998569654505434e-001	 1.823340721694442e+000	 5.058022050239239e+000
 3.813128506229466e-001	 1.827308840852505e+000	 5.026040160883366e+000
 3.627855706705263e-001	 1.831077228164503e+000	 4.993713589996869e+000
 5.504083904318715e-001	 1.790652881104421e+000	 5.749319299570858e+000
 5.317739073461716e-001	 1.796274942643831e+000	 5.684250417097802e+000
 5.131313045118567e-001	 1.801689061818372e+000	 5.631765749651585e+000
 4.944838336758576e-001	 1.806895964933475e+000	 5.589634766114140e+000
 4.758347135269936e-001	 1.811896441198451e+000	 5.555732765197974e+000
 4.571871283165069e-001	 1.816691341433165e+000	 5.528054054919244e+000
 4.385442265302251e-001	 1.821281576743510e+000	 5.504720380580543e+000
 4.199091196129334e-001	 1.825668117167858e+000	 5.483984937704562e+000
 4.012848807454481e-001	 1.829851990296648e+000	 5.464232325854112e+000
 3.826745436747854e-001	 1.833834279867260e+000	 5.443974814788534e+000
 3.640811015977278e-001	 1.837616124336330e+000	 5.421845306051765e+000
 5.523669410603161e-001	 1.797024666830474e+000	 5.917978391574200e+000
 5.336661497947700e-001	 1.802666733683369e+000	 5.863437213000407e+000
 5.149572098876430e-001	 1.808100118237819e+000	 5.821305991190025e+000
 4.962433846567466e-001	 1.813325549383705e+000	 5.789239040547087e+000
 4.775279042441486e-001	 1.818343819138624e+000	 5.765005527735626e+000
 4.588139642317982e-001	 1.823155781349956e+000	 5.746502394495087e+000
 4.401047243089640e-001	 1.827762350365629e+000	 5.731762410491321e+000
 4.214033069920677e-001	 1.832164499675755e+000	 5.718957702534862e+000
 4.027127963974042e-001	 1.836363260527303e+000	 5.706399126365350e+000
 3.840362370671483e-001	 1.840359720513975e+000	 5.692531863015423e+000
 3.653766328489503e-001	 1.844155022143435e+000	 5.675927633588443e+000
 5.543254926681834e-001	 1.803396455742680e+000	 5.976687588069410e+000
 5.355583931896026e-001	 1.809058527919111e+000	 5.925487383275364e+000
 5.167831161764662e-001	 1.814511177863141e+000	 5.886447697115352e+000
 4.980029365174731e-001	 1.819755137049102e+000	 5.857195696948064e+000
 4.792210958079450e-001	 1.824791200302876e+000	 5.835484551103510e+000
 4.604408009605449e-001	 1.829620224499363e+000	 5.819205892394381e+000
 4.416652228679882e-001	 1.834243127228526e+000	 5.806397292123405e+000
 4.228974951183376e-001	 1.838660885432222e+000	 5.795245101359685e+000
 4.041407127633725e-001	 1.842874534013948e+000	 5.784083036490042e+000
 3.853979311404335e-001	 1.846885164423731e+000	 5.771386902147423e+000
 3.666721647480425e-001	 1.850693923220270e+000	 5.755765856612953e+000
 5.562840457451034e-001	 1.809768249433779e+000	 5.924741239152247e+000
 5.374506380037267e-001	 1.815450326948778e+000	 5.869659477271386e+000
 5.186090238348023e-001	 1.820922242296858e+000	 5.826435529401918e+000
 4.997624896979254e-001	 1.826184729536804e+000	 5.792756491363663e+000
 4.809142886416810e-001	 1.831238586302786e+000	 5.766448733159690e+000
 4.620676389094542e-001	 1.836084672497223e+000	 5.745489701223018e+000
 4.432257225974157e-001	 1.840723908952121e+000	 5.728014610519497e+000
 4.243916843652784e-001	 1.845157276061076e+000	 5.712318394258782e+000
 4.055686302003150e-001	 1.849385812384124e+000	 5.696853299579801e+000
 3.867596262350390e-001	 1.853410613227614e+000	 5.680222533924852e+000
 3.679676976188531e-001	 1.857232829201285e+000	 5.661170378997576e+000
 5.582426007807066e-001	 1.816140049496512e+000	 5.761445173267449e+000
 5.393428847102001e-001	 1.821842132370091e+000	 5.695224256747247e+000
 5.204349333191276e-001	 1.827333313141492e+000	 5.640526752418788e+000
 5.015220446379921e-001	 1.832614328453952e+000	 5.595185841883519e+000
 4.826074831686546e-001	 1.837685978749934e+000	 5.557189377104236e+000
 4.636944784852327e-001	 1.842549126959377e+000	 5.524690820102794e+000
 4.447862238873651e-001	 1.847204697156331e+000	 5.496014950718808e+000
 4.258858751064263e-001	 1.851653673186138e+000	 5.469658721723006e+000
 4.069965490651929e-001	 1.855897097265371e+000	 5.444287661544956e+000
 3.881213226913629e-001	 1.859936068556710e+000	 5.418728241485277e+000
 3.692632317852309e-001	 1.863771741720931e+000	 5.391956636625483e+000
 5.602011582646226e-001	 1.822511857523617e+000	 5.486116446319161e+000
 5.412351337820803e-001	 1.828233945780770e+000	 5.401464439829004e+000
 5.222608450859182e-001	 1.833744391999562e+000	 5.327990977175819e+000
 5.032816017775622e-001	 1.839043935407688e+000	 5.263760578378874e+000
 4.843006798121632e-001	 1.844133379255899e+000	 5.207009951679519e+000
 4.653213200945875e-001	 1.849013589501663e+000	 5.156157870056983e+000
 4.463467271279553e-001	 1.853685493461075e+000	 5.109809692815516e+000
 4.273800677153167e-001	 1.858150078431226e+000	 5.066756923629263e+000
 4.084244697149673e-001	 1.862408390285230e+000	 5.025972217748892e+000
 3.894830208498031e-001	 1.866461532042101e+000	 4.986600267929986e+000
 3.705587675710249e-001	 1.870310662413659e+000	 4.947945011142312e+000
 5.621597186864817e-001	 1.828883675107834e+000	 5.098083095270935e+000
 5.431273856924253e-001	 1.834625768778536e+000	 4.987674449635994e+000
 5.240867595916505e-001	 1.840155480473590e+000	 4.888109910298178e+000
 5.050411615565240e-001	 1.845473552005149e+000	 4.797769696917094e+000
 4.859938789955047e-001	 1.850580789432260e+000	 4.715225855882602e+000
 4.669481641442250e-001	 1.855478061739920e+000	 4.639250873648173e+000
 4.479072327093042e-001	 1.860166299486271e+000	 4.568820810908035e+000
 4.288742625654854e-001	 1.864646493420159e+000	 4.503113361653293e+000
 4.098523925065996e-001	 1.868919693071243e+000	 4.441501262795610e+000
 3.908447210507582e-001	 1.872987005314873e+000	 4.383541497160514e+000
 3.718543053000838e-001	 1.876849592913921e+000	 4.328960745278022e+000
 5.641182825359137e-001	 1.835255503841901e+000	 4.596683896128714e+000
 5.450196409142923e-001	 1.841017602961110e+000	 4.453160167462701e+000
 5.259126772928003e-001	 1.846566580166098e+000	 4.320177107615576e+000
 5.068007244147662e-001	 1.851903179853479e+000	 4.196514118741049e+000
 4.876870811419773e-001	 1.857028210890599e+000	 4.081164188087632e+000
 4.685750110408526e-001	 1.861942545289987e+000	 3.973341038765418e+000
 4.494677410215306e-001	 1.866647116851838e+000	 3.872480675846244e+000
 4.303684600304682e-001	 1.871142919776756e+000	 3.778237745034660e+000
 4.112803177970513e-001	 1.875431007250949e+000	 3.690477143141296e+000
 3.922064236346260e-001	 1.879512490006111e+000	 3.609261336933471e+000
 3.731498452962563e-001	 1.883388534856166e+000	 3.534833859700135e+000
 5.660768503025488e-001	 1.841627345318559e+000	 3.981268126195719e+000
 5.469118999207399e-001	 1.847409449926213e+000	 3.797238690404580e+000
 5.277385986458446e-001	 1.852977692679605e+000	 3.623497732253196e+000
 5.085602907921774e-001	 1.858332820559816e+000	 3.459306453697849e+000
 4.893802866748787e-001	 1.863475645242494e+000	 3.304163519463882e+000
 4.702018611911770e-001	 1.868407041767702e+000	 3.157810546458302e+000
 4.510282524547534e-001	 1.873127947177695e+000	 3.020231861678290e+000
 4.318626604838010e-001	 1.877639359124836e+000	 2.891648959612721e+000
 4.127082459432835e-001	 1.881942334451890e+000	 2.772510112461787e+000
 3.935681289418045e-001	 1.886037987746897e+000	 2.663475604071850e+000
 3.744453878833915e-001	 1.889927489874846e+000	 2.565399071359439e+000
 5.680354224760176e-001	 1.847999201130549e+000	 3.251195330499983e+000
 5.488041631848251e-001	 1.853801311271564e+000	 3.019238093319964e+000
 5.295645241072590e-001	 1.859388819616633e+000	 2.797388317114909e+000
 5.103198611286465e-001	 1.864762475731302e+000	 2.585470768013080e+000
 4.910734960175067e-001	 1.869923094099526e+000	 2.383573671589951e+000
 4.718287150019048e-001	 1.874871552788906e+000	 2.192052342720839e+000
 4.525887673990908e-001	 1.879608792083759e+000	 2.011526955715058e+000
 4.333568642990193e-001	 1.884135813088218e+000	 1.842874900054044e+000
 4.141361773022579e-001	 1.888453676301606e+000	 1.687218189708310e+000
 3.949298373126922e-001	 1.892563500168320e+000	 1.545906411788884e+000
 3.757409333853378e-001	 1.896466459604412e+000	 1.420495713294084e+000
 3.627855706705263e-001	 1.831077228164503e+000	 4.993713589996869e+000
 3.442808403239148e-001	 1.834646550756103e+000	 4.962837843007178e+000
 3.257987730908322e-001	 1.838018628650293e+000	 4.935851399133129e+000
 3.073422187503291e-001	 1.841194752042445e+000	 4.912700313790847e+000
 2.889139828828835e-001	 1.844176259724348e+000	 4.893438030289406e+000
 2.705168260265918e-001	 1.846964537582363e+000	 4.878205597926500e+000
 2.521534628864030e-001	 1.849561017085502e+000	 4.867210954660775e+000
 2.338265615961181e-001	 1.851967173765351e+000	 4.860707636655361e+000
 2.155387430328055e-001	 1.854184525689797e+000	 4.858973263160684e+000
 1.972925801832064e-001	 1.856214631932410e+000	 4.862288129168841e+000
 1.790905975616490e-001	 1.858059091039320e+000	 4.870914220302230e+000
 3.640811015977278e-001	 1.837616124336330e+000	 5.421845306051765e+000
 3.455102896525823e-001	 1.841198193211864e+000	 5.399816727828743e+000
 3.269622217524142e-001	 1.844582313016268e+000	 5.380637791127853e+000
 3.084397578530240e-001	 1.847769778552278e+000	 5.364303169913065e+000
 2.899457135538023e-001	 1.850761933392588e+000	 5.350928468340292e+000
 2.714828592509105e-001	 1.853560168372646e+000	 5.340729045419639e+000
 2.530539193436880e-001	 1.856165920073323e+000	 5.333997884946856e+000
 2.346615714940181e-001	 1.858580669295420e+000	 5.331082883700136e+000
 2.163084459382946e-001	 1.860805939527940e+000	 5.332363916649613e+000
 1.979971248515646e-001	 1.862843295411997e+000	 5.338230021450793e+000
 1.797301417633639e-001	 1.864694341202229e+000	 5.349057026004148e+000
 3.653766328489503e-001	 1.844155022143435e+000	 5.675927633588443e+000
 3.467397392887963e-001	 1.847749837306038e+000	 5.658856443450837e+000
 3.281256707050955e-001	 1.851145999023604e+000	 5.644380590820672e+000
 3.095372972303986e-001	 1.854344806706239e+000	 5.632467266065317e+000
 2.909774444830101e-001	 1.857347608707543e+000	 5.623213356132727e+000
 2.724488927171557e-001	 1.860155800812049e+000	 5.616823095038520e+000
 2.539543760265666e-001	 1.862770824712498e+000	 5.613584741378147e+000
 2.354965816012087e-001	 1.865194166478905e+000	 5.613846666247670e+000
 2.170781490368016e-001	 1.867427355021387e+000	 5.617993220312298e+000
 1.987016696966988e-001	 1.869471960548609e+000	 5.626420731823510e+000
 1.803696861256440e-001	 1.871329593023718e+000	 5.639513968405585e+000
 3.666721647480425e-001	 1.850693923220270e+000	 5.755765856612953e+000
 3.479691895398753e-001	 1.854301484676264e+000	 5.739872207637655e+000
 3.292891202396838e-001	 1.857709688312956e+000	 5.727052159171704e+000
 3.106348371567720e-001	 1.860919838147821e+000	 5.717170424460826e+000
 2.920091759283612e-001	 1.863933287315374e+000	 5.710225437961913e+000
 2.734149266667451e-001	 1.866751436549240e+000	 5.706326048822298e+000
 2.548548331600491e-001	 1.869375732654024e+000	 5.705667224192292e+000
 2.363315921263248e-001	 1.871807666968964e+000	 5.708505155845510e+000
 2.178478525206209e-001	 1.874048773825298e+000	 5.715132148542492e+000
 1.994062148945998e-001	 1.876100628999242e+000	 5.725851651178324e+000
 1.810092308082162e-001	 1.877964848162459e+000	 5.740953772292770e+000
 3.679676976188531e-001	 1.857232829201285e+000	 5.661170378997576e+000
 3.491986407131379e-001	 1.860853136960182e+000	 5.642782727988273e+000
 3.304525706469872e-001	 1.864273382524976e+000	 5.628627439953039e+000
 3.117323779064631e-001	 1.867494874520521e+000	 5.618392853155497e+000
 2.930409081477106e-001	 1.870518970862248e+000	 5.611900343728514e+000
 2.743809613410961e-001	 1.873347077232878e+000	 5.609080277227489e+000
 2.557552909691456e-001	 1.875980645548894e+000	 5.609946953881106e+000
 2.371666032780017e-001	 1.878421172418758e+000	 5.614572950805238e+000
 2.186175565820471e-001	 1.880670197594831e+000	 5.623063249017068e+000
 2.001107606212586e-001	 1.882729302420894e+000	 5.635529515257125e+000
 1.816487759708071e-001	 1.884600108277128e+000	 5.652064888667401e+000
 3.692632317852309e-001	 1.863771741720931e+000	 5.391956636625483e+000
 3.504280931159031e-001	 1.867404795795433e+000	 5.367510145054547e+000
 3.316160222178131e-001	 1.870837083300321e+000	 5.349083920729217e+000
 3.128299197537909e-001	 1.874069917467834e+000	 5.336117112039335e+000
 2.940726413989126e-001	 1.877104660994329e+000	 5.328176547347240e+000
 2.753469969816266e-001	 1.879942724511631e+000	 5.324932157634221e+000
 2.566557496788665e-001	 1.882585565048103e+000	 5.326131377755682e+000
 2.380016152648743e-001	 1.885034684481444e+000	 5.331572939069310e+000
 2.193872614133744e-001	 1.887291627985147e+000	 5.341080450399177e+000
 2.008153070526659e-001	 1.889357982470562e+000	 5.354476146021519e+000
 1.822883217731432e-001	 1.891235375026396e+000	 5.371555158920084e+000
 3.705587675710249e-001	 1.870310662413659e+000	 4.947945011142312e+000
 3.516575470554892e-001	 1.873956462819656e+000	 4.913979976447377e+000
 3.327794752429693e-001	 1.877400792279644e+000	 4.888401594480850e+000
 3.139274629730742e-001	 1.880644968633256e+000	 4.870328079389628e+000
 2.951043759398223e-001	 1.883690359357782e+000	 4.858995325903902e+000
 2.763130338297540e-001	 1.886538380034160e+000	 4.853732014044849e+000
 2.575562095142220e-001	 1.889190492802647e+000	 4.853933678391393e+000
 2.388366282955775e-001	 1.891648204810183e+000	 4.859036163894276e+000
 2.201569672068974e-001	 1.893913066651406e+000	 4.868488874034308e+000
 2.015198543648128e-001	 1.895986670805244e+000	 4.881728198424612e+000
 1.829278683749512e-001	 1.897870650068939e+000	 4.898151486035931e+000
 3.718543053000838e-001	 1.876849592913921e+000	 4.328960745278022e+000
 3.528870028392147e-001	 1.880508139670492e+000	 4.282121061909586e+000
 3.339429300132638e-001	 1.883964511103601e+000	 4.246562921858195e+000
 3.150250078386324e-001	 1.887220029660280e+000	 4.221012918979922e+000
 2.961361120282943e-001	 1.890276067598770e+000	 4.204300719545710e+000
 2.772790721268962e-001	 1.893134045449129e+000	 4.195334057940872e+000
 2.584566707002223e-001	 1.895795430463520e+000	 4.193072683910499e+000
 2.396716425787466e-001	 1.898261735058134e+000	 4.196501692283311e+000
 2.209266741549105e-001	 1.900534515248767e+000	 4.204604649537493e+000
 2.022244027336898e-001	 1.902615369081935e+000	 4.216336912448138e+000
 1.835674159359578e-001	 1.904505935063431e+000	 4.230599512665055e+000
 3.731498452962563e-001	 1.883388534856166e+000	 3.534833859700135e+000
 3.541164607743986e-001	 1.887059827985581e+000	 3.471865509330486e+000
 3.351063868195043e-001	 1.890528241412844e+000	 3.423552794047977e+000
 3.161225546247840e-001	 1.893795102192404e+000	 3.388161047725980e+000
 2.971678499221832e-001	 1.896861787363458e+000	 3.364039492083696e+000
 2.782451121144706e-001	 1.899729722405203e+000	 3.349596330275369e+000
 2.593571334618776e-001	 1.902400379681715e+000	 3.343272780053546e+000
 2.405066583230164e-001	 1.904875276878457e+000	 3.343516486099124e+000
 2.216963824497082e-001	 1.907155975432390e+000	 3.348754734183186e+000
 2.029289523352882e-001	 1.909244078957634e+000	 3.357367870281590e+000
 1.842069646158896e-001	 1.911141231668545e+000	 3.367663305887839e+000
 3.744453878833915e-001	 1.889927489874846e+000	 2.565399071359439e+000
 3.553459211683593e-001	 1.893611529402563e+000	 2.483148641682103e+000
 3.362698459524988e-001	 1.897091984848029e+000	 2.419358496237063e+000
 3.172201036058481e-001	 1.900370187873122e+000	 2.371764103859472e+000
 2.981995898793438e-001	 1.903447520298011e+000	 2.338161092293569e+000
 2.792111540338949e-001	 1.906325412551045e+000	 2.316380644569748e+000
 2.602575980241983e-001	 1.909005342108230e+000	 2.304263823998969e+000
 2.413416757370221e-001	 1.911488831924311e+000	 2.299635275793010e+000
 2.224660922835849e-001	 1.913777448857435e+000	 2.300276736002405e+000
 2.036335033455984e-001	 1.915872802089337e+000	 2.303900758513939e+000
 1.848465145744732e-001	 1.917776541542956e+000	 2.308125048511905e+000
 3.757409333853378e-001	 1.896466459604412e+000	 1.420495713294084e+000
 3.565753843284157e-001	 1.900163245559079e+000	 1.315908944850188e+000
 3.374333077030549e-001	 1.903655743049810e+000	 1.233969671664081e+000
 3.183176550561437e-001	 1.906945288345930e+000	 1.171815915611542e+000
 2.992313321576309e-001	 1.910033268048593e+000	 1.126617615894935e+000
 2.801771981265868e-001	 1.912921117535318e+000	 1.095552531088455e+000
 2.611580646121947e-001	 1.915610319394058e+000	 1.075781059887005e+000
 2.421766950293987e-001	 1.918102401848856e+000	 1.064420436689072e+000
 2.232358038488350e-001	 1.920398937179060e+000	 1.058518740494619e+000
 2.043380559406117e-001	 1.922501540134042e+000	 1.055029135219566e+000
 1.854860659714354e-001	 1.924411866345337e+000	 1.050784736743752e+000
 1.790905975616490e-001	 1.858059091039320e+000	 4.870914220302230e+000
 1.609325570466982e-001	 1.859719774928535e+000	 4.883673502068610e+000
 1.428236509081929e-001	 1.861198066987645e+000	 4.900402793874333e+000
 1.247662928029802e-001	 1.862495676178339e+000	 4.922694866396532e+000
 1.067628449329038e-001	 1.863614344853473e+000	 4.951903830504693e+000
 8.881561771666691e-002	 1.864555847221398e+000	 4.989132733458149e+000
 7.092686951017656e-002	 1.865321987818410e+000	 5.035223155717778e+000
 5.309880637443565e-002	 1.865914599990803e+000	 5.090746953846645e+000
 3.533358189001407e-002	 1.866335544387978e+000	 5.156000270043364e+000
 1.763329701708853e-002	 1.866586707467961e+000	 5.230999904091311e+000
 0.000000000000000e+000	 1.866670000016666e+000	 5.315482130920231e+000
 1.797301417633639e-001	 1.864694341202229e+000	 5.349057026004148e+000
 1.615072577019093e-001	 1.866360955501386e+000	 5.363196255111094e+000
 1.433336834789612e-001	 1.867844526637250e+000	 5.380482193600208e+000
 1.252118413706765e-001	 1.869146769674353e+000	 5.403292716234417e+000
 1.071441020144599e-001	 1.870269433187636e+000	 5.433719377315343e+000
 8.913278407965512e-002	 1.871214297721295e+000	 5.473554094356027e+000
 7.118015398689018e-002	 1.871983174255770e+000	 5.524277964598352e+000
 5.328842567514063e-002	 1.872577902684386e+000	 5.587052362112956e+000
 3.545976041553825e-002	 1.873000350301069e+000	 5.662712437578930e+000
 1.769626667091111e-002	 1.873252410300538e+000	 5.751763117367900e+000
 0.000000000000000e+000	 1.873336000292277e+000	 5.854377685578765e+000
 1.803696861256440e-001	 1.871329593023718e+000	 5.639513968405585e+000
 1.620819585015042e-001	 1.873002137734208e+000	 5.654923992369604e+000
 1.438437161779622e-001	 1.874490987948056e+000	 5.672243427483030e+000
 1.256573900504839e-001	 1.875797864832641e+000	 5.694529012757529e+000
 1.075253591920342e-001	 1.876924523184994e+000	 5.724524429466186e+000
 8.944995052259598e-002	 1.877872749885155e+000	 5.764645627926431e+000
 7.143343852751727e-002	 1.878644362357717e+000	 5.816968400711541e+000
 5.347804502374528e-002	 1.879241207043033e+000	 5.883218353836180e+000
 3.558593897297262e-002	 1.879665157879560e+000	 5.964763401062442e+000
 1.775923634067765e-002	 1.879918114798716e+000	 6.062608880271647e+000
 0.000000000000000e+000	 1.880002002233555e+000	 6.177395377447409e+000
 1.810092308082162e-001	 1.877964848162459e+000	 5.740953772292770e+000
 1.626566595889848e-001	 1.879643323287192e+000	 5.757273712770450e+000
 1.443537491325189e-001	 1.881137452581612e+000	 5.774036445951601e+000
 1.261029389535963e-001	 1.882448963315952e+000	 5.794871958912647e+000
 1.079066165607448e-001	 1.883579616509333e+000	 5.823091219764053e+000
 8.976711712458955e-002	 1.884531205377647e+000	 5.861669705395165e+000
 7.168672319520096e-002	 1.885305553789637e+000	 5.913233270722291e+000
 5.366766446750064e-002	 1.885904514732689e+000	 5.980046516307081e+000
 3.571211759374466e-002	 1.886329968789800e+000	 6.064003784038062e+000
 1.782220604206414e-002	 1.886583822629083e+000	 6.166622883622925e+000
 0.000000000000000e+000	 1.886668007507166e+000	 6.289041638766705e+000
 1.816487759708071e-001	 1.884600108277128e+000	 5.652064888667401e+000
 1.632313611078530e-001	 1.886284513820528e+000	 5.668685529928803e+000
 1.448637824699542e-001	 1.887783922199470e+000	 5.684235111074913e+000
 1.265484881912075e-001	 1.889100066787036e+000	 5.702811869002227e+000
 1.082878742157101e-001	 1.890234714824445e+000	 5.728209691136309e+000
 9.008428396473579e-002	 1.891189665863439e+000	 5.763899404176761e+000
 7.194000805308426e-002	 1.891966750216917e+000	 5.813012481027370e+000
 5.385728405365773e-002	 1.892567827419305e+000	 5.878327329607806e+000
 3.583829630928184e-002	 1.892994784698134e+000	 5.962258299294936e+000
 1.788517579074657e-002	 1.893249535458222e+000	 6.066847512987298e+000
 0.000000000000000e+000	 1.893334017779778e+000	 6.193759618455605e+000
 1.822883217731432e-001	 1.891235375026396e+000	 5.371555158920084e+000
 1.638060632016108e-001	 1.892925710994410e+000	 5.387622276403985e+000
 1.453738163175913e-001	 1.894430398463179e+000	 5.401236786260220e+000
 1.269940378745112e-001	 1.895751176908643e+000	 5.416860789317447e+000
 1.086691322520480e-001	 1.896889819794116e+000	 5.438687193794232e+000
 9.040145112213467e-002	 1.897848133007199e+000	 5.470618327225805e+000
 7.219329316431025e-002	 1.898627953304946e+000	 5.516247024980059e+000
 5.404690382946755e-002	 1.899231146768825e+000	 5.578840367401204e+000
 3.596447515101166e-002	 1.899659607270911e+000	 5.661326208865020e+000
 1.794814560240096e-002	 1.899915254952724e+000	 5.766282613461810e+000
 0.000000000000000e+000	 1.900000034718056e+000	 5.895930297167737e+000
 1.829278683749512e-001	 1.897870650068939e+000	 4.898151486035931e+000
 1.643807660137601e-001	 1.899566916469028e+000	 4.912569116259555e+000
 1.458838508027531e-001	 1.901076883034290e+000	 4.923461934569357e+000
 1.274395881147012e-001	 1.902402295343521e+000	 4.935552126743541e+000
 1.090503907648768e-001	 1.903544933082137e+000	 4.953348188759696e+000
 9.071861867588626e-002	 1.904506608473594e+000	 4.981120426182957e+000
 7.244657859202201e-002	 1.905289164719112e+000	 5.022878970384801e+000
 5.423652384218115e-002	 1.905894474447200e+000	 5.082354493490449e+000
 3.609065415036164e-002	 1.906324438174477e+000	 5.162981774340260e+000
 1.801111549270328e-002	 1.906580982779173e+000	 5.267886238367701e+000
 0.000000000000000e+000	 1.906666059988667e+000	 5.399873578879259e+000
 1.835674159359578e-001	 1.904505935063431e+000	 4.230599512665055e+000
 1.649554696878030e-001	 1.906208131904575e+000	 4.242033165725161e+000
 1.463938860527627e-001	 1.907723377574352e+000	 4.249353725437066e+000
 1.278851390229712e-001	 1.909053423754419e+000	 4.257440285137958e+000
 1.094316498493146e-001	 1.910200056352295e+000	 4.271033957601048e+000
 9.103578670509055e-002	 1.911165093927295e+000	 4.294709828222349e+000
 7.269986439936259e-002	 1.911950386124803e+000	 4.332851447245013e+000
 5.442614413904955e-002	 1.912557812120374e+000	 4.389628054255379e+000
 3.621683333875921e-002	 1.912989279075178e+000	 4.468974697742851e+000
 1.807408547732953e-002	 1.913246720604157e+000	 4.574575382240289e+000
 0.000000000000000e+000	 1.913332095258278e+000	 4.709849359587003e+000
 1.842069646158896e-001	 1.911141231668545e+000	 3.367663305887839e+000
 1.655301743672413e-001	 1.912849358961241e+000	 3.374543121758311e+000
 1.469039221949430e-001	 1.914369883744917e+000	 3.377377649594362e+000
 1.283306907105152e-001	 1.915704563804088e+000	 3.381100309299311e+000
 1.098129096004796e-001	 1.916855191268378e+000	 3.390602318224971e+000
 9.135295528884754e-002	 1.917823591032968e+000	 3.410700666515972e+000
 7.295315064947502e-002	 1.918611619187405e+000	 3.446108635766334e+000
 5.461576476732376e-002	 1.919221161454297e+000	 3.501409067063708e+000
 3.634301274763190e-002	 1.919654131639363e+000	 3.581030553181033e+000
 1.813705557195572e-002	 1.919912470094263e+000	 3.689226698499556e+000
 0.000000000000000e+000	 1.919998142193556e+000	 3.830058573670119e+000
 1.848465145744732e-001	 1.917776541542956e+000	 2.308125048511905e+000
 1.661048801955770e-001	 1.919490599299220e+000	 2.308648898320864e+000
 1.474139593566171e-001	 1.921016403207533e+000	 2.306021141990672e+000
 1.287762432885268e-001	 1.922355717155276e+000	 2.305127536333226e+000
 1.101941701134899e-001	 1.923510339494176e+000	 2.310927346578884e+000
 9.167012450625718e-002	 1.924482101455281e+000	 2.328416914217137e+000
 7.320643740550242e-002	 1.925272865572307e+000	 2.362595754604012e+000
 5.480538577425480e-002	 1.925884524114915e+000	 2.418435404756778e+000
 3.646919240840720e-002	 1.926318997533377e+000	 2.500851209515396e+000
 1.820002579225783e-002	 1.926578232916076e+000	 2.614677202175493e+000
 0.000000000000000e+000	 1.926664202461167e+000	 2.764644218461812e+000
 1.854860659714354e-001	 1.924411866345337e+000	 1.050784736743752e+000
 1.666795873163122e-001	 1.926131854578701e+000	 1.042921270177315e+000
 1.479239976651079e-001	 1.927662937623752e+000	 1.033793212525623e+000
 1.292217968681999e-001	 1.929006885470733e+000	 1.028137254244374e+000
 1.105754314834638e-001	 1.930165502693479e+000	 1.030899104121908e+000
 9.198729443641961e-002	 1.931140626858904e+000	 1.047192221888580e+000
 7.345972473058783e-002	 1.931934126944898e+000	 1.082259049352569e+000
 5.499500720709370e-002	 1.932547901768176e+000	 1.141434976302384e+000
 3.659537235251258e-002	 1.932983878423570e+000	 1.230115244247813e+000
 1.826299615391188e-002	 1.933244010736185e+000	 1.353724958045037e+000
 0.000000000000000e+000	 1.933330277727777e+000	 1.517692357555025e+000
 1.933330277727777e+000	 0.000000000000000e+000	 1.262254663427873e+001
 1.933244010736185e+000	 1.826299615391194e-002	 1.266146076501119e+001
 1.932983878423570e+000	 3.659537235251269e-002	 1.269107718227847e+001
 1.932547901768176e+000	 5.499500720709358e-002	 1.271385667842099e+001
 1.931934126944898e+000	 7.345972473058775e-002	 1.273213949443380e+001
 1.931140626858904e+000	 9.198729443641959e-002	 1.274813739100544e+001
 1.930165502693479e+000	 1.105754314834639e-001	 1.276392515261047e+001
 1.929006885470733e+000	 1.292217968681999e-001	 1.278143153383176e+001
 1.927662937623752e+000	 1.479239976651078e-001	 1.280242965807570e+001
 1.926131854578702e+000	 1.666795873163121e-001	 1.282852688730998e+001
 1.924411866345337e+000	 1.854860659714353e-001	 1.286115419051493e+001
 1.939997367452674e+000	 0.000000000000000e+000	 1.271531662713627e+001
 1.939910802969274e+000	 1.832597609816482e-002	 1.276228244570937e+001
 1.939649773590140e+000	 3.672157149831520e-002	 1.279894588196493e+001
 1.939212293468885e+000	 5.518465749610362e-002	 1.282781576134120e+001
 1.938596402042668e+000	 7.371305060054145e-002	 1.285126020059368e+001
 1.937800165571101e+000	 9.230451263318919e-002	 1.287149806568453e+001
 1.936821678689428e+000	 1.109567508736156e-001	 1.289058985281531e+001
 1.935659065974620e+000	 1.296674182522145e-001	 1.291042800222307e+001
 1.934310483522944e+000	 1.484341135914297e-001	 1.293272665561212e+001
 1.932774120537524e+000	 1.672543818963984e-001	 1.295901087677459e+001
 1.931048200924337e+000	 1.861257146959755e-001	 1.299060536423887e+001
 1.946664462180621e+000	 0.000000000000000e+000	 1.266202269897720e+001
 1.946577600205163e+000	 1.838895608939119e-002	 1.271854299440554e+001
 1.946315673758754e+000	 3.684777073830725e-002	 1.276405203379319e+001
 1.945876690170387e+000	 5.537430792675014e-002	 1.280104493004657e+001
 1.945258682139485e+000	 7.396637665979743e-002	 1.283186342537796e+001
 1.944459709280108e+000	 9.262173106713360e-002	 1.285868700857006e+001
 1.943477859679464e+000	 1.113380705490088e-001	 1.288352344054886e+001
 1.942311251469391e+000	 1.301130399697187e-001	 1.290819869765472e+001
 1.940958034409342e+000	 1.489442298996580e-001	 1.293434634351240e+001
 1.939416391479402e+000	 1.678291769069628e-001	 1.296339634928581e+001
 1.937684540481774e+000	 1.867653638997075e-001	 1.299656339161366e+001
 1.953331550244001e+000	 0.000000000000000e+000	 1.247066349032769e+001
 1.953244390776765e+000	 1.845193601748950e-002	 1.253721667413951e+001
 1.952981567263933e+000	 3.697396985182642e-002	 1.259242535274686e+001
 1.952541080209884e+000	 5.556395816736879e-002	 1.263870974094096e+001
 1.951920955576322e+000	 7.421970246526730e-002	 1.267833146782219e+001
 1.951119246331762e+000	 9.293894918333730e-002	 1.271338462443253e+001
 1.950134034015393e+000	 1.117193898425177e-001	 1.274578619994562e+001
 1.948963430313926e+000	 1.305586612410130e-001	 1.277726591489892e+001
 1.947605578650012e+000	 1.494543456971768e-001	 1.280935546171989e+001
 1.946058655780713e+000	 1.684039713421516e-001	 1.284337717187956e+001
 1.944320873404466e+000	 1.874050124632389e-001	 1.288043213873155e+001
 1.959998619975199e+000	 0.000000000000000e+000	 1.214912588060770e+001
 1.959911163016998e+000	 1.851491577235820e-002	 1.222518029371223e+001
 1.959647442440198e+000	 3.710016861821019e-002	 1.229001130012575e+001
 1.959205451924581e+000	 5.575360788629519e-002	 1.234590358247814e+001
 1.958583210694151e+000	 7.447302757386257e-002	 1.239498542223137e+001
 1.957778765071903e+000	 9.325616642688481e-002	 1.243921994716823e+001
 1.956790190049017e+000	 1.121007080870163e-001	 1.248039574277627e+001
 1.955615590867101e+000	 1.310042812863982e-001	 1.252011683443768e+001
 1.954253104612022e+000	 1.499644600913703e-001	 1.255979204935126e+001
 1.952700901817834e+000	 1.689787641961107e-001	 1.260062377638207e+001
 1.950957188079231e+000	 1.880446592671768e-001	 1.264359615197307e+001
 1.966665659706596e+000	 0.000000000000000e+000	 1.170518686082578e+001
 1.966577905258778e+000	 1.857789524389573e-002	 1.178921484015883e+001
 1.966313287622068e+000	 3.722636681679614e-002	 1.186267249429124e+001
 1.965869793651682e+000	 5.594325675186496e-002	 1.192764888280633e+001
 1.965245435833949e+000	 7.472635154249477e-002	 1.198608620147241e+001
 1.964438253846368e+000	 9.357338224286060e-002	 1.203977149759568e+001
 1.963446316132142e+000	 1.124820246153790e-001	 1.209032771970125e+001
 1.962267721487796e+000	 1.314498993261747e-001	 1.213920410621127e+001
 1.960900600662440e+000	 1.504745721896228e-001	 1.218766592004609e+001
 1.959343117967145e+000	 1.695535544629860e-001	 1.223678354552649e+001
 1.957593472892883e+000	 1.886843031921286e-001	 1.228742097409807e+001
 1.973332657770577e+000	 0.000000000000000e+000	 1.114651536923383e+001
 1.973244605835021e+000	 1.864087432200055e-002	 1.123600707892109e+001
 1.972979091144063e+000	 3.735256422692177e-002	 1.131619009348384e+001
 1.972534093728390e+000	 5.613290443241377e-002	 1.138889829348758e+001
 1.971907619336688e+000	 7.497967392807546e-002	 1.145583553997012e+001
 1.971097701000996e+000	 9.389059607634927e-002	 1.151856812421118e+001
 1.970102400616569e+000	 1.128633387604796e-001	 1.157851651736330e+001
 1.968919810534888e+000	 1.318955145806430e-001	 1.163694642170675e+001
 1.967548055168334e+000	 1.509846810993184e-001	 1.169495912778097e+001
 1.965985292605024e+000	 1.701283411369238e-001	 1.175348119127597e+001
 1.964229716232241e+000	 1.893239431187017e-001	 1.181325345390611e+001
 1.979999602499524e+000	 0.000000000000000e+000	 1.048067409079270e+001
 1.979911253078643e+000	 1.870385289657111e-002	 1.057215112246044e+001
 1.979644841340705e+000	 3.747876062792465e-002	 1.065626515135172e+001
 1.979198340491908e+000	 5.632255059627724e-002	 1.073453584983796e+001
 1.978569749543343e+000	 7.523299428751624e-002	 1.080837697687190e+001
 1.977757094881625e+000	 9.420780737243521e-002	 1.087908982729474e+001
 1.976758431854105e+000	 1.132446498551925e-001	 1.094785594164420e+001
 1.975571846367256e+000	 1.323411262701039e-001	 1.101572907465539e+001
 1.974195456496769e+000	 1.514947859278415e-001	 1.108362642336541e+001
 1.972627414107849e+000	 1.707031232120700e-001	 1.115231912553226e+001
 1.970865906484120e+000	 1.899635779275032e-001	 1.122242204961157e+001
 1.986666482225822e+000	 0.000000000000000e+000	 9.715121221276265e+000
 1.986577835322561e+000	 1.876683085750586e-002	 9.804149968033975e+000
 1.986310526546514e+000	 3.760495579914228e-002	 9.888519945816048e+000
 1.985862522279442e+000	 5.651219491179096e-002	 9.969378108425213e+000
 1.985231814794886e+000	 7.548631217772855e-002	 1.004779681983435e+001
 1.984416423834092e+000	 9.452501557620295e-002	 1.012476856674553e+001
 1.983414398196552e+000	 1.136259572323918e-001	 1.020119988739964e+001
 1.982223817343778e+000	 1.327867336148577e-001	 1.027790451059724e+001
 1.980842793014816e+000	 1.520048857825762e-001	 1.035559570183222e+001
 1.979269470851998e+000	 1.712778996825705e-001	 1.043487782340165e+001
 1.977502032035339e+000	 1.906032064991406e-001	 1.051623712607690e+001
 1.993333285281853e+000	 0.000000000000000e+000	 8.857212196821244e+000
 1.993244340899691e+000	 1.882980809470324e-002	 8.938417005335664e+000
 1.992976135096009e+000	 3.773114951991224e-002	 9.018499281879720e+000
 1.992526627428193e+000	 5.670183704729064e-002	 9.098175262242940e+000
 1.991893803432292e+000	 7.573962715562399e-002	 9.178125089873133e+000
 1.991075676204236e+000	 9.484222013273701e-002	 9.258989054017830e+000
 1.990070287995715e+000	 1.140072602249516e-001	 9.341362994981337e+000
 1.988875711823331e+000	 1.332323358352051e-001	 9.425792865566411e+000
 1.987490053089539e+000	 1.525149797709067e-001	 9.512768440928820e+000
 1.985911451213851e+000	 1.718526695425716e-001	 9.602716179187953e+000
 1.984138081272714e+000	 1.912428277142212e-001	 9.695991246042819e+000
 2.000000000000000e+000	 0.000000000000000e+000	 7.914201389707837e+000
 1.999910758142949e+000	 1.889278449806171e-002	 7.981277494688579e+000
 1.999641655323712e+000	 3.785734156957202e-002	 8.051671768971765e+000
 1.999190644275366e+000	 5.689147667111187e-002	 8.125612234068550e+000
 1.998555703796535e+000	 7.599293877811417e-002	 8.203336447705111e+000
 1.997734840337895e+000	 9.515942048712189e-002	 8.285089528517254e+000
 1.996726089603397e+000	 1.143885581657462e-001	 8.371121293844281e+000
 1.995527518164795e+000	 1.336779321514466e-001	 8.461682494142593e+000
 1.994137225088007e+000	 1.530250670002173e-001	 8.557020130910292e+000
 1.992553343569784e+000	 1.724274317862191e-001	 8.657371855276049e+000
 1.990774042583062e+000	 1.918824404533523e-001	 8.762959455491206e+000
 1.924411866345337e+000	 1.854860659714353e-001	 1.286115419051493e+001
 1.922501540134042e+000	 2.043380559406118e-001	 1.289511141091552e+001
 1.920398937179060e+000	 2.232358038488349e-001	 1.292485013367927e+001
 1.918102401848856e+000	 2.421766950293987e-001	 1.295106466367112e+001
 1.915610319394058e+000	 2.611580646121946e-001	 1.297436380085735e+001
 1.912921117535318e+000	 2.801771981265868e-001	 1.299526206872925e+001
 1.910033268048593e+000	 2.992313321576312e-001	 1.301417069766359e+001
 1.906945288345930e+000	 3.183176550561437e-001	 1.303138845591113e+001
 1.903655743049810e+000	 3.374333077030550e-001	 1.304709243258789e+001
 1.900163245559078e+000	 3.565753843284157e-001	 1.306132888871705e+001
 1.896466459604412e+000	 3.757409333853379e-001	 1.307400430390865e+001
 1.931048200924337e+000	 1.861257146959755e-001	 1.299060536423887e+001
 1.929131286952813e+000	 2.050427157553048e-001	 1.302285408629249e+001
 1.927021433171348e+000	 2.240056325498700e-001	 1.305082236346028e+001
 1.924716978238935e+000	 2.430118413962970e-001	 1.307518935671413e+001
 1.922216301837717e+000	 2.620586682346834e-001	 1.309655442659574e+001
 1.919517826266314e+000	 2.811433892335523e-001	 1.311542824977458e+001
 1.916620018030578e+000	 3.002632314483342e-001	 1.313222365747666e+001
 1.913521389429823e+000	 3.194153735338842e-001	 1.314724628934520e+001
 1.910220500136607e+000	 3.385969465114715e-001	 1.316068516829994e+001
 1.906715958768053e+000	 3.578050345906109e-001	 1.317260331396197e+001
 1.903006424446688e+000	 3.770366760460168e-001	 1.318292852408572e+001
 1.937684540481774e+000	 1.867653638997075e-001	 1.299656339161366e+001
 1.935761038744943e+000	 2.057473760980256e-001	 1.302984753657207e+001
 1.933643934131447e+000	 2.247754618278888e-001	 1.305903255470261e+001
 1.931331559590807e+000	 2.438469883892481e-001	 1.308477319949966e+001
 1.928822289236666e+000	 2.629592725323993e-001	 1.310764962574412e+001
 1.926114539945610e+000	 2.821095810650167e-001	 1.312815838049703e+001
 1.923206772953378e+000	 3.012951315128971e-001	 1.314670308258818e+001
 1.920097495446545e+000	 3.205130928349259e-001	 1.316358488507229e+001
 1.916785262147738e+000	 3.397605861927041e-001	 1.317899282746054e+001
 1.913268676892355e+000	 3.590346857752013e-001	 1.319299419686772e+001
 1.909546394194761e+000	 3.783324196787251e-001	 1.320552502943337e+001
 1.944320873404466e+000	 1.874050124632389e-001	 1.288043213873155e+001
 1.942390783908820e+000	 2.064520357355793e-001	 1.291724499661934e+001
 1.940266428470466e+000	 2.255452903356298e-001	 1.295037900695593e+001
 1.937946134329452e+000	 2.446821345466726e-001	 1.298045525736556e+001
 1.935428270030934e+000	 2.638598759292083e-001	 1.300802494177859e+001
 1.932711247029466e+000	 2.830757719300687e-001	 1.303356021215002e+001
 1.929793521290675e+000	 3.023270305454238e-001	 1.305744468496714e+001
 1.926673594888409e+000	 3.216108110381967e-001	 1.307996369797360e+001
 1.923350017595366e+000	 3.409242247103263e-001	 1.310129442520554e+001
 1.919821388465220e+000	 3.602643357302445e-001	 1.312149597111080e+001
 1.916086357404184e+000	 3.796281620158600e-001	 1.314049957708603e+001
 1.950957188079231e+000	 1.880446592671768e-001	 1.264359615197307e+001
 1.949020510842833e+000	 2.071566934347714e-001	 1.268618393933161e+001
 1.946888904599510e+000	 2.263151167258317e-001	 1.272574785255074e+001
 1.944560690879855e+000	 2.455172784069913e-001	 1.276286606063966e+001
 1.942034232660551e+000	 2.647604768489764e-001	 1.279805105329072e+001
 1.939307935974137e+000	 2.840419601377974e-001	 1.283174033959692e+001
 1.936380251516154e+000	 3.033589267400191e-001	 1.286428676750418e+001
 1.933249676247729e+000	 3.227085262226244e-001	 1.289594856042159e+001
 1.929914754991652e+000	 3.420878600279121e-001	 1.292687918042275e+001
 1.926374082019887e+000	 3.614939823037993e-001	 1.295711714049309e+001
 1.922626302630512e+000	 3.809239007898189e-001	 1.298657590119693e+001
 1.957593472892883e+000	 1.886843031921286e-001	 1.228742097409807e+001
 1.955650207945371e+000	 2.078613479624075e-001	 1.233778633087930e+001
 1.953511350929684e+000	 2.270849396512331e-001	 1.238601325008686e+001
 1.951175217666995e+000	 2.463524185086249e-001	 1.243262773547412e+001
 1.948640165565545e+000	 2.656610737155694e-001	 1.247809384126516e+001
 1.945904595235886e+000	 2.850081439972916e-001	 1.252280420413004e+001
 1.942966952103496e+000	 3.043908182907876e-001	 1.256707016147123e+001
 1.939825728016818e+000	 3.238062364671364e-001	 1.261111155348357e+001
 1.936479462848755e+000	 3.432514901090352e-001	 1.265504631980495e+001
 1.932926746089595e+000	 3.627236233439242e-001	 1.269888001495316e+001
 1.929166218429299e+000	 3.822196337329991e-001	 1.274249538002336e+001
 1.964229716232241e+000	 1.893239431187017e-001	 1.181325345390611e+001
 1.962279863614822e+000	 2.085659980852931e-001	 1.187315888069377e+001
 1.960133755872096e+000	 2.278547577645727e-001	 1.193203757386541e+001
 1.957789703115855e+000	 2.471875533899939e-001	 1.199035413183559e+001
 1.955246057185943e+000	 2.665616649528533e-001	 1.204851445474255e+001
 1.952501213270967e+000	 2.859743218176405e-001	 1.210685609592146e+001
 1.949553611526384e+000	 3.054227033918336e-001	 1.216563816487740e+001
 1.946401738687989e+000	 3.249039398506607e-001	 1.222503088030060e+001
 1.943044129678839e+000	 3.444151129172695e-001	 1.228510488537393e+001
 1.939479369207581e+000	 3.639532566986775e-001	 1.234582045136347e+001
 1.935706093356100e+000	 3.835153585777981e-001	 1.240701670912808e+001
 1.970865906484120e+000	 1.899635779275032e-001	 1.122242204961157e+001
 1.968909466249573e+000	 2.092706425702335e-001	 1.129339328632296e+001
 1.966756107837849e+000	 2.286245697185889e-001	 1.136467159935648e+001
 1.964404135651418e+000	 2.480226815895192e-001	 1.143665094871627e+001
 1.961851895961775e+000	 2.674622489846945e-001	 1.150966937490471e+001
 1.959097778535640e+000	 2.869404919079331e-001	 1.158399915611376e+001
 1.956140218258501e+000	 3.064545802372620e-001	 1.165983648169802e+001
 1.952977696753554e+000	 3.260016344521250e-001	 1.173729074159099e+001
 1.949608743994064e+000	 3.455787264161886e-001	 1.181637354539776e+001
 1.946031939907083e+000	 3.651828802161176e-001	 1.189698759900303e+001
 1.942245915966470e+000	 3.848110730566133e-001	 1.197891558055613e+001
 1.977502032035339e+000	 1.906032064991406e-001	 1.051623712607690e+001
 1.975539004248015e+000	 2.099752801840344e-001	 1.059956647327084e+001
 1.973378395238052e+000	 2.293943741660205e-001	 1.068475468479263e+001
 1.971018503698665e+000	 2.488578016456213e-001	 1.077211585662850e+001
 1.968457670333070e+000	 2.683628242349581e-001	 1.086191047761700e+001
 1.965694279486164e+000	 2.879066525772582e-001	 1.095433537855825e+001
 1.962726760773528e+000	 3.074864470211772e-001	 1.104951316195783e+001
 1.959553590705827e+000	 3.270993183504568e-001	 1.114748121323011e+001
 1.956173294306592e+000	 3.467423285693666e-001	 1.124818040862149e+001
 1.952584446721340e+000	 3.664124917443030e-001	 1.135144364959900e+001
 1.948785674815963e+000	 3.861067749018420e-001	 1.145698436785101e+001
 1.984138081272714e+000	 1.912428277142212e-001	 9.695991246042819e+000
 1.982168466008534e+000	 2.106799096935011e-001	 9.792740829933765e+000
 1.980000606483809e+000	 2.301641697596058e-001	 9.893114948975063e+000
 1.977632795682577e+000	 2.496929120967210e-001	 9.997338617443500e+000
 1.975063368739857e+000	 2.692633891275107e-001	 1.010558509446296e+001
 1.972290704578797e+000	 2.888728021347050e-001	 1.021796561120797e+001
 1.969313227545150e+000	 3.085183019376837e-001	 1.033451854264785e+001
 1.966129409037122e+000	 3.281969896245840e-001	 1.045519812585802e+001
 1.962737769128583e+000	 3.479059173403772e-001	 1.057986284173685e+001
 1.959136878183591e+000	 3.676420891312922e-001	 1.070826359183264e+001
 1.955325358460134e+000	 3.874024618458816e-001	 1.084003181677691e+001
 1.990774042583062e+000	 1.918824404533523e-001	 8.762959455491206e+000
 1.988797839929520e+000	 2.113845298654391e-001	 8.873964437744574e+000
 1.986622729986227e+000	 2.309339551520839e-001	 8.990569445378345e+000
 1.984247000028138e+000	 2.505280114812390e-001	 9.112901201634656e+000
 1.981668979622164e+000	 2.701639420862183e-001	 9.241036072303519e+000
 1.978887042269796e+000	 2.898389388893622e-001	 9.374989557172809e+000
 1.975899607047047e+000	 3.095501431808861e-001	 9.514705189456201e+000
 1.972705140239751e+000	 3.292946463534344e-001	 9.660042946469291e+000
 1.969302156972200e+000	 3.490694906927942e-001	 9.810767290016505e+000
 1.965689222827072e+000	 3.688716702251433e-001	 9.966534970208578e+000
 1.961864955454538e+000	 3.886981316211295e-001	 1.012688274161746e+001
 1.896466459604412e+000	 3.757409333853379e-001	 1.307400430390865e+001
 1.892563500168320e+000	 3.949298373126922e-001	 1.308700787580353e+001
 1.888453676301606e+000	 4.141361773022581e-001	 1.310247395700992e+001
 1.884135813088218e+000	 4.333568642990193e-001	 1.312041897983369e+001
 1.879608792083759e+000	 4.525887673990907e-001	 1.314064863926306e+001
 1.874871552788905e+000	 4.718287150019048e-001	 1.316275042727415e+001
 1.869923094099525e+000	 4.910734960175069e-001	 1.318608737704364e+001
 1.864762475731302e+000	 5.103198611286467e-001	 1.320979321581068e+001
 1.859388819616633e+000	 5.295645241072586e-001	 1.323276913108793e+001
 1.853801311271564e+000	 5.488041631848249e-001	 1.325368235955404e+001
 1.847999201130549e+000	 5.680354224760175e-001	 1.327096681112480e+001
 1.903006424446688e+000	 3.770366760460168e-001	 1.318292852408572e+001
 1.899090005654519e+000	 3.962917529111596e-001	 1.319338276968979e+001
 1.894966009059619e+000	 4.155643259668070e-001	 1.320597122208811e+001
 1.890633255694253e+000	 4.348512955053325e-001	 1.322078586503404e+001
 1.886090623257090e+000	 4.541495198259258e-001	 1.323770071541531e+001
 1.881337047591688e+000	 4.734558163907507e-001	 1.325636368711553e+001
 1.876371524141627e+000	 4.927669630364044e-001	 1.327618966641622e+001
 1.871193109380035e+000	 5.120796992403628e-001	 1.329635500268354e+001
 1.865800922211312e+000	 5.313907274419983e-001	 1.331579362431578e+001
 1.860194145342777e+000	 5.506967144176710e-001	 1.333319499480509e+001
 1.854372026624021e+000	 5.699942927092772e-001	 1.334700412715116e+001
 1.909546394194761e+000	 3.783324196787251e-001	 1.320552502943337e+001
 1.905616516036455e+000	 3.976536695313453e-001	 1.321808522277024e+001
 1.901478346702779e+000	 4.169924757028027e-001	 1.323247686667828e+001
 1.897130703174315e+000	 4.363457278328529e-001	 1.324882938236022e+001
 1.892572459292788e+000	 4.557102734237521e-001	 1.326704962360697e+001
 1.887802547244642e+000	 4.750829190003875e-001	 1.328681316556202e+001
 1.882819959021162e+000	 4.944604313259012e-001	 1.330755680394532e+001
 1.877623747852923e+000	 5.138395386724858e-001	 1.332847247329662e+001
 1.872213029616325e+000	 5.332169321469448e-001	 1.334850279930718e+001
 1.866586984209952e+000	 5.525892670705059e-001	 1.336633850543862e+001
 1.860744856898537e+000	 5.719531644122836e-001	 1.338041789763603e+001
 1.916086357404184e+000	 3.796281620158600e-001	 1.314049957708603e+001
 1.912143019893252e+000	 3.990155847898394e-001	 1.315954255860748e+001
 1.907990677835036e+000	 4.184206240109177e-001	 1.318016469158509e+001
 1.903628144158436e+000	 4.378401586662455e-001	 1.320249512366449e+001
 1.899054288848237e+000	 4.572710254611572e-001	 1.322643844726238e+001
 1.894268040433766e+000	 4.767100199832762e-001	 1.325166550770812e+001
 1.889268387454018e+000	 4.961538979223016e-001	 1.327760541804748e+001
 1.884054379897014e+000	 5.155993763451566e-001	 1.330343899370001e+001
 1.878625130611152e+000	 5.350431350260875e-001	 1.332809382695108e+001
 1.872979816686288e+000	 5.544818178312048e-001	 1.335024122664853e+001
 1.867117680802294e+000	 5.739120341568522e-001	 1.336829525231313e+001
 1.922626302630512e+000	 3.809239007898189e-001	 1.298657590119693e+001
 1.918669505804034e+000	 4.003774963032317e-001	 1.301620383115199e+001
 1.914502991060339e+000	 4.198487683918247e-001	 1.304723362920449e+001
 1.910125567276648e+000	 4.393345853901751e-001	 1.307975685691664e+001
 1.905536100580816e+000	 4.588317732067282e-001	 1.311364112955979e+001
 1.900733515845056e+000	 4.783371164918771e-001	 1.314852053724234e+001
 1.895716798156077e+000	 4.978473598619106e-001	 1.318378726618404e+001
 1.890484994259351e+000	 5.173592091785162e-001	 1.321858463777657e+001
 1.885037213975278e+000	 5.368693328834175e-001	 1.325180179014644e+001
 1.879372631584984e+000	 5.563743633876412e-001	 1.328207023258915e+001
 1.873490487183485e+000	 5.758708985147968e-001	 1.330776250732090e+001
 1.929166218429299e+000	 3.822196337329991e-001	 1.274249538002336e+001
 1.925195962347924e+000	 4.017394016881122e-001	 1.278653942531727e+001
 1.921015274982634e+000	 4.212769063461962e-001	 1.283190728338133e+001
 1.916622961158985e+000	 4.408290053893066e-001	 1.287861601122328e+001
 1.912017883147906e+000	 4.603925139290530e-001	 1.292646190957409e+001
 1.907198962164510e+000	 4.799642056786505e-001	 1.297501064975354e+001
 1.902165179843225e+000	 4.995408141810327e-001	 1.302358859144501e+001
 1.896915579686980e+000	 5.191190340927052e-001	 1.307127551328685e+001
 1.891449268488183e+000	 5.386955225229246e-001	 1.311689898555679e+001
 1.885765417719239e+000	 5.582669004276901e-001	 1.315903062014811e+001
 1.879863264890306e+000	 5.778297540579320e-001	 1.319598443735770e+001
 1.935706093356100e+000	 3.835153585777981e-001	 1.240701670912808e+001
 1.931722378104047e+000	 4.031012985610708e-001	 1.246904066495233e+001
 1.927527518205872e+000	 4.227050353747045e-001	 1.253243347783133e+001
 1.923120314435480e+000	 4.423234160483052e-001	 1.259710117146133e+001
 1.918499625206888e+000	 4.619532448967189e-001	 1.266273476896491e+001
 1.913664368078124e+000	 4.815912846960572e-001	 1.272880021739376e+001
 1.908613521231345e+000	 5.012342579159725e-001	 1.279452949117925e+001
 1.903346124926945e+000	 5.208788480078646e-001	 1.285891310052725e+001
 1.897861282929353e+000	 5.405217007485994e-001	 1.292069423842095e+001
 1.892158163902252e+000	 5.601594256392254e-001	 1.297836480609337e+001
 1.886236002770952e+000	 5.797885973580729e-001	 1.303016356140342e+001
 1.942245915966470e+000	 3.848110730566133e-001	 1.197891558055613e+001
 1.938248741651528e+000	 4.044631845386976e-001	 1.206221942804295e+001
 1.934039709333999e+000	 4.241331529780222e-001	 1.214708381293093e+001
 1.929617615736164e+000	 4.438178147518357e-001	 1.223326758230525e+001
 1.924981315415146e+000	 4.635139633783134e-001	 1.232032288896881e+001
 1.920129722271896e+000	 4.832183506965573e-001	 1.240758500463769e+001
 1.915061811036321e+000	 5.029276881030343e-001	 1.249416329739525e+001
 1.909776618726292e+000	 5.226386478441352e-001	 1.257893360331336e+001
 1.904273246078267e+000	 5.423478643644319e-001	 1.266053223012234e+001
 1.898550858947221e+000	 5.620519357101217e-001	 1.273735183728982e+001
 1.892608689673620e+000	 5.817474249870338e-001	 1.280753944169817e+001
 1.948785674815963e+000	 3.861067749018420e-001	 1.145698436785101e+001
 1.944775041569488e+000	 4.058250572375823e-001	 1.156460776897573e+001
 1.940551836970966e+000	 4.255612566568219e-001	 1.167415323068483e+001
 1.936114853691072e+000	 4.453121988845630e-001	 1.178519666143419e+001
 1.931462942430058e+000	 4.650746666424240e-001	 1.189711811746034e+001
 1.926595013431823e+000	 4.848454008326115e-001	 1.200909159488639e+001
 1.921510037974037e+000	 5.046211017785234e-001	 1.212007596866542e+001
 1.916207049832067e+000	 5.243984305216578e-001	 1.222880731200831e+001
 1.910685146714410e+000	 5.441740101744127e-001	 1.233379283822674e+001
 1.904943491667344e+000	 5.639444273282532e-001	 1.243330671368881e+001
 1.898981314446504e+000	 5.837062335166293e-001	 1.252538799567801e+001
 1.955325358460134e+000	 3.874024618458816e-001	 1.084003181677691e+001
 1.951301266437051e+000	 4.071869142743148e-001	 1.097475754770484e+001
 1.947063889720720e+000	 4.269893439117760e-001	 1.111195958768487e+001
 1.942612016930235e+000	 4.468065658311523e-001	 1.125099552171068e+001
 1.937944494909006e+000	 4.666353519576381e-001	 1.139104044585427e+001
 1.933060230243902e+000	 4.864724322566804e-001	 1.153107682766913e+001
 1.927958190760378e+000	 5.063144959787437e-001	 1.166988549327268e+001
 1.922637406991314e+000	 5.261581929605732e-001	 1.180603797832358e+001
 1.917096973617263e+000	 5.460001349825318e-001	 1.193789048870656e+001
 1.911336050875822e+000	 5.658368971814942e-001	 1.206357972380143e+001
 1.905353865937798e+000	 5.856650195186739e-001	 1.218102082057418e+001
 1.961864955454538e+000	 3.886981316211295e-001	 1.012688274161746e+001
 1.957827404833344e+000	 4.085487532654855e-001	 1.029124006566483e+001
 1.953575856187211e+000	 4.284174122435571e-001	 1.045884323587933e+001
 1.949109094083688e+000	 4.483009129762684e-001	 1.062879650212722e+001
 1.944425961509372e+000	 4.681960165925432e-001	 1.080003749562564e+001
 1.939525361394130e+000	 4.880994421212243e-001	 1.097132724620374e+001
 1.934406258111227e+000	 5.080078677400004e-001	 1.114124130334535e+001
 1.929067678951077e+000	 5.279179320810223e-001	 1.130816220162589e+001
 1.923508715566310e+000	 5.478262355927795e-001	 1.147027352007677e+001
 1.917728525385851e+000	 5.677293419577193e-001	 1.162555579237454e+001
 1.911726332995700e+000	 5.876237795649825e-001	 1.177178453039120e+001
 1.847999201130549e+000	 5.680354224760175e-001	 1.327096681112480e+001
 1.841981805384595e+000	 5.872549131734429e-001	 1.328330248794184e+001
 1.835748505856336e+000	 6.064592142033818e-001	 1.328917957036254e+001
 1.829298752609273e+000	 6.256448746004242e-001	 1.328639871832236e+001
 1.822632065596483e+000	 6.448084154108978e-001	 1.327253602503389e+001
 1.815748035804696e+000	 6.639463313706805e-001	 1.324495659988508e+001
 1.808646326353042e+000	 6.830550926306998e-001	 1.320940322924555e+001
 1.801326673544389e+000	 7.021311465288183e-001	 1.317922425818680e+001
 1.793788887867155e+000	 7.211709194066933e-001	 1.315462578398818e+001
 1.786032854945589e+000	 7.401708184701011e-001	 1.313548957433642e+001
 1.778058536436490e+000	 7.591272336911190e-001	 1.312160365848494e+001
 1.854372026624021e+000	 5.699942927092772e-001	 1.334700412715116e+001
 1.848333879887951e+000	 5.892800618231178e-001	 1.335582513453835e+001
 1.842079084825410e+000	 6.085505888878965e-001	 1.335804087601857e+001
 1.835607089603429e+000	 6.278024110375446e-001	 1.335139762520620e+001
 1.828917412519633e+000	 6.470320373212148e-001	 1.333340390748118e+001
 1.822009643150254e+000	 6.662359503868776e-001	 1.330134372987141e+001
 1.814883443452677e+000	 6.854106082127709e-001	 1.326326418519439e+001
 1.807538548820397e+000	 7.045524458853990e-001	 1.323015658388703e+001
 1.799974769088290e+000	 7.236578774226530e-001	 1.320193785528599e+001
 1.792191989486165e+000	 7.427232976405553e-001	 1.317841964344258e+001
 1.784190171538583e+000	 7.617450840619972e-001	 1.315931386135890e+001
 1.860744856898537e+000	 5.719531644122836e-001	 1.338041789763603e+001
 1.854685959156884e+000	 5.913052119922639e-001	 1.338925710105023e+001
 1.848409668544039e+000	 6.106419651415646e-001	 1.339112641912138e+001
 1.841915431330562e+000	 6.299599490934507e-001	 1.338371548857058e+001
 1.835202764158619e+000	 6.492556608998898e-001	 1.336446686456896e+001
 1.828271255193945e+000	 6.685255711209363e-001	 1.333068641073323e+001
 1.821120565232174e+000	 6.877661255621314e-001	 1.329266263841317e+001
 1.813750428757426e+000	 7.069737470586097e-001	 1.325879219829670e+001
 1.806160654951032e+000	 7.261448373044901e-001	 1.322893849412829e+001
 1.798351128648357e+000	 7.452757787260291e-001	 1.320286421555365e+001
 1.790321811241721e+000	 7.643629363969243e-001	 1.318023066806340e+001
 1.867117680802294e+000	 5.739120341568522e-001	 1.336829525231313e+001
 1.861038032075868e+000	 5.933303601367139e-001	 1.338067359674890e+001
 1.854740245934266e+000	 6.127333393043351e-001	 1.338553037413495e+001
 1.848223766751578e+000	 6.321174849923246e-001	 1.338049648645413e+001
 1.841488109514515e+000	 6.514792822554775e-001	 1.336295024138226e+001
 1.834532860978315e+000	 6.708151895659438e-001	 1.333051210008625e+001
 1.827357680776868e+000	 6.901216405565783e-001	 1.329505471508560e+001
 1.819962302484917e+000	 7.093950458111605e-001	 1.326275952702452e+001
 1.812346534630249e+000	 7.286317947000452e-001	 1.323345959882457e+001
 1.804510261653793e+000	 7.478282572597389e-001	 1.320688975840430e+001
 1.796453444815625e+000	 7.669807861147554e-001	 1.318268610746123e+001
 1.873490487183485e+000	 5.758708985147968e-001	 1.330776250732090e+001
 1.867390087529377e+000	 5.953555027123006e-001	 1.332718906418307e+001
 1.861070805918133e+000	 6.148247077161561e-001	 1.333838577483768e+001
 1.854532084827383e+000	 6.342750149583490e-001	 1.333892286088752e+001
 1.847773437588392e+000	 6.537028974965337e-001	 1.332611623018962e+001
 1.840794449545912e+000	 6.731048017149862e-001	 1.329817708637099e+001
 1.833594779172092e+000	 6.924771490739101e-001	 1.326792951932153e+001
 1.826174159132310e+000	 7.118163379057594e-001	 1.323971764481592e+001
 1.818532397300815e+000	 7.311187452571608e-001	 1.321336096544180e+001
 1.810669377724103e+000	 7.503807287749005e-001	 1.318858746434171e+001
 1.802585061530014e+000	 7.695986286343437e-001	 1.316503333937962e+001
 1.879863264890306e+000	 5.778297540579320e-001	 1.319598443735770e+001
 1.873742114401887e+000	 5.973806361748562e-001	 1.322595644645548e+001
 1.867401337417683e+000	 6.169160667169766e-001	 1.324686378382299e+001
 1.860840374518883e+000	 6.364325352157069e-001	 1.325621419674856e+001
 1.854058737381323e+000	 6.559265027316127e-001	 1.325126316580617e+001
 1.847056009939280e+000	 6.753944035611510e-001	 1.323106557566846e+001
 1.839831849503180e+000	 6.948326469919245e-001	 1.320880855727343e+001
 1.832385987829046e+000	 7.142376191051162e-001	 1.318735574065086e+001
 1.824718232137600e+000	 7.336056846236778e-001	 1.316652980101955e+001
 1.816828466080916e+000	 7.529331888047299e-001	 1.314607281877718e+001
 1.808716650654608e+000	 7.722164593745430e-001	 1.312564628539528e+001
 1.886236002770952e+000	 5.797885973580729e-001	 1.303016356140342e+001
 1.880094101577871e+000	 5.994057569802134e-001	 1.307416646812462e+001
 1.873731829354958e+000	 6.190074126467445e-001	 1.310817297554229e+001
 1.867148624786985e+000	 6.385900419885805e-001	 1.312962671393653e+001
 1.860343997894379e+000	 6.581500940692703e-001	 1.313572483391183e+001
 1.853317531200968e+000	 6.776839910975244e-001	 1.312659545081180e+001
 1.846068880855466e+000	 6.971881301884189e-001	 1.311524517305444e+001
 1.838597777704565e+000	 7.166588851719399e-001	 1.310339259384794e+001
 1.830904028315475e+000	 7.360926084474380e-001	 1.309088024685449e+001
 1.822987515945862e+000	 7.554856328824438e-001	 1.307748517762958e+001
 1.814848201459126e+000	 7.748342737542070e-001	 1.306291926739237e+001
 1.892608689673620e+000	 5.817474249870338e-001	 1.280753944169817e+001
 1.886446037941803e+000	 6.014308615842047e-001	 1.286904692942105e+001
 1.880062270652001e+000	 6.210987418454090e-001	 1.291955863258325e+001
 1.873456824592595e+000	 6.407475315011525e-001	 1.295645257256405e+001
 1.866629208128634e+000	 6.603736676180615e-001	 1.297686979203091e+001
 1.859579002373519e+000	 6.799735603171935e-001	 1.298221768629116e+001
 1.852305862314284e+000	 6.995435945411912e-001	 1.298482399618672e+001
 1.844809517888308e+000	 7.190801318689394e-001	 1.298557606092193e+001
 1.837089775009311e+000	 7.385795123762833e-001	 1.298435291162311e+001
 1.829146516540569e+000	 7.580380565412579e-001	 1.298098735355347e+001
 1.820979703213291e+000	 7.774520671921900e-001	 1.297526665371458e+001
 1.898981314446504e+000	 5.837062335166293e-001	 1.252538799567801e+001
 1.892797912378158e+000	 6.034559464426624e-001	 1.260786201347719e+001
 1.886392650230855e+000	 6.231900506529178e-001	 1.267830205488317e+001
 1.879764962896621e+000	 6.429049999776058e-001	 1.273401919087183e+001
 1.872914357085160e+000	 6.625972194865417e-001	 1.277210070288723e+001
 1.865840412499481e+000	 6.822631072132447e-001	 1.279541577504831e+001
 1.858542782964969e+000	 7.018990359280392e-001	 1.281516040031607e+001
 1.851021197509714e+000	 7.215013549588242e-001	 1.283168257294815e+001
 1.843275461393978e+000	 7.410663920580548e-001	 1.284491441411688e+001
 1.835305457086669e+000	 7.605904553143885e-001	 1.285476521075087e+001
 1.827111145186820e+000	 7.800698351073454e-001	 1.286112251273733e+001
 1.905353865937798e+000	 5.856650195186739e-001	 1.218102082057418e+001
 1.899149713771413e+000	 6.054810080114197e-001	 1.228791160627589e+001
 1.892722957013562e+000	 6.252813354092200e-001	 1.238171988158604e+001
 1.886073028659967e+000	 6.450624436421223e-001	 1.245968857557960e+001
 1.879199433765028e+000	 6.648207457832659e-001	 1.251885367985638e+001
 1.872101750621401e+000	 6.845526277787645e-001	 1.256370516689044e+001
 1.864779631892853e+000	 7.042544502267606e-001	 1.260389997293527e+001
 1.857232805698227e+000	 7.239225502043032e-001	 1.263951664319395e+001
 1.849461076644348e+000	 7.435532431405942e-001	 1.267055693537076e+001
 1.841464326805790e+000	 7.631428247350516e-001	 1.269702726817030e+001
 1.833242516649435e+000	 7.826875729185272e-001	 1.271894027369013e+001
 1.911726332995700e+000	 5.876237795649825e-001	 1.177178453039120e+001
 1.905501431006039e+000	 6.075060427463086e-001	 1.190653062903251e+001
 1.899053179922165e+000	 6.273725924542639e-001	 1.202716342525907e+001
 1.892381010843542e+000	 6.472198587188855e-001	 1.213085666439448e+001
 1.885484427169312e+000	 6.670442426167896e-001	 1.221460026954604e+001
 1.878363005781824e+000	 6.868421180068403e-001	 1.228463271825795e+001
 1.871016398183272e+000	 7.066098333151537e-001	 1.234871799586602e+001
 1.863444331583285e+000	 7.263437133680856e-001	 1.240691038478337e+001
 1.855646609935292e+000	 7.460400612717433e-001	 1.245929777997047e+001
 1.847623114919561e+000	 7.656951603364637e-001	 1.250600431090211e+001
 1.839373806870855e+000	 7.853052760445893e-001	 1.254719239456425e+001
 1.778058536436490e+000	 7.591272336911190e-001	 1.312160365848494e+001
 1.769867216285273e+000	 7.780337073685373e-001	 1.310777519921534e+001
 1.761457832055922e+000	 7.968894499849266e-001	 1.308889402306695e+001
 1.752830579594108e+000	 8.156908142598141e-001	 1.306486226260365e+001
 1.743985733737606e+000	 8.344341437159465e-001	 1.303565613275427e+001
 1.734923648915190e+000	 8.531157747611763e-001	 1.300132451541079e+001
 1.725644759681382e+000	 8.717320388004651e-001	 1.296198670574356e+001
 1.716149581185522e+000	 8.902792643757621e-001	 1.291782928475506e+001
 1.706438709573752e+000	 9.087537793314253e-001	 1.286910208836550e+001
 1.696512822322570e+000	 9.271519130027890e-001	 1.281611324965261e+001
 1.686372678502719e+000	 9.454699984254018e-001	 1.275922329772225e+001
 1.784190171538583e+000	 7.617450840619972e-001	 1.315931386135890e+001
 1.775970603618635e+000	 7.807167567163823e-001	 1.313999945952599e+001
 1.767532219626498e+000	 7.996375233636357e-001	 1.311595166398576e+001
 1.758875216083226e+000	 8.185037241456411e-001	 1.308701778824311e+001
 1.749999868774379e+000	 8.373116899757885e-001	 1.305312305613348e+001
 1.740906533350988e+000	 8.560577446280370e-001	 1.301426933481609e+001
 1.731595645866143e+000	 8.747382068562040e-001	 1.297053300881297e+001
 1.722067723245688e+000	 8.933493925412196e-001	 1.292206195809167e+001
 1.712323363691582e+000	 9.118876168640174e-001	 1.286907160907252e+001
 1.702363247016608e+000	 9.303491965016510e-001	 1.281184003389864e+001
 1.692188134909175e+000	 9.487304518441456e-001	 1.275070208030244e+001
 1.790321811241721e+000	 7.643629363969243e-001	 1.318023066806340e+001
 1.782073995531895e+000	 7.833998080771781e-001	 1.315703983852550e+001
 1.773606611755243e+000	 8.023855988040650e-001	 1.312939969710114e+001
 1.764919857108205e+000	 8.213166361418183e-001	 1.309712372051095e+001
 1.756014008324126e+000	 8.401892383944618e-001	 1.306010546948403e+001
 1.746889422276294e+000	 8.589997167020528e-001	 1.301831742764830e+001
 1.737546536516372e+000	 8.777443771672542e-001	 1.297180896299071e+001
 1.727985869746704e+000	 8.964195230099687e-001	 1.292070337345517e+001
 1.718208022225071e+000	 9.150214567476976e-001	 1.286519398423915e+001
 1.708213676100544e+000	 9.335464823992025e-001	 1.280553927093053e+001
 1.698003595679197e+000	 9.519909077089775e-001	 1.274205698976148e+001
 1.796453444815625e+000	 7.669807861147554e-001	 1.318268610746123e+001
 1.788177381344190e+000	 7.860828567557169e-001	 1.315750244276503e+001
 1.779680997812046e+000	 8.051336714972515e-001	 1.312810442290580e+001
 1.770964492091011e+000	 8.241295453259533e-001	 1.309429253865777e+001
 1.762028141862216e+000	 8.430667839364915e-001	 1.305594789678927e+001
 1.752872305221204e+000	 8.619416858350344e-001	 1.301303112267286e+001
 1.743497421218200e+000	 8.807505444731013e-001	 1.296558036916706e+001
 1.733904010332051e+000	 8.994896504095807e-001	 1.291370839200117e+001
 1.724092674876353e+000	 9.181552934985529e-001	 1.285759865799388e+001
 1.714064099336459e+000	 9.367437651004994e-001	 1.279750045913897e+001
 1.703819050636108e+000	 9.552513603143963e-001	 1.273372301286113e+001
 1.802585061530014e+000	 7.695986286343437e-001	 1.316503333937962e+001
 1.794280750374658e+000	 7.887658980567923e-001	 1.314001080129664e+001
 1.785755367166793e+000	 8.078817366342320e-001	 1.311094604575635e+001
 1.777009110453612e+000	 8.269424467756533e-001	 1.307764729859793e+001
 1.768042258864021e+000	 8.459443215664022e-001	 1.304000230437076e+001
 1.758855171715808e+000	 8.648836468787908e-001	 1.299797725080450e+001
 1.749448289557761e+000	 8.837567035132303e-001	 1.295161478541356e+001
 1.739822134645212e+000	 9.025597693676257e-001	 1.290103108322279e+001
 1.729977311347563e+000	 9.212891216326701e-001	 1.284641193080459e+001
 1.719914506486442e+000	 9.399410390105988e-001	 1.278800779863791e+001
 1.709634489603235e+000	 9.585118039549020e-001	 1.272612788120266e+001
 1.808716650654608e+000	 7.722164593745430e-001	 1.312564628539528e+001
 1.800384091942436e+000	 7.914489272851957e-001	 1.310320556070386e+001
 1.791829709189373e+000	 8.106297894060444e-001	 1.307681842989435e+001
 1.783053701617973e+000	 8.297553355685250e-001	 1.304632144663703e+001
 1.774056348804909e+000	 8.488218462487185e-001	 1.301162796901155e+001
 1.764838011290203e+000	 8.678255946851337e-001	 1.297272706429236e+001
 1.755399131121186e+000	 8.867628490271263e-001	 1.292968149387527e+001
 1.745740232329667e+000	 9.056298745116745e-001	 1.288262473617836e+001
 1.735861921340835e+000	 9.244229356661369e-001	 1.283175701165498e+001
 1.725764887312575e+000	 9.431382985345573e-001	 1.277734028099194e+001
 1.715449902403902e+000	 9.617722329249945e-001	 1.271969219509884e+001
 1.814848201459126e+000	 7.748342737542070e-001	 1.306291926739237e+001
 1.806487395366662e+000	 7.941319397457214e-001	 1.304574418664819e+001
 1.797904013249672e+000	 8.133778250037248e-001	 1.302462886079030e+001
 1.789098255006059e+000	 8.325682067821764e-001	 1.299945863739364e+001
 1.780070401160249e+000	 8.516993529479654e-001	 1.297019134921021e+001
 1.770820813474479e+000	 8.707675241058726e-001	 1.293685615803775e+001
 1.761349935494609e+000	 8.897689757542748e-001	 1.289955146886356e+001
 1.751658293028898e+000	 9.086999604692971e-001	 1.285844187105308e+001
 1.741746494558303e+000	 9.275567301150403e-001	 1.281375406975520e+001
 1.731615231576942e+000	 9.463355380774317e-001	 1.276577177774464e+001
 1.721265278861435e+000	 9.650326415191733e-001	 1.271482954558068e+001
 1.820979703213291e+000	 7.774520671921900e-001	 1.297526665371458e+001
 1.812590649966475e+000	 7.968149307431615e-001	 1.296630067178158e+001
 1.803978268717579e+000	 8.161258386183107e-001	 1.295329781168798e+001
 1.795142760039838e+000	 8.353810554942145e-001	 1.293621255581877e+001
 1.786084405405412e+000	 8.545768366286670e-001	 1.291506595949329e+001
 1.776803567798732e+000	 8.737094299928179e-001	 1.288994439299497e+001
 1.767300692264160e+000	 8.927750784341609e-001	 1.286099734612103e+001
 1.757576306386385e+000	 9.117700218680643e-001	 1.282843425104685e+001
 1.747631020702102e+000	 9.306904994954678e-001	 1.279252028579726e+001
 1.737465529041629e+000	 9.495327520442786e-001	 1.275357112777531e+001
 1.727080608799158e+000	 9.682930240319374e-001	 1.271194663458134e+001
 1.827111145186820e+000	 7.800698351073454e-001	 1.286112251273733e+001
 1.818693845061012e+000	 7.994978955823091e-001	 1.286356524987891e+001
 1.810052464962980e+000	 8.188738254408386e-001	 1.286175871522964e+001
 1.801187206141276e+000	 8.381938767822470e-001	 1.285574674321877e+001
 1.792098351015767e+000	 8.574542922553488e-001	 1.284563224771602e+001
 1.782786263793054e+000	 8.766513071977802e-001	 1.283157582160759e+001
 1.773251391015974e+000	 8.957811518062694e-001	 1.281379339323163e+001
 1.763494262045610e+000	 9.148400533355463e-001	 1.279255289458014e+001
 1.753515489474366e+000	 9.338242383235065e-001	 1.276816990276487e+001
 1.743315769468720e+000	 9.527299348401539e-001	 1.274100222351026e+001
 1.732895882040398e+000	 9.715533747577873e-001	 1.271144339333858e+001
 1.833242516649435e+000	 7.826875729185272e-001	 1.271894027369013e+001
 1.824796969969410e+000	 8.021808295679572e-001	 1.273624411604816e+001
 1.816126591355764e+000	 8.216217806623462e-001	 1.274895774004600e+001
 1.807231582732339e+000	 8.410066657238807e-001	 1.275723442719008e+001
 1.798112227466683e+000	 8.603317147925348e-001	 1.276127747528232e+001
 1.788768890987538e+000	 8.795931505725696e-001	 1.276133861523270e+001
 1.779202021336181e+000	 8.987871906100857e-001	 1.275771548114912e+001
 1.769412149650055e+000	 9.179100494993141e-001	 1.275074808781015e+001
 1.759399890577228e+000	 9.369579411152434e-001	 1.274081427630756e+001
 1.749165942620299e+000	 9.559270808701148e-001	 1.272832409601442e+001
 1.738711088408478e+000	 9.748136879912216e-001	 1.271371309905574e+001
 1.839373806870855e+000	 7.853052760445893e-001	 1.254719239456425e+001
 1.830900014010807e+000	 8.048637280048985e-001	 1.258305915287959e+001
 1.822200637265818e+000	 8.243696994738701e-001	 1.261385357219734e+001
 1.813275879234993e+000	 8.438194173967231e-001	 1.263985835537617e+001
 1.804126024233530e+000	 8.632090992047500e-001	 1.266139560021756e+001
 1.794751438912278e+000	 8.825349549689966e-001	 1.267882499350790e+001
 1.785152572810915e+000	 9.017931895850956e-001	 1.269254105681806e+001
 1.775329958843201e+000	 9.209800049869374e-001	 1.270296939744991e+001
 1.765284213712824e+000	 9.400916023867665e-001	 1.271056192468832e+001
 1.755016038258451e+000	 9.591241845392181e-001	 1.271579099898804e+001
 1.744526217726725e+000	 9.780739580267407e-001	 1.271914248986021e+001
 1.686372678502719e+000	 9.454699984254018e-001	 1.275922329772225e+001
 1.676017550046008e+000	 9.637071037044297e-001	 1.269931005201896e+001
 1.665449866397395e+000	 9.818568211318917e-001	 1.263732893699666e+001
 1.654670634104525e+000	 9.999155077266720e-001	 1.257377482333734e+001
 1.643680941682342e+000	 1.017879533245523e+000	 1.250914796297513e+001
 1.632481959511823e+000	 1.035745282457134e+000	 1.244393777424684e+001
 1.621074939663807e+000	 1.053509157420699e+000	 1.237861962715759e+001
 1.609461215647480e+000	 1.071167579766116e+000	 1.231363661818295e+001
 1.597642202083156e+000	 1.088716992972960e+000	 1.224938787080637e+001
 1.585619394299172e+000	 1.106153864645299e+000	 1.218621464887498e+001
 1.573394367852796e+000	 1.123474688779447e+000	 1.212438584502679e+001
 1.692188134909175e+000	 9.487304518441456e-001	 1.275070208030244e+001
 1.681797296790355e+000	 9.670304477830335e-001	 1.268646182196780e+001
 1.671193170483049e+000	 9.852427545133563e-001	 1.262002632862514e+001
 1.660376766005977e+000	 1.003363716491180e+000	 1.255190632839354e+001
 1.649349175627830e+000	 1.021389690954367e+000	 1.248262052756408e+001
 1.638111573765636e+000	 1.039317050204487e+000	 1.241267942363747e+001
 1.626665216808004e+000	 1.057142183893234e+000	 1.234258157257191e+001
 1.615011442862724e+000	 1.074861501310506e+000	 1.227279534424178e+001
 1.603151671428428e+000	 1.092471433671216e+000	 1.220374691189035e+001
 1.591087402990088e+000	 1.109968436397971e+000	 1.213580608290460e+001
 1.578820218538282e+000	 1.127348991396634e+000	 1.206927148043380e+001
 1.698003595679197e+000	 9.519909077089775e-001	 1.274205698976148e+001
 1.687577047871365e+000	 9.703537943549184e-001	 1.267547849933309e+001
 1.676936478877901e+000	 9.886286904350722e-001	 1.260665600132030e+001
 1.666082902188611e+000	 1.006811927842678e+000	 1.253611185673153e+001
 1.655017413825931e+000	 1.024899851296698e+000	 1.246437773319206e+001
 1.643741192242959e+000	 1.042888820631569e+000	 1.239197844676652e+001
 1.632255498146073e+000	 1.060775213091481e+000	 1.231942771766026e+001
 1.620561674241674e+000	 1.078555425626313e+000	 1.224720991137547e+001
 1.608661144906720e+000	 1.096225877186315e+000	 1.217576772553515e+001
 1.596555415782833e+000	 1.113783011012618e+000	 1.210548774818779e+001
 1.584246073293903e+000	 1.131223296920624e+000	 1.203668534464875e+001
 1.703819050636108e+000	 9.552513603143963e-001	 1.273372301286113e+001
 1.693356793174896e+000	 9.736771376045056e-001	 1.266692859433048e+001
 1.682679781531623e+000	 9.920146229719017e-001	 1.259791065583333e+001
 1.671789032667180e+000	 1.010260135747011e+000	 1.252719905673727e+001
 1.660685646357755e+000	 1.028410008129908e+000	 1.245533303333778e+001
 1.649370805092509e+000	 1.046460587487910e+000	 1.238284506985449e+001
 1.637845773895593e+000	 1.064408238657718e+000	 1.231025614979171e+001
 1.626111900072022e+000	 1.082249346249206e+000	 1.223805748724789e+001
 1.614170612877078e+000	 1.099980316947971e+000	 1.216669791962687e+001
 1.602023423109025e+000	 1.117597581813683e+000	 1.209656920348554e+001
 1.589671922625073e+000	 1.135097598571297e+000	 1.202799061850948e+001
 1.709634489603235e+000	 9.585118039549020e-001	 1.272612788120266e+001
 1.699136522586807e+000	 9.770004717162161e-001	 1.266137156731523e+001
 1.688423068393885e+000	 9.954005461987061e-001	 1.259447227452145e+001
 1.677495147456441e+000	 1.013708334170022e+000	 1.252596459422277e+001
 1.666353863304406e+000	 1.031920155311388e+000	 1.245638619869783e+001
 1.655000402463004e+000	 1.050032344523041e+000	 1.238627453729146e+001
 1.643436034274148e+000	 1.068041254234226e+000	 1.231614879521360e+001
 1.631662110641460e+000	 1.085943256714852e+000	 1.224649801696716e+001
 1.619680065698537e+000	 1.103734746385898e+000	 1.217776693390296e+001
 1.607491415400281e+000	 1.121412142125609e+000	 1.211034100752691e+001
 1.595097757037207e+000	 1.138971889568530e+000	 1.204453076240359e+001
 1.715449902403902e+000	 9.617722329249945e-001	 1.271969219509884e+001
 1.704916225992957e+000	 9.803237908744716e-001	 1.265935798399302e+001
 1.694166329414357e+000	 9.987864541903470e-001	 1.259701230569881e+001
 1.683201236571147e+000	 1.017156517077555e+000	 1.253318919339080e+001
 1.672022054746992e+000	 1.035430286698532e+000	 1.246842355330668e+001
 1.660629974503159e+000	 1.053604085486492e+000	 1.240324737043324e+001
 1.649026269499319e+000	 1.071674253463287e+000	 1.233817169842040e+001
 1.637212296237679e+000	 1.089637150558919e+000	 1.227367452095331e+001
 1.625189493730138e+000	 1.107489158929809e+000	 1.221018635427641e+001
 1.612959383088218e+000	 1.125226685272839e+000	 1.214807504778108e+001
 1.600523567035720e+000	 1.142846163132202e+000	 1.208762985751511e+001
 1.721265278861435e+000	 9.650326415191733e-001	 1.271482954558068e+001
 1.710695893279204e+000	 9.836470892636930e-001	 1.266142966815410e+001
 1.699909554542710e+000	 1.002172341021685e+000	 1.260619184494203e+001
 1.688907290026054e+000	 1.020604678435454e+000	 1.254964567870741e+001
 1.677690210766617e+000	 1.038940396148730e+000	 1.249231820660086e+001
 1.666259511361695e+000	 1.057175804127793e+000	 1.243472962189882e+001
 1.654616469788687e+000	 1.075307229987180e+000	 1.237737529662234e+001
 1.642762447148372e+000	 1.093331021317075e+000	 1.232071338754435e+001
 1.630698887330922e+000	 1.111243548009421e+000	 1.226515022157615e+001
 1.618427316604453e+000	 1.129041204579818e+000	 1.221102486336253e+001
 1.605949343126026e+000	 1.146720412482190e+000	 1.215859294095961e+001
 1.727080608799158e+000	 9.682930240319374e-001	 1.271194663458134e+001
 1.716475514331406e+000	 9.869703610683014e-001	 1.266811985198707e+001
 1.705652733728614e+000	 1.005558200767583e+000	 1.262266181341995e+001
 1.694613297835917e+000	 1.024052812209563e+000	 1.257609390359088e+001
 1.683358321444389e+000	 1.042450477519377e+000	 1.252893028152001e+001
 1.671889003187328e+000	 1.060747494196473e+000	 1.248167312547231e+001
 1.660206625359837e+000	 1.078940177448188e+000	 1.243479468942542e+001
 1.648312553661232e+000	 1.097024862524986e+000	 1.238872466046047e+001
 1.636208236859930e+000	 1.114997907054446e+000	 1.234383533483160e+001
 1.623895206380604e+000	 1.132855693370989e+000	 1.230042596220381e+001
 1.611375075813539e+000	 1.150594630838373e+000	 1.225870633494782e+001
 1.732895882040398e+000	 9.715533747577873e-001	 1.271144339333858e+001
 1.722255079035424e+000	 9.902936004727183e-001	 1.267995332402750e+001
 1.711395856921740e+000	 1.008944027502901e+000	 1.264706313331533e+001
 1.700319250015491e+000	 1.027500912365726e+000	 1.261328228341290e+001
 1.689026376861413e+000	 1.045960524667863e+000	 1.257910713873514e+001
 1.677518440128775e+000	 1.064319149442063e+000	 1.254501574170912e+001
 1.665796726430350e+000	 1.082573089488590e+000	 1.251144990383262e+001
 1.653862606063951e+000	 1.100718667718323e+000	 1.247880232124392e+001
 1.641717532676200e+000	 1.118752229494599e+000	 1.244740154922527e+001
 1.629363042848288e+000	 1.136670144970794e+000	 1.241749613262654e+001
 1.616800755603675e+000	 1.154468811420628e+000	 1.238923797011415e+001
 1.738711088408478e+000	 9.748136879912216e-001	 1.271371309905574e+001
 1.728034577277114e+000	 9.936168016613646e-001	 1.269744657479460e+001
 1.717138914071758e+000	 1.012329815302501e+000	 1.268002807775027e+001
 1.706025136579531e+000	 1.030948972869786e+000	 1.266194799300667e+001
 1.694694367098797e+000	 1.049470531451580e+000	 1.264368359709190e+001
 1.683147812334755e+000	 1.067890763614093e+000	 1.262568159934417e+001
 1.671386763217806e+000	 1.086205959750667e+000	 1.260834615467163e+001
 1.659412594644220e+000	 1.104412430432750e+000	 1.259202456678872e+001
 1.647226765138773e+000	 1.122506508759595e+000	 1.257699206883502e+001
 1.634830816439122e+000	 1.140484552703678e+000	 1.256343574943813e+001
 1.622226373001848e+000	 1.158342947448835e+000	 1.255143770314285e+001
 1.744526217726725e+000	 9.780739580267407e-001	 1.271914248986021e+001
 1.733813998942337e+000	 9.969399588186622e-001	 1.272110794016773e+001
 1.722881895128340e+000	 1.015715558241244e+000	 1.272217567981272e+001
 1.711730947542792e+000	 1.034396987687588e+000	 1.272281716091671e+001
 1.700362282237645e+000	 1.052980491727922e+000	 1.272348215035406e+001
 1.688777109953985e+000	 1.071462330462093e+000	 1.272458133259680e+001
 1.676976725939789e+000	 1.089838781876700e+000	 1.272647410055343e+001
 1.664962509689733e+000	 1.108106144203938e+000	 1.272945408207117e+001
 1.652735924606690e+000	 1.126260738279147e+000	 1.273373373428376e+001
 1.640298517584723e+000	 1.144298909894085e+000	 1.273942807467820e+001
 1.627651918513473e+000	 1.162217032142869e+000	 1.274653762882074e+001
 1.573394367852796e+000	 1.123474688779447e+000	 1.212438584502679e+001
 1.560968777531320e+000	 1.140675987641491e+000	 1.206249727005230e+001
 1.548344355402024e+000	 1.157754312848225e+000	 1.199935427197945e+001
 1.535522911460947e+000	 1.174706248697026e+000	 1.193543244771747e+001
 1.522506333301989e+000	 1.191528414752497e+000	 1.187113491788248e+001
 1.509296585264699e+000	 1.208217468037181e+000	 1.180677541641937e+001
 1.495895707508254e+000	 1.224770105197696e+000	 1.174256122900927e+001
 1.482305815012449e+000	 1.241183064643427e+000	 1.167857610301235e+001
 1.468529096506648e+000	 1.257453128654897e+000	 1.161476325697430e+001
 1.454567813327771e+000	 1.273577125459001e+000	 1.155090862215795e+001
 1.440424298208528e+000	 1.289551931268331e+000	 1.148662445208883e+001
 1.578820218538282e+000	 1.127348991396634e+000	 1.206927148043380e+001
 1.566351778566836e+000	 1.144609608940324e+000	 1.200297969225078e+001
 1.553683821116071e+000	 1.161746828754073e+000	 1.193593253848546e+001
 1.540818162423808e+000	 1.178757223356185e+000	 1.186857171538966e+001
 1.527756696593324e+000	 1.195637400653814e+000	 1.180126907897812e+001
 1.514501394738202e+000	 1.212384006141222e+000	 1.173430946017291e+001
 1.501054304053116e+000	 1.228993725073395e+000	 1.166787331018392e+001
 1.487417546811380e+000	 1.245463284612102e+000	 1.160201930101805e+001
 1.473593319290200e+000	 1.261789455941541e+000	 1.153666701146383e+001
 1.459583890624727e+000	 1.277969056350728e+000	 1.147157983349260e+001
 1.445391601592109e+000	 1.293998951279851e+000	 1.140634823768888e+001
 1.584246073293903e+000	 1.131223296920624e+000	 1.203668534464875e+001
 1.571734783640297e+000	 1.148543233190479e+000	 1.196843121108591e+001
 1.559023290835383e+000	 1.165739347655439e+000	 1.189991890559652e+001
 1.546113417358764e+000	 1.182808201054727e+000	 1.183154280603568e+001
 1.533007063823095e+000	 1.199746389638040e+000	 1.176362686025743e+001
 1.519706208115996e+000	 1.216550547371352e+000	 1.169640713270835e+001
 1.506212904467642e+000	 1.233217348118006e+000	 1.163001416828637e+001
 1.492529282444869e+000	 1.249743507792146e+000	 1.156445530053410e+001
 1.478657545872725e+000	 1.266125786481637e+000	 1.149959703685453e+001
 1.464599971684596e+000	 1.282360990537607e+000	 1.143514765818024e+001
 1.450358908702072e+000	 1.298445974627835e+000	 1.137064017433155e+001
 1.589671922625073e+000	 1.135097598571297e+000	 1.202799061850948e+001
 1.577117783332126e+000	 1.152476853507997e+000	 1.196025317444170e+001
 1.564362755216589e+000	 1.169731862565275e+000	 1.189273027202496e+001
 1.551408666999837e+000	 1.186859174703291e+000	 1.182575568584340e+001
 1.538257425803892e+000	 1.203855374514287e+000	 1.175958896810986e+001
 1.524911016290401e+000	 1.220717084435966e+000	 1.169439773251844e+001
 1.511371499725030e+000	 1.237440966940041e+000	 1.163023974793043e+001
 1.497641012968119e+000	 1.254023726693041e+000	 1.156704497117566e+001
 1.483721767392554e+000	 1.270462112686509e+000	 1.150459765402039e+001
 1.469616047729940e+000	 1.286752920333694e+000	 1.144251866423422e+001
 1.455326210846296e+000	 1.302892993529981e+000	 1.138024816461325e+001
 1.595097757037207e+000	 1.138971889568530e+000	 1.204453076240359e+001
 1.582500768222747e+000	 1.156410463008918e+000	 1.197982669773302e+001
 1.569702204916320e+000	 1.173724366496536e+000	 1.191576309784859e+001
 1.556703902081051e+000	 1.190910137212508e+000	 1.185259998026525e+001
 1.543507773348307e+000	 1.207964348091664e+000	 1.179051616804432e+001
 1.530115810153738e+000	 1.224883610043461e+000	 1.172959131659737e+001
 1.516530080798473e+000	 1.241664574148013e+000	 1.166978774839354e+001
 1.502752729436335e+000	 1.258303933824269e+000	 1.161093222709949e+001
 1.488785974988019e+000	 1.274798426967479e+000	 1.155269780859041e+001
 1.474632109983321e+000	 1.291144838053048e+000	 1.149458591127733e+001
 1.460293499332663e+000	 1.307340000203990e+000	 1.143590875222878e+001
 1.600523567035720e+000	 1.142846163132202e+000	 1.208762985751511e+001
 1.587883728892580e+000	 1.160344054809284e+000	 1.202851301400778e+001
 1.575041630591203e+000	 1.177716852462174e+000	 1.197039375819601e+001
 1.561999113336428e+000	 1.194961081493018e+000	 1.191344532604319e+001
 1.548758097268932e+000	 1.212073303179280e+000	 1.185774962984429e+001
 1.535320580598326e+000	 1.229050116902231e+000	 1.180327903355662e+001
 1.521688638661166e+000	 1.245888162350435e+000	 1.174987793956844e+001
 1.507864422904721e+000	 1.262584121695313e+000	 1.169724432071661e+001
 1.493850159797450e+000	 1.279134721735873e+000	 1.164491133740256e+001
 1.479648149667302e+000	 1.295536736009724e+000	 1.159222918477749e+001
 1.465260765469056e+000	 1.311786986867562e+000	 1.153834731909596e+001
 1.605949343126026e+000	 1.146720412482190e+000	 1.215859294095961e+001
 1.593266655922049e+000	 1.164277622025134e+000	 1.210765381776404e+001
 1.580381022897869e+000	 1.181709313475142e+000	 1.205797889057639e+001
 1.567294291499992e+000	 1.199012000455454e+000	 1.200964171691065e+001
 1.554008388378355e+000	 1.216182232586246e+000	 1.196261126653499e+001
 1.540525318516483e+000	 1.233216597720671e+000	 1.191673345078905e+001
 1.526847164286307e+000	 1.250111724155819e+000	 1.187171247230030e+001
 1.512976084428482e+000	 1.266864282815654e+000	 1.182709213122714e+001
 1.498914312959179e+000	 1.283470989403013e+000	 1.178223723031511e+001
 1.484664158004444e+000	 1.299928606517779e+000	 1.173631522627391e+001
 1.470228000563354e+000	 1.316233945738397e+000	 1.168827827919760e+001
 1.611375075813539e+000	 1.150594630838373e+000	 1.225870633494782e+001
 1.598649539891577e+000	 1.168211157772510e+000	 1.221857160262575e+001
 1.585720372492949e+000	 1.185701742548394e+000	 1.217985573599956e+001
 1.572589427305767e+000	 1.203062887010452e+000	 1.214251984311668e+001
 1.559258637489170e+000	 1.220291129121669e+000	 1.210640406730455e+001
 1.545730014800531e+000	 1.237383045207176e+000	 1.207120887581838e+001
 1.532005648647089e+000	 1.254335252172679e+000	 1.203647618323803e+001
 1.518087705062822e+000	 1.271144409694776e+000	 1.200157044809581e+001
 1.503978425611540e+000	 1.287807222380225e+000	 1.196565988748150e+001
 1.489680126217312e+000	 1.304320441891270e+000	 1.192769795968427e+001
 1.475195195923441e+000	 1.320680869034195e+000	 1.188640526921743e+001
 1.616800755603675e+000	 1.154468811420628e+000	 1.238923797011415e+001
 1.604032371381585e+000	 1.172144655167453e+000	 1.236256999301769e+001
 1.591059670033068e+000	 1.189694132694881e+000	 1.233734247402794e+001
 1.577884511487775e+000	 1.207113734068648e+000	 1.231339142491329e+001
 1.564508835413967e+000	 1.224399985594661e+000	 1.229041242451750e+001
 1.550934660342789e+000	 1.241549452070141e+000	 1.226794167196627e+001
 1.537164082716710e+000	 1.258558739009527e+000	 1.224533689432557e+001
 1.523199275862945e+000	 1.275424494842162e+000	 1.222175824958431e+001
 1.509042488892863e+000	 1.292143413078832e+000	 1.219614937219305e+001
 1.494696045528467e+000	 1.308712234444254e+000	 1.216721871378359e+001
 1.480162342857196e+000	 1.325127748972656e+000	 1.213342133604257e+001
 1.622226373001848e+000	 1.158342947448835e+000	 1.255143770314285e+001
 1.609415140972496e+000	 1.176078107326003e+000	 1.254093406997566e+001
 1.596398906174859e+000	 1.193686476927557e+000	 1.253173855189854e+001
 1.583179534780040e+000	 1.211164534540678e+000	 1.252354954014343e+001
 1.569758972965336e+000	 1.228508794814330e+000	 1.251590245495464e+001
 1.556139246035576e+000	 1.245715811017961e+000	 1.250815056846685e+001
 1.542322457468363e+000	 1.262782177274876e+000	 1.249944570705468e+001
 1.528310787884055e+000	 1.279704530767292e+000	 1.248871897645276e+001
 1.514106493941479e+000	 1.296479553910158e+000	 1.247466165938985e+001
 1.499711907160471e+000	 1.313103976490788e+000	 1.245570644094153e+001
 1.485129432672502e+000	 1.329574577771481e+000	 1.243000912120434e+001
 1.627651918513473e+000	 1.162217032142869e+000	 1.274653762882074e+001
 1.614797839244732e+000	 1.180011507364201e+000	 1.275493069122535e+001
 1.601738071574950e+000	 1.197678768259376e+000	 1.276432500784945e+001
 1.588474487916584e+000	 1.215215281337177e+000	 1.277426894606344e+001
 1.575009040955869e+000	 1.232617549589786e+000	 1.278412231541057e+001
 1.561343762771212e+000	 1.249882114759033e+000	 1.279303696515444e+001
 1.547480763875244e+000	 1.267005559577238e+000	 1.279993729159854e+001
 1.533422232181358e+000	 1.283984509979651e+000	 1.280350080093989e+001
 1.519170431895721e+000	 1.300815637285527e+000	 1.280213887993875e+001
 1.504727702335888e+000	 1.317495660344928e+000	 1.279397793220344e+001
 1.490096456677240e+000	 1.334021347648369e+000	 1.277684791278602e+001
 1.440424298208528e+000	 1.289551931268331e+000	 1.148662445208883e+001
 1.426103115966008e+000	 1.305372110792263e+000	 1.142406770613287e+001
 1.411604630339610e+000	 1.321037051924598e+000	 1.136322933002378e+001
 1.396931380388861e+000	 1.336543789252277e+000	 1.130037111477003e+001
 1.382085970986084e+000	 1.351889413086072e+000	 1.124023249719609e+001
 1.367071071277777e+000	 1.367071071277777e+000	 1.118491109157737e+001
 1.351889413086072e+000	 1.382085970986084e+000	 1.113285661127833e+001
 1.336543789252277e+000	 1.396931380388861e+000	 1.108248204700669e+001
 1.321037051924597e+000	 1.411604630339610e+000	 1.103276357392232e+001
 1.305372110792263e+000	 1.426103115966009e+000	 1.098298299888175e+001
 1.289551931268331e+000	 1.440424298208528e+000	 1.093108085245348e+001
 1.445391601592109e+000	 1.293998951279851e+000	 1.140634823768888e+001
 1.431021032751211e+000	 1.309873686694677e+000	 1.134265657103827e+001
 1.416472549095766e+000	 1.325592648378173e+000	 1.128011480117406e+001
 1.401748698441228e+000	 1.341152860691077e+000	 1.121639680203495e+001
 1.386852094642795e+000	 1.356551403910124e+000	 1.115763246816413e+001
 1.371785416051495e+000	 1.371785416051494e+000	 1.110385580886766e+001
 1.356551403910124e+000	 1.386852094642795e+000	 1.105368616955837e+001
 1.341152860691077e+000	 1.401748698441228e+000	 1.100571049862035e+001
 1.325592648378172e+000	 1.416472549095766e+000	 1.095872324215111e+001
 1.309873686694677e+000	 1.431021032751211e+000	 1.091247171233727e+001
 1.293998951279852e+000	 1.445391601592110e+000	 1.086526799729582e+001
 1.450358908702072e+000	 1.298445974627835e+000	 1.137064017433155e+001
 1.435938953225800e+000	 1.314375265974459e+000	 1.130726019318170e+001
 1.421340471503854e+000	 1.330148248249615e+000	 1.124423138575763e+001
 1.406566020107614e+000	 1.345761935587832e+000	 1.118160048160317e+001
 1.391618221875167e+000	 1.361213398231795e+000	 1.112483536196050e+001
 1.376499764362070e+000	 1.376499764362070e+000	 1.107297171332432e+001
 1.361213398231795e+000	 1.391618221875167e+000	 1.102479120769538e+001
 1.345761935587833e+000	 1.406566020107614e+000	 1.097904749922038e+001
 1.330148248249616e+000	 1.421340471503854e+000	 1.093450886477805e+001
 1.314375265974459e+000	 1.435938953225800e+000	 1.089102256088562e+001
 1.298445974627835e+000	 1.450358908702072e+000	 1.084745958373310e+001
 1.455326210846296e+000	 1.302892993529981e+000	 1.138024816461325e+001
 1.440856868784037e+000	 1.318876840753897e+000	 1.131845758214375e+001
 1.426208389045570e+000	 1.334703843566746e+000	 1.125603216101833e+001
 1.411383336958204e+000	 1.350371005876853e+000	 1.119612578225446e+001
 1.396384344342898e+000	 1.365875387892865e+000	 1.114181497682481e+001
 1.381214107959740e+000	 1.381214107959740e+000	 1.109206273633285e+001
 1.365875387892865e+000	 1.396384344342898e+000	 1.104580573977104e+001
 1.350371005876853e+000	 1.411383336958204e+000	 1.100195708158168e+001
 1.334703843566746e+000	 1.426208389045570e+000	 1.095940901908747e+001
 1.318876840753896e+000	 1.440856868784036e+000	 1.091776682599414e+001
 1.302892993529981e+000	 1.455326210846295e+000	 1.087662155873346e+001
 1.460293499332663e+000	 1.307340000203990e+000	 1.143590875222878e+001
 1.445774770820179e+000	 1.323378403155276e+000	 1.137681867534587e+001
 1.431076293202615e+000	 1.339259426357381e+000	 1.131653665593695e+001
 1.416200640563178e+000	 1.354980063492449e+000	 1.126011474731927e+001
 1.401150453705688e+000	 1.370537364735112e+000	 1.120854583138560e+001
 1.385928438594741e+000	 1.385928438594741e+000	 1.116093583223986e+001
 1.370537364735112e+000	 1.401150453705688e+000	 1.111636910227445e+001
 1.354980063492449e+000	 1.416200640563178e+000	 1.107391089734086e+001
 1.339259426357381e+000	 1.431076293202615e+000	 1.103260986255275e+001
 1.323378403155276e+000	 1.445774770820179e+000	 1.099184519792312e+001
 1.307340000203990e+000	 1.460293499332663e+000	 1.095173155740315e+001
 1.465260765469056e+000	 1.311786986867562e+000	 1.153834731909596e+001
 1.450692650728490e+000	 1.327879945300884e+000	 1.148290449563321e+001
 1.435944175456685e+000	 1.343814988649339e+000	 1.142627362005143e+001
 1.421017922492720e+000	 1.359589100368930e+000	 1.137370788293925e+001
 1.405916541623238e+000	 1.375199320600313e+000	 1.132500317386728e+001
 1.390642748017308e+000	 1.390642748017308e+000	 1.127940094851288e+001
 1.375199320600312e+000	 1.405916541623238e+000	 1.123612588521735e+001
 1.359589100368930e+000	 1.421017922492720e+000	 1.119438810906518e+001
 1.343814988649339e+000	 1.435944175456685e+000	 1.115338541784458e+001
 1.327879945300884e+000	 1.450692650728490e+000	 1.111240767391961e+001
 1.311786986867562e+000	 1.465260765469056e+000	 1.107177876065203e+001
 1.470228000563354e+000	 1.316233945738397e+000	 1.168827827919760e+001
 1.455610499903227e+000	 1.332381459313008e+000	 1.163726730635155e+001
 1.440812027289479e+000	 1.348370522470437e+000	 1.158554506710596e+001
 1.425835174317011e+000	 1.364198108440607e+000	 1.153704420527251e+001
 1.410682599755248e+000	 1.379861247330245e+000	 1.149116299101547e+001
 1.395357027977678e+000	 1.395357027977678e+000	 1.144727099639218e+001
 1.379861247330246e+000	 1.410682599755248e+000	 1.140472586451512e+001
 1.364198108440607e+000	 1.425835174317012e+000	 1.136287528436149e+001
 1.348370522470437e+000	 1.440812027289478e+000	 1.132105895869841e+001
 1.332381459313007e+000	 1.455610499903227e+000	 1.127861346009102e+001
 1.316233945738397e+000	 1.470228000563354e+000	 1.123576375731372e+001
 1.475195195923441e+000	 1.320680869034195e+000	 1.188640526921743e+001
 1.460528309738652e+000	 1.336882937313932e+000	 1.184066725743548e+001
 1.445679840182694e+000	 1.352926019848496e+000	 1.179464937267058e+001
 1.430652387606235e+000	 1.368807079641790e+000	 1.175026128666649e+001
 1.415448619761416e+000	 1.384523136766689e+000	 1.170700201674662e+001
 1.400071270226088e+000	 1.400071270226088e+000	 1.166436182202324e+001
 1.384523136766689e+000	 1.415448619761416e+000	 1.162182393560454e+001
 1.368807079641790e+000	 1.430652387606236e+000	 1.157886629197802e+001
 1.352926019848495e+000	 1.445679840182694e+000	 1.153496323873039e+001
 1.336882937313932e+000	 1.460528309738653e+000	 1.148958722186378e+001
 1.320680869034195e+000	 1.475195195923441e+000	 1.144269841061508e+001
 1.480162342857196e+000	 1.325127748972656e+000	 1.213342133604257e+001
 1.465446071629025e+000	 1.341384371425945e+000	 1.209404883973738e+001
 1.450547605618029e+000	 1.357481472811331e+000	 1.205388135610090e+001
 1.435469553930574e+000	 1.373416005906789e+000	 1.201349530082293e+001
 1.420214593301443e+000	 1.389184980751421e+000	 1.197249774052797e+001
 1.404785466512774e+000	 1.404785466512774e+000	 1.193049217805851e+001
 1.389184980751421e+000	 1.420214593301443e+000	 1.188708004826953e+001
 1.373416005906789e+000	 1.435469553930574e+000	 1.184186219985323e+001
 1.357481472811331e+000	 1.450547605618029e+000	 1.179444035270449e+001
 1.341384371425946e+000	 1.465446071629025e+000	 1.174441852045996e+001
 1.325127748972656e+000	 1.480162342857196e+000	 1.169160572889185e+001
 1.485129432672502e+000	 1.329574577771481e+000	 1.243000912120434e+001
 1.470363776968606e+000	 1.345885753771334e+000	 1.239787469189966e+001
 1.455415315077183e+000	 1.362036873386762e+000	 1.236353236078986e+001
 1.440286664860211e+000	 1.378024879169914e+000	 1.232688106697700e+001
 1.424980512035029e+000	 1.393846771126218e+000	 1.228762841549445e+001
 1.409499608587972e+000	 1.409499608587972e+000	 1.224548369571750e+001
 1.393846771126218e+000	 1.424980512035029e+000	 1.220015914264756e+001
 1.378024879169914e+000	 1.440286664860211e+000	 1.215137117506694e+001
 1.362036873386762e+000	 1.455415315077183e+000	 1.209884160042396e+001
 1.345885753771334e+000	 1.470363776968606e+000	 1.204229877644977e+001
 1.329574577771481e+000	 1.485129432672502e+000	 1.198151974045001e+001
 1.490096456677240e+000	 1.334021347648369e+000	 1.277684791278602e+001
 1.475281417151654e+000	 1.350387076472384e+000	 1.275258716690939e+001
 1.460282960041853e+000	 1.366592213602607e+000	 1.272389033275071e+001
 1.445103711965328e+000	 1.382633691365476e+000	 1.269055209311343e+001
 1.429746367621873e+000	 1.398508499732860e+000	 1.265237306630746e+001
 1.414213688201919e+000	 1.414213688201919e+000	 1.260916085729492e+001
 1.398508499732861e+000	 1.429746367621873e+000	 1.256073108638900e+001
 1.382633691365476e+000	 1.445103711965328e+000	 1.250690838565038e+001
 1.366592213602607e+000	 1.460282960041853e+000	 1.244752735318738e+001
 1.350387076472384e+000	 1.475281417151654e+000	 1.238243345572727e+001
 1.334021347648369e+000	 1.490096456677241e+000	 1.231148387008580e+001
 1.289551931268331e+000	 1.440424298208528e+000	 1.093108085245348e+001
 1.273577125459001e+000	 1.454567813327771e+000	 1.087807861604710e+001
 1.257453128654896e+000	 1.468529096506647e+000	 1.082502639666602e+001
 1.241183064643427e+000	 1.482305815012449e+000	 1.077018858151799e+001
 1.224770105197696e+000	 1.495895707508254e+000	 1.071199774228980e+001
 1.208217468037181e+000	 1.509296585264699e+000	 1.064903889681570e+001
 1.191528414752497e+000	 1.522506333301989e+000	 1.058003285642411e+001
 1.174706248697026e+000	 1.535522911460947e+000	 1.050381886567757e+001
 1.157754312848225e+000	 1.548344355402024e+000	 1.041933674348357e+001
 1.140675987641491e+000	 1.560968777531320e+000	 1.032560873487660e+001
 1.123474688779447e+000	 1.573394367852797e+000	 1.022172128118216e+001
 1.293998951279852e+000	 1.445391601592110e+000	 1.086526799729582e+001
 1.277969056350728e+000	 1.459583890624728e+000	 1.081791836254991e+001
 1.261789455941542e+000	 1.473593319290200e+000	 1.077102831730098e+001
 1.245463284612102e+000	 1.487417546811380e+000	 1.072265907260824e+001
 1.228993725073395e+000	 1.501054304053116e+000	 1.067103270004141e+001
 1.212384006141222e+000	 1.514501394738202e+000	 1.061451632080722e+001
 1.195637400653813e+000	 1.527756696593324e+000	 1.055160538043380e+001
 1.178757223356185e+000	 1.540818162423809e+000	 1.048090621995220e+001
 1.161746828754073e+000	 1.553683821116071e+000	 1.040111815678038e+001
 1.144609608940324e+000	 1.566351778566835e+000	 1.031101528879926e+001
 1.127348991396634e+000	 1.578820218538282e+000	 1.020942823343986e+001
 1.298445974627835e+000	 1.450358908702072e+000	 1.084745958373310e+001
 1.282360990537607e+000	 1.464599971684597e+000	 1.080437026713345e+001
 1.266125786481637e+000	 1.478657545872725e+000	 1.076193528812512e+001
 1.249743507792146e+000	 1.492529282444869e+000	 1.071809905038198e+001
 1.233217348118006e+000	 1.506212904467643e+000	 1.067096464935739e+001
 1.216550547371352e+000	 1.519706208115996e+000	 1.061877778907621e+001
 1.199746389638040e+000	 1.533007063823095e+000	 1.055990977589540e+001
 1.182808201054727e+000	 1.546113417358764e+000	 1.049283980495625e+001
 1.165739347655438e+000	 1.559023290835383e+000	 1.041613675733701e+001
 1.148543233190479e+000	 1.571734783640297e+000	 1.032844072617817e+001
 1.131223296920624e+000	 1.584246073293903e+000	 1.022844448831328e+001
 1.302892993529981e+000	 1.455326210846295e+000	 1.087662155873346e+001
 1.286752920333694e+000	 1.469616047729940e+000	 1.083625390636655e+001
 1.270462112686508e+000	 1.483721767392554e+000	 1.079645806786594e+001
 1.254023726693041e+000	 1.497641012968118e+000	 1.075514706366737e+001
 1.237440966940040e+000	 1.511371499725030e+000	 1.071039555975751e+001
 1.220717084435967e+000	 1.524911016290401e+000	 1.066042331320378e+001
 1.203855374514287e+000	 1.538257425803892e+000	 1.060357767763035e+001
 1.186859174703290e+000	 1.551408666999836e+000	 1.053831538970564e+001
 1.169731862565275e+000	 1.564362755216590e+000	 1.046318386003056e+001
 1.152476853507997e+000	 1.577117783332126e+000	 1.037680219207235e+001
 1.135097598571297e+000	 1.589671922625073e+000	 1.027784215099726e+001
 1.307340000203990e+000	 1.460293499332663e+000	 1.095173155740315e+001
 1.291144838053048e+000	 1.474632109983321e+000	 1.091240255595494e+001
 1.274798426967479e+000	 1.488785974988019e+000	 1.087332260539537e+001
 1.258303933824268e+000	 1.502752729436335e+000	 1.083245783683562e+001
 1.241664574148013e+000	 1.516530080798473e+000	 1.078794407101350e+001
 1.224883610043462e+000	 1.530115810153738e+000	 1.073806959447884e+001
 1.207964348091664e+000	 1.543507773348307e+000	 1.068125697030415e+001
 1.190910137212508e+000	 1.556703902081050e+000	 1.061604411028705e+001
 1.173724366496536e+000	 1.569702204916320e+000	 1.054106483798997e+001
 1.156410463008918e+000	 1.582500768222747e+000	 1.045502917222478e+001
 1.138971889568530e+000	 1.595097757037207e+000	 1.035670355876024e+001
 1.311786986867562e+000	 1.465260765469056e+000	 1.107177876065203e+001
 1.295536736009724e+000	 1.479648149667302e+000	 1.103166301220126e+001
 1.279134721735873e+000	 1.493850159797450e+000	 1.099126983359660e+001
 1.262584121695312e+000	 1.507864422904721e+000	 1.094870204446904e+001
 1.245888162350435e+000	 1.521688638661166e+000	 1.090224525678832e+001
 1.229050116902231e+000	 1.535320580598325e+000	 1.085034978444594e+001
 1.212073303179280e+000	 1.548758097268932e+000	 1.079161155358058e+001
 1.194961081493018e+000	 1.561999113336428e+000	 1.072475224706976e+001
 1.177716852462174e+000	 1.575041630591203e+000	 1.064859891906365e+001
 1.160344054809283e+000	 1.587883728892580e+000	 1.056206331572392e+001
 1.142846163132202e+000	 1.600523567035720e+000	 1.046412113647145e+001
 1.316233945738397e+000	 1.470228000563354e+000	 1.123576375731372e+001
 1.299928606517779e+000	 1.484664158004445e+000	 1.119289541860830e+001
 1.283470989403013e+000	 1.498914312959180e+000	 1.114905546889013e+001
 1.266864282815654e+000	 1.512976084428482e+000	 1.110256609203804e+001
 1.250111724155819e+000	 1.526847164286307e+000	 1.105195039447081e+001
 1.233216597720671e+000	 1.540525318516483e+000	 1.099591325167714e+001
 1.216182232586246e+000	 1.554008388378355e+000	 1.093332111337605e+001
 1.199012000455454e+000	 1.567294291499993e+000	 1.086318100774516e+001
 1.181709313475142e+000	 1.580381022897870e+000	 1.078461898769909e+001
 1.164277622025134e+000	 1.593266655922050e+000	 1.069685826252380e+001
 1.146720412482190e+000	 1.605949343126026e+000	 1.059919725630139e+001
 1.320680869034195e+000	 1.475195195923441e+000	 1.144269841061508e+001
 1.304320441891271e+000	 1.489680126217312e+000	 1.139497309750369e+001
 1.287807222380225e+000	 1.503978425611540e+000	 1.134544981628669e+001
 1.271144409694777e+000	 1.518087705062822e+000	 1.129275190244594e+001
 1.254335252172679e+000	 1.532005648647089e+000	 1.123572674106110e+001
 1.237383045207176e+000	 1.545730014800532e+000	 1.117342535462325e+001
 1.220291129121670e+000	 1.559258637489170e+000	 1.110508089907120e+001
 1.203062887010452e+000	 1.572589427305767e+000	 1.103008631605768e+001
 1.185701742548394e+000	 1.585720372492949e+000	 1.094797139210787e+001
 1.168211157772510e+000	 1.598649539891577e+000	 1.085837947570897e+001
 1.150594630838373e+000	 1.611375075813539e+000	 1.076104410149657e+001
 1.325127748972656e+000	 1.480162342857196e+000	 1.169160572889185e+001
 1.308712234444254e+000	 1.494696045528466e+000	 1.163678238656810e+001
 1.292143413078832e+000	 1.509042488892863e+000	 1.157923757983661e+001
 1.275424494842161e+000	 1.523199275862945e+000	 1.151797670830432e+001
 1.258558739009527e+000	 1.537164082716710e+000	 1.145225731496477e+001
 1.241549452070141e+000	 1.550934660342789e+000	 1.138156722040127e+001
 1.224399985594661e+000	 1.564508835413966e+000	 1.130560150654094e+001
 1.207113734068648e+000	 1.577884511487775e+000	 1.122423860609390e+001
 1.189694132694881e+000	 1.591059670033068e+000	 1.113751575659274e+001
 1.172144655167453e+000	 1.604032371381585e+000	 1.104560407839309e+001
 1.154468811420629e+000	 1.616800755603675e+000	 1.094878353413406e+001
 1.329574577771481e+000	 1.485129432672502e+000	 1.198151974045001e+001
 1.313103976490788e+000	 1.499711907160471e+000	 1.191722248015135e+001
 1.296479553910158e+000	 1.514106493941479e+000	 1.184921767834966e+001
 1.279704530767292e+000	 1.528310787884055e+000	 1.177697284980500e+001
 1.262782177274876e+000	 1.542322457468363e+000	 1.170024068355842e+001
 1.245715811017962e+000	 1.556139246035576e+000	 1.161903552938040e+001
 1.228508794814330e+000	 1.569758972965335e+000	 1.153360866686696e+001
 1.211164534540678e+000	 1.583179534780040e+000	 1.144442262200049e+001
 1.193686476927557e+000	 1.596398906174859e+000	 1.135212479891588e+001
 1.176078107326003e+000	 1.609415140972496e+000	 1.125752069514365e+001
 1.158342947448835e+000	 1.622226373001849e+000	 1.116154696676231e+001
 1.334021347648369e+000	 1.490096456677241e+000	 1.231148387008580e+001
 1.317495660344928e+000	 1.504727702335888e+000	 1.223520527526431e+001
 1.300815637285527e+000	 1.519170431895721e+000	 1.215420306626153e+001
 1.283984509979651e+000	 1.533422232181358e+000	 1.206848757805774e+001
 1.267005559577238e+000	 1.547480763875244e+000	 1.197839075639159e+001
 1.249882114759033e+000	 1.561343762771212e+000	 1.188454230543130e+001
 1.232617549589786e+000	 1.575009040955869e+000	 1.178784304060087e+001
 1.215215281337177e+000	 1.588474487916584e+000	 1.168943722300480e+001
 1.197678768259375e+000	 1.601738071574951e+000	 1.159068415259179e+001
 1.180011507364201e+000	 1.614797839244733e+000	 1.149312929782674e+001
 1.162217032142869e+000	 1.627651918513473e+000	 1.139847523783777e+001
 1.123474688779447e+000	 1.573394367852797e+000	 1.022172128118216e+001
 1.106153864645299e+000	 1.585619394299173e+000	 1.010475445707123e+001
 1.088716992972960e+000	 1.597642202083156e+000	 9.973034893967629e+000
 1.071167579766116e+000	 1.609461215647480e+000	 9.827606972436234e+000
 1.053509157420699e+000	 1.621074939663807e+000	 9.669566775141943e+000
 1.035745282457134e+000	 1.632481959511823e+000	 9.500042653294782e+000
 1.017879533245523e+000	 1.643680941682343e+000	 9.320176759513096e+000
 9.999155077266725e-001	 1.654670634104525e+000	 9.131102949541038e+000
 9.818568211318918e-001	 1.665449866397395e+000	 8.933948540816477e+000
 9.637071037044300e-001	 1.676017550046008e+000	 8.729794384500659e+000
 9.454699984254019e-001	 1.686372678502719e+000	 8.519677634464896e+000
 1.127348991396634e+000	 1.578820218538282e+000	 1.020942823343986e+001
 1.109968436397971e+000	 1.591087402990088e+000	 1.009348232865320e+001
 1.092471433671216e+000	 1.603151671428428e+000	 9.961717957937246e+000
 1.074861501310506e+000	 1.615011442862725e+000	 9.815171518043785e+000
 1.057142183893234e+000	 1.626665216808005e+000	 9.654931880055912e+000
 1.039317050204486e+000	 1.638111573765636e+000	 9.482120486453981e+000
 1.021389690954367e+000	 1.649349175627829e+000	 9.297872442668306e+000
 1.003363716491180e+000	 1.660376766005978e+000	 9.103314308757311e+000
 9.852427545133561e-001	 1.671193170483048e+000	 8.899564338757410e+000
 9.670304477830336e-001	 1.681797296790355e+000	 8.687693864811481e+000
 9.487304518441457e-001	 1.692188134909175e+000	 8.468728717224632e+000
 1.131223296920624e+000	 1.584246073293903e+000	 1.022844448831328e+001
 1.113783011012618e+000	 1.596555415782833e+000	 1.011345356819306e+001
 1.096225877186315e+000	 1.608661144906721e+000	 9.982292317252327e+000
 1.078555425626313e+000	 1.620561674241674e+000	 9.836012583494235e+000
 1.060775213091481e+000	 1.632255498146073e+000	 9.675719128529138e+000
 1.042888820631569e+000	 1.643741192242959e+000	 9.502549212028594e+000
 1.024899851296698e+000	 1.655017413825931e+000	 9.317653199959024e+000
 1.006811927842678e+000	 1.666082902188611e+000	 9.122172193060287e+000
 9.886286904350721e-001	 1.676936478877901e+000	 8.917236756852375e+000
 9.703537943549183e-001	 1.687577047871365e+000	 8.703929508334559e+000
 9.519909077089775e-001	 1.698003595679197e+000	 8.483285198276651e+000
 1.135097598571297e+000	 1.589671922625073e+000	 1.027784215099726e+001
 1.117597581813682e+000	 1.602023423109025e+000	 1.016390923512438e+001
 1.099980316947971e+000	 1.614170612877078e+000	 1.003416752710312e+001
 1.082249346249206e+000	 1.626111900072022e+000	 9.889707611543747e+000
 1.064408238657718e+000	 1.637845773895593e+000	 9.731673092117450e+000
 1.046460587487910e+000	 1.649370805092509e+000	 9.561239620115892e+000
 1.028410008129908e+000	 1.660685646357755e+000	 9.379594977313944e+000
 1.010260135747011e+000	 1.671789032667180e+000	 9.187916488254603e+000
 9.920146229719017e-001	 1.682679781531623e+000	 8.987368249930194e+000
 9.736771376045057e-001	 1.693356793174897e+000	 8.779064812806032e+000
 9.552513603143963e-001	 1.703819050636108e+000	 8.564069935624431e+000
 1.138971889568530e+000	 1.595097757037207e+000	 1.035670355876024e+001
 1.121412142125609e+000	 1.607491415400281e+000	 1.024409832911488e+001
 1.103734746385898e+000	 1.619680065698536e+000	 1.011675880569758e+001
 1.085943256714852e+000	 1.631662110641459e+000	 9.975837448422151e+000
 1.068041254234226e+000	 1.643436034274148e+000	 9.822539507016614e+000
 1.050032344523041e+000	 1.655000402463004e+000	 9.658101450348536e+000
 1.031920155311388e+000	 1.666353863304406e+000	 9.483770481818135e+000
 1.013708334170022e+000	 1.677495147456441e+000	 9.300785313988666e+000
 9.954005461987061e-001	 1.688423068393885e+000	 9.110353749251200e+000
 9.770004717162162e-001	 1.699136522586807e+000	 8.913653661865117e+000
 9.585118039549021e-001	 1.709634489603235e+000	 8.711794121025804e+000
 1.142846163132202e+000	 1.600523567035720e+000	 1.046412113647145e+001
 1.125226685272839e+000	 1.612959383088218e+000	 1.035327768164101e+001
 1.107489158929809e+000	 1.625189493730138e+000	 1.022948696173082e+001
 1.089637150558919e+000	 1.637212296237679e+000	 1.009398630701141e+001
 1.071674253463287e+000	 1.649026269499319e+000	 9.948065272729004e+000
 1.053604085486492e+000	 1.660629974503159e+000	 9.793043425795391e+000
 1.035430286698531e+000	 1.672022054746992e+000	 9.630249250559430e+000
 1.017156517077555e+000	 1.683201236571147e+000	 9.461000351265694e+000
 9.987864541903467e-001	 1.694166329414357e+000	 9.286580800243605e+000
 9.803237908744715e-001	 1.704916225992957e+000	 9.108240496668426e+000
 9.617722329249945e-001	 1.715449902403902e+000	 8.927157485062857e+000
 1.146720412482190e+000	 1.605949343126026e+000	 1.059919725630139e+001
 1.129041204579818e+000	 1.618427316604453e+000	 1.049071185098615e+001
 1.111243548009421e+000	 1.630698887330922e+000	 1.037177832453162e+001
 1.093331021317074e+000	 1.642762447148372e+000	 1.024374173195780e+001
 1.075307229987180e+000	 1.654616469788688e+000	 1.010799845192546e+001
 1.057175804127793e+000	 1.666259511361695e+000	 9.965973287323385e+000
 1.038940396148730e+000	 1.677690210766617e+000	 9.819097719208189e+000
 1.020604678435454e+000	 1.688907290026054e+000	 9.668789496280597e+000
 1.002172341021685e+000	 1.699909554542709e+000	 9.516429698536271e+000
 9.836470892636930e-001	 1.710695893279204e+000	 9.363360485094068e+000
 9.650326415191733e-001	 1.721265278861435e+000	 9.210848499102490e+000
 1.150594630838373e+000	 1.611375075813539e+000	 1.076104410149657e+001
 1.132855693370989e+000	 1.623895206380605e+000	 1.065567302058154e+001
 1.114997907054446e+000	 1.636208236859930e+000	 1.054306467682295e+001
 1.097024862524986e+000	 1.648312553661232e+000	 1.042469456667204e+001
 1.078940177448188e+000	 1.660206625359837e+000	 1.030208827147312e+001
 1.060747494196473e+000	 1.671889003187328e+000	 1.017679782840868e+001
 1.042450477519376e+000	 1.683358321444389e+000	 1.005037929033413e+001
 1.024052812209563e+000	 1.694613297835917e+000	 9.924371661408005e+000
 1.005558200767583e+000	 1.705652733728614e+000	 9.800273624326159e+000
 9.869703610683014e-001	 1.716475514331406e+000	 9.679539688589703e+000
 9.682930240319377e-001	 1.727080608799159e+000	 9.563544574219536e+000
 1.154468811420629e+000	 1.616800755603675e+000	 1.094878353413406e+001
 1.136670144970795e+000	 1.629363042848288e+000	 1.084744090061217e+001
 1.118752229494600e+000	 1.641717532676200e+000	 1.074278319003457e+001
 1.100718667718322e+000	 1.653862606063951e+000	 1.063643892217286e+001
 1.082573089488589e+000	 1.665796726430349e+000	 1.053008512460166e+001
 1.064319149442063e+000	 1.677518440128775e+000	 1.042542293038558e+001
 1.045960524667862e+000	 1.689026376861413e+000	 1.032415440146667e+001
 1.027500912365726e+000	 1.700319250015491e+000	 1.022796076952625e+001
 1.008944027502901e+000	 1.711395856921740e+000	 1.013847877511780e+001
 9.902936004727182e-001	 1.722255079035423e+000	 1.005729522671843e+001
 9.715533747577871e-001	 1.732895882040398e+000	 9.985912257151231e+000
 1.158342947448835e+000	 1.622226373001849e+000	 1.116154696676231e+001
 1.140484552703679e+000	 1.634830816439122e+000	 1.106530263281035e+001
 1.122506508759595e+000	 1.647226765138774e+000	 1.097037636210772e+001
 1.104412430432750e+000	 1.659412594644220e+000	 1.087857214772963e+001
 1.086205959750667e+000	 1.671386763217806e+000	 1.079174057418005e+001
 1.067890763614093e+000	 1.683147812334755e+000	 1.071175359812204e+001
 1.049470531451580e+000	 1.694694367098797e+000	 1.064048059290269e+001
 1.030948972869787e+000	 1.706025136579531e+000	 1.057976585366036e+001
 1.012329815302501e+000	 1.717138914071758e+000	 1.053140774239003e+001
 9.936168016613649e-001	 1.728034577277114e+000	 1.049713543945505e+001
 9.748136879912218e-001	 1.738711088408478e+000	 1.047860742335141e+001
 1.162217032142869e+000	 1.627651918513473e+000	 1.139847523783777e+001
 1.144298909894084e+000	 1.640298517584723e+000	 1.130855269836278e+001
 1.126260738279148e+000	 1.652735924606690e+000	 1.122529195773338e+001
 1.108106144203938e+000	 1.664962509689734e+000	 1.115069480326206e+001
 1.089838781876700e+000	 1.676976725939790e+000	 1.108680735707718e+001
 1.071462330462093e+000	 1.688777109953985e+000	 1.103569399611064e+001
 1.052980491727922e+000	 1.700362282237645e+000	 1.099941257526657e+001
 1.034396987687588e+000	 1.711730947542792e+000	 1.097999115571970e+001
 1.015715558241244e+000	 1.722881895128340e+000	 1.097940642246758e+001
 9.969399588186622e-001	 1.733813998942337e+000	 1.099956004728235e+001
 9.780739580267407e-001	 1.744526217726725e+000	 1.104227546720921e+001
 9.454699984254019e-001	 1.686372678502719e+000	 8.519677634464896e+000
 9.271519130027892e-001	 1.696512822322570e+000	 8.305251138354775e+000
 9.087537793314252e-001	 1.706438709573753e+000	 8.087100681389551e+000
 8.902792643757620e-001	 1.716149581185522e+000	 7.864643004201598e+000
 8.717320388004656e-001	 1.725644759681382e+000	 7.637194989506519e+000
 8.531157747611764e-001	 1.734923648915190e+000	 7.403971721302080e+000
 8.344341437159466e-001	 1.743985733737606e+000	 7.164086342099746e+000
 8.156908142598138e-001	 1.752830579594108e+000	 6.916551691389267e+000
 7.968894499849265e-001	 1.761457832055922e+000	 6.660283691507422e+000
 7.780337073685373e-001	 1.769867216285273e+000	 6.394106430639249e+000
 7.591272336911190e-001	 1.778058536436490e+000	 6.116758876950193e+000
 9.487304518441457e-001	 1.692188134909175e+000	 8.468728717224632e+000
 9.303491965016513e-001	 1.702363247016608e+000	 8.244187317797273e+000
 9.118876168640173e-001	 1.712323363691582e+000	 8.014467980893800e+000
 8.933493925412196e-001	 1.722067723245688e+000	 7.778896650926444e+000
 8.747382068562042e-001	 1.731595645866144e+000	 7.536695695394372e+000
 8.560577446280374e-001	 1.740906533350988e+000	 7.286982066678937e+000
 8.373116899757883e-001	 1.749999868774379e+000	 7.028767311633691e+000
 8.185037241456409e-001	 1.758875216083226e+000	 6.760959411678567e+000
 7.996375233636354e-001	 1.767532219626498e+000	 6.482366418669804e+000
 7.807167567163826e-001	 1.775970603618635e+000	 6.191701834972921e+000
 7.617450840619970e-001	 1.784190171538584e+000	 5.887591670056374e+000
 9.519909077089775e-001	 1.698003595679197e+000	 8.483285198276649e+000
 9.335464823992025e-001	 1.708213676100543e+000	 8.256708258061961e+000
 9.150214567476976e-001	 1.718208022225071e+000	 8.024463959484580e+000
 8.964195230099689e-001	 1.727985869746704e+000	 7.785854882364792e+000
 8.777443771672541e-001	 1.737546536516372e+000	 7.540076313809366e+000
 8.589997167020532e-001	 1.746889422276294e+000	 7.286214390824392e+000
 8.401892383944617e-001	 1.756014008324126e+000	 7.023246142817553e+000
 8.213166361418183e-001	 1.764919857108205e+000	 6.750041416442449e+000
 8.023855988040649e-001	 1.773606611755243e+000	 6.465366647373211e+000
 7.833998080771785e-001	 1.782073995531895e+000	 6.167890426337802e+000
 7.643629363969243e-001	 1.790321811241722e+000	 5.856190790233177e+000
 9.552513603143963e-001	 1.703819050636108e+000	 8.564069935624431e+000
 9.367437651004996e-001	 1.714064099336459e+000	 8.343698521843852e+000
 9.181552934985530e-001	 1.724092674876353e+000	 8.118140964460906e+000
 8.994896504095808e-001	 1.733904010332052e+000	 7.886743239960910e+000
 8.807505444731012e-001	 1.743497421218201e+000	 7.648740314117072e+000
 8.619416858350344e-001	 1.752872305221203e+000	 7.403254144256154e+000
 8.430667839364915e-001	 1.762028141862217e+000	 7.149293635855166e+000
 8.241295453259528e-001	 1.770964492091011e+000	 6.885756535895870e+000
 8.051336714972514e-001	 1.779680997812046e+000	 6.611433227096689e+000
 7.860828567557172e-001	 1.788177381344190e+000	 6.325012369455770e+000
 7.669807861147552e-001	 1.796453444815625e+000	 6.025088318614754e+000
 9.585118039549021e-001	 1.709634489603235e+000	 8.711794121025804e+000
 9.399410390105990e-001	 1.719914506486441e+000	 8.506028937753660e+000
 9.212891216326701e-001	 1.729977311347563e+000	 8.296535475711794e+000
 9.025597693676256e-001	 1.739822134645212e+000	 8.082769209096234e+000
 8.837567035132306e-001	 1.749448289557761e+000	 7.864070875808365e+000
 8.648836468787912e-001	 1.758855171715808e+000	 7.639664218813061e+000
 8.459443215664021e-001	 1.768042258864021e+000	 7.408655738627207e+000
 8.269424467756527e-001	 1.777009110453612e+000	 7.170036439571182e+000
 8.078817366342320e-001	 1.785755367166793e+000	 6.922685533651566e+000
 7.887658980567921e-001	 1.794280750374657e+000	 6.665376047809620e+000
 7.695986286343436e-001	 1.802585061530013e+000	 6.396782262920294e+000
 9.617722329249945e-001	 1.715449902403902e+000	 8.927157485062857e+000
 9.431382985345579e-001	 1.725764887312575e+000	 8.744556839352159e+000
 9.244229356661369e-001	 1.735861921340835e+000	 8.560668380089849e+000
 9.056298745116742e-001	 1.745740232329667e+000	 8.375122530025335e+000
 8.867628490271267e-001	 1.755399131121187e+000	 8.187431237071262e+000
 8.678255946851337e-001	 1.764838011290203e+000	 7.996985334783396e+000
 8.488218462487185e-001	 1.774056348804909e+000	 7.803053973143157e+000
 8.297553355685249e-001	 1.783053701617973e+000	 7.604786102709740e+000
 8.106297894060444e-001	 1.791829709189373e+000	 7.401213975973403e+000
 7.914489272851957e-001	 1.800384091942436e+000	 7.191258611145128e+000
 7.722164593745428e-001	 1.808716650654608e+000	 6.973737145822143e+000
 9.650326415191733e-001	 1.721265278861435e+000	 9.210848499102490e+000
 9.463355380774321e-001	 1.731615231576942e+000	 9.060126300367685e+000
 9.275567301150404e-001	 1.741746494558303e+000	 8.911545241233050e+000
 9.086999604692969e-001	 1.751658293028898e+000	 8.764975503502985e+000
 8.897689757542746e-001	 1.761349935494609e+000	 8.620165037274475e+000
 8.707675241058728e-001	 1.770820813474479e+000	 8.476736421147685e+000
 8.516993529479655e-001	 1.780070401160249e+000	 8.334185854297068e+000
 8.325682067821763e-001	 1.789098255006060e+000	 8.191884264133634e+000
 8.133778250037246e-001	 1.797904013249672e+000	 8.049080493564809e+000
 7.941319397457213e-001	 1.806487395366663e+000	 7.904906512787834e+000
 7.748342737542070e-001	 1.814848201459126e+000	 7.758384582291021e+000
 9.682930240319377e-001	 1.727080608799159e+000	 9.563544574219536e+000
 9.495327520442785e-001	 1.737465529041629e+000	 9.453568366184404e+000
 9.306904994954675e-001	 1.747631020702102e+000	 9.350156564940026e+000
 9.117700218680644e-001	 1.757576306386385e+000	 9.253483291223123e+000
 8.927750784341609e-001	 1.767300692264160e+000	 9.163596653501779e+000
 8.737094299928181e-001	 1.776803567798732e+000	 9.080414989094244e+000
 8.545768366286672e-001	 1.786084405405412e+000	 9.003725301104252e+000
 8.353810554942143e-001	 1.795142760039838e+000	 8.933183875796146e+000
 8.161258386183103e-001	 1.803978268717579e+000	 8.868319044804546e+000
 7.968149307431616e-001	 1.812590649966475e+000	 8.808536037010311e+000
 7.774520671921896e-001	 1.820979703213290e+000	 8.753123846173077e+000
 9.715533747577871e-001	 1.732895882040398e+000	 9.985912257151231e+000
 9.527299348401541e-001	 1.743315769468720e+000	 9.925701281686649e+000
 9.338242383235065e-001	 1.753515489474366e+000	 9.877478060200554e+000
 9.148400533355462e-001	 1.763494262045610e+000	 9.841784211189570e+000
 8.957811518062693e-001	 1.773251391015973e+000	 9.819031531275483e+000
 8.766513071977804e-001	 1.782786263793054e+000	 9.809497498964378e+000
 8.574542922553489e-001	 1.792098351015767e+000	 9.813323040592836e+000
 8.381938767822468e-001	 1.801187206141276e+000	 9.830512544201866e+000
 8.188738254408385e-001	 1.810052464962980e+000	 9.860936086334668e+000
 7.994978955823092e-001	 1.818693845061012e+000	 9.904333816680058e+000
 7.800698351073454e-001	 1.827111145186820e+000	 9.960322426248490e+000
 9.748136879912218e-001	 1.738711088408478e+000	 1.047860742335141e+001
 9.559270808701150e-001	 1.749165942620299e+000	 1.047733071554312e+001
 9.369579411152436e-001	 1.759399890577228e+000	 1.049447089598052e+001
 9.179100494993139e-001	 1.769412149650055e+000	 1.053100002813484e+001
 8.987871906100859e-001	 1.779202021336181e+000	 1.058775650960110e+001
 8.795931505725697e-001	 1.788768890987538e+000	 1.066543972077580e+001
 8.603317147925348e-001	 1.798112227466683e+000	 1.076460700451866e+001
 8.410066657238805e-001	 1.807231582732339e+000	 1.088567296388428e+001
 8.216217806623460e-001	 1.816126591355764e+000	 1.102891104373027e+001
 8.021808295679572e-001	 1.824796969969410e+000	 1.119445734141047e+001
 7.826875729185272e-001	 1.833242516649435e+000	 1.138231657201222e+001
 9.780739580267407e-001	 1.744526217726725e+000	 1.104227546720921e+001
 9.591241845392182e-001	 1.755016038258451e+000	 1.110924998101107e+001
 9.400916023867665e-001	 1.765284213712824e+000	 1.120208195385860e+001
 9.209800049869374e-001	 1.775329958843201e+000	 1.132223623909944e+001
 9.017931895850956e-001	 1.785152572810915e+000	 1.147104014046383e+001
 8.825349549689967e-001	 1.794751438912278e+000	 1.164967708847270e+001
 8.632090992047501e-001	 1.804126024233531e+000	 1.185918271906773e+001
 8.438194173967226e-001	 1.813275879234992e+000	 1.210044334312109e+001
 8.243696994738701e-001	 1.822200637265818e+000	 1.237419677365135e+001
 8.048637280048987e-001	 1.830900014010807e+000	 1.268103545643359e+001
 7.853052760445892e-001	 1.839373806870855e+000	 1.302141182941420e+001
 7.591272336911190e-001	 1.778058536436490e+000	 6.116758876950193e+000
 7.401708184701011e-001	 1.786032854945589e+000	 5.824430845843881e+000
 7.211709194066933e-001	 1.793788887867156e+000	 5.518888508674299e+000
 7.021311465288181e-001	 1.801326673544389e+000	 5.207056963187090e+000
 6.830550926306996e-001	 1.808646326353043e+000	 4.895870027143319e+000
 6.639463313706804e-001	 1.815748035804697e+000	 4.592244583672802e+000
 6.448084154108978e-001	 1.822632065596484e+000	 4.300184464969625e+000
 6.256448746004242e-001	 1.829298752609273e+000	 4.019785801446643e+000
 6.064592142033819e-001	 1.835748505856337e+000	 3.751242361346567e+000
 5.872549131734427e-001	 1.841981805384595e+000	 3.494880472254668e+000
 5.680354224760176e-001	 1.847999201130549e+000	 3.251195330499983e+000
 7.617450840619970e-001	 1.784190171538584e+000	 5.887591670056374e+000
 7.427232976405556e-001	 1.792191989486165e+000	 5.566681470724814e+000
 7.236578774226532e-001	 1.799974769088290e+000	 5.231261439392022e+000
 7.045524458853989e-001	 1.807538548820397e+000	 4.888230454052927e+000
 6.854106082127708e-001	 1.814883443452677e+000	 4.544494236982610e+000
 6.662359503868772e-001	 1.822009643150254e+000	 4.206963465142832e+000
 6.470320373212150e-001	 1.828917412519633e+000	 3.880322525542956e+000
 6.278024110375445e-001	 1.835607089603428e+000	 3.564771396588049e+000
 6.085505888878960e-001	 1.842079084825410e+000	 3.260443284710256e+000
 5.892800618231178e-001	 1.848333879887951e+000	 2.967619272890309e+000
 5.699942927092772e-001	 1.854372026624021e+000	 2.686764769183086e+000
 7.643629363969243e-001	 1.790321811241722e+000	 5.856190790233177e+000
 7.452757787260289e-001	 1.798351128648356e+000	 5.527394969384278e+000
 7.261448373044902e-001	 1.806160654951032e+000	 5.184195253697705e+000
 7.069737470586095e-001	 1.813750428757426e+000	 4.833314178489167e+000
 6.877661255621314e-001	 1.821120565232174e+000	 4.481477269460612e+000
 6.685255711209364e-001	 1.828271255193945e+000	 4.135412341464535e+000
 6.492556608998900e-001	 1.835202764158619e+000	 3.800249024445584e+000
 6.299599490934508e-001	 1.841915431330562e+000	 3.476251704374640e+000
 6.106419651415644e-001	 1.848409668544040e+000	 3.163330430904144e+000
 5.913052119922638e-001	 1.854685959156884e+000	 2.861565682442284e+000
 5.719531644122837e-001	 1.860744856898537e+000	 2.571238052043583e+000
 7.669807861147552e-001	 1.796453444815625e+000	 6.025088318614754e+000
 7.478282572597390e-001	 1.804510261653793e+000	 5.709282831313670e+000
 7.286317947000455e-001	 1.812346534630249e+000	 5.380556649540703e+000
 7.093950458111602e-001	 1.819962302484917e+000	 5.045307364554138e+000
 6.901216405565783e-001	 1.827357680776867e+000	 4.709929730905801e+000
 6.708151895659436e-001	 1.834532860978315e+000	 4.380815883052228e+000
 6.514792822554776e-001	 1.841488109514515e+000	 4.063255985129684e+000
 6.321174849923246e-001	 1.848223766751578e+000	 3.757574660058900e+000
 6.127333393043349e-001	 1.854740245934267e+000	 3.463291492303871e+000
 5.933303601367137e-001	 1.861038032075868e+000	 3.180132561925776e+000
 5.739120341568522e-001	 1.867117680802294e+000	 2.908040195473554e+000
 7.695986286343436e-001	 1.802585061530013e+000	 6.396782262920294e+000
 7.503807287749006e-001	 1.810669377724103e+000	 6.115020374320774e+000
 7.311187452571608e-001	 1.818532397300815e+000	 5.823174406388244e+000
 7.118163379057592e-001	 1.826174159132310e+000	 5.527169903844470e+000
 6.924771490739102e-001	 1.833594779172092e+000	 5.232921779214426e+000
 6.731048017149861e-001	 1.840794449545912e+000	 4.946335740193367e+000
 6.537028974965337e-001	 1.847773437588392e+000	 4.672593539522405e+000
 6.342750149583490e-001	 1.854532084827382e+000	 4.412046287343242e+000
 6.148247077161557e-001	 1.861070805918133e+000	 4.163672413930706e+000
 5.953555027123004e-001	 1.867390087529377e+000	 3.926691350240354e+000
 5.758708985147967e-001	 1.873490487183485e+000	 3.700555256995031e+000
 7.722164593745428e-001	 1.808716650654608e+000	 6.973737145822144e+000
 7.529331888047300e-001	 1.816828466080916e+000	 6.747247370901571e+000
 7.336056846236779e-001	 1.824718232137600e+000	 6.514840044048357e+000
 7.142376191051160e-001	 1.832385987829046e+000	 6.281823037577074e+000
 6.948326469919245e-001	 1.839831849503180e+000	 6.053483832360886e+000
 6.753944035611510e-001	 1.847056009939280e+000	 5.835092447412930e+000
 6.559265027316127e-001	 1.854058737381323e+000	 5.631470600148980e+000
 6.364325352157069e-001	 1.860840374518883e+000	 5.442931385902068e+000
 6.169160667169764e-001	 1.867401337417683e+000	 5.267778092785866e+000
 5.973806361748560e-001	 1.873742114401887e+000	 5.104572772087617e+000
 5.778297540579321e-001	 1.879863264890306e+000	 4.952127048894456e+000
 7.748342737542070e-001	 1.814848201459126e+000	 7.758384582291021e+000
 7.554856328824438e-001	 1.822987515945862e+000	 7.608568662808801e+000
 7.360926084474382e-001	 1.830904028315475e+000	 7.458308469021532e+000
 7.166588851719398e-001	 1.838597777704565e+000	 7.312150029633608e+000
 6.971881301884186e-001	 1.846068880855466e+000	 7.174607263400750e+000
 6.776839910975245e-001	 1.853317531200967e+000	 7.050166700954255e+000
 6.581500940692702e-001	 1.860343997894379e+000	 6.943055518081055e+000
 6.385900419885806e-001	 1.867148624786985e+000	 6.853454204498070e+000
 6.190074126467443e-001	 1.873731829354958e+000	 6.778873062613903e+000
 5.994057569802131e-001	 1.880094101577871e+000	 6.717067531213901e+000
 5.797885973580729e-001	 1.886236002770953e+000	 6.666059837132149e+000
 7.774520671921896e-001	 1.820979703213290e+000	 8.753123846173077e+000
 7.580380565412580e-001	 1.829146516540570e+000	 8.701554764090655e+000
 7.385795123762832e-001	 1.837089775009310e+000	 8.656298608666910e+000
 7.190801318689393e-001	 1.844809517888308e+000	 8.620996826869147e+000
 6.995435945411911e-001	 1.852305862314285e+000	 8.599245082282042e+000
 6.799735603171933e-001	 1.859579002373519e+000	 8.594600057801321e+000
 6.603736676180615e-001	 1.866629208128634e+000	 8.610476727042128e+000
 6.407475315011527e-001	 1.873456824592596e+000	 8.646799100028165e+000
 6.210987418454086e-001	 1.880062270652001e+000	 8.700182164433979e+000
 6.014308615842045e-001	 1.886446037941803e+000	 8.767426989323489e+000
 5.817474249870337e-001	 1.892608689673620e+000	 8.845619025876397e+000
 7.800698351073454e-001	 1.827111145186820e+000	 9.960322426248490e+000
 7.605904553143884e-001	 1.835305457086669e+000	 1.002874245286695e+001
 7.410663920580549e-001	 1.843275461393978e+000	 1.011149403346900e+001
 7.215013549588241e-001	 1.851021197509715e+000	 1.021117270698083e+001
 7.018990359280389e-001	 1.858542782964969e+000	 1.033031260476887e+001
 6.822631072132447e-001	 1.865840412499482e+000	 1.047139562145164e+001
 6.625972194865419e-001	 1.872914357085160e+000	 1.063682337399711e+001
 6.429049999776058e-001	 1.879764962896621e+000	 1.082611118282805e+001
 6.231900506529177e-001	 1.886392650230855e+000	 1.103489120317554e+001
 6.034559464426624e-001	 1.892797912378159e+000	 1.125886383099520e+001
 5.837062335166292e-001	 1.898981314446504e+000	 1.149403182799505e+001
 7.826875729185272e-001	 1.833242516649435e+000	 1.138231657201222e+001
 7.631428247350517e-001	 1.841464326805790e+000	 1.159263535210009e+001
 7.435532431405945e-001	 1.849461076644348e+000	 1.182654356767623e+001
 7.239225502043030e-001	 1.857232805698227e+000	 1.208545091422191e+001
 7.042544502267606e-001	 1.864779631892853e+000	 1.237068810877406e+001
 6.845526277787646e-001	 1.872101750621401e+000	 1.268351871474521e+001
 6.648207457832661e-001	 1.879199433765029e+000	 1.302514593654089e+001
 6.450624436421225e-001	 1.886073028659967e+000	 1.339449694855983e+001
 6.252813354092197e-001	 1.892722957013562e+000	 1.378614759074020e+001
 6.054810080114195e-001	 1.899149713771413e+000	 1.419455271493114e+001
 5.856650195186739e-001	 1.905353865937798e+000	 1.461448792183355e+001
 7.853052760445892e-001	 1.839373806870855e+000	 1.302141182941420e+001
 7.656951603364636e-001	 1.847623114919561e+000	 1.339570449961558e+001
 7.460400612717434e-001	 1.855646609935292e+000	 1.380406188857829e+001
 7.263437133680853e-001	 1.863444331583285e+000	 1.424656928324079e+001
 7.066098333151536e-001	 1.871016398183272e+000	 1.472321347839010e+001
 6.868421180068403e-001	 1.878363005781824e+000	 1.523389754004768e+001
 6.670442426167896e-001	 1.885484427169312e+000	 1.577845699207435e+001
 6.472198587188857e-001	 1.892381010843541e+000	 1.635502489699180e+001
 6.273725924542637e-001	 1.899053179922165e+000	 1.695706097580705e+001
 6.075060427463085e-001	 1.905501431006039e+000	 1.757763091185236e+001
 5.876237795649825e-001	 1.911726332995700e+000	 1.821014009459537e+001
 5.680354224760176e-001	 1.847999201130549e+000	 3.251195330499983e+000
 5.488041631848251e-001	 1.853801311271564e+000	 3.019238093319964e+000
 5.295645241072590e-001	 1.859388819616633e+000	 2.797388317114909e+000
 5.103198611286465e-001	 1.864762475731302e+000	 2.585470768013082e+000
 4.910734960175067e-001	 1.869923094099526e+000	 2.383573671589951e+000
 4.718287150019048e-001	 1.874871552788906e+000	 2.192052342720844e+000
 4.525887673990908e-001	 1.879608792083759e+000	 2.011526955715058e+000
 4.333568642990193e-001	 1.884135813088218e+000	 1.842874900054044e+000
 4.141361773022579e-001	 1.888453676301606e+000	 1.687218189708315e+000
 3.949298373126922e-001	 1.892563500168320e+000	 1.545906411788884e+000
 3.757409333853378e-001	 1.896466459604412e+000	 1.420495713294084e+000
 5.699942927092772e-001	 1.854372026624021e+000	 2.686764769183086e+000
 5.506967144176710e-001	 1.860194145342777e+000	 2.417041192735642e+000
 5.313907274419987e-001	 1.865800922211313e+000	 2.157262258264638e+000
 5.120796992403625e-001	 1.871193109380035e+000	 1.907740930905601e+000
 4.927669630364041e-001	 1.876371524141626e+000	 1.669079746336119e+000
 4.734558163907506e-001	 1.881337047591688e+000	 1.442172688545615e+000
 4.541495198259259e-001	 1.886090623257090e+000	 1.228201074666552e+000
 4.348512955053326e-001	 1.890633255694253e+000	 1.028623906559896e+000
 4.155643259668068e-001	 1.894966009059619e+000	 8.451631718539805e-001
 3.962917529111595e-001	 1.899090005654519e+000	 6.797845951507082e-001
 3.770366760460168e-001	 1.903006424446688e+000	 5.346743532328265e-001
 5.719531644122837e-001	 1.860744856898537e+000	 2.571238052043583e+000
 5.525892670705060e-001	 1.866586984209952e+000	 2.291517985413583e+000
 5.332169321469450e-001	 1.872213029616325e+000	 2.021502673343519e+000
 5.138395386724857e-001	 1.877623747852923e+000	 1.761762822791564e+000
 4.944604313259011e-001	 1.882819959021162e+000	 1.513182939380325e+000
 4.750829190003874e-001	 1.887802547244642e+000	 1.276961864495022e+000
 4.557102734237521e-001	 1.892572459292788e+000	 1.054607177635408e+000
 4.363457278328530e-001	 1.897130703174315e+000	 8.479239376441090e-001
 4.169924757028024e-001	 1.901478346702779e+000	 6.589982598143873e-001
 3.976536695313452e-001	 1.905616516036455e+000	 4.901762441824363e-001
 3.783324196787251e-001	 1.909546394194761e+000	 3.440387835709916e-001
 5.739120341568522e-001	 1.867117680802294e+000	 2.908040195473554e+000
 5.544818178312048e-001	 1.872979816686288e+000	 2.646077157149308e+000
 5.350431350260877e-001	 1.878625130611152e+000	 2.393458530979245e+000
 5.155993763451565e-001	 1.884054379897014e+000	 2.150784766524138e+000
 4.961538979223014e-001	 1.889268387454018e+000	 1.918992479936720e+000
 4.767100199832761e-001	 1.894268040433766e+000	 1.699354058871309e+000
 4.572710254611572e-001	 1.899054288848237e+000	 1.493470982262378e+000
 4.378401586662455e-001	 1.903628144158436e+000	 1.303261342058646e+000
 4.184206240109175e-001	 1.907990677835037e+000	 1.130942077835953e+000
 3.990155847898393e-001	 1.912143019893252e+000	 9.790064537976403e-001
 3.796281620158599e-001	 1.916086357404184e+000	 8.501973211584553e-001
 5.758708985147967e-001	 1.873490487183485e+000	 3.700555256995031e+000
 5.563743633876412e-001	 1.879372631584984e+000	 3.484087245198854e+000
 5.368693328834177e-001	 1.885037213975278e+000	 3.276440009746306e+000
 5.173592091785159e-001	 1.890484994259351e+000	 3.078018166536560e+000
 4.978473598619105e-001	 1.895716798156078e+000	 2.889583028470198e+000
 4.783371164918770e-001	 1.900733515845056e+000	 2.712251683776031e+000
 4.588317732067284e-001	 1.905536100580816e+000	 2.547489630217535e+000
 4.393345853901752e-001	 1.910125567276648e+000	 2.397097465312960e+000
 4.198487683918245e-001	 1.914502991060339e+000	 2.263192156994165e+000
 4.003774963032317e-001	 1.918669505804034e+000	 2.148183438077330e+000
 3.809239007898188e-001	 1.922626302630512e+000	 2.054745881632976e+000
 5.778297540579321e-001	 1.879863264890306e+000	 4.952127048894456e+000
 5.582669004276902e-001	 1.885765417719239e+000	 4.808877351187888e+000
 5.386955225229247e-001	 1.891449268488184e+000	 4.673719200470649e+000
 5.191190340927049e-001	 1.896915579686979e+000	 4.546638191215856e+000
 4.995408141810325e-001	 1.902165179843225e+000	 4.427995330382793e+000
 4.799642056786503e-001	 1.907198962164509e+000	 4.318525991906252e+000
 4.603925139290531e-001	 1.912017883147906e+000	 4.219332259477999e+000
 4.408290053893068e-001	 1.916622961158985e+000	 4.131869170367615e+000
 4.212769063461959e-001	 1.921015274982634e+000	 4.057925397817393e+000
 4.017394016881121e-001	 1.925195962347924e+000	 3.999598928900765e+000
 3.822196337329991e-001	 1.929166218429299e+000	 3.959268308704730e+000
 5.797885973580729e-001	 1.886236002770953e+000	 6.666059837132149e+000
 5.601594256392255e-001	 1.892158163902251e+000	 6.623737839376526e+000
 5.405217007485995e-001	 1.897861282929353e+000	 6.588530794158019e+000
 5.208788480078644e-001	 1.903346124926945e+000	 6.559784441356432e+000
 5.012342579159722e-001	 1.908613521231345e+000	 6.537236856397781e+000
 4.815912846960570e-001	 1.913664368078124e+000	 6.521017680834932e+000
 4.619532448967190e-001	 1.918499625206889e+000	 6.511640565022725e+000
 4.423234160483053e-001	 1.923120314435479e+000	 6.509989347819296e+000
 4.227050353747044e-001	 1.927527518205872e+000	 6.517298523591134e+000
 4.031012985610707e-001	 1.931722378104048e+000	 6.535128566560901e+000
 3.835153585777980e-001	 1.935706093356100e+000	 6.565336696835407e+000
 5.817474249870337e-001	 1.892608689673620e+000	 8.845619025876397e+000
 5.620519357101217e-001	 1.898550858947220e+000	 8.931921020620369e+000
 5.423478643644321e-001	 1.904273246078267e+000	 9.024072755886472e+000
 5.226386478441351e-001	 1.909776618726293e+000	 9.120561605017700e+000
 5.029276881030343e-001	 1.915061811036321e+000	 9.220282429960157e+000
 4.832183506965573e-001	 1.920129722271896e+000	 9.322537485072274e+000
 4.635139633783135e-001	 1.924981315415146e+000	 9.427029348212791e+000
 4.438178147518359e-001	 1.929617615736164e+000	 9.533847415812550e+000
 4.241331529780221e-001	 1.934039709333999e+000	 9.643448524558890e+000
 4.044631845386975e-001	 1.938248741651527e+000	 9.756632282556502e+000
 3.848110730566132e-001	 1.942245915966469e+000	 9.874511707476177e+000
 5.837062335166292e-001	 1.898981314446504e+000	 1.149403182799505e+001
 5.639444273282532e-001	 1.904943491667344e+000	 1.173664182236666e+001
 5.441740101744128e-001	 1.910685146714410e+000	 1.198350698498748e+001
 5.243984305216576e-001	 1.916207049832067e+000	 1.223204009910272e+001
 5.046211017785232e-001	 1.921510037974037e+000	 1.248007484195142e+001
 4.848454008326115e-001	 1.926595013431823e+000	 1.272586675618519e+001
 4.650746666424240e-001	 1.931462942430058e+000	 1.296808705512605e+001
 4.453121988845631e-001	 1.936114853691072e+000	 1.320580980992360e+001
 4.255612566568218e-001	 1.940551836970967e+000	 1.343849309323035e+001
 4.058250572375821e-001	 1.944775041569487e+000	 1.366595467474337e+001
 3.861067749018419e-001	 1.948785674815963e+000	 1.388834287900688e+001
 5.856650195186739e-001	 1.905353865937798e+000	 1.461448792183355e+001
 5.658368971814944e-001	 1.911336050875822e+000	 1.504107844500384e+001
 5.460001349825319e-001	 1.917096973617263e+000	 1.546995996183512e+001
 5.261581929605731e-001	 1.922637406991314e+000	 1.589725669796627e+001
 5.063144959787436e-001	 1.927958190760378e+000	 1.631952545301456e+001
 4.864724322566803e-001	 1.933060230243902e+000	 1.673375803126084e+001
 4.666353519576381e-001	 1.937944494909006e+000	 1.713737630409737e+001
 4.468065658311524e-001	 1.942612016930235e+000	 1.752822046324960e+001
 4.269893439117758e-001	 1.947063889720721e+000	 1.790453105101354e+001
 4.071869142743147e-001	 1.951301266437051e+000	 1.826492537502428e+001
 3.874024618458815e-001	 1.955325358460134e+000	 1.860836893053446e+001
 5.876237795649825e-001	 1.911726332995700e+000	 1.821014009459537e+001
 5.677293419577194e-001	 1.917728525385851e+000	 1.884837300488724e+001
 5.478262355927797e-001	 1.923508715566310e+000	 1.948652338155646e+001
 5.279179320810222e-001	 1.929067678951077e+000	 2.011921514935553e+001
 5.080078677400003e-001	 1.934406258111227e+000	 2.074151478377900e+001
 4.880994421212242e-001	 1.939525361394130e+000	 2.134893558998063e+001
 4.681960165925433e-001	 1.944425961509372e+000	 2.193743440272229e+001
 4.483009129762685e-001	 1.949109094083688e+000	 2.250340127693101e+001
 4.284174122435568e-001	 1.953575856187211e+000	 2.304364276636511e+001
 4.085487532654853e-001	 1.957827404833344e+000	 2.355535940975319e+001
 3.886981316211295e-001	 1.961864955454538e+000	 2.403611805969196e+001
 3.757409333853378e-001	 1.896466459604412e+000	 1.420495713294084e+000
 3.565753843284157e-001	 1.900163245559079e+000	 1.315908944850188e+000
 3.374333077030549e-001	 1.903655743049810e+000	 1.233969671664077e+000
 3.183176550561437e-001	 1.906945288345930e+000	 1.171815915611542e+000
 2.992313321576309e-001	 1.910033268048593e+000	 1.126617615894926e+000
 2.801771981265868e-001	 1.912921117535318e+000	 1.095552531088460e+000
 2.611580646121947e-001	 1.915610319394058e+000	 1.075781059887009e+000
 2.421766950293987e-001	 1.918102401848856e+000	 1.064420436689072e+000
 2.232358038488350e-001	 1.920398937179060e+000	 1.058518740494614e+000
 2.043380559406117e-001	 1.922501540134042e+000	 1.055029135219561e+000
 1.854860659714354e-001	 1.924411866345337e+000	 1.050784736743748e+000
 3.770366760460168e-001	 1.903006424446688e+000	 5.346743532328263e-001
 3.578050345906110e-001	 1.906715958768053e+000	 4.145312889666449e-001
 3.385969465114715e-001	 1.910220500136607e+000	 3.201665261722583e-001
 3.194153735338842e-001	 1.913521389429823e+000	 2.481635115277802e-001
 3.002632314483341e-001	 1.916620018030578e+000	 1.951128658946449e-001
 2.811433892335524e-001	 1.919517826266315e+000	 1.575886182524415e-001
 2.620586682346835e-001	 1.922216301837717e+000	 1.321233466310151e-001
 2.430118413962970e-001	 1.924716978238935e+000	 1.151826908589570e-001
 2.240056325498701e-001	 1.927021433171347e+000	 1.031396838991111e-001
 2.050427157553048e-001	 1.929131286952813e+000	 9.224932775234350e-002
 1.861257146959756e-001	 1.931048200924337e+000	 7.862381662880011e-002
 3.783324196787251e-001	 1.909546394194761e+000	 3.440387835709916e-001
 3.590346857752014e-001	 1.913268676892355e+000	 2.247127398127356e-001
 3.397605861927039e-001	 1.916785262147738e+000	 1.319057956778793e-001
 3.205130928349259e-001	 1.920097495446545e+000	 6.179850745294262e-002
 3.012951315128967e-001	 1.923206772953377e+000	 1.056531665867113e-002
 2.821095810650167e-001	 1.926114539945610e+000	-2.564943186651514e-002
 2.629592725323994e-001	 1.928822289236666e+000	-5.075658114555240e-002
 2.438469883892480e-001	 1.931331559590807e+000	-6.874788768552288e-002
 2.247754618278889e-001	 1.933643934131447e+000	-8.372192516883181e-002
 2.057473760980255e-001	 1.935761038744943e+000	-9.990973111831626e-002
 1.867653638997075e-001	 1.937684540481774e+000	-1.216997852286478e-001
 3.796281620158599e-001	 1.916086357404184e+000	 8.501973211584553e-001
 3.602643357302445e-001	 1.919821388465220e+000	 7.477903204093419e-001
 3.409242247103262e-001	 1.923350017595366e+000	 6.703645162398014e-001
 3.216108110381968e-001	 1.926673594888409e+000	 6.138475498844539e-001
 3.023270305454236e-001	 1.929793521290676e+000	 5.741590486308764e-001
 2.830757719300686e-001	 1.932711247029466e+000	 5.471858826431248e-001
 2.638598759292085e-001	 1.935428270030935e+000	 5.287562917193649e-001
 2.446821345466725e-001	 1.937946134329452e+000	 5.146133681291295e-001
 2.255452903356299e-001	 1.940266428470466e+000	 5.003883627881065e-001
 2.064520357355792e-001	 1.942390783908820e+000	 4.815742602486617e-001
 1.874050124632389e-001	 1.944320873404466e+000	 4.535000436211856e-001
 3.809239007898188e-001	 1.922626302630512e+000	 2.054745881632976e+000
 3.614939823037994e-001	 1.926374082019887e+000	 1.985092464802087e+000
 3.420878600279120e-001	 1.929914754991651e+000	 1.936713387431901e+000
 3.227085262226244e-001	 1.933249676247730e+000	 1.905431668929226e+000
 3.033589267400189e-001	 1.936380251516154e+000	 1.887071742012240e+000
 2.840419601377973e-001	 1.939307935974137e+000	 1.877433405153729e+000
 2.647604768489766e-001	 1.942034232660551e+000	 1.872264619613891e+000
 2.455172784069913e-001	 1.944560690879855e+000	 1.867233649871495e+000
 2.263151167258319e-001	 1.946888904599510e+000	 1.857901026878995e+000
 2.071566934347713e-001	 1.949020510842834e+000	 1.839691791250827e+000
 1.880446592671768e-001	 1.950957188079231e+000	 1.807868448527232e+000
 3.822196337329991e-001	 1.929166218429299e+000	 3.959268308704730e+000
 3.627236233439242e-001	 1.932926746089595e+000	 3.937939288478344e+000
 3.432514901090351e-001	 1.936479462848755e+000	 3.932117009534766e+000
 3.238062364671366e-001	 1.939825728016818e+000	 3.937666507493097e+000
 3.043908182907874e-001	 1.942966952103496e+000	 3.950474922748262e+000
 2.850081439972916e-001	 1.945904595235886e+000	 3.966423607636013e+000
 2.656610737155696e-001	 1.948640165565544e+000	 3.981359048327443e+000
 2.463524185086248e-001	 1.951175217666995e+000	 3.991063114239026e+000
 2.270849396512333e-001	 1.953511350929684e+000	 3.991223127847380e+000
 2.078613479624075e-001	 1.955650207945372e+000	 3.977402224888281e+000
 1.886843031921287e-001	 1.957593472892883e+000	 3.945010449332091e+000
 3.835153585777980e-001	 1.935706093356100e+000	 6.565336696835407e+000
 3.639532566986776e-001	 1.939479369207581e+000	 6.607642853382527e+000
 3.444151129172693e-001	 1.943044129678839e+000	 6.657734116016229e+000
 3.249039398506607e-001	 1.946401738687988e+000	 6.711662545955272e+000
 3.054227033918336e-001	 1.949553611526385e+000	 6.765534203696593e+000
 2.859743218176406e-001	 1.952501213270967e+000	 6.815478872186258e+000
 2.665616649528536e-001	 1.955246057185943e+000	 6.857618560353648e+000
 2.471875533899939e-001	 1.957789703115855e+000	 6.888035315089719e+000
 2.278547577645728e-001	 1.960133755872095e+000	 6.902738849307576e+000
 2.085659980852930e-001	 1.962279863614822e+000	 6.897634470194655e+000
 1.893239431187017e-001	 1.964229716232240e+000	 6.868491765484992e+000
 3.848110730566132e-001	 1.942245915966469e+000	 9.874511707476177e+000
 3.651828802161178e-001	 1.946031939907083e+000	 9.995507427659694e+000
 3.455787264161885e-001	 1.949608743994064e+000	 1.011471780141777e+001
 3.260016344521249e-001	 1.952977696753554e+000	 1.022852532242928e+001
 3.064545802372619e-001	 1.956140218258500e+000	 1.033340952108418e+001
 2.869404919079331e-001	 1.959097778535641e+000	 1.042591376707488e+001
 2.674622489846945e-001	 1.961851895961775e+000	 1.050261081348466e+001
 2.480226815895191e-001	 1.964404135651418e+000	 1.056006762707620e+001
 2.286245697185891e-001	 1.966756107837849e+000	 1.059481002845250e+001
 2.092706425702335e-001	 1.968909466249573e+000	 1.060328764156797e+001
 1.899635779275033e-001	 1.970865906484120e+000	 1.058183962506536e+001
 3.861067749018419e-001	 1.948785674815963e+000	 1.388834287900688e+001
 3.664124917443031e-001	 1.952584446721340e+000	 1.410282974025222e+001
 3.467423285693665e-001	 1.956173294306592e+000	 1.430421574475130e+001
 3.270993183504568e-001	 1.959553590705827e+000	 1.448935564871786e+001
 3.074864470211771e-001	 1.962726760773528e+000	 1.465525536637368e+001
 2.879066525772582e-001	 1.965694279486164e+000	 1.479903531745205e+001
 2.683628242349583e-001	 1.968457670333070e+000	 1.491789247285146e+001
 2.488578016456213e-001	 1.971018503698664e+000	 1.500906166107919e+001
 2.293943741660206e-001	 1.973378395238052e+000	 1.506977667647572e+001
 2.099752801840343e-001	 1.975539004248015e+000	 1.509723170531032e+001
 1.906032064991407e-001	 1.977502032035339e+000	 1.508854355808045e+001
 3.874024618458815e-001	 1.955325358460134e+000	 1.860836893053446e+001
 3.676420891312922e-001	 1.959136878183590e+000	 1.893089923047211e+001
 3.479059173403771e-001	 1.962737769128583e+000	 1.922737042851990e+001
 3.281969896245841e-001	 1.966129409037122e+000	 1.949524982206868e+001
 3.085183019376836e-001	 1.969313227545150e+000	 1.973222101364127e+001
 2.888728021347050e-001	 1.972290704578797e+000	 1.993614327083033e+001
 2.692633891275109e-001	 1.975063368739857e+000	 2.010500953657006e+001
 2.496929120967210e-001	 1.977632795682577e+000	 2.023690367163380e+001
 2.301641697596060e-001	 1.980000606483809e+000	 2.032995748894592e+001
 2.106799096935010e-001	 1.982168466008534e+000	 2.038230811366414e+001
 1.912428277142213e-001	 1.984138081272714e+000	 2.039205617441152e+001
 3.886981316211295e-001	 1.961864955454538e+000	 2.403611805969196e+001
 3.688716702251434e-001	 1.965689222827072e+000	 2.448099829267006e+001
 3.490694906927941e-001	 1.969302156972200e+000	 2.488531935346140e+001
 3.292946463534344e-001	 1.972705140239751e+000	 2.524729983282505e+001
 3.095501431808860e-001	 1.975899607047047e+000	 2.556545074257743e+001
 2.898389388893622e-001	 1.978887042269796e+000	 2.583853035747331e+001
 2.701639420862184e-001	 1.981668979622164e+000	 2.606549765514011e+001
 2.505280114812389e-001	 1.984247000028137e+000	 2.624546495653232e+001
 2.309339551520840e-001	 1.986622729986227e+000	 2.637765034637326e+001
 2.113845298654391e-001	 1.988797839929521e+000	 2.646133042664394e+001
 1.918824404533524e-001	 1.990774042583062e+000	 2.649579392675297e+001
 1.854860659714354e-001	 1.924411866345337e+000	 1.050784736743747e+000
 1.666795873163122e-001	 1.926131854578701e+000	 1.042921270177315e+000
 1.479239976651079e-001	 1.927662937623752e+000	 1.033793212525623e+000
 1.292217968681999e-001	 1.929006885470733e+000	 1.028137254244374e+000
 1.105754314834638e-001	 1.930165502693479e+000	 1.030899104121912e+000
 9.198729443641961e-002	 1.931140626858904e+000	 1.047192221888575e+000
 7.345972473058783e-002	 1.931934126944898e+000	 1.082259049352569e+000
 5.499500720709370e-002	 1.932547901768176e+000	 1.141434976302379e+000
 3.659537235251258e-002	 1.932983878423570e+000	 1.230115244247813e+000
 1.826299615391188e-002	 1.933244010736185e+000	 1.353724958045041e+000
 0.000000000000000e+000	 1.933330277727777e+000	 1.517692357555025e+000
 1.861257146959756e-001	 1.931048200924337e+000	 7.862381662880011e-002
 1.672543818963985e-001	 1.932774120537524e+000	 6.165865188942792e-002
 1.484341135914299e-001	 1.934310483522944e+000	 4.624347328078731e-002
 1.296674182522143e-001	 1.935659065974620e+000	 3.687900961862139e-002
 1.109567508736156e-001	 1.936821678689428e+000	 3.839623790983333e-002
 9.230451263318920e-002	 1.937800165571101e+000	 5.591078650368406e-002
 7.371305060054152e-002	 1.938596402042668e+000	 9.477981281823215e-002
 5.518465749610375e-002	 1.939212293468885e+000	 1.605616066505203e-001
 3.672157149831509e-002	 1.939649773590140e+000	 2.589781360045031e-001
 1.832597609816476e-002	 1.939910802969275e+000	 3.958807184281393e-001
 0.000000000000000e+000	 1.939997367452674e+000	 5.772189822815218e-001
 1.867653638997075e-001	 1.937684540481774e+000	-1.216997852286478e-001
 1.678291769069630e-001	 1.939416391479403e+000	-1.466835421365946e-001
 1.489442298996582e-001	 1.940958034409341e+000	-1.668565872970564e-001
 1.301130399697185e-001	 1.942311251469391e+000	-1.780251678840036e-001
 1.113380705490088e-001	 1.943477859679464e+000	-1.755921575319402e-001
 9.262173106713363e-002	 1.944459709280108e+000	-1.546055494543647e-001
 7.396637665979752e-002	 1.945258682139485e+000	-1.098044668233324e-001
 5.537430792675029e-002	 1.945876690170387e+000	-3.566242817366936e-002
 3.684777073830714e-002	 1.946315673758754e+000	 7.357235945742072e-002
 1.838895608939113e-002	 1.946577600205162e+000	 2.238398721445758e-001
 0.000000000000000e+000	 1.946664462180621e+000	 4.212344787708660e-001
 1.874050124632389e-001	 1.944320873404466e+000	 4.535000436211856e-001
 1.684039713421517e-001	 1.946058655780712e+000	 4.220652389110113e-001
 1.494543456971769e-001	 1.947605578650012e+000	 3.986960606951666e-001
 1.305586612410129e-001	 1.948963430313925e+000	 3.872107993850885e-001
 1.117193898425177e-001	 1.950134034015393e+000	 3.918564507318693e-001
 9.293894918333731e-002	 1.951119246331762e+000	 4.172587502031106e-001
 7.421970246526738e-002	 1.951920955576322e+000	 4.683747302894234e-001
 5.556395816736891e-002	 1.952541080209884e+000	 5.504480706528011e-001
 3.697396985182630e-002	 1.952981567263934e+000	 6.689674752848521e-001
 1.845193601748944e-002	 1.953244390776765e+000	 8.296282752360724e-001
 0.000000000000000e+000	 1.953331550244001e+000	 1.038297435791600e+000
 1.880446592671768e-001	 1.950957188079231e+000	 1.807868448527232e+000
 1.689787641961108e-001	 1.952700901817834e+000	 1.772027862118879e+000
 1.499644600913704e-001	 1.954253104612022e+000	 1.747056197207654e+000
 1.310042812863981e-001	 1.955615590867102e+000	 1.736330291163877e+000
 1.121007080870163e-001	 1.956790190049017e+000	 1.743633531149329e+000
 9.325616642688482e-002	 1.957778765071903e+000	 1.773105830473826e+000
 7.447302757386264e-002	 1.958583210694152e+000	 1.829196199991675e+000
 5.575360788629531e-002	 1.959205451924581e+000	 1.916618188597642e+000
 3.710016861821008e-002	 1.959647442440198e+000	 2.040308430405949e+000
 1.851491577235813e-002	 1.959911163016998e+000	 2.205388499838880e+000
 0.000000000000000e+000	 1.959998619975199e+000	 2.417130255710712e+000
 1.886843031921287e-001	 1.957593472892883e+000	 3.945010449332091e+000
 1.695535544629862e-001	 1.959343117967145e+000	 3.907280466584452e+000
 1.504745721896229e-001	 1.960900600662440e+000	 3.882331317613164e+000
 1.314498993261746e-001	 1.962267721487796e+000	 3.873034860349479e+000
 1.124820246153789e-001	 1.963446316132141e+000	 3.882600161134858e+000
 9.357338224286063e-002	 1.964438253846369e+000	 3.914524818395202e+000
 7.472635154249487e-002	 1.965245435833950e+000	 3.972548985266184e+000
 5.594325675186510e-002	 1.965869793651682e+000	 4.060612365893777e+000
 3.722636681679602e-002	 1.966313287622068e+000	 4.182814422951066e+000
 1.857789524389567e-002	 1.966577905258778e+000	 4.343377996874361e+000
 0.000000000000000e+000	 1.966665659706596e+000	 4.546616516795442e+000
 1.893239431187017e-001	 1.964229716232240e+000	 6.868491765484992e+000
 1.701283411369239e-001	 1.965985292605024e+000	 6.831853400429644e+000
 1.509846810993186e-001	 1.967548055168333e+000	 6.808582579178015e+000
 1.318955145806430e-001	 1.968919810534888e+000	 6.800985087036049e+000
 1.128633387604796e-001	 1.970102400616570e+000	 6.811587687411534e+000
 9.389059607634927e-002	 1.971097701000996e+000	 6.843092189109230e+000
 7.497967392807554e-002	 1.971907619336689e+000	 6.898332348206216e+000
 5.613290443241391e-002	 1.972534093728390e+000	 6.980233876400925e+000
 3.735256422692166e-002	 1.972979091144063e+000	 7.091777789905587e+000
 1.864087432200049e-002	 1.973244605835021e+000	 7.235967295301898e+000
 0.000000000000000e+000	 1.973332657770577e+000	 7.415798387904330e+000
 1.899635779275033e-001	 1.970865906484120e+000	 1.058183962506536e+001
 1.707031232120701e-001	 1.972627414107849e+000	 1.054973213952761e+001
 1.514947859278417e-001	 1.974195456496769e+000	 1.052982572907343e+001
 1.323411262701038e-001	 1.975571846367256e+000	 1.052380141592996e+001
 1.132446498551925e-001	 1.976758431854105e+000	 1.053339837354830e+001
 9.420780737243523e-002	 1.977757094881625e+000	 1.056037212492818e+001
 7.523299428751630e-002	 1.978569749543343e+000	 1.060645574275643e+001
 5.632255059627736e-002	 1.979198340491909e+000	 1.067332431696696e+001
 3.747876062792453e-002	 1.979644841340705e+000	 1.076256291690910e+001
 1.870385289657105e-002	 1.979911253078644e+000	 1.087563823709552e+001
 0.000000000000000e+000	 1.979999602499524e+000	 1.101387409436646e+001
 1.906032064991407e-001	 1.977502032035339e+000	 1.508854355808045e+001
 1.712778996825707e-001	 1.979269470851999e+000	 1.506485818836684e+001
 1.520048857825763e-001	 1.980842793014815e+000	 1.505003201435441e+001
 1.327867336148576e-001	 1.982223817343778e+000	 1.504506497751593e+001
 1.136259572323918e-001	 1.983414398196552e+000	 1.505080603499484e+001
 9.452501557620298e-002	 1.984416423834092e+000	 1.506791686757323e+001
 7.548631217772864e-002	 1.985231814794886e+000	 1.509683878821746e+001
 5.651219491179111e-002	 1.985862522279442e+000	 1.513776310705671e+001
 3.760495579914217e-002	 1.986310526546513e+000	 1.519060516970726e+001
 1.876683085750579e-002	 1.986577835322561e+000	 1.525498224713218e+001
 0.000000000000000e+000	 1.986666482225822e+000	 1.533019543388381e+001
 1.912428277142213e-001	 1.984138081272714e+000	 2.039205617441152e+001
 1.718526695425717e-001	 1.985911451213851e+000	 2.038112996346753e+001
 1.525149797709069e-001	 1.987490053089539e+000	 2.037312907431696e+001
 1.332323358352050e-001	 1.988875711823331e+000	 2.036831839335859e+001
 1.140072602249516e-001	 1.990070287995715e+000	 2.036655666190055e+001
 9.484222013273704e-002	 1.991075676204236e+000	 2.036726706374032e+001
 7.573962715562410e-002	 1.991893803432292e+000	 2.036941124350200e+001
 5.670183704729077e-002	 1.992526627428193e+000	 2.037146699841134e+001
 3.773114951991211e-002	 1.992976135096009e+000	 2.037140984676798e+001
 1.882980809470318e-002	 1.993244340899691e+000	 2.036669863720184e+001
 0.000000000000000e+000	 1.993333285281853e+000	 2.035426534131550e+001
 1.918824404533524e-001	 1.990774042583062e+000	 2.649579392675297e+001
 1.724274317862193e-001	 1.992553343569785e+000	 2.650240365974489e+001
 1.530250670002175e-001	 1.994137225088007e+000	 2.650300181565071e+001
 1.336779321514465e-001	 1.995527518164795e+000	 2.649706656590068e+001
 1.143885581657461e-001	 1.996726089603397e+000	 2.648336903000206e+001
 9.515942048712194e-002	 1.997734840337895e+000	 2.645995210415457e+001
 7.599293877811425e-002	 1.998555703796535e+000	 2.642411298213189e+001
 5.689147667111200e-002	 1.999190644275366e+000	 2.637238959452376e+001
 3.785734156957191e-002	 1.999641655323712e+000	 2.630055115258417e+001
 1.889278449806165e-002	 1.999910758142949e+000	 2.620359294336359e+001
 0.000000000000000e+000	 2.000000000000000e+000	 2.607573550123975e+001
